     Program PWSCF v.5.1rc2 (svn rev. ) starts on 17Apr2018 at  8:41:10

     Current dimensions of program PWSCF are:
     Max number of different atomic species (ntypx) = 10
     Max number of k-points (npk) =  40000
     Max angular momentum in pseudopotentials (lmaxx) =  3
     Presently stress not available with electric field

     IMPORTANT: XC functional enforced from input :
     Exchange-correlation      = BEEF-VDW ( 1  4 27 13 2)
     Any further DFT definition will be discarded
     Please, verify this is what you really want

     Subspace diagonalization in iterative solution of the eigenvalue problem:
     a serial algorithm will be used

     bravais-lattice index     =            0
     lattice parameter (alat)  =       1.8897  a.u.
     unit-cell volume          =    3807.2308 (a.u.)^3
     number of atoms/cell      =           14
     number of atomic types    =            3
     number of electrons       =       235.00
     number of Kohn-Sham states=          127
     kinetic-energy cutoff     =      36.7493  Ry
     charge density cutoff     =     367.4932  Ry
     convergence threshold     =      1.0E-05
     mixing beta               =       0.3000
     number of iterations used =           10  plain     mixing
     Exchange-correlation      = BEEF-VDW ( 1  4 27 13 2)
     nstep                     =           50

     celldm(1)=   1.889726  celldm(2)=   0.000000  celldm(3)=   0.000000
     celldm(4)=   0.000000  celldm(5)=   0.000000  celldm(6)=   0.000000

     crystal axes: (cart. coord. in units of alat)
               a(1) = (   5.184823   0.000000   0.000000 )
               a(2) = (   2.592411   4.490188   0.000000 )
               a(3) = (   0.000000   0.000000  24.233390 )

     reciprocal axes: (cart. coord. in units 2 pi/alat)
               b(1) = (  0.192871 -0.111354  0.000000 )
               b(2) = (  0.000000  0.222708  0.000000 )
               b(3) = (  0.000000  0.000000  0.041265 )

     PseudoPot. # 1 for Cu read from file:
     /home/mamunm/src/pseudo/gbrv1.5pbe/Cu.UPF
     MD5 check sum: 6e991ff952a84172a2a52a1c1e996048
     Pseudo is Ultrasoft + core correction, Zval = 19.0
     Generated by new atomic code, or converted to UPF format
     Using radial grid of  867 points,  6 beta functions with:
                l(1) =   0
                l(2) =   0
                l(3) =   1
                l(4) =   1
                l(5) =   2
                l(6) =   2
     Q(r) pseudized with  8 coefficients,  rinner =    1.150   1.150   1.150
                                                       1.150   1.150

     PseudoPot. # 2 for S  read from file:
     /home/mamunm/src/pseudo/gbrv1.5pbe/S.UPF
     MD5 check sum: 88d86576ff6df21479756cfb9bdac1df
     Pseudo is Ultrasoft + core correction, Zval =  6.0
     Generated by new atomic code, or converted to UPF format
     Using radial grid of  907 points,  6 beta functions with:
                l(1) =   0
                l(2) =   0
                l(3) =   1
                l(4) =   1
                l(5) =   2
                l(6) =   2
     Q(r) pseudized with  8 coefficients,  rinner =    1.300   1.300   1.300
                                                       1.300   1.300

     PseudoPot. # 3 for H  read from file:
     /home/mamunm/src/pseudo/gbrv1.5pbe/H.UPF
     MD5 check sum: 761ae9a214b05c3daf00ab9f6b793d6f
     Pseudo is Ultrasoft, Zval =  1.0
     Generated by new atomic code, or converted to UPF format
     Using radial grid of  615 points,  2 beta functions with:
                l(1) =   0
                l(2) =   0
     Q(r) pseudized with  8 coefficients,  rinner =    0.700

     vdW kernel table read from file vdW_kernel_table
     MD5 check sum: 095c7af220d748ca6e76c0b4c6cfb241

     atomic species   valence    mass     pseudopotential
        Cu1           19.00    63.54600     Cu( 1.00)
        S1             6.00    32.06000     S ( 1.00)
        H1             1.00     1.00800     H ( 1.00)

     No symmetry found

   Cartesian axes

     site n.     atom                  positions (alat units)
         1           Cu1 tau(   1) = (   1.2962057   0.7483647  10.0000000  )
         2           Cu1 tau(   2) = (   3.8886170   0.7483647  10.0000000  )
         3           Cu1 tau(   3) = (   2.5924113   2.9934587  10.0000000  )
         4           Cu1 tau(   4) = (   5.1848226   2.9934587  10.0000000  )
         5           Cu1 tau(   5) = (   5.1848226   1.4967294  12.1166950  )
         6           Cu1 tau(   6) = (   2.5924113   1.4967294  12.1166950  )
         7           Cu1 tau(   7) = (   6.4810283   3.7418234  12.1166950  )
         8           Cu1 tau(   8) = (   3.8886170   3.7418234  12.1166950  )
         9           Cu1 tau(   9) = (   0.0000000   0.0000000  14.2333899  )
        10           Cu1 tau(  10) = (   2.5924113   0.0000000  14.2333899  )
        11           Cu1 tau(  11) = (   1.2962057   2.2450940  14.2333899  )
        12           Cu1 tau(  12) = (   3.8886170   2.2450940  14.2333899  )
        13           S1  tau(  13) = (   2.5924113   1.4967294  15.7738899  )
        14           H1  tau(  14) = (   2.5924113   1.4967294  17.0238899  )

     number of k points=    20  Fermi-Dirac smearing, width (Ry)=  0.0110
                       cart. coord. in units 2pi/alat
        k(    1) = (   0.0000000   0.0000000   0.0000000), wk =   0.0555556
        k(    2) = (   0.0000000   0.0371180   0.0000000), wk =   0.1111111
        k(    3) = (   0.0000000   0.0742359   0.0000000), wk =   0.1111111
        k(    4) = (   0.0000000  -0.1113539   0.0000000), wk =   0.0555556
        k(    5) = (   0.0321451  -0.0185590   0.0000000), wk =   0.1111111
        k(    6) = (   0.0321451   0.0185590   0.0000000), wk =   0.1111111
        k(    7) = (   0.0321451   0.0556770   0.0000000), wk =   0.1111111
        k(    8) = (   0.0321451  -0.1299129   0.0000000), wk =   0.1111111
        k(    9) = (   0.0321451  -0.0927949   0.0000000), wk =   0.1111111
        k(   10) = (   0.0321451  -0.0556770   0.0000000), wk =   0.1111111
        k(   11) = (   0.0642902  -0.0371180   0.0000000), wk =   0.1111111
        k(   12) = (   0.0642902  -0.0000000   0.0000000), wk =   0.1111111
        k(   13) = (   0.0642902   0.0371180   0.0000000), wk =   0.1111111
        k(   14) = (   0.0642902  -0.1484719   0.0000000), wk =   0.1111111
        k(   15) = (   0.0642902  -0.1113539   0.0000000), wk =   0.1111111
        k(   16) = (   0.0642902  -0.0742359   0.0000000), wk =   0.1111111
        k(   17) = (  -0.0964353   0.0556770   0.0000000), wk =   0.0555556
        k(   18) = (  -0.0964353   0.0927949   0.0000000), wk =   0.1111111
        k(   19) = (  -0.0964353   0.1299129   0.0000000), wk =   0.1111111
        k(   20) = (  -0.0964353  -0.0556770   0.0000000), wk =   0.0555556

     Largest allocated arrays     est. size (Mb)     dimensions
     Largest temporary arrays     est. size (Mb)     dimensions

     Initial potential from superposition of free atoms

     starting charge  222.99993, renormalised to  235.00000

     negative rho (up, down):  1.038E-04 0.000E+00

     *
     * You are using vdW-DF for exchange-correlation in this calculation.
     * Please cite the following three references that made this development
     * possible:
     *
     *   M. Dion, H. Rydberg, E. Schroder, D. C. Langreth, and
     *   B. I. Lundqvist, Phys. Rev. Lett. 92, 246401 (2004).
     *
     *   T. Thonhauser, V. R. Cooper, S. Li, A. Puzder, P. Hyldgaard, and
     *   D. C. Langreth, Phys. Rev. B 76, 125112 (2007).
     *
     *   G. Roman-Perez and J. M. Soler, Phys. Rev. Lett. 103, 096102 (2009).
     *
     *
     * If you are using vdW-DF2, please also cite:
     *
     *   K. Lee, E. D. Murray, L. Kong, B. I. Lundqvist, and
     *   D. C. Langreth, Phys. Rev. B 82, 081101(R) (2010).
     *
     *
     * If you are calculating the stress with vdW-DF, please also cite:
     *
     *   R. Sabatini, E. Kucukbenli, B. Kolb, T. Thonhauser, and
     *   S. de Gironcoli, J. Phys.: Condens. Matter 24, 424209 (2012).
     *

     Carrying out vdW-DF run using the following parameters:

     Nqs =      20    Nr_points =    1024   r_max =   100.000
     q_mesh =
               0.00001000     0.04494208     0.09755937     0.15916263
               0.23128650     0.31572767     0.41458969     0.53033537
               0.66584808     0.82450364     1.01025438     1.22772762
               1.48234092     1.78043706     2.12944203     2.53805004
               3.01644009     3.57652955     4.23227104     5.00000000

     Gradients computed in reciprocal space

     Adding external electric field

     Computed dipole along edir(3) :
        Dipole               -2.7301 Ry au,         -6.9391 Debye
        Dipole field         -0.0090 Ry au

        Potential amp.        0.8047 Ry
        Total length         44.6496 bohr

     Starting wfc are  161 randomized atomic wfcs

     Self-consistent Calculation

     iteration #  1     ecut=    36.75 Ry     beta=0.30
     Davidson diagonalization with overlap
     ethr =  1.00E-02,  avg # of iterations =  8.2

[...]

     total energy              =   -4509.56416154 Ry
     Harris-Foulkes estimate   =   -4881.23187832 Ry
     estimated scf accuracy    <     781.92665697 Ry

[...]

     End of self-consistent calculation

          k = 0.0000 0.0000 0.0000 ( 14321 PWs)   bands (ev):

  -111.6537-111.6481-111.6477-111.3798-111.3748-111.3725-111.3066-111.1118
  -111.1055-111.1036-111.1021-111.0716 -69.1627 -69.1214 -69.1210 -69.0325
   -69.0321 -69.0081 -69.0043 -68.9822 -68.9818 -68.8035 -68.7962 -68.7949
   -68.7786 -68.7726 -68.7705 -68.7582 -68.7434 -68.7418 -68.7055 -68.6925
   -68.6923 -68.5622 -68.5616 -68.5578 -68.5102 -68.5098 -68.5094 -68.5004
   -68.5004 -68.4919 -68.4917 -68.4672 -68.4610 -68.4603 -68.4588 -68.4346
   -14.0321  -7.8998  -6.7140  -4.7914  -4.1852  -4.1852  -3.7119  -3.4079
    -3.2826  -3.2822  -3.1310  -3.0435  -3.0431  -2.9773  -2.8211  -2.8210
    -2.7275  -2.7274  -2.7029  -2.1915  -2.1914  -2.1408  -1.9818  -1.8902
    -1.8901  -1.7770  -1.7480  -1.7479  -1.6716  -1.6715  -1.6536  -1.5997
    -1.5534  -1.5532  -1.4271  -1.4270  -1.2937  -1.2587  -1.2583  -1.1130
    -1.0801  -1.0796  -0.9088  -0.9086  -0.8446  -0.8162  -0.8161  -0.7428
    -0.7426  -0.6990  -0.5549  -0.5534  -0.5530  -0.4791  -0.4789  -0.4741
    -0.4624  -0.4623  -0.3948  -0.3621  -0.3614  -0.1698  -0.1693  -0.1670
    -0.1447  -0.1446   0.1528   1.0585   1.2864   1.2865   1.8022   2.3469
     2.3471   2.6600   2.7525   2.7525   3.1210   4.4753   5.0016

[...]

          k =-0.0964 0.0557 0.0000 ( 14294 PWs)   bands (ev):

[...]

     the Fermi energy is     1.2185 ev

!    total energy              =   -4884.84770192 Ry
     Harris-Foulkes estimate   =   -4884.84770101 Ry
     estimated scf accuracy    <       0.00000442 Ry

     The total energy is the sum of the following terms:

     one-electron contribution =  -37935.55196071 Ry
     hartree contribution      =   18989.18564796 Ry
     xc contribution           =    -489.85948899 Ry
     ewald contribution        =   14551.40628757 Ry
     electric field correction =       0.00031265 Ry
     smearing contrib. (-TS)   =      -0.02850041 Ry

     convergence has been achieved in  33 iterations

 BEEF-vdW xc energy contributions
           1 :   -433.852845744411
           2 :    393.209119544585
           3 :   -324.316691974606
           4 :    246.063532621638
           5 :   -175.701335584069
           6 :    122.710671585650
           7 :   -87.2683071410059
           8 :    63.3142824384434
           9 :   -43.8358495333176
          10 :    25.1212771088191
          11 :   -7.84714650417936
          12 :   -4.94226047309428
          13 :    11.0345614280610
          14 :   -11.1001479059781
          15 :    8.38716507909527
          16 :   -6.59529908238051
          17 :    7.60495717406599
          18 :   -10.6312595098460
          19 :    13.2297643879101
          20 :   -13.2902369021193
          21 :    10.5690053133375
          22 :   -6.75951050535980
          23 :    4.18604947814777
          24 :   -4.14632297026947
          25 :    6.08279717328321
          26 :   -8.10091993680714
          27 :    8.38381495300848
          28 :   -6.46520813048772
          29 :    3.48320710515685
          30 :   -1.29607223224684
          31 :   -34.8693692479364
          32 :   -23.8433620950800

     Forces acting on atoms (Ry/au):

     negative rho (up, down):  9.417E-04 0.000E+00
     atom    1 type  1   force =     0.00097929    0.00075074    0.00096068
     atom    2 type  1   force =    -0.00098192    0.00076235    0.00087533
     atom    3 type  1   force =    -0.00000031   -0.00127148    0.00042275
     atom    4 type  1   force =    -0.00000054   -0.00015206    0.00186195
     atom    5 type  1   force =    -0.00005571    0.00133691    0.00602449
     atom    6 type  1   force =     0.00006587    0.00001886   -0.00702624
     atom    7 type  1   force =    -0.00125365   -0.00070225    0.00683599
     atom    8 type  1   force =     0.00125113   -0.00076828    0.00690436
     atom    9 type  1   force =     0.00000435    0.00014348   -0.01703059
     atom   10 type  1   force =    -0.00000966   -0.04943562   -0.02962526
     atom   11 type  1   force =    -0.04298311    0.02466130   -0.02970547
     atom   12 type  1   force =     0.04298856    0.02467836   -0.02970260
     atom   13 type  2   force =    -0.00000216   -0.00001148   -0.04550736
     atom   14 type  3   force =    -0.00000215   -0.00001082    0.13471196

     Total force =     0.174663     Total SCF correction =     0.004116

     entering subroutine stress ...

     negative rho (up, down):  9.417E-04 0.000E+00
          total   stress  (Ry/bohr**3)                   (kbar)     P=   -6.62
  -0.00008659   0.00000000   0.00000000        -12.74      0.00      0.00
   0.00000000  -0.00008664   0.00000000          0.00    -12.74      0.00
   0.00000000   0.00000000   0.00003826          0.00      0.00      5.63

     BFGS Geometry Optimization

     number of scf cycles    =   1
     number of bfgs steps    =   0

     energy   new            =   -4884.8477019243 Ry

     new trust radius        =       0.1347119597 bohr
     new conv_thr            =       0.0000099958 Ry

ATOMIC_POSITIONS (crystal)
Cu1      0.166666667   0.166666667   0.412653782    0   0   0
Cu1      0.666666667   0.166666667   0.412653782    0   0   0
Cu1      0.166666667   0.666666667   0.412653782    0   0   0
Cu1      0.666666667   0.666666667   0.412653782    0   0   0
Cu1      0.833333333   0.333333333   0.500000000    0   0   0
Cu1      0.333333333   0.333333333   0.500000000    0   0   0
Cu1      0.833333333   0.833333333   0.500000000    0   0   0
Cu1      0.333333333   0.833333333   0.500000000    0   0   0
Cu1     -0.000008011   0.000016910   0.586974326
Cu1      0.502912055  -0.005826082   0.586699300
Cu1     -0.005840165   0.502906382   0.586697549
Cu1      0.502933334   0.502908391   0.586697611
S1       0.333333789   0.333331980   0.649921803
H1       0.333333752   0.333332058   0.705438920

     Writing output data file calc.save
     NEW-OLD atomic charge density approx. for the potential

[...]

     iteration #  1     ecut=    36.75 Ry     beta=0.30
     Davidson diagonalization with overlap
     c_bands:  1 eigenvalues not converged
     c_bands:  1 eigenvalues not converged
     c_bands:  1 eigenvalues not converged
     c_bands:  1 eigenvalues not converged
     c_bands:  1 eigenvalues not converged
     c_bands:  1 eigenvalues not converged
     c_bands:  1 eigenvalues not converged
     ethr =  1.00E-06,  avg # of iterations = 11.1

[...]

     energy   old            =   -4884.8477019243 Ry
     energy   new            =   -4884.8657038683 Ry

     CASE: energy  _new < energy  _old

[...]

     Writing output data file calc.save
     NEW-OLD atomic charge density approx. for the potential
     Check: negative starting charge=   -0.000100

[...]

     Writing output data file calc.save
     Check: negative starting charge=   -0.000100
     NEW-OLD atomic charge density approx. for the potential
     Check: negative starting charge=   -0.000100

[...]

     Writing output data file calc.save
     Check: negative starting charge=   -0.000100
     NEW-OLD atomic charge density approx. for the potential
     Check: negative starting charge=   -0.000100

[...]

     iteration #  1     ecut=    36.75 Ry     beta=0.30
     Davidson diagonalization with overlap
     c_bands:  1 eigenvalues not converged
     c_bands:  1 eigenvalues not converged
     c_bands:  1 eigenvalues not converged
     ethr =  1.00E-06,  avg # of iterations =  9.2

[...]

     Writing output data file calc.save
     Check: negative starting charge=   -0.000100
     NEW-OLD atomic charge density approx. for the potential

[...]

     Total force =     0.014604     Total SCF correction =     0.001563
     SCF correction compared to forces is large: reduce conv_thr to get better values

[...]

     Total force =     0.008314     Total SCF correction =     0.000746

[...]

     number of scf cycles    =  14
     number of bfgs steps    =  13

     energy   old            =   -4884.8833258468 Ry
     energy   new            =   -4884.8833566098 Ry

     CASE: energy  _new < energy  _old

     new trust radius        =       0.0065334774 bohr
     new conv_thr            =       0.0000001000 Ry

ATOMIC_POSITIONS (crystal)
Cu1      0.166666667   0.166666667   0.412653782    0   0   0
Cu1      0.666666667   0.166666667   0.412653782    0   0   0
Cu1      0.166666667   0.666666667   0.412653782    0   0   0
Cu1      0.666666667   0.666666667   0.412653782    0   0   0
Cu1      0.833333333   0.333333333   0.500000000    0   0   0
Cu1      0.333333333   0.333333333   0.500000000    0   0   0
Cu1      0.833333333   0.833333333   0.500000000    0   0   0
Cu1      0.333333333   0.833333333   0.500000000    0   0   0
Cu1     -0.000002173   0.000004837   0.583016705
Cu1      0.505058184  -0.010116274   0.586667441
Cu1     -0.010131504   0.505062072   0.586666217
Cu1      0.505069187   0.505061586   0.586666156
S1       0.333330229   0.333338479   0.658485301
H1       0.333337569   0.333324484   0.714770992

     Writing output data file calc.save
     NEW-OLD atomic charge density approx. for the potential

[...]

     Self-consistent Calculation

[...]

     Threshold (ethr) on eigenvalues was too large:
     Diagonalizing with lowered threshold

     Davidson diagonalization with overlap
     ethr =  2.13E-08,  avg # of iterations =  2.5

[...]

     total energy              =   -4884.88336534 Ry
     Harris-Foulkes estimate   =   -4884.88336506 Ry
     estimated scf accuracy    <       0.00000010 Ry

     iteration #  7     ecut=    36.75 Ry     beta=0.30
     Davidson diagonalization with overlap
     ethr =  4.25E-11,  avg # of iterations =  2.0

[...]

     negative rho (up, down):  9.431E-04 0.000E+00

     Adding external electric field

     Computed dipole along edir(3) :
        Dipole                0.2007 Ry au,          0.5102 Debye
        Dipole field          0.0007 Ry au

        Potential amp.       -0.0592 Ry
        Total length         44.6496 bohr

     End of self-consistent calculation

[...]

          k = 0.0643-0.0742 0.0000 ( 14299 PWs)   bands (ev):

[...]

          k =-0.0964-0.0557 0.0000 ( 14294 PWs)   bands (ev):

  -111.6045-111.6025-111.6001-111.5991-111.5970-111.5954-111.5233-111.3218
  -111.3170-111.3155-111.3146-111.3133 -69.0625 -69.0400 -69.0288 -69.0199
   -69.0105 -69.0088 -69.0064 -69.0055 -69.0023 -68.9951 -68.9950 -68.9914
   -68.9904 -68.9840 -68.9699 -68.9596 -68.9569 -68.9497 -68.9186 -68.9162
   -68.9124 -68.7603 -68.7562 -68.7402 -68.7394 -68.7372 -68.7354 -68.7320
   -68.7314 -68.7129 -68.7093 -68.6833 -68.6783 -68.6742 -68.6719 -68.6708
   -12.9892  -6.6116  -5.6081  -5.2904  -4.1740  -3.6938  -3.4385  -3.3545
    -3.1615  -3.0949  -3.0489  -2.9633  -2.9358  -2.8325  -2.7211  -2.6653
    -2.5932  -2.5531  -2.4979  -2.4535  -2.3124  -2.2967  -2.2538  -2.2418
    -2.2076  -2.1638  -2.0354  -1.9658  -1.9141  -1.9035  -1.8856  -1.8047
    -1.7750  -1.7583  -1.6713  -1.6619  -1.6574  -1.6551  -1.6342  -1.5984
    -1.5745  -1.5529  -1.5187  -1.3894  -1.3495  -1.3444  -1.3016  -1.2560
    -1.2048  -1.1648  -1.1394  -1.0796  -1.0789  -1.0237  -1.0041  -0.9995
    -0.9426  -0.8922  -0.8906  -0.7684  -0.6769  -0.6622  -0.6334  -0.5767
    -0.5343  -0.2679  -0.2542  -0.1456   0.9408   0.9886   1.7183   1.9212
     2.3353   2.3766   4.0907   4.4426   4.5483   4.9653   5.3454

     the Fermi energy is     1.0056 ev

!    total energy              =   -4884.88336535 Ry
     Harris-Foulkes estimate   =   -4884.88336511 Ry
     estimated scf accuracy    <       0.00000002 Ry

     The total energy is the sum of the following terms:

     one-electron contribution =  -37989.41301233 Ry
     hartree contribution      =   19015.18461612 Ry
     xc contribution           =    -489.71078245 Ry
     ewald contribution        =   14579.08534856 Ry
     electric field correction =       0.00013300 Ry
     smearing contrib. (-TS)   =      -0.02966823 Ry

     convergence has been achieved in   7 iterations

 BEEF-vdW xc energy contributions
           1 :   -433.701461432111
           2 :    393.002375953847
           3 :   -324.047519104429
           4 :    245.776395652081
           5 :   -175.457714858663
           6 :    122.549507635501
           7 :   -87.1873763831959
           8 :    63.2809869182448
           9 :   -43.8161898049203
          10 :    25.1049426551696
          11 :   -7.85121837748454
          12 :   -4.89155090495984
          13 :    10.9262386640065
          14 :   -10.9507273785409
          15 :    8.23281826711764
          16 :   -6.47128023632843
          17 :    7.52834348795898
          18 :   -10.5982067837958
          19 :    13.2256302160901
          20 :   -13.3019782215570
          21 :    10.5901299119095
          22 :   -6.78666822484820
          23 :    4.21392581776297
          24 :   -4.16710276536827
          25 :    6.09099394603504
          26 :   -8.09861049828123
          27 :    8.38001293064696
          28 :   -6.46883068125265
          29 :    3.49563861756383
          30 :   -1.31070829057813
          31 :   -34.8586629115204
          32 :   -23.8189581696986

     Forces acting on atoms (Ry/au):

     negative rho (up, down):  9.431E-04 0.000E+00
     atom    1 type  1   force =     0.00080533    0.00046498    0.00299091
     atom    2 type  1   force =    -0.00080535    0.00046493    0.00299105
     atom    3 type  1   force =    -0.00000005   -0.00093009    0.00299049
     atom    4 type  1   force =    -0.00000000   -0.00000021    0.00101461
     atom    5 type  1   force =    -0.00000004    0.00465180   -0.00270716
     atom    6 type  1   force =    -0.00000005   -0.00000001   -0.00312392
     atom    7 type  1   force =    -0.00403045   -0.00232509   -0.00269833
     atom    8 type  1   force =     0.00403058   -0.00232507   -0.00269817
     atom    9 type  1   force =    -0.00000008   -0.00001312    0.00175138
     atom   10 type  1   force =    -0.00000021    0.00006589   -0.00045074
     atom   11 type  1   force =     0.00007921   -0.00002902   -0.00044522
     atom   12 type  1   force =    -0.00007896   -0.00002879   -0.00044491
     atom   13 type  2   force =     0.00000007    0.00000623    0.00050223
     atom   14 type  3   force =     0.00000000   -0.00000244    0.00032778

     Total force =     0.002011     Total SCF correction =     0.000550
     SCF correction compared to forces is large: reduce conv_thr to get better values

     entering subroutine stress ...

     negative rho (up, down):  9.431E-04 0.000E+00
          total   stress  (Ry/bohr**3)                   (kbar)     P=  -16.01
  -0.00011569  -0.00000000   0.00000000        -17.02     -0.00      0.00
  -0.00000000  -0.00011569  -0.00000000         -0.00    -17.02     -0.00
   0.00000000  -0.00000000  -0.00009515          0.00     -0.00    -14.00

     bfgs converged in  15 scf cycles and  14 bfgs steps
     (criteria: energy <  1.0E+00, force <  1.9E-03)

     End of BFGS Geometry Optimization

     Final energy   =   -4884.8833653463 Ry
Begin final coordinates

ATOMIC_POSITIONS (crystal)
Cu1      0.166666667   0.166666667   0.412653782    0   0   0
Cu1      0.666666667   0.166666667   0.412653782    0   0   0
Cu1      0.166666667   0.666666667   0.412653782    0   0   0
Cu1      0.666666667   0.666666667   0.412653782    0   0   0
Cu1      0.833333333   0.333333333   0.500000000    0   0   0
Cu1      0.333333333   0.333333333   0.500000000    0   0   0
Cu1      0.833333333   0.833333333   0.500000000    0   0   0
Cu1      0.333333333   0.833333333   0.500000000    0   0   0
Cu1     -0.000002173   0.000004837   0.583016705
Cu1      0.505058184  -0.010116274   0.586667441
Cu1     -0.010131504   0.505062072   0.586666217
Cu1      0.505069187   0.505061586   0.586666156
S1       0.333330229   0.333338479   0.658485301
H1       0.333337569   0.333324484   0.714770992
End final coordinates

     Writing output data file calc.save

     General routines

     Parallel routines

   This run was terminated on:   9:32: 6  17Apr2018

   JOB DONE.