     Program PWSCF v.5.1rc2 (svn rev. 11289) starts on  2May2018 at 21:30:54

     Current dimensions of program PWSCF are:
     Max number of different atomic species (ntypx) = 10
     Max number of k-points (npk) =  40000
     Max angular momentum in pseudopotentials (lmaxx) =  3
     Presently stress not available with electric field

     IMPORTANT: XC functional enforced from input :
     Exchange-correlation      = BEEF-VDW ( 1  4 27 13 2)
     Any further DFT definition will be discarded
     Please, verify this is what you really want

     Subspace diagonalization in iterative solution of the eigenvalue problem:
     a serial algorithm will be used

     bravais-lattice index     =            0
     lattice parameter (alat)  =       1.8897  a.u.
     unit-cell volume          =    4515.4205 (a.u.)^3
     number of atoms/cell      =           13
     number of atomic types    =            2
     number of electrons       =       241.00
     number of Kohn-Sham states=          130
     kinetic-energy cutoff     =      36.7493  Ry
     charge density cutoff     =     367.4932  Ry
     convergence threshold     =      1.0E-05
     mixing beta               =       0.3000
     number of iterations used =           10  plain     mixing
     Exchange-correlation      = BEEF-VDW ( 1  4 27 13 2)
     nstep                     =           50

     celldm(1)=   1.889726  celldm(2)=   0.000000  celldm(3)=   0.000000
     celldm(4)=   0.000000  celldm(5)=   0.000000  celldm(6)=   0.000000

     crystal axes: (cart. coord. in units of alat)
               a(1) = (   5.606773   0.000000   0.000000 )
               a(2) = (   2.803387   4.855608   0.000000 )
               a(3) = (   0.000000   0.000000  24.577911 )

     reciprocal axes: (cart. coord. in units 2 pi/alat)
               b(1) = (  0.178356 -0.102974  0.000000 )
               b(2) = (  0.000000  0.205947  0.000000 )
               b(3) = (  0.000000  0.000000  0.040687 )

     PseudoPot. # 1 for Zn read from file:
     /u/if/mamunm/psp/gbrv1.5pbe/Zn.UPF
     MD5 check sum: df62231357ef9e81f77b2b3087fa5675
     Pseudo is Ultrasoft, Zval = 20.0
     Generated by new atomic code, or converted to UPF format
     Using radial grid of  943 points,  6 beta functions with:
                l(1) =   0
                l(2) =   0
                l(3) =   1
                l(4) =   1
                l(5) =   2
                l(6) =   2
     Q(r) pseudized with  8 coefficients,  rinner =    1.100   1.100   1.100
                                                       1.100   1.100

     PseudoPot. # 2 for H  read from file:
     /u/if/mamunm/psp/gbrv1.5pbe/H.UPF
     MD5 check sum: 761ae9a214b05c3daf00ab9f6b793d6f
     Pseudo is Ultrasoft, Zval =  1.0
     Generated by new atomic code, or converted to UPF format
     Using radial grid of  615 points,  2 beta functions with:
                l(1) =   0
                l(2) =   0
     Q(r) pseudized with  8 coefficients,  rinner =    0.700

     vdW kernel table read from file vdW_kernel_table
     MD5 check sum: 095c7af220d748ca6e76c0b4c6cfb241

     atomic species   valence    mass     pseudopotential
        Zn1           20.00    65.38000     Zn( 1.00)
        H1             1.00     1.00800     H ( 1.00)

     No symmetry found

   Cartesian axes

     site n.     atom                  positions (alat units)
         1           Zn1 tau(   1) = (   1.4016933   0.8092680  10.0000000  )
         2           Zn1 tau(   2) = (   4.2050800   0.8092680  10.0000000  )
         3           Zn1 tau(   3) = (   2.8033867   3.2370721  10.0000000  )
         4           Zn1 tau(   4) = (   5.6067733   3.2370721  10.0000000  )
         5           Zn1 tau(   5) = (   5.6067733   1.6185360  12.2889556  )
         6           Zn1 tau(   6) = (   2.8033867   1.6185360  12.2889556  )
         7           Zn1 tau(   7) = (   7.0084667   4.0463401  12.2889556  )
         8           Zn1 tau(   8) = (   4.2050800   4.0463401  12.2889556  )
         9           Zn1 tau(   9) = (   0.0000000   0.0000000  14.5779113  )
        10           Zn1 tau(  10) = (   2.8033867   0.0000000  14.5779113  )
        11           Zn1 tau(  11) = (   1.4016933   2.4278041  14.5779113  )
        12           Zn1 tau(  12) = (   4.2050800   2.4278041  14.5779113  )
        13           H1  tau(  13) = (   1.4016933   0.0000000  15.7254113  )

     number of k points=    20  Fermi-Dirac smearing, width (Ry)=  0.0110
                       cart. coord. in units 2pi/alat
        k(    1) = (   0.0000000   0.0000000   0.0000000), wk =   0.0555556
        k(    2) = (   0.0000000   0.0343246   0.0000000), wk =   0.1111111
        k(    3) = (   0.0000000   0.0686491   0.0000000), wk =   0.1111111
        k(    4) = (   0.0000000  -0.1029737   0.0000000), wk =   0.0555556
        k(    5) = (   0.0297260  -0.0171623   0.0000000), wk =   0.1111111
        k(    6) = (   0.0297260   0.0171623   0.0000000), wk =   0.1111111
        k(    7) = (   0.0297260   0.0514869   0.0000000), wk =   0.1111111
        k(    8) = (   0.0297260  -0.1201360   0.0000000), wk =   0.1111111
        k(    9) = (   0.0297260  -0.0858114   0.0000000), wk =   0.1111111
        k(   10) = (   0.0297260  -0.0514869   0.0000000), wk =   0.1111111
        k(   11) = (   0.0594519  -0.0343246   0.0000000), wk =   0.1111111
        k(   12) = (   0.0594519   0.0000000   0.0000000), wk =   0.1111111
        k(   13) = (   0.0594519   0.0343246   0.0000000), wk =   0.1111111
        k(   14) = (   0.0594519  -0.1372983   0.0000000), wk =   0.1111111
        k(   15) = (   0.0594519  -0.1029737   0.0000000), wk =   0.1111111
        k(   16) = (   0.0594519  -0.0686491   0.0000000), wk =   0.1111111
        k(   17) = (  -0.0891779   0.0514869   0.0000000), wk =   0.0555556
        k(   18) = (  -0.0891779   0.0858114   0.0000000), wk =   0.1111111
        k(   19) = (  -0.0891779   0.1201360   0.0000000), wk =   0.1111111
        k(   20) = (  -0.0891779  -0.0514869   0.0000000), wk =   0.0555556

     Largest allocated arrays     est. size (Mb)     dimensions
     Largest temporary arrays     est. size (Mb)     dimensions

     Initial potential from superposition of free atoms
     Check: negative starting charge=   -0.000857

     starting charge  240.99830, renormalised to  241.00000

     negative rho (up, down):  8.570E-04 0.000E+00

     *
     * You are using vdW-DF for exchange-correlation in this calculation.
     * Please cite the following three references that made this development
     * possible:
     *
     *   M. Dion, H. Rydberg, E. Schroder, D. C. Langreth, and
     *   B. I. Lundqvist, Phys. Rev. Lett. 92, 246401 (2004).
     *
     *   T. Thonhauser, V. R. Cooper, S. Li, A. Puzder, P. Hyldgaard, and
     *   D. C. Langreth, Phys. Rev. B 76, 125112 (2007).
     *
     *   G. Roman-Perez and J. M. Soler, Phys. Rev. Lett. 103, 096102 (2009).
     *
     *
     * If you are using vdW-DF2, please also cite:
     *
     *   K. Lee, E. D. Murray, L. Kong, B. I. Lundqvist, and
     *   D. C. Langreth, Phys. Rev. B 82, 081101(R) (2010).
     *
     *
     * If you are calculating the stress with vdW-DF, please also cite:
     *
     *   R. Sabatini, E. Kucukbenli, B. Kolb, T. Thonhauser, and
     *   S. de Gironcoli, J. Phys.: Condens. Matter 24, 424209 (2012).
     *

     Carrying out vdW-DF run using the following parameters:

     Nqs =      20    Nr_points =    1024   r_max =   100.000
     q_mesh =
               0.00001000     0.04494208     0.09755937     0.15916263
               0.23128650     0.31572767     0.41458969     0.53033537
               0.66584808     0.82450364     1.01025438     1.22772762
               1.48234092     1.78043706     2.12944203     2.53805004
               3.01644009     3.57652955     4.23227104     5.00000000

     Gradients computed in reciprocal space

     Adding external electric field

     Computed dipole along edir(3) :
        Dipole                0.0000 Ry au,          0.0000 Debye
        Dipole field          0.0000 Ry au

        Potential amp.       -0.0000 Ry
        Total length         45.2844 bohr

     Starting wfc are  157 randomized atomic wfcs

     Self-consistent Calculation

     iteration #  1     ecut=    36.75 Ry     beta=0.30
     Davidson diagonalization with overlap
     ethr =  1.00E-02,  avg # of iterations =  2.0

     Threshold (ethr) on eigenvalues was too large:
     Diagonalizing with lowered threshold

     Davidson diagonalization with overlap
     ethr =  9.74E-05,  avg # of iterations =  3.8

[...]

     total energy              =   -5554.38765279 Ry
     Harris-Foulkes estimate   =   -5554.45277304 Ry
     estimated scf accuracy    <       0.24794804 Ry

[...]

     End of self-consistent calculation

          k = 0.0000 0.0000 0.0000 ( 16931 PWs)   bands (ev):

  -126.3739-126.3616-126.3610-126.3348-126.2867-126.2861-126.1964-126.1682
  -126.1416-126.1344-126.1338-126.1047 -80.5575 -80.5517 -80.5508 -80.5408
   -80.5402 -80.5401 -80.5369 -80.5368 -80.5306 -80.5116 -80.5105 -80.5050
   -80.4728 -80.4689 -80.4683 -80.4677 -80.4570 -80.4508 -80.3898 -80.3722
   -80.3623 -80.3622 -80.3436 -80.3320 -80.3316 -80.3246 -80.3240 -80.3178
   -80.3155 -80.3091 -80.3049 -80.3047 -80.3002 -80.2870 -80.2798 -80.2764
    -9.1628  -8.1668  -7.9226  -7.9140  -7.9123  -7.8917  -7.8515  -7.8364
    -7.8272  -7.7965  -7.7620  -7.7473  -7.6378  -7.6265  -7.6104  -7.4837
    -7.3903  -7.3742  -7.3707  -7.3693  -7.3534  -7.3345  -7.3322  -7.3294
    -7.2751  -7.2719  -7.2664  -7.2589  -7.2480  -7.1457  -7.1436  -7.0152
    -7.0032  -6.9935  -6.9887  -6.9548  -6.9502  -6.9490  -6.9328  -6.8957
    -6.8775  -6.8679  -6.8438  -6.8395  -6.8003  -6.7909  -6.7893  -6.7626
    -6.7547  -6.7491  -6.7432  -6.7255  -6.7224  -6.7206  -6.7130  -6.6961
    -6.6816  -6.6495  -6.6234  -6.5522  -6.5423  -6.5399  -4.5758  -2.7587
    -2.1732  -2.1732  -2.0874  -1.8083  -1.7955  -1.5411  -0.8755  -0.7705
    -0.7581  -0.0379   0.2425   0.2953   1.2691   2.0705   2.1581   2.3527
     2.6252   2.6260

[...]

          k =-0.0892 0.0515 0.0000 ( 17028 PWs)   bands (ev):

[...]

     the Fermi energy is     0.4114 ev

!    total energy              =   -5554.41895684 Ry
     Harris-Foulkes estimate   =   -5554.41895154 Ry
     estimated scf accuracy    <       0.00000863 Ry

     The total energy is the sum of the following terms:

     one-electron contribution =  -35522.92301600 Ry
     hartree contribution      =   17739.92577436 Ry
     xc contribution           =    -521.59633114 Ry
     ewald contribution        =   12750.19919948 Ry
     electric field correction =       0.00000090 Ry
     smearing contrib. (-TS)   =      -0.02458444 Ry

     convergence has been achieved in   8 iterations

 BEEF-vdW xc energy contributions
           1 :   -463.471712639151
           2 :    420.046064194598
           3 :   -347.223334602735
           4 :    266.156836260191
           5 :   -195.544723293796
           6 :    144.594256496121
           7 :   -111.794330979898
           8 :    89.2072060733913
           9 :   -68.9609429585474
          10 :    47.8513653096954
          11 :   -27.7697952655151
          12 :    12.6293312420268
          13 :   -4.56871958769960
          14 :    2.18162566714756
          15 :   -1.67213379179810
          16 :  -0.353877618306399
          17 :    4.71934490992447
          18 :   -9.62735121662729
          19 :    12.4995523338236
          20 :   -12.1315366740134
          21 :    9.54954351265275
          22 :   -7.08871903482003
          23 :    6.57074829691527
          24 :   -8.03743227229143
          25 :    9.93383755770282
          26 :   -10.4662687187035
          27 :    9.00370176913651
          28 :   -6.46533569257076
          29 :    4.49467135729407
          30 :   -4.15456592554034
          31 :   -35.8196787157320
          32 :   -24.4231150110584

     Forces acting on atoms (Ry/au):

     atom    1 type  1   force =     0.00000409   -0.00381216   -0.00409604
     atom    2 type  1   force =    -0.00000425   -0.00047475   -0.00709766
     atom    3 type  1   force =     0.00181343    0.00201855   -0.00736251
     atom    4 type  1   force =    -0.00181190    0.00202192   -0.00735740
     atom    5 type  1   force =     0.00442336   -0.00389749    0.00126114
     atom    6 type  1   force =    -0.00442165   -0.00389774    0.00126199
     atom    7 type  1   force =    -0.00000260    0.00215570   -0.00239271
     atom    8 type  1   force =     0.00000222    0.00304518    0.00470783
     atom    9 type  1   force =    -0.00957626    0.00143419    0.00996145
     atom   10 type  1   force =     0.00957765    0.00143320    0.00995814
     atom   11 type  1   force =    -0.00000025    0.01428494    0.00531980
     atom   12 type  1   force =    -0.00000351   -0.01673420    0.00246661
     atom   13 type  2   force =    -0.00000032    0.00242264   -0.00663065

     Total force =     0.030891     Total SCF correction =     0.016194
     SCF correction compared to forces is large: reduce conv_thr to get better values

     entering subroutine stress ...

          total   stress  (Ry/bohr**3)                   (kbar)     P=   -8.47
  -0.00012162  -0.00000000  -0.00000000        -17.89     -0.00     -0.00
  -0.00000000  -0.00008995   0.00000395         -0.00    -13.23      0.58
  -0.00000000   0.00000395   0.00003887         -0.00      0.58      5.72

     BFGS Geometry Optimization

     number of scf cycles    =   1
     number of bfgs steps    =   0

     energy   new            =   -5554.4189568374 Ry

     new trust radius        =       0.0169150106 bohr
     new conv_thr            =       0.0000099958 Ry

ATOMIC_POSITIONS (crystal)
Zn1      0.166666667   0.166666667   0.406869400    0   0   0
Zn1      0.666666667   0.166666667   0.406869400    0   0   0
Zn1      0.166666667   0.666666667   0.406869400    0   0   0
Zn1      0.666666667   0.666666667   0.406869400    0   0   0
Zn1      0.833333333   0.333333333   0.500000000    0   0   0
Zn1      0.333333333   0.333333333   0.500000000    0   0   0
Zn1      0.833333333   0.833333333   0.500000000    0   0   0
Zn1      0.333333333   0.833333333   0.500000000    0   0   0
Zn1     -0.000981975   0.000156302   0.593345076
Zn1      0.500825859   0.000156194   0.593345005
Zn1     -0.000778430   0.501556812   0.593245139
Zn1      0.500911538   0.498176262   0.593183708
H1       0.249867957   0.000264026   0.639676102

     Writing output data file calc.save
     Check: negative starting charge=   -0.000857
     NEW-OLD atomic charge density approx. for the potential
     Check: negative starting charge=   -0.000860

[...]

     energy   old            =   -5554.4189568374 Ry
     energy   new            =   -5554.4197124873 Ry

     CASE: energy  _new < energy  _old

[...]

     Total force =     0.022375     Total SCF correction =     0.000620

[...]

     WARNING: bfgs curvature condition failed, Theta= 0.629
     uphill step: resetting bfgs history

[...]

     WARNING: bfgs curvature condition failed, Theta= 0.866
     new trust radius        =       0.0126637366 bohr
     new conv_thr            =       0.0000001000 Ry

[...]

     Total force =     0.005904     Total SCF correction =     0.000299

[...]

     WARNING: bfgs curvature condition failed, Theta= 0.972
     new trust radius        =       0.0150970928 bohr
     new conv_thr            =       0.0000001000 Ry

[...]

     number of scf cycles    =  20
     number of bfgs steps    =  19

     energy   old            =   -5554.4261258117 Ry
     energy   new            =   -5554.4261553549 Ry

     CASE: energy  _new < energy  _old

     new trust radius        =       0.0103887489 bohr
     new conv_thr            =       0.0000001000 Ry

ATOMIC_POSITIONS (crystal)
Zn1      0.166666667   0.166666667   0.406869400    0   0   0
Zn1      0.666666667   0.166666667   0.406869400    0   0   0
Zn1      0.166666667   0.666666667   0.406869400    0   0   0
Zn1      0.666666667   0.666666667   0.406869400    0   0   0
Zn1      0.833333333   0.333333333   0.500000000    0   0   0
Zn1      0.333333333   0.333333333   0.500000000    0   0   0
Zn1      0.833333333   0.833333333   0.500000000    0   0   0
Zn1      0.333333333   0.833333333   0.500000000    0   0   0
Zn1     -0.008786968   0.003576202   0.602222996
Zn1      0.505213471   0.003574956   0.602222383
Zn1     -0.012219163   0.524438449   0.595340419
Zn1      0.509844148   0.480312520   0.592787361
H1       0.243310470   0.013376291   0.643239934

     Writing output data file calc.save
     Check: negative starting charge=   -0.000865
     NEW-OLD atomic charge density approx. for the potential
     Check: negative starting charge=   -0.000864

[...]

     Self-consistent Calculation

[...]

     Threshold (ethr) on eigenvalues was too large:
     Diagonalizing with lowered threshold

     Davidson diagonalization with overlap
     ethr =  6.41E-10,  avg # of iterations =  2.5

[...]

     total energy              =   -5554.42619538 Ry
     Harris-Foulkes estimate   =   -5554.42619537 Ry
     estimated scf accuracy    <       0.00000020 Ry

     iteration #  5     ecut=    36.75 Ry     beta=0.30
     Davidson diagonalization with overlap
     ethr =  8.19E-11,  avg # of iterations =  2.7

[...]

     negative rho (up, down):  1.051E-03 0.000E+00

     Adding external electric field

     Computed dipole along edir(3) :
        Dipole               -0.0093 Ry au,         -0.0236 Debye
        Dipole field         -0.0000 Ry au

        Potential amp.        0.0023 Ry
        Total length         45.2844 bohr

     End of self-consistent calculation

[...]

          k = 0.0595-0.0686 0.0000 ( 16986 PWs)   bands (ev):

[...]

          k =-0.0892-0.0515 0.0000 ( 17028 PWs)   bands (ev):

  -126.3175-126.3175-126.3142-126.2646-126.2054-126.2052-126.1347-126.1221
  -126.1179-126.1136-126.1136-126.0809 -80.4995 -80.4975 -80.4971 -80.4957
   -80.4943 -80.4920 -80.4919 -80.4889 -80.4858 -80.4437 -80.4413 -80.4357
   -80.3918 -80.3907 -80.3870 -80.3864 -80.3747 -80.3723 -80.3292 -80.3136
   -80.3124 -80.3094 -80.3045 -80.3045 -80.3000 -80.2959 -80.2938 -80.2913
   -80.2871 -80.2844 -80.2837 -80.2830 -80.2813 -80.2641 -80.2574 -80.2528
    -7.8256  -7.7981  -7.6853  -7.6250  -7.6194  -7.5996  -7.5879  -7.5395
    -7.5255  -7.5110  -7.4995  -7.4950  -7.4753  -7.4353  -7.4113  -7.3850
    -7.3646  -7.3056  -7.3015  -7.2829  -7.2685  -7.2628  -7.2576  -7.2405
    -7.2133  -7.1770  -7.1442  -7.1403  -7.1176  -7.1127  -7.1047  -7.0963
    -7.0669  -7.0500  -7.0304  -7.0188  -6.9987  -6.9818  -6.9706  -6.9614
    -6.9564  -6.9295  -6.9207  -6.9138  -6.8878  -6.8806  -6.8745  -6.8649
    -6.8492  -6.8169  -6.8107  -6.8017  -6.7951  -6.7850  -6.7236  -6.7173
    -6.7031  -6.6872  -6.6672  -6.6603  -6.6445  -6.6338  -5.5691  -5.2332
    -3.7919  -3.4327  -3.1643  -2.6051  -2.0211  -1.7897  -0.3836   0.6070
     0.7549   0.8146   2.5897   3.0606   3.0857   3.1896   3.3080   3.8662
     4.0882   4.1605

     the Fermi energy is     0.4603 ev

!    total energy              =   -5554.42619543 Ry
     Harris-Foulkes estimate   =   -5554.42619541 Ry
     estimated scf accuracy    <       0.00000004 Ry

     The total energy is the sum of the following terms:

     one-electron contribution =  -34968.97065217 Ry
     hartree contribution      =   17463.24409952 Ry
     xc contribution           =    -521.53953175 Ry
     ewald contribution        =   12472.86480960 Ry
     electric field correction =       0.00000024 Ry
     smearing contrib. (-TS)   =      -0.02492087 Ry

     convergence has been achieved in   5 iterations

 BEEF-vdW xc energy contributions
           1 :   -463.409047575032
           2 :    419.929533534061
           3 :   -347.040370317884
           4 :    265.943675250111
           5 :   -195.355902666965
           6 :    144.460479588414
           7 :   -111.702554462771
           8 :    89.1174992482316
           9 :   -68.8448821240287
          10 :    47.7194999475916
          11 :   -27.6647009572065
          12 :    12.5894549916251
          13 :   -4.59289794611976
          14 :    2.22461489667802
          15 :   -1.67687772500989
          16 :  -0.412172439681456
          17 :    4.81326114688073
          18 :   -9.69880405949840
          19 :    12.5065848439651
          20 :   -12.0834294920202
          21 :    9.50136015297784
          22 :   -7.09755690956752
          23 :    6.64748658887828
          24 :   -8.13293718021589
          25 :    9.97284192260241
          26 :   -10.4043281636631
          27 :    8.86384079580961
          28 :   -6.32607563511959
          29 :    4.43832308632699
          30 :   -4.21457744749029
          31 :   -35.8138555318673
          32 :   -24.4031827311751

     Forces acting on atoms (Ry/au):

     atom    1 type  1   force =    -0.00000033   -0.00311682   -0.00621513
     atom    2 type  1   force =    -0.00000129   -0.00075455   -0.00905288
     atom    3 type  1   force =     0.00151669    0.00163328   -0.00898194
     atom    4 type  1   force =    -0.00151636    0.00163297   -0.00898197
     atom    5 type  1   force =     0.00538965   -0.00453831    0.00884629
     atom    6 type  1   force =    -0.00538918   -0.00453888    0.00884692
     atom    7 type  1   force =    -0.00000037    0.00417096    0.00295331
     atom    8 type  1   force =     0.00000067    0.00357726    0.01404219
     atom    9 type  1   force =     0.00006156    0.00142578   -0.00068269
     atom   10 type  1   force =    -0.00006332    0.00142767   -0.00067678
     atom   11 type  1   force =     0.00000031   -0.00100773   -0.00082915
     atom   12 type  1   force =    -0.00000015   -0.00099352    0.00019960
     atom   13 type  2   force =     0.00000215    0.00108189    0.00053223

     Total force =     0.003031     Total SCF correction =     0.001323
     SCF correction compared to forces is large: reduce conv_thr to get better values

     entering subroutine stress ...

          total   stress  (Ry/bohr**3)                   (kbar)     P=  -17.36
  -0.00017941  -0.00000000   0.00000000        -26.39     -0.00      0.00
  -0.00000000  -0.00015183   0.00000341         -0.00    -22.33      0.50
   0.00000000   0.00000341  -0.00002287          0.00      0.50     -3.36

     bfgs converged in  21 scf cycles and  20 bfgs steps
     (criteria: energy <  1.0E+00, force <  1.9E-03)

     End of BFGS Geometry Optimization

     Final energy   =   -5554.4261954267 Ry
Begin final coordinates

ATOMIC_POSITIONS (crystal)
Zn1      0.166666667   0.166666667   0.406869400    0   0   0
Zn1      0.666666667   0.166666667   0.406869400    0   0   0
Zn1      0.166666667   0.666666667   0.406869400    0   0   0
Zn1      0.666666667   0.666666667   0.406869400    0   0   0
Zn1      0.833333333   0.333333333   0.500000000    0   0   0
Zn1      0.333333333   0.333333333   0.500000000    0   0   0
Zn1      0.833333333   0.833333333   0.500000000    0   0   0
Zn1      0.333333333   0.833333333   0.500000000    0   0   0
Zn1     -0.008786968   0.003576202   0.602222996
Zn1      0.505213471   0.003574956   0.602222383
Zn1     -0.012219163   0.524438449   0.595340419
Zn1      0.509844148   0.480312520   0.592787361
H1       0.243310470   0.013376291   0.643239934
End final coordinates

     Writing output data file calc.save

     General routines

     Parallel routines

   This run was terminated on:  23: 1:51   2May2018

   JOB DONE.
Job  /afs/slac/g/suncat/bin/suncat-tsmpirun -x LD_LIBRARY_PATH -wdir /scratch/qe268453_MwAGA pw.x -npool 4 -in pw.inp

TID   HOST_NAME   COMMAND_LINE            STATUS            TERMINATION_TIME
00000 suncat0064 pw.x -npool 4 -i  Done                     05/02/2018 23:01:51
00001 suncat0064 pw.x -npool 4 -i  Done                     05/02/2018 23:01:51
00002 suncat0064 pw.x -npool 4 -i  Done                     05/02/2018 23:01:51
00003 suncat0064 pw.x -npool 4 -i  Done                     05/02/2018 23:01:51
00004 suncat0064 pw.x -npool 4 -i  Done                     05/02/2018 23:01:51
00005 suncat0064 pw.x -npool 4 -i  Done                     05/02/2018 23:01:51
00006 suncat0064 pw.x -npool 4 -i  Done                     05/02/2018 23:01:51
00007 suncat0064 pw.x -npool 4 -i  Done                     05/02/2018 23:01:51
00008 suncat0027 pw.x -npool 4 -i  Done                     05/02/2018 23:01:51
00009 suncat0027 pw.x -npool 4 -i  Done                     05/02/2018 23:01:51
00010 suncat0027 pw.x -npool 4 -i  Done                     05/02/2018 23:01:51
00011 suncat0027 pw.x -npool 4 -i  Done                     05/02/2018 23:01:51
00012 suncat0027 pw.x -npool 4 -i  Done                     05/02/2018 23:01:51
00013 suncat0027 pw.x -npool 4 -i  Done                     05/02/2018 23:01:51
00014 suncat0027 pw.x -npool 4 -i  Done                     05/02/2018 23:01:51
00015 suncat0027 pw.x -npool 4 -i  Done                     05/02/2018 23:01:51
00016 suncat0193 pw.x -npool 4 -i  Done                     05/02/2018 23:01:51
00017 suncat0193 pw.x -npool 4 -i  Done                     05/02/2018 23:01:51
00018 suncat0193 pw.x -npool 4 -i  Done                     05/02/2018 23:01:51
00019 suncat0193 pw.x -npool 4 -i  Done                     05/02/2018 23:01:51
00020 suncat0193 pw.x -npool 4 -i  Done                     05/02/2018 23:01:51
00021 suncat0193 pw.x -npool 4 -i  Done                     05/02/2018 23:01:51
00022 suncat0193 pw.x -npool 4 -i  Done                     05/02/2018 23:01:51
00023 suncat0193 pw.x -npool 4 -i  Done                     05/02/2018 23:01:51
00024 suncat0190 pw.x -npool 4 -i  Done                     05/02/2018 23:01:51
00025 suncat0190 pw.x -npool 4 -i  Done                     05/02/2018 23:01:51
00026 suncat0190 pw.x -npool 4 -i  Done                     05/02/2018 23:01:51
00027 suncat0190 pw.x -npool 4 -i  Done                     05/02/2018 23:01:51
00028 suncat0190 pw.x -npool 4 -i  Done                     05/02/2018 23:01:51
00029 suncat0190 pw.x -npool 4 -i  Done                     05/02/2018 23:01:51
00030 suncat0190 pw.x -npool 4 -i  Done                     05/02/2018 23:01:51
00031 suncat0190 pw.x -npool 4 -i  Done                     05/02/2018 23:01:51