     Program PWSCF v.5.1rc2 (svn rev. 11289) starts on 17Jan2019 at  0:51: 8

     Current dimensions of program PWSCF are:
     Max number of different atomic species (ntypx) = 10
     Max number of k-points (npk) =  40000
     Max angular momentum in pseudopotentials (lmaxx) =  3

     IMPORTANT: XC functional enforced from input :
     Exchange-correlation      = BEEF-VDW ( 1  4 27 13 2)
     Any further DFT definition will be discarded
     Please, verify this is what you really want

     Subspace diagonalization in iterative solution of the eigenvalue problem:
     a serial algorithm will be used

     bravais-lattice index     =            0
     lattice parameter (alat)  =      12.7122  a.u.
     unit-cell volume          =    6741.9071 (a.u.)^3
     number of atoms/cell      =           13
     number of atomic types    =            2
     number of electrons       =       169.00
     number of Kohn-Sham states=           94
     kinetic-energy cutoff     =      36.7493  Ry
     charge density cutoff     =     367.4933  Ry
     convergence threshold     =      1.0E-04
     mixing beta               =       0.2000
     number of iterations used =            8  plain     mixing
     Exchange-correlation      = BEEF-VDW ( 1  4 27 13 2)
     nstep                     =           50

     celldm(1)=  12.712175  celldm(2)=   0.000000  celldm(3)=   0.000000
     celldm(4)=   0.000000  celldm(5)=   0.000000  celldm(6)=   0.000000

     crystal axes: (cart. coord. in units of alat)
               a(1) = (   1.000000   0.000000   0.000000 )
               a(2) = (   0.500000   0.866025   0.000000 )
               a(3) = (   0.000000   0.000000   3.789593 )

     reciprocal axes: (cart. coord. in units 2 pi/alat)
               b(1) = (  1.000000 -0.577350  0.000000 )
               b(2) = (  0.000000  1.154701  0.000000 )
               b(3) = (  0.000000  0.000000  0.263881 )

     PseudoPot. # 1 for Sn read from file:
     /nfs/slac/g/suncatfs/mamunm/src/decaf-espresso/gbrv15pbe/Sn.UPF
     MD5 check sum: 469debedee59599fedebd795477fea03
     Pseudo is Ultrasoft + core correction, Zval = 14.0
     Generated by new atomic code, or converted to UPF format
     Using radial grid of  891 points,  6 beta functions with:
                l(1) =   0
                l(2) =   0
                l(3) =   1
                l(4) =   1
                l(5) =   2
                l(6) =   2
     Q(r) pseudized with  8 coefficients,  rinner =    1.350   1.350   1.350
                                                       1.350   1.350

     PseudoPot. # 2 for H  read from file:
     /nfs/slac/g/suncatfs/mamunm/src/decaf-espresso/gbrv15pbe/H.UPF
     MD5 check sum: 761ae9a214b05c3daf00ab9f6b793d6f
     Pseudo is Ultrasoft, Zval =  1.0
     Generated by new atomic code, or converted to UPF format
     Using radial grid of  615 points,  2 beta functions with:
                l(1) =   0
                l(2) =   0
     Q(r) pseudized with  8 coefficients,  rinner =    0.700

     vdW kernel table read from file vdW_kernel_table
     MD5 check sum: 095c7af220d748ca6e76c0b4c6cfb241

     atomic species   valence    mass     pseudopotential
        Sn            14.00   118.71000     Sn( 1.00)
        H              1.00     1.00800     H ( 1.00)

     No symmetry found

   Cartesian axes

     site n.     atom                  positions (alat units)
         1           Sn  tau(   1) = (   0.2500000   0.1443376   1.4865483  )
         2           Sn  tau(   2) = (   0.7500000   0.1443376   1.4865483  )
         3           Sn  tau(   3) = (   0.5000000   0.5773503   1.4865483  )
         4           Sn  tau(   4) = (   1.0000000   0.5773503   1.4865483  )
         5           Sn  tau(   5) = (   1.0000000   0.2886751   1.8947966  )
         6           Sn  tau(   6) = (   0.5000000   0.2886751   1.8947966  )
         7           Sn  tau(   7) = (   1.2500000   0.7216878   1.8947966  )
         8           Sn  tau(   8) = (   0.7500000   0.7216878   1.8947966  )
         9           Sn  tau(   9) = (   0.0192136  -0.0027378   2.3488895  )
        10           Sn  tau(  10) = (   0.4807699  -0.0027360   2.3489302  )
        11           Sn  tau(  11) = (   0.2500083   0.4521306   2.2951868  )
        12           Sn  tau(  12) = (   0.7500069   0.4144721   2.2917949  )
        13           H   tau(  13) = (   0.2499920  -0.0059352   2.5480185  )

     number of k points=    20  Fermi-Dirac smearing, width (Ry)=  0.0110
                       cart. coord. in units 2pi/alat
        k(    1) = (   0.0000000   0.0000000   0.0000000), wk =   0.0555556
        k(    2) = (   0.0000000   0.1924501   0.0000000), wk =   0.1111111
        k(    3) = (   0.0000000   0.3849002   0.0000000), wk =   0.1111111
        k(    4) = (   0.0000000  -0.5773503   0.0000000), wk =   0.0555556
        k(    5) = (   0.1666667  -0.0962250   0.0000000), wk =   0.1111111
        k(    6) = (   0.1666667   0.0962250   0.0000000), wk =   0.1111111
        k(    7) = (   0.1666667   0.2886751   0.0000000), wk =   0.1111111
        k(    8) = (   0.1666667  -0.6735753   0.0000000), wk =   0.1111111
        k(    9) = (   0.1666667  -0.4811252   0.0000000), wk =   0.1111111
        k(   10) = (   0.1666667  -0.2886751   0.0000000), wk =   0.1111111
        k(   11) = (   0.3333333  -0.1924501   0.0000000), wk =   0.1111111
        k(   12) = (   0.3333333   0.0000000   0.0000000), wk =   0.1111111
        k(   13) = (   0.3333333   0.1924501   0.0000000), wk =   0.1111111
        k(   14) = (   0.3333333  -0.7698004   0.0000000), wk =   0.1111111
        k(   15) = (   0.3333333  -0.5773503   0.0000000), wk =   0.1111111
        k(   16) = (   0.3333333  -0.3849002   0.0000000), wk =   0.1111111
        k(   17) = (  -0.5000000   0.2886751   0.0000000), wk =   0.0555556
        k(   18) = (  -0.5000000   0.4811252   0.0000000), wk =   0.1111111
        k(   19) = (  -0.5000000   0.6735753   0.0000000), wk =   0.1111111
        k(   20) = (  -0.5000000  -0.2886751   0.0000000), wk =   0.0555556

     Largest allocated arrays     est. size (Mb)     dimensions
     Largest temporary arrays     est. size (Mb)     dimensions

     Initial potential from superposition of free atoms
     Check: negative starting charge=   -0.001478

     starting charge  156.99945, renormalised to  169.00000

     negative rho (up, down):  1.591E-03 0.000E+00

     *
     * You are using vdW-DF for exchange-correlation in this calculation.
     * Please cite the following three references that made this development
     * possible:
     *
     *   M. Dion, H. Rydberg, E. Schroder, D. C. Langreth, and
     *   B. I. Lundqvist, Phys. Rev. Lett. 92, 246401 (2004).
     *
     *   T. Thonhauser, V. R. Cooper, S. Li, A. Puzder, P. Hyldgaard, and
     *   D. C. Langreth, Phys. Rev. B 76, 125112 (2007).
     *
     *   G. Roman-Perez and J. M. Soler, Phys. Rev. Lett. 103, 096102 (2009).
     *
     *
     * If you are using vdW-DF2, please also cite:
     *
     *   K. Lee, E. D. Murray, L. Kong, B. I. Lundqvist, and
     *   D. C. Langreth, Phys. Rev. B 82, 081101(R) (2010).
     *
     *
     * If you are calculating the stress with vdW-DF, please also cite:
     *
     *   R. Sabatini, E. Kucukbenli, B. Kolb, T. Thonhauser, and
     *   S. de Gironcoli, J. Phys.: Condens. Matter 24, 424209 (2012).
     *

     Carrying out vdW-DF run using the following parameters:

     Nqs =      20    Nr_points =    1024   r_max =   100.000
     q_mesh =
               0.00001000     0.04494208     0.09755937     0.15916263
               0.23128650     0.31572767     0.41458969     0.53033537
               0.66584808     0.82450364     1.01025438     1.22772762
               1.48234092     1.78043706     2.12944203     2.53805004
               3.01644009     3.57652955     4.23227104     5.00000000

     Gradients computed in reciprocal space

     Adding external electric field

     Computed dipole along edir(3) :
        Dipole               -0.6288 Ry au,         -1.5982 Debye
        Dipole field         -0.0012 Ry au

        Potential amp.        0.1016 Ry
        Total length         43.3566 bohr

     Starting wfc are  109 randomized atomic wfcs

     Self-consistent Calculation

     iteration #  1     ecut=    36.75 Ry     beta=0.20
     Davidson diagonalization with overlap
     ethr =  1.00E-02,  avg # of iterations =  4.5

[...]

     total energy              =   -1929.79363044 Ry
     Harris-Foulkes estimate   =   -1935.18095794 Ry
     estimated scf accuracy    <      16.30584333 Ry

[...]

     End of self-consistent calculation

          k = 0.0000 0.0000 0.0000 ( 25377 PWs)   bands (ev):

   -21.4108 -21.3912 -21.3862 -21.3853 -21.3748 -21.3656 -21.3553 -21.3536
   -21.3440 -21.3410 -21.3385 -21.3347 -21.3316 -21.3286 -21.3253 -21.3219
   -21.3197 -21.3180 -21.3162 -21.3153 -21.3132 -21.3054 -21.3029 -21.3003
   -21.2993 -21.2965 -21.2957 -21.2933 -21.2902 -21.2853 -21.2756 -21.2703
   -21.2650 -21.2582 -21.2556 -21.2445 -21.2408 -21.2272 -21.2251 -21.2209
   -21.2105 -21.2033 -21.2002 -21.1942 -21.1933 -21.1923 -21.1892 -21.1891
   -21.1815 -21.1779 -21.1768 -21.1755 -21.1667 -21.1645 -21.1616 -21.1569
   -21.1552 -21.1514 -21.1447 -21.1407  -9.9989  -8.9132  -7.4126  -6.0977
    -5.9803  -5.9189  -5.7162  -5.5304  -5.3196  -4.8869  -4.7078  -4.5491
    -3.4640  -3.2579  -3.1749  -2.9177  -2.4598  -2.0596  -2.0386  -1.9216
    -1.8734  -1.8527  -0.7738   0.6792   1.5238   1.5762   1.6653   1.7081
     1.7714   2.5728   3.0301   3.3143   3.3540   3.4605

[...]

          k =-0.5000 0.2887 0.0000 ( 25386 PWs)   bands (ev):

[...]

     the Fermi energy is     0.7116 ev

!    total energy              =   -1929.45103857 Ry
     Harris-Foulkes estimate   =   -1929.45106523 Ry
     estimated scf accuracy    <       0.00003195 Ry

     The total energy is the sum of the following terms:

     one-electron contribution =  -10207.05266223 Ry
     hartree contribution      =    5166.75715756 Ry
     xc contribution           =    -534.53174380 Ry
     ewald contribution        =    3645.41615612 Ry
     electric field correction =       0.00001303 Ry
     smearing contrib. (-TS)   =      -0.03995926 Ry

     convergence has been achieved in  13 iterations

     Forces acting on atoms (Ry/au):

     negative rho (up, down):  4.070E-04 0.000E+00
     atom    1 type  1   force =    -0.00000487   -0.00544203   -0.01413965
     atom    2 type  1   force =     0.00000928   -0.00100684   -0.00772433
     atom    3 type  1   force =     0.00072700    0.00168465   -0.00729775
     atom    4 type  1   force =    -0.00070928    0.00170204   -0.00731106
     atom    5 type  1   force =     0.00046902   -0.00455443   -0.00274835
     atom    6 type  1   force =    -0.00046863   -0.00455349   -0.00273991
     atom    7 type  1   force =    -0.00001479    0.00298806   -0.00272034
     atom    8 type  1   force =    -0.00000113    0.00868750    0.00023421
     atom    9 type  1   force =    -0.00190943    0.00020652    0.01051369
     atom   10 type  1   force =     0.00191275    0.00020470    0.01051068
     atom   11 type  1   force =    -0.00000373   -0.00050499    0.01097651
     atom   12 type  1   force =    -0.00000446    0.00093392    0.01112151
     atom   13 type  2   force =    -0.00000172   -0.00034562    0.00132478

     Total force =     0.021808     Total SCF correction =     0.033562
     SCF correction compared to forces is large: reduce conv_thr to get better values

     BFGS Geometry Optimization

     number of scf cycles    =   1
     number of bfgs steps    =   0

     energy   new            =   -1929.4510385747 Ry

     new trust radius        =       0.0111606569 bohr
     new conv_thr            =       0.0001000000 Ry

ATOMIC_POSITIONS (angstrom)
Sn       1.681748263   0.970957812  10.000000000    0   0   0
Sn       5.045244789   0.970957812  10.000000000    0   0   0
Sn       3.363496526   3.883831250  10.000000000    0   0   0
Sn       6.726993052   3.883831250  10.000000000    0   0   0
Sn       6.726993052   1.941915625  12.746283414    0   0   0
Sn       3.363496526   1.941915625  12.746283414    0   0   0
Sn       8.408741315   4.854789062  12.746283414    0   0   0
Sn       5.045244789   4.854789062  12.746283414    0   0   0
Sn       0.128239500  -0.018307602  15.806527234
Sn       3.235148151  -0.018296690  15.806799099
Sn       1.681802163   3.041212502  15.445514130
Sn       5.045288723   2.788645232  15.422773407
H        1.681693409  -0.040109069  17.141203820

     Writing output data file calc.save
     Check: negative starting charge=   -0.001478
     NEW-OLD atomic charge density approx. for the potential
     Check: negative starting charge=   -0.001477

[...]

     energy   old            =   -1929.4510385747 Ry
     energy   new            =   -1929.4510451737 Ry

     CASE: energy  _new < energy  _old

[...]

     number of scf cycles    =   3
     number of bfgs steps    =   2

     energy   old            =   -1929.4510451737 Ry
     energy   new            =   -1929.4510931581 Ry

     CASE: energy  _new < energy  _old

     new trust radius        =       0.0033745535 bohr
     new conv_thr            =       0.0000010000 Ry

ATOMIC_POSITIONS (angstrom)
Sn       1.681748263   0.970957812  10.000000000    0   0   0
Sn       5.045244789   0.970957812  10.000000000    0   0   0
Sn       3.363496526   3.883831250  10.000000000    0   0   0
Sn       6.726993052   3.883831250  10.000000000    0   0   0
Sn       6.726993052   1.941915625  12.746283413    0   0   0
Sn       3.363496526   1.941915625  12.746283413    0   0   0
Sn       8.408741315   4.854789062  12.746283413    0   0   0
Sn       5.045244789   4.854789062  12.746283413    0   0   0
Sn       0.127271569  -0.018092745  15.809039497
Sn       3.236113859  -0.018088712  15.809309882
Sn       1.681796957   3.039552868  15.449162069
Sn       5.045285380   2.790865297  15.426571917
H        1.681694845  -0.040570816  17.146218205

     Writing output data file calc.save
     Check: negative starting charge=   -0.001476
     NEW-OLD atomic charge density approx. for the potential
     Check: negative starting charge=   -0.001475

[...]

     Self-consistent Calculation

[...]

     Threshold (ethr) on eigenvalues was too large:
     Diagonalizing with lowered threshold

     Davidson diagonalization with overlap
     ethr =  3.39E-08,  avg # of iterations =  2.4

[...]

     total energy              =   -1929.45110766 Ry
     Harris-Foulkes estimate   =   -1929.45110848 Ry
     estimated scf accuracy    <       0.00000493 Ry

     iteration #  4     ecut=    36.75 Ry     beta=0.20
     Davidson diagonalization with overlap
     ethr =  2.92E-09,  avg # of iterations =  3.4

     negative rho (up, down):  4.063E-04 0.000E+00

     Adding external electric field

     Computed dipole along edir(3) :
        Dipole               -0.0814 Ry au,         -0.2069 Debye
        Dipole field         -0.0002 Ry au

        Potential amp.        0.0132 Ry
        Total length         43.3566 bohr

     End of self-consistent calculation

[...]

          k = 0.3333-0.3849 0.0000 ( 25368 PWs)   bands (ev):

[...]

          k =-0.5000-0.2887 0.0000 ( 25386 PWs)   bands (ev):

   -21.3686 -21.3626 -21.3559 -21.3499 -21.3395 -21.3355 -21.3341 -21.3268
   -21.3241 -21.3211 -21.3165 -21.3149 -21.3120 -21.3106 -21.3079 -21.3071
   -21.3042 -21.3019 -21.3009 -21.2981 -21.2947 -21.2939 -21.2914 -21.2885
   -21.2853 -21.2811 -21.2788 -21.2762 -21.2734 -21.2676 -21.2640 -21.2573
   -21.2541 -21.2528 -21.2494 -21.2433 -21.2372 -21.2315 -21.2303 -21.2268
   -21.2258 -21.2224 -21.2188 -21.2162 -21.2116 -21.2103 -21.2085 -21.2044
   -21.2017 -21.2012 -21.1966 -21.1932 -21.1902 -21.1835 -21.1820 -21.1748
   -21.1670 -21.1606 -21.1468 -21.1436  -8.8797  -8.8196  -7.9855  -7.6178
    -6.8775  -6.5293  -6.3746  -6.0811  -5.7088  -5.3961  -4.5107  -4.3154
    -2.5437  -1.6737  -1.4781  -1.4359  -1.2076  -1.1777  -0.8322  -0.3918
    -0.2290  -0.1180   0.0550   0.7314   0.8556   1.0093   1.1699   1.3226
     1.4028   1.7933   1.8033   1.9270   1.9901   2.0855

     the Fermi energy is     0.7154 ev

!    total energy              =   -1929.45110810 Ry
     Harris-Foulkes estimate   =   -1929.45110823 Ry
     estimated scf accuracy    <       0.00000020 Ry

     The total energy is the sum of the following terms:

     one-electron contribution =  -10194.19563643 Ry
     hartree contribution      =    5160.15744847 Ry
     xc contribution           =    -534.52399045 Ry
     ewald contribution        =    3639.15107601 Ry
     electric field correction =       0.00001235 Ry
     smearing contrib. (-TS)   =      -0.04001805 Ry

     convergence has been achieved in   4 iterations

     Forces acting on atoms (Ry/au):

     negative rho (up, down):  4.063E-04 0.000E+00
     atom    1 type  1   force =     0.00000033   -0.00563160   -0.00459449
     atom    2 type  1   force =     0.00000130   -0.00104797    0.00208766
     atom    3 type  1   force =     0.00064647    0.00183782    0.00245846
     atom    4 type  1   force =    -0.00064565    0.00183736    0.00245738
     atom    5 type  1   force =     0.00043881   -0.00404039   -0.00127442
     atom    6 type  1   force =    -0.00043999   -0.00403791   -0.00126944
     atom    7 type  1   force =    -0.00000006    0.00275393   -0.00166499
     atom    8 type  1   force =     0.00000266    0.00799743    0.00137669
     atom    9 type  1   force =    -0.00060698    0.00015631   -0.00044116
     atom   10 type  1   force =     0.00060128    0.00015297   -0.00044145
     atom   11 type  1   force =     0.00000032   -0.00087794   -0.00020242
     atom   12 type  1   force =     0.00000080    0.00119059   -0.00011735
     atom   13 type  2   force =     0.00000072   -0.00029060    0.00162555

     Total force =     0.002477     Total SCF correction =     0.000954
     SCF correction compared to forces is large: reduce conv_thr to get better values

     bfgs converged in   4 scf cycles and   3 bfgs steps
     (criteria: energy <  1.0E+12, force <  1.9E-03)

     End of BFGS Geometry Optimization

     Final energy   =   -1929.4511080971 Ry
Begin final coordinates

ATOMIC_POSITIONS (angstrom)
Sn       1.681748263   0.970957812  10.000000000    0   0   0
Sn       5.045244789   0.970957812  10.000000000    0   0   0
Sn       3.363496526   3.883831250  10.000000000    0   0   0
Sn       6.726993052   3.883831250  10.000000000    0   0   0
Sn       6.726993052   1.941915625  12.746283413    0   0   0
Sn       3.363496526   1.941915625  12.746283413    0   0   0
Sn       8.408741315   4.854789062  12.746283413    0   0   0
Sn       5.045244789   4.854789062  12.746283413    0   0   0
Sn       0.127271569  -0.018092745  15.809039497
Sn       3.236113859  -0.018088712  15.809309882
Sn       1.681796957   3.039552868  15.449162069
Sn       5.045285380   2.790865297  15.426571917
H        1.681694845  -0.040570816  17.146218205
End final coordinates

     Writing output data file calc.save

     General routines

     Parallel routines

   This run was terminated on:   1: 6: 1  17Jan2019

   JOB DONE.
Job  /afs/slac/g/suncat/bin/suncat-tsmpirun -x LD_LIBRARY_PATH -wdir /tmp/qe_379027gt490hid_scratch pw.x -npool 3 -in pw.pwi

TID   HOST_NAME   COMMAND_LINE            STATUS            TERMINATION_TIME
00000 suncat1036 pw.x -npool 3 -i  Done                     01/17/2019 01:06:01
00001 suncat1036 pw.x -npool 3 -i  Done                     01/17/2019 01:06:01
00002 suncat1036 pw.x -npool 3 -i  Done                     01/17/2019 01:06:01
00003 suncat1036 pw.x -npool 3 -i  Done                     01/17/2019 01:06:01
00004 suncat1036 pw.x -npool 3 -i  Done                     01/17/2019 01:06:01
00005 suncat1036 pw.x -npool 3 -i  Done                     01/17/2019 01:06:01
00006 suncat1036 pw.x -npool 3 -i  Done                     01/17/2019 01:06:01
00007 suncat1036 pw.x -npool 3 -i  Done                     01/17/2019 01:06:01
00008 suncat1036 pw.x -npool 3 -i  Done                     01/17/2019 01:06:01
00009 suncat1036 pw.x -npool 3 -i  Done                     01/17/2019 01:06:01
00010 suncat1036 pw.x -npool 3 -i  Done                     01/17/2019 01:06:01
00011 suncat1036 pw.x -npool 3 -i  Done                     01/17/2019 01:06:01
00012 suncat1011 pw.x -npool 3 -i  Done                     01/17/2019 01:06:01
00013 suncat1011 pw.x -npool 3 -i  Done                     01/17/2019 01:06:01
00014 suncat1011 pw.x -npool 3 -i  Done                     01/17/2019 01:06:01
00015 suncat1011 pw.x -npool 3 -i  Done                     01/17/2019 01:06:01
00016 suncat1011 pw.x -npool 3 -i  Done                     01/17/2019 01:06:01
00017 suncat1011 pw.x -npool 3 -i  Done                     01/17/2019 01:06:01
00018 suncat1011 pw.x -npool 3 -i  Done                     01/17/2019 01:06:01
00019 suncat1011 pw.x -npool 3 -i  Done                     01/17/2019 01:06:01
00020 suncat1011 pw.x -npool 3 -i  Done                     01/17/2019 01:06:01
00021 suncat1011 pw.x -npool 3 -i  Done                     01/17/2019 01:06:01
00022 suncat1011 pw.x -npool 3 -i  Done                     01/17/2019 01:06:01
00023 suncat1011 pw.x -npool 3 -i  Done                     01/17/2019 01:06:01
00024 suncat1006 pw.x -npool 3 -i  Done                     01/17/2019 01:06:01
00025 suncat1006 pw.x -npool 3 -i  Done                     01/17/2019 01:06:01
00026 suncat1006 pw.x -npool 3 -i  Done                     01/17/2019 01:06:01
00027 suncat1006 pw.x -npool 3 -i  Done                     01/17/2019 01:06:01
00028 suncat1006 pw.x -npool 3 -i  Done                     01/17/2019 01:06:01
00029 suncat1006 pw.x -npool 3 -i  Done                     01/17/2019 01:06:01
00030 suncat1006 pw.x -npool 3 -i  Done                     01/17/2019 01:06:01
00031 suncat1006 pw.x -npool 3 -i  Done                     01/17/2019 01:06:01
00032 suncat1006 pw.x -npool 3 -i  Done                     01/17/2019 01:06:01
00033 suncat1006 pw.x -npool 3 -i  Done                     01/17/2019 01:06:01
00034 suncat1006 pw.x -npool 3 -i  Done                     01/17/2019 01:06:01
00035 suncat1006 pw.x -npool 3 -i  Done                     01/17/2019 01:06:01