     Program PWSCF v.5.1rc2 (svn rev. 11289) starts on 25Apr2018 at  4:39:16

     Current dimensions of program PWSCF are:
     Max number of different atomic species (ntypx) = 10
     Max number of k-points (npk) =  40000
     Max angular momentum in pseudopotentials (lmaxx) =  3
     Presently stress not available with electric field

     IMPORTANT: XC functional enforced from input :
     Exchange-correlation      = BEEF-VDW ( 1  4 27 13 2)
     Any further DFT definition will be discarded
     Please, verify this is what you really want

     Subspace diagonalization in iterative solution of the eigenvalue problem:
     a serial algorithm will be used

     bravais-lattice index     =            0
     lattice parameter (alat)  =       1.8897  a.u.
     unit-cell volume          =    4515.4205 (a.u.)^3
     number of atoms/cell      =           14
     number of atomic types    =            3
     number of electrons       =       247.00
     number of Kohn-Sham states=          133
     kinetic-energy cutoff     =      36.7493  Ry
     charge density cutoff     =     367.4932  Ry
     convergence threshold     =      1.0E-05
     mixing beta               =       0.3000
     number of iterations used =           10  plain     mixing
     Exchange-correlation      = BEEF-VDW ( 1  4 27 13 2)
     nstep                     =           50

     celldm(1)=   1.889726  celldm(2)=   0.000000  celldm(3)=   0.000000
     celldm(4)=   0.000000  celldm(5)=   0.000000  celldm(6)=   0.000000

     crystal axes: (cart. coord. in units of alat)
               a(1) = (   5.606773   0.000000   0.000000 )
               a(2) = (   2.803387   4.855608   0.000000 )
               a(3) = (   0.000000   0.000000  24.577911 )

     reciprocal axes: (cart. coord. in units 2 pi/alat)
               b(1) = (  0.178356 -0.102974  0.000000 )
               b(2) = (  0.000000  0.205947  0.000000 )
               b(3) = (  0.000000  0.000000  0.040687 )

     PseudoPot. # 1 for Zn read from file:
     /u/if/mamunm/psp/gbrv1.5pbe/Zn.UPF
     MD5 check sum: df62231357ef9e81f77b2b3087fa5675
     Pseudo is Ultrasoft, Zval = 20.0
     Generated by new atomic code, or converted to UPF format
     Using radial grid of  943 points,  6 beta functions with:
                l(1) =   0
                l(2) =   0
                l(3) =   1
                l(4) =   1
                l(5) =   2
                l(6) =   2
     Q(r) pseudized with  8 coefficients,  rinner =    1.100   1.100   1.100
                                                       1.100   1.100

     PseudoPot. # 2 for S  read from file:
     /u/if/mamunm/psp/gbrv1.5pbe/S.UPF
     MD5 check sum: 88d86576ff6df21479756cfb9bdac1df
     Pseudo is Ultrasoft + core correction, Zval =  6.0
     Generated by new atomic code, or converted to UPF format
     Using radial grid of  907 points,  6 beta functions with:
                l(1) =   0
                l(2) =   0
                l(3) =   1
                l(4) =   1
                l(5) =   2
                l(6) =   2
     Q(r) pseudized with  8 coefficients,  rinner =    1.300   1.300   1.300
                                                       1.300   1.300

     PseudoPot. # 3 for H  read from file:
     /u/if/mamunm/psp/gbrv1.5pbe/H.UPF
     MD5 check sum: 761ae9a214b05c3daf00ab9f6b793d6f
     Pseudo is Ultrasoft, Zval =  1.0
     Generated by new atomic code, or converted to UPF format
     Using radial grid of  615 points,  2 beta functions with:
                l(1) =   0
                l(2) =   0
     Q(r) pseudized with  8 coefficients,  rinner =    0.700

     vdW kernel table read from file vdW_kernel_table
     MD5 check sum: 095c7af220d748ca6e76c0b4c6cfb241

     atomic species   valence    mass     pseudopotential
        Zn1           20.00    65.38000     Zn( 1.00)
        S1             6.00    32.06000     S ( 1.00)
        H1             1.00     1.00800     H ( 1.00)

     No symmetry found

   Cartesian axes

     site n.     atom                  positions (alat units)
         1           Zn1 tau(   1) = (   1.4016933   0.8092680  10.0000000  )
         2           Zn1 tau(   2) = (   4.2050800   0.8092680  10.0000000  )
         3           Zn1 tau(   3) = (   2.8033867   3.2370721  10.0000000  )
         4           Zn1 tau(   4) = (   5.6067733   3.2370721  10.0000000  )
         5           Zn1 tau(   5) = (   5.6067733   1.6185360  12.2889556  )
         6           Zn1 tau(   6) = (   2.8033867   1.6185360  12.2889556  )
         7           Zn1 tau(   7) = (   7.0084667   4.0463401  12.2889556  )
         8           Zn1 tau(   8) = (   4.2050800   4.0463401  12.2889556  )
         9           Zn1 tau(   9) = (   0.0000000   0.0000000  14.5779113  )
        10           Zn1 tau(  10) = (   2.8033867   0.0000000  14.5779113  )
        11           Zn1 tau(  11) = (   1.4016933   2.4278041  14.5779113  )
        12           Zn1 tau(  12) = (   4.2050800   2.4278041  14.5779113  )
        13           S1  tau(  13) = (   1.4016933   0.0000000  16.2804113  )
        14           H1  tau(  14) = (   1.4016933   0.0000000  17.5304113  )

     number of k points=    20  Fermi-Dirac smearing, width (Ry)=  0.0110
                       cart. coord. in units 2pi/alat
        k(    1) = (   0.0000000   0.0000000   0.0000000), wk =   0.0555556
        k(    2) = (   0.0000000   0.0343246   0.0000000), wk =   0.1111111
        k(    3) = (   0.0000000   0.0686491   0.0000000), wk =   0.1111111
        k(    4) = (   0.0000000  -0.1029737   0.0000000), wk =   0.0555556
        k(    5) = (   0.0297260  -0.0171623   0.0000000), wk =   0.1111111
        k(    6) = (   0.0297260   0.0171623   0.0000000), wk =   0.1111111
        k(    7) = (   0.0297260   0.0514869   0.0000000), wk =   0.1111111
        k(    8) = (   0.0297260  -0.1201360   0.0000000), wk =   0.1111111
        k(    9) = (   0.0297260  -0.0858114   0.0000000), wk =   0.1111111
        k(   10) = (   0.0297260  -0.0514869   0.0000000), wk =   0.1111111
        k(   11) = (   0.0594519  -0.0343246   0.0000000), wk =   0.1111111
        k(   12) = (   0.0594519   0.0000000   0.0000000), wk =   0.1111111
        k(   13) = (   0.0594519   0.0343246   0.0000000), wk =   0.1111111
        k(   14) = (   0.0594519  -0.1372983   0.0000000), wk =   0.1111111
        k(   15) = (   0.0594519  -0.1029737   0.0000000), wk =   0.1111111
        k(   16) = (   0.0594519  -0.0686491   0.0000000), wk =   0.1111111
        k(   17) = (  -0.0891779   0.0514869   0.0000000), wk =   0.0555556
        k(   18) = (  -0.0891779   0.0858114   0.0000000), wk =   0.1111111
        k(   19) = (  -0.0891779   0.1201360   0.0000000), wk =   0.1111111
        k(   20) = (  -0.0891779  -0.0514869   0.0000000), wk =   0.0555556

     Largest allocated arrays     est. size (Mb)     dimensions
     Largest temporary arrays     est. size (Mb)     dimensions

     Initial potential from superposition of free atoms
     Check: negative starting charge=   -0.000720

     starting charge  246.99826, renormalised to  247.00000

     negative rho (up, down):  7.197E-04 0.000E+00

     *
     * You are using vdW-DF for exchange-correlation in this calculation.
     * Please cite the following three references that made this development
     * possible:
     *
     *   M. Dion, H. Rydberg, E. Schroder, D. C. Langreth, and
     *   B. I. Lundqvist, Phys. Rev. Lett. 92, 246401 (2004).
     *
     *   T. Thonhauser, V. R. Cooper, S. Li, A. Puzder, P. Hyldgaard, and
     *   D. C. Langreth, Phys. Rev. B 76, 125112 (2007).
     *
     *   G. Roman-Perez and J. M. Soler, Phys. Rev. Lett. 103, 096102 (2009).
     *
     *
     * If you are using vdW-DF2, please also cite:
     *
     *   K. Lee, E. D. Murray, L. Kong, B. I. Lundqvist, and
     *   D. C. Langreth, Phys. Rev. B 82, 081101(R) (2010).
     *
     *
     * If you are calculating the stress with vdW-DF, please also cite:
     *
     *   R. Sabatini, E. Kucukbenli, B. Kolb, T. Thonhauser, and
     *   S. de Gironcoli, J. Phys.: Condens. Matter 24, 424209 (2012).
     *

     Carrying out vdW-DF run using the following parameters:

     Nqs =      20    Nr_points =    1024   r_max =   100.000
     q_mesh =
               0.00001000     0.04494208     0.09755937     0.15916263
               0.23128650     0.31572767     0.41458969     0.53033537
               0.66584808     0.82450364     1.01025438     1.22772762
               1.48234092     1.78043706     2.12944203     2.53805004
               3.01644009     3.57652955     4.23227104     5.00000000

     Gradients computed in reciprocal space

     Adding external electric field

     Computed dipole along edir(3) :
        Dipole               -0.0000 Ry au,         -0.0001 Debye
        Dipole field         -0.0000 Ry au

        Potential amp.        0.0000 Ry
        Total length         45.2844 bohr

     Starting wfc are  161 randomized atomic wfcs

     Self-consistent Calculation

     iteration #  1     ecut=    36.75 Ry     beta=0.30
     Davidson diagonalization with overlap
     ethr =  1.00E-02,  avg # of iterations =  3.0

     Threshold (ethr) on eigenvalues was too large:
     Diagonalizing with lowered threshold

     Davidson diagonalization with overlap
     ethr =  1.32E-04,  avg # of iterations =  5.8

[...]

     total energy              =   -5578.78134329 Ry
     Harris-Foulkes estimate   =   -5578.89765117 Ry
     estimated scf accuracy    <       0.36335311 Ry

[...]

     End of self-consistent calculation

          k = 0.0000 0.0000 0.0000 ( 16931 PWs)   bands (ev):

  -125.8333-125.8327-125.6945-125.6746-125.6740-125.6656-125.5295-125.4901
  -125.4728-125.4721-125.4708-125.4497 -80.0467 -80.0379 -80.0054 -80.0043
   -79.9973 -79.9953 -79.8787 -79.8720 -79.8692 -79.8555 -79.8552 -79.8546
   -79.8513 -79.8491 -79.8432 -79.8410 -79.8405 -79.8349 -79.7252 -79.7092
   -79.6902 -79.6868 -79.6661 -79.6636 -79.6630 -79.6607 -79.6523 -79.6514
   -79.6481 -79.6479 -79.6400 -79.6396 -79.6390 -79.6335 -79.6234 -79.6220
   -14.0581  -8.7031  -8.0818  -7.3725  -7.3407  -7.2818  -7.2485  -7.2415
    -7.2131  -7.1967  -7.1938  -7.1663  -7.1375  -7.0506  -6.9962  -6.9886
    -6.9540  -6.9070  -6.8353  -6.7919  -6.7385  -6.7337  -6.7013  -6.6966
    -6.6914  -6.6794  -6.6671  -6.6331  -6.6137  -6.5899  -6.5666  -6.5285
    -6.4974  -6.4843  -6.4543  -6.3705  -6.3515  -6.3204  -6.3156  -6.2853
    -6.2644  -6.2519  -6.1994  -6.1962  -6.1906  -6.1801  -6.1646  -6.1254
    -6.1189  -6.1185  -6.0956  -6.0860  -6.0847  -6.0756  -6.0675  -6.0654
    -6.0619  -6.0486  -6.0418  -5.9822  -5.8888  -5.8816  -5.8813  -5.1860
    -3.0205  -2.7483  -2.6559  -1.5043  -1.4663  -1.4143  -1.1295  -1.0754
    -0.9089  -0.3065  -0.1076   0.0556   0.6294   0.9006   1.1743   1.4098
     2.7440   2.9146   3.0461   3.1841   3.2407

[...]

          k =-0.0892 0.0515 0.0000 ( 17028 PWs)   bands (ev):

[...]

     the Fermi energy is     1.0656 ev

!    total energy              =   -5578.84053627 Ry
     Harris-Foulkes estimate   =   -5578.84053336 Ry
     estimated scf accuracy    <       0.00000373 Ry

     The total energy is the sum of the following terms:

     one-electron contribution =  -36078.86186737 Ry
     hartree contribution      =   18024.60198181 Ry
     xc contribution           =    -530.62026463 Ry
     ewald contribution        =   13006.06428892 Ry
     electric field correction =       0.00013049 Ry
     smearing contrib. (-TS)   =      -0.02480548 Ry

     convergence has been achieved in   9 iterations

 BEEF-vdW xc energy contributions
           1 :   -471.083883749233
           2 :    426.700250647879
           3 :   -352.284030419676
           4 :    269.404021405825
           5 :   -197.115312516802
           6 :    144.893718757796
           7 :   -111.370421474182
           8 :    88.5791786676848
           9 :   -68.4607045397483
          10 :    47.5554050701783
          11 :   -27.5595673815154
          12 :    12.3366168393216
          13 :   -4.11244274104564
          14 :    1.61956278198693
          15 :   -1.15169935589881
          16 :  -0.698263027362600
          17 :    4.84590073462471
          18 :   -9.59274299224217
          19 :    12.3998385615082
          20 :   -12.0322958204762
          21 :    9.45745563346497
          22 :   -6.97664678767615
          23 :    6.42530772818702
          24 :   -7.88407905644385
          25 :    9.81862992344952
          26 :   -10.4133829833282
          27 :    8.98966703020028
          28 :   -6.43604482134947
          29 :    4.41295507683446
          30 :   -4.03801965255934
          31 :   -36.7821039930262
          32 :   -25.0909898712116

     Forces acting on atoms (Ry/au):

     negative rho (up, down):  9.277E-04 0.000E+00
     atom    1 type  1   force =    -0.00000129   -0.00278260   -0.00530946
     atom    2 type  1   force =     0.00000005   -0.00046457   -0.00758695
     atom    3 type  1   force =     0.00140090    0.00211394   -0.00914701
     atom    4 type  1   force =    -0.00139921    0.00210850   -0.00914598
     atom    5 type  1   force =     0.00302076   -0.00145925    0.00024620
     atom    6 type  1   force =    -0.00301919   -0.00145853    0.00024513
     atom    7 type  1   force =     0.00000065    0.00295399   -0.00163286
     atom    8 type  1   force =    -0.00000160    0.00366550    0.01237337
     atom    9 type  1   force =    -0.06771262    0.00006938   -0.04060532
     atom   10 type  1   force =     0.06771274    0.00007260   -0.04060388
     atom   11 type  1   force =     0.00000137    0.01583702   -0.00396434
     atom   12 type  1   force =    -0.00000310   -0.01665413   -0.00380680
     atom   13 type  2   force =     0.00000018   -0.00692363   -0.02871411
     atom   14 type  3   force =     0.00000037    0.00292176    0.13765201

     Total force =     0.181259     Total SCF correction =     0.003728

     entering subroutine stress ...

     negative rho (up, down):  9.277E-04 0.000E+00
          total   stress  (Ry/bohr**3)                   (kbar)     P=   -2.03
  -0.00007578   0.00000000   0.00000000        -11.15      0.00      0.00
   0.00000000  -0.00011010  -0.00000696          0.00    -16.20     -1.02
   0.00000000  -0.00000696   0.00014454          0.00     -1.02     21.26

     BFGS Geometry Optimization

     number of scf cycles    =   1
     number of bfgs steps    =   0

     energy   new            =   -5578.8405362746 Ry

     new trust radius        =       0.1376830150 bohr
     new conv_thr            =       0.0000099958 Ry

ATOMIC_POSITIONS (crystal)
Zn1      0.166666667   0.166666667   0.406869400    0   0   0
Zn1      0.666666667   0.166666667   0.406869400    0   0   0
Zn1      0.166666667   0.666666667   0.406869400    0   0   0
Zn1      0.666666667   0.666666667   0.406869400    0   0   0
Zn1      0.833333333   0.333333333   0.500000000    0   0   0
Zn1      0.333333333   0.333333333   0.500000000    0   0   0
Zn1      0.833333333   0.833333333   0.500000000    0   0   0
Zn1      0.333333333   0.833333333   0.500000000    0   0   0
Zn1     -0.006394618   0.000007562   0.592256343
Zn1      0.506386892   0.000007912   0.592256374
Zn1     -0.000862851   0.501725961   0.593045246
Zn1      0.500907214   0.498184988   0.593048637
S1       0.250377295  -0.000754556   0.661781884
H1       0.249840824   0.000318421   0.716222521

     Writing output data file calc.save
     Check: negative starting charge=   -0.000720
     NEW-OLD atomic charge density approx. for the potential
     Check: negative starting charge=   -0.000710

[...]

     Total force =     0.109122     Total SCF correction =     0.015631
     SCF correction compared to forces is large: reduce conv_thr to get better values

[...]

     energy   old            =   -5578.8405362746 Ry
     energy   new            =   -5578.8626400747 Ry

     CASE: energy  _new < energy  _old

[...]

     iteration #  1     ecut=    36.75 Ry     beta=0.30
     Davidson diagonalization with overlap
     c_bands:  1 eigenvalues not converged
     ethr =  1.00E-06,  avg # of iterations = 12.8

[...]

     Total force =     0.004489     Total SCF correction =     0.000339

[...]

     number of scf cycles    =  46
     number of bfgs steps    =  45

     energy   old            =   -5578.9378239798 Ry
     energy   new            =   -5578.9378669460 Ry

     CASE: energy  _new < energy  _old

     new trust radius        =       0.0144765114 bohr
     new conv_thr            =       0.0000001000 Ry

ATOMIC_POSITIONS (crystal)
Zn1      0.166666667   0.166666667   0.406869400    0   0   0
Zn1      0.666666667   0.166666667   0.406869400    0   0   0
Zn1      0.166666667   0.666666667   0.406869400    0   0   0
Zn1      0.666666667   0.666666667   0.406869400    0   0   0
Zn1      0.833333333   0.333333333   0.500000000    0   0   0
Zn1      0.333333333   0.333333333   0.500000000    0   0   0
Zn1      0.833333333   0.833333333   0.500000000    0   0   0
Zn1      0.333333333   0.833333333   0.500000000    0   0   0
Zn1     -0.005926129  -0.014473602   0.608803803
Zn1      0.520400069  -0.014473899   0.608803500
Zn1     -0.001145688   0.502290553   0.591643702
Zn1      0.517250433   0.465499569   0.592026973
S1       0.271077014  -0.042154396   0.688697970
H1       0.137571935   0.224857382   0.704339149

     Writing output data file calc.save
     Check: negative starting charge=   -0.000705
     NEW-OLD atomic charge density approx. for the potential
     Check: negative starting charge=   -0.000705

[...]

     Self-consistent Calculation

[...]

     Threshold (ethr) on eigenvalues was too large:
     Diagonalizing with lowered threshold

     Davidson diagonalization with overlap
     ethr =  7.18E-09,  avg # of iterations =  2.0

[...]

     total energy              =   -5578.93788766 Ry
     Harris-Foulkes estimate   =   -5578.93788752 Ry
     estimated scf accuracy    <       0.00000036 Ry

     iteration #  6     ecut=    36.75 Ry     beta=0.30
     Davidson diagonalization with overlap
     ethr =  1.47E-10,  avg # of iterations =  2.4

[...]

     negative rho (up, down):  8.808E-04 0.000E+00

     Adding external electric field

     Computed dipole along edir(3) :
        Dipole               -0.1220 Ry au,         -0.3102 Debye
        Dipole field         -0.0003 Ry au

        Potential amp.        0.0308 Ry
        Total length         45.2844 bohr

     End of self-consistent calculation

[...]

          k = 0.0595-0.0686 0.0000 ( 16986 PWs)   bands (ev):

[...]

          k =-0.0892-0.0515 0.0000 ( 17028 PWs)   bands (ev):

  -126.1240-126.1240-126.1022-126.0371-125.9405-125.9404-125.9377-125.9201
  -125.9036-125.8935-125.8930-125.8724 -80.3047 -80.3047 -80.3007 -80.3003
   -80.2978 -80.2975 -80.2871 -80.2771 -80.2752 -80.2173 -80.2164 -80.2068
   -80.1329 -80.1328 -80.1294 -80.1173 -80.1162 -80.1134 -80.1098 -80.1098
   -80.1093 -80.1055 -80.0933 -80.0901 -80.0879 -80.0857 -80.0844 -80.0834
   -80.0805 -80.0796 -80.0754 -80.0693 -80.0530 -80.0512 -80.0398 -80.0366
   -13.1541  -7.6159  -7.5641  -7.4213  -7.4135  -7.3929  -7.3763  -7.3363
    -7.3295  -7.3084  -7.2873  -7.2750  -7.2703  -7.1971  -7.1744  -7.1594
    -7.1410  -7.1132  -7.0957  -7.0681  -7.0601  -7.0521  -7.0334  -7.0153
    -6.9758  -6.9735  -6.9501  -6.9423  -6.9274  -6.9072  -6.8951  -6.8870
    -6.8607  -6.8422  -6.8277  -6.8135  -6.7910  -6.7873  -6.7759  -6.7627
    -6.7531  -6.7429  -6.7189  -6.7035  -6.6935  -6.6802  -6.6774  -6.6467
    -6.6385  -6.6296  -6.6241  -6.6174  -6.5884  -6.5727  -6.5402  -6.5228
    -6.5124  -6.4847  -6.4707  -6.4469  -6.4467  -6.4384  -6.4105  -5.4822
    -5.0891  -4.5651  -3.3378  -3.2872  -2.9732  -2.7895  -1.8136  -1.6182
    -1.2912  -0.5967   0.8742   0.9853   1.3859   2.0533   3.2593   3.2755
     3.4159   3.4718   3.9028   4.4377   4.4989

     the Fermi energy is     0.6678 ev

!    total energy              =   -5578.93788771 Ry
     Harris-Foulkes estimate   =   -5578.93788768 Ry
     estimated scf accuracy    <       0.00000006 Ry

     The total energy is the sum of the following terms:

     one-electron contribution =  -35030.75171844 Ry
     hartree contribution      =   17498.03536571 Ry
     xc contribution           =    -530.32083874 Ry
     ewald contribution        =   12484.12332376 Ry
     electric field correction =       0.00004144 Ry
     smearing contrib. (-TS)   =      -0.02406144 Ry

     convergence has been achieved in   6 iterations

 BEEF-vdW xc energy contributions
           1 :   -470.769998328555
           2 :    426.222388830563
           3 :   -351.630224710212
           4 :    268.724556249907
           5 :   -196.600571436429
           6 :    144.634170578058
           7 :   -111.300689332268
           8 :    88.5389839479120
           9 :   -68.3220321429432
          10 :    47.3172529780453
          11 :   -27.3376284876847
          12 :    12.2596526582811
          13 :   -4.20984889643034
          14 :    1.79106742201475
          15 :   -1.24481817292622
          16 :  -0.765696098373041
          17 :    5.01932237301389
          18 :   -9.72575365714465
          19 :    12.3751829758459
          20 :   -11.8615710187629
          21 :    9.27735442613812
          22 :   -6.94177154477586
          23 :    6.58209264709109
          24 :   -8.12753275656002
          25 :    9.96911020008787
          26 :   -10.3551312784715
          27 :    8.76311064976846
          28 :   -6.21132676480551
          29 :    4.36529139884124
          30 :   -4.22164405017395
          31 :   -36.7565612215249
          32 :   -25.0265243623961

     Forces acting on atoms (Ry/au):

     negative rho (up, down):  8.808E-04 0.000E+00
     atom    1 type  1   force =     0.00000001   -0.00338843   -0.00685162
     atom    2 type  1   force =     0.00000000   -0.00119002   -0.00954354
     atom    3 type  1   force =     0.00146435    0.00215540   -0.00953456
     atom    4 type  1   force =    -0.00146433    0.00215542   -0.00953456
     atom    5 type  1   force =     0.00368290   -0.00626607    0.00565333
     atom    6 type  1   force =    -0.00368288   -0.00626598    0.00565352
     atom    7 type  1   force =     0.00000006    0.00500687    0.00417513
     atom    8 type  1   force =    -0.00000001    0.00390729    0.01941234
     atom    9 type  1   force =    -0.00015310    0.00143900   -0.00004511
     atom   10 type  1   force =     0.00015250    0.00143917   -0.00004454
     atom   11 type  1   force =     0.00000041   -0.00008504    0.00028028
     atom   12 type  1   force =    -0.00000029   -0.00008420    0.00009202
     atom   13 type  2   force =     0.00000048    0.00124202   -0.00007264
     atom   14 type  3   force =    -0.00000010   -0.00006543    0.00035994

     Total force =     0.002445     Total SCF correction =     0.000816
     SCF correction compared to forces is large: reduce conv_thr to get better values

     entering subroutine stress ...

     negative rho (up, down):  8.808E-04 0.000E+00
          total   stress  (Ry/bohr**3)                   (kbar)     P=  -16.92
  -0.00016858  -0.00000000   0.00000000        -24.80     -0.00      0.00
  -0.00000000  -0.00015876   0.00000590         -0.00    -23.35      0.87
   0.00000000   0.00000590  -0.00001774          0.00      0.87     -2.61

     bfgs converged in  47 scf cycles and  46 bfgs steps
     (criteria: energy <  1.0E+00, force <  1.9E-03)

     End of BFGS Geometry Optimization

     Final energy   =   -5578.9378877113 Ry
Begin final coordinates

ATOMIC_POSITIONS (crystal)
Zn1      0.166666667   0.166666667   0.406869400    0   0   0
Zn1      0.666666667   0.166666667   0.406869400    0   0   0
Zn1      0.166666667   0.666666667   0.406869400    0   0   0
Zn1      0.666666667   0.666666667   0.406869400    0   0   0
Zn1      0.833333333   0.333333333   0.500000000    0   0   0
Zn1      0.333333333   0.333333333   0.500000000    0   0   0
Zn1      0.833333333   0.833333333   0.500000000    0   0   0
Zn1      0.333333333   0.833333333   0.500000000    0   0   0
Zn1     -0.005926129  -0.014473602   0.608803803
Zn1      0.520400069  -0.014473899   0.608803500
Zn1     -0.001145688   0.502290553   0.591643702
Zn1      0.517250433   0.465499569   0.592026973
S1       0.271077014  -0.042154396   0.688697970
H1       0.137571935   0.224857382   0.704339149
End final coordinates

     Writing output data file calc.save

     General routines

     Parallel routines

   This run was terminated on:   9:12:48  25Apr2018

   JOB DONE.
Job  /afs/slac/g/suncat/bin/suncat-tsmpirun -x LD_LIBRARY_PATH -wdir /scratch/qe311966_AvGpY pw.x -npool 4 -in pw.inp

TID   HOST_NAME   COMMAND_LINE            STATUS            TERMINATION_TIME
00000 suncat0216 pw.x -npool 4 -i  Done                     04/25/2018 09:12:48
00001 suncat0216 pw.x -npool 4 -i  Done                     04/25/2018 09:12:48
00002 suncat0216 pw.x -npool 4 -i  Done                     04/25/2018 09:12:48
00003 suncat0216 pw.x -npool 4 -i  Done                     04/25/2018 09:12:48
00004 suncat0216 pw.x -npool 4 -i  Done                     04/25/2018 09:12:48
00005 suncat0216 pw.x -npool 4 -i  Done                     04/25/2018 09:12:48
00006 suncat0216 pw.x -npool 4 -i  Done                     04/25/2018 09:12:48
00007 suncat0216 pw.x -npool 4 -i  Done                     04/25/2018 09:12:48
00008 suncat0214 pw.x -npool 4 -i  Done                     04/25/2018 09:12:48
00009 suncat0214 pw.x -npool 4 -i  Done                     04/25/2018 09:12:48
00010 suncat0214 pw.x -npool 4 -i  Done                     04/25/2018 09:12:48
00011 suncat0214 pw.x -npool 4 -i  Done                     04/25/2018 09:12:48
00012 suncat0214 pw.x -npool 4 -i  Done                     04/25/2018 09:12:48
00013 suncat0214 pw.x -npool 4 -i  Done                     04/25/2018 09:12:48
00014 suncat0214 pw.x -npool 4 -i  Done                     04/25/2018 09:12:48
00015 suncat0214 pw.x -npool 4 -i  Done                     04/25/2018 09:12:48
00016 suncat0201 pw.x -npool 4 -i  Done                     04/25/2018 09:12:48
00017 suncat0201 pw.x -npool 4 -i  Done                     04/25/2018 09:12:48
00018 suncat0201 pw.x -npool 4 -i  Done                     04/25/2018 09:12:48
00019 suncat0201 pw.x -npool 4 -i  Done                     04/25/2018 09:12:48
00020 suncat0201 pw.x -npool 4 -i  Done                     04/25/2018 09:12:48
00021 suncat0201 pw.x -npool 4 -i  Done                     04/25/2018 09:12:48
00022 suncat0201 pw.x -npool 4 -i  Done                     04/25/2018 09:12:48
00023 suncat0201 pw.x -npool 4 -i  Done                     04/25/2018 09:12:48
00024 suncat0099 pw.x -npool 4 -i  Done                     04/25/2018 09:12:48
00025 suncat0099 pw.x -npool 4 -i  Done                     04/25/2018 09:12:48
00026 suncat0099 pw.x -npool 4 -i  Done                     04/25/2018 09:12:48
00027 suncat0099 pw.x -npool 4 -i  Done                     04/25/2018 09:12:48
00028 suncat0099 pw.x -npool 4 -i  Done                     04/25/2018 09:12:48
00029 suncat0099 pw.x -npool 4 -i  Done                     04/25/2018 09:12:48
00030 suncat0099 pw.x -npool 4 -i  Done                     04/25/2018 09:12:48
00031 suncat0099 pw.x -npool 4 -i  Done                     04/25/2018 09:12:48