     Program PWSCF v.5.1rc2 (svn rev. 11289) starts on 30Apr2018 at 17: 4:27

     Current dimensions of program PWSCF are:
     Max number of different atomic species (ntypx) = 10
     Max number of k-points (npk) =  40000
     Max angular momentum in pseudopotentials (lmaxx) =  3
     Presently stress not available with electric field

     IMPORTANT: XC functional enforced from input :
     Exchange-correlation      = BEEF-VDW ( 1  4 27 13 2)
     Any further DFT definition will be discarded
     Please, verify this is what you really want

     Subspace diagonalization in iterative solution of the eigenvalue problem:
     a serial algorithm will be used

     bravais-lattice index     =            0
     lattice parameter (alat)  =       1.8897  a.u.
     unit-cell volume          =    4650.5773 (a.u.)^3
     number of atoms/cell      =           13
     number of atomic types    =            2
     number of electrons       =        42.00
     number of Kohn-Sham states=           31
     kinetic-energy cutoff     =      36.7493  Ry
     charge density cutoff     =     367.4932  Ry
     convergence threshold     =      1.0E-05
     mixing beta               =       0.3000
     number of iterations used =           10  plain     mixing
     Exchange-correlation      = BEEF-VDW ( 1  4 27 13 2)
     nstep                     =           50

     celldm(1)=   1.889726  celldm(2)=   0.000000  celldm(3)=   0.000000
     celldm(4)=   0.000000  celldm(5)=   0.000000  celldm(6)=   0.000000

     crystal axes: (cart. coord. in units of alat)
               a(1) = (   5.682886   0.000000   0.000000 )
               a(2) = (   2.841443   4.921524   0.000000 )
               a(3) = (   0.000000   0.000000  24.640057 )

     reciprocal axes: (cart. coord. in units 2 pi/alat)
               b(1) = (  0.175967 -0.101595  0.000000 )
               b(2) = (  0.000000  0.203189  0.000000 )
               b(3) = (  0.000000  0.000000  0.040584 )

     PseudoPot. # 1 for Al read from file:
     /u/if/mamunm/psp/gbrv1.5pbe/Al.UPF
     MD5 check sum: 0a6289f5291fc8f409219462bc851e1f
     Pseudo is Ultrasoft + core correction, Zval =  3.0
     Generated by new atomic code, or converted to UPF format
     Using radial grid of  893 points,  3 beta functions with:
                l(1) =   0
                l(2) =   1
                l(3) =   2
     Q(r) pseudized with  8 coefficients,  rinner =    0.900   0.900   0.900
                                                       0.900   0.900

     PseudoPot. # 2 for S  read from file:
     /u/if/mamunm/psp/gbrv1.5pbe/S.UPF
     MD5 check sum: 88d86576ff6df21479756cfb9bdac1df
     Pseudo is Ultrasoft + core correction, Zval =  6.0
     Generated by new atomic code, or converted to UPF format
     Using radial grid of  907 points,  6 beta functions with:
                l(1) =   0
                l(2) =   0
                l(3) =   1
                l(4) =   1
                l(5) =   2
                l(6) =   2
     Q(r) pseudized with  8 coefficients,  rinner =    1.300   1.300   1.300
                                                       1.300   1.300

     vdW kernel table read from file vdW_kernel_table
     MD5 check sum: 095c7af220d748ca6e76c0b4c6cfb241

     atomic species   valence    mass     pseudopotential
        Al1            3.00    26.98154     Al( 1.00)
        S1             6.00    32.06000     S ( 1.00)

     No symmetry found

   Cartesian axes

     site n.     atom                  positions (alat units)
         1           Al1 tau(   1) = (   1.4207216   0.8202540  10.0000000  )
         2           Al1 tau(   2) = (   4.2621647   0.8202540  10.0000000  )
         3           Al1 tau(   3) = (   2.8414431   3.2810159  10.0000000  )
         4           Al1 tau(   4) = (   5.6828862   3.2810159  10.0000000  )
         5           Al1 tau(   5) = (   5.6828862   1.6405079  12.3200286  )
         6           Al1 tau(   6) = (   2.8414431   1.6405079  12.3200286  )
         7           Al1 tau(   7) = (   7.1036078   4.1012699  12.3200286  )
         8           Al1 tau(   8) = (   4.2621647   4.1012699  12.3200286  )
         9           Al1 tau(   9) = (   0.0000000   0.0000000  14.6400572  )
        10           Al1 tau(  10) = (   2.8414431   0.0000000  14.6400572  )
        11           Al1 tau(  11) = (   1.4207216   2.4607619  14.6400572  )
        12           Al1 tau(  12) = (   4.2621647   2.4607619  14.6400572  )
        13           S1  tau(  13) = (   2.8414431   1.6405079  16.1090572  )

     number of k points=    20  Fermi-Dirac smearing, width (Ry)=  0.0110
                       cart. coord. in units 2pi/alat
        k(    1) = (   0.0000000   0.0000000   0.0000000), wk =   0.0555556
        k(    2) = (   0.0000000   0.0338648   0.0000000), wk =   0.1111111
        k(    3) = (   0.0000000   0.0677297   0.0000000), wk =   0.1111111
        k(    4) = (   0.0000000  -0.1015945   0.0000000), wk =   0.0555556
        k(    5) = (   0.0293278  -0.0169324   0.0000000), wk =   0.1111111
        k(    6) = (   0.0293278   0.0169324   0.0000000), wk =   0.1111111
        k(    7) = (   0.0293278   0.0507973   0.0000000), wk =   0.1111111
        k(    8) = (   0.0293278  -0.1185270   0.0000000), wk =   0.1111111
        k(    9) = (   0.0293278  -0.0846621   0.0000000), wk =   0.1111111
        k(   10) = (   0.0293278  -0.0507973   0.0000000), wk =   0.1111111
        k(   11) = (   0.0586556  -0.0338648   0.0000000), wk =   0.1111111
        k(   12) = (   0.0586556   0.0000000   0.0000000), wk =   0.1111111
        k(   13) = (   0.0586556   0.0338648   0.0000000), wk =   0.1111111
        k(   14) = (   0.0586556  -0.1354594   0.0000000), wk =   0.1111111
        k(   15) = (   0.0586556  -0.1015945   0.0000000), wk =   0.1111111
        k(   16) = (   0.0586556  -0.0677297   0.0000000), wk =   0.1111111
        k(   17) = (  -0.0879835   0.0507973   0.0000000), wk =   0.0555556
        k(   18) = (  -0.0879835   0.0846621   0.0000000), wk =   0.1111111
        k(   19) = (  -0.0879835   0.1185270   0.0000000), wk =   0.1111111
        k(   20) = (  -0.0879835  -0.0507973   0.0000000), wk =   0.0555556

     Largest allocated arrays     est. size (Mb)     dimensions
     Largest temporary arrays     est. size (Mb)     dimensions

     Initial potential from superposition of free atoms
     Check: negative starting charge=   -0.000155

     starting charge   41.97038, renormalised to   42.00000

     negative rho (up, down):  1.551E-04 0.000E+00

     *
     * You are using vdW-DF for exchange-correlation in this calculation.
     * Please cite the following three references that made this development
     * possible:
     *
     *   M. Dion, H. Rydberg, E. Schroder, D. C. Langreth, and
     *   B. I. Lundqvist, Phys. Rev. Lett. 92, 246401 (2004).
     *
     *   T. Thonhauser, V. R. Cooper, S. Li, A. Puzder, P. Hyldgaard, and
     *   D. C. Langreth, Phys. Rev. B 76, 125112 (2007).
     *
     *   G. Roman-Perez and J. M. Soler, Phys. Rev. Lett. 103, 096102 (2009).
     *
     *
     * If you are using vdW-DF2, please also cite:
     *
     *   K. Lee, E. D. Murray, L. Kong, B. I. Lundqvist, and
     *   D. C. Langreth, Phys. Rev. B 82, 081101(R) (2010).
     *
     *
     * If you are calculating the stress with vdW-DF, please also cite:
     *
     *   R. Sabatini, E. Kucukbenli, B. Kolb, T. Thonhauser, and
     *   S. de Gironcoli, J. Phys.: Condens. Matter 24, 424209 (2012).
     *

     Carrying out vdW-DF run using the following parameters:

     Nqs =      20    Nr_points =    1024   r_max =   100.000
     q_mesh =
               0.00001000     0.04494208     0.09755937     0.15916263
               0.23128650     0.31572767     0.41458969     0.53033537
               0.66584808     0.82450364     1.01025438     1.22772762
               1.48234092     1.78043706     2.12944203     2.53805004
               3.01644009     3.57652955     4.23227104     5.00000000

     Gradients computed in reciprocal space

     Adding external electric field

     Computed dipole along edir(3) :
        Dipole               -0.0301 Ry au,         -0.0764 Debye
        Dipole field         -0.0001 Ry au

        Potential amp.        0.0074 Ry
        Total length         45.3989 bohr

     Starting wfc are   52 randomized atomic wfcs

     Self-consistent Calculation

     iteration #  1     ecut=    36.75 Ry     beta=0.30
     Davidson diagonalization with overlap
     ethr =  1.00E-02,  avg # of iterations =  3.0

[...]

     total energy              =    -106.69387312 Ry
     Harris-Foulkes estimate   =    -107.03883095 Ry
     estimated scf accuracy    <       0.82700458 Ry

[...]

     End of self-consistent calculation

          k = 0.0000 0.0000 0.0000 ( 17579 PWs)   bands (ev):

   -15.2421 -11.0696  -9.2566  -6.6086  -6.3689  -6.3689  -5.9013  -5.2221
    -5.1888  -5.1888  -4.9342  -4.9342  -4.6467  -3.8976  -3.8976  -3.5556
    -3.2591  -2.6774  -2.6774  -2.2596  -0.9679  -0.8301  -0.8301   0.0423
     0.0958   0.0958   0.8634   1.8898   1.8898   2.0564   2.3913

[...]

          k =-0.0880 0.0508 0.0000 ( 17464 PWs)   bands (ev):

[...]

     the Fermi energy is    -0.4864 ev

!    total energy              =    -106.88700916 Ry
     Harris-Foulkes estimate   =    -106.88700974 Ry
     estimated scf accuracy    <       0.00000948 Ry

     The total energy is the sum of the following terms:

     one-electron contribution =    -769.78090440 Ry
     hartree contribution      =     393.45973718 Ry
     xc contribution           =     -62.16253865 Ry
     ewald contribution        =     331.62603999 Ry
     electric field correction =       0.00002262 Ry
     smearing contrib. (-TS)   =      -0.02936591 Ry

     convergence has been achieved in   9 iterations

 BEEF-vdW xc energy contributions
           1 :   -51.2182217108041
           2 :    44.0771055335382
           3 :   -33.0203775668259
           4 :    22.2825423167575
           5 :   -14.6615550921505
           6 :    10.4971744513282
           7 :   -8.38204722811733
           8 :    6.73641499668366
           9 :   -4.95569835602674
          10 :    3.41390863446334
          11 :   -2.64873000665956
          12 :    2.63492697259006
          13 :   -2.78149308228728
          14 :    2.51478650380965
          15 :   -1.79431028830332
          16 :    1.06699248217501
          17 :  -0.768707587653253
          18 :   0.899799315204248
          19 :   -1.06720924380330
          20 :   0.893795253804157
          21 :  -0.365046338921246
          22 :  -0.203070632291386
          23 :   0.494128452737144
          24 :  -0.473723477287102
          25 :   0.369665577538562
          26 :  -0.411986226121954
          27 :   0.612174583160929
          28 :  -0.788461127086769
          29 :   0.780630933739623
          30 :  -0.620071385249467
          31 :   -7.49284047366623
          32 :   -5.44730430448023

     Forces acting on atoms (Ry/au):

     negative rho (up, down):  3.789E-04 0.000E+00
     atom    1 type  1   force =     0.00110035    0.00063545    0.00041848
     atom    2 type  1   force =    -0.00110031    0.00063584    0.00041805
     atom    3 type  1   force =     0.00000015   -0.00127115    0.00041774
     atom    4 type  1   force =    -0.00000009   -0.00000053   -0.00443295
     atom    5 type  1   force =     0.00000039   -0.00305732    0.00349355
     atom    6 type  1   force =    -0.00000011   -0.00000026    0.00584773
     atom    7 type  1   force =     0.00264755    0.00152883    0.00349363
     atom    8 type  1   force =    -0.00264780    0.00152859    0.00349389
     atom    9 type  1   force =    -0.00000004    0.00000060   -0.02428750
     atom   10 type  1   force =    -0.00000071   -0.06620472   -0.03527560
     atom   11 type  1   force =    -0.05733553    0.03310218   -0.03527602
     atom   12 type  1   force =     0.05733496    0.03310205   -0.03527596
     atom   13 type  2   force =     0.00000118    0.00000044    0.11696495

     Total force =     0.176502     Total SCF correction =     0.000912

     entering subroutine stress ...

     negative rho (up, down):  3.789E-04 0.000E+00
          total   stress  (Ry/bohr**3)                   (kbar)     P=    3.17
   0.00000166   0.00000000  -0.00000000          0.24      0.00     -0.00
   0.00000000   0.00000166   0.00000000          0.00      0.24      0.00
  -0.00000000   0.00000000   0.00006133         -0.00      0.00      9.02

     BFGS Geometry Optimization

     number of scf cycles    =   1
     number of bfgs steps    =   0

     energy   new            =    -106.8870091599 Ry

     new trust radius        =       0.1169649515 bohr
     new conv_thr            =       0.0000099958 Ry

ATOMIC_POSITIONS (crystal)
Al1      0.166666667   0.166666667   0.405843214    0   0   0
Al1      0.666666667   0.166666667   0.405843214    0   0   0
Al1      0.166666667   0.666666667   0.405843214    0   0   0
Al1      0.666666667   0.666666667   0.405843214    0   0   0
Al1      0.833333333   0.333333333   0.500000000    0   0   0
Al1      0.333333333   0.333333333   0.500000000    0   0   0
Al1      0.833333333   0.833333333   0.500000000    0   0   0
Al1      0.333333333   0.833333333   0.500000000    0   0   0
Al1     -0.000000036   0.000000065   0.593635180
Al1      0.503559200  -0.007118532   0.593399197
Al1     -0.007118576   0.503559247   0.593399188
Al1      0.503559282   0.503559234   0.593399189
S1       0.333333420   0.333333381   0.656287128

     Writing output data file calc.save
     Check: negative starting charge=   -0.000155
     NEW-OLD atomic charge density approx. for the potential
     Check: negative starting charge=   -0.000155

[...]

     energy   old            =    -106.8870091599 Ry
     energy   new            =    -106.9091697040 Ry

     CASE: energy  _new < energy  _old

[...]

     Threshold (ethr) on eigenvalues was too large:
     Diagonalizing with lowered threshold

     Davidson diagonalization with overlap
     ethr =  6.23E-08,  avg # of iterations =  2.3

[...]

     Threshold (ethr) on eigenvalues was too large:
     Diagonalizing with lowered threshold

     Davidson diagonalization with overlap
     ethr =  4.97E-08,  avg # of iterations =  1.1

[...]

     number of scf cycles    =  13
     number of bfgs steps    =  12

     energy   old            =    -106.9197783468 Ry
     energy   new            =    -106.9198131767 Ry

     CASE: energy  _new < energy  _old

     new trust radius        =       0.0199980041 bohr
     new conv_thr            =       0.0000001000 Ry

ATOMIC_POSITIONS (crystal)
Al1      0.166666667   0.166666667   0.405843214    0   0   0
Al1      0.666666667   0.166666667   0.405843214    0   0   0
Al1      0.166666667   0.666666667   0.405843214    0   0   0
Al1      0.666666667   0.666666667   0.405843214    0   0   0
Al1      0.833333333   0.333333333   0.500000000    0   0   0
Al1      0.333333333   0.333333333   0.500000000    0   0   0
Al1      0.833333333   0.833333333   0.500000000    0   0   0
Al1      0.333333333   0.833333333   0.500000000    0   0   0
Al1     -0.000000118   0.000000312   0.587911653
Al1      0.507235640  -0.014471430   0.595125900
Al1     -0.014471662   0.507235836   0.595126270
Al1      0.507235817   0.507235924   0.595126227
S1       0.333335678   0.333328562   0.661122294

     Writing output data file calc.save
     Check: negative starting charge=   -0.000141
     NEW-OLD atomic charge density approx. for the potential
     Check: negative starting charge=   -0.000140

[...]

     Self-consistent Calculation

[...]

     total energy              =    -106.91984200 Ry
     Harris-Foulkes estimate   =    -106.91984200 Ry
     estimated scf accuracy    <       0.00000098 Ry

     iteration #  6     ecut=    36.75 Ry     beta=0.30
     Davidson diagonalization with overlap
     ethr =  2.33E-09,  avg # of iterations =  2.0

[...]

     negative rho (up, down):  3.512E-04 0.000E+00

     Adding external electric field

     Computed dipole along edir(3) :
        Dipole               -0.1830 Ry au,         -0.4652 Debye
        Dipole field         -0.0005 Ry au

        Potential amp.        0.0449 Ry
        Total length         45.3989 bohr

     End of self-consistent calculation

[...]

          k = 0.0587-0.0677 0.0000 ( 17495 PWs)   bands (ev):

[...]

          k =-0.0880-0.0508 0.0000 ( 17464 PWs)   bands (ev):

   -14.3116  -9.9123  -9.7213  -8.3220  -7.9725  -6.9694  -6.8778  -6.0048
    -5.7765  -5.5886  -5.3125  -4.2255  -4.0250  -3.5245  -2.5192  -2.1638
    -1.7639  -1.1398  -1.1258  -0.8888  -0.5979  -0.5611   0.2984   0.3954
     0.8930   0.9308   1.1013   1.5064   1.5519   1.8635   1.9916

     the Fermi energy is    -0.6342 ev

!    total energy              =    -106.91984206 Ry
     Harris-Foulkes estimate   =    -106.91984172 Ry
     estimated scf accuracy    <       0.00000007 Ry

     The total energy is the sum of the following terms:

     one-electron contribution =    -758.45552315 Ry
     hartree contribution      =     387.69759353 Ry
     xc contribution           =     -62.05161460 Ry
     ewald contribution        =     325.91797805 Ry
     electric field correction =       0.00009052 Ry
     smearing contrib. (-TS)   =      -0.02836643 Ry

     convergence has been achieved in   6 iterations

 BEEF-vdW xc energy contributions
           1 :   -51.1082518559582
           2 :    43.9379184973567
           3 :   -32.8536069598058
           4 :    22.1164764907559
           5 :   -14.5265276977634
           6 :    10.4076698101702
           7 :   -8.33478018068693
           8 :    6.72047548830296
           9 :   -4.96253527934159
          10 :    3.43959647977210
          11 :   -2.69024237629406
          12 :    2.68709350777707
          13 :   -2.83826919000665
          14 :    2.57213876916038
          15 :   -1.85092617220113
          16 :    1.12235341088218
          17 :  -0.821195878352391
          18 :   0.947704297634921
          19 :   -1.11082890945785
          20 :   0.934783765008184
          21 :  -0.403734881982992
          22 :  -0.167480021545508
          23 :   0.458935020131626
          24 :  -0.428610038941464
          25 :   0.300252397089231
          26 :  -0.311556095631090
          27 :   0.491608601881012
          28 :  -0.672664318605158
          29 :   0.690892828794041
          30 :  -0.556578320690370
          31 :   -7.48531426682572
          32 :   -5.43311900002217

     Forces acting on atoms (Ry/au):

     negative rho (up, down):  3.512E-04 0.000E+00
     atom    1 type  1   force =     0.00039209    0.00022641    0.00009017
     atom    2 type  1   force =    -0.00039211    0.00022643    0.00009022
     atom    3 type  1   force =    -0.00000002   -0.00045284    0.00009012
     atom    4 type  1   force =     0.00000002    0.00000016   -0.00470302
     atom    5 type  1   force =     0.00000002    0.00219938   -0.00397693
     atom    6 type  1   force =    -0.00000004    0.00000046    0.01388782
     atom    7 type  1   force =    -0.00190444   -0.00109965   -0.00397705
     atom    8 type  1   force =     0.00190434   -0.00109959   -0.00397706
     atom    9 type  1   force =    -0.00000011   -0.00000117    0.00062732
     atom   10 type  1   force =     0.00000006   -0.00080039    0.00051214
     atom   11 type  1   force =    -0.00069097    0.00039922    0.00051279
     atom   12 type  1   force =     0.00069078    0.00039903    0.00051309
     atom   13 type  2   force =     0.00000038    0.00000254    0.00031040

     Total force =     0.001787     Total SCF correction =     0.000087

     entering subroutine stress ...

     negative rho (up, down):  3.512E-04 0.000E+00
          total   stress  (Ry/bohr**3)                   (kbar)     P=   -3.21
  -0.00003592   0.00000000   0.00000000         -5.28      0.00      0.00
   0.00000000  -0.00003592   0.00000000          0.00     -5.28      0.00
   0.00000000   0.00000000   0.00000646          0.00      0.00      0.95

     bfgs converged in  14 scf cycles and  13 bfgs steps
     (criteria: energy <  1.0E+00, force <  1.9E-03)

     End of BFGS Geometry Optimization

     Final energy   =    -106.9198420648 Ry
Begin final coordinates

ATOMIC_POSITIONS (crystal)
Al1      0.166666667   0.166666667   0.405843214    0   0   0
Al1      0.666666667   0.166666667   0.405843214    0   0   0
Al1      0.166666667   0.666666667   0.405843214    0   0   0
Al1      0.666666667   0.666666667   0.405843214    0   0   0
Al1      0.833333333   0.333333333   0.500000000    0   0   0
Al1      0.333333333   0.333333333   0.500000000    0   0   0
Al1      0.833333333   0.833333333   0.500000000    0   0   0
Al1      0.333333333   0.833333333   0.500000000    0   0   0
Al1     -0.000000118   0.000000312   0.587911653
Al1      0.507235640  -0.014471430   0.595125900
Al1     -0.014471662   0.507235836   0.595126270
Al1      0.507235817   0.507235924   0.595126227
S1       0.333335678   0.333328562   0.661122294
End final coordinates

     Writing output data file calc.save

     General routines

     Parallel routines

   This run was terminated on:  17:36: 6  30Apr2018

   JOB DONE.
Job  /afs/slac/g/suncat/bin/suncat-tsmpirun -x LD_LIBRARY_PATH -wdir /scratch/qe541118_mzXmF pw.x -npool 4 -in pw.inp

TID   HOST_NAME   COMMAND_LINE            STATUS            TERMINATION_TIME
00000 suncat0060 pw.x -npool 4 -i  Done                     04/30/2018 17:36:06
00001 suncat0060 pw.x -npool 4 -i  Done                     04/30/2018 17:36:06
00002 suncat0060 pw.x -npool 4 -i  Done                     04/30/2018 17:36:06
00003 suncat0060 pw.x -npool 4 -i  Done                     04/30/2018 17:36:06
00004 suncat0060 pw.x -npool 4 -i  Done                     04/30/2018 17:36:06
00005 suncat0060 pw.x -npool 4 -i  Done                     04/30/2018 17:36:06
00006 suncat0060 pw.x -npool 4 -i  Done                     04/30/2018 17:36:06
00007 suncat0060 pw.x -npool 4 -i  Done                     04/30/2018 17:36:06
00008 suncat0031 pw.x -npool 4 -i  Done                     04/30/2018 17:36:06
00009 suncat0031 pw.x -npool 4 -i  Done                     04/30/2018 17:36:06
00010 suncat0031 pw.x -npool 4 -i  Done                     04/30/2018 17:36:06
00011 suncat0031 pw.x -npool 4 -i  Done                     04/30/2018 17:36:06
00012 suncat0031 pw.x -npool 4 -i  Done                     04/30/2018 17:36:06
00013 suncat0031 pw.x -npool 4 -i  Done                     04/30/2018 17:36:06
00014 suncat0031 pw.x -npool 4 -i  Done                     04/30/2018 17:36:06
00015 suncat0031 pw.x -npool 4 -i  Done                     04/30/2018 17:36:06
00016 suncat0193 pw.x -npool 4 -i  Done                     04/30/2018 17:36:06
00017 suncat0193 pw.x -npool 4 -i  Done                     04/30/2018 17:36:06
00018 suncat0193 pw.x -npool 4 -i  Done                     04/30/2018 17:36:06
00019 suncat0193 pw.x -npool 4 -i  Done                     04/30/2018 17:36:06
00020 suncat0193 pw.x -npool 4 -i  Done                     04/30/2018 17:36:06
00021 suncat0193 pw.x -npool 4 -i  Done                     04/30/2018 17:36:06
00022 suncat0193 pw.x -npool 4 -i  Done                     04/30/2018 17:36:06
00023 suncat0193 pw.x -npool 4 -i  Done                     04/30/2018 17:36:06
00024 suncat0190 pw.x -npool 4 -i  Done                     04/30/2018 17:36:06
00025 suncat0190 pw.x -npool 4 -i  Done                     04/30/2018 17:36:06
00026 suncat0190 pw.x -npool 4 -i  Done                     04/30/2018 17:36:06
00027 suncat0190 pw.x -npool 4 -i  Done                     04/30/2018 17:36:06
00028 suncat0190 pw.x -npool 4 -i  Done                     04/30/2018 17:36:06
00029 suncat0190 pw.x -npool 4 -i  Done                     04/30/2018 17:36:06
00030 suncat0190 pw.x -npool 4 -i  Done                     04/30/2018 17:36:06
00031 suncat0190 pw.x -npool 4 -i  Done                     04/30/2018 17:36:06