     Program PWSCF v.5.1rc2 (svn rev. 11289) starts on 22Apr2018 at 20:43:31

     Current dimensions of program PWSCF are:
     Max number of different atomic species (ntypx) = 10
     Max number of k-points (npk) =  40000
     Max angular momentum in pseudopotentials (lmaxx) =  3
     Presently stress not available with electric field

     IMPORTANT: XC functional enforced from input :
     Exchange-correlation      = BEEF-VDW ( 1  4 27 13 2)
     Any further DFT definition will be discarded
     Please, verify this is what you really want

     Subspace diagonalization in iterative solution of the eigenvalue problem:
     a serial algorithm will be used

     bravais-lattice index     =            0
     lattice parameter (alat)  =       1.8897  a.u.
     unit-cell volume          =    6116.8020 (a.u.)^3
     number of atoms/cell      =           14
     number of atomic types    =            3
     number of electrons       =       139.00
     number of Kohn-Sham states=           79
     kinetic-energy cutoff     =      36.7493  Ry
     charge density cutoff     =     367.4932  Ry
     convergence threshold     =      1.0E-05
     mixing beta               =       0.3000
     number of iterations used =           10  plain     mixing
     Exchange-correlation      = BEEF-VDW ( 1  4 27 13 2)
     nstep                     =           50

     celldm(1)=   1.889726  celldm(2)=   0.000000  celldm(3)=   0.000000
     celldm(4)=   0.000000  celldm(5)=   0.000000  celldm(6)=   0.000000

     crystal axes: (cart. coord. in units of alat)
               a(1) = (   6.437465   0.000000   0.000000 )
               a(2) = (   3.218732   5.575008   0.000000 )
               a(3) = (   0.000000   0.000000  25.256168 )

     reciprocal axes: (cart. coord. in units 2 pi/alat)
               b(1) = (  0.155341 -0.089686  0.000000 )
               b(2) = (  0.000000  0.179372  0.000000 )
               b(3) = (  0.000000  0.000000  0.039594 )

     PseudoPot. # 1 for Sc read from file:
     /u/if/mamunm/psp/gbrv1.5pbe/Sc.UPF
     MD5 check sum: db30a2753ba66ef00f23801d899b7e7f
     Pseudo is Ultrasoft + core correction, Zval = 11.0
     Generated by new atomic code, or converted to UPF format
     Using radial grid of  849 points,  6 beta functions with:
                l(1) =   0
                l(2) =   0
                l(3) =   1
                l(4) =   1
                l(5) =   2
                l(6) =   2
     Q(r) pseudized with  6 coefficients,  rinner =    1.200   1.200   1.200
                                                       1.200   1.200

     PseudoPot. # 2 for O  read from file:
     /u/if/mamunm/psp/gbrv1.5pbe/O.UPF
     MD5 check sum: 734c27235a0248c51dbae37a1fbe46ec
     Pseudo is Ultrasoft + core correction, Zval =  6.0
     Generated by new atomic code, or converted to UPF format
     Using radial grid of  737 points,  5 beta functions with:
                l(1) =   0
                l(2) =   0
                l(3) =   1
                l(4) =   1
                l(5) =   2
     Q(r) pseudized with  8 coefficients,  rinner =    0.900   0.900   0.900
                                                       0.900   0.900

     PseudoPot. # 3 for H  read from file:
     /u/if/mamunm/psp/gbrv1.5pbe/H.UPF
     MD5 check sum: 761ae9a214b05c3daf00ab9f6b793d6f
     Pseudo is Ultrasoft, Zval =  1.0
     Generated by new atomic code, or converted to UPF format
     Using radial grid of  615 points,  2 beta functions with:
                l(1) =   0
                l(2) =   0
     Q(r) pseudized with  8 coefficients,  rinner =    0.700

     vdW kernel table read from file vdW_kernel_table
     MD5 check sum: 095c7af220d748ca6e76c0b4c6cfb241

     atomic species   valence    mass     pseudopotential
        Sc1           11.00    44.95591     Sc( 1.00)
        O1             6.00    15.99900     O ( 1.00)
        H1             1.00     1.00800     H ( 1.00)

     No symmetry found

   Cartesian axes

     site n.     atom                  positions (alat units)
         1           Sc1 tau(   1) = (   1.6093662   0.9291680  10.0000000  )
         2           Sc1 tau(   2) = (   4.8280986   0.9291680  10.0000000  )
         3           Sc1 tau(   3) = (   3.2187324   3.7166720  10.0000000  )
         4           Sc1 tau(   4) = (   6.4374648   3.7166720  10.0000000  )
         5           Sc1 tau(   5) = (   6.4374648   1.8583360  12.6280840  )
         6           Sc1 tau(   6) = (   3.2187324   1.8583360  12.6280840  )
         7           Sc1 tau(   7) = (   8.0468310   4.6458400  12.6280840  )
         8           Sc1 tau(   8) = (   4.8280986   4.6458400  12.6280840  )
         9           Sc1 tau(   9) = (   0.0000000   0.0000000  15.2561680  )
        10           Sc1 tau(  10) = (   3.2187324   0.0000000  15.2561680  )
        11           Sc1 tau(  11) = (   1.6093662   2.7875040  15.2561680  )
        12           Sc1 tau(  12) = (   4.8280986   2.7875040  15.2561680  )
        13           O1  tau(  13) = (   3.2187324   1.8583360  16.7901680  )
        14           H1  tau(  14) = (   3.2187324   1.8583360  17.7401680  )

     number of k points=    20  Fermi-Dirac smearing, width (Ry)=  0.0110
                       cart. coord. in units 2pi/alat
        k(    1) = (   0.0000000   0.0000000   0.0000000), wk =   0.0555556
        k(    2) = (   0.0000000   0.0298953   0.0000000), wk =   0.1111111
        k(    3) = (   0.0000000   0.0597906   0.0000000), wk =   0.1111111
        k(    4) = (   0.0000000  -0.0896860   0.0000000), wk =   0.0555556
        k(    5) = (   0.0258901  -0.0149477   0.0000000), wk =   0.1111111
        k(    6) = (   0.0258901   0.0149477   0.0000000), wk =   0.1111111
        k(    7) = (   0.0258901   0.0448430   0.0000000), wk =   0.1111111
        k(    8) = (   0.0258901  -0.1046336   0.0000000), wk =   0.1111111
        k(    9) = (   0.0258901  -0.0747383   0.0000000), wk =   0.1111111
        k(   10) = (   0.0258901  -0.0448430   0.0000000), wk =   0.1111111
        k(   11) = (   0.0517802  -0.0298953   0.0000000), wk =   0.1111111
        k(   12) = (   0.0517802   0.0000000   0.0000000), wk =   0.1111111
        k(   13) = (   0.0517802   0.0298953   0.0000000), wk =   0.1111111
        k(   14) = (   0.0517802  -0.1195813   0.0000000), wk =   0.1111111
        k(   15) = (   0.0517802  -0.0896860   0.0000000), wk =   0.1111111
        k(   16) = (   0.0517802  -0.0597906   0.0000000), wk =   0.1111111
        k(   17) = (  -0.0776703   0.0448430   0.0000000), wk =   0.0555556
        k(   18) = (  -0.0776703   0.0747383   0.0000000), wk =   0.1111111
        k(   19) = (  -0.0776703   0.1046336   0.0000000), wk =   0.1111111
        k(   20) = (  -0.0776703  -0.0448430   0.0000000), wk =   0.0555556

     Largest allocated arrays     est. size (Mb)     dimensions
     Largest temporary arrays     est. size (Mb)     dimensions

     Initial potential from superposition of free atoms
     Check: negative starting charge=   -0.000371

     starting charge  138.97116, renormalised to  139.00000

     negative rho (up, down):  3.712E-04 0.000E+00

     *
     * You are using vdW-DF for exchange-correlation in this calculation.
     * Please cite the following three references that made this development
     * possible:
     *
     *   M. Dion, H. Rydberg, E. Schroder, D. C. Langreth, and
     *   B. I. Lundqvist, Phys. Rev. Lett. 92, 246401 (2004).
     *
     *   T. Thonhauser, V. R. Cooper, S. Li, A. Puzder, P. Hyldgaard, and
     *   D. C. Langreth, Phys. Rev. B 76, 125112 (2007).
     *
     *   G. Roman-Perez and J. M. Soler, Phys. Rev. Lett. 103, 096102 (2009).
     *
     *
     * If you are using vdW-DF2, please also cite:
     *
     *   K. Lee, E. D. Murray, L. Kong, B. I. Lundqvist, and
     *   D. C. Langreth, Phys. Rev. B 82, 081101(R) (2010).
     *
     *
     * If you are calculating the stress with vdW-DF, please also cite:
     *
     *   R. Sabatini, E. Kucukbenli, B. Kolb, T. Thonhauser, and
     *   S. de Gironcoli, J. Phys.: Condens. Matter 24, 424209 (2012).
     *

     Carrying out vdW-DF run using the following parameters:

     Nqs =      20    Nr_points =    1024   r_max =   100.000
     q_mesh =
               0.00001000     0.04494208     0.09755937     0.15916263
               0.23128650     0.31572767     0.41458969     0.53033537
               0.66584808     0.82450364     1.01025438     1.22772762
               1.48234092     1.78043706     2.12944203     2.53805004
               3.01644009     3.57652955     4.23227104     5.00000000

     Gradients computed in reciprocal space

     Adding external electric field

     Computed dipole along edir(3) :
        Dipole               -0.0117 Ry au,         -0.0297 Debye
        Dipole field         -0.0000 Ry au

        Potential amp.        0.0022 Ry
        Total length         46.5341 bohr

     Starting wfc are  161 randomized atomic wfcs

     Self-consistent Calculation

     iteration #  1     ecut=    36.75 Ry     beta=0.30
     Davidson diagonalization with overlap
     ethr =  1.00E-02,  avg # of iterations =  2.0

[...]

     total energy              =   -1168.99537263 Ry
     Harris-Foulkes estimate   =   -1172.27094383 Ry
     estimated scf accuracy    <       6.93597116 Ry

[...]

     iteration #  9     ecut=    36.75 Ry     beta=0.30
     Davidson diagonalization with overlap
     c_bands:  1 eigenvalues not converged
     ethr =  2.56E-05,  avg # of iterations =  7.2

[...]

     End of self-consistent calculation

          k = 0.0000 0.0000 0.0000 ( 23031 PWs)   bands (ev):

   -49.1384 -49.0961 -49.0901 -49.0900 -49.0762 -49.0313 -49.0298 -49.0296
   -48.6262 -48.5871 -48.5869 -48.5544 -27.8672 -27.8442 -27.8442 -27.8370
   -27.7879 -27.7878 -27.7878 -27.7798 -27.7487 -27.7435 -27.7434 -27.6989
   -27.6935 -27.6933 -27.5882 -27.5841 -27.5841 -27.5292 -27.5291 -27.5289
   -27.5067 -27.5067 -27.4505 -27.4505 -27.3484 -27.3442 -27.3441 -27.1944
   -27.1741 -27.1740 -27.1274 -27.1168 -27.0991 -27.0990 -27.0274 -27.0274
   -19.9846  -7.7460  -3.9361  -3.9361  -3.8257  -2.6950  -1.4312  -0.6334
    -0.5933  -0.5933  -0.5006  -0.5006  -0.4442  -0.2048  -0.2048  -0.0882
     0.2917   0.3115   0.3115   0.5890   0.6106   0.6106   0.9615   1.0086
     1.3650   1.4882   1.4882   1.4988   1.6420   1.6420   1.9570

[...]

          k =-0.0777 0.0448 0.0000 ( 23032 PWs)   bands (ev):

[...]

     the Fermi energy is     0.8729 ev

!    total energy              =   -1171.59338042 Ry
     Harris-Foulkes estimate   =   -1171.59338203 Ry
     estimated scf accuracy    <       0.00000194 Ry

     The total energy is the sum of the following terms:

     one-electron contribution =   -7472.15678267 Ry
     hartree contribution      =    3722.47756357 Ry
     xc contribution           =    -174.82944658 Ry
     ewald contribution        =    2753.04843037 Ry
     electric field correction =       0.00016549 Ry
     smearing contrib. (-TS)   =      -0.13331061 Ry

     convergence has been achieved in  19 iterations

 BEEF-vdW xc energy contributions
           1 :   -148.163598695503
           2 :    130.256280159565
           3 :   -102.359807461925
           4 :    75.2503225746037
           5 :   -56.4681399733831
           6 :    47.3130603928653
           7 :   -44.1792880503486
           8 :    42.3465741832881
           9 :   -39.1948425431482
          10 :    34.9543955859750
          11 :   -31.2638091138856
          12 :    29.2107610063344
          13 :   -28.4351838907316
          14 :    27.6959141151071
          15 :   -26.1046031635008
          16 :    23.8540097500060
          17 :   -21.8849436904615
          18 :    20.9239073681951
          19 :   -20.8290337460514
          20 :    20.7932242322245
          21 :   -20.1210284616212
          22 :    18.8170948866178
          23 :   -17.4901744018585
          24 :    16.7391621617284
          25 :   -16.6212396726590
          26 :    16.6576079339266
          27 :   -16.3125882201646
          28 :    15.4742874774819
          29 :   -14.5140637561443
          30 :    13.9097229444422
          31 :   -17.4582832700426
          32 :   -12.4606754548041

     Forces acting on atoms (Ry/au):

     negative rho (up, down):  2.874E-04 0.000E+00
     atom    1 type  1   force =    -0.00024691   -0.00015209    0.00193267
     atom    2 type  1   force =     0.00024797   -0.00014742    0.00193277
     atom    3 type  1   force =     0.00000250    0.00028847    0.00196558
     atom    4 type  1   force =    -0.00000128    0.00000926    0.00169977
     atom    5 type  1   force =    -0.00000891   -0.00097975    0.00249148
     atom    6 type  1   force =     0.00000933    0.00001015   -0.00449802
     atom    7 type  1   force =     0.00085996    0.00049615    0.00249010
     atom    8 type  1   force =    -0.00085938    0.00047930    0.00250090
     atom    9 type  1   force =    -0.00000441   -0.00000866   -0.01760227
     atom   10 type  1   force =     0.00000267    0.01761947    0.02313248
     atom   11 type  1   force =     0.01526771   -0.00880445    0.02313946
     atom   12 type  1   force =    -0.01527111   -0.00881103    0.02314439
     atom   13 type  2   force =     0.00000184    0.00000178   -0.11025640
     atom   14 type  3   force =     0.00000003   -0.00000118    0.04792711

     Total force =     0.131535     Total SCF correction =     0.003462

     entering subroutine stress ...

     negative rho (up, down):  2.874E-04 0.000E+00
          total   stress  (Ry/bohr**3)                   (kbar)     P=   -1.35
   0.00000504  -0.00000000  -0.00000000          0.74     -0.00     -0.00
  -0.00000000   0.00000503  -0.00000000         -0.00      0.74     -0.00
  -0.00000000  -0.00000000  -0.00003764         -0.00     -0.00     -5.54

     BFGS Geometry Optimization

     number of scf cycles    =   1
     number of bfgs steps    =   0

     energy   new            =   -1171.5933804236 Ry

     new trust radius        =       0.1102564022 bohr
     new conv_thr            =       0.0000099958 Ry

ATOMIC_POSITIONS (crystal)
Sc1      0.166666667   0.166666667   0.395942884    0   0   0
Sc1      0.666666667   0.166666667   0.395942884    0   0   0
Sc1      0.166666667   0.666666667   0.395942884    0   0   0
Sc1      0.666666667   0.666666667   0.395942884    0   0   0
Sc1      0.833333333   0.333333333   0.500000000    0   0   0
Sc1      0.333333333   0.333333333   0.500000000    0   0   0
Sc1      0.833333333   0.833333333   0.500000000    0   0   0
Sc1      0.333333333   0.833333333   0.500000000    0   0   0
Sc1      0.000000049  -0.000000822   0.603688306
Sc1      0.499164003   0.001672432   0.604541796
Sc1      0.001672905   0.499164286   0.604541943
Sc1      0.499162842   0.499163661   0.604542046
O1       0.333333400   0.333333502   0.662484618
H1       0.333333391   0.333333222   0.703413516

     Writing output data file calc.save
     Check: negative starting charge=   -0.000371
     NEW-OLD atomic charge density approx. for the potential
     Check: negative starting charge=   -0.000368

[...]

     energy   old            =   -1171.5933804236 Ry
     energy   new            =   -1171.5972175878 Ry

     CASE: energy  _new < energy  _old

[...]

     WARNING: bfgs curvature condition failed, Theta= 0.948
     new trust radius        =       0.0162204243 bohr
     new conv_thr            =       0.0000001000 Ry

[...]

     iteration #  1     ecut=    36.75 Ry     beta=0.30
     Davidson diagonalization with overlap
     c_bands:  1 eigenvalues not converged
     ethr =  1.00E-06,  avg # of iterations =  8.7

[...]

     Threshold (ethr) on eigenvalues was too large:
     Diagonalizing with lowered threshold

     Davidson diagonalization with overlap
     ethr =  1.01E-08,  avg # of iterations =  4.8

[...]

     WARNING: bfgs curvature condition failed, Theta= 0.854
     new trust radius        =       0.0064489401 bohr
     new conv_thr            =       0.0000001000 Ry

[...]

     Threshold (ethr) on eigenvalues was too large:
     Diagonalizing with lowered threshold

     Davidson diagonalization with overlap
     ethr =  7.27E-08,  avg # of iterations =  1.2

[...]

     Total force =     0.004992     Total SCF correction =     0.000426

[...]

     Total force =     0.003164     Total SCF correction =     0.000759
     SCF correction compared to forces is large: reduce conv_thr to get better values

[...]

     number of scf cycles    =  19
     number of bfgs steps    =  18

     energy   old            =   -1171.6195201173 Ry
     energy   new            =   -1171.6195301699 Ry

     CASE: energy  _new < energy  _old

     new trust radius        =       0.0039993913 bohr
     new conv_thr            =       0.0000001000 Ry

ATOMIC_POSITIONS (crystal)
Sc1      0.166666667   0.166666667   0.395942884    0   0   0
Sc1      0.666666667   0.166666667   0.395942884    0   0   0
Sc1      0.166666667   0.666666667   0.395942884    0   0   0
Sc1      0.666666667   0.666666667   0.395942884    0   0   0
Sc1      0.833333333   0.333333333   0.500000000    0   0   0
Sc1      0.333333333   0.333333333   0.500000000    0   0   0
Sc1      0.833333333   0.833333333   0.500000000    0   0   0
Sc1      0.333333333   0.833333333   0.500000000    0   0   0
Sc1      0.000004379  -0.000015211   0.596612589
Sc1      0.499917482   0.000171004   0.606564194
Sc1      0.000174476   0.499923918   0.606564774
Sc1      0.499902295   0.499919433   0.606564938
O1       0.333337325   0.333332003   0.654443564
H1       0.333330512   0.333335052   0.693147301

     Writing output data file calc.save
     Check: negative starting charge=   -0.000373
     NEW-OLD atomic charge density approx. for the potential
     Check: negative starting charge=   -0.000373

[...]

     Self-consistent Calculation

[...]

     total energy              =   -1171.61953586 Ry
     Harris-Foulkes estimate   =   -1171.61953582 Ry
     estimated scf accuracy    <       0.00000015 Ry

     iteration #  8     ecut=    36.75 Ry     beta=0.30
     Davidson diagonalization with overlap
     ethr =  8.41E-11,  avg # of iterations =  2.4

[...]

     negative rho (up, down):  2.737E-04 0.000E+00

     Adding external electric field

     Computed dipole along edir(3) :
        Dipole                0.2869 Ry au,          0.7293 Debye
        Dipole field          0.0006 Ry au

        Potential amp.       -0.0549 Ry
        Total length         46.5341 bohr

     End of self-consistent calculation

[...]

          k = 0.0518-0.0598 0.0000 ( 23012 PWs)   bands (ev):

[...]

          k =-0.0777-0.0448 0.0000 ( 23032 PWs)   bands (ev):

   -49.1179 -49.1063 -49.0938 -49.0416 -49.0324 -49.0146 -49.0094 -48.9039
   -48.5992 -48.5751 -48.5604 -48.5530 -27.8692 -27.7803 -27.7681 -27.7485
   -27.7173 -27.7173 -27.7105 -27.7070 -27.7058 -27.6993 -27.6810 -27.6769
   -27.6743 -27.6561 -27.6330 -27.6053 -27.6028 -27.5786 -27.5763 -27.5621
   -27.4761 -27.4760 -27.4692 -27.4204 -27.2848 -27.2517 -27.1911 -27.1693
   -27.1673 -27.1494 -27.1465 -27.1384 -27.1347 -27.1345 -27.0630 -27.0343
   -20.7783  -8.5725  -5.0867  -5.0313  -2.5175  -2.4746  -1.5059  -1.3910
    -0.6265  -0.6130  -0.3483  -0.2316  -0.0732  -0.0693   0.5936   0.5940
     0.6421   0.6575   0.6774   0.7834   0.9189   0.9414   0.9841   0.9854
     1.0267   1.1181   1.2029   1.2503   1.3490   1.3796   1.3883

     the Fermi energy is     0.8903 ev

!    total energy              =   -1171.61953655 Ry
     Harris-Foulkes estimate   =   -1171.61953810 Ry
     estimated scf accuracy    <       0.00000005 Ry

     The total energy is the sum of the following terms:

     one-electron contribution =   -7527.90392375 Ry
     hartree contribution      =    3750.24902789 Ry
     xc contribution           =    -174.88468226 Ry
     ewald contribution        =    2781.05324482 Ry
     electric field correction =       0.00016915 Ry
     smearing contrib. (-TS)   =      -0.13337240 Ry

     convergence has been achieved in   8 iterations

 BEEF-vdW xc energy contributions
           1 :   -148.230840004478
           2 :    130.371893349520
           3 :   -102.506478836525
           4 :    75.3624758482147
           5 :   -56.4950099043108
           6 :    47.2580515823081
           7 :   -44.0899594911106
           8 :    42.2723225607020
           9 :   -39.1553507087599
          10 :    34.9436342200638
          11 :   -31.2701490430734
          12 :    29.2258361875265
          13 :   -28.4501052572997
          14 :    27.7005306377644
          15 :   -26.0951053978271
          16 :    23.8375725196813
          17 :   -21.8737306725308
          18 :    20.9257510257069
          19 :   -20.8427608466112
          20 :    20.8095264099975
          21 :   -20.1274881571357
          22 :    18.8051411455198
          23 :   -17.4602038116439
          24 :    16.7008015106890
          25 :   -16.5876619663189
          26 :    16.6373139043770
          27 :   -16.3065049525795
          28 :    15.4806687431911
          29 :   -14.5325037124135
          30 :    13.9390276429815
          31 :   -17.4624356097206
          32 :   -12.4735744513370

     Forces acting on atoms (Ry/au):

     negative rho (up, down):  2.737E-04 0.000E+00
     atom    1 type  1   force =     0.00089539    0.00051744    0.00156386
     atom    2 type  1   force =    -0.00089538    0.00051762    0.00156354
     atom    3 type  1   force =     0.00000029   -0.00103427    0.00156331
     atom    4 type  1   force =    -0.00000034   -0.00000032    0.00292592
     atom    5 type  1   force =    -0.00000017    0.00230617   -0.00169650
     atom    6 type  1   force =     0.00000038    0.00000181   -0.00341664
     atom    7 type  1   force =    -0.00199890   -0.00115437   -0.00170373
     atom    8 type  1   force =     0.00199842   -0.00115419   -0.00170178
     atom    9 type  1   force =     0.00000520    0.00002078    0.00123520
     atom   10 type  1   force =    -0.00000527   -0.00024985    0.00017703
     atom   11 type  1   force =    -0.00022932    0.00011176    0.00017546
     atom   12 type  1   force =     0.00023395    0.00011988    0.00017398
     atom   13 type  2   force =    -0.00000557   -0.00000195   -0.00107271
     atom   14 type  3   force =     0.00000133   -0.00000051    0.00021308

     Total force =     0.001735     Total SCF correction =     0.000659
     SCF correction compared to forces is large: reduce conv_thr to get better values

     entering subroutine stress ...

     negative rho (up, down):  2.737E-04 0.000E+00
          total   stress  (Ry/bohr**3)                   (kbar)     P=    1.90
   0.00002458   0.00000000  -0.00000000          3.62      0.00     -0.00
   0.00000000   0.00002458  -0.00000000          0.00      3.62     -0.00
  -0.00000000  -0.00000000  -0.00001045         -0.00     -0.00     -1.54

     bfgs converged in  20 scf cycles and  19 bfgs steps
     (criteria: energy <  1.0E+00, force <  1.9E-03)

     End of BFGS Geometry Optimization

     Final energy   =   -1171.6195365534 Ry
Begin final coordinates

ATOMIC_POSITIONS (crystal)
Sc1      0.166666667   0.166666667   0.395942884    0   0   0
Sc1      0.666666667   0.166666667   0.395942884    0   0   0
Sc1      0.166666667   0.666666667   0.395942884    0   0   0
Sc1      0.666666667   0.666666667   0.395942884    0   0   0
Sc1      0.833333333   0.333333333   0.500000000    0   0   0
Sc1      0.333333333   0.333333333   0.500000000    0   0   0
Sc1      0.833333333   0.833333333   0.500000000    0   0   0
Sc1      0.333333333   0.833333333   0.500000000    0   0   0
Sc1      0.000004379  -0.000015211   0.596612589
Sc1      0.499917482   0.000171004   0.606564194
Sc1      0.000174476   0.499923918   0.606564774
Sc1      0.499902295   0.499919433   0.606564938
O1       0.333337325   0.333332003   0.654443564
H1       0.333330512   0.333335052   0.693147301
End final coordinates

     Writing output data file calc.save

     General routines

     Parallel routines

   This run was terminated on:  23:35:41  22Apr2018

   JOB DONE.
Job  /afs/slac/g/suncat/bin/suncat-tsmpirun -x LD_LIBRARY_PATH -wdir /scratch/qe314707_je6KY pw.x -npool 4 -in pw.inp

TID   HOST_NAME   COMMAND_LINE            STATUS            TERMINATION_TIME
00000 suncat0166 pw.x -npool 4 -i  Done                     04/22/2018 23:35:41
00001 suncat0166 pw.x -npool 4 -i  Done                     04/22/2018 23:35:41
00002 suncat0166 pw.x -npool 4 -i  Done                     04/22/2018 23:35:41
00003 suncat0166 pw.x -npool 4 -i  Done                     04/22/2018 23:35:41
00004 suncat0166 pw.x -npool 4 -i  Done                     04/22/2018 23:35:41
00005 suncat0166 pw.x -npool 4 -i  Done                     04/22/2018 23:35:41
00006 suncat0166 pw.x -npool 4 -i  Done                     04/22/2018 23:35:41
00007 suncat0166 pw.x -npool 4 -i  Done                     04/22/2018 23:35:41
00008 suncat0163 pw.x -npool 4 -i  Done                     04/22/2018 23:35:41
00009 suncat0163 pw.x -npool 4 -i  Done                     04/22/2018 23:35:41
00010 suncat0163 pw.x -npool 4 -i  Done                     04/22/2018 23:35:41
00011 suncat0163 pw.x -npool 4 -i  Done                     04/22/2018 23:35:41
00012 suncat0163 pw.x -npool 4 -i  Done                     04/22/2018 23:35:41
00013 suncat0163 pw.x -npool 4 -i  Done                     04/22/2018 23:35:41
00014 suncat0163 pw.x -npool 4 -i  Done                     04/22/2018 23:35:41
00015 suncat0163 pw.x -npool 4 -i  Done                     04/22/2018 23:35:41
00016 suncat0270 pw.x -npool 4 -i  Done                     04/22/2018 23:35:41
00017 suncat0270 pw.x -npool 4 -i  Done                     04/22/2018 23:35:41
00018 suncat0270 pw.x -npool 4 -i  Done                     04/22/2018 23:35:41
00019 suncat0270 pw.x -npool 4 -i  Done                     04/22/2018 23:35:41
00020 suncat0270 pw.x -npool 4 -i  Done                     04/22/2018 23:35:41
00021 suncat0270 pw.x -npool 4 -i  Done                     04/22/2018 23:35:41
00022 suncat0270 pw.x -npool 4 -i  Done                     04/22/2018 23:35:41
00023 suncat0270 pw.x -npool 4 -i  Done                     04/22/2018 23:35:41
00024 suncat0246 pw.x -npool 4 -i  Done                     04/22/2018 23:35:41
00025 suncat0246 pw.x -npool 4 -i  Done                     04/22/2018 23:35:41
00026 suncat0246 pw.x -npool 4 -i  Done                     04/22/2018 23:35:41
00027 suncat0246 pw.x -npool 4 -i  Done                     04/22/2018 23:35:41
00028 suncat0246 pw.x -npool 4 -i  Done                     04/22/2018 23:35:41
00029 suncat0246 pw.x -npool 4 -i  Done                     04/22/2018 23:35:41
00030 suncat0246 pw.x -npool 4 -i  Done                     04/22/2018 23:35:41
00031 suncat0246 pw.x -npool 4 -i  Done                     04/22/2018 23:35:41