     Program PWSCF v.5.1rc2 (svn rev. 11289) starts on  2May2018 at 23: 1:13

     Current dimensions of program PWSCF are:
     Max number of different atomic species (ntypx) = 10
     Max number of k-points (npk) =  40000
     Max angular momentum in pseudopotentials (lmaxx) =  3
     Presently stress not available with electric field

     IMPORTANT: XC functional enforced from input :
     Exchange-correlation      = BEEF-VDW ( 1  4 27 13 2)
     Any further DFT definition will be discarded
     Please, verify this is what you really want

     Subspace diagonalization in iterative solution of the eigenvalue problem:
     a serial algorithm will be used

     bravais-lattice index     =            0
     lattice parameter (alat)  =       1.8897  a.u.
     unit-cell volume          =    4515.4205 (a.u.)^3
     number of atoms/cell      =           13
     number of atomic types    =            2
     number of electrons       =       246.00
     number of Kohn-Sham states=          133
     kinetic-energy cutoff     =      36.7493  Ry
     charge density cutoff     =     367.4932  Ry
     convergence threshold     =      1.0E-05
     mixing beta               =       0.3000
     number of iterations used =           10  plain     mixing
     Exchange-correlation      = BEEF-VDW ( 1  4 27 13 2)
     nstep                     =           50

     celldm(1)=   1.889726  celldm(2)=   0.000000  celldm(3)=   0.000000
     celldm(4)=   0.000000  celldm(5)=   0.000000  celldm(6)=   0.000000

     crystal axes: (cart. coord. in units of alat)
               a(1) = (   5.606773   0.000000   0.000000 )
               a(2) = (   2.803387   4.855608   0.000000 )
               a(3) = (   0.000000   0.000000  24.577911 )

     reciprocal axes: (cart. coord. in units 2 pi/alat)
               b(1) = (  0.178356 -0.102974  0.000000 )
               b(2) = (  0.000000  0.205947  0.000000 )
               b(3) = (  0.000000  0.000000  0.040687 )

     PseudoPot. # 1 for Zn read from file:
     /u/if/mamunm/psp/gbrv1.5pbe/Zn.UPF
     MD5 check sum: df62231357ef9e81f77b2b3087fa5675
     Pseudo is Ultrasoft, Zval = 20.0
     Generated by new atomic code, or converted to UPF format
     Using radial grid of  943 points,  6 beta functions with:
                l(1) =   0
                l(2) =   0
                l(3) =   1
                l(4) =   1
                l(5) =   2
                l(6) =   2
     Q(r) pseudized with  8 coefficients,  rinner =    1.100   1.100   1.100
                                                       1.100   1.100

     PseudoPot. # 2 for O  read from file:
     /u/if/mamunm/psp/gbrv1.5pbe/O.UPF
     MD5 check sum: 734c27235a0248c51dbae37a1fbe46ec
     Pseudo is Ultrasoft + core correction, Zval =  6.0
     Generated by new atomic code, or converted to UPF format
     Using radial grid of  737 points,  5 beta functions with:
                l(1) =   0
                l(2) =   0
                l(3) =   1
                l(4) =   1
                l(5) =   2
     Q(r) pseudized with  8 coefficients,  rinner =    0.900   0.900   0.900
                                                       0.900   0.900

     vdW kernel table read from file vdW_kernel_table
     MD5 check sum: 095c7af220d748ca6e76c0b4c6cfb241

     atomic species   valence    mass     pseudopotential
        Zn1           20.00    65.38000     Zn( 1.00)
        O1             6.00    15.99900     O ( 1.00)

     No symmetry found

   Cartesian axes

     site n.     atom                  positions (alat units)
         1           Zn1 tau(   1) = (   1.4016933   0.8092680  10.0000000  )
         2           Zn1 tau(   2) = (   4.2050800   0.8092680  10.0000000  )
         3           Zn1 tau(   3) = (   2.8033867   3.2370721  10.0000000  )
         4           Zn1 tau(   4) = (   5.6067733   3.2370721  10.0000000  )
         5           Zn1 tau(   5) = (   5.6067733   1.6185360  12.2889556  )
         6           Zn1 tau(   6) = (   2.8033867   1.6185360  12.2889556  )
         7           Zn1 tau(   7) = (   7.0084667   4.0463401  12.2889556  )
         8           Zn1 tau(   8) = (   4.2050800   4.0463401  12.2889556  )
         9           Zn1 tau(   9) = (   0.0000000   0.0000000  14.5779113  )
        10           Zn1 tau(  10) = (   2.8033867   0.0000000  14.5779113  )
        11           Zn1 tau(  11) = (   1.4016933   2.4278041  14.5779113  )
        12           Zn1 tau(  12) = (   4.2050800   2.4278041  14.5779113  )
        13           O1  tau(  13) = (   1.4016933   0.8092680  15.7999113  )

     number of k points=    20  Fermi-Dirac smearing, width (Ry)=  0.0110
                       cart. coord. in units 2pi/alat
        k(    1) = (   0.0000000   0.0000000   0.0000000), wk =   0.0555556
        k(    2) = (   0.0000000   0.0343246   0.0000000), wk =   0.1111111
        k(    3) = (   0.0000000   0.0686491   0.0000000), wk =   0.1111111
        k(    4) = (   0.0000000  -0.1029737   0.0000000), wk =   0.0555556
        k(    5) = (   0.0297260  -0.0171623   0.0000000), wk =   0.1111111
        k(    6) = (   0.0297260   0.0171623   0.0000000), wk =   0.1111111
        k(    7) = (   0.0297260   0.0514869   0.0000000), wk =   0.1111111
        k(    8) = (   0.0297260  -0.1201360   0.0000000), wk =   0.1111111
        k(    9) = (   0.0297260  -0.0858114   0.0000000), wk =   0.1111111
        k(   10) = (   0.0297260  -0.0514869   0.0000000), wk =   0.1111111
        k(   11) = (   0.0594519  -0.0343246   0.0000000), wk =   0.1111111
        k(   12) = (   0.0594519   0.0000000   0.0000000), wk =   0.1111111
        k(   13) = (   0.0594519   0.0343246   0.0000000), wk =   0.1111111
        k(   14) = (   0.0594519  -0.1372983   0.0000000), wk =   0.1111111
        k(   15) = (   0.0594519  -0.1029737   0.0000000), wk =   0.1111111
        k(   16) = (   0.0594519  -0.0686491   0.0000000), wk =   0.1111111
        k(   17) = (  -0.0891779   0.0514869   0.0000000), wk =   0.0555556
        k(   18) = (  -0.0891779   0.0858114   0.0000000), wk =   0.1111111
        k(   19) = (  -0.0891779   0.1201360   0.0000000), wk =   0.1111111
        k(   20) = (  -0.0891779  -0.0514869   0.0000000), wk =   0.0555556

     Largest allocated arrays     est. size (Mb)     dimensions
     Largest temporary arrays     est. size (Mb)     dimensions

     Initial potential from superposition of free atoms
     Check: negative starting charge=   -0.000903

     starting charge  245.99831, renormalised to  246.00000

     negative rho (up, down):  9.034E-04 0.000E+00

     *
     * You are using vdW-DF for exchange-correlation in this calculation.
     * Please cite the following three references that made this development
     * possible:
     *
     *   M. Dion, H. Rydberg, E. Schroder, D. C. Langreth, and
     *   B. I. Lundqvist, Phys. Rev. Lett. 92, 246401 (2004).
     *
     *   T. Thonhauser, V. R. Cooper, S. Li, A. Puzder, P. Hyldgaard, and
     *   D. C. Langreth, Phys. Rev. B 76, 125112 (2007).
     *
     *   G. Roman-Perez and J. M. Soler, Phys. Rev. Lett. 103, 096102 (2009).
     *
     *
     * If you are using vdW-DF2, please also cite:
     *
     *   K. Lee, E. D. Murray, L. Kong, B. I. Lundqvist, and
     *   D. C. Langreth, Phys. Rev. B 82, 081101(R) (2010).
     *
     *
     * If you are calculating the stress with vdW-DF, please also cite:
     *
     *   R. Sabatini, E. Kucukbenli, B. Kolb, T. Thonhauser, and
     *   S. de Gironcoli, J. Phys.: Condens. Matter 24, 424209 (2012).
     *

     Carrying out vdW-DF run using the following parameters:

     Nqs =      20    Nr_points =    1024   r_max =   100.000
     q_mesh =
               0.00001000     0.04494208     0.09755937     0.15916263
               0.23128650     0.31572767     0.41458969     0.53033537
               0.66584808     0.82450364     1.01025438     1.22772762
               1.48234092     1.78043706     2.12944203     2.53805004
               3.01644009     3.57652955     4.23227104     5.00000000

     Gradients computed in reciprocal space

     Adding external electric field

     Computed dipole along edir(3) :
        Dipole               -0.0003 Ry au,         -0.0007 Debye
        Dipole field         -0.0000 Ry au

        Potential amp.        0.0001 Ry
        Total length         45.2844 bohr

     Starting wfc are  160 randomized atomic wfcs

     Self-consistent Calculation

     iteration #  1     ecut=    36.75 Ry     beta=0.30
     Davidson diagonalization with overlap
     ethr =  1.00E-02,  avg # of iterations =  2.0

     Threshold (ethr) on eigenvalues was too large:
     Diagonalizing with lowered threshold

     Davidson diagonalization with overlap
     ethr =  7.00E-04,  avg # of iterations =  1.4

[...]

     total energy              =   -5585.31157056 Ry
     Harris-Foulkes estimate   =   -5586.08402157 Ry
     estimated scf accuracy    <       1.71117951 Ry

[...]

     End of self-consistent calculation

          k = 0.0000 0.0000 0.0000 ( 16931 PWs)   bands (ev):

  -126.7851-126.7603-126.7594-126.7594-126.5951-126.5662-126.5653-126.5653
  -126.4613-126.3738-126.3729-126.3729 -80.9662 -80.9633 -80.9633 -80.9401
   -80.9390 -80.9390 -80.9386 -80.9376 -80.9376 -80.9333 -80.9263 -80.9263
   -80.7809 -80.7699 -80.7699 -80.7540 -80.7530 -80.7530 -80.7458 -80.7409
   -80.7409 -80.7358 -80.7331 -80.7330 -80.6391 -80.6391 -80.6389 -80.5936
   -80.5913 -80.5913 -80.5866 -80.5866 -80.5860 -80.4965 -80.4896 -80.4896
   -17.5911  -9.4555  -8.3199  -8.3166  -8.3166  -8.3053  -8.2299  -8.2299
    -8.2145  -8.1764  -8.1145  -8.1145  -8.0892  -7.9657  -7.9657  -7.9248
    -7.7756  -7.7756  -7.7342  -7.7342  -7.7334  -7.6995  -7.6939  -7.6939
    -7.6582  -7.6582  -7.6471  -7.6112  -7.6112  -7.5996  -7.5067  -7.5067
    -7.3723  -7.3723  -7.3026  -7.2970  -7.2970  -7.2815  -7.2815  -7.2635
    -7.2487  -7.2487  -7.1977  -7.1966  -7.1966  -7.1902  -7.1902  -7.1828
    -7.1335  -7.1335  -7.0668  -7.0500  -7.0485  -7.0485  -7.0166  -7.0166
    -6.9939  -6.9939  -6.9832  -6.8572  -6.8572  -6.8443  -6.8269  -3.9240
    -3.3661  -3.3661  -3.0997  -2.5617  -2.5617  -2.4046  -1.9912  -1.9912
    -1.7974  -1.0533  -0.7343  -0.7343  -0.6684   0.0864   0.0864   0.8930
     1.9815   1.9815   2.2793   2.6685   3.3698

[...]

          k =-0.0892 0.0515 0.0000 ( 17028 PWs)   bands (ev):

[...]

     the Fermi energy is     0.0101 ev

!    total energy              =   -5585.81334711 Ry
     Harris-Foulkes estimate   =   -5585.81333718 Ry
     estimated scf accuracy    <       0.00000151 Ry

     The total energy is the sum of the following terms:

     one-electron contribution =  -36284.33680314 Ry
     hartree contribution      =   18120.61821674 Ry
     xc contribution           =    -528.48619957 Ry
     ewald contribution        =   13106.42013953 Ry
     electric field correction =       0.00040422 Ry
     smearing contrib. (-TS)   =      -0.02910489 Ry

     convergence has been achieved in  11 iterations

 BEEF-vdW xc energy contributions
           1 :   -469.338802624159
           2 :    425.140055868409
           3 :   -351.092661891034
           4 :    268.741330315458
           5 :   -197.044723520613
           6 :    145.308726709053
           7 :   -112.017066218117
           8 :    89.1843837880954
           9 :   -68.8803604600499
          10 :    47.8359408354738
          11 :   -27.8689622664361
          12 :    12.8167015657986
          13 :   -4.75840333843638
          14 :    2.27221275047316
          15 :   -1.60627160335144
          16 :  -0.555299543700755
          17 :    4.97631843901218
          18 :   -9.85519092577397
          19 :    12.6561431515530
          20 :   -12.2279397356907
          21 :    9.62331060203331
          22 :   -7.16556216451352
          23 :    6.64628408299558
          24 :   -8.09153510534787
          25 :    9.96175065242841
          26 :   -10.4942398126761
          27 :    9.07050098355791
          28 :   -6.58629022087382
          29 :    4.64237461943105
          30 :   -4.27424610218492
          31 :   -36.4809628174859
          32 :   -24.8575175120675

     Forces acting on atoms (Ry/au):

     negative rho (up, down):  1.175E-03 0.000E+00
     atom    1 type  1   force =     0.00000059   -0.00000200   -0.00566980
     atom    2 type  1   force =    -0.00000097   -0.00050573   -0.00977183
     atom    3 type  1   force =    -0.00043500    0.00024876   -0.00977383
     atom    4 type  1   force =     0.00043346    0.00025037   -0.00978150
     atom    5 type  1   force =     0.00263510   -0.00151959    0.00021095
     atom    6 type  1   force =    -0.00263554   -0.00152209    0.00021189
     atom    7 type  1   force =    -0.00000065   -0.00000077    0.00676032
     atom    8 type  1   force =     0.00000157    0.00303952    0.00021465
     atom    9 type  1   force =    -0.00974021   -0.00562158    0.02477864
     atom   10 type  1   force =     0.00974777   -0.00563118    0.02477060
     atom   11 type  1   force =    -0.00000223    0.01126811    0.02476458
     atom   12 type  1   force =    -0.00000241   -0.00000189   -0.00119179
     atom   13 type  2   force =    -0.00000147   -0.00000191   -0.04552287

     Total force =     0.065535     Total SCF correction =     0.009419
     SCF correction compared to forces is large: reduce conv_thr to get better values

     entering subroutine stress ...

     negative rho (up, down):  1.175E-03 0.000E+00
          total   stress  (Ry/bohr**3)                   (kbar)     P=  -16.10
  -0.00015101  -0.00000000  -0.00000000        -22.21     -0.00     -0.00
  -0.00000000  -0.00015101  -0.00000000         -0.00    -22.21     -0.00
  -0.00000000  -0.00000000  -0.00002623         -0.00     -0.00     -3.86

     BFGS Geometry Optimization

     number of scf cycles    =   1
     number of bfgs steps    =   0

     energy   new            =   -5585.8133471102 Ry

     new trust radius        =       0.0455228734 bohr
     new conv_thr            =       0.0000099958 Ry

ATOMIC_POSITIONS (crystal)
Zn1      0.166666667   0.166666667   0.406869400    0   0   0
Zn1      0.666666667   0.166666667   0.406869400    0   0   0
Zn1      0.166666667   0.666666667   0.406869400    0   0   0
Zn1      0.666666667   0.666666667   0.406869400    0   0   0
Zn1      0.833333333   0.333333333   0.500000000    0   0   0
Zn1      0.333333333   0.333333333   0.500000000    0   0   0
Zn1      0.833333333   0.833333333   0.500000000    0   0   0
Zn1      0.333333333   0.833333333   0.500000000    0   0   0
Zn1     -0.000612971  -0.000612655   0.593664099
Zn1      0.501226863  -0.000613702   0.593663926
Zn1     -0.000614225   0.501228029   0.593663797
Zn1      0.499999876   0.499999794   0.593104940
O1       0.166666632   0.166666458   0.641869906

     Writing output data file calc.save
     Check: negative starting charge=   -0.000903
     NEW-OLD atomic charge density approx. for the potential
     Check: negative starting charge=   -0.000909

[...]

     energy   old            =   -5585.8133471102 Ry
     energy   new            =   -5585.8174506078 Ry

     CASE: energy  _new < energy  _old

     WARNING: bfgs curvature condition failed, Theta= 0.937
     new trust radius        =       0.0682843101 bohr
     new conv_thr            =       0.0000001000 Ry

[...]

     Total force =     0.049440     Total SCF correction =     0.001357

[...]

     WARNING: bfgs curvature condition failed, Theta= 0.815
     new trust radius        =       0.0165986093 bohr
     new conv_thr            =       0.0000001000 Ry

[...]

     Total force =     0.009084     Total SCF correction =     0.000648

[...]

     CASE: energy  _new < energy  _old

[...]

     number of scf cycles    =  19
     number of bfgs steps    =  18

     energy   old            =   -5585.8481315199 Ry
     energy   new            =   -5585.8481181824 Ry

     CASE: energy  _new > energy  _old

     new trust radius        =       0.0138868169 bohr
     new conv_thr            =       0.0000001000 Ry

ATOMIC_POSITIONS (crystal)
Zn1      0.166666667   0.166666667   0.406869400    0   0   0
Zn1      0.666666667   0.166666667   0.406869400    0   0   0
Zn1      0.166666667   0.666666667   0.406869400    0   0   0
Zn1      0.666666667   0.666666667   0.406869400    0   0   0
Zn1      0.833333333   0.333333333   0.500000000    0   0   0
Zn1      0.333333333   0.333333333   0.500000000    0   0   0
Zn1      0.833333333   0.833333333   0.500000000    0   0   0
Zn1      0.333333333   0.833333333   0.500000000    0   0   0
Zn1     -0.015758121  -0.015755700   0.612207818
Zn1      0.531512635  -0.015755160   0.612207232
Zn1     -0.015756030   0.531514042   0.612206871
Zn1      0.499999629   0.500002404   0.591933961
O1       0.166665823   0.166667764   0.642698888

     Writing output data file calc.save
     Check: negative starting charge=   -0.000840
     NEW-OLD atomic charge density approx. for the potential
     Check: negative starting charge=   -0.000837

[...]

     Self-consistent Calculation

[...]

     Threshold (ethr) on eigenvalues was too large:
     Diagonalizing with lowered threshold

     Davidson diagonalization with overlap
     ethr =  1.77E-08,  avg # of iterations =  1.0

[...]

     total energy              =   -5585.84813452 Ry
     Harris-Foulkes estimate   =   -5585.84813451 Ry
     estimated scf accuracy    <       0.00000019 Ry

     iteration #  7     ecut=    36.75 Ry     beta=0.30
     Davidson diagonalization with overlap
     ethr =  7.83E-11,  avg # of iterations =  2.0

[...]

     negative rho (up, down):  1.101E-03 0.000E+00

     Adding external electric field

     Computed dipole along edir(3) :
        Dipole               -0.1407 Ry au,         -0.3577 Debye
        Dipole field         -0.0004 Ry au

        Potential amp.        0.0355 Ry
        Total length         45.2844 bohr

     End of self-consistent calculation

[...]

          k = 0.0595-0.0686 0.0000 ( 16986 PWs)   bands (ev):

[...]

          k =-0.0892-0.0515 0.0000 ( 17028 PWs)   bands (ev):

  -126.3771-126.3768-126.3765-126.3699-126.2560-126.2533-126.2530-126.2527
  -126.1013-126.0223-126.0202-126.0202 -80.5586 -80.5582 -80.5577 -80.5560
   -80.5558 -80.5535 -80.5526 -80.5515 -80.5489 -80.5458 -80.5444 -80.5433
   -80.4418 -80.4416 -80.4409 -80.4408 -80.4339 -80.4304 -80.4304 -80.4268
   -80.4264 -80.4241 -80.4238 -80.4196 -80.2797 -80.2751 -80.2750 -80.2496
   -80.2441 -80.2437 -80.2297 -80.2289 -80.2213 -80.1566 -80.1408 -80.1394
   -18.0765  -7.9028  -7.8432  -7.7807  -7.6785  -7.6685  -7.6532  -7.6483
    -7.6027  -7.5974  -7.5568  -7.5503  -7.5458  -7.5185  -7.4281  -7.4075
    -7.4016  -7.3838  -7.3426  -7.3293  -7.3213  -7.3135  -7.2907  -7.2652
    -7.2634  -7.2507  -7.2348  -7.2245  -7.2222  -7.1867  -7.1742  -7.1576
    -7.1196  -7.0988  -7.0986  -7.0924  -7.0880  -7.0695  -7.0537  -7.0316
    -7.0304  -7.0023  -6.9842  -6.9585  -6.9503  -6.9456  -6.9456  -6.9185
    -6.9169  -6.8722  -6.8555  -6.8496  -6.8464  -6.7839  -6.7733  -6.7466
    -6.7329  -6.7255  -6.6959  -6.6769  -6.6618  -6.5736  -6.4186  -5.4914
    -4.7161  -4.0897  -3.6039  -3.4134  -3.1609  -2.6059  -2.5498  -1.7802
    -0.9031  -0.4567   0.6603   1.0258   1.1958   1.9927   3.0790   3.1085
     3.3441   3.4261   3.6976   4.1479   4.2370

     the Fermi energy is     0.3788 ev

!    total energy              =   -5585.84813454 Ry
     Harris-Foulkes estimate   =   -5585.84813461 Ry
     estimated scf accuracy    <       0.00000003 Ry

     The total energy is the sum of the following terms:

     one-electron contribution =  -34806.06684817 Ry
     hartree contribution      =   17384.26061993 Ry
     xc contribution           =    -528.45523769 Ry
     ewald contribution        =   12364.43557959 Ry
     electric field correction =       0.00005511 Ry
     smearing contrib. (-TS)   =      -0.02230332 Ry

     convergence has been achieved in   7 iterations

 BEEF-vdW xc energy contributions
           1 :   -469.301986514776
           2 :    425.008545148786
           3 :   -350.811223251757
           4 :    268.330901122987
           5 :   -196.588252108863
           6 :    144.887476719884
           7 :   -111.660275245326
           8 :    88.8740267282207
           9 :   -68.5951327857928
          10 :    47.5855624853247
          11 :   -27.6847797819941
          12 :    12.7121349021118
          13 :   -4.70334499253744
          14 :    2.20830236854573
          15 :   -1.49195805666523
          16 :  -0.704535579187109
          17 :    5.09073837710525
          18 :   -9.86545226321277
          19 :    12.5577418068029
          20 :   -12.0963474575292
          21 :    9.56059354637091
          22 :   -7.21823495911082
          23 :    6.76170467233908
          24 :   -8.15168828716543
          25 :    9.87111081241073
          26 :   -10.2564032018692
          27 :    8.79528083534177
          28 :   -6.41710429438137
          29 :    4.65685689397606
          30 :   -4.43594182904093
          31 :   -36.4730590486375
          32 :   -24.8178814088349

     Forces acting on atoms (Ry/au):

     negative rho (up, down):  1.101E-03 0.000E+00
     atom    1 type  1   force =     0.00000004    0.00000007   -0.01046546
     atom    2 type  1   force =    -0.00000005   -0.00014403   -0.01158519
     atom    3 type  1   force =    -0.00012475    0.00007192   -0.01158513
     atom    4 type  1   force =     0.00012477    0.00007200   -0.01158508
     atom    5 type  1   force =     0.00568836   -0.00328410    0.01181102
     atom    6 type  1   force =    -0.00568824   -0.00328407    0.01181130
     atom    7 type  1   force =    -0.00000005   -0.00000004    0.00853980
     atom    8 type  1   force =     0.00000006    0.00656849    0.01181074
     atom    9 type  1   force =    -0.00101903   -0.00058819   -0.00071674
     atom   10 type  1   force =     0.00101916   -0.00058859   -0.00071678
     atom   11 type  1   force =    -0.00000025    0.00117684   -0.00071668
     atom   12 type  1   force =    -0.00000043   -0.00000073    0.00161674
     atom   13 type  2   force =     0.00000041    0.00000043    0.00178145

     Total force =     0.003389     Total SCF correction =     0.000576
     SCF correction compared to forces is large: reduce conv_thr to get better values

     entering subroutine stress ...

     negative rho (up, down):  1.101E-03 0.000E+00
          total   stress  (Ry/bohr**3)                   (kbar)     P=  -14.58
  -0.00014420   0.00000000   0.00000000        -21.21      0.00      0.00
   0.00000000  -0.00014420   0.00000000          0.00    -21.21      0.00
   0.00000000   0.00000000  -0.00000901          0.00      0.00     -1.32

     bfgs converged in  20 scf cycles and  18 bfgs steps
     (criteria: energy <  1.0E+00, force <  1.9E-03)

     End of BFGS Geometry Optimization

     Final energy   =   -5585.8481345439 Ry
Begin final coordinates

ATOMIC_POSITIONS (crystal)
Zn1      0.166666667   0.166666667   0.406869400    0   0   0
Zn1      0.666666667   0.166666667   0.406869400    0   0   0
Zn1      0.166666667   0.666666667   0.406869400    0   0   0
Zn1      0.666666667   0.666666667   0.406869400    0   0   0
Zn1      0.833333333   0.333333333   0.500000000    0   0   0
Zn1      0.333333333   0.333333333   0.500000000    0   0   0
Zn1      0.833333333   0.833333333   0.500000000    0   0   0
Zn1      0.333333333   0.833333333   0.500000000    0   0   0
Zn1     -0.015758121  -0.015755700   0.612207818
Zn1      0.531512635  -0.015755160   0.612207232
Zn1     -0.015756030   0.531514042   0.612206871
Zn1      0.499999629   0.500002404   0.591933961
O1       0.166665823   0.166667764   0.642698888
End final coordinates

     Writing output data file calc.save

     General routines

     Parallel routines

   This run was terminated on:   0:47: 2   3May2018

   JOB DONE.
Job  /afs/slac/g/suncat/bin/suncat-tsmpirun -x LD_LIBRARY_PATH -wdir /scratch/qe518524_BA5ut pw.x -npool 4 -in pw.inp

TID   HOST_NAME   COMMAND_LINE            STATUS            TERMINATION_TIME
00000 suncat0160 pw.x -npool 4 -i  Done                     05/03/2018 00:47:02
00001 suncat0160 pw.x -npool 4 -i  Done                     05/03/2018 00:47:02
00002 suncat0160 pw.x -npool 4 -i  Done                     05/03/2018 00:47:02
00003 suncat0160 pw.x -npool 4 -i  Done                     05/03/2018 00:47:02
00004 suncat0160 pw.x -npool 4 -i  Done                     05/03/2018 00:47:02
00005 suncat0160 pw.x -npool 4 -i  Done                     05/03/2018 00:47:02
00006 suncat0160 pw.x -npool 4 -i  Done                     05/03/2018 00:47:02
00007 suncat0160 pw.x -npool 4 -i  Done                     05/03/2018 00:47:02
00008 suncat0125 pw.x -npool 4 -i  Done                     05/03/2018 00:47:02
00009 suncat0125 pw.x -npool 4 -i  Done                     05/03/2018 00:47:02
00010 suncat0125 pw.x -npool 4 -i  Done                     05/03/2018 00:47:02
00011 suncat0125 pw.x -npool 4 -i  Done                     05/03/2018 00:47:02
00012 suncat0125 pw.x -npool 4 -i  Done                     05/03/2018 00:47:02
00013 suncat0125 pw.x -npool 4 -i  Done                     05/03/2018 00:47:02
00014 suncat0125 pw.x -npool 4 -i  Done                     05/03/2018 00:47:02
00015 suncat0125 pw.x -npool 4 -i  Done                     05/03/2018 00:47:02
00016 suncat0231 pw.x -npool 4 -i  Done                     05/03/2018 00:47:02
00017 suncat0231 pw.x -npool 4 -i  Done                     05/03/2018 00:47:02
00018 suncat0231 pw.x -npool 4 -i  Done                     05/03/2018 00:47:02
00019 suncat0231 pw.x -npool 4 -i  Done                     05/03/2018 00:47:02
00020 suncat0231 pw.x -npool 4 -i  Done                     05/03/2018 00:47:02
00021 suncat0231 pw.x -npool 4 -i  Done                     05/03/2018 00:47:02
00022 suncat0231 pw.x -npool 4 -i  Done                     05/03/2018 00:47:02
00023 suncat0231 pw.x -npool 4 -i  Done                     05/03/2018 00:47:02
00024 suncat0230 pw.x -npool 4 -i  Done                     05/03/2018 00:47:02
00025 suncat0230 pw.x -npool 4 -i  Done                     05/03/2018 00:47:02
00026 suncat0230 pw.x -npool 4 -i  Done                     05/03/2018 00:47:02
00027 suncat0230 pw.x -npool 4 -i  Done                     05/03/2018 00:47:02
00028 suncat0230 pw.x -npool 4 -i  Done                     05/03/2018 00:47:02
00029 suncat0230 pw.x -npool 4 -i  Done                     05/03/2018 00:47:02
00030 suncat0230 pw.x -npool 4 -i  Done                     05/03/2018 00:47:02
00031 suncat0230 pw.x -npool 4 -i  Done                     05/03/2018 00:47:02