     Program PWSCF v.5.1rc2 (svn rev. 11289) starts on  2May2018 at 17:41:36

     Current dimensions of program PWSCF are:
     Max number of different atomic species (ntypx) = 10
     Max number of k-points (npk) =  40000
     Max angular momentum in pseudopotentials (lmaxx) =  3
     Presently stress not available with electric field

     IMPORTANT: XC functional enforced from input :
     Exchange-correlation      = BEEF-VDW ( 1  4 27 13 2)
     Any further DFT definition will be discarded
     Please, verify this is what you really want

     Subspace diagonalization in iterative solution of the eigenvalue problem:
     a serial algorithm will be used

     bravais-lattice index     =            0
     lattice parameter (alat)  =       1.8897  a.u.
     unit-cell volume          =    4158.3597 (a.u.)^3
     number of atoms/cell      =           13
     number of atomic types    =            2
     number of electrons       =       161.00
     number of Kohn-Sham states=           90
     kinetic-energy cutoff     =      36.7493  Ry
     charge density cutoff     =     367.4932  Ry
     convergence threshold     =      1.0E-05
     mixing beta               =       0.3000
     number of iterations used =           10  plain     mixing
     Exchange-correlation      = BEEF-VDW ( 1  4 27 13 2)
     nstep                     =           50

     celldm(1)=   1.889726  celldm(2)=   0.000000  celldm(3)=   0.000000
     celldm(4)=   0.000000  celldm(5)=   0.000000  celldm(6)=   0.000000

     crystal axes: (cart. coord. in units of alat)
               a(1) = (   5.399178   0.000000   0.000000 )
               a(2) = (   2.699589   4.675825   0.000000 )
               a(3) = (   0.000000   0.000000  24.408411 )

     reciprocal axes: (cart. coord. in units 2 pi/alat)
               b(1) = (  0.185213 -0.106933  0.000000 )
               b(2) = (  0.000000  0.213866  0.000000 )
               b(3) = (  0.000000  0.000000  0.040969 )

     PseudoPot. # 1 for V  read from file:
     /u/if/mamunm/psp/gbrv1.5pbe/V.UPF
     MD5 check sum: 22b79981416ebb76fdaf5b1b8640f6fb
     Pseudo is Ultrasoft + core correction, Zval = 13.0
     Generated by new atomic code, or converted to UPF format
     Using radial grid of  853 points,  6 beta functions with:
                l(1) =   0
                l(2) =   0
                l(3) =   1
                l(4) =   1
                l(5) =   2
                l(6) =   2
     Q(r) pseudized with  8 coefficients,  rinner =    1.100   1.100   1.100
                                                       1.100   1.100

     PseudoPot. # 2 for N  read from file:
     /u/if/mamunm/psp/gbrv1.5pbe/N.UPF
     MD5 check sum: 95339753478d7afb44899504a8723017
     Pseudo is Ultrasoft + core correction, Zval =  5.0
     Generated by new atomic code, or converted to UPF format
     Using radial grid of  729 points,  4 beta functions with:
                l(1) =   0
                l(2) =   0
                l(3) =   1
                l(4) =   1
     Q(r) pseudized with  8 coefficients,  rinner =    0.900   0.900   0.900

     vdW kernel table read from file vdW_kernel_table
     MD5 check sum: 095c7af220d748ca6e76c0b4c6cfb241

     atomic species   valence    mass     pseudopotential
        V1            13.00    50.94150     V ( 1.00)
        N1             5.00    14.00700     N ( 1.00)

     No symmetry found

   Cartesian axes

     site n.     atom                  positions (alat units)
         1           V1  tau(   1) = (   1.3497945   0.7793042  10.0000000  )
         2           V1  tau(   2) = (   4.0493836   0.7793042  10.0000000  )
         3           V1  tau(   3) = (   2.6995891   3.1172170  10.0000000  )
         4           V1  tau(   4) = (   5.3991782   3.1172170  10.0000000  )
         5           V1  tau(   5) = (   5.3991782   1.5586085  12.2042053  )
         6           V1  tau(   6) = (   2.6995891   1.5586085  12.2042053  )
         7           V1  tau(   7) = (   6.7489727   3.8965212  12.2042053  )
         8           V1  tau(   8) = (   4.0493836   3.8965212  12.2042053  )
         9           V1  tau(   9) = (   0.0000000   0.0000000  14.4084105  )
        10           V1  tau(  10) = (   2.6995891   0.0000000  14.4084105  )
        11           V1  tau(  11) = (   1.3497945   2.3379127  14.4084105  )
        12           V1  tau(  12) = (   4.0493836   2.3379127  14.4084105  )
        13           N1  tau(  13) = (   1.3497945   0.7793042  15.8644105  )

     number of k points=    20  Fermi-Dirac smearing, width (Ry)=  0.0110
                       cart. coord. in units 2pi/alat
        k(    1) = (   0.0000000   0.0000000   0.0000000), wk =   0.0555556
        k(    2) = (   0.0000000   0.0356443   0.0000000), wk =   0.1111111
        k(    3) = (   0.0000000   0.0712887   0.0000000), wk =   0.1111111
        k(    4) = (   0.0000000  -0.1069330   0.0000000), wk =   0.0555556
        k(    5) = (   0.0308689  -0.0178222   0.0000000), wk =   0.1111111
        k(    6) = (   0.0308689   0.0178222   0.0000000), wk =   0.1111111
        k(    7) = (   0.0308689   0.0534665   0.0000000), wk =   0.1111111
        k(    8) = (   0.0308689  -0.1247552   0.0000000), wk =   0.1111111
        k(    9) = (   0.0308689  -0.0891108   0.0000000), wk =   0.1111111
        k(   10) = (   0.0308689  -0.0534665   0.0000000), wk =   0.1111111
        k(   11) = (   0.0617378  -0.0356443   0.0000000), wk =   0.1111111
        k(   12) = (   0.0617378   0.0000000   0.0000000), wk =   0.1111111
        k(   13) = (   0.0617378   0.0356443   0.0000000), wk =   0.1111111
        k(   14) = (   0.0617378  -0.1425773   0.0000000), wk =   0.1111111
        k(   15) = (   0.0617378  -0.1069330   0.0000000), wk =   0.1111111
        k(   16) = (   0.0617378  -0.0712887   0.0000000), wk =   0.1111111
        k(   17) = (  -0.0926067   0.0534665   0.0000000), wk =   0.0555556
        k(   18) = (  -0.0926067   0.0891108   0.0000000), wk =   0.1111111
        k(   19) = (  -0.0926067   0.1247552   0.0000000), wk =   0.1111111
        k(   20) = (  -0.0926067  -0.0534665   0.0000000), wk =   0.0555556

     Largest allocated arrays     est. size (Mb)     dimensions
     Largest temporary arrays     est. size (Mb)     dimensions

     Check: negative/imaginary core charge=   -0.000001    0.000000

     Initial potential from superposition of free atoms
     Check: negative starting charge=   -0.011688

     starting charge  160.98526, renormalised to  161.00000

     negative rho (up, down):  1.169E-02 0.000E+00

     *
     * You are using vdW-DF for exchange-correlation in this calculation.
     * Please cite the following three references that made this development
     * possible:
     *
     *   M. Dion, H. Rydberg, E. Schroder, D. C. Langreth, and
     *   B. I. Lundqvist, Phys. Rev. Lett. 92, 246401 (2004).
     *
     *   T. Thonhauser, V. R. Cooper, S. Li, A. Puzder, P. Hyldgaard, and
     *   D. C. Langreth, Phys. Rev. B 76, 125112 (2007).
     *
     *   G. Roman-Perez and J. M. Soler, Phys. Rev. Lett. 103, 096102 (2009).
     *
     *
     * If you are using vdW-DF2, please also cite:
     *
     *   K. Lee, E. D. Murray, L. Kong, B. I. Lundqvist, and
     *   D. C. Langreth, Phys. Rev. B 82, 081101(R) (2010).
     *
     *
     * If you are calculating the stress with vdW-DF, please also cite:
     *
     *   R. Sabatini, E. Kucukbenli, B. Kolb, T. Thonhauser, and
     *   S. de Gironcoli, J. Phys.: Condens. Matter 24, 424209 (2012).
     *

     Carrying out vdW-DF run using the following parameters:

     Nqs =      20    Nr_points =    1024   r_max =   100.000
     q_mesh =
               0.00001000     0.04494208     0.09755937     0.15916263
               0.23128650     0.31572767     0.41458969     0.53033537
               0.66584808     0.82450364     1.01025438     1.22772762
               1.48234092     1.78043706     2.12944203     2.53805004
               3.01644009     3.57652955     4.23227104     5.00000000

     Gradients computed in reciprocal space

     Adding external electric field

     Computed dipole along edir(3) :
        Dipole               -0.0031 Ry au,         -0.0079 Debye
        Dipole field         -0.0000 Ry au

        Potential amp.        0.0008 Ry
        Total length         44.9721 bohr

     Starting wfc are  124 randomized atomic wfcs

     Self-consistent Calculation

     iteration #  1     ecut=    36.75 Ry     beta=0.30
     Davidson diagonalization with overlap
     ethr =  1.00E-02,  avg # of iterations =  2.4

[...]

     total energy              =   -1764.14312514 Ry
     Harris-Foulkes estimate   =   -1769.89319276 Ry
     estimated scf accuracy    <      11.91715323 Ry

[...]

     End of self-consistent calculation

          k = 0.0000 0.0000 0.0000 ( 15569 PWs)   bands (ev):

   -63.7015 -63.6110 -63.5915 -63.5757 -63.5751 -63.5360 -63.5027 -63.5021
   -63.4755 -63.4563 -63.4562 -63.4502 -37.7612 -37.7604 -37.7602 -37.7305
   -37.7108 -37.7055 -37.7053 -37.6211 -37.6211 -37.6181 -37.4863 -37.4350
   -37.4022 -37.4018 -37.3322 -37.3320 -37.3265 -37.2758 -37.2757 -37.2746
   -37.1993 -37.1990 -37.1902 -37.1880 -37.1878 -37.1851 -37.1422 -37.1191
   -37.1190 -37.1054 -37.1053 -37.1045 -37.0478 -37.0477 -36.9828 -36.9827
   -12.1073  -5.3685  -3.7568  -2.7622  -2.5663  -2.5662  -2.4257  -2.3359
    -2.2747  -2.2747  -1.9230  -1.8754  -1.8753  -1.6574  -1.6574  -1.6356
    -1.1855  -1.1855  -0.9781  -0.4760  -0.4759   0.0271   0.2355   0.3274
     0.3274   0.3676   0.5853   0.7934   0.8012   0.8012   0.8773   0.8774
     0.9259   0.9663   0.9664   1.0419   1.0639   1.0639   1.1578   1.1578
     1.6899   1.6900

[...]

          k =-0.0926 0.0535 0.0000 ( 15660 PWs)   bands (ev):

[...]

     the Fermi energy is     0.6494 ev

!    total energy              =   -1769.23882810 Ry
     Harris-Foulkes estimate   =   -1769.23883036 Ry
     estimated scf accuracy    <       0.00000358 Ry

     The total energy is the sum of the following terms:

     one-electron contribution =  -15325.26940495 Ry
     hartree contribution      =    7649.93323824 Ry
     xc contribution           =    -249.57041652 Ry
     ewald contribution        =    6155.80515243 Ry
     electric field correction =       0.00027969 Ry
     smearing contrib. (-TS)   =      -0.13767698 Ry

     convergence has been achieved in  31 iterations

 BEEF-vdW xc energy contributions
           1 :   -214.991680630404
           2 :    192.862118187193
           3 :   -156.345417100201
           4 :    116.946823269142
           5 :   -84.6432559407356
           6 :    64.1376526012126
           7 :   -54.2639978059783
           8 :    50.2301450716220
           9 :   -47.0034425351429
          10 :    41.8676673113970
          11 :   -35.0457228374502
          12 :    28.5366706662283
          13 :   -24.2496676157215
          14 :    22.6598964166396
          15 :   -22.6792745964524
          16 :    22.5805436897169
          17 :   -21.2051377456387
          18 :    18.6223571104078
          19 :   -15.8836238587164
          20 :    14.1482823944835
          21 :   -13.8477113929627
          22 :    14.4490826561106
          23 :   -14.9132484622418
          24 :    14.4525309773419
          25 :   -13.0372634345502
          26 :    11.3307225344576
          27 :   -10.1602042981576
          28 :    9.93183169757361
          29 :   -10.3913559518192
          30 :    10.8566245805653
          31 :   -22.3462231915458
          32 :   -16.1041739484445

     Forces acting on atoms (Ry/au):

     negative rho (up, down):  1.573E-02 0.000E+00
     atom    1 type  1   force =    -0.00002078    0.00001703   -0.00072050
     atom    2 type  1   force =     0.00001251    0.00179312   -0.00041315
     atom    3 type  1   force =     0.00153294   -0.00090459   -0.00041312
     atom    4 type  1   force =    -0.00153513   -0.00091048   -0.00041134
     atom    5 type  1   force =     0.00101455   -0.00059862    0.00328591
     atom    6 type  1   force =    -0.00101609   -0.00060931    0.00331428
     atom    7 type  1   force =    -0.00001966    0.00001497    0.00343692
     atom    8 type  1   force =     0.00000229    0.00119090    0.00330641
     atom    9 type  1   force =     0.02333752    0.01349244    0.07014723
     atom   10 type  1   force =    -0.02330550    0.01346608    0.07015122
     atom   11 type  1   force =    -0.00001505   -0.02693061    0.07009717
     atom   12 type  1   force =     0.00001833   -0.00001895   -0.01696863
     atom   13 type  2   force =    -0.00000592   -0.00000198   -0.20481239

     Total force =     0.243245     Total SCF correction =     0.002186

     entering subroutine stress ...

     negative rho (up, down):  1.573E-02 0.000E+00
          total   stress  (Ry/bohr**3)                   (kbar)     P=  -24.98
  -0.00018045  -0.00000001  -0.00000004        -26.54     -0.00     -0.01
  -0.00000001  -0.00018041  -0.00000004         -0.00    -26.54     -0.01
  -0.00000004  -0.00000004  -0.00014867         -0.01     -0.01    -21.87

     BFGS Geometry Optimization

     number of scf cycles    =   1
     number of bfgs steps    =   0

     energy   new            =   -1769.2388281038 Ry

     new trust radius        =       0.2048123900 bohr
     new conv_thr            =       0.0000099958 Ry

ATOMIC_POSITIONS (crystal)
V1       0.166666667   0.166666667   0.409694847    0   0   0
V1       0.666666667   0.166666667   0.409694847    0   0   0
V1       0.166666667   0.666666667   0.409694847    0   0   0
V1       0.666666667   0.666666667   0.409694847    0   0   0
V1       0.833333333   0.333333333   0.500000000    0   0   0
V1       0.333333333   0.333333333   0.500000000    0   0   0
V1       0.833333333   0.833333333   0.500000000    0   0   0
V1       0.333333333   0.833333333   0.500000000    0   0   0
V1       0.001523836   0.001526980   0.591825954
V1       0.496953813   0.001523996   0.591826040
V1       0.001522434   0.496952182   0.591824868
V1       0.500002869   0.499997855   0.589937272
N1       0.166666199   0.166666442   0.645516366

     Writing output data file calc.save
     Check: negative starting charge=   -0.011688
     NEW-OLD atomic charge density approx. for the potential

     Check: negative/imaginary core charge=   -0.000001    0.000000
     Check: negative starting charge=   -0.011585

[...]

     energy   old            =   -1769.2388281038 Ry
     energy   new            =   -1769.2920428978 Ry

     CASE: energy  _new < energy  _old

[...]

     Total force =     0.008499     Total SCF correction =     0.000185

[...]

     number of scf cycles    =  11
     number of bfgs steps    =  10

     energy   old            =   -1769.3580657079 Ry
     energy   new            =   -1769.3588456720 Ry

     CASE: energy  _new < energy  _old

     new trust radius        =       0.0075580845 bohr
     new conv_thr            =       0.0000001000 Ry

ATOMIC_POSITIONS (crystal)
V1       0.166666667   0.166666667   0.409694847    0   0   0
V1       0.666666667   0.166666667   0.409694847    0   0   0
V1       0.166666667   0.666666667   0.409694847    0   0   0
V1       0.666666667   0.666666667   0.409694847    0   0   0
V1       0.833333333   0.333333333   0.500000000    0   0   0
V1       0.333333333   0.333333333   0.500000000    0   0   0
V1       0.833333333   0.833333333   0.500000000    0   0   0
V1       0.333333333   0.833333333   0.500000000    0   0   0
V1      -0.003212619  -0.003212853   0.593134535
V1       0.506430241  -0.003211946   0.593134734
V1      -0.003211563   0.506428357   0.593134286
V1       0.499999671   0.499999898   0.576148496
N1       0.166667999   0.166667881   0.632284227

     Writing output data file calc.save
     Check: negative starting charge=   -0.011291
     NEW-OLD atomic charge density approx. for the potential

     Check: negative/imaginary core charge=   -0.000001    0.000000
     Check: negative starting charge=   -0.011096

[...]

     Self-consistent Calculation

[...]

     Threshold (ethr) on eigenvalues was too large:
     Diagonalizing with lowered threshold

     Davidson diagonalization with overlap
     ethr =  6.81E-08,  avg # of iterations =  3.6

[...]

     total energy              =   -1769.35891916 Ry
     Harris-Foulkes estimate   =   -1769.35891917 Ry
     estimated scf accuracy    <       0.00000032 Ry

     iteration # 14     ecut=    36.75 Ry     beta=0.30
     Davidson diagonalization with overlap
     ethr =  2.00E-10,  avg # of iterations =  3.9

[...]

     negative rho (up, down):  1.599E-02 0.000E+00

     Adding external electric field

     Computed dipole along edir(3) :
        Dipole               -0.1135 Ry au,         -0.2885 Debye
        Dipole field         -0.0003 Ry au

        Potential amp.        0.0309 Ry
        Total length         44.9721 bohr

     End of self-consistent calculation

[...]

          k = 0.0617-0.0713 0.0000 ( 15642 PWs)   bands (ev):

[...]

          k =-0.0926-0.0535 0.0000 ( 15660 PWs)   bands (ev):

   -63.4066 -63.3784 -63.3460 -63.2909 -63.2818 -63.2369 -63.2243 -63.2150
   -63.2124 -63.1916 -63.1845 -63.0553 -37.4601 -37.4305 -37.3789 -37.3681
   -37.3371 -37.3296 -37.2862 -37.2687 -37.2477 -37.2333 -37.2289 -37.2083
   -37.1915 -37.1777 -37.1466 -37.0836 -37.0782 -37.0728 -37.0397 -37.0235
   -37.0130 -36.9960 -36.9905 -36.9838 -36.9694 -36.9601 -36.9320 -36.9170
   -36.8797 -36.8634 -36.8514 -36.7936 -36.7791 -36.7463 -36.6904 -36.6334
   -13.0645  -3.8593  -3.4360  -3.0431  -3.0290  -2.7275  -2.0267  -1.7863
    -1.4603  -1.4460  -1.4116  -1.2956  -1.2651  -0.8868  -0.7976  -0.6702
    -0.6045  -0.5288  -0.4231  -0.3880  -0.1637  -0.0438   0.0332   0.0335
     0.0516   0.1132   0.2211   0.3573   0.4398   0.5029   0.5188   0.5537
     0.6644   0.7768   0.9084   1.0690   1.0798   1.1486   1.3789   1.4028
     1.5166   1.8623

     the Fermi energy is     0.8991 ev

!    total energy              =   -1769.35891912 Ry
     Harris-Foulkes estimate   =   -1769.35891937 Ry
     estimated scf accuracy    <       0.00000007 Ry

     The total energy is the sum of the following terms:

     one-electron contribution =  -15508.22631695 Ry
     hartree contribution      =    7742.68917634 Ry
     xc contribution           =    -249.96542842 Ry
     ewald contribution        =    6246.27370775 Ry
     electric field correction =       0.00003894 Ry
     smearing contrib. (-TS)   =      -0.13009677 Ry

     convergence has been achieved in  14 iterations

 BEEF-vdW xc energy contributions
           1 :   -215.397439812312
           2 :    193.381410128881
           3 :   -156.965395513817
           4 :    117.525626178971
           5 :   -85.0089815423217
           6 :    64.1951750479707
           7 :   -54.0439854878036
           8 :    49.8633556265845
           9 :   -46.6480133441018
          10 :    41.6328627766319
          11 :   -34.9468191279489
          12 :    28.5003780545892
          13 :   -24.1695114040571
          14 :    22.4717661714055
          15 :   -22.4072769157965
          16 :    22.3202230384473
          17 :   -21.0565130477792
          18 :    18.6210965641727
          19 :   -15.9769584510500
          20 :    14.2280534954762
          21 :   -13.8153361966645
          22 :    14.2706363788844
          23 :   -14.6340605245984
          24 :    14.1673598091390
          25 :   -12.8351939806316
          26 :    11.2463533516572
          27 :   -10.1593382259219
          28 :    9.94018219357613
          29 :   -10.3477950438260
          30 :    10.7548467723874
          31 :   -22.3709940925033
          32 :   -16.1477970114570

     Forces acting on atoms (Ry/au):

     negative rho (up, down):  1.599E-02 0.000E+00
     atom    1 type  1   force =    -0.00000107    0.00000030    0.00374408
     atom    2 type  1   force =     0.00000042    0.00154853   -0.00027956
     atom    3 type  1   force =     0.00133927   -0.00077333   -0.00028057
     atom    4 type  1   force =    -0.00133911   -0.00077393   -0.00027731
     atom    5 type  1   force =     0.02377051   -0.01372313   -0.00864458
     atom    6 type  1   force =    -0.02377005   -0.01371954   -0.00865164
     atom    7 type  1   force =     0.00000208   -0.00000224    0.02018817
     atom    8 type  1   force =    -0.00000256    0.02744527   -0.00864855
     atom    9 type  1   force =     0.00127508    0.00073490    0.00075142
     atom   10 type  1   force =    -0.00127546    0.00073086    0.00075152
     atom   11 type  1   force =    -0.00000293   -0.00146898    0.00075268
     atom   12 type  1   force =     0.00000392    0.00000113    0.00022106
     atom   13 type  2   force =    -0.00000009    0.00000016    0.00037327

     Total force =     0.002893     Total SCF correction =     0.000773
     SCF correction compared to forces is large: reduce conv_thr to get better values

     entering subroutine stress ...

     negative rho (up, down):  1.599E-02 0.000E+00
          total   stress  (Ry/bohr**3)                   (kbar)     P=   -8.38
  -0.00008138  -0.00000000  -0.00000000        -11.97     -0.00     -0.00
  -0.00000000  -0.00008138   0.00000000         -0.00    -11.97      0.00
  -0.00000000   0.00000000  -0.00000805         -0.00      0.00     -1.18

     bfgs converged in  12 scf cycles and  11 bfgs steps
     (criteria: energy <  1.0E+00, force <  1.9E-03)

     End of BFGS Geometry Optimization

     Final energy   =   -1769.3589191173 Ry
Begin final coordinates

ATOMIC_POSITIONS (crystal)
V1       0.166666667   0.166666667   0.409694847    0   0   0
V1       0.666666667   0.166666667   0.409694847    0   0   0
V1       0.166666667   0.666666667   0.409694847    0   0   0
V1       0.666666667   0.666666667   0.409694847    0   0   0
V1       0.833333333   0.333333333   0.500000000    0   0   0
V1       0.333333333   0.333333333   0.500000000    0   0   0
V1       0.833333333   0.833333333   0.500000000    0   0   0
V1       0.333333333   0.833333333   0.500000000    0   0   0
V1      -0.003212619  -0.003212853   0.593134535
V1       0.506430241  -0.003211946   0.593134734
V1      -0.003211563   0.506428357   0.593134286
V1       0.499999671   0.499999898   0.576148496
N1       0.166667999   0.166667881   0.632284227
End final coordinates

     Writing output data file calc.save

     General routines

     Parallel routines

   This run was terminated on:  19:16:32   2May2018

   JOB DONE.
Job  /afs/slac/g/suncat/bin/suncat-tsmpirun -x LD_LIBRARY_PATH -wdir /scratch/qe817033_jOI9O pw.x -npool 4 -in pw.inp

TID   HOST_NAME   COMMAND_LINE            STATUS            TERMINATION_TIME
00000 suncat0080 pw.x -npool 4 -i  Done                     05/02/2018 19:16:32
00001 suncat0080 pw.x -npool 4 -i  Done                     05/02/2018 19:16:32
00002 suncat0080 pw.x -npool 4 -i  Done                     05/02/2018 19:16:32
00003 suncat0080 pw.x -npool 4 -i  Done                     05/02/2018 19:16:32
00004 suncat0080 pw.x -npool 4 -i  Done                     05/02/2018 19:16:32
00005 suncat0080 pw.x -npool 4 -i  Done                     05/02/2018 19:16:32
00006 suncat0080 pw.x -npool 4 -i  Done                     05/02/2018 19:16:32
00007 suncat0080 pw.x -npool 4 -i  Done                     05/02/2018 19:16:32
00008 suncat0039 pw.x -npool 4 -i  Done                     05/02/2018 19:16:32
00009 suncat0039 pw.x -npool 4 -i  Done                     05/02/2018 19:16:32
00010 suncat0039 pw.x -npool 4 -i  Done                     05/02/2018 19:16:32
00011 suncat0039 pw.x -npool 4 -i  Done                     05/02/2018 19:16:32
00012 suncat0039 pw.x -npool 4 -i  Done                     05/02/2018 19:16:32
00013 suncat0039 pw.x -npool 4 -i  Done                     05/02/2018 19:16:32
00014 suncat0039 pw.x -npool 4 -i  Done                     05/02/2018 19:16:32
00015 suncat0039 pw.x -npool 4 -i  Done                     05/02/2018 19:16:32
00016 suncat0035 pw.x -npool 4 -i  Done                     05/02/2018 19:16:32
00017 suncat0035 pw.x -npool 4 -i  Done                     05/02/2018 19:16:32
00018 suncat0035 pw.x -npool 4 -i  Done                     05/02/2018 19:16:32
00019 suncat0035 pw.x -npool 4 -i  Done                     05/02/2018 19:16:32
00020 suncat0035 pw.x -npool 4 -i  Done                     05/02/2018 19:16:32
00021 suncat0035 pw.x -npool 4 -i  Done                     05/02/2018 19:16:32
00022 suncat0035 pw.x -npool 4 -i  Done                     05/02/2018 19:16:32
00023 suncat0035 pw.x -npool 4 -i  Done                     05/02/2018 19:16:32
00024 suncat0021 pw.x -npool 4 -i  Done                     05/02/2018 19:16:32
00025 suncat0021 pw.x -npool 4 -i  Done                     05/02/2018 19:16:32
00026 suncat0021 pw.x -npool 4 -i  Done                     05/02/2018 19:16:32
00027 suncat0021 pw.x -npool 4 -i  Done                     05/02/2018 19:16:32
00028 suncat0021 pw.x -npool 4 -i  Done                     05/02/2018 19:16:32
00029 suncat0021 pw.x -npool 4 -i  Done                     05/02/2018 19:16:32
00030 suncat0021 pw.x -npool 4 -i  Done                     05/02/2018 19:16:32
00031 suncat0021 pw.x -npool 4 -i  Done                     05/02/2018 19:16:32