     Program PWSCF v.5.1rc2 (svn rev. 11289) starts on  3May2018 at  7:32:51

     Current dimensions of program PWSCF are:
     Max number of different atomic species (ntypx) = 10
     Max number of k-points (npk) =  40000
     Max angular momentum in pseudopotentials (lmaxx) =  3
     Presently stress not available with electric field

     IMPORTANT: XC functional enforced from input :
     Exchange-correlation      = BEEF-VDW ( 1  4 27 13 2)
     Any further DFT definition will be discarded
     Please, verify this is what you really want

     Subspace diagonalization in iterative solution of the eigenvalue problem:
     a serial algorithm will be used

     bravais-lattice index     =            0
     lattice parameter (alat)  =       1.8897  a.u.
     unit-cell volume          =    4569.9960 (a.u.)^3
     number of atoms/cell      =           13
     number of atomic types    =            2
     number of electrons       =       196.00
     number of Kohn-Sham states=          108
     kinetic-energy cutoff     =      36.7493  Ry
     charge density cutoff     =     367.4932  Ry
     convergence threshold     =      1.0E-05
     mixing beta               =       0.3000
     number of iterations used =           10  plain     mixing
     Exchange-correlation      = BEEF-VDW ( 1  4 27 13 2)
     nstep                     =           50

     celldm(1)=   1.889726  celldm(2)=   0.000000  celldm(3)=   0.000000
     celldm(4)=   0.000000  celldm(5)=   0.000000  celldm(6)=   0.000000

     crystal axes: (cart. coord. in units of alat)
               a(1) = (   5.637663   0.000000   0.000000 )
               a(2) = (   2.818831   4.882359   0.000000 )
               a(3) = (   0.000000   0.000000  24.603132 )

     reciprocal axes: (cart. coord. in units 2 pi/alat)
               b(1) = (  0.177378 -0.102410  0.000000 )
               b(2) = (  0.000000  0.204819  0.000000 )
               b(3) = (  0.000000  0.000000  0.040645 )

     PseudoPot. # 1 for Pd read from file:
     /u/if/mamunm/psp/gbrv1.5pbe/Pd.UPF
     MD5 check sum: 2d733d2bc2cbfd217af676df1668a4bc
     Pseudo is Ultrasoft + core correction, Zval = 16.0
     Generated by new atomic code, or converted to UPF format
     Using radial grid of  887 points,  6 beta functions with:
                l(1) =   0
                l(2) =   0
                l(3) =   1
                l(4) =   1
                l(5) =   2
                l(6) =   2
     Q(r) pseudized with  8 coefficients,  rinner =    1.130   1.130   1.130
                                                       1.130   1.130

     PseudoPot. # 2 for C  read from file:
     /u/if/mamunm/psp/gbrv1.5pbe/C.UPF
     MD5 check sum: d1aef80898a10debaa0f26306b886e00
     Pseudo is Ultrasoft + core correction, Zval =  4.0
     Generated by new atomic code, or converted to UPF format
     Using radial grid of  721 points,  4 beta functions with:
                l(1) =   0
                l(2) =   0
                l(3) =   1
                l(4) =   1
     Q(r) pseudized with  8 coefficients,  rinner =    1.100   1.100   1.100

     vdW kernel table read from file vdW_kernel_table
     MD5 check sum: 095c7af220d748ca6e76c0b4c6cfb241

     atomic species   valence    mass     pseudopotential
        Pd1           16.00   106.42000     Pd( 1.00)
        C1             4.00    12.01100     C ( 1.00)

     No symmetry found

   Cartesian axes

     site n.     atom                  positions (alat units)
         1           Pd1 tau(   1) = (   1.4094157   0.8137265  10.0000000  )
         2           Pd1 tau(   2) = (   4.2282471   0.8137265  10.0000000  )
         3           Pd1 tau(   3) = (   2.8188314   3.2549061  10.0000000  )
         4           Pd1 tau(   4) = (   5.6376627   3.2549061  10.0000000  )
         5           Pd1 tau(   5) = (   5.6376627   1.6274531  12.3015662  )
         6           Pd1 tau(   6) = (   2.8188314   1.6274531  12.3015662  )
         7           Pd1 tau(   7) = (   7.0470784   4.0686326  12.3015662  )
         8           Pd1 tau(   8) = (   4.2282471   4.0686326  12.3015662  )
         9           Pd1 tau(   9) = (   0.0000000   0.0000000  14.6031324  )
        10           Pd1 tau(  10) = (   2.8188314   0.0000000  14.6031324  )
        11           Pd1 tau(  11) = (   1.4094157   2.4411796  14.6031324  )
        12           Pd1 tau(  12) = (   4.2282471   2.4411796  14.6031324  )
        13           C1  tau(  13) = (   0.0000000   0.0000000  16.4306324  )

     number of k points=    20  Fermi-Dirac smearing, width (Ry)=  0.0110
                       cart. coord. in units 2pi/alat
        k(    1) = (   0.0000000   0.0000000   0.0000000), wk =   0.0555556
        k(    2) = (   0.0000000   0.0341365   0.0000000), wk =   0.1111111
        k(    3) = (   0.0000000   0.0682730   0.0000000), wk =   0.1111111
        k(    4) = (   0.0000000  -0.1024095   0.0000000), wk =   0.0555556
        k(    5) = (   0.0295631  -0.0170683   0.0000000), wk =   0.1111111
        k(    6) = (   0.0295631   0.0170683   0.0000000), wk =   0.1111111
        k(    7) = (   0.0295631   0.0512048   0.0000000), wk =   0.1111111
        k(    8) = (   0.0295631  -0.1194778   0.0000000), wk =   0.1111111
        k(    9) = (   0.0295631  -0.0853413   0.0000000), wk =   0.1111111
        k(   10) = (   0.0295631  -0.0512048   0.0000000), wk =   0.1111111
        k(   11) = (   0.0591262  -0.0341365   0.0000000), wk =   0.1111111
        k(   12) = (   0.0591262  -0.0000000   0.0000000), wk =   0.1111111
        k(   13) = (   0.0591262   0.0341365   0.0000000), wk =   0.1111111
        k(   14) = (   0.0591262  -0.1365460   0.0000000), wk =   0.1111111
        k(   15) = (   0.0591262  -0.1024095   0.0000000), wk =   0.1111111
        k(   16) = (   0.0591262  -0.0682730   0.0000000), wk =   0.1111111
        k(   17) = (  -0.0886892   0.0512048   0.0000000), wk =   0.0555556
        k(   18) = (  -0.0886892   0.0853413   0.0000000), wk =   0.1111111
        k(   19) = (  -0.0886892   0.1194778   0.0000000), wk =   0.1111111
        k(   20) = (  -0.0886892  -0.0512048   0.0000000), wk =   0.0555556

     Largest allocated arrays     est. size (Mb)     dimensions
     Largest temporary arrays     est. size (Mb)     dimensions

     Initial potential from superposition of free atoms
     Check: negative starting charge=   -0.904000

     starting charge  189.99988, renormalised to  196.00000

     negative rho (up, down):  9.325E-01 0.000E+00

     *
     * You are using vdW-DF for exchange-correlation in this calculation.
     * Please cite the following three references that made this development
     * possible:
     *
     *   M. Dion, H. Rydberg, E. Schroder, D. C. Langreth, and
     *   B. I. Lundqvist, Phys. Rev. Lett. 92, 246401 (2004).
     *
     *   T. Thonhauser, V. R. Cooper, S. Li, A. Puzder, P. Hyldgaard, and
     *   D. C. Langreth, Phys. Rev. B 76, 125112 (2007).
     *
     *   G. Roman-Perez and J. M. Soler, Phys. Rev. Lett. 103, 096102 (2009).
     *
     *
     * If you are using vdW-DF2, please also cite:
     *
     *   K. Lee, E. D. Murray, L. Kong, B. I. Lundqvist, and
     *   D. C. Langreth, Phys. Rev. B 82, 081101(R) (2010).
     *
     *
     * If you are calculating the stress with vdW-DF, please also cite:
     *
     *   R. Sabatini, E. Kucukbenli, B. Kolb, T. Thonhauser, and
     *   S. de Gironcoli, J. Phys.: Condens. Matter 24, 424209 (2012).
     *

     Carrying out vdW-DF run using the following parameters:

     Nqs =      20    Nr_points =    1024   r_max =   100.000
     q_mesh =
               0.00001000     0.04494208     0.09755937     0.15916263
               0.23128650     0.31572767     0.41458969     0.53033537
               0.66584808     0.82450364     1.01025438     1.22772762
               1.48234092     1.78043706     2.12944203     2.53805004
               3.01644009     3.57652955     4.23227104     5.00000000

     Gradients computed in reciprocal space

     Adding external electric field

     Computed dipole along edir(3) :
        Dipole               -0.9853 Ry au,         -2.5044 Debye
        Dipole field         -0.0027 Ry au

        Potential amp.        0.2456 Ry
        Total length         45.3309 bohr

     Starting wfc are  148 randomized atomic wfcs

     Self-consistent Calculation

     iteration #  1     ecut=    36.75 Ry     beta=0.30
     Davidson diagonalization with overlap
     ethr =  1.00E-02,  avg # of iterations =  4.1

[...]

     total energy              =   -2385.71220689 Ry
     Harris-Foulkes estimate   =   -2412.69260724 Ry
     estimated scf accuracy    <      57.38030818 Ry

[...]

     End of self-consistent calculation

          k = 0.0000 0.0000 0.0000 ( 17231 PWs)   bands (ev):

   -51.0968 -50.2781 -50.2781 -49.0645 -49.0388 -49.0387 -48.9615 -48.9354
   -48.9353 -48.9073 -48.8728 -48.8728 -48.8630 -48.8103 -48.8034 -48.8034
   -48.7849 -48.7849 -48.7749 -48.7199 -48.7198 -48.6383 -48.6235 -48.6124
   -48.6124 -48.5956 -48.5956 -48.5554 -48.5554 -48.5102 -48.4893 -48.4893
   -48.4816 -48.4704 -48.4704 -48.3876  -9.2709  -4.8899  -4.1717  -3.9714
    -3.9714  -3.6869  -3.6868  -3.5778  -3.5421  -3.4211  -3.3839  -3.3839
    -3.2280  -3.1238  -3.1238  -3.0241  -2.8090  -2.8090  -2.4394  -2.0479
    -1.8623  -1.8623  -1.6904  -1.6259  -1.6258  -1.5613  -1.5613  -1.4571
    -1.3840  -1.3839  -1.2746  -1.2746  -1.2531  -1.0093  -0.8573  -0.8573
    -0.5928  -0.5928  -0.2373  -0.2373  -0.2178  -0.1801  -0.1801  -0.0509
     0.1180   0.1180   0.2040   0.4835   0.4835   0.5364   0.5364   0.5715
     0.6519   0.6519   0.7055   0.7056   0.8383   0.8674   0.8674   1.0314
     1.0442   1.0730   1.0730   1.0740   1.2415   1.2415   2.2233   3.0652
     3.4386   3.4386   3.6343   4.4008

[...]

          k =-0.0887 0.0512 0.0000 ( 17240 PWs)   bands (ev):

[...]

     the Fermi energy is     0.8473 ev

!    total energy              =   -2408.70909746 Ry
     Harris-Foulkes estimate   =   -2408.70910286 Ry
     estimated scf accuracy    <       0.00000085 Ry

     The total energy is the sum of the following terms:

     one-electron contribution =  -20418.31371326 Ry
     hartree contribution      =   10258.39845205 Ry
     xc contribution           =    -393.43650565 Ry
     ewald contribution        =    8144.75627690 Ry
     electric field correction =       0.00004676 Ry
     smearing contrib. (-TS)   =      -0.11365428 Ry

     convergence has been achieved in  19 iterations

 BEEF-vdW xc energy contributions
           1 :   -342.463808042754
           2 :    312.871711410379
           3 :   -262.429866585514
           4 :    204.734138333806
           5 :   -152.904324731802
           6 :    115.275314790300
           7 :   -93.6154545151767
           8 :    84.1510373171646
           9 :   -80.5186809833043
          10 :    77.0629399670911
          11 :   -70.9970942418735
          12 :    62.6942600085701
          13 :   -54.3981977896988
          14 :    48.3524572751552
          15 :   -45.4312528676208
          16 :    44.8565500368639
          17 :   -44.9113854332816
          18 :    44.0512057750227
          19 :   -41.7140444317648
          20 :    38.4228321229721
          21 :   -35.2527839570326
          22 :    33.0809813278212
          23 :   -32.0886715314692
          24 :    31.7595902600803
          25 :   -31.2974146485127
          26 :    30.1516867119283
          27 :   -28.3221721133065
          28 :    26.2835784504259
          29 :   -24.6231889986319
          30 :    23.6476575965642
          31 :   -33.4512651183921
          32 :   -24.7041061694500

     Forces acting on atoms (Ry/au):

     negative rho (up, down):  9.420E-01 0.000E+00
     atom    1 type  1   force =     0.00018376    0.00011321   -0.00087798
     atom    2 type  1   force =    -0.00018292    0.00011036   -0.00087190
     atom    3 type  1   force =    -0.00000437   -0.00021814   -0.00085640
     atom    4 type  1   force =     0.00000355   -0.00000514   -0.00650435
     atom    5 type  1   force =     0.00000075   -0.00058005    0.00095006
     atom    6 type  1   force =    -0.00000142    0.00000170    0.00028764
     atom    7 type  1   force =     0.00049150    0.00028475    0.00094847
     atom    8 type  1   force =    -0.00049059    0.00028607    0.00094176
     atom    9 type  1   force =    -0.00000331    0.00000524    0.07844764
     atom   10 type  1   force =     0.00000454    0.00016685    0.00406645
     atom   11 type  1   force =     0.00013714   -0.00008112    0.00406882
     atom   12 type  1   force =    -0.00013868   -0.00008479    0.00406900
     atom   13 type  2   force =     0.00000008    0.00000106   -0.08466920

     Total force =     0.115640     Total SCF correction =     0.000676

     entering subroutine stress ...

     negative rho (up, down):  9.420E-01 0.000E+00
          total   stress  (Ry/bohr**3)                   (kbar)     P=  -10.71
  -0.00007671  -0.00000000  -0.00000000        -11.28     -0.00     -0.00
  -0.00000000  -0.00007671   0.00000000         -0.00    -11.28      0.00
  -0.00000000   0.00000000  -0.00006501         -0.00      0.00     -9.56

     BFGS Geometry Optimization

     number of scf cycles    =   1
     number of bfgs steps    =   0

     energy   new            =   -2408.7090974627 Ry

     new trust radius        =       0.0846692041 bohr
     new conv_thr            =       0.0000099958 Ry

ATOMIC_POSITIONS (crystal)
Pd1      0.166666667   0.166666667   0.406452311    0   0   0
Pd1      0.666666667   0.166666667   0.406452311    0   0   0
Pd1      0.166666667   0.666666667   0.406452311    0   0   0
Pd1      0.666666667   0.666666667   0.406452311    0   0   0
Pd1      0.833333333   0.333333333   0.500000000    0   0   0
Pd1      0.333333333   0.333333333   0.500000000    0   0   0
Pd1      0.833333333   0.833333333   0.500000000    0   0   0
Pd1      0.333333333   0.833333333   0.500000000    0   0   0
Pd1     -0.000000595   0.000000568   0.595234982
Pd1      0.499991384   0.000018084   0.593635153
Pd1      0.000017268   0.499991208   0.593635203
Pd1      0.499991577   0.499990810   0.593635207
C1      -0.000000050   0.000000115   0.666005739

     Writing output data file calc.save
     Check: negative starting charge=   -0.904000
     NEW-OLD atomic charge density approx. for the potential
     Check: negative starting charge=   -0.906483

[...]

     Total force =     0.019940     Total SCF correction =     0.005991
     SCF correction compared to forces is large: reduce conv_thr to get better values

[...]

     energy   old            =   -2408.7090974626 Ry
     energy   new            =   -2408.7173358909 Ry

     CASE: energy  _new < energy  _old

[...]

     Threshold (ethr) on eigenvalues was too large:
     Diagonalizing with lowered threshold

     Davidson diagonalization with overlap
     ethr =  3.63E-08,  avg # of iterations =  1.0

[...]

     Threshold (ethr) on eigenvalues was too large:
     Diagonalizing with lowered threshold

     Davidson diagonalization with overlap
     ethr =  3.22E-08,  avg # of iterations =  1.1

[...]

     Total force =     0.003110     Total SCF correction =     0.000176

[...]

     number of scf cycles    =  10
     number of bfgs steps    =   9

     energy   old            =   -2408.7179523078 Ry
     energy   new            =   -2408.7179636658 Ry

     CASE: energy  _new < energy  _old

     new trust radius        =       0.0069232499 bohr
     new conv_thr            =       0.0000001000 Ry

ATOMIC_POSITIONS (crystal)
Pd1      0.166666667   0.166666667   0.406452311    0   0   0
Pd1      0.666666667   0.166666667   0.406452311    0   0   0
Pd1      0.166666667   0.666666667   0.406452311    0   0   0
Pd1      0.666666667   0.666666667   0.406452311    0   0   0
Pd1      0.833333333   0.333333333   0.500000000    0   0   0
Pd1      0.333333333   0.333333333   0.500000000    0   0   0
Pd1      0.833333333   0.833333333   0.500000000    0   0   0
Pd1      0.333333333   0.833333333   0.500000000    0   0   0
Pd1      0.000000098  -0.000000294   0.593411786
Pd1      0.499824414   0.000349431   0.594702496
Pd1      0.000350276   0.499824761   0.594702263
Pd1      0.499824586   0.499825353   0.594702190
C1      -0.000000652   0.000000242   0.663700273

     Writing output data file calc.save
     Check: negative starting charge=   -0.906088
     NEW-OLD atomic charge density approx. for the potential
     Check: negative starting charge=   -0.905760

[...]

     Self-consistent Calculation

[...]

     total energy              =   -2408.71797696 Ry
     Harris-Foulkes estimate   =   -2408.71797701 Ry
     estimated scf accuracy    <       0.00000026 Ry

     iteration #  9     ecut=    36.75 Ry     beta=0.30
     Davidson diagonalization with overlap
     ethr =  1.07E-10,  avg # of iterations =  1.2

[...]

     negative rho (up, down):  9.445E-01 0.000E+00

     Adding external electric field

     Computed dipole along edir(3) :
        Dipole               -0.1101 Ry au,         -0.2799 Debye
        Dipole field         -0.0003 Ry au

        Potential amp.        0.0274 Ry
        Total length         45.3309 bohr

     End of self-consistent calculation

[...]

          k = 0.0591-0.0683 0.0000 ( 17183 PWs)   bands (ev):

[...]

          k =-0.0887-0.0512 0.0000 ( 17240 PWs)   bands (ev):

   -51.5642 -50.5429 -50.5400 -48.9745 -48.9448 -48.9035 -48.8982 -48.8886
   -48.8851 -48.8850 -48.8711 -48.8513 -48.8391 -48.8065 -48.7782 -48.7244
   -48.7052 -48.7020 -48.6579 -48.6447 -48.6445 -48.6347 -48.6332 -48.6238
   -48.6198 -48.5930 -48.5666 -48.5524 -48.5394 -48.4484 -48.4429 -48.4357
   -48.4349 -48.4322 -48.4279 -48.3507  -9.6857  -4.1943  -4.1235  -3.9091
    -3.5563  -3.3983  -3.0914  -3.0443  -2.9168  -2.8253  -2.6982  -2.6597
    -2.6524  -2.5609  -2.4720  -2.4192  -2.3814  -2.3425  -2.2535  -2.2005
    -1.8978  -1.8560  -1.8519  -1.8297  -1.7733  -1.6659  -1.6505  -1.4926
    -1.3705  -1.2098  -1.1870  -1.1430  -1.0700  -1.0550  -1.0189  -0.9606
    -0.9242  -0.9154  -0.9084  -0.8501  -0.7989  -0.7558  -0.6895  -0.5513
    -0.5161  -0.4978  -0.4252  -0.3934  -0.3010  -0.2644  -0.1909  -0.1716
    -0.1024  -0.0025   0.0227   0.1657   0.2267   0.3314   0.5062   0.6202
     0.6417   0.7051   0.7342   0.8755   0.9132   1.6437   2.0847   2.3493
     3.2253   3.5346   3.5727   3.9435

     the Fermi energy is     0.8803 ev

!    total energy              =   -2408.71797698 Ry
     Harris-Foulkes estimate   =   -2408.71797688 Ry
     estimated scf accuracy    <          9.4E-09 Ry

     The total energy is the sum of the following terms:

     one-electron contribution =  -20387.87194984 Ry
     hartree contribution      =   10243.22305846 Ry
     xc contribution           =    -393.49819056 Ry
     ewald contribution        =    8129.54001064 Ry
     electric field correction =       0.00003333 Ry
     smearing contrib. (-TS)   =      -0.11093901 Ry

     convergence has been achieved in   9 iterations

 BEEF-vdW xc energy contributions
           1 :   -342.523194712699
           2 :    312.937785277384
           3 :   -262.504620004009
           4 :    204.816028500480
           5 :   -152.989855859763
           6 :    115.356975002981
           7 :   -93.6802170783099
           8 :    84.1834824332148
           9 :   -80.5091025206696
          10 :    77.0159039166056
          11 :   -70.9334870980309
          12 :    62.6441873421659
          13 :   -54.3873728654596
          14 :    48.3887187428056
          15 :   -45.4992694305889
          16 :    44.9248317827827
          17 :   -44.9483650028186
          18 :    44.0415845481239
          19 :   -41.6658020628550
          20 :    38.3609159458437
          21 :   -35.2041100513916
          22 :    33.0595146908815
          23 :   -32.0891141065779
          24 :    31.7631776260071
          25 :   -31.2852722534991
          26 :    30.1170313623506
          27 :   -28.2735398628461
          28 :    26.2376352088156
          29 :   -24.5924431645393
          30 :    23.6313892893210
          31 :   -33.4546771933424
          32 :   -24.7092323940951

     Forces acting on atoms (Ry/au):

     negative rho (up, down):  9.445E-01 0.000E+00
     atom    1 type  1   force =     0.00020815    0.00012043   -0.00104103
     atom    2 type  1   force =    -0.00020839    0.00011977   -0.00104119
     atom    3 type  1   force =    -0.00000039   -0.00023975   -0.00104063
     atom    4 type  1   force =     0.00000058   -0.00000010   -0.00682523
     atom    5 type  1   force =     0.00000086    0.00124976    0.00316671
     atom    6 type  1   force =    -0.00000140   -0.00000156    0.00459539
     atom    7 type  1   force =    -0.00108419   -0.00062543    0.00316973
     atom    8 type  1   force =     0.00108341   -0.00062331    0.00316696
     atom    9 type  1   force =    -0.00000110    0.00000068   -0.00100565
     atom   10 type  1   force =     0.00000216   -0.00027566   -0.00097133
     atom   11 type  1   force =    -0.00023895    0.00013890   -0.00097053
     atom   12 type  1   force =     0.00023932    0.00013622   -0.00097016
     atom   13 type  2   force =    -0.00000006    0.00000006   -0.00023304

     Total force =     0.002030     Total SCF correction =     0.000242
     SCF correction compared to forces is large: reduce conv_thr to get better values

     entering subroutine stress ...

     negative rho (up, down):  9.445E-01 0.000E+00
          total   stress  (Ry/bohr**3)                   (kbar)     P=   -8.16
  -0.00007751   0.00000000  -0.00000000        -11.40      0.00     -0.00
   0.00000000  -0.00007752   0.00000000          0.00    -11.40      0.00
  -0.00000000   0.00000000  -0.00001132         -0.00      0.00     -1.66

     bfgs converged in  11 scf cycles and  10 bfgs steps
     (criteria: energy <  1.0E+00, force <  1.9E-03)

     End of BFGS Geometry Optimization

     Final energy   =   -2408.7179769792 Ry
Begin final coordinates

ATOMIC_POSITIONS (crystal)
Pd1      0.166666667   0.166666667   0.406452311    0   0   0
Pd1      0.666666667   0.166666667   0.406452311    0   0   0
Pd1      0.166666667   0.666666667   0.406452311    0   0   0
Pd1      0.666666667   0.666666667   0.406452311    0   0   0
Pd1      0.833333333   0.333333333   0.500000000    0   0   0
Pd1      0.333333333   0.333333333   0.500000000    0   0   0
Pd1      0.833333333   0.833333333   0.500000000    0   0   0
Pd1      0.333333333   0.833333333   0.500000000    0   0   0
Pd1      0.000000098  -0.000000294   0.593411786
Pd1      0.499824414   0.000349431   0.594702496
Pd1      0.000350276   0.499824761   0.594702263
Pd1      0.499824586   0.499825353   0.594702190
C1      -0.000000652   0.000000242   0.663700273
End final coordinates

     Writing output data file calc.save

     General routines

     Parallel routines

   This run was terminated on:   8:34:40   3May2018

   JOB DONE.
Job  /afs/slac/g/suncat/bin/suncat-tsmpirun -x LD_LIBRARY_PATH -wdir /scratch/qe668540_hQUAu pw.x -npool 4 -in pw.inp

TID   HOST_NAME   COMMAND_LINE            STATUS            TERMINATION_TIME
00000 suncat0278 pw.x -npool 4 -i  Done                     05/03/2018 08:34:40
00001 suncat0278 pw.x -npool 4 -i  Done                     05/03/2018 08:34:40
00002 suncat0278 pw.x -npool 4 -i  Done                     05/03/2018 08:34:40
00003 suncat0278 pw.x -npool 4 -i  Done                     05/03/2018 08:34:40
00004 suncat0278 pw.x -npool 4 -i  Done                     05/03/2018 08:34:40
00005 suncat0278 pw.x -npool 4 -i  Done                     05/03/2018 08:34:40
00006 suncat0278 pw.x -npool 4 -i  Done                     05/03/2018 08:34:40
00007 suncat0278 pw.x -npool 4 -i  Done                     05/03/2018 08:34:40
00008 suncat0264 pw.x -npool 4 -i  Done                     05/03/2018 08:34:40
00009 suncat0264 pw.x -npool 4 -i  Done                     05/03/2018 08:34:40
00010 suncat0264 pw.x -npool 4 -i  Done                     05/03/2018 08:34:40
00011 suncat0264 pw.x -npool 4 -i  Done                     05/03/2018 08:34:40
00012 suncat0264 pw.x -npool 4 -i  Done                     05/03/2018 08:34:40
00013 suncat0264 pw.x -npool 4 -i  Done                     05/03/2018 08:34:40
00014 suncat0264 pw.x -npool 4 -i  Done                     05/03/2018 08:34:40
00015 suncat0264 pw.x -npool 4 -i  Done                     05/03/2018 08:34:40
00016 suncat0233 pw.x -npool 4 -i  Done                     05/03/2018 08:34:40
00017 suncat0233 pw.x -npool 4 -i  Done                     05/03/2018 08:34:40
00018 suncat0233 pw.x -npool 4 -i  Done                     05/03/2018 08:34:40
00019 suncat0233 pw.x -npool 4 -i  Done                     05/03/2018 08:34:40
00020 suncat0233 pw.x -npool 4 -i  Done                     05/03/2018 08:34:40
00021 suncat0233 pw.x -npool 4 -i  Done                     05/03/2018 08:34:40
00022 suncat0233 pw.x -npool 4 -i  Done                     05/03/2018 08:34:40
00023 suncat0233 pw.x -npool 4 -i  Done                     05/03/2018 08:34:40
00024 suncat0223 pw.x -npool 4 -i  Done                     05/03/2018 08:34:40
00025 suncat0223 pw.x -npool 4 -i  Done                     05/03/2018 08:34:40
00026 suncat0223 pw.x -npool 4 -i  Done                     05/03/2018 08:34:40
00027 suncat0223 pw.x -npool 4 -i  Done                     05/03/2018 08:34:40
00028 suncat0223 pw.x -npool 4 -i  Done                     05/03/2018 08:34:40
00029 suncat0223 pw.x -npool 4 -i  Done                     05/03/2018 08:34:40
00030 suncat0223 pw.x -npool 4 -i  Done                     05/03/2018 08:34:40
00031 suncat0223 pw.x -npool 4 -i  Done                     05/03/2018 08:34:40