     Program PWSCF v.5.1rc2 (svn rev. 11289) starts on 11Jan2019 at 13:15:10

     Current dimensions of program PWSCF are:
     Max number of different atomic species (ntypx) = 10
     Max number of k-points (npk) =  40000
     Max angular momentum in pseudopotentials (lmaxx) =  3

     IMPORTANT: XC functional enforced from input :
     Exchange-correlation      = BEEF-VDW ( 1  4 27 13 2)
     Any further DFT definition will be discarded
     Please, verify this is what you really want

     Subspace diagonalization in iterative solution of the eigenvalue problem:
     a serial algorithm will be used

     Generating pointlists ...
     new r_m :   0.1470 (alat units)  1.3929 (a.u.) for type    1
     new r_m :   0.1470 (alat units)  1.3929 (a.u.) for type    2

     bravais-lattice index     =            0
     lattice parameter (alat)  =       9.4723  a.u.
     unit-cell volume          =    3537.7769 (a.u.)^3
     number of atoms/cell      =           13
     number of atomic types    =            2
     number of electrons       =       208.00
     number of Kohn-Sham states=          114
     kinetic-energy cutoff     =      36.7493  Ry
     charge density cutoff     =     367.4933  Ry
     convergence threshold     =      1.0E-04
     mixing beta               =       0.1000
     number of iterations used =            8  plain     mixing
     Exchange-correlation      = BEEF-VDW ( 1  4 27 13 2)
     nstep                     =           50

     celldm(1)=   9.472344  celldm(2)=   0.000000  celldm(3)=   0.000000
     celldm(4)=   0.000000  celldm(5)=   0.000000  celldm(6)=   0.000000

     crystal axes: (cart. coord. in units of alat)
               a(1) = (   1.000000   0.000000   0.000000 )
               a(2) = (   0.500000   0.866025   0.000000 )
               a(3) = (   0.000000   0.000000   4.806483 )

     reciprocal axes: (cart. coord. in units 2 pi/alat)
               b(1) = (  1.000000 -0.577350  0.000000 )
               b(2) = (  0.000000  1.154701  0.000000 )
               b(3) = (  0.000000  0.000000  0.208052 )

     PseudoPot. # 1 for Co read from file:
     /u/if/jboes/code/decaf-espresso/gbrv15pbe/Co.UPF
     MD5 check sum: 5f91765df6ddd3222702df6e7b74a16d
     Pseudo is Ultrasoft + core correction, Zval = 17.0
     Generated by new atomic code, or converted to UPF format
     Using radial grid of  863 points,  6 beta functions with:
                l(1) =   0
                l(2) =   0
                l(3) =   1
                l(4) =   1
                l(5) =   2
                l(6) =   2
     Q(r) pseudized with  8 coefficients,  rinner =    1.200   1.200   1.200
                                                       1.200   1.200

     PseudoPot. # 2 for C  read from file:
     /u/if/jboes/code/decaf-espresso/gbrv15pbe/C.UPF
     MD5 check sum: d1aef80898a10debaa0f26306b886e00
     Pseudo is Ultrasoft + core correction, Zval =  4.0
     Generated by new atomic code, or converted to UPF format
     Using radial grid of  721 points,  4 beta functions with:
                l(1) =   0
                l(2) =   0
                l(3) =   1
                l(4) =   1
     Q(r) pseudized with  8 coefficients,  rinner =    1.100   1.100   1.100

     vdW kernel table read from file vdW_kernel_table
     MD5 check sum: 095c7af220d748ca6e76c0b4c6cfb241

     atomic species   valence    mass     pseudopotential
        Co            17.00    58.93319     Co( 1.00)
        C              4.00    12.01100     C ( 1.00)

     Starting magnetic structure
     atomic species   magnetization
        Co           0.118
        C            0.000

     No symmetry found

   Cartesian axes

     site n.     atom                  positions (alat units)
         1           Co  tau(   1) = (   0.2500000   0.1443376   1.9949931  )
         2           Co  tau(   2) = (   0.7500000   0.1443376   1.9949931  )
         3           Co  tau(   3) = (   0.5000000   0.5773503   1.9949931  )
         4           Co  tau(   4) = (   1.0000000   0.5773503   1.9949931  )
         5           Co  tau(   5) = (   1.0000000   0.2886751   2.4032414  )
         6           Co  tau(   6) = (   0.5000000   0.2886751   2.4032414  )
         7           Co  tau(   7) = (   1.2500000   0.7216878   2.4032414  )
         8           Co  tau(   8) = (   0.7500000   0.7216878   2.4032414  )
         9           Co  tau(   9) = (  -0.0059082  -0.0034789   2.8210496  )
        10           Co  tau(  10) = (   0.5058430  -0.0033094   2.8211138  )
        11           Co  tau(  11) = (   0.2501146   0.4397985   2.8210751  )
        12           Co  tau(  12) = (   0.7500913   0.4330095   2.7992656  )
        13           C   tau(  13) = (   0.2497523   0.1443470   3.0207012  )

     number of k points=    40  Fermi-Dirac smearing, width (Ry)=  0.0110
                       cart. coord. in units 2pi/alat
        k(    1) = (   0.0000000   0.0000000   0.0000000), wk =   0.0277778
        k(    2) = (   0.0000000   0.1924501   0.0000000), wk =   0.0555556
        k(    3) = (   0.0000000   0.3849002   0.0000000), wk =   0.0555556
        k(    4) = (   0.0000000  -0.5773503   0.0000000), wk =   0.0277778
        k(    5) = (   0.1666667  -0.0962250   0.0000000), wk =   0.0555556
        k(    6) = (   0.1666667   0.0962250   0.0000000), wk =   0.0555556
        k(    7) = (   0.1666667   0.2886751   0.0000000), wk =   0.0555556
        k(    8) = (   0.1666667  -0.6735753   0.0000000), wk =   0.0555556
        k(    9) = (   0.1666667  -0.4811252   0.0000000), wk =   0.0555556
        k(   10) = (   0.1666667  -0.2886751   0.0000000), wk =   0.0555556
        k(   11) = (   0.3333333  -0.1924501   0.0000000), wk =   0.0555556
        k(   12) = (   0.3333333  -0.0000000   0.0000000), wk =   0.0555556
        k(   13) = (   0.3333333   0.1924501   0.0000000), wk =   0.0555556
        k(   14) = (   0.3333333  -0.7698004   0.0000000), wk =   0.0555556
        k(   15) = (   0.3333333  -0.5773503   0.0000000), wk =   0.0555556
        k(   16) = (   0.3333333  -0.3849002   0.0000000), wk =   0.0555556
        k(   17) = (  -0.5000000   0.2886751   0.0000000), wk =   0.0277778
        k(   18) = (  -0.5000000   0.4811252   0.0000000), wk =   0.0555556
        k(   19) = (  -0.5000000   0.6735753   0.0000000), wk =   0.0555556
        k(   20) = (  -0.5000000  -0.2886751   0.0000000), wk =   0.0277778
        k(   21) = (   0.0000000   0.0000000   0.0000000), wk =   0.0277778
        k(   22) = (   0.0000000   0.1924501   0.0000000), wk =   0.0555556
        k(   23) = (   0.0000000   0.3849002   0.0000000), wk =   0.0555556
        k(   24) = (   0.0000000  -0.5773503   0.0000000), wk =   0.0277778
        k(   25) = (   0.1666667  -0.0962250   0.0000000), wk =   0.0555556
        k(   26) = (   0.1666667   0.0962250   0.0000000), wk =   0.0555556
        k(   27) = (   0.1666667   0.2886751   0.0000000), wk =   0.0555556
        k(   28) = (   0.1666667  -0.6735753   0.0000000), wk =   0.0555556
        k(   29) = (   0.1666667  -0.4811252   0.0000000), wk =   0.0555556
        k(   30) = (   0.1666667  -0.2886751   0.0000000), wk =   0.0555556
        k(   31) = (   0.3333333  -0.1924501   0.0000000), wk =   0.0555556
        k(   32) = (   0.3333333  -0.0000000   0.0000000), wk =   0.0555556
        k(   33) = (   0.3333333   0.1924501   0.0000000), wk =   0.0555556
        k(   34) = (   0.3333333  -0.7698004   0.0000000), wk =   0.0555556
        k(   35) = (   0.3333333  -0.5773503   0.0000000), wk =   0.0555556
        k(   36) = (   0.3333333  -0.3849002   0.0000000), wk =   0.0555556
        k(   37) = (  -0.5000000   0.2886751   0.0000000), wk =   0.0277778
        k(   38) = (  -0.5000000   0.4811252   0.0000000), wk =   0.0555556
        k(   39) = (  -0.5000000   0.6735753   0.0000000), wk =   0.0555556
        k(   40) = (  -0.5000000  -0.2886751   0.0000000), wk =   0.0277778

     Largest allocated arrays     est. size (Mb)     dimensions
     Largest temporary arrays     est. size (Mb)     dimensions

     Check: negative/imaginary core charge=   -0.000007    0.000000

     Initial potential from superposition of free atoms
     Check: negative starting charge=(component1):   -0.000196
     Check: negative starting charge=(component2):   -0.000155

     starting charge  195.99988, renormalised to  208.00000

     negative rho (up, down):  2.076E-04 1.649E-04

     *
     * You are using vdW-DF for exchange-correlation in this calculation.
     * Please cite the following three references that made this development
     * possible:
     *
     *   M. Dion, H. Rydberg, E. Schroder, D. C. Langreth, and
     *   B. I. Lundqvist, Phys. Rev. Lett. 92, 246401 (2004).
     *
     *   T. Thonhauser, V. R. Cooper, S. Li, A. Puzder, P. Hyldgaard, and
     *   D. C. Langreth, Phys. Rev. B 76, 125112 (2007).
     *
     *   G. Roman-Perez and J. M. Soler, Phys. Rev. Lett. 103, 096102 (2009).
     *
     *
     * If you are using vdW-DF2, please also cite:
     *
     *   K. Lee, E. D. Murray, L. Kong, B. I. Lundqvist, and
     *   D. C. Langreth, Phys. Rev. B 82, 081101(R) (2010).
     *
     *
     * If you are calculating the stress with vdW-DF, please also cite:
     *
     *   R. Sabatini, E. Kucukbenli, B. Kolb, T. Thonhauser, and
     *   S. de Gironcoli, J. Phys.: Condens. Matter 24, 424209 (2012).
     *

     Carrying out vdW-DF run using the following parameters:

     Nqs =      20    Nr_points =    1024   r_max =   100.000
     q_mesh =
               0.00001000     0.04494208     0.09755937     0.15916263
               0.23128650     0.31572767     0.41458969     0.53033537
               0.66584808     0.82450364     1.01025438     1.22772762
               1.48234092     1.78043706     2.12944203     2.53805004
               3.01644009     3.57652955     4.23227104     5.00000000

     Gradients computed in reciprocal space

     Adding external electric field

     Computed dipole along edir(3) :
        Dipole               -1.4289 Ry au,         -3.6320 Debye
        Dipole field         -0.0051 Ry au

        Potential amp.        0.4160 Ry
        Total length         40.9758 bohr

[...]

     Starting wfc are  160 randomized atomic wfcs

     Self-consistent Calculation

     iteration #  1     ecut=    36.75 Ry     beta=0.10
     Davidson diagonalization with overlap
     ethr =  1.00E-02,  avg # of iterations =  7.8

[...]

     Magnetic moment per site:
     atom:    1    charge:   14.2274    magn:    1.6197    constr:    0.0000
     atom:    2    charge:   14.2275    magn:    1.6189    constr:    0.0000
     atom:    3    charge:   14.2273    magn:    1.6191    constr:    0.0000
     atom:    4    charge:   14.2273    magn:    1.6190    constr:    0.0000
     atom:    5    charge:   14.1285    magn:    1.6041    constr:    0.0000
     atom:    6    charge:   14.1285    magn:    1.6041    constr:    0.0000
     atom:    7    charge:   14.1272    magn:    1.6062    constr:    0.0000
     atom:    8    charge:   14.1284    magn:    1.6041    constr:    0.0000
     atom:    9    charge:   14.0047    magn:    1.5711    constr:    0.0000
     atom:   10    charge:   14.0045    magn:    1.5711    constr:    0.0000
     atom:   11    charge:   14.0046    magn:    1.5711    constr:    0.0000
     atom:   12    charge:   13.9758    magn:    1.5813    constr:    0.0000
     atom:   13    charge:    2.5119    magn:    0.0176    constr:    0.0000

     total energy              =   -3511.34071438 Ry
     Harris-Foulkes estimate   =   -3631.20149204 Ry
     estimated scf accuracy    <     666.52807328 Ry

     total magnetization       =     9.40 Bohr mag/cell
     absolute magnetization    =    10.12 Bohr mag/cell

[...]

     End of self-consistent calculation

 ------ SPIN UP ------------

          k = 0.0000 0.0000 0.0000 ( 13257 PWs)   bands (ev):

   -95.8776 -95.8504 -95.8501 -95.8151 -95.7681 -95.6696 -95.6339 -95.6171
   -95.6167 -95.2794 -95.2543 -95.2536 -59.2395 -59.2069 -59.2067 -59.1783
   -59.1436 -59.1433 -59.0955 -59.0621 -59.0509 -59.0485 -59.0484 -59.0191
   -59.0189 -58.9783 -58.9691 -58.9690 -58.9616 -58.9614 -58.9451 -58.9328
   -58.9307 -58.9303 -58.8377 -58.8069 -58.8068 -58.7947 -58.7482 -58.7481
   -58.6908 -58.6907 -58.4591 -58.4587 -58.4491 -58.3946 -58.3899 -58.3895
   -10.3581  -7.1270  -5.0786  -4.4034  -4.4021  -4.3123  -4.2274  -4.1532
    -4.1531  -4.0554  -3.7606  -3.7602  -3.6768  -3.6555  -3.6554  -3.6074
    -3.0478  -3.0468  -2.6630  -2.6460  -2.6452  -2.3589  -2.2941  -2.2923
    -2.2917  -2.1866  -2.1433  -2.1431  -1.9368  -1.9367  -1.9108  -1.8433
    -1.8433  -1.6991  -1.6082  -1.6080  -1.3750  -1.3748  -1.1610  -1.1609
    -1.1086  -1.0880  -1.0879  -0.9837  -0.7945  -0.7937  -0.6796  -0.6795
    -0.6286  -0.4812  -0.4808  -0.4710  -0.4439  -0.4436  -0.3092  -0.2976
    -0.2975  -0.0713  -0.0711  -0.0621  -0.0139  -0.0138   0.1861   0.1969
     0.6342   1.0264

[...]

          k =-0.5000 0.2887 0.0000 ( 13378 PWs)   bands (ev):

[...]

 ------ SPIN DOWN ----------

[...]

     the Fermi energy is     0.6964 ev

!    total energy              =   -3605.79581762 Ry
     Harris-Foulkes estimate   =   -3605.79583701 Ry
     estimated scf accuracy    <       0.00004735 Ry

     The total energy is the sum of the following terms:

     one-electron contribution =  -31728.44472101 Ry
     hartree contribution      =   15870.07249165 Ry
     xc contribution           =    -408.83175699 Ry
     ewald contribution        =   12661.48880659 Ry
     electric field correction =       0.00006644 Ry
     smearing contrib. (-TS)   =      -0.08070431 Ry

[...]

     convergence has been achieved in  30 iterations

     Forces acting on atoms (Ry/au):

     negative rho (up, down):  6.488E-04 3.544E-04
     atom    1 type  1   force =     0.00007354   -0.00001244    0.01499590
     atom    2 type  1   force =    -0.00004039   -0.00057687    0.01514159
     atom    3 type  1   force =    -0.00047591    0.00027604    0.01510088
     atom    4 type  1   force =     0.00049837    0.00032189    0.01511751
     atom    5 type  1   force =     0.00131491   -0.00063498   -0.00201115
     atom    6 type  1   force =    -0.00126411   -0.00079426   -0.00188504
     atom    7 type  1   force =    -0.00020955   -0.00004093   -0.01448772
     atom    8 type  1   force =     0.00016326    0.00145634   -0.00198029
     atom    9 type  1   force =    -0.00090995   -0.00054009   -0.00956939
     atom   10 type  1   force =     0.00083263   -0.00049039   -0.00960178
     atom   11 type  1   force =     0.00000396    0.00103306   -0.00958212
     atom   12 type  1   force =    -0.00003243    0.00000905   -0.00827101
     atom   13 type  2   force =     0.00004567   -0.00000643   -0.00296738

     Total force =     0.018866     Total SCF correction =     0.035654
     SCF correction compared to forces is large: reduce conv_thr to get better values

     BFGS Geometry Optimization

     number of scf cycles    =   1
     number of bfgs steps    =   0

     energy   new            =   -3605.7958176157 Ry

     new trust radius        =       0.0096502803 bohr
     new conv_thr            =       0.0001000000 Ry

ATOMIC_POSITIONS (angstrom)
Co       1.253137179   0.723499087  10.000000000    0   0   0
Co       3.759411536   0.723499087  10.000000000    0   0   0
Co       2.506274357   2.893996350  10.000000000    0   0   0
Co       5.012548715   2.893996350  10.000000000    0   0   0
Co       5.012548715   1.446998175  12.046364444    0   0   0
Co       2.506274357   1.446998175  12.046364444    0   0   0
Co       6.265685894   3.617495438  12.046364444    0   0   0
Co       3.759411536   3.617495438  12.046364444    0   0   0
Co      -0.030096424  -0.017724023  14.135584683
Co       2.536003399  -0.016848110  14.135889422
Co       1.253713548   2.205057889  14.135705492
Co       3.759852200   2.170485976  14.027078571
C        1.251919536   0.723542808  15.139841872

     Writing output data file calc.save
     Check: negative starting charge=(component1):   -0.000351
     NEW-OLD atomic charge density approx. for the potential

     Check: negative/imaginary core charge=   -0.000007    0.000000
     Check: negative starting charge=(component1):   -0.000351

[...]

     energy   old            =   -3605.7958176157 Ry
     energy   new            =   -3605.7959209507 Ry

     CASE: energy  _new < energy  _old

[...]

     WARNING: bfgs curvature condition failed, Theta= 0.939
     new trust radius        =       0.0055290645 bohr
     new conv_thr            =       0.0000010000 Ry

[...]

     number of scf cycles    =  10
     number of bfgs steps    =   9

     energy   old            =   -3605.7961048979 Ry
     energy   new            =   -3605.7961201344 Ry

     CASE: energy  _new < energy  _old

     new trust radius        =       0.0090068936 bohr
     new conv_thr            =       0.0000010000 Ry

ATOMIC_POSITIONS (angstrom)
Co       1.253137179   0.723499088  10.000000000    0   0   0
Co       3.759411536   0.723499088  10.000000000    0   0   0
Co       2.506274358   2.893996350  10.000000000    0   0   0
Co       5.012548715   2.893996350  10.000000000    0   0   0
Co       5.012548715   1.446998175  12.046364444    0   0   0
Co       2.506274358   1.446998175  12.046364444    0   0   0
Co       6.265685894   3.617495437  12.046364444    0   0   0
Co       3.759411536   3.617495437  12.046364444    0   0   0
Co      -0.025414988  -0.014675773  14.114506037
Co       2.530688247  -0.014038405  14.114372748
Co       1.253202608   2.199355760  14.114416225
Co       3.759498693   2.170513926  14.025453737
C        1.251932807   0.723596964  15.121291180

     Writing output data file calc.save
     Check: negative starting charge=(component1):   -0.000353
     NEW-OLD atomic charge density approx. for the potential

     Check: negative/imaginary core charge=   -0.000007    0.000000
     Check: negative starting charge=(component1):   -0.000354

[...]

     Self-consistent Calculation

[...]

     total energy              =   -3605.79612304 Ry
     Harris-Foulkes estimate   =   -3605.79612291 Ry
     estimated scf accuracy    <       0.00000119 Ry

[...]

     iteration # 10     ecut=    36.75 Ry     beta=0.10
     Davidson diagonalization with overlap
     ethr =  5.73E-10,  avg # of iterations =  3.8

     negative rho (up, down):  6.518E-04 3.560E-04

[...]

     Adding external electric field

     Computed dipole along edir(3) :
        Dipole               -0.1363 Ry au,         -0.3465 Debye
        Dipole field         -0.0005 Ry au

        Potential amp.        0.0397 Ry
        Total length         40.9758 bohr

     Magnetic moment per site:
     atom:    1    charge:   13.7884    magn:    1.7285    constr:    0.0000
     atom:    2    charge:   13.7910    magn:    1.7082    constr:    0.0000
     atom:    3    charge:   13.7913    magn:    1.7080    constr:    0.0000
     atom:    4    charge:   13.7912    magn:    1.7080    constr:    0.0000
     atom:    5    charge:   13.7854    magn:    1.7258    constr:    0.0000
     atom:    6    charge:   13.7858    magn:    1.7254    constr:    0.0000
     atom:    7    charge:   13.7892    magn:    1.6498    constr:    0.0000
     atom:    8    charge:   13.7853    magn:    1.7258    constr:    0.0000
     atom:    9    charge:   13.8065    magn:    1.0564    constr:    0.0000
     atom:   10    charge:   13.8062    magn:    1.0591    constr:    0.0000
     atom:   11    charge:   13.8064    magn:    1.0576    constr:    0.0000
     atom:   12    charge:   13.7937    magn:    1.7791    constr:    0.0000
     atom:   13    charge:    2.4662    magn:   -0.1406    constr:    0.0000

     End of self-consistent calculation

 ------ SPIN UP ------------

[...]

 ------ SPIN DOWN ----------

[...]

          k = 0.3333-0.3849 0.0000 ( 13313 PWs)   bands (ev):

[...]

          k =-0.5000-0.2887 0.0000 ( 13378 PWs)   bands (ev):

   -93.7457 -93.7365 -93.7263 -93.4000 -93.3810 -93.3696 -93.3628 -93.2584
   -93.1889 -93.1821 -93.1689 -93.1651 -57.4609 -57.4034 -57.3507 -56.9736
   -56.9649 -56.9187 -56.9113 -56.8942 -56.8643 -56.8172 -56.8059 -56.7715
   -56.7616 -56.7565 -56.7374 -56.7372 -56.7277 -56.7129 -56.7117 -56.6490
   -56.6393 -56.6148 -56.6095 -56.6050 -56.5879 -56.5834 -56.5431 -56.5364
   -56.5274 -56.5207 -56.5081 -56.5000 -56.4961 -56.4938 -56.4516 -56.4505
   -10.3409  -5.6496  -5.3901  -4.1997  -3.5556  -3.3978  -3.1881  -2.8253
    -2.8007  -2.6761  -2.4214  -2.3644  -2.1465  -1.9930  -1.8220  -1.7851
    -1.6973  -1.6850  -1.5184  -1.4887  -1.2980  -1.1691  -1.1667  -1.1426
    -1.0672  -1.0561  -0.8574  -0.8178  -0.7504  -0.6115  -0.5734  -0.5732
    -0.5067  -0.4502  -0.2479  -0.1601  -0.1601  -0.1162  -0.1031   0.0151
     0.1115   0.3209   0.3702   0.4119   0.4942   0.5202   0.5748   0.6472
     0.6808   0.7348   0.8311   0.9001   0.9381   0.9552   1.1030   1.1292
     1.1664   1.2424   1.3608   1.4932   1.5199   1.5757   1.6612   1.6837
     1.7802   2.0838

     the Fermi energy is     0.6762 ev

!    total energy              =   -3605.79612316 Ry
     Harris-Foulkes estimate   =   -3605.79612236 Ry
     estimated scf accuracy    <       0.00000098 Ry

     The total energy is the sum of the following terms:

     one-electron contribution =  -31822.71204855 Ry
     hartree contribution      =   15917.45445195 Ry
     xc contribution           =    -408.86771759 Ry
     ewald contribution        =   12708.40969619 Ry
     electric field correction =       0.00006600 Ry
     smearing contrib. (-TS)   =      -0.08057116 Ry

     total magnetization       =    18.66 Bohr mag/cell
     absolute magnetization    =    21.35 Bohr mag/cell

     convergence has been achieved in  10 iterations

     Forces acting on atoms (Ry/au):

     negative rho (up, down):  6.518E-04 3.560E-04
     atom    1 type  1   force =    -0.00004425   -0.00005990    0.01093339
     atom    2 type  1   force =     0.00006935   -0.00054670    0.01088892
     atom    3 type  1   force =    -0.00041309    0.00033556    0.01088224
     atom    4 type  1   force =     0.00043075    0.00026492    0.01096638
     atom    5 type  1   force =     0.00122849   -0.00073589   -0.00749426
     atom    6 type  1   force =    -0.00121669   -0.00075879   -0.00747190
     atom    7 type  1   force =    -0.00007677    0.00004547   -0.02213091
     atom    8 type  1   force =     0.00002582    0.00144793   -0.00745424
     atom    9 type  1   force =    -0.00064845   -0.00039799    0.00070449
     atom   10 type  1   force =     0.00065980   -0.00049093    0.00086329
     atom   11 type  1   force =    -0.00007699    0.00082429    0.00085681
     atom   12 type  1   force =     0.00006067    0.00006778   -0.00083745
     atom   13 type  2   force =     0.00000138    0.00000425   -0.00070678

     Total force =     0.002264     Total SCF correction =     0.002947
     SCF correction compared to forces is large: reduce conv_thr to get better values

     bfgs converged in  11 scf cycles and  10 bfgs steps
     (criteria: energy <  1.0E+12, force <  1.9E-03)

     End of BFGS Geometry Optimization

     Final energy   =   -3605.7961231622 Ry
Begin final coordinates

ATOMIC_POSITIONS (angstrom)
Co       1.253137179   0.723499088  10.000000000    0   0   0
Co       3.759411536   0.723499088  10.000000000    0   0   0
Co       2.506274358   2.893996350  10.000000000    0   0   0
Co       5.012548715   2.893996350  10.000000000    0   0   0
Co       5.012548715   1.446998175  12.046364444    0   0   0
Co       2.506274358   1.446998175  12.046364444    0   0   0
Co       6.265685894   3.617495437  12.046364444    0   0   0
Co       3.759411536   3.617495437  12.046364444    0   0   0
Co      -0.025414988  -0.014675773  14.114506037
Co       2.530688247  -0.014038405  14.114372748
Co       1.253202608   2.199355760  14.114416225
Co       3.759498693   2.170513926  14.025453737
C        1.251932807   0.723596964  15.121291180
End final coordinates

     Writing output data file calc.save

     General routines

     Parallel routines

   This run was terminated on:  14:16: 4  11Jan2019

   JOB DONE.
Job  /afs/slac/g/suncat/bin/suncat-tsmpirun -x LD_LIBRARY_PATH -wdir /tmp/qe_623618fn4f5fz3_scratch pw.x -npool 3 -in pw.pwi

TID   HOST_NAME   COMMAND_LINE            STATUS            TERMINATION_TIME
00000 suncat1037 pw.x -npool 3 -i  Done                     01/11/2019 14:16:04
00001 suncat1037 pw.x -npool 3 -i  Done                     01/11/2019 14:16:04
00002 suncat1037 pw.x -npool 3 -i  Done                     01/11/2019 14:16:04
00003 suncat1037 pw.x -npool 3 -i  Done                     01/11/2019 14:16:04
00004 suncat1037 pw.x -npool 3 -i  Done                     01/11/2019 14:16:04
00005 suncat1037 pw.x -npool 3 -i  Done                     01/11/2019 14:16:04
00006 suncat1037 pw.x -npool 3 -i  Done                     01/11/2019 14:16:04
00007 suncat1037 pw.x -npool 3 -i  Done                     01/11/2019 14:16:04
00008 suncat1037 pw.x -npool 3 -i  Done                     01/11/2019 14:16:04
00009 suncat1037 pw.x -npool 3 -i  Done                     01/11/2019 14:16:04
00010 suncat1037 pw.x -npool 3 -i  Done                     01/11/2019 14:16:04
00011 suncat1037 pw.x -npool 3 -i  Done                     01/11/2019 14:16:04
00012 suncat1034 pw.x -npool 3 -i  Done                     01/11/2019 14:16:04
00013 suncat1034 pw.x -npool 3 -i  Done                     01/11/2019 14:16:04
00014 suncat1034 pw.x -npool 3 -i  Done                     01/11/2019 14:16:04
00015 suncat1034 pw.x -npool 3 -i  Done                     01/11/2019 14:16:04
00016 suncat1034 pw.x -npool 3 -i  Done                     01/11/2019 14:16:04
00017 suncat1034 pw.x -npool 3 -i  Done                     01/11/2019 14:16:04
00018 suncat1034 pw.x -npool 3 -i  Done                     01/11/2019 14:16:04
00019 suncat1034 pw.x -npool 3 -i  Done                     01/11/2019 14:16:04
00020 suncat1034 pw.x -npool 3 -i  Done                     01/11/2019 14:16:04
00021 suncat1034 pw.x -npool 3 -i  Done                     01/11/2019 14:16:04
00022 suncat1034 pw.x -npool 3 -i  Done                     01/11/2019 14:16:04
00023 suncat1034 pw.x -npool 3 -i  Done                     01/11/2019 14:16:04
00024 suncat1031 pw.x -npool 3 -i  Done                     01/11/2019 14:16:04
00025 suncat1031 pw.x -npool 3 -i  Done                     01/11/2019 14:16:04
00026 suncat1031 pw.x -npool 3 -i  Done                     01/11/2019 14:16:04
00027 suncat1031 pw.x -npool 3 -i  Done                     01/11/2019 14:16:04
00028 suncat1031 pw.x -npool 3 -i  Done                     01/11/2019 14:16:04
00029 suncat1031 pw.x -npool 3 -i  Done                     01/11/2019 14:16:04
00030 suncat1031 pw.x -npool 3 -i  Done                     01/11/2019 14:16:04
00031 suncat1031 pw.x -npool 3 -i  Done                     01/11/2019 14:16:04
00032 suncat1031 pw.x -npool 3 -i  Done                     01/11/2019 14:16:04
00033 suncat1031 pw.x -npool 3 -i  Done                     01/11/2019 14:16:04
00034 suncat1031 pw.x -npool 3 -i  Done                     01/11/2019 14:16:04
00035 suncat1031 pw.x -npool 3 -i  Done                     01/11/2019 14:16:04