     Program PWSCF v.5.1rc2 (svn rev. ) starts on 16Apr2018 at 11:53:48

     Current dimensions of program PWSCF are:
     Max number of different atomic species (ntypx) = 10
     Max number of k-points (npk) =  40000
     Max angular momentum in pseudopotentials (lmaxx) =  3
     Presently stress not available with electric field

     IMPORTANT: XC functional enforced from input :
     Exchange-correlation      = BEEF-VDW ( 1  4 27 13 2)
     Any further DFT definition will be discarded
     Please, verify this is what you really want

     Subspace diagonalization in iterative solution of the eigenvalue problem:
     a serial algorithm will be used

     bravais-lattice index     =            0
     lattice parameter (alat)  =       1.8897  a.u.
     unit-cell volume          =    5144.9564 (a.u.)^3
     number of atoms/cell      =           14
     number of atomic types    =            3
     number of electrons       =       138.00
     number of Kohn-Sham states=           79
     kinetic-energy cutoff     =      36.7493  Ry
     charge density cutoff     =     367.4932  Ry
     convergence threshold     =      1.0E-05
     mixing beta               =       0.3000
     number of iterations used =           10  plain     mixing
     Exchange-correlation      = BEEF-VDW ( 1  4 27 13 2)
     nstep                     =           50

     celldm(1)=   1.889726  celldm(2)=   0.000000  celldm(3)=   0.000000
     celldm(4)=   0.000000  celldm(5)=   0.000000  celldm(6)=   0.000000

     crystal axes: (cart. coord. in units of alat)
               a(1) = (   5.950946   0.000000   0.000000 )
               a(2) = (   2.975473   5.153671   0.000000 )
               a(3) = (   0.000000   0.000000  24.858927 )

     reciprocal axes: (cart. coord. in units 2 pi/alat)
               b(1) = (  0.168040 -0.097018  0.000000 )
               b(2) = (  0.000000  0.194036  0.000000 )
               b(3) = (  0.000000  0.000000  0.040227 )

     PseudoPot. # 1 for Au read from file:
     /home/mamunm/src/pseudo/gbrv1.5pbe/Au.UPF
     MD5 check sum: 9d7f43293ad2c663164586bc4b293ffc
     Pseudo is Ultrasoft + core correction, Zval = 11.0
     Generated by new atomic code, or converted to UPF format
     Using radial grid of  985 points,  7 beta functions with:
                l(1) =   0
                l(2) =   0
                l(3) =   1
                l(4) =   1
                l(5) =   2
                l(6) =   2
                l(7) =   3
     Q(r) pseudized with  6 coefficients,  rinner =    1.900   1.900   1.900
                                                       1.900   1.900   1.900
                                                       1.900

     PseudoPot. # 2 for N  read from file:
     /home/mamunm/src/pseudo/gbrv1.5pbe/N.UPF
     MD5 check sum: 95339753478d7afb44899504a8723017
     Pseudo is Ultrasoft + core correction, Zval =  5.0
     Generated by new atomic code, or converted to UPF format
     Using radial grid of  729 points,  4 beta functions with:
                l(1) =   0
                l(2) =   0
                l(3) =   1
                l(4) =   1
     Q(r) pseudized with  8 coefficients,  rinner =    0.900   0.900   0.900

     PseudoPot. # 3 for H  read from file:
     /home/mamunm/src/pseudo/gbrv1.5pbe/H.UPF
     MD5 check sum: 761ae9a214b05c3daf00ab9f6b793d6f
     Pseudo is Ultrasoft, Zval =  1.0
     Generated by new atomic code, or converted to UPF format
     Using radial grid of  615 points,  2 beta functions with:
                l(1) =   0
                l(2) =   0
     Q(r) pseudized with  8 coefficients,  rinner =    0.700

     vdW kernel table read from file vdW_kernel_table
     MD5 check sum: 095c7af220d748ca6e76c0b4c6cfb241

     atomic species   valence    mass     pseudopotential
        Au1           11.00   196.96657     Au( 1.00)
        N1             5.00    14.00700     N ( 1.00)
        H1             1.00     1.00800     H ( 1.00)

     No symmetry found

   Cartesian axes

     site n.     atom                  positions (alat units)
         1           Au1 tau(   1) = (   1.4877366   0.8589451  10.0000000  )
         2           Au1 tau(   2) = (   4.4632098   0.8589451  10.0000000  )
         3           Au1 tau(   3) = (   2.9754732   3.4357805  10.0000000  )
         4           Au1 tau(   4) = (   5.9509464   3.4357805  10.0000000  )
         5           Au1 tau(   5) = (   5.9509464   1.7178903  12.4294637  )
         6           Au1 tau(   6) = (   2.9754732   1.7178903  12.4294637  )
         7           Au1 tau(   7) = (   7.4386830   4.2947256  12.4294637  )
         8           Au1 tau(   8) = (   4.4632098   4.2947256  12.4294637  )
         9           Au1 tau(   9) = (   0.0000000   0.0000000  14.8589274  )
        10           Au1 tau(  10) = (   2.9754732   0.0000000  14.8589274  )
        11           Au1 tau(  11) = (   1.4877366   2.5768354  14.8589274  )
        12           Au1 tau(  12) = (   4.4632098   2.5768354  14.8589274  )
        13           N1  tau(  13) = (   1.4877366   0.8589451  16.2044274  )
        14           H1  tau(  14) = (   1.4877366   0.8589451  17.2544274  )

     number of k points=    20  Fermi-Dirac smearing, width (Ry)=  0.0110
                       cart. coord. in units 2pi/alat
        k(    1) = (   0.0000000   0.0000000   0.0000000), wk =   0.0555556
        k(    2) = (   0.0000000   0.0323394   0.0000000), wk =   0.1111111
        k(    3) = (   0.0000000   0.0646788   0.0000000), wk =   0.1111111
        k(    4) = (   0.0000000  -0.0970182   0.0000000), wk =   0.0555556
        k(    5) = (   0.0280067  -0.0161697   0.0000000), wk =   0.1111111
        k(    6) = (   0.0280067   0.0161697   0.0000000), wk =   0.1111111
        k(    7) = (   0.0280067   0.0485091   0.0000000), wk =   0.1111111
        k(    8) = (   0.0280067  -0.1131879   0.0000000), wk =   0.1111111
        k(    9) = (   0.0280067  -0.0808485   0.0000000), wk =   0.1111111
        k(   10) = (   0.0280067  -0.0485091   0.0000000), wk =   0.1111111
        k(   11) = (   0.0560135  -0.0323394   0.0000000), wk =   0.1111111
        k(   12) = (   0.0560135   0.0000000   0.0000000), wk =   0.1111111
        k(   13) = (   0.0560135   0.0323394   0.0000000), wk =   0.1111111
        k(   14) = (   0.0560135  -0.1293576   0.0000000), wk =   0.1111111
        k(   15) = (   0.0560135  -0.0970182   0.0000000), wk =   0.1111111
        k(   16) = (   0.0560135  -0.0646788   0.0000000), wk =   0.1111111
        k(   17) = (  -0.0840202   0.0485091   0.0000000), wk =   0.0555556
        k(   18) = (  -0.0840202   0.0808485   0.0000000), wk =   0.1111111
        k(   19) = (  -0.0840202   0.1131879   0.0000000), wk =   0.1111111
        k(   20) = (  -0.0840202  -0.0485091   0.0000000), wk =   0.0555556

     Largest allocated arrays     est. size (Mb)     dimensions
     Largest temporary arrays     est. size (Mb)     dimensions

     Check: negative/imaginary core charge=   -0.000002    0.000000

     Initial potential from superposition of free atoms

     starting charge  137.99852, renormalised to  138.00000

     negative rho (up, down):  7.829E-05 0.000E+00

     *
     * You are using vdW-DF for exchange-correlation in this calculation.
     * Please cite the following three references that made this development
     * possible:
     *
     *   M. Dion, H. Rydberg, E. Schroder, D. C. Langreth, and
     *   B. I. Lundqvist, Phys. Rev. Lett. 92, 246401 (2004).
     *
     *   T. Thonhauser, V. R. Cooper, S. Li, A. Puzder, P. Hyldgaard, and
     *   D. C. Langreth, Phys. Rev. B 76, 125112 (2007).
     *
     *   G. Roman-Perez and J. M. Soler, Phys. Rev. Lett. 103, 096102 (2009).
     *
     *
     * If you are using vdW-DF2, please also cite:
     *
     *   K. Lee, E. D. Murray, L. Kong, B. I. Lundqvist, and
     *   D. C. Langreth, Phys. Rev. B 82, 081101(R) (2010).
     *
     *
     * If you are calculating the stress with vdW-DF, please also cite:
     *
     *   R. Sabatini, E. Kucukbenli, B. Kolb, T. Thonhauser, and
     *   S. de Gironcoli, J. Phys.: Condens. Matter 24, 424209 (2012).
     *

     Carrying out vdW-DF run using the following parameters:

     Nqs =      20    Nr_points =    1024   r_max =   100.000
     q_mesh =
               0.00001000     0.04494208     0.09755937     0.15916263
               0.23128650     0.31572767     0.41458969     0.53033537
               0.66584808     0.82450364     1.01025438     1.22772762
               1.48234092     1.78043706     2.12944203     2.53805004
               3.01644009     3.57652955     4.23227104     5.00000000

     Gradients computed in reciprocal space

     Adding external electric field

     Computed dipole along edir(3) :
        Dipole               -0.0003 Ry au,         -0.0009 Debye
        Dipole field         -0.0000 Ry au

        Potential amp.        0.0001 Ry
        Total length         45.8022 bohr

     Starting wfc are  113 randomized atomic wfcs

     Self-consistent Calculation

     iteration #  1     ecut=    36.75 Ry     beta=0.30
     Davidson diagonalization with overlap
     ethr =  1.00E-02,  avg # of iterations =  2.4

[...]

     total energy              =   -1421.36409455 Ry
     Harris-Foulkes estimate   =   -1422.12431451 Ry
     estimated scf accuracy    <       1.74036159 Ry

[...]

     iteration #  6     ecut=    36.75 Ry     beta=0.30
     Davidson diagonalization with overlap
     c_bands:  1 eigenvalues not converged
     ethr =  1.27E-05,  avg # of iterations =  6.5

[...]

     End of self-consistent calculation

          k = 0.0000 0.0000 0.0000 ( 19315 PWs)   bands (ev):

   -14.6621  -7.6988  -7.0646  -5.9396  -5.7045  -5.5386  -5.5386  -5.4934
    -5.4934  -5.4767  -5.2251  -5.0698  -5.0698  -4.9959  -4.9959  -4.9814
    -4.3243  -4.3243  -4.3157  -3.8312  -3.8154  -3.8154  -3.7556  -3.7556
    -3.7165  -3.6574  -3.6574  -3.4034  -3.4034  -3.3630  -3.3382  -3.3101
    -3.3101  -3.1215  -3.0905  -3.0905  -2.7335  -2.6733  -2.6733  -2.4599
    -2.4423  -2.4423  -2.1956  -2.1956  -2.0954  -2.0954  -1.8044  -1.8044
    -1.7527  -1.6943  -1.6294  -1.6294  -1.5916  -1.5915  -1.4381  -1.4374
    -1.4374  -1.4163  -1.3234  -1.3234  -1.3177  -1.1490  -1.1490  -1.1400
    -0.4866  -0.2065  -0.2065   1.1490   1.1490   1.1560   1.4256   1.8638
     1.8638   1.9742   2.2698   2.2698   2.8754   3.8592   3.8593

[...]

          k =-0.0840 0.0485 0.0000 ( 19380 PWs)   bands (ev):

[...]

     the Fermi energy is     0.5495 ev

!    total energy              =   -1421.88071727 Ry
     Harris-Foulkes estimate   =   -1421.88072355 Ry
     estimated scf accuracy    <       0.00000763 Ry

     The total energy is the sum of the following terms:

     one-electron contribution =   -8352.38110641 Ry
     hartree contribution      =    4275.88557305 Ry
     xc contribution           =    -774.36979155 Ry
     ewald contribution        =    3429.01104532 Ry
     electric field correction =       0.00012455 Ry
     smearing contrib. (-TS)   =      -0.02656223 Ry

     convergence has been achieved in  10 iterations

 BEEF-vdW xc energy contributions
           1 :   -692.003294512043
           2 :    643.114656204625
           3 :   -555.728887286792
           4 :    446.824462544045
           5 :   -334.701606692075
           6 :    234.276987045300
           7 :   -154.273685584616
           8 :    96.7673195849895
           9 :   -58.7977672885019
          10 :    35.0386484541283
          11 :   -20.3225606620987
          12 :    11.0921089397738
          13 :   -5.54577173946234
          14 :    2.86920329208317
          15 :   -2.28261407841399
          16 :    2.52213245635892
          17 :   -1.99973006166567
          18 :  -0.565623927771753
          19 :    5.48922715324682
          20 :   -11.8698743629642
          21 :    17.9268300198974
          22 :   -21.7870821148618
          23 :    22.3243975824932
          24 :   -19.6367785691381
          25 :    14.9425997653258
          26 :   -9.98259336804529
          27 :    6.24495160986714
          28 :   -4.40153125344591
          29 :    4.19968707456621
          30 :   -4.80626715820210
          31 :   -54.8619497571812
          32 :   -39.9655513076916

     Forces acting on atoms (Ry/au):

     negative rho (up, down):  6.257E-04 0.000E+00
     atom    1 type  1   force =     0.00000671    0.00000053   -0.00352869
     atom    2 type  1   force =     0.00000949    0.00076607   -0.00620464
     atom    3 type  1   force =     0.00065462   -0.00038968   -0.00621916
     atom    4 type  1   force =    -0.00066427   -0.00039709   -0.00625961
     atom    5 type  1   force =    -0.00037542    0.00021772   -0.00190211
     atom    6 type  1   force =     0.00037642    0.00022180   -0.00191073
     atom    7 type  1   force =    -0.00000393    0.00000665    0.02554032
     atom    8 type  1   force =    -0.00000109   -0.00043715   -0.00190378
     atom    9 type  1   force =    -0.02839717   -0.01639076    0.01792342
     atom   10 type  1   force =     0.02839372   -0.01639460    0.01792878
     atom   11 type  1   force =    -0.00000890    0.03279963    0.01793021
     atom   12 type  1   force =     0.00000949   -0.00000195   -0.00738730
     atom   13 type  2   force =     0.00000002   -0.00000010   -0.00278314
     atom   14 type  3   force =     0.00000032   -0.00000107   -0.04122359

     Total force =     0.077148     Total SCF correction =     0.010666
     SCF correction compared to forces is large: reduce conv_thr to get better values

     entering subroutine stress ...

     negative rho (up, down):  6.257E-04 0.000E+00
          total   stress  (Ry/bohr**3)                   (kbar)     P=   -7.28
  -0.00006416  -0.00000000   0.00000000         -9.44     -0.00      0.00
  -0.00000000  -0.00006416   0.00000000         -0.00     -9.44      0.00
   0.00000000   0.00000000  -0.00002006          0.00      0.00     -2.95

     BFGS Geometry Optimization

     number of scf cycles    =   1
     number of bfgs steps    =   0

     energy   new            =   -1421.8807172714 Ry

     new trust radius        =       0.0412235880 bohr
     new conv_thr            =       0.0000099958 Ry

ATOMIC_POSITIONS (crystal)
Au1      0.166666667   0.166666667   0.402269971    0   0   0
Au1      0.666666667   0.166666667   0.402269971    0   0   0
Au1      0.166666667   0.666666667   0.402269971    0   0   0
Au1      0.666666667   0.666666667   0.402269971    0   0   0
Au1      0.833333333   0.333333333   0.500000000    0   0   0
Au1      0.333333333   0.333333333   0.500000000    0   0   0
Au1      0.833333333   0.833333333   0.500000000    0   0   0
Au1      0.333333333   0.833333333   0.500000000    0   0   0
Au1     -0.001683668  -0.001682998   0.598111569
Au1      0.503366556  -0.001683392   0.598111683
Au1     -0.001684719   0.503367855   0.598111713
Au1      0.500000944   0.499999800   0.597572774
N1       0.166666673   0.166666657   0.651796208
H1       0.166666750   0.166666557   0.693216265

     Writing output data file calc.save
     NEW-OLD atomic charge density approx. for the potential

[...]

     Total force =     0.066665     Total SCF correction =     0.001785

[...]

     energy   old            =   -1421.8807172714 Ry
     energy   new            =   -1421.8857076757 Ry

     CASE: energy  _new < energy  _old

[...]

     Threshold (ethr) on eigenvalues was too large:
     Diagonalizing with lowered threshold

     Davidson diagonalization with overlap
     ethr =  1.24E-08,  avg # of iterations =  1.7

[...]

     Total force =     0.006391     Total SCF correction =     0.000504

[...]

     number of scf cycles    =  12
     number of bfgs steps    =  11

     energy   old            =   -1421.9151590389 Ry
     energy   new            =   -1421.9152439158 Ry

     CASE: energy  _new < energy  _old

     new trust radius        =       0.0148564957 bohr
     new conv_thr            =       0.0000001000 Ry

ATOMIC_POSITIONS (crystal)
Au1      0.166666667   0.166666667   0.402269971    0   0   0
Au1      0.666666667   0.166666667   0.402269971    0   0   0
Au1      0.166666667   0.666666667   0.402269971    0   0   0
Au1      0.666666667   0.666666667   0.402269971    0   0   0
Au1      0.833333333   0.333333333   0.500000000    0   0   0
Au1      0.333333333   0.333333333   0.500000000    0   0   0
Au1      0.833333333   0.833333333   0.500000000    0   0   0
Au1      0.333333333   0.833333333   0.500000000    0   0   0
Au1     -0.013272787  -0.013272110   0.604023031
Au1      0.526543979  -0.013269251   0.604023315
Au1     -0.013272437   0.526547322   0.604024122
Au1      0.499997482   0.500001803   0.591954837
N1       0.166664361   0.166667966   0.642737333
H1       0.166665192   0.166666733   0.683810243

     Writing output data file calc.save
     NEW-OLD atomic charge density approx. for the potential

     Check: negative/imaginary core charge=   -0.000002    0.000000

[...]

     Self-consistent Calculation

[...]

     Threshold (ethr) on eigenvalues was too large:
     Diagonalizing with lowered threshold

     Davidson diagonalization with overlap
     ethr =  1.12E-08,  avg # of iterations =  1.7

[...]

     total energy              =   -1421.91527121 Ry
     Harris-Foulkes estimate   =   -1421.91527127 Ry
     estimated scf accuracy    <       0.00000035 Ry

     iteration #  6     ecut=    36.75 Ry     beta=0.30
     Davidson diagonalization with overlap
     ethr =  2.55E-10,  avg # of iterations =  2.4

[...]

     negative rho (up, down):  6.388E-04 0.000E+00

     Adding external electric field

     Computed dipole along edir(3) :
        Dipole                0.2696 Ry au,          0.6853 Debye
        Dipole field          0.0007 Ry au

        Potential amp.       -0.0603 Ry
        Total length         45.8022 bohr

     End of self-consistent calculation

[...]

          k = 0.0560-0.0647 0.0000 ( 19376 PWs)   bands (ev):

[...]

          k =-0.0840-0.0485 0.0000 ( 19380 PWs)   bands (ev):

   -15.3398  -7.1043  -6.2468  -5.9037  -5.6020  -5.0277  -4.9836  -4.8572
    -4.7267  -4.6935  -4.6867  -4.6243  -4.6238  -4.4265  -4.3758  -4.3452
    -4.2711  -4.2155  -4.1205  -4.0255  -3.9780  -3.8415  -3.8401  -3.7975
    -3.7703  -3.7671  -3.6553  -3.5850  -3.4570  -3.4198  -3.2861  -3.1974
    -3.1934  -3.0620  -3.0541  -3.0387  -3.0023  -2.9887  -2.9240  -2.9003
    -2.8497  -2.8294  -2.7051  -2.6350  -2.6078  -2.6054  -2.5477  -2.4315
    -2.4303  -2.3296  -2.3290  -2.2665  -2.2268  -2.0607  -2.0540  -2.0179
    -1.8693  -1.8499  -1.6572  -1.6305  -1.6064  -1.5399  -1.4661  -1.4116
    -1.3049  -0.8012  -0.3185  -0.1053   0.5487   0.7868   1.0547   1.4058
     2.3581   2.6310   3.8438   3.9743   4.3823   4.3904   5.4441

     the Fermi energy is     0.6249 ev

!    total energy              =   -1421.91527126 Ry
     Harris-Foulkes estimate   =   -1421.91527117 Ry
     estimated scf accuracy    <       0.00000004 Ry

     The total energy is the sum of the following terms:

     one-electron contribution =   -8310.29825586 Ry
     hartree contribution      =    4254.96028927 Ry
     xc contribution           =    -774.45561832 Ry
     ewald contribution        =    3407.90226403 Ry
     electric field correction =       0.00017756 Ry
     smearing contrib. (-TS)   =      -0.02412794 Ry

     convergence has been achieved in   6 iterations

 BEEF-vdW xc energy contributions
           1 :   -692.092586291854
           2 :    643.210710938825
           3 :   -555.817637100556
           4 :    446.877365841513
           5 :   -334.693969246369
           6 :    234.198590153927
           7 :   -154.130226865528
           8 :    96.5801174530450
           9 :   -58.6034996172712
          10 :    34.8857719867856
          11 :   -20.2594459988877
          12 :    11.1472424006481
          13 :   -5.70798255375632
          14 :    3.08106232421630
          15 :   -2.45761229741311
          16 :    2.58255707568856
          17 :   -1.91745094180419
          18 :  -0.748364104061579
          19 :    5.67475906095365
          20 :   -11.9523843011751
          21 :    17.8506548492453
          22 :   -21.5825930154197
          23 :    22.0971596083502
          24 :   -19.5122526244859
          25 :    14.9956155915639
          26 :   -10.1907909981946
          27 :    6.49506589792952
          28 :   -4.54904368003940
          29 :    4.14916435834948
          30 :   -4.56736132616470
          31 :   -54.8678606295258
          32 :   -39.9682673251931

     Forces acting on atoms (Ry/au):

     negative rho (up, down):  6.388E-04 0.000E+00
     atom    1 type  1   force =     0.00000001   -0.00000006    0.00063343
     atom    2 type  1   force =     0.00000001    0.00047328   -0.00690153
     atom    3 type  1   force =     0.00040987   -0.00023667   -0.00690126
     atom    4 type  1   force =    -0.00040985   -0.00023664   -0.00690116
     atom    5 type  1   force =     0.00753523   -0.00434980    0.00136267
     atom    6 type  1   force =    -0.00753556   -0.00435035    0.00136145
     atom    7 type  1   force =    -0.00000014   -0.00000015    0.01904664
     atom    8 type  1   force =     0.00000037    0.00870124    0.00136144
     atom    9 type  1   force =    -0.00071326   -0.00040990   -0.00072788
     atom   10 type  1   force =     0.00071155   -0.00041308   -0.00072667
     atom   11 type  1   force =    -0.00000320    0.00082361   -0.00072826
     atom   12 type  1   force =     0.00000288   -0.00000022    0.00081279
     atom   13 type  2   force =     0.00000212   -0.00000108   -0.00146876
     atom   14 type  3   force =    -0.00000004   -0.00000019   -0.00022290

     Total force =     0.002547     Total SCF correction =     0.000348
     SCF correction compared to forces is large: reduce conv_thr to get better values

     entering subroutine stress ...

     negative rho (up, down):  6.388E-04 0.000E+00
          total   stress  (Ry/bohr**3)                   (kbar)     P=   -2.84
  -0.00003462   0.00000000   0.00000000         -5.09      0.00      0.00
   0.00000000  -0.00003462  -0.00000000          0.00     -5.09     -0.00
   0.00000000  -0.00000000   0.00001136          0.00     -0.00      1.67

     bfgs converged in  13 scf cycles and  12 bfgs steps
     (criteria: energy <  1.0E+00, force <  1.9E-03)

     End of BFGS Geometry Optimization

     Final energy   =   -1421.9152712643 Ry
Begin final coordinates

ATOMIC_POSITIONS (crystal)
Au1      0.166666667   0.166666667   0.402269971    0   0   0
Au1      0.666666667   0.166666667   0.402269971    0   0   0
Au1      0.166666667   0.666666667   0.402269971    0   0   0
Au1      0.666666667   0.666666667   0.402269971    0   0   0
Au1      0.833333333   0.333333333   0.500000000    0   0   0
Au1      0.333333333   0.333333333   0.500000000    0   0   0
Au1      0.833333333   0.833333333   0.500000000    0   0   0
Au1      0.333333333   0.833333333   0.500000000    0   0   0
Au1     -0.013272787  -0.013272110   0.604023031
Au1      0.526543979  -0.013269251   0.604023315
Au1     -0.013272437   0.526547322   0.604024122
Au1      0.499997482   0.500001803   0.591954837
N1       0.166664361   0.166667966   0.642737333
H1       0.166665192   0.166666733   0.683810243
End final coordinates

     Writing output data file calc.save

     General routines

     Parallel routines

   This run was terminated on:  12:32:50  16Apr2018

   JOB DONE.