     Program PWSCF v.5.1rc2 (svn rev. 11289) starts on  3May2018 at  9:27:55

     Current dimensions of program PWSCF are:
     Max number of different atomic species (ntypx) = 10
     Max number of k-points (npk) =  40000
     Max angular momentum in pseudopotentials (lmaxx) =  3
     Presently stress not available with electric field

     IMPORTANT: XC functional enforced from input :
     Exchange-correlation      = BEEF-VDW ( 1  4 27 13 2)
     Any further DFT definition will be discarded
     Please, verify this is what you really want

     Subspace diagonalization in iterative solution of the eigenvalue problem:
     a serial algorithm will be used

     bravais-lattice index     =            0
     lattice parameter (alat)  =       1.8897  a.u.
     unit-cell volume          =    5182.3421 (a.u.)^3
     number of atoms/cell      =           13
     number of atomic types    =            2
     number of electrons       =       162.00
     number of Kohn-Sham states=           91
     kinetic-energy cutoff     =      36.7493  Ry
     charge density cutoff     =     367.4932  Ry
     convergence threshold     =      1.0E-05
     mixing beta               =       0.3000
     number of iterations used =           10  plain     mixing
     Exchange-correlation      = BEEF-VDW ( 1  4 27 13 2)
     nstep                     =           50

     celldm(1)=   1.889726  celldm(2)=   0.000000  celldm(3)=   0.000000
     celldm(4)=   0.000000  celldm(5)=   0.000000  celldm(6)=   0.000000

     crystal axes: (cart. coord. in units of alat)
               a(1) = (   5.970602   0.000000   0.000000 )
               a(2) = (   2.985301   5.170693   0.000000 )
               a(3) = (   0.000000   0.000000  24.874976 )

     reciprocal axes: (cart. coord. in units 2 pi/alat)
               b(1) = (  0.167487 -0.096699  0.000000 )
               b(2) = (  0.000000  0.193398  0.000000 )
               b(3) = (  0.000000  0.000000  0.040201 )

     PseudoPot. # 1 for Nb read from file:
     /u/if/mamunm/psp/gbrv1.5pbe/Nb.UPF
     MD5 check sum: 573aab8a2fa660278ed4a62cd769473f
     Pseudo is Ultrasoft + core correction, Zval = 13.0
     Generated by new atomic code, or converted to UPF format
     Using radial grid of  887 points,  6 beta functions with:
                l(1) =   0
                l(2) =   0
                l(3) =   1
                l(4) =   1
                l(5) =   2
                l(6) =   2
     Q(r) pseudized with  6 coefficients,  rinner =    1.000   1.000   1.000
                                                       1.000   1.000

     PseudoPot. # 2 for O  read from file:
     /u/if/mamunm/psp/gbrv1.5pbe/O.UPF
     MD5 check sum: 734c27235a0248c51dbae37a1fbe46ec
     Pseudo is Ultrasoft + core correction, Zval =  6.0
     Generated by new atomic code, or converted to UPF format
     Using radial grid of  737 points,  5 beta functions with:
                l(1) =   0
                l(2) =   0
                l(3) =   1
                l(4) =   1
                l(5) =   2
     Q(r) pseudized with  8 coefficients,  rinner =    0.900   0.900   0.900
                                                       0.900   0.900

     vdW kernel table read from file vdW_kernel_table
     MD5 check sum: 095c7af220d748ca6e76c0b4c6cfb241

     atomic species   valence    mass     pseudopotential
        Nb1           13.00    92.90637     Nb( 1.00)
        O1             6.00    15.99900     O ( 1.00)

     No symmetry found

   Cartesian axes

     site n.     atom                  positions (alat units)
         1           Nb1 tau(   1) = (   1.4926504   0.8617821  10.0000000  )
         2           Nb1 tau(   2) = (   4.4779512   0.8617821  10.0000000  )
         3           Nb1 tau(   3) = (   2.9853008   3.4471284  10.0000000  )
         4           Nb1 tau(   4) = (   5.9706016   3.4471284  10.0000000  )
         5           Nb1 tau(   5) = (   5.9706016   1.7235642  12.4374879  )
         6           Nb1 tau(   6) = (   2.9853008   1.7235642  12.4374879  )
         7           Nb1 tau(   7) = (   7.4632520   4.3089105  12.4374879  )
         8           Nb1 tau(   8) = (   4.4779512   4.3089105  12.4374879  )
         9           Nb1 tau(   9) = (   0.0000000   0.0000000  14.8749758  )
        10           Nb1 tau(  10) = (   2.9853008   0.0000000  14.8749758  )
        11           Nb1 tau(  11) = (   1.4926504   2.5853463  14.8749758  )
        12           Nb1 tau(  12) = (   4.4779512   2.5853463  14.8749758  )
        13           O1  tau(  13) = (   0.0000000   0.0000000  16.8299758  )

     number of k points=    20  Fermi-Dirac smearing, width (Ry)=  0.0110
                       cart. coord. in units 2pi/alat
        k(    1) = (   0.0000000   0.0000000   0.0000000), wk =   0.0555556
        k(    2) = (   0.0000000   0.0322329   0.0000000), wk =   0.1111111
        k(    3) = (   0.0000000   0.0644659   0.0000000), wk =   0.1111111
        k(    4) = (   0.0000000  -0.0966988   0.0000000), wk =   0.0555556
        k(    5) = (   0.0279146  -0.0161165   0.0000000), wk =   0.1111111
        k(    6) = (   0.0279146   0.0161165   0.0000000), wk =   0.1111111
        k(    7) = (   0.0279146   0.0483494   0.0000000), wk =   0.1111111
        k(    8) = (   0.0279146  -0.1128153   0.0000000), wk =   0.1111111
        k(    9) = (   0.0279146  -0.0805824   0.0000000), wk =   0.1111111
        k(   10) = (   0.0279146  -0.0483494   0.0000000), wk =   0.1111111
        k(   11) = (   0.0558291  -0.0322329   0.0000000), wk =   0.1111111
        k(   12) = (   0.0558291   0.0000000   0.0000000), wk =   0.1111111
        k(   13) = (   0.0558291   0.0322329   0.0000000), wk =   0.1111111
        k(   14) = (   0.0558291  -0.1289318   0.0000000), wk =   0.1111111
        k(   15) = (   0.0558291  -0.0966988   0.0000000), wk =   0.1111111
        k(   16) = (   0.0558291  -0.0644659   0.0000000), wk =   0.1111111
        k(   17) = (  -0.0837437   0.0483494   0.0000000), wk =   0.0555556
        k(   18) = (  -0.0837437   0.0805824   0.0000000), wk =   0.1111111
        k(   19) = (  -0.0837437   0.1128153   0.0000000), wk =   0.1111111
        k(   20) = (  -0.0837437  -0.0483494   0.0000000), wk =   0.0555556

     Largest allocated arrays     est. size (Mb)     dimensions
     Largest temporary arrays     est. size (Mb)     dimensions

     Initial potential from superposition of free atoms
     Check: negative starting charge=   -0.005220

     starting charge  161.96720, renormalised to  162.00000

     negative rho (up, down):  5.221E-03 0.000E+00

     *
     * You are using vdW-DF for exchange-correlation in this calculation.
     * Please cite the following three references that made this development
     * possible:
     *
     *   M. Dion, H. Rydberg, E. Schroder, D. C. Langreth, and
     *   B. I. Lundqvist, Phys. Rev. Lett. 92, 246401 (2004).
     *
     *   T. Thonhauser, V. R. Cooper, S. Li, A. Puzder, P. Hyldgaard, and
     *   D. C. Langreth, Phys. Rev. B 76, 125112 (2007).
     *
     *   G. Roman-Perez and J. M. Soler, Phys. Rev. Lett. 103, 096102 (2009).
     *
     *
     * If you are using vdW-DF2, please also cite:
     *
     *   K. Lee, E. D. Murray, L. Kong, B. I. Lundqvist, and
     *   D. C. Langreth, Phys. Rev. B 82, 081101(R) (2010).
     *
     *
     * If you are calculating the stress with vdW-DF, please also cite:
     *
     *   R. Sabatini, E. Kucukbenli, B. Kolb, T. Thonhauser, and
     *   S. de Gironcoli, J. Phys.: Condens. Matter 24, 424209 (2012).
     *

     Carrying out vdW-DF run using the following parameters:

     Nqs =      20    Nr_points =    1024   r_max =   100.000
     q_mesh =
               0.00001000     0.04494208     0.09755937     0.15916263
               0.23128650     0.31572767     0.41458969     0.53033537
               0.66584808     0.82450364     1.01025438     1.22772762
               1.48234092     1.78043706     2.12944203     2.53805004
               3.01644009     3.57652955     4.23227104     5.00000000

     Gradients computed in reciprocal space

     Adding external electric field

     Computed dipole along edir(3) :
        Dipole               -0.0101 Ry au,         -0.0256 Debye
        Dipole field         -0.0000 Ry au

        Potential amp.        0.0022 Ry
        Total length         45.8317 bohr

     Starting wfc are  160 randomized atomic wfcs

     Self-consistent Calculation

     iteration #  1     ecut=    36.75 Ry     beta=0.30
     Davidson diagonalization with overlap
     ethr =  1.00E-02,  avg # of iterations =  2.0

[...]

     total energy              =   -1452.59758556 Ry
     Harris-Foulkes estimate   =   -1455.36855228 Ry
     estimated scf accuracy    <       6.15482258 Ry

[...]

     End of self-consistent calculation

          k = 0.0000 0.0000 0.0000 ( 19435 PWs)   bands (ev):

   -53.6994 -53.5889 -53.5676 -53.5664 -53.5659 -53.4752 -53.4509 -53.4504
   -53.4478 -53.3899 -53.3517 -53.3509 -30.1200 -30.1198 -30.0805 -30.0503
   -30.0148 -30.0146 -30.0089 -29.9552 -29.9537 -29.9535 -29.7353 -29.6589
   -29.6165 -29.6160 -29.4917 -29.4898 -29.4894 -29.4440 -29.4025 -29.4024
   -29.3044 -29.3042 -29.3036 -29.2901 -29.2510 -29.2505 -29.2049 -29.1950
   -29.1949 -29.1710 -29.1709 -29.1619 -29.0872 -29.0872 -29.0003 -29.0003
   -15.1781  -3.9665  -2.6950  -2.2524  -2.1203  -2.1202  -2.0092  -1.8934
    -1.7626  -1.7625  -1.5303  -1.4870  -1.4869  -1.2815  -1.2814  -1.2562
    -1.0239  -1.0238  -0.9842  -0.1488   0.2701   0.2702   0.8987   1.0019
     1.0950   1.0950   1.3062   1.6158   1.6158   1.7305   1.8448   1.8448
     1.8995   1.8997   1.9601   1.9908   1.9908   1.9993   1.9994   2.3910
     2.7480   2.9134   3.0205

[...]

          k =-0.0837 0.0483 0.0000 ( 19524 PWs)   bands (ev):

[...]

     the Fermi energy is     1.5301 ev

!    total energy              =   -1454.71534535 Ry
     Harris-Foulkes estimate   =   -1454.71536805 Ry
     estimated scf accuracy    <       0.00000797 Ry

     The total energy is the sum of the following terms:

     one-electron contribution =  -11717.16550369 Ry
     hartree contribution      =    5851.79379933 Ry
     xc contribution           =    -235.67096871 Ry
     ewald contribution        =    4646.44383740 Ry
     electric field correction =       0.00040735 Ry
     smearing contrib. (-TS)   =      -0.11691704 Ry

     convergence has been achieved in  17 iterations

 BEEF-vdW xc energy contributions
           1 :   -202.022272386614
           2 :    183.404578875108
           3 :   -151.816620226875
           4 :    115.843944830788
           5 :   -83.5651431561533
           6 :    59.9222505411292
           7 :   -45.7826954360965
           8 :    38.6790847406837
           9 :   -34.6373689390921
          10 :    30.1431123507476
          11 :   -23.4523741037894
          12 :    14.8338064754161
          13 :   -5.87449275991673
          14 :   -1.64969935785626
          15 :    6.73032987538349
          16 :   -9.51258463116480
          17 :    11.0159338697863
          18 :   -12.4380312129022
          19 :    14.4619572221045
          20 :   -16.9456316894965
          21 :    19.1047022004305
          22 :   -20.0306432047412
          23 :    19.2231299797970
          24 :   -16.8586214952711
          25 :    13.6787745064324
          26 :   -10.6000540512819
          27 :    8.27818079928554
          28 :   -6.86218566865753
          29 :    6.03467408551634
          30 :   -5.28245967291079
          31 :   -23.2779941391416
          32 :   -17.5109165156290

     Forces acting on atoms (Ry/au):

     negative rho (up, down):  5.002E-03 0.000E+00
     atom    1 type  1   force =    -0.00023373   -0.00013686   -0.00638705
     atom    2 type  1   force =     0.00022550   -0.00010847   -0.00640385
     atom    3 type  1   force =     0.00002222    0.00026779   -0.00637590
     atom    4 type  1   force =    -0.00001564   -0.00001236   -0.00468909
     atom    5 type  1   force =     0.00000066    0.00951508   -0.00621161
     atom    6 type  1   force =     0.00000513    0.00000549    0.01271260
     atom    7 type  1   force =    -0.00823983   -0.00476830   -0.00625855
     atom    8 type  1   force =     0.00823469   -0.00476283   -0.00621296
     atom    9 type  1   force =     0.00002814    0.00001368    0.19342031
     atom   10 type  1   force =    -0.00002073    0.00487368   -0.00612703
     atom   11 type  1   force =     0.00420646   -0.00245306   -0.00611859
     atom   12 type  1   force =    -0.00421132   -0.00243182   -0.00614663
     atom   13 type  2   force =    -0.00000156   -0.00000203   -0.14520164

     Total force =     0.242237     Total SCF correction =     0.003038

     entering subroutine stress ...

     negative rho (up, down):  5.002E-03 0.000E+00
          total   stress  (Ry/bohr**3)                   (kbar)     P=  -23.33
  -0.00020732  -0.00000000  -0.00000000        -30.50     -0.00     -0.00
  -0.00000000  -0.00020733   0.00000000         -0.00    -30.50      0.00
  -0.00000000   0.00000000  -0.00006111         -0.00      0.00     -8.99

     BFGS Geometry Optimization

     number of scf cycles    =   1
     number of bfgs steps    =   0

     energy   new            =   -1454.7153453538 Ry

     new trust radius        =       0.1934203079 bohr
     new conv_thr            =       0.0000099958 Ry

ATOMIC_POSITIONS (crystal)
Nb1      0.166666667   0.166666667   0.402010442    0   0   0
Nb1      0.666666667   0.166666667   0.402010442    0   0   0
Nb1      0.166666667   0.666666667   0.402010442    0   0   0
Nb1      0.666666667   0.666666667   0.402010442    0   0   0
Nb1      0.833333333   0.333333333   0.500000000    0   0   0
Nb1      0.333333333   0.333333333   0.500000000    0   0   0
Nb1      0.833333333   0.833333333   0.500000000    0   0   0
Nb1      0.333333333   0.833333333   0.500000000    0   0   0
Nb1      0.000001794   0.000001400   0.602104280
Nb1      0.499748772   0.000498780   0.597859215
Nb1      0.000498346   0.499748950   0.597859394
Nb1      0.499751187   0.499751124   0.597858798
O1      -0.000000034  -0.000000208   0.673493656

     Writing output data file calc.save
     Check: negative starting charge=   -0.005220
     NEW-OLD atomic charge density approx. for the potential
     Check: negative starting charge=   -0.005243

[...]

     energy   old            =   -1454.7153453538 Ry
     energy   new            =   -1454.7542935900 Ry

     CASE: energy  _new < energy  _old

[...]

     WARNING: bfgs curvature condition failed, Theta= 0.887
     new trust radius        =       0.0583314813 bohr
     new conv_thr            =       0.0000001000 Ry

[...]

     WARNING: bfgs curvature condition failed, Theta= 0.932
     new trust radius        =       0.0302934784 bohr
     new conv_thr            =       0.0000001000 Ry

[...]

     Total force =     0.011504     Total SCF correction =     0.000492

[...]

     Total force =     0.004815     Total SCF correction =     0.000818
     SCF correction compared to forces is large: reduce conv_thr to get better values

[...]

     number of scf cycles    =  11
     number of bfgs steps    =  10

     energy   old            =   -1454.7742646754 Ry
     energy   new            =   -1454.7748137466 Ry

     CASE: energy  _new < energy  _old

     new trust radius        =       0.0215603604 bohr
     new conv_thr            =       0.0000001000 Ry

ATOMIC_POSITIONS (crystal)
Nb1      0.166666667   0.166666667   0.402010442    0   0   0
Nb1      0.666666667   0.166666667   0.402010442    0   0   0
Nb1      0.166666667   0.666666667   0.402010442    0   0   0
Nb1      0.666666667   0.666666667   0.402010442    0   0   0
Nb1      0.833333333   0.333333333   0.500000000    0   0   0
Nb1      0.333333333   0.333333333   0.500000000    0   0   0
Nb1      0.833333333   0.833333333   0.500000000    0   0   0
Nb1      0.333333333   0.833333333   0.500000000    0   0   0
Nb1      0.000001552  -0.000001116   0.616473773
Nb1      0.500931005  -0.001858098   0.591667338
Nb1     -0.001855482   0.500928574   0.591669050
Nb1      0.500931055   0.500929795   0.591671445
O1       0.000003850  -0.000006694   0.686114954

     Writing output data file calc.save
     Check: negative starting charge=   -0.005285
     NEW-OLD atomic charge density approx. for the potential
     Check: negative starting charge=   -0.005272

[...]

     Self-consistent Calculation

[...]

     total energy              =   -1454.77489024 Ry
     Harris-Foulkes estimate   =   -1454.77489013 Ry
     estimated scf accuracy    <       0.00000018 Ry

     iteration # 12     ecut=    36.75 Ry     beta=0.30
     Davidson diagonalization with overlap
     ethr =  1.09E-10,  avg # of iterations =  2.5

[...]

     negative rho (up, down):  5.108E-03 0.000E+00

     Adding external electric field

     Computed dipole along edir(3) :
        Dipole               -0.5033 Ry au,         -1.2792 Debye
        Dipole field         -0.0012 Ry au

        Potential amp.        0.1119 Ry
        Total length         45.8317 bohr

     End of self-consistent calculation

[...]

          k = 0.0558-0.0645 0.0000 ( 19505 PWs)   bands (ev):

[...]

          k =-0.0837-0.0483 0.0000 ( 19524 PWs)   bands (ev):

   -53.6618 -53.6503 -53.6237 -53.6122 -53.5778 -53.5697 -53.5604 -53.5550
   -53.5171 -53.5157 -53.4881 -53.4761 -30.2216 -30.0681 -30.0547 -30.0414
   -30.0125 -29.9660 -29.9303 -29.8892 -29.8605 -29.8374 -29.8272 -29.8054
   -29.6954 -29.6603 -29.6341 -29.6227 -29.6193 -29.5934 -29.5766 -29.5424
   -29.5253 -29.4870 -29.4682 -29.4592 -29.4465 -29.4225 -29.3770 -29.3420
   -29.3250 -29.3061 -29.2939 -29.2621 -29.2531 -29.2306 -29.1865 -29.1720
   -15.4328  -2.6082  -2.5424  -2.0900  -2.0662  -2.0562  -1.6436  -1.4897
    -1.2333  -1.1815  -1.1378  -1.0734  -0.9082  -0.8869  -0.5267  -0.4900
    -0.3916  -0.3436  -0.2272  -0.1226   0.1101   0.1313   0.2456   0.3180
     0.4088   0.4206   0.7289   0.8696   0.9061   0.9401   1.0432   1.0805
     1.0912   1.1939   1.2579   1.3635   1.4020   1.5882   1.6086   1.7731
     1.9650   2.0846   2.6031

     the Fermi energy is     1.3992 ev

!    total energy              =   -1454.77489023 Ry
     Harris-Foulkes estimate   =   -1454.77489009 Ry
     estimated scf accuracy    <       0.00000004 Ry

     The total energy is the sum of the following terms:

     one-electron contribution =  -11657.29297794 Ry
     hartree contribution      =    5821.36748578 Ry
     xc contribution           =    -235.87897780 Ry
     ewald contribution        =    4617.14675744 Ry
     electric field correction =       0.00061423 Ry
     smearing contrib. (-TS)   =      -0.11779193 Ry

     convergence has been achieved in  12 iterations

 BEEF-vdW xc energy contributions
           1 :   -202.230046581876
           2 :    183.638389541309
           3 :   -152.088185187507
           4 :    116.124047678382
           5 :   -83.7909231825889
           6 :    60.0346281178587
           7 :   -45.7499975628671
           8 :    38.4980506210447
           9 :   -34.3277382592880
          10 :    29.7460303591849
          11 :   -23.0263009486944
          12 :    14.4346219724623
          13 :   -5.52816978006246
          14 :   -1.95863640940428
          15 :    7.04570968922692
          16 :   -9.87576946395907
          17 :    11.4335993729146
          18 :   -12.8711881318354
          19 :    14.8484474740537
          20 :   -17.2420220481526
          21 :    19.3188904405512
          22 :   -20.2215175376004
          23 :    19.4662023601380
          24 :   -17.1994250801132
          25 :    14.1006419754830
          26 :   -11.0279325871595
          27 :    8.62031023224949
          28 :   -7.06253805160765
          29 :    6.10358074319907
          30 :   -5.28789299005570
          31 :   -23.2886386094020
          32 :   -17.5250095255456

     Forces acting on atoms (Ry/au):

     negative rho (up, down):  5.108E-03 0.000E+00
     atom    1 type  1   force =    -0.00233628   -0.00134803   -0.00117817
     atom    2 type  1   force =     0.00233647   -0.00134712   -0.00117743
     atom    3 type  1   force =     0.00000072    0.00269649   -0.00117753
     atom    4 type  1   force =    -0.00000030   -0.00000087   -0.00015333
     atom    5 type  1   force =    -0.00000624   -0.01352759    0.00329521
     atom    6 type  1   force =     0.00000610    0.00000798   -0.01326541
     atom    7 type  1   force =     0.01172071    0.00676300    0.00328088
     atom    8 type  1   force =    -0.01172274    0.00675813    0.00328846
     atom    9 type  1   force =     0.00000061    0.00000042    0.00120847
     atom   10 type  1   force =     0.00000015    0.00096959    0.00160474
     atom   11 type  1   force =     0.00083792   -0.00048665    0.00160247
     atom   12 type  1   force =    -0.00083686   -0.00048552    0.00160902
     atom   13 type  2   force =    -0.00000025    0.00000017    0.00106263

     Total force =     0.003624     Total SCF correction =     0.000394
     SCF correction compared to forces is large: reduce conv_thr to get better values

     entering subroutine stress ...

     negative rho (up, down):  5.108E-03 0.000E+00
          total   stress  (Ry/bohr**3)                   (kbar)     P=  -14.02
  -0.00014730  -0.00000000   0.00000000        -21.67     -0.00      0.00
  -0.00000000  -0.00014731  -0.00000000         -0.00    -21.67     -0.00
   0.00000000  -0.00000000   0.00000877          0.00     -0.00      1.29

     bfgs converged in  12 scf cycles and  11 bfgs steps
     (criteria: energy <  1.0E+00, force <  1.9E-03)

     End of BFGS Geometry Optimization

     Final energy   =   -1454.7748902286 Ry
Begin final coordinates

ATOMIC_POSITIONS (crystal)
Nb1      0.166666667   0.166666667   0.402010442    0   0   0
Nb1      0.666666667   0.166666667   0.402010442    0   0   0
Nb1      0.166666667   0.666666667   0.402010442    0   0   0
Nb1      0.666666667   0.666666667   0.402010442    0   0   0
Nb1      0.833333333   0.333333333   0.500000000    0   0   0
Nb1      0.333333333   0.333333333   0.500000000    0   0   0
Nb1      0.833333333   0.833333333   0.500000000    0   0   0
Nb1      0.333333333   0.833333333   0.500000000    0   0   0
Nb1      0.000001552  -0.000001116   0.616473773
Nb1      0.500931005  -0.001858098   0.591667338
Nb1     -0.001855482   0.500928574   0.591669050
Nb1      0.500931055   0.500929795   0.591671445
O1       0.000003850  -0.000006694   0.686114954
End final coordinates

     Writing output data file calc.save

     General routines

     Parallel routines

   This run was terminated on:  10:53:52   3May2018

   JOB DONE.
Job  /afs/slac/g/suncat/bin/suncat-tsmpirun -x LD_LIBRARY_PATH -wdir /scratch/qe707468_lp74w pw.x -npool 4 -in pw.inp

TID   HOST_NAME   COMMAND_LINE            STATUS            TERMINATION_TIME
00000 suncat0002 pw.x -npool 4 -i  Done                     05/03/2018 10:53:52
00001 suncat0002 pw.x -npool 4 -i  Done                     05/03/2018 10:53:52
00002 suncat0002 pw.x -npool 4 -i  Done                     05/03/2018 10:53:52
00003 suncat0002 pw.x -npool 4 -i  Done                     05/03/2018 10:53:52
00004 suncat0002 pw.x -npool 4 -i  Done                     05/03/2018 10:53:52
00005 suncat0002 pw.x -npool 4 -i  Done                     05/03/2018 10:53:52
00006 suncat0002 pw.x -npool 4 -i  Done                     05/03/2018 10:53:52
00007 suncat0002 pw.x -npool 4 -i  Done                     05/03/2018 10:53:52
00008 suncat0185 pw.x -npool 4 -i  Done                     05/03/2018 10:53:52
00009 suncat0185 pw.x -npool 4 -i  Done                     05/03/2018 10:53:52
00010 suncat0185 pw.x -npool 4 -i  Done                     05/03/2018 10:53:52
00011 suncat0185 pw.x -npool 4 -i  Done                     05/03/2018 10:53:52
00012 suncat0185 pw.x -npool 4 -i  Done                     05/03/2018 10:53:52
00013 suncat0185 pw.x -npool 4 -i  Done                     05/03/2018 10:53:52
00014 suncat0185 pw.x -npool 4 -i  Done                     05/03/2018 10:53:52
00015 suncat0185 pw.x -npool 4 -i  Done                     05/03/2018 10:53:52
00016 suncat0278 pw.x -npool 4 -i  Done                     05/03/2018 10:53:52
00017 suncat0278 pw.x -npool 4 -i  Done                     05/03/2018 10:53:52
00018 suncat0278 pw.x -npool 4 -i  Done                     05/03/2018 10:53:52
00019 suncat0278 pw.x -npool 4 -i  Done                     05/03/2018 10:53:52
00020 suncat0278 pw.x -npool 4 -i  Done                     05/03/2018 10:53:52
00021 suncat0278 pw.x -npool 4 -i  Done                     05/03/2018 10:53:52
00022 suncat0278 pw.x -npool 4 -i  Done                     05/03/2018 10:53:52
00023 suncat0278 pw.x -npool 4 -i  Done                     05/03/2018 10:53:52
00024 suncat0264 pw.x -npool 4 -i  Done                     05/03/2018 10:53:52
00025 suncat0264 pw.x -npool 4 -i  Done                     05/03/2018 10:53:52
00026 suncat0264 pw.x -npool 4 -i  Done                     05/03/2018 10:53:52
00027 suncat0264 pw.x -npool 4 -i  Done                     05/03/2018 10:53:52
00028 suncat0264 pw.x -npool 4 -i  Done                     05/03/2018 10:53:52
00029 suncat0264 pw.x -npool 4 -i  Done                     05/03/2018 10:53:52
00030 suncat0264 pw.x -npool 4 -i  Done                     05/03/2018 10:53:52
00031 suncat0264 pw.x -npool 4 -i  Done                     05/03/2018 10:53:52