     Program PWSCF v.5.1rc2 (svn rev. 11289) starts on 23Apr2018 at  4:52:20

     Current dimensions of program PWSCF are:
     Max number of different atomic species (ntypx) = 10
     Max number of k-points (npk) =  40000
     Max angular momentum in pseudopotentials (lmaxx) =  3
     Presently stress not available with electric field

     IMPORTANT: XC functional enforced from input :
     Exchange-correlation      = BEEF-VDW ( 1  4 27 13 2)
     Any further DFT definition will be discarded
     Please, verify this is what you really want

     Subspace diagonalization in iterative solution of the eigenvalue problem:
     a serial algorithm will be used

     bravais-lattice index     =            0
     lattice parameter (alat)  =       1.8897  a.u.
     unit-cell volume          =    6741.9070 (a.u.)^3
     number of atoms/cell      =           14
     number of atomic types    =            3
     number of electrons       =       175.00
     number of Kohn-Sham states=           97
     kinetic-energy cutoff     =      36.7493  Ry
     charge density cutoff     =     367.4932  Ry
     convergence threshold     =      1.0E-05
     mixing beta               =       0.3000
     number of iterations used =           10  plain     mixing
     Exchange-correlation      = BEEF-VDW ( 1  4 27 13 2)
     nstep                     =           50

     celldm(1)=   1.889726  celldm(2)=   0.000000  celldm(3)=   0.000000
     celldm(4)=   0.000000  celldm(5)=   0.000000  celldm(6)=   0.000000

     crystal axes: (cart. coord. in units of alat)
               a(1) = (   6.726993   0.000000   0.000000 )
               a(2) = (   3.363497   5.825747   0.000000 )
               a(3) = (   0.000000   0.000000  25.492567 )

     reciprocal axes: (cart. coord. in units 2 pi/alat)
               b(1) = (  0.148655 -0.085826  0.000000 )
               b(2) = (  0.000000  0.171652  0.000000 )
               b(3) = (  0.000000  0.000000  0.039227 )

     PseudoPot. # 1 for Sn read from file:
     /u/if/mamunm/psp/gbrv1.5pbe/Sn.UPF
     MD5 check sum: 469debedee59599fedebd795477fea03
     Pseudo is Ultrasoft + core correction, Zval = 14.0
     Generated by new atomic code, or converted to UPF format
     Using radial grid of  891 points,  6 beta functions with:
                l(1) =   0
                l(2) =   0
                l(3) =   1
                l(4) =   1
                l(5) =   2
                l(6) =   2
     Q(r) pseudized with  8 coefficients,  rinner =    1.350   1.350   1.350
                                                       1.350   1.350

     PseudoPot. # 2 for S  read from file:
     /u/if/mamunm/psp/gbrv1.5pbe/S.UPF
     MD5 check sum: 88d86576ff6df21479756cfb9bdac1df
     Pseudo is Ultrasoft + core correction, Zval =  6.0
     Generated by new atomic code, or converted to UPF format
     Using radial grid of  907 points,  6 beta functions with:
                l(1) =   0
                l(2) =   0
                l(3) =   1
                l(4) =   1
                l(5) =   2
                l(6) =   2
     Q(r) pseudized with  8 coefficients,  rinner =    1.300   1.300   1.300
                                                       1.300   1.300

     PseudoPot. # 3 for H  read from file:
     /u/if/mamunm/psp/gbrv1.5pbe/H.UPF
     MD5 check sum: 761ae9a214b05c3daf00ab9f6b793d6f
     Pseudo is Ultrasoft, Zval =  1.0
     Generated by new atomic code, or converted to UPF format
     Using radial grid of  615 points,  2 beta functions with:
                l(1) =   0
                l(2) =   0
     Q(r) pseudized with  8 coefficients,  rinner =    0.700

     vdW kernel table read from file vdW_kernel_table
     MD5 check sum: 095c7af220d748ca6e76c0b4c6cfb241

     atomic species   valence    mass     pseudopotential
        Sn1           14.00   118.71000     Sn( 1.00)
        S1             6.00    32.06000     S ( 1.00)
        H1             1.00     1.00800     H ( 1.00)

     No symmetry found

   Cartesian axes

     site n.     atom                  positions (alat units)
         1           Sn1 tau(   1) = (   1.6817483   0.9709578  10.0000000  )
         2           Sn1 tau(   2) = (   5.0452448   0.9709578  10.0000000  )
         3           Sn1 tau(   3) = (   3.3634965   3.8838312  10.0000000  )
         4           Sn1 tau(   4) = (   6.7269931   3.8838312  10.0000000  )
         5           Sn1 tau(   5) = (   6.7269931   1.9419156  12.7462834  )
         6           Sn1 tau(   6) = (   3.3634965   1.9419156  12.7462834  )
         7           Sn1 tau(   7) = (   8.4087413   4.8547891  12.7462834  )
         8           Sn1 tau(   8) = (   5.0452448   4.8547891  12.7462834  )
         9           Sn1 tau(   9) = (   0.0000000   0.0000000  15.4925668  )
        10           Sn1 tau(  10) = (   3.3634965   0.0000000  15.4925668  )
        11           Sn1 tau(  11) = (   1.6817483   2.9128734  15.4925668  )
        12           Sn1 tau(  12) = (   5.0452448   2.9128734  15.4925668  )
        13           S1  tau(  13) = (   1.6817483   0.0000000  17.3225668  )
        14           H1  tau(  14) = (   1.6817483   0.0000000  18.5725668  )

     number of k points=    20  Fermi-Dirac smearing, width (Ry)=  0.0110
                       cart. coord. in units 2pi/alat
        k(    1) = (   0.0000000   0.0000000   0.0000000), wk =   0.0555556
        k(    2) = (   0.0000000   0.0286086   0.0000000), wk =   0.1111111
        k(    3) = (   0.0000000   0.0572173   0.0000000), wk =   0.1111111
        k(    4) = (   0.0000000  -0.0858259   0.0000000), wk =   0.0555556
        k(    5) = (   0.0247758  -0.0143043   0.0000000), wk =   0.1111111
        k(    6) = (   0.0247758   0.0143043   0.0000000), wk =   0.1111111
        k(    7) = (   0.0247758   0.0429130   0.0000000), wk =   0.1111111
        k(    8) = (   0.0247758  -0.1001302   0.0000000), wk =   0.1111111
        k(    9) = (   0.0247758  -0.0715216   0.0000000), wk =   0.1111111
        k(   10) = (   0.0247758  -0.0429130   0.0000000), wk =   0.1111111
        k(   11) = (   0.0495516  -0.0286086   0.0000000), wk =   0.1111111
        k(   12) = (   0.0495516   0.0000000   0.0000000), wk =   0.1111111
        k(   13) = (   0.0495516   0.0286086   0.0000000), wk =   0.1111111
        k(   14) = (   0.0495516  -0.1144345   0.0000000), wk =   0.1111111
        k(   15) = (   0.0495516  -0.0858259   0.0000000), wk =   0.1111111
        k(   16) = (   0.0495516  -0.0572173   0.0000000), wk =   0.1111111
        k(   17) = (  -0.0743274   0.0429130   0.0000000), wk =   0.0555556
        k(   18) = (  -0.0743274   0.0715216   0.0000000), wk =   0.1111111
        k(   19) = (  -0.0743274   0.1001302   0.0000000), wk =   0.1111111
        k(   20) = (  -0.0743274  -0.0429130   0.0000000), wk =   0.0555556

     Largest allocated arrays     est. size (Mb)     dimensions
     Largest temporary arrays     est. size (Mb)     dimensions

     Initial potential from superposition of free atoms
     Check: negative starting charge=   -0.001286

     starting charge  162.99941, renormalised to  175.00000

     negative rho (up, down):  1.381E-03 0.000E+00

     *
     * You are using vdW-DF for exchange-correlation in this calculation.
     * Please cite the following three references that made this development
     * possible:
     *
     *   M. Dion, H. Rydberg, E. Schroder, D. C. Langreth, and
     *   B. I. Lundqvist, Phys. Rev. Lett. 92, 246401 (2004).
     *
     *   T. Thonhauser, V. R. Cooper, S. Li, A. Puzder, P. Hyldgaard, and
     *   D. C. Langreth, Phys. Rev. B 76, 125112 (2007).
     *
     *   G. Roman-Perez and J. M. Soler, Phys. Rev. Lett. 103, 096102 (2009).
     *
     *
     * If you are using vdW-DF2, please also cite:
     *
     *   K. Lee, E. D. Murray, L. Kong, B. I. Lundqvist, and
     *   D. C. Langreth, Phys. Rev. B 82, 081101(R) (2010).
     *
     *
     * If you are calculating the stress with vdW-DF, please also cite:
     *
     *   R. Sabatini, E. Kucukbenli, B. Kolb, T. Thonhauser, and
     *   S. de Gironcoli, J. Phys.: Condens. Matter 24, 424209 (2012).
     *

     Carrying out vdW-DF run using the following parameters:

     Nqs =      20    Nr_points =    1024   r_max =   100.000
     q_mesh =
               0.00001000     0.04494208     0.09755937     0.15916263
               0.23128650     0.31572767     0.41458969     0.53033537
               0.66584808     0.82450364     1.01025438     1.22772762
               1.48234092     1.78043706     2.12944203     2.53805004
               3.01644009     3.57652955     4.23227104     5.00000000

     Gradients computed in reciprocal space

     Adding external electric field

     Computed dipole along edir(3) :
        Dipole               -4.6303 Ry au,        -11.7690 Debye
        Dipole field         -0.0086 Ry au

        Potential amp.        0.8107 Ry
        Total length         46.9696 bohr

     Starting wfc are  113 randomized atomic wfcs

     Self-consistent Calculation

     iteration #  1     ecut=    36.75 Ry     beta=0.30
     Davidson diagonalization with overlap
     ethr =  1.00E-02,  avg # of iterations =  8.1

[...]

     total energy              =   -1871.91381158 Ry
     Harris-Foulkes estimate   =   -1956.95709045 Ry
     estimated scf accuracy    <     180.95020354 Ry

[...]

     End of self-consistent calculation

          k = 0.0000 0.0000 0.0000 ( 25377 PWs)   bands (ev):

   -21.1345 -21.0744 -21.0676 -21.0608 -21.0181 -21.0011 -21.0008 -20.9952
   -20.9672 -20.9622 -20.9516 -20.9492 -20.9448 -20.9431 -20.9256 -20.9168
   -20.9144 -20.9078 -20.9070 -20.9041 -20.8978 -20.8941 -20.8922 -20.8889
   -20.8873 -20.8853 -20.8852 -20.8811 -20.8745 -20.8645 -20.8622 -20.8541
   -20.8525 -20.8494 -20.8387 -20.8360 -20.8359 -20.8312 -20.8292 -20.8253
   -20.8067 -20.8025 -20.8016 -20.7812 -20.7714 -20.7642 -20.7554 -20.7548
   -20.7527 -20.7508 -20.7482 -20.7466 -20.7366 -20.7360 -20.7302 -20.7279
   -20.7231 -20.7167 -20.7121 -20.7101 -13.7683  -9.6815  -8.6453  -7.2794
    -6.1137  -5.9505  -5.5787  -5.4838  -5.4141  -5.1419  -4.8558  -4.5400
    -4.2480  -4.0255  -3.1882  -3.0267  -2.7803  -2.4416  -2.3031  -2.1021
    -1.6285  -1.5402  -1.5270  -0.8341  -0.7680  -0.6615   0.8606   1.9988
     2.0679   2.0952   2.3685   2.6069   2.9512   3.2772   3.5404   3.6155
     3.6350

[...]

          k =-0.0743 0.0429 0.0000 ( 25386 PWs)   bands (ev):

[...]

     the Fermi energy is     1.1435 ev

!    total energy              =   -1953.87267682 Ry
     Harris-Foulkes estimate   =   -1953.87269433 Ry
     estimated scf accuracy    <       0.00000890 Ry

     The total energy is the sum of the following terms:

     one-electron contribution =  -10619.11019007 Ry
     hartree contribution      =    5376.68440157 Ry
     xc contribution           =    -543.61138109 Ry
     ewald contribution        =    3832.20722994 Ry
     electric field correction =       0.00002962 Ry
     smearing contrib. (-TS)   =      -0.04276679 Ry

     convergence has been achieved in  18 iterations

 BEEF-vdW xc energy contributions
           1 :   -477.398347731047
           2 :    436.741363718535
           3 :   -367.794092193696
           4 :    289.710635758172
           5 :   -220.654556917744
           6 :    171.476073972514
           7 :   -143.299430336818
           8 :    129.540552658065
           9 :   -120.855244178437
          10 :    110.254883723313
          11 :   -95.8854956000076
          12 :    80.4774672641551
          13 :   -68.3920361583010
          14 :    62.3442816479563
          15 :   -61.7361415020263
          16 :    63.3030197169135
          17 :   -63.3397234426214
          18 :    59.9389861338097
          19 :   -53.8800915341850
          20 :    47.7763567677165
          21 :   -44.1974931747335
          22 :    44.0288046912729
          23 :   -46.0590650671071
          24 :    47.9238467505350
          25 :   -47.6811034237286
          26 :    44.9695155867478
          27 :   -41.0668288271982
          28 :    37.9160469938377
          29 :   -36.8314829933495
          30 :    37.7277636008370
          31 :   -42.0266739952177
          32 :   -30.5582511124062

     Forces acting on atoms (Ry/au):

     negative rho (up, down):  3.831E-04 0.000E+00
     atom    1 type  1   force =    -0.00001134   -0.00397860   -0.00695608
     atom    2 type  1   force =     0.00002779    0.00049508   -0.00092741
     atom    3 type  1   force =    -0.00123887    0.00215182   -0.00059328
     atom    4 type  1   force =     0.00120415    0.00215414   -0.00062295
     atom    5 type  1   force =    -0.00102123   -0.00051747   -0.00657139
     atom    6 type  1   force =     0.00102061   -0.00051403   -0.00657653
     atom    7 type  1   force =    -0.00000345   -0.00396569   -0.01674067
     atom    8 type  1   force =     0.00000441    0.00462285   -0.00683806
     atom    9 type  1   force =    -0.04847799   -0.00015450   -0.03546974
     atom   10 type  1   force =     0.04849327   -0.00014243   -0.03545268
     atom   11 type  1   force =     0.00000285    0.01083660   -0.00205514
     atom   12 type  1   force =    -0.00000789   -0.01067673   -0.00139845
     atom   13 type  2   force =     0.00000386    0.00093054   -0.02078054
     atom   14 type  3   force =     0.00000384   -0.00124160    0.14098291

     Total force =     0.166628     Total SCF correction =     0.007672

     entering subroutine stress ...

     negative rho (up, down):  3.831E-04 0.000E+00
          total   stress  (Ry/bohr**3)                   (kbar)     P=   16.37
   0.00011399  -0.00000000  -0.00000000         16.77     -0.00     -0.00
  -0.00000000   0.00006864  -0.00000165         -0.00     10.10     -0.24
  -0.00000000  -0.00000165   0.00015115         -0.00     -0.24     22.24

     BFGS Geometry Optimization

     number of scf cycles    =   1
     number of bfgs steps    =   0

     energy   new            =   -1953.8726768197 Ry

     new trust radius        =       0.1409883800 bohr
     new conv_thr            =       0.0000099958 Ry

ATOMIC_POSITIONS (crystal)
Sn1      0.166666667   0.166666667   0.392271209    0   0   0
Sn1      0.666666667   0.166666667   0.392271209    0   0   0
Sn1      0.166666667   0.666666667   0.392271209    0   0   0
Sn1      0.666666667   0.666666667   0.392271209    0   0   0
Sn1      0.833333333   0.333333333   0.500000000    0   0   0
Sn1      0.333333333   0.333333333   0.500000000    0   0   0
Sn1      0.833333333   0.833333333   0.500000000    0   0   0
Sn1      0.333333333   0.833333333   0.500000000    0   0   0
Sn1     -0.003806492  -0.000014034   0.606992507
Sn1      0.503821179  -0.000012938   0.606992861
Sn1     -0.000491943   0.500984335   0.607686131
Sn1      0.500484286   0.499030187   0.607699762
S1       0.249958041   0.000084525   0.679083058
H1       0.250056692  -0.000112780   0.731474861

     Writing output data file calc.save
     Check: negative starting charge=   -0.001286
     NEW-OLD atomic charge density approx. for the potential
     Check: negative starting charge=   -0.001280

[...]

     energy   old            =   -1953.8726768197 Ry
     energy   new            =   -1953.8907550446 Ry

     CASE: energy  _new < energy  _old

[...]

     iteration #  1     ecut=    36.75 Ry     beta=0.30
     Davidson diagonalization with overlap
     c_bands:  1 eigenvalues not converged
     ethr =  1.00E-06,  avg # of iterations = 13.8

[...]

     Total force =     0.018305     Total SCF correction =     0.002014
     SCF correction compared to forces is large: reduce conv_thr to get better values

[...]

     WARNING: bfgs curvature condition failed, Theta= 0.915
     new trust radius        =       0.1560965138 bohr
     new conv_thr            =       0.0000001000 Ry

[...]

     iteration #  1     ecut=    36.75 Ry     beta=0.30
     Davidson diagonalization with overlap
     c_bands:  1 eigenvalues not converged
     c_bands:  1 eigenvalues not converged
     ethr =  1.00E-06,  avg # of iterations = 15.2

[...]

     Total force =     0.004806     Total SCF correction =     0.000505
     SCF correction compared to forces is large: reduce conv_thr to get better values

[...]

     number of scf cycles    =  49
     number of bfgs steps    =  48

     energy   old            =   -1953.9708018373 Ry
     energy   new            =   -1953.9708055582 Ry

     CASE: energy  _new < energy  _old

     new trust radius        =       0.0189356818 bohr
     new conv_thr            =       0.0000001000 Ry

ATOMIC_POSITIONS (crystal)
Sn1      0.166666667   0.166666667   0.392271209    0   0   0
Sn1      0.666666667   0.166666667   0.392271209    0   0   0
Sn1      0.166666667   0.666666667   0.392271209    0   0   0
Sn1      0.666666667   0.666666667   0.392271209    0   0   0
Sn1      0.833333333   0.333333333   0.500000000    0   0   0
Sn1      0.333333333   0.333333333   0.500000000    0   0   0
Sn1      0.833333333   0.833333333   0.500000000    0   0   0
Sn1      0.333333333   0.833333333   0.500000000    0   0   0
Sn1      0.000751307   0.029577718   0.624662068
Sn1      0.469674489   0.029579161   0.624663314
Sn1     -0.020788284   0.541586623   0.606610083
Sn1      0.496279554   0.507437402   0.606620168
S1       0.209226156   0.081548236   0.715206632
H1       0.320909279  -0.141817889   0.729194831

     Writing output data file calc.save
     Check: negative starting charge=   -0.001220
     NEW-OLD atomic charge density approx. for the potential
     Check: negative starting charge=   -0.001219

[...]

     Self-consistent Calculation

[...]

     total energy              =   -1953.97083328 Ry
     Harris-Foulkes estimate   =   -1953.97083350 Ry
     estimated scf accuracy    <       0.00000011 Ry

     iteration #  8     ecut=    36.75 Ry     beta=0.30
     Davidson diagonalization with overlap
     ethr =  6.48E-11,  avg # of iterations =  3.2

[...]

     negative rho (up, down):  3.584E-04 0.000E+00

     Adding external electric field

     Computed dipole along edir(3) :
        Dipole               -0.2380 Ry au,         -0.6051 Debye
        Dipole field         -0.0004 Ry au

        Potential amp.        0.0417 Ry
        Total length         46.9696 bohr

     End of self-consistent calculation

[...]

          k = 0.0496-0.0572 0.0000 ( 25368 PWs)   bands (ev):

[...]

          k =-0.0743-0.0429 0.0000 ( 25386 PWs)   bands (ev):

   -21.3116 -21.3072 -21.2962 -21.2856 -21.2801 -21.2688 -21.2633 -21.2605
   -21.2542 -21.2483 -21.2396 -21.2316 -21.2279 -21.2270 -21.2257 -21.2200
   -21.2182 -21.2129 -21.2102 -21.2066 -21.2037 -21.2007 -21.1987 -21.1856
   -21.1817 -21.1804 -21.1753 -21.1708 -21.1683 -21.1622 -21.1580 -21.1509
   -21.1487 -21.1458 -21.1423 -21.1386 -21.1330 -21.1268 -21.1261 -21.1232
   -21.1223 -21.1185 -21.1143 -21.1130 -21.1115 -21.1085 -21.1061 -21.1052
   -21.1019 -21.0995 -21.0990 -21.0920 -21.0883 -21.0874 -21.0808 -21.0709
   -21.0662 -21.0611 -21.0494 -21.0445 -12.8769  -8.6843  -8.6834  -7.6083
    -7.5078  -6.5765  -6.4165  -6.2183  -6.0762  -5.5591  -5.3854  -4.8487
    -4.3391  -4.2665  -2.2163  -2.1396  -1.4165  -1.3751  -1.1448  -1.1094
    -1.0232  -0.8428  -0.1532  -0.1451   0.0957   0.1632   0.9168   1.0192
     1.1071   1.2201   1.4621   1.6570   1.7743   1.8907   2.0280   2.0867
     2.1501

     the Fermi energy is     0.8212 ev

!    total energy              =   -1953.97083331 Ry
     Harris-Foulkes estimate   =   -1953.97083316 Ry
     estimated scf accuracy    <          8.0E-09 Ry

     The total energy is the sum of the following terms:

     one-electron contribution =  -10161.45450547 Ry
     hartree contribution      =    5146.26563948 Ry
     xc contribution           =    -543.25781518 Ry
     ewald contribution        =    3604.51621814 Ry
     electric field correction =       0.00010562 Ry
     smearing contrib. (-TS)   =      -0.04047590 Ry

     convergence has been achieved in   8 iterations

 BEEF-vdW xc energy contributions
           1 :   -477.035218983688
           2 :    436.202554990593
           3 :   -367.053632189974
           4 :    288.900678204438
           5 :   -219.969676117518
           6 :    171.065000273832
           7 :   -143.194092680554
           8 :    129.649887859305
           9 :   -121.021233145208
          10 :    110.338741292052
          11 :   -95.8365106989763
          12 :    80.3462999092183
          13 :   -68.2826266180458
          14 :    62.3387142061646
          15 :   -61.8431735047232
          16 :    63.4598788245037
          17 :   -63.4589866086018
          18 :    59.9674919018127
          19 :   -53.8315001266232
          20 :    47.7169207753041
          21 :   -44.1967918302737
          22 :    44.1107322472154
          23 :   -46.1857098633477
          24 :    48.0217752216913
          25 :   -47.6907392673257
          26 :    44.8841900925713
          27 :   -40.9362815439748
          28 :    37.8137998449182
          29 :   -36.8084605991529
          30 :    37.7821483394397
          31 :   -41.9968448948707
          32 :   -30.4816349594016

     Forces acting on atoms (Ry/au):

     negative rho (up, down):  3.584E-04 0.000E+00
     atom    1 type  1   force =    -0.00000037   -0.00471427   -0.00226567
     atom    2 type  1   force =     0.00000053    0.00000382    0.00183042
     atom    3 type  1   force =     0.00025359    0.00168790    0.00401054
     atom    4 type  1   force =    -0.00025344    0.00168773    0.00401025
     atom    5 type  1   force =    -0.00015653   -0.00370403   -0.00041388
     atom    6 type  1   force =     0.00015653   -0.00370430   -0.00041557
     atom    7 type  1   force =    -0.00000056    0.00384362   -0.00227714
     atom    8 type  1   force =     0.00000007    0.00739874   -0.00273393
     atom    9 type  1   force =     0.00011720   -0.00104364    0.00055950
     atom   10 type  1   force =    -0.00011703   -0.00104460    0.00055924
     atom   11 type  1   force =    -0.00000167    0.00054978   -0.00144437
     atom   12 type  1   force =     0.00000167    0.00103518   -0.00116163
     atom   13 type  2   force =    -0.00000005   -0.00110656   -0.00067495
     atom   14 type  3   force =     0.00000004   -0.00088936    0.00041720

     Total force =     0.003208     Total SCF correction =     0.000279

     entering subroutine stress ...

     negative rho (up, down):  3.584E-04 0.000E+00
          total   stress  (Ry/bohr**3)                   (kbar)     P=   -1.19
  -0.00000143  -0.00000000  -0.00000000         -0.21     -0.00     -0.00
  -0.00000000   0.00000180  -0.00000281         -0.00      0.26     -0.41
  -0.00000000  -0.00000281  -0.00002469         -0.00     -0.41     -3.63

     bfgs converged in  50 scf cycles and  49 bfgs steps
     (criteria: energy <  1.0E+00, force <  1.9E-03)

     End of BFGS Geometry Optimization

     Final energy   =   -1953.9708333078 Ry
Begin final coordinates

ATOMIC_POSITIONS (crystal)
Sn1      0.166666667   0.166666667   0.392271209    0   0   0
Sn1      0.666666667   0.166666667   0.392271209    0   0   0
Sn1      0.166666667   0.666666667   0.392271209    0   0   0
Sn1      0.666666667   0.666666667   0.392271209    0   0   0
Sn1      0.833333333   0.333333333   0.500000000    0   0   0
Sn1      0.333333333   0.333333333   0.500000000    0   0   0
Sn1      0.833333333   0.833333333   0.500000000    0   0   0
Sn1      0.333333333   0.833333333   0.500000000    0   0   0
Sn1      0.000751307   0.029577718   0.624662068
Sn1      0.469674489   0.029579161   0.624663314
Sn1     -0.020788284   0.541586623   0.606610083
Sn1      0.496279554   0.507437402   0.606620168
S1       0.209226156   0.081548236   0.715206632
H1       0.320909279  -0.141817889   0.729194831
End final coordinates

     Writing output data file calc.save

     General routines

     Parallel routines

   This run was terminated on:  12:31:29  23Apr2018

   JOB DONE.
Job  /afs/slac/g/suncat/bin/suncat-tsmpirun -x LD_LIBRARY_PATH -wdir /scratch/qe402023_yqCjY pw.x -npool 4 -in pw.inp

TID   HOST_NAME   COMMAND_LINE            STATUS            TERMINATION_TIME
00000 suncat0170 pw.x -npool 4 -i  Done                     04/23/2018 12:31:29
00001 suncat0170 pw.x -npool 4 -i  Done                     04/23/2018 12:31:29
00002 suncat0170 pw.x -npool 4 -i  Done                     04/23/2018 12:31:29
00003 suncat0170 pw.x -npool 4 -i  Done                     04/23/2018 12:31:29
00004 suncat0170 pw.x -npool 4 -i  Done                     04/23/2018 12:31:29
00005 suncat0170 pw.x -npool 4 -i  Done                     04/23/2018 12:31:29
00006 suncat0170 pw.x -npool 4 -i  Done                     04/23/2018 12:31:29
00007 suncat0170 pw.x -npool 4 -i  Done                     04/23/2018 12:31:29
00008 suncat0146 pw.x -npool 4 -i  Done                     04/23/2018 12:31:29
00009 suncat0146 pw.x -npool 4 -i  Done                     04/23/2018 12:31:29
00010 suncat0146 pw.x -npool 4 -i  Done                     04/23/2018 12:31:29
00011 suncat0146 pw.x -npool 4 -i  Done                     04/23/2018 12:31:29
00012 suncat0146 pw.x -npool 4 -i  Done                     04/23/2018 12:31:29
00013 suncat0146 pw.x -npool 4 -i  Done                     04/23/2018 12:31:29
00014 suncat0146 pw.x -npool 4 -i  Done                     04/23/2018 12:31:29
00015 suncat0146 pw.x -npool 4 -i  Done                     04/23/2018 12:31:29
00016 suncat0248 pw.x -npool 4 -i  Done                     04/23/2018 12:31:29
00017 suncat0248 pw.x -npool 4 -i  Done                     04/23/2018 12:31:29
00018 suncat0248 pw.x -npool 4 -i  Done                     04/23/2018 12:31:29
00019 suncat0248 pw.x -npool 4 -i  Done                     04/23/2018 12:31:29
00020 suncat0248 pw.x -npool 4 -i  Done                     04/23/2018 12:31:29
00021 suncat0248 pw.x -npool 4 -i  Done                     04/23/2018 12:31:29
00022 suncat0248 pw.x -npool 4 -i  Done                     04/23/2018 12:31:29
00023 suncat0248 pw.x -npool 4 -i  Done                     04/23/2018 12:31:29
00024 suncat0241 pw.x -npool 4 -i  Done                     04/23/2018 12:31:29
00025 suncat0241 pw.x -npool 4 -i  Done                     04/23/2018 12:31:29
00026 suncat0241 pw.x -npool 4 -i  Done                     04/23/2018 12:31:29
00027 suncat0241 pw.x -npool 4 -i  Done                     04/23/2018 12:31:29
00028 suncat0241 pw.x -npool 4 -i  Done                     04/23/2018 12:31:29
00029 suncat0241 pw.x -npool 4 -i  Done                     04/23/2018 12:31:29
00030 suncat0241 pw.x -npool 4 -i  Done                     04/23/2018 12:31:29
00031 suncat0241 pw.x -npool 4 -i  Done                     04/23/2018 12:31:29