     Program PWSCF v.5.1rc2 (svn rev. 11289) starts on 13Jan2018 at 18:33:25

     Current dimensions of program PWSCF are:
     Max number of different atomic species (ntypx) = 10
     Max number of k-points (npk) =  40000
     Max angular momentum in pseudopotentials (lmaxx) =  3
     Presently stress not available with electric field

     IMPORTANT: XC functional enforced from input :
     Exchange-correlation      = BEEF-VDW ( 1  4 27 13 2)
     Any further DFT definition will be discarded
     Please, verify this is what you really want

     Subspace diagonalization in iterative solution of the eigenvalue problem:
     a serial algorithm will be used

     bravais-lattice index     =            0
     lattice parameter (alat)  =       1.8897  a.u.
     unit-cell volume          =    4552.2840 (a.u.)^3
     number of atoms/cell      =           13
     number of atomic types    =            2
     number of electrons       =       169.00
     number of Kohn-Sham states=           94
     kinetic-energy cutoff     =      36.7493  Ry
     charge density cutoff     =     367.4932  Ry
     convergence threshold     =      1.0E-05
     mixing beta               =       0.3000
     number of iterations used =           10  plain     mixing
     Exchange-correlation      = BEEF-VDW ( 1  4 27 13 2)
     nstep                     =           50

     celldm(1)=   1.889726  celldm(2)=   0.000000  celldm(3)=   0.000000
     celldm(4)=   0.000000  celldm(5)=   0.000000  celldm(6)=   0.000000

     crystal axes: (cart. coord. in units of alat)
               a(1) = (   5.627661   0.000000   0.000000 )
               a(2) = (   2.813831   4.873698   0.000000 )
               a(3) = (   0.000000   0.000000  24.594966 )

     reciprocal axes: (cart. coord. in units 2 pi/alat)
               b(1) = (  0.177694 -0.102592  0.000000 )
               b(2) = (  0.000000  0.205183  0.000000 )
               b(3) = (  0.000000  0.000000  0.040659 )

     PseudoPot. # 1 for Mo read from file:
     /afs/slac.stanford.edu/u/if/mamunm/psp/gbrv1.5pbe/Mo.UPF
     MD5 check sum: 30c4dcd161f5d35cd49bb5239c51a633
     Pseudo is Ultrasoft + core correction, Zval = 14.0
     Generated by new atomic code, or converted to UPF format
     Using radial grid of  889 points,  6 beta functions with:
                l(1) =   0
                l(2) =   0
                l(3) =   1
                l(4) =   1
                l(5) =   2
                l(6) =   2
     Q(r) pseudized with  6 coefficients,  rinner =    1.000   1.000   1.000
                                                       1.000   1.000

     PseudoPot. # 2 for H  read from file:
     /afs/slac.stanford.edu/u/if/mamunm/psp/gbrv1.5pbe/H.UPF
     MD5 check sum: 761ae9a214b05c3daf00ab9f6b793d6f
     Pseudo is Ultrasoft, Zval =  1.0
     Generated by new atomic code, or converted to UPF format
     Using radial grid of  615 points,  2 beta functions with:
                l(1) =   0
                l(2) =   0
     Q(r) pseudized with  8 coefficients,  rinner =    0.700

     vdW kernel table read from file vdW_kernel_table
     MD5 check sum: 095c7af220d748ca6e76c0b4c6cfb241

     atomic species   valence    mass     pseudopotential
        Mo1           14.00    95.95000     Mo( 1.00)
        H1             1.00     1.00800     H ( 1.00)

     No symmetry found

   Cartesian axes

     site n.     atom                  positions (alat units)
         1           Mo1 tau(   1) = (   1.4069153   0.8122829  10.0000000  )
         2           Mo1 tau(   2) = (   4.2207459   0.8122829  10.0000000  )
         3           Mo1 tau(   3) = (   2.8138306   3.2491317  10.0000000  )
         4           Mo1 tau(   4) = (   5.6276612   3.2491317  10.0000000  )
         5           Mo1 tau(   5) = (   5.6276612   1.6245658  12.2974831  )
         6           Mo1 tau(   6) = (   2.8138306   1.6245658  12.2974831  )
         7           Mo1 tau(   7) = (   7.0345765   4.0614146  12.2974831  )
         8           Mo1 tau(   8) = (   4.2207459   4.0614146  12.2974831  )
         9           Mo1 tau(   9) = (   0.0000000   0.0000000  14.5949661  )
        10           Mo1 tau(  10) = (   2.8138306   0.0000000  14.5949661  )
        11           Mo1 tau(  11) = (   1.4069153   2.4368488  14.5949661  )
        12           Mo1 tau(  12) = (   4.2207459   2.4368488  14.5949661  )
        13           H1  tau(  13) = (   0.0000000   0.0000000  16.4449661  )

     number of k points=    20  Fermi-Dirac smearing, width (Ry)=  0.0110
                       cart. coord. in units 2pi/alat
        k(    1) = (   0.0000000   0.0000000   0.0000000), wk =   0.0555556
        k(    2) = (   0.0000000   0.0341972   0.0000000), wk =   0.1111111
        k(    3) = (   0.0000000   0.0683943   0.0000000), wk =   0.1111111
        k(    4) = (   0.0000000  -0.1025915   0.0000000), wk =   0.0555556
        k(    5) = (   0.0296156  -0.0170986   0.0000000), wk =   0.1111111
        k(    6) = (   0.0296156   0.0170986   0.0000000), wk =   0.1111111
        k(    7) = (   0.0296156   0.0512958   0.0000000), wk =   0.1111111
        k(    8) = (   0.0296156  -0.1196901   0.0000000), wk =   0.1111111
        k(    9) = (   0.0296156  -0.0854929   0.0000000), wk =   0.1111111
        k(   10) = (   0.0296156  -0.0512958   0.0000000), wk =   0.1111111
        k(   11) = (   0.0592312  -0.0341972   0.0000000), wk =   0.1111111
        k(   12) = (   0.0592312   0.0000000   0.0000000), wk =   0.1111111
        k(   13) = (   0.0592312   0.0341972   0.0000000), wk =   0.1111111
        k(   14) = (   0.0592312  -0.1367887   0.0000000), wk =   0.1111111
        k(   15) = (   0.0592312  -0.1025915   0.0000000), wk =   0.1111111
        k(   16) = (   0.0592312  -0.0683943   0.0000000), wk =   0.1111111
        k(   17) = (  -0.0888469   0.0512958   0.0000000), wk =   0.0555556
        k(   18) = (  -0.0888469   0.0854929   0.0000000), wk =   0.1111111
        k(   19) = (  -0.0888469   0.1196901   0.0000000), wk =   0.1111111
        k(   20) = (  -0.0888469  -0.0512958   0.0000000), wk =   0.0555556

     Largest allocated arrays     est. size (Mb)     dimensions
     Largest temporary arrays     est. size (Mb)     dimensions

     Initial potential from superposition of free atoms
     Check: negative starting charge=   -0.005000

     starting charge  168.98723, renormalised to  169.00000

     negative rho (up, down):  5.000E-03 0.000E+00

     *
     * You are using vdW-DF for exchange-correlation in this calculation.
     * Please cite the following three references that made this development
     * possible:
     *
     *   M. Dion, H. Rydberg, E. Schroder, D. C. Langreth, and
     *   B. I. Lundqvist, Phys. Rev. Lett. 92, 246401 (2004).
     *
     *   T. Thonhauser, V. R. Cooper, S. Li, A. Puzder, P. Hyldgaard, and
     *   D. C. Langreth, Phys. Rev. B 76, 125112 (2007).
     *
     *   G. Roman-Perez and J. M. Soler, Phys. Rev. Lett. 103, 096102 (2009).
     *
     *
     * If you are using vdW-DF2, please also cite:
     *
     *   K. Lee, E. D. Murray, L. Kong, B. I. Lundqvist, and
     *   D. C. Langreth, Phys. Rev. B 82, 081101(R) (2010).
     *
     *
     * If you are calculating the stress with vdW-DF, please also cite:
     *
     *   R. Sabatini, E. Kucukbenli, B. Kolb, T. Thonhauser, and
     *   S. de Gironcoli, J. Phys.: Condens. Matter 24, 424209 (2012).
     *

     Carrying out vdW-DF run using the following parameters:

     Nqs =      20    Nr_points =    1024   r_max =   100.000
     q_mesh =
               0.00001000     0.04494208     0.09755937     0.15916263
               0.23128650     0.31572767     0.41458969     0.53033537
               0.66584808     0.82450364     1.01025438     1.22772762
               1.48234092     1.78043706     2.12944203     2.53805004
               3.01644009     3.57652955     4.23227104     5.00000000

     Gradients computed in reciprocal space

     Adding external electric field

     Computed dipole along edir(3) :
        Dipole               -0.0005 Ry au,         -0.0013 Debye
        Dipole field         -0.0000 Ry au

        Potential amp.        0.0001 Ry
        Total length         45.3158 bohr

     Starting wfc are  157 randomized atomic wfcs

     Self-consistent Calculation

     iteration #  1     ecut=    36.75 Ry     beta=0.30
     Davidson diagonalization with overlap
     ethr =  1.00E-02,  avg # of iterations =  2.0

[...]

     total energy              =   -1677.76706117 Ry
     Harris-Foulkes estimate   =   -1680.98415973 Ry
     estimated scf accuracy    <       6.70639939 Ry

[...]

     End of self-consistent calculation

          k = 0.0000 0.0000 0.0000 ( 17111 PWs)   bands (ev):

   -58.8949 -58.8111 -58.7299 -58.6980 -58.6968 -58.6848 -58.6581 -58.6575
   -58.6379 -58.6230 -58.6224 -58.5965 -33.4316 -33.4310 -33.4145 -33.3527
   -33.3277 -33.3276 -33.3192 -33.2405 -33.2404 -33.2390 -32.9183 -32.7926
   -32.7917 -32.7418 -32.7340 -32.7336 -32.6859 -32.6105 -32.6018 -32.6014
   -32.5020 -32.5011 -32.4883 -32.4855 -32.4670 -32.4668 -32.3975 -32.3912
   -32.3834 -32.3831 -32.3231 -32.3230 -32.2383 -32.2382 -32.1918 -32.1918
    -3.8542  -2.5255  -2.3460  -2.3457  -2.3394  -2.3080  -1.9653  -1.8861
    -1.8860  -1.6977  -1.6799  -1.6799  -1.4286  -1.4205  -1.4204  -0.5711
    -0.2407  -0.2262  -0.2262   0.7584   0.7585   0.7600   1.0018   1.3069
     1.4395   1.4395   1.7115   1.7115   1.8078   1.8142   1.8145   1.9109
     1.9109   2.0971   2.1080   2.1081   2.8977   3.2109   3.2300   3.2303
     3.4154   3.4380   3.4381   3.9307   3.9644   3.9645

[...]

          k =-0.0888 0.0513 0.0000 ( 17160 PWs)   bands (ev):

[...]

     the Fermi energy is     2.1439 ev

!    total energy              =   -1680.40115701 Ry
     Harris-Foulkes estimate   =   -1680.40117625 Ry
     estimated scf accuracy    <       0.00000830 Ry

     The total energy is the sum of the following terms:

     one-electron contribution =  -15228.95746751 Ry
     hartree contribution      =    7608.25405971 Ry
     xc contribution           =    -240.81838624 Ry
     ewald contribution        =    6181.22238196 Ry
     electric field correction =       0.00003871 Ry
     smearing contrib. (-TS)   =      -0.10178364 Ry

     convergence has been achieved in  15 iterations

 BEEF-vdW xc energy contributions
           1 :   -206.830541679972
           2 :    188.943149878246
           3 :   -158.307948444621
           4 :    123.032854132166
           5 :   -91.2257806983701
           6 :    68.4133611240662
           7 :   -56.2746832734872
           8 :    52.9069102757145
           9 :   -54.2894014782551
          10 :    56.1791604739386
          11 :   -55.6772614151990
          12 :    51.9366274428639
          13 :   -45.9310035577376
          14 :    39.5502721220558
          15 :   -34.5197568885352
          16 :    31.6082188703698
          17 :   -30.4209757975667
          18 :    29.7711619538143
          19 :   -28.3817017035518
          20 :    25.5361278283177
          21 :   -21.3776166754866
          22 :    16.7491532008655
          23 :   -12.7077917442964
          24 :    9.98027541747021
[...]
00023 suncat1036 pw.x -in pw.inp   Done                     01/13/2018 18:45:31
00024 suncat1036 pw.x -in pw.inp   Done                     01/13/2018 18:45:31
00025 suncat1036 pw.x -in pw.inp   Done                     01/13/2018 18:45:31
00026 suncat1036 pw.x -in pw.inp   Done                     01/13/2018 18:45:31
00027 suncat1036 pw.x -in pw.inp   Done                     01/13/2018 18:45:31
00028 suncat1036 pw.x -in pw.inp   Done                     01/13/2018 18:45:31
00029 suncat1036 pw.x -in pw.inp   Done                     01/13/2018 18:45:31
00030 suncat1036 pw.x -in pw.inp   Done                     01/13/2018 18:45:31
00031 suncat1036 pw.x -in pw.inp   Done                     01/13/2018 18:45:31

[...]

     Program PWSCF v.5.1rc2 (svn rev. 11289) starts on 13Jan2018 at 19:36:44

     Current dimensions of program PWSCF are:
     Max number of different atomic species (ntypx) = 10
     Max number of k-points (npk) =  40000
     Max angular momentum in pseudopotentials (lmaxx) =  3
     Presently stress not available with electric field

     IMPORTANT: XC functional enforced from input :
     Exchange-correlation      = BEEF-VDW ( 1  4 27 13 2)
     Any further DFT definition will be discarded
     Please, verify this is what you really want

     Subspace diagonalization in iterative solution of the eigenvalue problem:
     a serial algorithm will be used

     bravais-lattice index     =            0
     lattice parameter (alat)  =       1.8897  a.u.
     unit-cell volume          =    4552.2840 (a.u.)^3
     number of atoms/cell      =           13
     number of atomic types    =            2
     number of electrons       =       169.00
     number of Kohn-Sham states=           94
     kinetic-energy cutoff     =      36.7493  Ry
     charge density cutoff     =     367.4932  Ry
     convergence threshold     =      1.0E-05
     mixing beta               =       0.3000
     number of iterations used =           10  plain     mixing
     Exchange-correlation      = BEEF-VDW ( 1  4 27 13 2)
     nstep                     =           50

     celldm(1)=   1.889726  celldm(2)=   0.000000  celldm(3)=   0.000000
     celldm(4)=   0.000000  celldm(5)=   0.000000  celldm(6)=   0.000000

     crystal axes: (cart. coord. in units of alat)
               a(1) = (   5.627661   0.000000   0.000000 )
               a(2) = (   2.813831   4.873698   0.000000 )
               a(3) = (   0.000000   0.000000  24.594966 )

     reciprocal axes: (cart. coord. in units 2 pi/alat)
               b(1) = (  0.177694 -0.102592  0.000000 )
               b(2) = (  0.000000  0.205183  0.000000 )
               b(3) = (  0.000000  0.000000  0.040659 )

     PseudoPot. # 1 for Mo read from file:
     /afs/slac.stanford.edu/u/if/mamunm/psp/gbrv1.5pbe/Mo.UPF
     MD5 check sum: 30c4dcd161f5d35cd49bb5239c51a633
     Pseudo is Ultrasoft + core correction, Zval = 14.0
     Generated by new atomic code, or converted to UPF format
     Using radial grid of  889 points,  6 beta functions with:
                l(1) =   0
                l(2) =   0
                l(3) =   1
                l(4) =   1
                l(5) =   2
                l(6) =   2
     Q(r) pseudized with  6 coefficients,  rinner =    1.000   1.000   1.000
                                                       1.000   1.000

     PseudoPot. # 2 for H  read from file:
     /afs/slac.stanford.edu/u/if/mamunm/psp/gbrv1.5pbe/H.UPF
     MD5 check sum: 761ae9a214b05c3daf00ab9f6b793d6f
     Pseudo is Ultrasoft, Zval =  1.0
     Generated by new atomic code, or converted to UPF format
     Using radial grid of  615 points,  2 beta functions with:
                l(1) =   0
                l(2) =   0
     Q(r) pseudized with  8 coefficients,  rinner =    0.700

     vdW kernel table read from file vdW_kernel_table
     MD5 check sum: 095c7af220d748ca6e76c0b4c6cfb241

     atomic species   valence    mass     pseudopotential
        Mo1           14.00    95.95000     Mo( 1.00)
        H1             1.00     1.00800     H ( 1.00)

     No symmetry found

   Cartesian axes

     site n.     atom                  positions (alat units)
         1           Mo1 tau(   1) = (   1.4069153   0.8122829  10.0000000  )
         2           Mo1 tau(   2) = (   4.2207459   0.8122829  10.0000000  )
         3           Mo1 tau(   3) = (   2.8138306   3.2491317  10.0000000  )
         4           Mo1 tau(   4) = (   5.6276612   3.2491317  10.0000000  )
         5           Mo1 tau(   5) = (   5.6276612   1.6245658  12.2974831  )
         6           Mo1 tau(   6) = (   2.8138306   1.6245658  12.2974831  )
         7           Mo1 tau(   7) = (   7.0345765   4.0614146  12.2974831  )
         8           Mo1 tau(   8) = (   4.2207459   4.0614146  12.2974831  )
         9           Mo1 tau(   9) = (   5.6276057   0.0000243  14.7851246  )
        10           Mo1 tau(  10) = (   5.6276435   4.8648302  14.5767536  )
        11           Mo1 tau(  11) = (   7.0269566   2.4412160  14.5767448  )
        12           Mo1 tau(  12) = (   4.2284525   2.4413295  14.5766894  )
        13           H1  tau(  13) = (   2.8138396   4.8736795  16.5350278  )

     number of k points=    20  Fermi-Dirac smearing, width (Ry)=  0.0110
                       cart. coord. in units 2pi/alat
        k(    1) = (   0.0000000   0.0000000   0.0000000), wk =   0.0555556
        k(    2) = (   0.0000000   0.0341972   0.0000000), wk =   0.1111111
        k(    3) = (   0.0000000   0.0683943   0.0000000), wk =   0.1111111
        k(    4) = (   0.0000000  -0.1025915   0.0000000), wk =   0.0555556
        k(    5) = (   0.0296156  -0.0170986   0.0000000), wk =   0.1111111
        k(    6) = (   0.0296156   0.0170986   0.0000000), wk =   0.1111111
        k(    7) = (   0.0296156   0.0512958   0.0000000), wk =   0.1111111
        k(    8) = (   0.0296156  -0.1196901   0.0000000), wk =   0.1111111
        k(    9) = (   0.0296156  -0.0854929   0.0000000), wk =   0.1111111
        k(   10) = (   0.0296156  -0.0512958   0.0000000), wk =   0.1111111
        k(   11) = (   0.0592312  -0.0341972   0.0000000), wk =   0.1111111
        k(   12) = (   0.0592312   0.0000000   0.0000000), wk =   0.1111111
        k(   13) = (   0.0592312   0.0341972   0.0000000), wk =   0.1111111
        k(   14) = (   0.0592312  -0.1367887   0.0000000), wk =   0.1111111
        k(   15) = (   0.0592312  -0.1025915   0.0000000), wk =   0.1111111
        k(   16) = (   0.0592312  -0.0683943   0.0000000), wk =   0.1111111
        k(   17) = (  -0.0888469   0.0512958   0.0000000), wk =   0.0555556
        k(   18) = (  -0.0888469   0.0854929   0.0000000), wk =   0.1111111
        k(   19) = (  -0.0888469   0.1196901   0.0000000), wk =   0.1111111
        k(   20) = (  -0.0888469  -0.0512958   0.0000000), wk =   0.0555556

     Largest allocated arrays     est. size (Mb)     dimensions
     Largest temporary arrays     est. size (Mb)     dimensions

     Initial potential from superposition of free atoms
     Check: negative starting charge=   -0.004985

     starting charge  168.98723, renormalised to  169.00000

[...]

     *
     * You are using vdW-DF for exchange-correlation in this calculation.
     * Please cite the following three references that made this development
     * possible:
     *
     *   M. Dion, H. Rydberg, E. Schroder, D. C. Langreth, and
     *   B. I. Lundqvist, Phys. Rev. Lett. 92, 246401 (2004).
     *
     *   T. Thonhauser, V. R. Cooper, S. Li, A. Puzder, P. Hyldgaard, and
     *   D. C. Langreth, Phys. Rev. B 76, 125112 (2007).
     *
     *   G. Roman-Perez and J. M. Soler, Phys. Rev. Lett. 103, 096102 (2009).
     *
     *
     * If you are using vdW-DF2, please also cite:
     *
     *   K. Lee, E. D. Murray, L. Kong, B. I. Lundqvist, and
     *   D. C. Langreth, Phys. Rev. B 82, 081101(R) (2010).
     *
     *
     * If you are calculating the stress with vdW-DF, please also cite:
     *
     *   R. Sabatini, E. Kucukbenli, B. Kolb, T. Thonhauser, and
     *   S. de Gironcoli, J. Phys.: Condens. Matter 24, 424209 (2012).
     *

     Carrying out vdW-DF run using the following parameters:

     Nqs =      20    Nr_points =    1024   r_max =   100.000
     q_mesh =
               0.00001000     0.04494208     0.09755937     0.15916263
               0.23128650     0.31572767     0.41458969     0.53033537
               0.66584808     0.82450364     1.01025438     1.22772762
               1.48234092     1.78043706     2.12944203     2.53805004
               3.01644009     3.57652955     4.23227104     5.00000000

     Gradients computed in reciprocal space

[...]

     Starting wfc are  157 randomized atomic wfcs

     Self-consistent Calculation

[...]

     total energy              =   -1680.40853788 Ry
     Harris-Foulkes estimate   =   -1680.40854281 Ry
     estimated scf accuracy    <       0.00004357 Ry

     iteration # 16     ecut=    36.75 Ry     beta=0.30
     Davidson diagonalization with overlap
     ethr =  2.58E-08,  avg # of iterations =  3.1

[...]

     negative rho (up, down):  5.040E-03 0.000E+00

     Adding external electric field

     Computed dipole along edir(3) :
        Dipole               -0.1873 Ry au,         -0.4760 Debye
        Dipole field         -0.0005 Ry au

        Potential amp.        0.0469 Ry
        Total length         45.3158 bohr

     End of self-consistent calculation

[...]

          k = 0.0592-0.0684 0.0000 ( 17122 PWs)   bands (ev):

[...]

          k =-0.0888-0.0513 0.0000 ( 17160 PWs)   bands (ev):

   -58.8908 -58.8769 -58.8171 -58.8100 -58.7831 -58.7641 -58.7580 -58.7491
   -58.7441 -58.7302 -58.7045 -58.7017 -33.3206 -33.3137 -33.2881 -33.2694
   -33.2551 -33.2483 -33.1255 -33.1252 -33.1009 -33.0713 -33.0381 -32.9870
   -32.8739 -32.8453 -32.8355 -32.8218 -32.7916 -32.7724 -32.7719 -32.7588
   -32.7350 -32.7179 -32.7070 -32.7003 -32.6915 -32.6885 -32.5566 -32.5485
   -32.5482 -32.5378 -32.5047 -32.4773 -32.4430 -32.4348 -32.3765 -32.3629
    -2.3522  -2.2825  -1.5770  -1.5222  -1.3656  -1.3259  -1.1841  -1.1243
    -1.0995  -0.9518  -0.7428  -0.6236  -0.5248  -0.5010  -0.3855  -0.3392
    -0.2363   0.1155   0.2132   0.3082   0.3297   0.3578   0.6158   0.7175
     0.9273   1.0682   1.0732   1.2449   1.2830   1.3016   1.3153   1.4242
     1.4327   1.4874   1.5606   1.6556   1.7100   1.8934   2.0066   2.2003
     2.2797   2.7012   2.9021   2.9142   2.9723   3.0435

     the Fermi energy is     2.0768 ev

!    total energy              =   -1680.40853789 Ry
     Harris-Foulkes estimate   =   -1680.40854283 Ry
     estimated scf accuracy    <       0.00000286 Ry

     The total energy is the sum of the following terms:

     one-electron contribution =  -15148.92195707 Ry
     hartree contribution      =    7567.76617737 Ry
     xc contribution           =    -240.77017609 Ry
     ewald contribution        =    6141.61767494 Ry
     electric field correction =       0.00009681 Ry
     smearing contrib. (-TS)   =      -0.10035385 Ry

     convergence has been achieved in  16 iterations

 BEEF-vdW xc energy contributions
           1 :   -206.779574565625
           2 :    188.863830093858
           3 :   -158.188947894307
           4 :    122.887016322484
           5 :   -91.0862807040894
           6 :    68.3188582470787
           7 :   -56.2467919711843
           8 :    52.9330463293208
           9 :   -54.3253022599386
          10 :    56.1730939312449
          11 :   -55.6007243142169
          12 :    51.8013110502033
          13 :   -45.7808897185791
          14 :    39.4348729916502
          15 :   -34.4651106477008
          16 :    31.6030772017920
          17 :   -30.4252814059299
          18 :    29.7407832259268
          19 :   -28.2945393223036
          20 :    25.4052923359355
          21 :   -21.2442673894639
          22 :    16.6591445487595
          23 :   -12.6858970332189
          24 :    10.0166581330328
          25 :   -8.69211692576746
          26 :    8.13969102822585
          27 :   -7.50624446284363
          28 :    6.09331546233997
          29 :   -3.67913026195046
          30 :   0.582790206711110
          31 :   -23.5867905152850
          32 :   -18.0767007838207

     Forces acting on atoms (Ry/au):

     negative rho (up, down):  5.040E-03 0.000E+00
     atom    1 type  1   force =     0.00000753    0.00000738   -0.00410378
     atom    2 type  1   force =     0.00001483   -0.00000674   -0.00416027
     atom    3 type  1   force =    -0.00000465    0.00000967   -0.00413781
     atom    4 type  1   force =    -0.00000176   -0.00000402   -0.00163477
     atom    5 type  1   force =    -0.00001088   -0.00886025    0.00569479
     atom    6 type  1   force =    -0.00001151    0.00000046   -0.00311108
     atom    7 type  1   force =     0.00765189    0.00442727    0.00570648
     atom    8 type  1   force =    -0.00765705    0.00442185    0.00571431
     atom    9 type  1   force =    -0.00000769    0.00000504   -0.00067585
     atom   10 type  1   force =     0.00000863    0.00020241   -0.00035881
     atom   11 type  1   force =     0.00016136   -0.00010078   -0.00034229
     atom   12 type  1   force =    -0.00014897   -0.00010096   -0.00031079
     atom   13 type  2   force =    -0.00000172   -0.00000132    0.00171987

     Total force =     0.019999     Total SCF correction =     0.004764
     SCF correction compared to forces is large: reduce conv_thr to get better values

     entering subroutine stress ...

     negative rho (up, down):  5.040E-03 0.000E+00
          total   stress  (Ry/bohr**3)                   (kbar)     P=  -20.73
  -0.00021829  -0.00000000   0.00000001        -32.11     -0.00      0.00
  -0.00000000  -0.00021831   0.00000001         -0.00    -32.11      0.00
   0.00000001   0.00000001   0.00001382          0.00      0.00      2.03

 !ASE

     Writing output data file calc.save

     General routines

     Parallel routines

   This run was terminated on:  19:49:30  13Jan2018

   JOB DONE.
Job  /afs/slac/g/suncat/bin/suncat-tsmpirun -x LD_LIBRARY_PATH -wdir /scratch/qe842458_hic6d pw.x -in pw.inp

TID   HOST_NAME   COMMAND_LINE            STATUS            TERMINATION_TIME
00000 suncat1058 pw.x -in pw.inp   Done                     01/13/2018 19:49:30
00001 suncat1058 pw.x -in pw.inp   Done                     01/13/2018 19:49:30
00002 suncat1058 pw.x -in pw.inp   Done                     01/13/2018 19:49:30
00003 suncat1058 pw.x -in pw.inp   Done                     01/13/2018 19:49:30
00004 suncat1058 pw.x -in pw.inp   Done                     01/13/2018 19:49:30
00005 suncat1058 pw.x -in pw.inp   Done                     01/13/2018 19:49:30
00006 suncat1058 pw.x -in pw.inp   Done                     01/13/2018 19:49:30
00007 suncat1058 pw.x -in pw.inp   Done                     01/13/2018 19:49:30
00008 suncat1037 pw.x -in pw.inp   Done                     01/13/2018 19:49:30
00009 suncat1037 pw.x -in pw.inp   Done                     01/13/2018 19:49:30
00010 suncat1037 pw.x -in pw.inp   Done                     01/13/2018 19:49:30
00011 suncat1037 pw.x -in pw.inp   Done                     01/13/2018 19:49:30
00012 suncat1037 pw.x -in pw.inp   Done                     01/13/2018 19:49:30
00013 suncat1037 pw.x -in pw.inp   Done                     01/13/2018 19:49:30
00014 suncat1037 pw.x -in pw.inp   Done                     01/13/2018 19:49:30
00015 suncat1037 pw.x -in pw.inp   Done                     01/13/2018 19:49:30
00016 suncat1037 pw.x -in pw.inp   Done                     01/13/2018 19:49:30
00017 suncat1037 pw.x -in pw.inp   Done                     01/13/2018 19:49:30
00018 suncat1037 pw.x -in pw.inp   Done                     01/13/2018 19:49:30
00019 suncat1037 pw.x -in pw.inp   Done                     01/13/2018 19:49:30
00020 suncat1036 pw.x -in pw.inp   Done                     01/13/2018 19:49:30
00021 suncat1036 pw.x -in pw.inp   Done                     01/13/2018 19:49:30
00022 suncat1036 pw.x -in pw.inp   Done                     01/13/2018 19:49:30
00023 suncat1036 pw.x -in pw.inp   Done                     01/13/2018 19:49:30
00024 suncat1036 pw.x -in pw.inp   Done                     01/13/2018 19:49:30
00025 suncat1036 pw.x -in pw.inp   Done                     01/13/2018 19:49:30
00026 suncat1036 pw.x -in pw.inp   Done                     01/13/2018 19:49:30
00027 suncat1036 pw.x -in pw.inp   Done                     01/13/2018 19:49:30
00028 suncat1036 pw.x -in pw.inp   Done                     01/13/2018 19:49:30
00029 suncat1036 pw.x -in pw.inp   Done                     01/13/2018 19:49:30
00030 suncat1036 pw.x -in pw.inp   Done                     01/13/2018 19:49:30
00031 suncat1036 pw.x -in pw.inp   Done                     01/13/2018 19:49:30