     Program PWSCF v.5.1rc2 (svn rev. 11289) starts on 14Jan2018 at  6:49:32

     Current dimensions of program PWSCF are:
     Max number of different atomic species (ntypx) = 10
     Max number of k-points (npk) =  40000
     Max angular momentum in pseudopotentials (lmaxx) =  3
     Presently stress not available with electric field

     IMPORTANT: XC functional enforced from input :
     Exchange-correlation      = BEEF-VDW ( 1  4 27 13 2)
     Any further DFT definition will be discarded
     Please, verify this is what you really want

     Subspace diagonalization in iterative solution of the eigenvalue problem:
     a serial algorithm will be used

     bravais-lattice index     =            0
     lattice parameter (alat)  =       1.8897  a.u.
     unit-cell volume          =    4306.9643 (a.u.)^3
     number of atoms/cell      =           13
     number of atomic types    =            2
     number of electrons       =       181.00
     number of Kohn-Sham states=          100
     kinetic-energy cutoff     =      36.7493  Ry
     charge density cutoff     =     367.4932  Ry
     convergence threshold     =      1.0E-05
     mixing beta               =       0.3000
     number of iterations used =           10  plain     mixing
     Exchange-correlation      = BEEF-VDW ( 1  4 27 13 2)
     nstep                     =           50

     celldm(1)=   1.889726  celldm(2)=   0.000000  celldm(3)=   0.000000
     celldm(4)=   0.000000  celldm(5)=   0.000000  celldm(6)=   0.000000

     crystal axes: (cart. coord. in units of alat)
               a(1) = (   5.486772   0.000000   0.000000 )
               a(2) = (   2.743386   4.751684   0.000000 )
               a(3) = (   0.000000   0.000000  24.479931 )

     reciprocal axes: (cart. coord. in units 2 pi/alat)
               b(1) = (  0.182257 -0.105226  0.000000 )
               b(2) = (  0.000000  0.210452  0.000000 )
               b(3) = (  0.000000  0.000000  0.040850 )

     PseudoPot. # 1 for Re read from file:
     /afs/slac.stanford.edu/u/if/mamunm/psp/gbrv1.5pbe/Re.UPF
     MD5 check sum: 85f993410f3e006da9d71c142b4ad953
     Pseudo is Ultrasoft + core correction, Zval = 15.0
     Generated by new atomic code, or converted to UPF format
     Using radial grid of  981 points,  8 beta functions with:
                l(1) =   0
                l(2) =   0
                l(3) =   1
                l(4) =   1
                l(5) =   2
                l(6) =   2
                l(7) =   3
                l(8) =   3
     Q(r) pseudized with  8 coefficients,  rinner =    1.150   1.150   1.150
                                                       1.150   1.150   1.150
                                                       1.150

     PseudoPot. # 2 for H  read from file:
     /afs/slac.stanford.edu/u/if/mamunm/psp/gbrv1.5pbe/H.UPF
     MD5 check sum: 761ae9a214b05c3daf00ab9f6b793d6f
     Pseudo is Ultrasoft, Zval =  1.0
     Generated by new atomic code, or converted to UPF format
     Using radial grid of  615 points,  2 beta functions with:
                l(1) =   0
                l(2) =   0
     Q(r) pseudized with  8 coefficients,  rinner =    0.700

     vdW kernel table read from file vdW_kernel_table
     MD5 check sum: 095c7af220d748ca6e76c0b4c6cfb241

     atomic species   valence    mass     pseudopotential
        Re1           15.00   186.20700     Re( 1.00)
        H1             1.00     1.00800     H ( 1.00)

     No symmetry found

   Cartesian axes

     site n.     atom                  positions (alat units)
         1           Re1 tau(   1) = (   1.3716930   0.7919474  10.0000000  )
         2           Re1 tau(   2) = (   4.1150791   0.7919474  10.0000000  )
         3           Re1 tau(   3) = (   2.7433861   3.1677894  10.0000000  )
         4           Re1 tau(   4) = (   5.4867722   3.1677894  10.0000000  )
         5           Re1 tau(   5) = (   5.4867722   1.5838947  12.2399654  )
         6           Re1 tau(   6) = (   2.7433861   1.5838947  12.2399654  )
         7           Re1 tau(   7) = (   6.8584652   3.9597368  12.2399654  )
         8           Re1 tau(   8) = (   4.1150791   3.9597368  12.2399654  )
         9           Re1 tau(   9) = (   0.0000000   0.0000000  14.4799307  )
        10           Re1 tau(  10) = (   2.7433861   0.0000000  14.4799307  )
        11           Re1 tau(  11) = (   1.3716930   2.3758421  14.4799307  )
        12           Re1 tau(  12) = (   4.1150791   2.3758421  14.4799307  )
        13           H1  tau(  13) = (   2.7433861   1.5838947  16.2999307  )

     number of k points=    20  Fermi-Dirac smearing, width (Ry)=  0.0110
                       cart. coord. in units 2pi/alat
        k(    1) = (   0.0000000   0.0000000   0.0000000), wk =   0.0555556
        k(    2) = (   0.0000000   0.0350753   0.0000000), wk =   0.1111111
        k(    3) = (   0.0000000   0.0701506   0.0000000), wk =   0.1111111
        k(    4) = (   0.0000000  -0.1052259   0.0000000), wk =   0.0555556
        k(    5) = (   0.0303761  -0.0175376   0.0000000), wk =   0.1111111
        k(    6) = (   0.0303761   0.0175376   0.0000000), wk =   0.1111111
        k(    7) = (   0.0303761   0.0526129   0.0000000), wk =   0.1111111
        k(    8) = (   0.0303761  -0.1227635   0.0000000), wk =   0.1111111
        k(    9) = (   0.0303761  -0.0876882   0.0000000), wk =   0.1111111
        k(   10) = (   0.0303761  -0.0526129   0.0000000), wk =   0.1111111
        k(   11) = (   0.0607522  -0.0350753   0.0000000), wk =   0.1111111
        k(   12) = (   0.0607522   0.0000000   0.0000000), wk =   0.1111111
        k(   13) = (   0.0607522   0.0350753   0.0000000), wk =   0.1111111
        k(   14) = (   0.0607522  -0.1403011   0.0000000), wk =   0.1111111
        k(   15) = (   0.0607522  -0.1052259   0.0000000), wk =   0.1111111
        k(   16) = (   0.0607522  -0.0701506   0.0000000), wk =   0.1111111
        k(   17) = (  -0.0911283   0.0526129   0.0000000), wk =   0.0555556
        k(   18) = (  -0.0911283   0.0876882   0.0000000), wk =   0.1111111
        k(   19) = (  -0.0911283   0.1227635   0.0000000), wk =   0.1111111
        k(   20) = (  -0.0911283  -0.0526129   0.0000000), wk =   0.0555556

     Largest allocated arrays     est. size (Mb)     dimensions
     Largest temporary arrays     est. size (Mb)     dimensions

     Initial potential from superposition of free atoms
     Check: negative starting charge=   -1.539601

     starting charge  174.99945, renormalised to  181.00000

     negative rho (up, down):  1.592E+00 0.000E+00

     *
     * You are using vdW-DF for exchange-correlation in this calculation.
     * Please cite the following three references that made this development
     * possible:
     *
     *   M. Dion, H. Rydberg, E. Schroder, D. C. Langreth, and
     *   B. I. Lundqvist, Phys. Rev. Lett. 92, 246401 (2004).
     *
     *   T. Thonhauser, V. R. Cooper, S. Li, A. Puzder, P. Hyldgaard, and
     *   D. C. Langreth, Phys. Rev. B 76, 125112 (2007).
     *
     *   G. Roman-Perez and J. M. Soler, Phys. Rev. Lett. 103, 096102 (2009).
     *
     *
     * If you are using vdW-DF2, please also cite:
     *
     *   K. Lee, E. D. Murray, L. Kong, B. I. Lundqvist, and
     *   D. C. Langreth, Phys. Rev. B 82, 081101(R) (2010).
     *
     *
     * If you are calculating the stress with vdW-DF, please also cite:
     *
     *   R. Sabatini, E. Kucukbenli, B. Kolb, T. Thonhauser, and
     *   S. de Gironcoli, J. Phys.: Condens. Matter 24, 424209 (2012).
     *

     Carrying out vdW-DF run using the following parameters:

     Nqs =      20    Nr_points =    1024   r_max =   100.000
     q_mesh =
               0.00001000     0.04494208     0.09755937     0.15916263
               0.23128650     0.31572767     0.41458969     0.53033537
               0.66584808     0.82450364     1.01025438     1.22772762
               1.48234092     1.78043706     2.12944203     2.53805004
               3.01644009     3.57652955     4.23227104     5.00000000

     Gradients computed in reciprocal space

     Adding external electric field

     Computed dipole along edir(3) :
        Dipole               -0.2630 Ry au,         -0.6685 Debye
        Dipole field         -0.0008 Ry au

        Potential amp.        0.0692 Ry
        Total length         45.1039 bohr

     Starting wfc are  157 randomized atomic wfcs

     Self-consistent Calculation

     iteration #  1     ecut=    36.75 Ry     beta=0.30
     Davidson diagonalization with overlap
     ethr =  1.00E-02,  avg # of iterations =  2.0

[...]

     total energy              =   -2306.17731469 Ry
     Harris-Foulkes estimate   =   -2307.77126279 Ry
     estimated scf accuracy    <       3.73131225 Ry

[...]

     End of self-consistent calculation

          k = 0.0000 0.0000 0.0000 ( 16091 PWs)   bands (ev):

   -77.7002 -77.6216 -77.6122 -77.6122 -77.5933 -77.5634 -77.5631 -77.5348
   -77.4918 -77.4648 -77.4633 -77.4633 -39.9559 -39.9459 -39.9458 -39.8474
   -39.7793 -39.7550 -39.7549 -39.6394 -39.6186 -39.6186 -39.4172 -39.3228
   -39.3226 -39.2880 -39.2573 -39.2573 -39.2551 -39.1967 -39.1884 -39.1884
   -39.0724 -39.0724 -39.0569 -38.9827 -38.9707 -38.9706 -38.9685 -38.9433
   -38.9433 -38.8838 -38.8838 -38.8814 -38.7540 -38.7540 -38.6806 -38.6805
    -6.3083  -4.4131  -3.7919  -3.3956  -3.3701  -3.3701  -3.1039  -3.0533
    -3.0533  -2.3899  -2.3782  -2.3782  -2.2592  -2.1717  -2.1717  -1.0823
    -0.6392  -0.6392  -0.0912   0.4251   0.4251   0.4478   0.7328   1.0170
     1.0841   1.0841   1.5345   1.5345   1.5686   1.5686   1.5765   1.5974
     1.5975   1.6083   1.8506   1.8506   2.6252   3.1652   3.1653   3.2327
     3.5801   3.5801   3.5905   4.1551   4.1551   4.2262   4.6789   4.6789
     4.7148   4.7148   5.0095   5.0248

[...]

          k =-0.0911 0.0526 0.0000 ( 16164 PWs)   bands (ev):

[...]

     the Fermi energy is     2.9526 ev

!    total energy              =   -2306.99390409 Ry
     Harris-Foulkes estimate   =   -2306.99390462 Ry
     estimated scf accuracy    <       0.00000044 Ry

     The total energy is the sum of the following terms:

     one-electron contribution =  -18481.33180666 Ry
     hartree contribution      =    9225.58172328 Ry
     xc contribution           =    -649.96773716 Ry
     ewald contribution        =    7598.79236053 Ry
     electric field correction =       0.00000077 Ry
     smearing contrib. (-TS)   =      -0.06844487 Ry

     convergence has been achieved in  16 iterations

 BEEF-vdW xc energy contributions
           1 :   -577.987394901981
           2 :    537.464942316869
           3 :   -464.662138289937
           4 :    373.348276767667
           5 :   -278.779421574659
           6 :    193.795689056282
           7 :   -126.189284530844
           8 :    77.9686632156702
           9 :   -46.4585986307501
          10 :    26.5384150731295
          11 :   -13.0328009271989
          12 :    2.39524714002278
          13 :    6.72982116104856
          14 :   -13.9749944193743
          15 :    18.2932810108915
          16 :   -19.0195830725831
          17 :    16.5071633616960
          18 :   -12.1459825172844
          19 :    7.84395692322698
[...]

[...]

     Total force =     0.160767     Total SCF correction =     0.007031

[...]

   This run was terminated on:   7:41: 7  14Jan2018

[...]

     Program PWSCF v.5.1rc2 (svn rev. 11289) starts on 14Jan2018 at  7:53: 2

[...]

   This run was terminated on:  11: 0: 5  14Jan2018

[...]

   This run was terminated on:  14:25: 8  14Jan2018

[...]

   This run was terminated on:  15: 3:14  14Jan2018

[...]

     Program PWSCF v.5.1rc2 (svn rev. 11289) starts on 14Jan2018 at 15: 3:20

[...]

     Program PWSCF v.5.1rc2 (svn rev. 11289) starts on 14Jan2018 at 15:16: 4

[...]

     Program PWSCF v.5.1rc2 (svn rev. 11289) starts on 14Jan2018 at 15:28:23

     Current dimensions of program PWSCF are:
     Max number of different atomic species (ntypx) = 10
     Max number of k-points (npk) =  40000
     Max angular momentum in pseudopotentials (lmaxx) =  3
     Presently stress not available with electric field

     IMPORTANT: XC functional enforced from input :
     Exchange-correlation      = BEEF-VDW ( 1  4 27 13 2)
     Any further DFT definition will be discarded
     Please, verify this is what you really want

     Subspace diagonalization in iterative solution of the eigenvalue problem:
     a serial algorithm will be used

     bravais-lattice index     =            0
     lattice parameter (alat)  =       1.8897  a.u.
     unit-cell volume          =    4306.9643 (a.u.)^3
     number of atoms/cell      =           13
     number of atomic types    =            2
     number of electrons       =       181.00
     number of Kohn-Sham states=          100
     kinetic-energy cutoff     =      36.7493  Ry
     charge density cutoff     =     367.4932  Ry
     convergence threshold     =      1.0E-05
     mixing beta               =       0.3000
     number of iterations used =           10  plain     mixing
     Exchange-correlation      = BEEF-VDW ( 1  4 27 13 2)
     nstep                     =           50

     celldm(1)=   1.889726  celldm(2)=   0.000000  celldm(3)=   0.000000
     celldm(4)=   0.000000  celldm(5)=   0.000000  celldm(6)=   0.000000

     crystal axes: (cart. coord. in units of alat)
               a(1) = (   5.486772   0.000000   0.000000 )
               a(2) = (   2.743386   4.751684   0.000000 )
               a(3) = (   0.000000   0.000000  24.479931 )

     reciprocal axes: (cart. coord. in units 2 pi/alat)
               b(1) = (  0.182257 -0.105226  0.000000 )
               b(2) = (  0.000000  0.210452  0.000000 )
               b(3) = (  0.000000  0.000000  0.040850 )

     PseudoPot. # 1 for Re read from file:
     /afs/slac.stanford.edu/u/if/mamunm/psp/gbrv1.5pbe/Re.UPF
     MD5 check sum: 85f993410f3e006da9d71c142b4ad953
     Pseudo is Ultrasoft + core correction, Zval = 15.0
     Generated by new atomic code, or converted to UPF format
     Using radial grid of  981 points,  8 beta functions with:
                l(1) =   0
                l(2) =   0
                l(3) =   1
                l(4) =   1
                l(5) =   2
                l(6) =   2
                l(7) =   3
                l(8) =   3
     Q(r) pseudized with  8 coefficients,  rinner =    1.150   1.150   1.150
                                                       1.150   1.150   1.150
                                                       1.150

     PseudoPot. # 2 for H  read from file:
     /afs/slac.stanford.edu/u/if/mamunm/psp/gbrv1.5pbe/H.UPF
     MD5 check sum: 761ae9a214b05c3daf00ab9f6b793d6f
     Pseudo is Ultrasoft, Zval =  1.0
     Generated by new atomic code, or converted to UPF format
     Using radial grid of  615 points,  2 beta functions with:
                l(1) =   0
                l(2) =   0
     Q(r) pseudized with  8 coefficients,  rinner =    0.700

     vdW kernel table read from file vdW_kernel_table
     MD5 check sum: 095c7af220d748ca6e76c0b4c6cfb241

     atomic species   valence    mass     pseudopotential
        Re1           15.00   186.20700     Re( 1.00)
        H1             1.00     1.00800     H ( 1.00)

     No symmetry found

   Cartesian axes

     site n.     atom                  positions (alat units)
         1           Re1 tau(   1) = (   1.3716930   0.7919474  10.0000000  )
         2           Re1 tau(   2) = (   4.1150791   0.7919474  10.0000000  )
         3           Re1 tau(   3) = (   2.7433861   3.1677894  10.0000000  )
         4           Re1 tau(   4) = (   5.4867722   3.1677894  10.0000000  )
         5           Re1 tau(   5) = (   5.4867722   1.5838947  12.2399654  )
         6           Re1 tau(   6) = (   2.7433861   1.5838947  12.2399654  )
         7           Re1 tau(   7) = (   6.8584652   3.9597368  12.2399654  )
         8           Re1 tau(   8) = (   4.1150791   3.9597368  12.2399654  )
         9           Re1 tau(   9) = (   8.2301329   4.7516837  14.4255387  )
        10           Re1 tau(  10) = (   5.4868128   4.7181279  14.4288957  )
        11           Re1 tau(  11) = (   6.8294169   2.3926082  14.4288903  )
        12           Re1 tau(  12) = (   4.1441325   2.3926144  14.4289106  )
        13           H1  tau(  13) = (   2.7433737   1.5838669  15.5126466  )

     number of k points=    20  Fermi-Dirac smearing, width (Ry)=  0.0110
                       cart. coord. in units 2pi/alat
        k(    1) = (   0.0000000   0.0000000   0.0000000), wk =   0.0555556
        k(    2) = (   0.0000000   0.0350753   0.0000000), wk =   0.1111111
        k(    3) = (   0.0000000   0.0701506   0.0000000), wk =   0.1111111
        k(    4) = (   0.0000000  -0.1052259   0.0000000), wk =   0.0555556
        k(    5) = (   0.0303761  -0.0175376   0.0000000), wk =   0.1111111
        k(    6) = (   0.0303761   0.0175376   0.0000000), wk =   0.1111111
        k(    7) = (   0.0303761   0.0526129   0.0000000), wk =   0.1111111
        k(    8) = (   0.0303761  -0.1227635   0.0000000), wk =   0.1111111
        k(    9) = (   0.0303761  -0.0876882   0.0000000), wk =   0.1111111
        k(   10) = (   0.0303761  -0.0526129   0.0000000), wk =   0.1111111
        k(   11) = (   0.0607522  -0.0350753   0.0000000), wk =   0.1111111
        k(   12) = (   0.0607522   0.0000000   0.0000000), wk =   0.1111111
        k(   13) = (   0.0607522   0.0350753   0.0000000), wk =   0.1111111
        k(   14) = (   0.0607522  -0.1403011   0.0000000), wk =   0.1111111
        k(   15) = (   0.0607522  -0.1052259   0.0000000), wk =   0.1111111
        k(   16) = (   0.0607522  -0.0701506   0.0000000), wk =   0.1111111
        k(   17) = (  -0.0911283   0.0526129   0.0000000), wk =   0.0555556
        k(   18) = (  -0.0911283   0.0876882   0.0000000), wk =   0.1111111
        k(   19) = (  -0.0911283   0.1227635   0.0000000), wk =   0.1111111
        k(   20) = (  -0.0911283  -0.0526129   0.0000000), wk =   0.0555556

     Largest allocated arrays     est. size (Mb)     dimensions
     Largest temporary arrays     est. size (Mb)     dimensions

     Initial potential from superposition of free atoms
     Check: negative starting charge=   -1.540323

     starting charge  174.99945, renormalised to  181.00000

[...]

     *
     * You are using vdW-DF for exchange-correlation in this calculation.
     * Please cite the following three references that made this development
     * possible:
     *
     *   M. Dion, H. Rydberg, E. Schroder, D. C. Langreth, and
     *   B. I. Lundqvist, Phys. Rev. Lett. 92, 246401 (2004).
     *
     *   T. Thonhauser, V. R. Cooper, S. Li, A. Puzder, P. Hyldgaard, and
     *   D. C. Langreth, Phys. Rev. B 76, 125112 (2007).
     *
     *   G. Roman-Perez and J. M. Soler, Phys. Rev. Lett. 103, 096102 (2009).
     *
     *
     * If you are using vdW-DF2, please also cite:
     *
     *   K. Lee, E. D. Murray, L. Kong, B. I. Lundqvist, and
     *   D. C. Langreth, Phys. Rev. B 82, 081101(R) (2010).
     *
     *
     * If you are calculating the stress with vdW-DF, please also cite:
     *
     *   R. Sabatini, E. Kucukbenli, B. Kolb, T. Thonhauser, and
     *   S. de Gironcoli, J. Phys.: Condens. Matter 24, 424209 (2012).
     *

     Carrying out vdW-DF run using the following parameters:

     Nqs =      20    Nr_points =    1024   r_max =   100.000
     q_mesh =
               0.00001000     0.04494208     0.09755937     0.15916263
               0.23128650     0.31572767     0.41458969     0.53033537
               0.66584808     0.82450364     1.01025438     1.22772762
               1.48234092     1.78043706     2.12944203     2.53805004
               3.01644009     3.57652955     4.23227104     5.00000000

     Gradients computed in reciprocal space

[...]

     Starting wfc are  157 randomized atomic wfcs

     Self-consistent Calculation

[...]

     total energy              =   -2307.06479542 Ry
     Harris-Foulkes estimate   =   -2307.06480101 Ry
     estimated scf accuracy    <       0.00006308 Ry

     iteration # 13     ecut=    36.75 Ry     beta=0.30
     Davidson diagonalization with overlap
     ethr =  3.23E-08,  avg # of iterations =  3.1

[...]

     negative rho (up, down):  1.623E+00 0.000E+00

     Adding external electric field

     Computed dipole along edir(3) :
        Dipole                0.0791 Ry au,          0.2010 Debye
        Dipole field          0.0002 Ry au

        Potential amp.       -0.0208 Ry
        Total length         45.1039 bohr

     End of self-consistent calculation

[...]

          k = 0.0608-0.0702 0.0000 ( 16218 PWs)   bands (ev):

[...]

          k =-0.0911-0.0526 0.0000 ( 16164 PWs)   bands (ev):

   -77.5848 -77.5771 -77.5376 -77.5241 -77.4862 -77.4677 -77.4489 -77.4378
   -77.4345 -77.4030 -77.3980 -77.3863 -39.7361 -39.7146 -39.6789 -39.6531
   -39.5898 -39.5814 -39.4968 -39.4784 -39.4286 -39.4239 -39.3886 -39.3695
   -39.2454 -39.1790 -39.1471 -39.1399 -39.1252 -39.1238 -39.1065 -39.0981
   -39.0933 -39.0831 -39.0654 -39.0633 -39.0278 -39.0149 -39.0095 -39.0017
   -38.9189 -38.8948 -38.8646 -38.8519 -38.8000 -38.7397 -38.7192 -38.7087
    -4.5834  -4.2446  -3.7163  -2.6428  -2.3321  -2.1776  -2.1281  -2.0928
    -2.0799  -1.9907  -1.6350  -1.2746  -1.2421  -0.9549  -0.8686  -0.7844
    -0.6949  -0.4136  -0.3738  -0.3290  -0.2406   0.1122   0.1147   0.6627
     0.7204   0.9127   0.9177   1.0440   1.0897   1.1076   1.1132   1.2181
     1.3387   1.4389   1.6034   1.6080   1.6228   1.6571   2.0466   2.0991
     2.8119   2.8997   2.9555   3.0212   3.1758   3.1822   3.5316   3.5751
     3.8055   3.9011   3.9842   4.0494

     the Fermi energy is     3.0333 ev

!    total energy              =   -2307.06479165 Ry
     Harris-Foulkes estimate   =   -2307.06479746 Ry
     estimated scf accuracy    <       0.00000946 Ry

     The total energy is the sum of the following terms:

     one-electron contribution =  -18666.86303177 Ry
     hartree contribution      =    9318.64739387 Ry
     xc contribution           =    -650.29786371 Ry
     ewald contribution        =    7691.51595067 Ry
     electric field correction =       0.00001824 Ry
     smearing contrib. (-TS)   =      -0.06725894 Ry

     convergence has been achieved in  13 iterations

 BEEF-vdW xc energy contributions
           1 :   -578.316079575782
           2 :    537.882062989506
           3 :   -465.187353434759
           4 :    373.918363835015
           5 :   -279.282850926651
           6 :    194.129327590127
           7 :   -126.311544116497
           8 :    77.9210941693839
           9 :   -46.3451253741654
          10 :    26.4743500055174
          11 :   -13.0911737361179
          12 :    2.57768440811401
          13 :    6.48560046347870
          14 :   -13.7590907847323
          15 :    18.1797118093355
          16 :   -19.0351354677064
          17 :    16.6246449351620
          18 :   -12.3020587525693
          19 :    7.96971452117748
          20 :   -5.31525762648175
          21 :    5.15998240923409
          22 :   -7.20381742830955
          23 :    10.2518903227140
          24 :   -12.7946386387280
          25 :    13.6699581083559
          26 :   -12.5198458576483
          27 :    9.86113910614313
          28 :   -6.77305881968960
          29 :    4.37244823039896
          30 :   -3.33018441366175
          31 :   -48.0275193442726
          32 :   -35.6775694144326

     Forces acting on atoms (Ry/au):

     negative rho (up, down):  1.623E+00 0.000E+00
     atom    1 type  1   force =    -0.00036574   -0.00019972    0.01040780
     atom    2 type  1   force =     0.00036806   -0.00027777    0.01044698
     atom    3 type  1   force =    -0.00005946    0.00045265    0.01046180
     atom    4 type  1   force =     0.00005324    0.00003620    0.01315268
     atom    5 type  1   force =    -0.00000407    0.00233706   -0.01244625
     atom    6 type  1   force =    -0.00000528   -0.00001104   -0.00983475
     atom    7 type  1   force =    -0.00202701   -0.00116518   -0.01239544
     atom    8 type  1   force =     0.00204570   -0.00117367   -0.01244895
     atom    9 type  1   force =    -0.00005318   -0.00003185   -0.00099522
     atom   10 type  1   force =     0.00004622   -0.00037023    0.00136783
     atom   11 type  1   force =    -0.00029959    0.00024426    0.00134046
     atom   12 type  1   force =     0.00029926    0.00016242    0.00142100
     atom   13 type  2   force =     0.00000188   -0.00000315   -0.00047795

     Total force =     0.032933     Total SCF correction =     0.023157
     SCF correction compared to forces is large: reduce conv_thr to get better values

     entering subroutine stress ...

     negative rho (up, down):  1.623E+00 0.000E+00
          total   stress  (Ry/bohr**3)                   (kbar)     P=  -15.64
  -0.00011528  -0.00000002   0.00000000        -16.96     -0.00      0.00
  -0.00000002  -0.00011529   0.00000001         -0.00    -16.96      0.00
   0.00000000   0.00000001  -0.00008844          0.00      0.00    -13.01

 !ASE

     Writing output data file calc.save

     General routines

     Parallel routines

   This run was terminated on:  15:40:55  14Jan2018

   JOB DONE.
Job  /afs/slac/g/suncat/bin/suncat-tsmpirun -x LD_LIBRARY_PATH -wdir /scratch/qe842473_Sk4kI pw.x -in pw.inp

TID   HOST_NAME   COMMAND_LINE            STATUS            TERMINATION_TIME
00000 suncat0050 pw.x -in pw.inp   Done                     01/14/2018 15:40:55
00001 suncat0050 pw.x -in pw.inp   Done                     01/14/2018 15:40:55
00002 suncat0050 pw.x -in pw.inp   Done                     01/14/2018 15:40:55
00003 suncat0050 pw.x -in pw.inp   Done                     01/14/2018 15:40:55
00004 suncat0050 pw.x -in pw.inp   Done                     01/14/2018 15:40:55
00005 suncat0050 pw.x -in pw.inp   Done                     01/14/2018 15:40:55
00006 suncat0050 pw.x -in pw.inp   Done                     01/14/2018 15:40:55
00007 suncat0050 pw.x -in pw.inp   Done                     01/14/2018 15:40:55
00008 suncat0242 pw.x -in pw.inp   Done                     01/14/2018 15:40:55
00009 suncat0242 pw.x -in pw.inp   Done                     01/14/2018 15:40:55
00010 suncat0242 pw.x -in pw.inp   Done                     01/14/2018 15:40:55
00011 suncat0242 pw.x -in pw.inp   Done                     01/14/2018 15:40:55
00012 suncat0242 pw.x -in pw.inp   Done                     01/14/2018 15:40:55
00013 suncat0242 pw.x -in pw.inp   Done                     01/14/2018 15:40:55
00014 suncat0242 pw.x -in pw.inp   Done                     01/14/2018 15:40:55
00015 suncat0242 pw.x -in pw.inp   Done                     01/14/2018 15:40:55
00016 suncat0241 pw.x -in pw.inp   Done                     01/14/2018 15:40:55
00017 suncat0241 pw.x -in pw.inp   Done                     01/14/2018 15:40:55
00018 suncat0241 pw.x -in pw.inp   Done                     01/14/2018 15:40:55
00019 suncat0241 pw.x -in pw.inp   Done                     01/14/2018 15:40:55
00020 suncat0241 pw.x -in pw.inp   Done                     01/14/2018 15:40:55
00021 suncat0241 pw.x -in pw.inp   Done                     01/14/2018 15:40:55
00022 suncat0241 pw.x -in pw.inp   Done                     01/14/2018 15:40:55
00023 suncat0241 pw.x -in pw.inp   Done                     01/14/2018 15:40:55
00024 suncat0240 pw.x -in pw.inp   Done                     01/14/2018 15:40:55
00025 suncat0240 pw.x -in pw.inp   Done                     01/14/2018 15:40:55
00026 suncat0240 pw.x -in pw.inp   Done                     01/14/2018 15:40:55
00027 suncat0240 pw.x -in pw.inp   Done                     01/14/2018 15:40:55
00028 suncat0240 pw.x -in pw.inp   Done                     01/14/2018 15:40:55
00029 suncat0240 pw.x -in pw.inp   Done                     01/14/2018 15:40:55
00030 suncat0240 pw.x -in pw.inp   Done                     01/14/2018 15:40:55
00031 suncat0240 pw.x -in pw.inp   Done                     01/14/2018 15:40:55