     Program PWSCF v.5.1rc2 (svn rev. 11289) starts on 16Apr2018 at 10: 4:55

     Current dimensions of program PWSCF are:
     Max number of different atomic species (ntypx) = 10
     Max number of k-points (npk) =  40000
     Max angular momentum in pseudopotentials (lmaxx) =  3
     Presently stress not available with electric field

     IMPORTANT: XC functional enforced from input :
     Exchange-correlation      = BEEF-VDW ( 1  4 27 13 2)
     Any further DFT definition will be discarded
     Please, verify this is what you really want

     Subspace diagonalization in iterative solution of the eigenvalue problem:
     a serial algorithm will be used

     bravais-lattice index     =            0
     lattice parameter (alat)  =       1.8897  a.u.
     unit-cell volume          =    5174.6160 (a.u.)^3
     number of atoms/cell      =           14
     number of atomic types    =            3
     number of electrons       =       235.00
     number of Kohn-Sham states=          127
     kinetic-energy cutoff     =      36.7493  Ry
     charge density cutoff     =     367.4932  Ry
     convergence threshold     =      1.0E-05
     mixing beta               =       0.3000
     number of iterations used =           10  plain     mixing
     Exchange-correlation      = BEEF-VDW ( 1  4 27 13 2)
     nstep                     =           50

     celldm(1)=   1.889726  celldm(2)=   0.000000  celldm(3)=   0.000000
     celldm(4)=   0.000000  celldm(5)=   0.000000  celldm(6)=   0.000000

     crystal axes: (cart. coord. in units of alat)
               a(1) = (   5.966546   0.000000   0.000000 )
               a(2) = (   2.983273   5.167181   0.000000 )
               a(3) = (   0.000000   0.000000  24.871665 )

     reciprocal axes: (cart. coord. in units 2 pi/alat)
               b(1) = (  0.167601 -0.096765  0.000000 )
               b(2) = (  0.000000  0.193529  0.000000 )
               b(3) = (  0.000000  0.000000  0.040206 )

     PseudoPot. # 1 for Ag read from file:
     /u/if/mamunm/psp/gbrv1.5pbe/Ag.UPF
     MD5 check sum: d66d668201baa78d5eb5b04ef7011058
     Pseudo is Ultrasoft + core correction, Zval = 19.0
     Generated by new atomic code, or converted to UPF format
     Using radial grid of  887 points,  6 beta functions with:
                l(1) =   0
                l(2) =   0
                l(3) =   1
                l(4) =   1
                l(5) =   2
                l(6) =   2
     Q(r) pseudized with  6 coefficients,  rinner =    1.300   1.300   1.300
                                                       1.300   1.300

     PseudoPot. # 2 for S  read from file:
     /u/if/mamunm/psp/gbrv1.5pbe/S.UPF
     MD5 check sum: 88d86576ff6df21479756cfb9bdac1df
     Pseudo is Ultrasoft + core correction, Zval =  6.0
     Generated by new atomic code, or converted to UPF format
     Using radial grid of  907 points,  6 beta functions with:
                l(1) =   0
                l(2) =   0
                l(3) =   1
                l(4) =   1
                l(5) =   2
                l(6) =   2
     Q(r) pseudized with  8 coefficients,  rinner =    1.300   1.300   1.300
                                                       1.300   1.300

     PseudoPot. # 3 for H  read from file:
     /u/if/mamunm/psp/gbrv1.5pbe/H.UPF
     MD5 check sum: 761ae9a214b05c3daf00ab9f6b793d6f
     Pseudo is Ultrasoft, Zval =  1.0
     Generated by new atomic code, or converted to UPF format
     Using radial grid of  615 points,  2 beta functions with:
                l(1) =   0
                l(2) =   0
     Q(r) pseudized with  8 coefficients,  rinner =    0.700

     vdW kernel table read from file vdW_kernel_table
     MD5 check sum: 095c7af220d748ca6e76c0b4c6cfb241

     atomic species   valence    mass     pseudopotential
        Ag1           19.00   107.86820     Ag( 1.00)
        S1             6.00    32.06000     S ( 1.00)
        H1             1.00     1.00800     H ( 1.00)

     No symmetry found

   Cartesian axes

     site n.     atom                  positions (alat units)
         1           Ag1 tau(   1) = (   1.4916366   0.8611968  10.0000000  )
         2           Ag1 tau(   2) = (   4.4749098   0.8611968  10.0000000  )
         3           Ag1 tau(   3) = (   2.9832732   3.4447871  10.0000000  )
         4           Ag1 tau(   4) = (   5.9665464   3.4447871  10.0000000  )
         5           Ag1 tau(   5) = (   5.9665464   1.7223936  12.4358324  )
         6           Ag1 tau(   6) = (   2.9832732   1.7223936  12.4358324  )
         7           Ag1 tau(   7) = (   7.4581830   4.3059839  12.4358324  )
         8           Ag1 tau(   8) = (   4.4749098   4.3059839  12.4358324  )
         9           Ag1 tau(   9) = (   0.0000000   0.0000000  14.8716647  )
        10           Ag1 tau(  10) = (   2.9832732   0.0000000  14.8716647  )
        11           Ag1 tau(  11) = (   1.4916366   2.5835904  14.8716647  )
        12           Ag1 tau(  12) = (   4.4749098   2.5835904  14.8716647  )
        13           S1  tau(  13) = (   1.4916366   0.8611968  16.4966647  )
        14           H1  tau(  14) = (   1.4916366   0.8611968  17.7466647  )

     number of k points=    20  Fermi-Dirac smearing, width (Ry)=  0.0110
                       cart. coord. in units 2pi/alat
        k(    1) = (   0.0000000   0.0000000   0.0000000), wk =   0.0555556
        k(    2) = (   0.0000000   0.0322549   0.0000000), wk =   0.1111111
        k(    3) = (   0.0000000   0.0645097   0.0000000), wk =   0.1111111
        k(    4) = (   0.0000000  -0.0967646   0.0000000), wk =   0.0555556
        k(    5) = (   0.0279335  -0.0161274   0.0000000), wk =   0.1111111
        k(    6) = (   0.0279335   0.0161274   0.0000000), wk =   0.1111111
        k(    7) = (   0.0279335   0.0483823   0.0000000), wk =   0.1111111
        k(    8) = (   0.0279335  -0.1128920   0.0000000), wk =   0.1111111
        k(    9) = (   0.0279335  -0.0806371   0.0000000), wk =   0.1111111
        k(   10) = (   0.0279335  -0.0483823   0.0000000), wk =   0.1111111
        k(   11) = (   0.0558670  -0.0322549   0.0000000), wk =   0.1111111
        k(   12) = (   0.0558670   0.0000000   0.0000000), wk =   0.1111111
        k(   13) = (   0.0558670   0.0322549   0.0000000), wk =   0.1111111
        k(   14) = (   0.0558670  -0.1290194   0.0000000), wk =   0.1111111
        k(   15) = (   0.0558670  -0.0967646   0.0000000), wk =   0.1111111
        k(   16) = (   0.0558670  -0.0645097   0.0000000), wk =   0.1111111
        k(   17) = (  -0.0838006   0.0483823   0.0000000), wk =   0.0555556
        k(   18) = (  -0.0838006   0.0806371   0.0000000), wk =   0.1111111
        k(   19) = (  -0.0838006   0.1128920   0.0000000), wk =   0.1111111
        k(   20) = (  -0.0838006  -0.0483823   0.0000000), wk =   0.0555556

     Largest allocated arrays     est. size (Mb)     dimensions
     Largest temporary arrays     est. size (Mb)     dimensions

     Initial potential from superposition of free atoms
     Check: negative starting charge=   -0.001951

     starting charge  228.99939, renormalised to  235.00000

     negative rho (up, down):  2.002E-03 0.000E+00

     *
     * You are using vdW-DF for exchange-correlation in this calculation.
     * Please cite the following three references that made this development
     * possible:
     *
     *   M. Dion, H. Rydberg, E. Schroder, D. C. Langreth, and
     *   B. I. Lundqvist, Phys. Rev. Lett. 92, 246401 (2004).
     *
     *   T. Thonhauser, V. R. Cooper, S. Li, A. Puzder, P. Hyldgaard, and
     *   D. C. Langreth, Phys. Rev. B 76, 125112 (2007).
     *
     *   G. Roman-Perez and J. M. Soler, Phys. Rev. Lett. 103, 096102 (2009).
     *
     *
     * If you are using vdW-DF2, please also cite:
     *
     *   K. Lee, E. D. Murray, L. Kong, B. I. Lundqvist, and
     *   D. C. Langreth, Phys. Rev. B 82, 081101(R) (2010).
     *
     *
     * If you are calculating the stress with vdW-DF, please also cite:
     *
     *   R. Sabatini, E. Kucukbenli, B. Kolb, T. Thonhauser, and
     *   S. de Gironcoli, J. Phys.: Condens. Matter 24, 424209 (2012).
     *

     Carrying out vdW-DF run using the following parameters:

     Nqs =      20    Nr_points =    1024   r_max =   100.000
     q_mesh =
               0.00001000     0.04494208     0.09755937     0.15916263
               0.23128650     0.31572767     0.41458969     0.53033537
               0.66584808     0.82450364     1.01025438     1.22772762
               1.48234092     1.78043706     2.12944203     2.53805004
               3.01644009     3.57652955     4.23227104     5.00000000

     Gradients computed in reciprocal space

     Adding external electric field

     Computed dipole along edir(3) :
        Dipole               -1.4691 Ry au,         -3.7341 Debye
        Dipole field         -0.0036 Ry au

        Potential amp.        0.3270 Ry
        Total length         45.8256 bohr

     Starting wfc are  161 randomized atomic wfcs

     Self-consistent Calculation

     iteration #  1     ecut=    36.75 Ry     beta=0.30
     Davidson diagonalization with overlap
     ethr =  1.00E-02,  avg # of iterations =  5.4

[...]

     total energy              =   -3569.50856860 Ry
     Harris-Foulkes estimate   =   -3588.34992260 Ry
     estimated scf accuracy    <      40.44774852 Ry

[...]

     End of self-consistent calculation

          k = 0.0000 0.0000 0.0000 ( 19435 PWs)   bands (ev):

   -90.4596 -90.4542 -90.4542 -90.2794 -90.2635 -90.2588 -90.2588 -90.1919
   -90.0730 -90.0675 -90.0675 -90.0375 -54.0465 -53.9947 -53.9947 -53.9531
   -53.9531 -53.9323 -53.9282 -53.9141 -53.9141 -53.8041 -53.8041 -53.8012
   -53.7705 -53.7635 -53.7579 -53.7579 -53.7447 -53.7447 -53.7347 -53.7200
   -53.7200 -53.6973 -53.6973 -53.6704 -53.6145 -53.6047 -53.6047 -53.5536
   -53.5525 -53.5495 -53.5495 -53.5458 -53.5458 -53.5212 -53.5212 -53.5103
   -12.9740  -6.6522  -4.6735  -4.3036  -4.3036  -4.1199  -4.1019  -4.0205
    -4.0205  -3.9292  -3.9292  -3.9162  -3.8905  -3.7172  -3.7171  -3.6972
    -3.5677  -3.4979  -3.4979  -3.0669  -3.0669  -2.9911  -2.9911  -2.9878
    -2.9396  -2.8812  -2.8812  -2.7856  -2.7856  -2.7506  -2.7288  -2.6062
    -2.6062  -2.5514  -2.5514  -2.2240  -2.2239  -2.1610  -2.1598  -2.0932
    -2.0932  -1.9876  -1.8890  -1.8890  -1.8594  -1.8594  -1.6188  -1.6051
    -1.6051  -1.5768  -1.5461  -1.5461  -1.5389  -1.5259  -1.5259  -1.4791
    -1.4791  -1.3446  -1.3446  -1.3388  -1.2430  -1.1642  -1.1560  -1.1560
    -0.2542  -0.2542   0.8670   2.1122   2.2430   2.2430   2.5377   2.9819
     2.9819   3.2534   3.4247   3.4247   3.7753   4.8318   5.3532

[...]

          k =-0.0838 0.0484 0.0000 ( 19500 PWs)   bands (ev):

[...]

     the Fermi energy is     1.7699 ev

!    total energy              =   -3585.41658421 Ry
     Harris-Foulkes estimate   =   -3585.41658656 Ry
     estimated scf accuracy    <       0.00000651 Ry

     The total energy is the sum of the following terms:

     one-electron contribution =  -26258.25121759 Ry
     hartree contribution      =   13125.20490848 Ry
     xc contribution           =    -370.73174183 Ry
     ewald contribution        =    9918.38572688 Ry
     electric field correction =       0.00009806 Ry
     smearing contrib. (-TS)   =      -0.02435820 Ry

     convergence has been achieved in  15 iterations

 BEEF-vdW xc energy contributions
           1 :   -321.081106746213
           2 :    290.519780641819
           3 :   -239.513665924282
           4 :    183.399750755418
           5 :   -136.135954360051
           6 :    105.312714361843
           7 :   -90.7190158946405
           8 :    86.4918079383154
           9 :   -85.2244084207007
          10 :    81.7071673580008
          11 :   -74.5840590335903
          12 :    65.5915422291683
          13 :   -57.4083941286921
          14 :    51.6712125540787
          15 :   -48.2507144059911
          16 :    45.8633093253749
          17 :   -43.2666213511382
          18 :    40.0947292363301
          19 :   -36.8533172033303
          20 :    34.2683722182816
          21 :   -32.5984508991949
          22 :    31.4285850680492
          23 :   -30.0344573321588
          24 :    27.9741120720352
          25 :   -25.4394406850288
          26 :    23.1153513912619
          27 :   -21.6760680849508
          28 :    21.3004254910634
          29 :   -21.5547480509603
          30 :    21.7070818628362
          31 :   -32.2004447896227
          32 :   -23.3948695152467

     Forces acting on atoms (Ry/au):

     negative rho (up, down):  1.993E-03 0.000E+00
     atom    1 type  1   force =     0.00000062   -0.00000455    0.00166835
     atom    2 type  1   force =    -0.00000100    0.00055433    0.00100323
     atom    3 type  1   force =     0.00048308   -0.00027557    0.00100369
     atom    4 type  1   force =    -0.00048386   -0.00027526    0.00100304
     atom    5 type  1   force =     0.00128421   -0.00074544   -0.00030399
     atom    6 type  1   force =    -0.00128402   -0.00074446   -0.00030678
     atom    7 type  1   force =     0.00000042    0.00000321    0.01213447
     atom    8 type  1   force =    -0.00000049    0.00148693   -0.00030426
     atom    9 type  1   force =    -0.04727356   -0.02729436   -0.03179857
     atom   10 type  1   force =     0.04727417   -0.02729699   -0.03180148
     atom   11 type  1   force =    -0.00000247    0.05458978   -0.03179797
     atom   12 type  1   force =     0.00000236    0.00000220   -0.01246993
     atom   13 type  2   force =     0.00000057    0.00000020   -0.03877341
     atom   14 type  3   force =    -0.00000002   -0.00000002    0.13074363

     Total force =     0.175289     Total SCF correction =     0.008715

     entering subroutine stress ...

     negative rho (up, down):  1.993E-03 0.000E+00
          total   stress  (Ry/bohr**3)                   (kbar)     P=    2.18
  -0.00001006   0.00000000   0.00000000         -1.48      0.00      0.00
   0.00000000  -0.00001006   0.00000000          0.00     -1.48      0.00
   0.00000000   0.00000000   0.00006452          0.00      0.00      9.49

     BFGS Geometry Optimization

     number of scf cycles    =   1
     number of bfgs steps    =   0

     energy   new            =   -3585.4165842078 Ry

     new trust radius        =       0.1307436339 bohr
     new conv_thr            =       0.0000099958 Ry

ATOMIC_POSITIONS (crystal)
Ag1      0.166666667   0.166666667   0.402063960    0   0   0
Ag1      0.666666667   0.166666667   0.402063960    0   0   0
Ag1      0.166666667   0.666666667   0.402063960    0   0   0
Ag1      0.666666667   0.666666667   0.402063960    0   0   0
Ag1      0.833333333   0.333333333   0.500000000    0   0   0
Ag1      0.333333333   0.333333333   0.500000000    0   0   0
Ag1      0.833333333   0.833333333   0.500000000    0   0   0
Ag1      0.333333333   0.833333333   0.500000000    0   0   0
Ag1     -0.002795101  -0.002795248   0.597259484
Ag1      0.505590538  -0.002795518   0.597259422
Ag1     -0.002795522   0.505590605   0.597259497
Ag1      0.500000096   0.500000226   0.597670726
S1       0.166666708   0.166666687   0.662446479
H1       0.166666666   0.166666665   0.716311170

     Writing output data file calc.save
     Check: negative starting charge=   -0.001951
     NEW-OLD atomic charge density approx. for the potential
     Check: negative starting charge=   -0.001949

[...]

     energy   old            =   -3585.4165842078 Ry
     energy   new            =   -3585.4360067532 Ry

     CASE: energy  _new < energy  _old

[...]

     Total force =     0.008836     Total SCF correction =     0.001493
     SCF correction compared to forces is large: reduce conv_thr to get better values

[...]

     Total force =     0.012738     Total SCF correction =     0.001081

[...]

     number of scf cycles    =  15
     number of bfgs steps    =  14

     energy   old            =   -3585.4599044752 Ry
     energy   new            =   -3585.4599770411 Ry

     CASE: energy  _new < energy  _old

     new trust radius        =       0.0052493470 bohr
     new conv_thr            =       0.0000001000 Ry

ATOMIC_POSITIONS (crystal)
Ag1      0.166666667   0.166666667   0.402063960    0   0   0
Ag1      0.666666667   0.166666667   0.402063960    0   0   0
Ag1      0.166666667   0.666666667   0.402063960    0   0   0
Ag1      0.666666667   0.666666667   0.402063960    0   0   0
Ag1      0.833333333   0.333333333   0.500000000    0   0   0
Ag1      0.333333333   0.333333333   0.500000000    0   0   0
Ag1      0.833333333   0.833333333   0.500000000    0   0   0
Ag1      0.333333333   0.833333333   0.500000000    0   0   0
Ag1     -0.006901206  -0.006901228   0.596936820
Ag1      0.513803144  -0.006901842   0.596936745
Ag1     -0.006901805   0.513803105   0.596936748
Ag1      0.500000055   0.500000319   0.594018643
S1       0.166666694   0.166666680   0.673008762
H1       0.166666515   0.166666570   0.727555841

     Writing output data file calc.save
     Check: negative starting charge=   -0.001928
     NEW-OLD atomic charge density approx. for the potential
     Check: negative starting charge=   -0.001928

[...]

     Self-consistent Calculation

[...]

     Threshold (ethr) on eigenvalues was too large:
     Diagonalizing with lowered threshold

     Davidson diagonalization with overlap
     ethr =  1.74E-09,  avg # of iterations =  3.0

[...]

     total energy              =   -3585.45998410 Ry
     Harris-Foulkes estimate   =   -3585.45998426 Ry
     estimated scf accuracy    <       0.00000089 Ry

     iteration #  5     ecut=    36.75 Ry     beta=0.30
     Davidson diagonalization with overlap
     ethr =  3.79E-10,  avg # of iterations =  2.0

[...]

     negative rho (up, down):  1.987E-03 0.000E+00

     Adding external electric field

     Computed dipole along edir(3) :
        Dipole                0.0328 Ry au,          0.0834 Debye
        Dipole field          0.0001 Ry au

        Potential amp.       -0.0073 Ry
        Total length         45.8256 bohr

     End of self-consistent calculation

[...]

          k = 0.0559-0.0645 0.0000 ( 19479 PWs)   bands (ev):

[...]

          k =-0.0838-0.0484 0.0000 ( 19500 PWs)   bands (ev):

   -90.5413 -90.5287 -90.5267 -90.5252 -90.4418 -90.4380 -90.4367 -90.4186
   -90.3175 -90.3159 -90.3140 -90.2988 -54.0588 -54.0532 -54.0440 -54.0381
   -54.0342 -54.0314 -54.0280 -54.0249 -54.0242 -54.0198 -53.9988 -53.9947
   -53.9890 -53.9684 -53.9660 -53.9450 -53.9414 -53.9249 -53.9241 -53.9062
   -53.9038 -53.9011 -53.8999 -53.8988 -53.8456 -53.8389 -53.8200 -53.8188
   -53.8156 -53.8036 -53.7972 -53.7956 -53.7942 -53.7900 -53.7821 -53.7739
   -11.8326  -5.3147  -4.0741  -4.0382  -3.9504  -3.9024  -3.8845  -3.8548
    -3.8055  -3.7579  -3.6754  -3.6634  -3.6128  -3.5961  -3.5607  -3.5209
    -3.4564  -3.4464  -3.2823  -3.2139  -3.2116  -3.2053  -3.1881  -3.1591
    -3.0794  -3.0588  -3.0445  -2.9733  -2.8781  -2.8392  -2.8147  -2.7864
    -2.7712  -2.6810  -2.6412  -2.6288  -2.5472  -2.5445  -2.5219  -2.4972
    -2.4804  -2.4571  -2.4111  -2.3604  -2.3570  -2.3394  -2.3149  -2.2987
    -2.2736  -2.2311  -2.2139  -2.1685  -2.1587  -2.0430  -2.0381  -2.0309
    -1.9723  -1.7886  -1.7417  -1.7180  -1.6850  -1.6537  -1.6021  -1.5630
    -1.2037  -0.2754  -0.2563   0.0429   1.2582   1.3100   2.1664   2.2941
     2.8203   2.8537   4.4804   4.7761   5.0176   5.1578   5.9540

     the Fermi energy is     1.5128 ev

!    total energy              =   -3585.45998416 Ry
     Harris-Foulkes estimate   =   -3585.45998408 Ry
     estimated scf accuracy    <       0.00000009 Ry

     The total energy is the sum of the following terms:

     one-electron contribution =  -26285.70264750 Ry
     hartree contribution      =   13137.90587958 Ry
     xc contribution           =    -370.59126320 Ry
     ewald contribution        =    9932.95366522 Ry
     electric field correction =       0.00000261 Ry
     smearing contrib. (-TS)   =      -0.02562087 Ry

     convergence has been achieved in   5 iterations

 BEEF-vdW xc energy contributions
           1 :   -320.931542198065
           2 :    290.295976621419
           3 :   -239.207551451670
           4 :    183.072987561450
           5 :   -135.872713856704
           6 :    105.165178924834
           7 :   -90.6822943745772
           8 :    86.5203335493865
           9 :   -85.2703538944089
          10 :    81.7505578071460
          11 :   -74.6361919328229
          12 :    65.6737296855675
          13 :   -57.5255285034021
          14 :    51.8006796397264
          15 :   -48.3542029398147
          16 :    45.9113243238426
          17 :   -43.2558212221786
          18 :    40.0465986738570
          19 :   -36.7982569348811
          20 :    34.2286635014301
          21 :   -32.5809837604744
          22 :    31.4287088814430
          23 :   -30.0444462205406
          24 :    27.9877442585148
          25 :   -25.4505430657480
          26 :    23.1160887013266
          27 :   -21.6610500940714
          28 :    21.2756292277430
          29 :   -21.5420619638538
          30 :    21.7362047865317
          31 :   -32.1893007228349
          32 :   -23.3657321671251

     Forces acting on atoms (Ry/au):

     negative rho (up, down):  1.987E-03 0.000E+00
     atom    1 type  1   force =    -0.00000000   -0.00000000    0.00109295
     atom    2 type  1   force =    -0.00000000    0.00043227    0.00000985
     atom    3 type  1   force =     0.00037436   -0.00021614    0.00000985
     atom    4 type  1   force =    -0.00037435   -0.00021613    0.00000986
     atom    5 type  1   force =     0.00355668   -0.00205351   -0.00159736
     atom    6 type  1   force =    -0.00355667   -0.00205345   -0.00159722
     atom    7 type  1   force =     0.00000011    0.00000006    0.00298567
     atom    8 type  1   force =    -0.00000005    0.00410695   -0.00159741
     atom    9 type  1   force =     0.00015242    0.00008807   -0.00029196
     atom   10 type  1   force =    -0.00015281    0.00008887   -0.00029172
     atom   11 type  1   force =     0.00000049   -0.00017677   -0.00029173
     atom   12 type  1   force =    -0.00000036   -0.00000034    0.00109652
     atom   13 type  2   force =     0.00000028    0.00000015    0.00058926
     atom   14 type  3   force =    -0.00000008   -0.00000004   -0.00012656

     Total force =     0.001384     Total SCF correction =     0.000938
     SCF correction compared to forces is large: reduce conv_thr to get better values

     entering subroutine stress ...

     negative rho (up, down):  1.987E-03 0.000E+00
          total   stress  (Ry/bohr**3)                   (kbar)     P=   -2.96
  -0.00002007  -0.00000000   0.00000000         -2.95     -0.00      0.00
  -0.00000000  -0.00002007   0.00000000         -0.00     -2.95      0.00
   0.00000000   0.00000000  -0.00002015          0.00      0.00     -2.96

     bfgs converged in  16 scf cycles and  15 bfgs steps
     (criteria: energy <  1.0E+00, force <  1.9E-03)

     End of BFGS Geometry Optimization

     Final energy   =   -3585.4599841632 Ry
Begin final coordinates

ATOMIC_POSITIONS (crystal)
Ag1      0.166666667   0.166666667   0.402063960    0   0   0
Ag1      0.666666667   0.166666667   0.402063960    0   0   0
Ag1      0.166666667   0.666666667   0.402063960    0   0   0
Ag1      0.666666667   0.666666667   0.402063960    0   0   0
Ag1      0.833333333   0.333333333   0.500000000    0   0   0
Ag1      0.333333333   0.333333333   0.500000000    0   0   0
Ag1      0.833333333   0.833333333   0.500000000    0   0   0
Ag1      0.333333333   0.833333333   0.500000000    0   0   0
Ag1     -0.006901206  -0.006901228   0.596936820
Ag1      0.513803144  -0.006901842   0.596936745
Ag1     -0.006901805   0.513803105   0.596936748
Ag1      0.500000055   0.500000319   0.594018643
S1       0.166666694   0.166666680   0.673008762
H1       0.166666515   0.166666570   0.727555841
End final coordinates

     Writing output data file calc.save

     General routines

     Parallel routines

   This run was terminated on:  11:36: 8  16Apr2018

   JOB DONE.
Job  /afs/slac/g/suncat/bin/suncat-tsmpirun -x LD_LIBRARY_PATH -wdir /scratch/qe103534_s6uoJ pw.x -npool 4 -in pw.inp

TID   HOST_NAME   COMMAND_LINE            STATUS            TERMINATION_TIME
00000 suncat0139 pw.x -npool 4 -i  Done                     04/16/2018 11:36:08
00001 suncat0139 pw.x -npool 4 -i  Done                     04/16/2018 11:36:08
00002 suncat0139 pw.x -npool 4 -i  Done                     04/16/2018 11:36:08
00003 suncat0139 pw.x -npool 4 -i  Done                     04/16/2018 11:36:08
00004 suncat0139 pw.x -npool 4 -i  Done                     04/16/2018 11:36:08
00005 suncat0139 pw.x -npool 4 -i  Done                     04/16/2018 11:36:08
00006 suncat0139 pw.x -npool 4 -i  Done                     04/16/2018 11:36:08
00007 suncat0139 pw.x -npool 4 -i  Done                     04/16/2018 11:36:08
00008 suncat0135 pw.x -npool 4 -i  Done                     04/16/2018 11:36:08
00009 suncat0135 pw.x -npool 4 -i  Done                     04/16/2018 11:36:08
00010 suncat0135 pw.x -npool 4 -i  Done                     04/16/2018 11:36:08
00011 suncat0135 pw.x -npool 4 -i  Done                     04/16/2018 11:36:08
00012 suncat0135 pw.x -npool 4 -i  Done                     04/16/2018 11:36:08
00013 suncat0135 pw.x -npool 4 -i  Done                     04/16/2018 11:36:08
00014 suncat0135 pw.x -npool 4 -i  Done                     04/16/2018 11:36:08
00015 suncat0135 pw.x -npool 4 -i  Done                     04/16/2018 11:36:08
00016 suncat0212 pw.x -npool 4 -i  Done                     04/16/2018 11:36:08
00017 suncat0212 pw.x -npool 4 -i  Done                     04/16/2018 11:36:08
00018 suncat0212 pw.x -npool 4 -i  Done                     04/16/2018 11:36:08
00019 suncat0212 pw.x -npool 4 -i  Done                     04/16/2018 11:36:08
00020 suncat0212 pw.x -npool 4 -i  Done                     04/16/2018 11:36:08
00021 suncat0212 pw.x -npool 4 -i  Done                     04/16/2018 11:36:08
00022 suncat0212 pw.x -npool 4 -i  Done                     04/16/2018 11:36:08
00023 suncat0212 pw.x -npool 4 -i  Done                     04/16/2018 11:36:08
00024 suncat0206 pw.x -npool 4 -i  Done                     04/16/2018 11:36:08
00025 suncat0206 pw.x -npool 4 -i  Done                     04/16/2018 11:36:08
00026 suncat0206 pw.x -npool 4 -i  Done                     04/16/2018 11:36:08
00027 suncat0206 pw.x -npool 4 -i  Done                     04/16/2018 11:36:08
00028 suncat0206 pw.x -npool 4 -i  Done                     04/16/2018 11:36:08
00029 suncat0206 pw.x -npool 4 -i  Done                     04/16/2018 11:36:08
00030 suncat0206 pw.x -npool 4 -i  Done                     04/16/2018 11:36:08
00031 suncat0206 pw.x -npool 4 -i  Done                     04/16/2018 11:36:08