     Program PWSCF v.5.1rc2 (svn rev. 11289) starts on  3May2018 at  8:46:15

     Current dimensions of program PWSCF are:
     Max number of different atomic species (ntypx) = 10
     Max number of k-points (npk) =  40000
     Max angular momentum in pseudopotentials (lmaxx) =  3
     Presently stress not available with electric field

     IMPORTANT: XC functional enforced from input :
     Exchange-correlation      = BEEF-VDW ( 1  4 27 13 2)
     Any further DFT definition will be discarded
     Please, verify this is what you really want

     Subspace diagonalization in iterative solution of the eigenvalue problem:
     a serial algorithm will be used

     bravais-lattice index     =            0
     lattice parameter (alat)  =       1.8897  a.u.
     unit-cell volume          =    4569.9960 (a.u.)^3
     number of atoms/cell      =           13
     number of atomic types    =            2
     number of electrons       =       198.00
     number of Kohn-Sham states=          109
     kinetic-energy cutoff     =      36.7493  Ry
     charge density cutoff     =     367.4932  Ry
     convergence threshold     =      1.0E-05
     mixing beta               =       0.3000
     number of iterations used =           10  plain     mixing
     Exchange-correlation      = BEEF-VDW ( 1  4 27 13 2)
     nstep                     =           50

     celldm(1)=   1.889726  celldm(2)=   0.000000  celldm(3)=   0.000000
     celldm(4)=   0.000000  celldm(5)=   0.000000  celldm(6)=   0.000000

     crystal axes: (cart. coord. in units of alat)
               a(1) = (   5.637663   0.000000   0.000000 )
               a(2) = (   2.818831   4.882359   0.000000 )
               a(3) = (   0.000000   0.000000  24.603132 )

     reciprocal axes: (cart. coord. in units 2 pi/alat)
               b(1) = (  0.177378 -0.102410  0.000000 )
               b(2) = (  0.000000  0.204819  0.000000 )
               b(3) = (  0.000000  0.000000  0.040645 )

     PseudoPot. # 1 for Pd read from file:
     /u/if/mamunm/psp/gbrv1.5pbe/Pd.UPF
     MD5 check sum: 2d733d2bc2cbfd217af676df1668a4bc
     Pseudo is Ultrasoft + core correction, Zval = 16.0
     Generated by new atomic code, or converted to UPF format
     Using radial grid of  887 points,  6 beta functions with:
                l(1) =   0
                l(2) =   0
                l(3) =   1
                l(4) =   1
                l(5) =   2
                l(6) =   2
     Q(r) pseudized with  8 coefficients,  rinner =    1.130   1.130   1.130
                                                       1.130   1.130

     PseudoPot. # 2 for O  read from file:
     /u/if/mamunm/psp/gbrv1.5pbe/O.UPF
     MD5 check sum: 734c27235a0248c51dbae37a1fbe46ec
     Pseudo is Ultrasoft + core correction, Zval =  6.0
     Generated by new atomic code, or converted to UPF format
     Using radial grid of  737 points,  5 beta functions with:
                l(1) =   0
                l(2) =   0
                l(3) =   1
                l(4) =   1
                l(5) =   2
     Q(r) pseudized with  8 coefficients,  rinner =    0.900   0.900   0.900
                                                       0.900   0.900

     vdW kernel table read from file vdW_kernel_table
     MD5 check sum: 095c7af220d748ca6e76c0b4c6cfb241

     atomic species   valence    mass     pseudopotential
        Pd1           16.00   106.42000     Pd( 1.00)
        O1             6.00    15.99900     O ( 1.00)

     No symmetry found

   Cartesian axes

     site n.     atom                  positions (alat units)
         1           Pd1 tau(   1) = (   1.4094157   0.8137265  10.0000000  )
         2           Pd1 tau(   2) = (   4.2282471   0.8137265  10.0000000  )
         3           Pd1 tau(   3) = (   2.8188314   3.2549061  10.0000000  )
         4           Pd1 tau(   4) = (   5.6376627   3.2549061  10.0000000  )
         5           Pd1 tau(   5) = (   5.6376627   1.6274531  12.3015662  )
         6           Pd1 tau(   6) = (   2.8188314   1.6274531  12.3015662  )
         7           Pd1 tau(   7) = (   7.0470784   4.0686326  12.3015662  )
         8           Pd1 tau(   8) = (   4.2282471   4.0686326  12.3015662  )
         9           Pd1 tau(   9) = (   0.0000000   0.0000000  14.6031324  )
        10           Pd1 tau(  10) = (   2.8188314   0.0000000  14.6031324  )
        11           Pd1 tau(  11) = (   1.4094157   2.4411796  14.6031324  )
        12           Pd1 tau(  12) = (   4.2282471   2.4411796  14.6031324  )
        13           O1  tau(  13) = (   2.8188314   1.6274531  15.9356324  )

     number of k points=    20  Fermi-Dirac smearing, width (Ry)=  0.0110
                       cart. coord. in units 2pi/alat
        k(    1) = (   0.0000000   0.0000000   0.0000000), wk =   0.0555556
        k(    2) = (   0.0000000   0.0341365   0.0000000), wk =   0.1111111
        k(    3) = (   0.0000000   0.0682730   0.0000000), wk =   0.1111111
        k(    4) = (   0.0000000  -0.1024095   0.0000000), wk =   0.0555556
        k(    5) = (   0.0295631  -0.0170683   0.0000000), wk =   0.1111111
        k(    6) = (   0.0295631   0.0170683   0.0000000), wk =   0.1111111
        k(    7) = (   0.0295631   0.0512048   0.0000000), wk =   0.1111111
        k(    8) = (   0.0295631  -0.1194778   0.0000000), wk =   0.1111111
        k(    9) = (   0.0295631  -0.0853413   0.0000000), wk =   0.1111111
        k(   10) = (   0.0295631  -0.0512048   0.0000000), wk =   0.1111111
        k(   11) = (   0.0591262  -0.0341365   0.0000000), wk =   0.1111111
        k(   12) = (   0.0591262  -0.0000000   0.0000000), wk =   0.1111111
        k(   13) = (   0.0591262   0.0341365   0.0000000), wk =   0.1111111
        k(   14) = (   0.0591262  -0.1365460   0.0000000), wk =   0.1111111
        k(   15) = (   0.0591262  -0.1024095   0.0000000), wk =   0.1111111
        k(   16) = (   0.0591262  -0.0682730   0.0000000), wk =   0.1111111
        k(   17) = (  -0.0886892   0.0512048   0.0000000), wk =   0.0555556
        k(   18) = (  -0.0886892   0.0853413   0.0000000), wk =   0.1111111
        k(   19) = (  -0.0886892   0.1194778   0.0000000), wk =   0.1111111
        k(   20) = (  -0.0886892  -0.0512048   0.0000000), wk =   0.0555556

     Largest allocated arrays     est. size (Mb)     dimensions
     Largest temporary arrays     est. size (Mb)     dimensions

     Initial potential from superposition of free atoms
     Check: negative starting charge=   -0.904305

     starting charge  191.99992, renormalised to  198.00000

     negative rho (up, down):  9.326E-01 0.000E+00

     *
     * You are using vdW-DF for exchange-correlation in this calculation.
     * Please cite the following three references that made this development
     * possible:
     *
     *   M. Dion, H. Rydberg, E. Schroder, D. C. Langreth, and
     *   B. I. Lundqvist, Phys. Rev. Lett. 92, 246401 (2004).
     *
     *   T. Thonhauser, V. R. Cooper, S. Li, A. Puzder, P. Hyldgaard, and
     *   D. C. Langreth, Phys. Rev. B 76, 125112 (2007).
     *
     *   G. Roman-Perez and J. M. Soler, Phys. Rev. Lett. 103, 096102 (2009).
     *
     *
     * If you are using vdW-DF2, please also cite:
     *
     *   K. Lee, E. D. Murray, L. Kong, B. I. Lundqvist, and
     *   D. C. Langreth, Phys. Rev. B 82, 081101(R) (2010).
     *
     *
     * If you are calculating the stress with vdW-DF, please also cite:
     *
     *   R. Sabatini, E. Kucukbenli, B. Kolb, T. Thonhauser, and
     *   S. de Gironcoli, J. Phys.: Condens. Matter 24, 424209 (2012).
     *

     Carrying out vdW-DF run using the following parameters:

     Nqs =      20    Nr_points =    1024   r_max =   100.000
     q_mesh =
               0.00001000     0.04494208     0.09755937     0.15916263
               0.23128650     0.31572767     0.41458969     0.53033537
               0.66584808     0.82450364     1.01025438     1.22772762
               1.48234092     1.78043706     2.12944203     2.53805004
               3.01644009     3.57652955     4.23227104     5.00000000

     Gradients computed in reciprocal space

     Adding external electric field

     Computed dipole along edir(3) :
        Dipole               -1.2876 Ry au,         -3.2729 Debye
        Dipole field         -0.0035 Ry au

        Potential amp.        0.3210 Ry
        Total length         45.3309 bohr

     Starting wfc are  148 randomized atomic wfcs

     Self-consistent Calculation

     iteration #  1     ecut=    36.75 Ry     beta=0.30
     Davidson diagonalization with overlap
     ethr =  1.00E-02,  avg # of iterations =  4.5

[...]

     total energy              =   -2382.64783888 Ry
     Harris-Foulkes estimate   =   -2432.80681000 Ry
     estimated scf accuracy    <     105.82665045 Ry

[...]

     End of self-consistent calculation

          k = 0.0000 0.0000 0.0000 ( 17231 PWs)   bands (ev):

   -49.7023 -49.5716 -49.5714 -49.3618 -49.3617 -49.2993 -49.2646 -49.2629
   -49.2628 -49.2628 -49.1662 -49.1660 -49.1622 -49.1410 -49.1408 -49.0934
   -49.0891 -49.0889 -49.0825 -49.0257 -49.0256 -49.0115 -49.0113 -48.9966
   -48.8508 -48.8506 -48.8266 -48.8065 -48.8065 -48.7828 -48.7827 -48.7444
   -48.6778 -48.6632 -48.6626 -48.6475 -17.2135  -5.1237  -4.5198  -4.2121
    -4.2121  -3.9096  -3.7985  -3.7957  -3.7956  -3.6832  -3.5358  -3.5357
    -3.4900  -3.3751  -3.2988  -3.2986  -3.0898  -3.0898  -2.6663  -2.2471
    -2.2470  -2.1344  -2.0258  -2.0258  -1.9183  -1.7618  -1.7618  -1.7033
    -1.7033  -1.5781  -1.4957  -1.4956  -1.3915  -1.3914  -1.3708  -0.9077
    -0.8880  -0.8880  -0.8291  -0.6317  -0.4720  -0.4719  -0.3253  -0.3253
    -0.2233  -0.2233  -0.0090  -0.0089   0.2119   0.2878   0.2916   0.2917
     0.3913   0.3914   0.4025   0.4066   0.5256   0.5256   0.6326   0.6734
     0.6734   0.8399   0.8400   0.8542   0.9009   0.9009   1.1822   2.6208
     2.9650   2.9650   3.4286   4.2466   4.2467

[...]

          k =-0.0887 0.0512 0.0000 ( 17240 PWs)   bands (ev):

[...]

     the Fermi energy is     0.6264 ev

!    total energy              =   -2429.87585395 Ry
     Harris-Foulkes estimate   =   -2429.87585849 Ry
     estimated scf accuracy    <       0.00000330 Ry

     The total energy is the sum of the following terms:

     one-electron contribution =  -20786.52137499 Ry
     hartree contribution      =   10442.87164241 Ry
     xc contribution           =    -397.55462378 Ry
     ewald contribution        =    8311.44932502 Ry
     electric field correction =       0.00019724 Ry
     smearing contrib. (-TS)   =      -0.12101986 Ry

     convergence has been achieved in  20 iterations

 BEEF-vdW xc energy contributions
           1 :   -346.012351500172
           2 :    315.922755133844
           3 :   -264.684805619205
           4 :    206.157867065904
           5 :   -153.660828557697
           6 :    115.612225412929
           7 :   -93.7605289390896
           8 :    84.2505900807118
           9 :   -80.6272876398178
          10 :    77.1739669357702
          11 :   -71.0864371986708
          12 :    62.7483600668990
          13 :   -54.4173955122757
          14 :    48.3427308131853
          15 :   -45.3968178019362
          16 :    44.7973227948577
          17 :   -44.8276620303977
          18 :    43.9508644004683
          19 :   -41.6140430435767
          20 :    38.3423124493598
          21 :   -35.2032715758964
          22 :    33.0615662058339
          23 :   -32.0880802614137
          24 :    31.7612669429439
          25 :   -31.2861987616052
          26 :    30.1208012523498
          27 :   -28.2751161555579
          28 :    26.2296352561060
          29 :   -24.5710535457089
          30 :    23.6013752138778
          31 :   -33.7772998248993
          32 :   -24.8973476428279

     Forces acting on atoms (Ry/au):

     negative rho (up, down):  9.423E-01 0.000E+00
     atom    1 type  1   force =     0.00020144    0.00009416   -0.00148348
     atom    2 type  1   force =    -0.00020277    0.00009321   -0.00147733
     atom    3 type  1   force =    -0.00000079   -0.00022113   -0.00146563
     atom    4 type  1   force =    -0.00000036    0.00001394    0.00191971
     atom    5 type  1   force =    -0.00000697    0.00224907    0.00341467
     atom    6 type  1   force =     0.00000491    0.00002805   -0.01513987
     atom    7 type  1   force =    -0.00189933   -0.00112660    0.00330527
     atom    8 type  1   force =     0.00189728   -0.00113215    0.00331028
     atom    9 type  1   force =    -0.00000058   -0.00002603   -0.00591063
     atom   10 type  1   force =    -0.00000036   -0.00068329    0.01706928
     atom   11 type  1   force =    -0.00056837    0.00035042    0.01710645
     atom   12 type  1   force =     0.00056683    0.00035027    0.01710715
     atom   13 type  2   force =     0.00000906    0.00001006   -0.03775587

     Total force =     0.048357     Total SCF correction =     0.001495

     entering subroutine stress ...

     negative rho (up, down):  9.423E-01 0.000E+00
          total   stress  (Ry/bohr**3)                   (kbar)     P=   -9.53
  -0.00008168   0.00000000  -0.00000000        -12.02      0.00     -0.00
   0.00000000  -0.00008170  -0.00000001          0.00    -12.02     -0.00
  -0.00000000  -0.00000001  -0.00003090         -0.00     -0.00     -4.55

     BFGS Geometry Optimization

     number of scf cycles    =   1
     number of bfgs steps    =   0

     energy   new            =   -2429.8758539478 Ry

     new trust radius        =       0.0377558769 bohr
     new conv_thr            =       0.0000099958 Ry

ATOMIC_POSITIONS (crystal)
Pd1      0.166666667   0.166666667   0.406452311    0   0   0
Pd1      0.666666667   0.166666667   0.406452311    0   0   0
Pd1      0.166666667   0.666666667   0.406452311    0   0   0
Pd1      0.666666667   0.666666667   0.406452311    0   0   0
Pd1      0.833333333   0.333333333   0.500000000    0   0   0
Pd1      0.333333333   0.333333333   0.500000000    0   0   0
Pd1      0.833333333   0.833333333   0.500000000    0   0   0
Pd1      0.333333333   0.833333333   0.500000000    0   0   0
Pd1      0.000001356  -0.000002822   0.593420560
Pd1      0.500036996  -0.000074059   0.593914824
Pd1     -0.000072340   0.500037981   0.593915624
Pd1      0.500034223   0.500037965   0.593915639
O1       0.333333638   0.333334424   0.646895386

     Writing output data file calc.save
     Check: negative starting charge=   -0.904305
     NEW-OLD atomic charge density approx. for the potential
     Check: negative starting charge=   -0.904232

[...]

     Total force =     0.037655     Total SCF correction =     0.004251
     SCF correction compared to forces is large: reduce conv_thr to get better values

[...]

     energy   old            =   -2429.8758539478 Ry
     energy   new            =   -2429.8779157874 Ry

     CASE: energy  _new < energy  _old

[...]

     number of scf cycles    =   5
     number of bfgs steps    =   4

     energy   old            =   -2429.8817202483 Ry
     energy   new            =   -2429.8820544941 Ry

     CASE: energy  _new < energy  _old

     new trust radius        =       0.0192573209 bohr
     new conv_thr            =       0.0000001000 Ry

ATOMIC_POSITIONS (crystal)
Pd1      0.166666667   0.166666667   0.406452311    0   0   0
Pd1      0.666666667   0.166666667   0.406452311    0   0   0
Pd1      0.166666667   0.666666667   0.406452311    0   0   0
Pd1      0.666666667   0.666666667   0.406452311    0   0   0
Pd1      0.833333333   0.333333333   0.500000000    0   0   0
Pd1      0.333333333   0.333333333   0.500000000    0   0   0
Pd1      0.833333333   0.833333333   0.500000000    0   0   0
Pd1      0.333333333   0.833333333   0.500000000    0   0   0
Pd1      0.000000564  -0.000001302   0.592358189
Pd1      0.503621468  -0.007244607   0.595608317
Pd1     -0.007249805   0.503620490   0.595605811
Pd1      0.503629241   0.503622615   0.595605284
O1       0.333324661   0.333359295   0.643321157

     Writing output data file calc.save
     Check: negative starting charge=   -0.909383
     NEW-OLD atomic charge density approx. for the potential
     Check: negative starting charge=   -0.905908

[...]

     Self-consistent Calculation

[...]

     total energy              =   -2429.88226829 Ry
     Harris-Foulkes estimate   =   -2429.88226835 Ry
     estimated scf accuracy    <       0.00000030 Ry

     iteration # 11     ecut=    36.75 Ry     beta=0.30
     Davidson diagonalization with overlap
     ethr =  1.13E-10,  avg # of iterations =  1.0

[...]

     negative rho (up, down):  9.447E-01 0.000E+00

     Adding external electric field

     Computed dipole along edir(3) :
        Dipole               -0.2034 Ry au,         -0.5170 Debye
        Dipole field         -0.0006 Ry au

        Potential amp.        0.0507 Ry
        Total length         45.3309 bohr

     End of self-consistent calculation

[...]

          k = 0.0591-0.0683 0.0000 ( 17183 PWs)   bands (ev):

[...]

          k =-0.0887-0.0512 0.0000 ( 17240 PWs)   bands (ev):

   -49.6946 -49.6371 -49.5909 -49.3095 -49.2972 -49.2537 -49.1740 -49.1530
   -49.1260 -49.1243 -49.0725 -49.0602 -49.0474 -49.0392 -49.0330 -49.0309
   -49.0232 -48.9814 -48.9603 -48.9425 -48.9182 -48.8844 -48.8588 -48.8326
   -48.7909 -48.7877 -48.7773 -48.7555 -48.7433 -48.7241 -48.7091 -48.6472
   -48.5906 -48.5739 -48.5689 -48.5645 -17.6636  -4.7699  -4.3202  -4.1588
    -3.6431  -3.5140  -3.1552  -3.0995  -2.9750  -2.9453  -2.8674  -2.8381
    -2.7708  -2.7080  -2.6552  -2.6362  -2.6010  -2.4870  -2.4351  -2.2391
    -2.0977  -2.0913  -2.0378  -1.9819  -1.9449  -1.9420  -1.8410  -1.7896
    -1.6262  -1.6114  -1.4605  -1.4551  -1.3497  -1.2998  -1.2904  -1.2020
    -1.1958  -1.1633  -1.1041  -1.0684  -1.0202  -1.0044  -0.7825  -0.7779
    -0.7111  -0.6510  -0.6503  -0.5685  -0.5432  -0.4812  -0.4639  -0.4039
    -0.2988  -0.1931  -0.1470  -0.0704   0.0319   0.0397   0.3114   0.4512
     0.4745   0.5238   0.5245   0.6690   0.7515   0.9659   1.0002   1.8065
     3.1515   3.2831   3.4000   3.6145   4.4888

     the Fermi energy is     0.7207 ev

!    total energy              =   -2429.88226899 Ry
     Harris-Foulkes estimate   =   -2429.88226790 Ry
     estimated scf accuracy    <       0.00000002 Ry

     The total energy is the sum of the following terms:

     one-electron contribution =  -20743.70767910 Ry
     hartree contribution      =   10421.98322954 Ry
     xc contribution           =    -397.59538538 Ry
     ewald contribution        =    8289.55722867 Ry
     electric field correction =       0.00011375 Ry
     smearing contrib. (-TS)   =      -0.11977647 Ry

     convergence has been achieved in  11 iterations

 BEEF-vdW xc energy contributions
           1 :   -346.056109493172
           2 :    315.976318616938
           3 :   -264.739595014857
           4 :    206.194251540484
           5 :   -153.665526652821
           6 :    115.585767339679
           7 :   -93.7130770538022
           8 :    84.1939919241324
           9 :   -80.5705660437437
          10 :    77.1236784522697
          11 :   -71.0489069258429
          12 :    62.7309769145112
          13 :   -54.4263250697961
          14 :    48.3769697562608
          15 :   -45.4442624965379
          16 :    44.8381352126562
          17 :   -44.8433876547094
          18 :    43.9345825857887
          19 :   -41.5751379076219
          20 :    38.3013245381180
          21 :   -35.1792426129389
          22 :    33.0599927237239
          23 :   -32.0980663939276
          24 :    31.7643291092982
          25 :   -31.2701195751436
          26 :    30.0887123620531
          27 :   -28.2436094849459
          28 :    26.2164860959433
          29 :   -24.5807473732428
          30 :    23.6191278323208
          31 :   -33.7794181722470
          32 :   -24.8998754680717

     Forces acting on atoms (Ry/au):

     negative rho (up, down):  9.447E-01 0.000E+00
     atom    1 type  1   force =     0.00007206    0.00004575   -0.00191433
     atom    2 type  1   force =    -0.00007180    0.00004678   -0.00191550
     atom    3 type  1   force =     0.00000097   -0.00008796   -0.00191986
     atom    4 type  1   force =    -0.00000142   -0.00000541    0.00182187
     atom    5 type  1   force =     0.00000081    0.00367927    0.00408409
     atom    6 type  1   force =    -0.00000079   -0.00000431   -0.00525808
     atom    7 type  1   force =    -0.00319159   -0.00183831    0.00408756
     atom    8 type  1   force =     0.00319194   -0.00183794    0.00408614
     atom    9 type  1   force =    -0.00000014    0.00000242   -0.00171986
     atom   10 type  1   force =     0.00000057   -0.00120012   -0.00087416
     atom   11 type  1   force =    -0.00104934    0.00060636   -0.00087767
     atom   12 type  1   force =     0.00105096    0.00060617   -0.00087772
     atom   13 type  2   force =    -0.00000223   -0.00001270    0.00127753

     Total force =     0.003358     Total SCF correction =     0.000173

     entering subroutine stress ...

     negative rho (up, down):  9.447E-01 0.000E+00
          total   stress  (Ry/bohr**3)                   (kbar)     P=   -6.77
  -0.00006122   0.00000000  -0.00000000         -9.01      0.00     -0.00
   0.00000000  -0.00006123  -0.00000001          0.00     -9.01     -0.00
  -0.00000000  -0.00000001  -0.00001567         -0.00     -0.00     -2.31

     bfgs converged in   6 scf cycles and   5 bfgs steps
     (criteria: energy <  1.0E+00, force <  1.9E-03)

     End of BFGS Geometry Optimization

     Final energy   =   -2429.8822689897 Ry
Begin final coordinates

ATOMIC_POSITIONS (crystal)
Pd1      0.166666667   0.166666667   0.406452311    0   0   0
Pd1      0.666666667   0.166666667   0.406452311    0   0   0
Pd1      0.166666667   0.666666667   0.406452311    0   0   0
Pd1      0.666666667   0.666666667   0.406452311    0   0   0
Pd1      0.833333333   0.333333333   0.500000000    0   0   0
Pd1      0.333333333   0.333333333   0.500000000    0   0   0
Pd1      0.833333333   0.833333333   0.500000000    0   0   0
Pd1      0.333333333   0.833333333   0.500000000    0   0   0
Pd1      0.000000564  -0.000001302   0.592358189
Pd1      0.503621468  -0.007244607   0.595608317
Pd1     -0.007249805   0.503620490   0.595605811
Pd1      0.503629241   0.503622615   0.595605284
O1       0.333324661   0.333359295   0.643321157
End final coordinates

     Writing output data file calc.save

     General routines

     Parallel routines

   This run was terminated on:   9:27:36   3May2018

   JOB DONE.
Job  /afs/slac/g/suncat/bin/suncat-tsmpirun -x LD_LIBRARY_PATH -wdir /scratch/qe689740_zXZqs pw.x -npool 4 -in pw.inp

TID   HOST_NAME   COMMAND_LINE            STATUS            TERMINATION_TIME
00000 suncat0278 pw.x -npool 4 -i  Done                     05/03/2018 09:27:36
00001 suncat0278 pw.x -npool 4 -i  Done                     05/03/2018 09:27:36
00002 suncat0278 pw.x -npool 4 -i  Done                     05/03/2018 09:27:36
00003 suncat0278 pw.x -npool 4 -i  Done                     05/03/2018 09:27:36
00004 suncat0278 pw.x -npool 4 -i  Done                     05/03/2018 09:27:36
00005 suncat0278 pw.x -npool 4 -i  Done                     05/03/2018 09:27:36
00006 suncat0278 pw.x -npool 4 -i  Done                     05/03/2018 09:27:36
00007 suncat0278 pw.x -npool 4 -i  Done                     05/03/2018 09:27:36
00008 suncat0264 pw.x -npool 4 -i  Done                     05/03/2018 09:27:36
00009 suncat0264 pw.x -npool 4 -i  Done                     05/03/2018 09:27:36
00010 suncat0264 pw.x -npool 4 -i  Done                     05/03/2018 09:27:36
00011 suncat0264 pw.x -npool 4 -i  Done                     05/03/2018 09:27:36
00012 suncat0264 pw.x -npool 4 -i  Done                     05/03/2018 09:27:36
00013 suncat0264 pw.x -npool 4 -i  Done                     05/03/2018 09:27:36
00014 suncat0264 pw.x -npool 4 -i  Done                     05/03/2018 09:27:36
00015 suncat0264 pw.x -npool 4 -i  Done                     05/03/2018 09:27:36
00016 suncat0209 pw.x -npool 4 -i  Done                     05/03/2018 09:27:36
00017 suncat0209 pw.x -npool 4 -i  Done                     05/03/2018 09:27:36
00018 suncat0209 pw.x -npool 4 -i  Done                     05/03/2018 09:27:36
00019 suncat0209 pw.x -npool 4 -i  Done                     05/03/2018 09:27:36
00020 suncat0209 pw.x -npool 4 -i  Done                     05/03/2018 09:27:36
00021 suncat0209 pw.x -npool 4 -i  Done                     05/03/2018 09:27:36
00022 suncat0209 pw.x -npool 4 -i  Done                     05/03/2018 09:27:36
00023 suncat0209 pw.x -npool 4 -i  Done                     05/03/2018 09:27:36
00024 suncat0208 pw.x -npool 4 -i  Done                     05/03/2018 09:27:36
00025 suncat0208 pw.x -npool 4 -i  Done                     05/03/2018 09:27:36
00026 suncat0208 pw.x -npool 4 -i  Done                     05/03/2018 09:27:36
00027 suncat0208 pw.x -npool 4 -i  Done                     05/03/2018 09:27:36
00028 suncat0208 pw.x -npool 4 -i  Done                     05/03/2018 09:27:36
00029 suncat0208 pw.x -npool 4 -i  Done                     05/03/2018 09:27:36
00030 suncat0208 pw.x -npool 4 -i  Done                     05/03/2018 09:27:36
00031 suncat0208 pw.x -npool 4 -i  Done                     05/03/2018 09:27:36