     Program PWSCF v.5.1rc2 (svn rev. 11289) starts on  3May2018 at 14:13: 9

     Current dimensions of program PWSCF are:
     Max number of different atomic species (ntypx) = 10
     Max number of k-points (npk) =  40000
     Max angular momentum in pseudopotentials (lmaxx) =  3
     Presently stress not available with electric field

     IMPORTANT: XC functional enforced from input :
     Exchange-correlation      = BEEF-VDW ( 1  4 27 13 2)
     Any further DFT definition will be discarded
     Please, verify this is what you really want

     Subspace diagonalization in iterative solution of the eigenvalue problem:
     a serial algorithm will be used

     bravais-lattice index     =            0
     lattice parameter (alat)  =       1.8897  a.u.
     unit-cell volume          =    6024.3322 (a.u.)^3
     number of atoms/cell      =           13
     number of atomic types    =            2
     number of electrons       =       145.00
     number of Kohn-Sham states=           82
     kinetic-energy cutoff     =      36.7493  Ry
     charge density cutoff     =     367.4932  Ry
     convergence threshold     =      1.0E-05
     mixing beta               =       0.3000
     number of iterations used =           10  plain     mixing
     Exchange-correlation      = BEEF-VDW ( 1  4 27 13 2)
     nstep                     =           50

     celldm(1)=   1.889726  celldm(2)=   0.000000  celldm(3)=   0.000000
     celldm(4)=   0.000000  celldm(5)=   0.000000  celldm(6)=   0.000000

     crystal axes: (cart. coord. in units of alat)
               a(1) = (   6.393197   0.000000   0.000000 )
               a(2) = (   3.196599   5.536671   0.000000 )
               a(3) = (   0.000000   0.000000  25.220024 )

     reciprocal axes: (cart. coord. in units 2 pi/alat)
               b(1) = (  0.156416 -0.090307  0.000000 )
               b(2) = (  0.000000  0.180614  0.000000 )
               b(3) = (  0.000000  0.000000  0.039651 )

     PseudoPot. # 1 for Hf read from file:
     /u/if/mamunm/psp/gbrv1.5pbe/Hf.UPF
     MD5 check sum: 8ee9378dfe14276e333edf04c5e4aa26
     Pseudo is Ultrasoft + core correction, Zval = 12.0
     Generated by new atomic code, or converted to UPF format
     Using radial grid of  921 points,  8 beta functions with:
                l(1) =   0
                l(2) =   0
                l(3) =   0
                l(4) =   1
                l(5) =   1
                l(6) =   2
                l(7) =   2
                l(8) =   3
     Q(r) pseudized with  6 coefficients,  rinner =    1.200   1.200   1.200
                                                       1.200   1.200   1.200
                                                       1.200

     PseudoPot. # 2 for H  read from file:
     /u/if/mamunm/psp/gbrv1.5pbe/H.UPF
     MD5 check sum: 761ae9a214b05c3daf00ab9f6b793d6f
     Pseudo is Ultrasoft, Zval =  1.0
     Generated by new atomic code, or converted to UPF format
     Using radial grid of  615 points,  2 beta functions with:
                l(1) =   0
                l(2) =   0
     Q(r) pseudized with  8 coefficients,  rinner =    0.700

     vdW kernel table read from file vdW_kernel_table
     MD5 check sum: 095c7af220d748ca6e76c0b4c6cfb241

     atomic species   valence    mass     pseudopotential
        Hf1           12.00   178.49000     Hf( 1.00)
        H1             1.00     1.00800     H ( 1.00)

     No symmetry found

   Cartesian axes

     site n.     atom                  positions (alat units)
         1           Hf1 tau(   1) = (   1.5982993   0.9227785  10.0000000  )
         2           Hf1 tau(   2) = (   4.7948978   0.9227785  10.0000000  )
         3           Hf1 tau(   3) = (   3.1965986   3.6911141  10.0000000  )
         4           Hf1 tau(   4) = (   6.3931971   3.6911141  10.0000000  )
         5           Hf1 tau(   5) = (   6.3931971   1.8455570  12.6100118  )
         6           Hf1 tau(   6) = (   3.1965986   1.8455570  12.6100118  )
         7           Hf1 tau(   7) = (   7.9914964   4.6138926  12.6100118  )
         8           Hf1 tau(   8) = (   4.7948978   4.6138926  12.6100118  )
         9           Hf1 tau(   9) = (   0.0000000   0.0000000  15.2200236  )
        10           Hf1 tau(  10) = (   3.1965986   0.0000000  15.2200236  )
        11           Hf1 tau(  11) = (   1.5982993   2.7683356  15.2200236  )
        12           Hf1 tau(  12) = (   4.7948978   2.7683356  15.2200236  )
        13           H1  tau(  13) = (   3.1965986   1.8455570  16.5590236  )

     number of k points=    20  Fermi-Dirac smearing, width (Ry)=  0.0110
                       cart. coord. in units 2pi/alat
        k(    1) = (   0.0000000   0.0000000   0.0000000), wk =   0.0555556
        k(    2) = (   0.0000000   0.0301023   0.0000000), wk =   0.1111111
        k(    3) = (   0.0000000   0.0602046   0.0000000), wk =   0.1111111
        k(    4) = (   0.0000000  -0.0903070   0.0000000), wk =   0.0555556
        k(    5) = (   0.0260694  -0.0150512   0.0000000), wk =   0.1111111
        k(    6) = (   0.0260694   0.0150512   0.0000000), wk =   0.1111111
        k(    7) = (   0.0260694   0.0451535   0.0000000), wk =   0.1111111
        k(    8) = (   0.0260694  -0.1053581   0.0000000), wk =   0.1111111
        k(    9) = (   0.0260694  -0.0752558   0.0000000), wk =   0.1111111
        k(   10) = (   0.0260694  -0.0451535   0.0000000), wk =   0.1111111
        k(   11) = (   0.0521388  -0.0301023   0.0000000), wk =   0.1111111
        k(   12) = (   0.0521388   0.0000000   0.0000000), wk =   0.1111111
        k(   13) = (   0.0521388   0.0301023   0.0000000), wk =   0.1111111
        k(   14) = (   0.0521388  -0.1204093   0.0000000), wk =   0.1111111
        k(   15) = (   0.0521388  -0.0903070   0.0000000), wk =   0.1111111
        k(   16) = (   0.0521388  -0.0602046   0.0000000), wk =   0.1111111
        k(   17) = (  -0.0782081   0.0451535   0.0000000), wk =   0.0555556
        k(   18) = (  -0.0782081   0.0752558   0.0000000), wk =   0.1111111
        k(   19) = (  -0.0782081   0.1053581   0.0000000), wk =   0.1111111
        k(   20) = (  -0.0782081  -0.0451535   0.0000000), wk =   0.0555556

     Largest allocated arrays     est. size (Mb)     dimensions
     Largest temporary arrays     est. size (Mb)     dimensions

     Check: negative/imaginary core charge=   -0.000003    0.000000

     Initial potential from superposition of free atoms
     Check: negative starting charge=   -1.301377

     starting charge  120.99997, renormalised to  145.00000

     negative rho (up, down):  1.560E+00 0.000E+00

     *
     * You are using vdW-DF for exchange-correlation in this calculation.
     * Please cite the following three references that made this development
     * possible:
     *
     *   M. Dion, H. Rydberg, E. Schroder, D. C. Langreth, and
     *   B. I. Lundqvist, Phys. Rev. Lett. 92, 246401 (2004).
     *
     *   T. Thonhauser, V. R. Cooper, S. Li, A. Puzder, P. Hyldgaard, and
     *   D. C. Langreth, Phys. Rev. B 76, 125112 (2007).
     *
     *   G. Roman-Perez and J. M. Soler, Phys. Rev. Lett. 103, 096102 (2009).
     *
     *
     * If you are using vdW-DF2, please also cite:
     *
     *   K. Lee, E. D. Murray, L. Kong, B. I. Lundqvist, and
     *   D. C. Langreth, Phys. Rev. B 82, 081101(R) (2010).
     *
     *
     * If you are calculating the stress with vdW-DF, please also cite:
     *
     *   R. Sabatini, E. Kucukbenli, B. Kolb, T. Thonhauser, and
     *   S. de Gironcoli, J. Phys.: Condens. Matter 24, 424209 (2012).
     *

     Carrying out vdW-DF run using the following parameters:

     Nqs =      20    Nr_points =    1024   r_max =   100.000
     q_mesh =
               0.00001000     0.04494208     0.09755937     0.15916263
               0.23128650     0.31572767     0.41458969     0.53033537
               0.66584808     0.82450364     1.01025438     1.22772762
               1.48234092     1.78043706     2.12944203     2.53805004
               3.01644009     3.57652955     4.23227104     5.00000000

     Gradients computed in reciprocal space

     Adding external electric field

     Computed dipole along edir(3) :
        Dipole               -1.4801 Ry au,         -3.7620 Debye
        Dipole field         -0.0031 Ry au

        Potential amp.        0.2869 Ry
        Total length         46.4675 bohr

     Starting wfc are  157 randomized atomic wfcs

     Self-consistent Calculation

     iteration #  1     ecut=    36.75 Ry     beta=0.30
     Davidson diagonalization with overlap
     ethr =  1.00E-02,  avg # of iterations =  7.9

[...]

     total energy              =   -1784.26166241 Ry
     Harris-Foulkes estimate   =   -1939.55614484 Ry
     estimated scf accuracy    <     331.93142334 Ry

[...]

     End of self-consistent calculation

          k = 0.0000 0.0000 0.0000 ( 22729 PWs)   bands (ev):

   -61.3082 -61.3076 -61.2760 -61.2758 -61.2699 -61.2663 -61.2516 -61.2507
   -60.8851 -60.8525 -60.8521 -60.8497 -30.0659 -30.0640 -30.0639 -30.0354
   -30.0351 -30.0313 -29.9918 -29.9087 -29.8901 -29.8899 -29.8782 -29.8161
   -29.8020 -29.8016 -29.6482 -29.6463 -29.6462 -29.6352 -29.6350 -29.6180
   -29.5823 -29.5821 -29.5795 -29.5179 -29.5179 -29.5011 -29.5011 -29.3379
   -29.3314 -29.3311 -29.3265 -29.2492 -29.2427 -29.2426 -29.1232 -29.1232
    -5.2856  -4.2413  -2.9747  -2.1417  -1.7018  -1.7017  -1.6758  -1.4413
    -1.4413  -1.2667  -1.0404  -1.0404  -0.5043  -0.3741  -0.3697  -0.3697
     0.3720   0.3721   0.5519   1.3297   1.3991   1.6648   1.6810   1.6811
     1.7723   1.8009   1.8010   2.2022   2.3025   2.4169   2.4170   2.5407
     2.5994   2.5995

[...]

          k =-0.0782 0.0452 0.0000 ( 22668 PWs)   bands (ev):

[...]

     the Fermi energy is     1.3265 ev

!    total energy              =   -1927.85608012 Ry
     Harris-Foulkes estimate   =   -1927.85608520 Ry
     estimated scf accuracy    <       0.00000658 Ry

     The total energy is the sum of the following terms:

     one-electron contribution =   -8343.00212145 Ry
     hartree contribution      =    4154.16285133 Ry
     xc contribution           =    -928.38035872 Ry
     ewald contribution        =    3189.48318788 Ry
     electric field correction =       0.00000081 Ry
     smearing contrib. (-TS)   =      -0.11963997 Ry

     convergence has been achieved in  27 iterations

 BEEF-vdW xc energy contributions
           1 :   -839.603819639020
           2 :    780.425730665314
           3 :   -675.504354165756
           4 :    546.496605505709
           5 :   -415.876649484373
           6 :    300.583184777994
           7 :   -209.209996383877
           8 :    142.907803914817
           9 :   -98.4440870901432
          10 :    71.1927141481769
          11 :   -56.6938911708827
          12 :    50.7240668405457
          13 :   -48.8648228789651
          14 :    46.5714736267345
          15 :   -40.0963511586544
          16 :    27.7470864607957
          17 :   -10.6162639192138
          18 :   -7.83806547393067
          19 :    23.2637936599945
          20 :   -32.2358482561445
          21 :    33.5246084590267
          22 :   -28.2840890697130
          23 :    19.2415086655407
          24 :   -9.48359683644719
          25 :    1.49364415368075
          26 :    3.21840091874799
          27 :   -4.01745702537880
          28 :   0.936083436881404
          29 :    5.36416453248842
          30 :   -13.4999528231443
          31 :   -60.2486118009023
          32 :   -43.3165012751003

     Forces acting on atoms (Ry/au):

     negative rho (up, down):  1.379E+00 0.000E+00
     atom    1 type  1   force =     0.00041928    0.00025871    0.02298477
     atom    2 type  1   force =    -0.00042022    0.00021277    0.02299161
     atom    3 type  1   force =    -0.00003695   -0.00048254    0.02300219
     atom    4 type  1   force =     0.00004262    0.00000701    0.02295185
     atom    5 type  1   force =     0.00009407    0.00275626   -0.00243783
     atom    6 type  1   force =    -0.00009964   -0.00002201    0.00000737
     atom    7 type  1   force =    -0.00240266   -0.00142184   -0.00239321
     atom    8 type  1   force =     0.00240331   -0.00131106   -0.00246142
     atom    9 type  1   force =    -0.00003618   -0.00000041   -0.02976634
     atom   10 type  1   force =     0.00003636    0.01851321   -0.00873273
     atom   11 type  1   force =     0.01603361   -0.00923656   -0.00875282
     atom   12 type  1   force =    -0.01602679   -0.00927037   -0.00864256
     atom   13 type  2   force =    -0.00000681   -0.00000317   -0.02875086

     Total force =     0.054481     Total SCF correction =     0.001174

     entering subroutine stress ...

     negative rho (up, down):  1.379E+00 0.000E+00
          total   stress  (Ry/bohr**3)                   (kbar)     P=  -25.81
  -0.00016966  -0.00000000   0.00000000        -24.96     -0.00      0.00
  -0.00000000  -0.00016966  -0.00000000         -0.00    -24.96     -0.00
   0.00000000  -0.00000000  -0.00018704          0.00     -0.00    -27.51

     BFGS Geometry Optimization

     number of scf cycles    =   1
     number of bfgs steps    =   0

     energy   new            =   -1927.8560801196 Ry

     new trust radius        =       0.0297663598 bohr
     new conv_thr            =       0.0000099958 Ry

ATOMIC_POSITIONS (crystal)
Hf1      0.166666667   0.166666667   0.396510335    0   0   0
Hf1      0.666666667   0.166666667   0.396510335    0   0   0
Hf1      0.166666667   0.666666667   0.396510335    0   0   0
Hf1      0.666666667   0.666666667   0.396510335    0   0   0
Hf1      0.833333333   0.333333333   0.500000000    0   0   0
Hf1      0.333333333   0.333333333   0.500000000    0   0   0
Hf1      0.833333333   0.833333333   0.500000000    0   0   0
Hf1      0.333333333   0.833333333   0.500000000    0   0   0
Hf1     -0.000002975  -0.000000039   0.602865095
Hf1      0.499118294   0.001769433   0.603306431
Hf1      0.001768533   0.499117200   0.603306010
Hf1      0.499116448   0.499113968   0.603308323
H1       0.333332921   0.333333031   0.655979136

     Writing output data file calc.save
     Check: negative starting charge=   -1.301377
     NEW-OLD atomic charge density approx. for the potential

     Check: negative/imaginary core charge=   -0.000003    0.000000
     Check: negative starting charge=   -1.301465

[...]

     iteration # 10     ecut=    36.75 Ry     beta=0.30
     Davidson diagonalization with overlap
     c_bands:  1 eigenvalues not converged
     ethr =  4.76E-08,  avg # of iterations =  1.9

[...]

     Total force =     0.050877     Total SCF correction =     0.011229
     SCF correction compared to forces is large: reduce conv_thr to get better values

[...]

     energy   old            =   -1927.8560801196 Ry
     energy   new            =   -1927.8590254161 Ry

     CASE: energy  _new < energy  _old

     WARNING: bfgs curvature condition failed, Theta= 0.858
     new trust radius        =       0.0446495397 bohr
     new conv_thr            =       0.0000001000 Ry

[...]

     iteration #  1     ecut=    36.75 Ry     beta=0.30
     Davidson diagonalization with overlap
     c_bands:  1 eigenvalues not converged
     c_bands:  1 eigenvalues not converged
     c_bands:  1 eigenvalues not converged
     ethr =  1.00E-06,  avg # of iterations = 16.5

[...]

     WARNING: bfgs curvature condition failed, Theta= 0.921
     new trust radius        =       0.0162131755 bohr
     new conv_thr            =       0.0000001000 Ry

[...]

     Total force =     0.007458     Total SCF correction =     0.000568

[...]

     number of scf cycles    =  15
     number of bfgs steps    =  14

     energy   old            =   -1927.8811044085 Ry
     energy   new            =   -1927.8811614277 Ry

     CASE: energy  _new < energy  _old

     new trust radius        =       0.0152085273 bohr
     new conv_thr            =       0.0000001000 Ry

ATOMIC_POSITIONS (crystal)
Hf1      0.166666667   0.166666667   0.396510335    0   0   0
Hf1      0.666666667   0.166666667   0.396510335    0   0   0
Hf1      0.166666667   0.666666667   0.396510335    0   0   0
Hf1      0.666666667   0.666666667   0.396510335    0   0   0
Hf1      0.833333333   0.333333333   0.500000000    0   0   0
Hf1      0.333333333   0.333333333   0.500000000    0   0   0
Hf1      0.833333333   0.833333333   0.500000000    0   0   0
Hf1      0.333333333   0.833333333   0.500000000    0   0   0
Hf1     -0.000002733  -0.000000110   0.595472683
Hf1      0.495925524   0.008154985   0.597593545
Hf1      0.008154971   0.495924334   0.597593279
Hf1      0.495923520   0.495921340   0.597594109
H1       0.333327464   0.333330982   0.641898535

     Writing output data file calc.save
     Check: negative starting charge=   -1.298478
     NEW-OLD atomic charge density approx. for the potential

     Check: negative/imaginary core charge=   -0.000003    0.000000
     Check: negative starting charge=   -1.298204

[...]

     Self-consistent Calculation

[...]

     total energy              =   -1927.88124712 Ry
     Harris-Foulkes estimate   =   -1927.88124713 Ry
     estimated scf accuracy    <       0.00000062 Ry

     iteration # 11     ecut=    36.75 Ry     beta=0.30
     Davidson diagonalization with overlap
     ethr =  4.28E-10,  avg # of iterations =  4.5

[...]

     negative rho (up, down):  1.374E+00 0.000E+00

     Adding external electric field

     Computed dipole along edir(3) :
        Dipole                0.0247 Ry au,          0.0629 Debye
        Dipole field          0.0001 Ry au

        Potential amp.       -0.0048 Ry
        Total length         46.4675 bohr

     End of self-consistent calculation

[...]

          k = 0.0521-0.0602 0.0000 ( 22643 PWs)   bands (ev):

[...]

          k =-0.0782-0.0452 0.0000 ( 22668 PWs)   bands (ev):

   -61.2709 -61.2680 -61.2538 -61.2494 -61.1373 -61.1270 -61.1165 -61.1008
   -60.7305 -60.7239 -60.7139 -60.6810 -29.9402 -29.9350 -29.8910 -29.8858
   -29.8633 -29.8403 -29.8272 -29.8251 -29.8064 -29.7948 -29.7599 -29.7587
   -29.7506 -29.7497 -29.7161 -29.7138 -29.7053 -29.6482 -29.6338 -29.6066
   -29.5619 -29.5571 -29.4564 -29.4355 -29.3581 -29.3563 -29.2481 -29.2314
   -29.2221 -29.1958 -29.1860 -29.1799 -29.1754 -29.1418 -29.0529 -29.0439
    -4.3491  -3.5956  -3.2808  -2.3472  -1.9077  -1.3439  -1.3430  -1.0230
    -0.7667  -0.7641  -0.6376   0.1236   0.2014   0.2900   0.2935   0.4424
     0.5126   0.5764   0.6697   0.8160   0.8245   0.8877   1.0135   1.0501
     1.1692   1.2008   1.3032   1.3194   1.4529   1.4926   1.6822   1.7389
     1.9893   2.2634

     the Fermi energy is     1.3430 ev

!    total energy              =   -1927.88124714 Ry
     Harris-Foulkes estimate   =   -1927.88124709 Ry
     estimated scf accuracy    <       0.00000004 Ry

     The total energy is the sum of the following terms:

     one-electron contribution =   -8549.02648213 Ry
     hartree contribution      =    4257.68764702 Ry
     xc contribution           =    -928.72390705 Ry
     ewald contribution        =    3292.29668131 Ry
     electric field correction =       0.00000128 Ry
     smearing contrib. (-TS)   =      -0.11518757 Ry

     convergence has been achieved in  11 iterations

 BEEF-vdW xc energy contributions
           1 :   -839.948193453848
           2 :    780.868726461892
           3 :   -676.031298423758
           4 :    546.967505052872
           5 :   -416.122406716305
           6 :    300.531544665314
           7 :   -208.943575356202
           8 :    142.612013225662
           9 :   -98.2857999346334
          10 :    71.2185737275616
          11 :   -56.8163937451443
          12 :    50.7988968604183
          13 :   -48.7995814212750
          14 :    46.3894259007734
          15 :   -39.9138290987154
          16 :    27.6831837957142
          17 :   -10.7006474808788
          18 :   -7.69260160015028
          19 :    23.2018798366012
          20 :   -32.3535726826262
          21 :    33.7942854936915
          22 :   -28.5673600631703
          23 :    19.3850088459942
          24 :   -9.42722951774374
          25 :    1.31157123722232
          26 :    3.37531615563694
          27 :   -4.03457918592574
          28 :   0.817213770854323
          29 :    5.50745412107358
          30 :   -13.5417240442159
          31 :   -60.2736338796828
          32 :   -43.3565665270241

     Forces acting on atoms (Ry/au):

     negative rho (up, down):  1.374E+00 0.000E+00
     atom    1 type  1   force =    -0.00031696   -0.00018318    0.01882474
     atom    2 type  1   force =     0.00031702   -0.00018283    0.01882470
     atom    3 type  1   force =     0.00000035    0.00036604    0.01882473
     atom    4 type  1   force =    -0.00000033   -0.00000000    0.01800909
     atom    5 type  1   force =    -0.00000131    0.00487363   -0.01730513
     atom    6 type  1   force =     0.00000194    0.00000012   -0.02450071
     atom    7 type  1   force =    -0.00422051   -0.00243601   -0.01730944
     atom    8 type  1   force =     0.00422044   -0.00243746   -0.01730235
     atom    9 type  1   force =     0.00000180   -0.00000021    0.00125184
     atom   10 type  1   force =    -0.00000297    0.00093399    0.00077762
     atom   11 type  1   force =     0.00080733   -0.00046825    0.00077848
     atom   12 type  1   force =    -0.00081134   -0.00046726    0.00077658
     atom   13 type  2   force =     0.00000454    0.00000142   -0.00165015

     Total force =     0.002954     Total SCF correction =     0.000304
     SCF correction compared to forces is large: reduce conv_thr to get better values

     entering subroutine stress ...

     negative rho (up, down):  1.374E+00 0.000E+00
          total   stress  (Ry/bohr**3)                   (kbar)     P=  -17.33
  -0.00013448  -0.00000000   0.00000000        -19.78     -0.00      0.00
  -0.00000000  -0.00013448   0.00000000         -0.00    -19.78      0.00
   0.00000000   0.00000000  -0.00008437          0.00      0.00    -12.41

     bfgs converged in  16 scf cycles and  15 bfgs steps
     (criteria: energy <  1.0E+00, force <  1.9E-03)

     End of BFGS Geometry Optimization

     Final energy   =   -1927.8812471424 Ry
Begin final coordinates

ATOMIC_POSITIONS (crystal)
Hf1      0.166666667   0.166666667   0.396510335    0   0   0
Hf1      0.666666667   0.166666667   0.396510335    0   0   0
Hf1      0.166666667   0.666666667   0.396510335    0   0   0
Hf1      0.666666667   0.666666667   0.396510335    0   0   0
Hf1      0.833333333   0.333333333   0.500000000    0   0   0
Hf1      0.333333333   0.333333333   0.500000000    0   0   0
Hf1      0.833333333   0.833333333   0.500000000    0   0   0
Hf1      0.333333333   0.833333333   0.500000000    0   0   0
Hf1     -0.000002733  -0.000000110   0.595472683
Hf1      0.495925524   0.008154985   0.597593545
Hf1      0.008154971   0.495924334   0.597593279
Hf1      0.495923520   0.495921340   0.597594109
H1       0.333327464   0.333330982   0.641898535
End final coordinates

     Writing output data file calc.save

     General routines

     Parallel routines

   This run was terminated on:  17:53:55   3May2018

   JOB DONE.
Job  /afs/slac/g/suncat/bin/suncat-tsmpirun -x LD_LIBRARY_PATH -wdir /scratch/qe769042_F0SdJ pw.x -npool 4 -in pw.inp

TID   HOST_NAME   COMMAND_LINE            STATUS            TERMINATION_TIME
00000 suncat0091 pw.x -npool 4 -i  Done                     05/03/2018 17:53:55
00001 suncat0091 pw.x -npool 4 -i  Done                     05/03/2018 17:53:55
00002 suncat0091 pw.x -npool 4 -i  Done                     05/03/2018 17:53:55
00003 suncat0091 pw.x -npool 4 -i  Done                     05/03/2018 17:53:55
00004 suncat0091 pw.x -npool 4 -i  Done                     05/03/2018 17:53:55
00005 suncat0091 pw.x -npool 4 -i  Done                     05/03/2018 17:53:55
00006 suncat0091 pw.x -npool 4 -i  Done                     05/03/2018 17:53:55
00007 suncat0091 pw.x -npool 4 -i  Done                     05/03/2018 17:53:55
00008 suncat0090 pw.x -npool 4 -i  Done                     05/03/2018 17:53:55
00009 suncat0090 pw.x -npool 4 -i  Done                     05/03/2018 17:53:55
00010 suncat0090 pw.x -npool 4 -i  Done                     05/03/2018 17:53:55
00011 suncat0090 pw.x -npool 4 -i  Done                     05/03/2018 17:53:55
00012 suncat0090 pw.x -npool 4 -i  Done                     05/03/2018 17:53:55
00013 suncat0090 pw.x -npool 4 -i  Done                     05/03/2018 17:53:55
00014 suncat0090 pw.x -npool 4 -i  Done                     05/03/2018 17:53:55
00015 suncat0090 pw.x -npool 4 -i  Done                     05/03/2018 17:53:55
00016 suncat0087 pw.x -npool 4 -i  Done                     05/03/2018 17:53:55
00017 suncat0087 pw.x -npool 4 -i  Done                     05/03/2018 17:53:55
00018 suncat0087 pw.x -npool 4 -i  Done                     05/03/2018 17:53:55
00019 suncat0087 pw.x -npool 4 -i  Done                     05/03/2018 17:53:55
00020 suncat0087 pw.x -npool 4 -i  Done                     05/03/2018 17:53:55
00021 suncat0087 pw.x -npool 4 -i  Done                     05/03/2018 17:53:55
00022 suncat0087 pw.x -npool 4 -i  Done                     05/03/2018 17:53:55
00023 suncat0087 pw.x -npool 4 -i  Done                     05/03/2018 17:53:55
00024 suncat0086 pw.x -npool 4 -i  Done                     05/03/2018 17:53:55
00025 suncat0086 pw.x -npool 4 -i  Done                     05/03/2018 17:53:55
00026 suncat0086 pw.x -npool 4 -i  Done                     05/03/2018 17:53:55
00027 suncat0086 pw.x -npool 4 -i  Done                     05/03/2018 17:53:55
00028 suncat0086 pw.x -npool 4 -i  Done                     05/03/2018 17:53:55
00029 suncat0086 pw.x -npool 4 -i  Done                     05/03/2018 17:53:55
00030 suncat0086 pw.x -npool 4 -i  Done                     05/03/2018 17:53:55
00031 suncat0086 pw.x -npool 4 -i  Done                     05/03/2018 17:53:55