     Program PWSCF v.5.1rc2 (svn rev. 11289) starts on  3May2018 at  9:12:26

     Current dimensions of program PWSCF are:
     Max number of different atomic species (ntypx) = 10
     Max number of k-points (npk) =  40000
     Max angular momentum in pseudopotentials (lmaxx) =  3
     Presently stress not available with electric field

     IMPORTANT: XC functional enforced from input :
     Exchange-correlation      = BEEF-VDW ( 1  4 27 13 2)
     Any further DFT definition will be discarded
     Please, verify this is what you really want

     Subspace diagonalization in iterative solution of the eigenvalue problem:
     a serial algorithm will be used

     bravais-lattice index     =            0
     lattice parameter (alat)  =       1.8897  a.u.
     unit-cell volume          =    5182.3421 (a.u.)^3
     number of atoms/cell      =           13
     number of atomic types    =            2
     number of electrons       =       157.00
     number of Kohn-Sham states=           88
     kinetic-energy cutoff     =      36.7493  Ry
     charge density cutoff     =     367.4932  Ry
     convergence threshold     =      1.0E-05
     mixing beta               =       0.3000
     number of iterations used =           10  plain     mixing
     Exchange-correlation      = BEEF-VDW ( 1  4 27 13 2)
     nstep                     =           50

     celldm(1)=   1.889726  celldm(2)=   0.000000  celldm(3)=   0.000000
     celldm(4)=   0.000000  celldm(5)=   0.000000  celldm(6)=   0.000000

     crystal axes: (cart. coord. in units of alat)
               a(1) = (   5.970602   0.000000   0.000000 )
               a(2) = (   2.985301   5.170693   0.000000 )
               a(3) = (   0.000000   0.000000  24.874976 )

     reciprocal axes: (cart. coord. in units 2 pi/alat)
               b(1) = (  0.167487 -0.096699  0.000000 )
               b(2) = (  0.000000  0.193398  0.000000 )
               b(3) = (  0.000000  0.000000  0.040201 )

     PseudoPot. # 1 for Nb read from file:
     /u/if/mamunm/psp/gbrv1.5pbe/Nb.UPF
     MD5 check sum: 573aab8a2fa660278ed4a62cd769473f
     Pseudo is Ultrasoft + core correction, Zval = 13.0
     Generated by new atomic code, or converted to UPF format
     Using radial grid of  887 points,  6 beta functions with:
                l(1) =   0
                l(2) =   0
                l(3) =   1
                l(4) =   1
                l(5) =   2
                l(6) =   2
     Q(r) pseudized with  6 coefficients,  rinner =    1.000   1.000   1.000
                                                       1.000   1.000

     PseudoPot. # 2 for H  read from file:
     /u/if/mamunm/psp/gbrv1.5pbe/H.UPF
     MD5 check sum: 761ae9a214b05c3daf00ab9f6b793d6f
     Pseudo is Ultrasoft, Zval =  1.0
     Generated by new atomic code, or converted to UPF format
     Using radial grid of  615 points,  2 beta functions with:
                l(1) =   0
                l(2) =   0
     Q(r) pseudized with  8 coefficients,  rinner =    0.700

     vdW kernel table read from file vdW_kernel_table
     MD5 check sum: 095c7af220d748ca6e76c0b4c6cfb241

     atomic species   valence    mass     pseudopotential
        Nb1           13.00    92.90637     Nb( 1.00)
        H1             1.00     1.00800     H ( 1.00)

     No symmetry found

   Cartesian axes

     site n.     atom                  positions (alat units)
         1           Nb1 tau(   1) = (   1.4926504   0.8617821  10.0000000  )
         2           Nb1 tau(   2) = (   4.4779512   0.8617821  10.0000000  )
         3           Nb1 tau(   3) = (   2.9853008   3.4471284  10.0000000  )
         4           Nb1 tau(   4) = (   5.9706016   3.4471284  10.0000000  )
         5           Nb1 tau(   5) = (   5.9706016   1.7235642  12.4374879  )
         6           Nb1 tau(   6) = (   2.9853008   1.7235642  12.4374879  )
         7           Nb1 tau(   7) = (   7.4632520   4.3089105  12.4374879  )
         8           Nb1 tau(   8) = (   4.4779512   4.3089105  12.4374879  )
         9           Nb1 tau(   9) = (   0.0000000   0.0000000  14.8749758  )
        10           Nb1 tau(  10) = (   2.9853008   0.0000000  14.8749758  )
        11           Nb1 tau(  11) = (   1.4926504   2.5853463  14.8749758  )
        12           Nb1 tau(  12) = (   4.4779512   2.5853463  14.8749758  )
        13           H1  tau(  13) = (   1.4926504   0.8617821  16.1424758  )

     number of k points=    20  Fermi-Dirac smearing, width (Ry)=  0.0110
                       cart. coord. in units 2pi/alat
        k(    1) = (   0.0000000   0.0000000   0.0000000), wk =   0.0555556
        k(    2) = (   0.0000000   0.0322329   0.0000000), wk =   0.1111111
        k(    3) = (   0.0000000   0.0644659   0.0000000), wk =   0.1111111
        k(    4) = (   0.0000000  -0.0966988   0.0000000), wk =   0.0555556
        k(    5) = (   0.0279146  -0.0161165   0.0000000), wk =   0.1111111
        k(    6) = (   0.0279146   0.0161165   0.0000000), wk =   0.1111111
        k(    7) = (   0.0279146   0.0483494   0.0000000), wk =   0.1111111
        k(    8) = (   0.0279146  -0.1128153   0.0000000), wk =   0.1111111
        k(    9) = (   0.0279146  -0.0805824   0.0000000), wk =   0.1111111
        k(   10) = (   0.0279146  -0.0483494   0.0000000), wk =   0.1111111
        k(   11) = (   0.0558291  -0.0322329   0.0000000), wk =   0.1111111
        k(   12) = (   0.0558291   0.0000000   0.0000000), wk =   0.1111111
        k(   13) = (   0.0558291   0.0322329   0.0000000), wk =   0.1111111
        k(   14) = (   0.0558291  -0.1289318   0.0000000), wk =   0.1111111
        k(   15) = (   0.0558291  -0.0966988   0.0000000), wk =   0.1111111
        k(   16) = (   0.0558291  -0.0644659   0.0000000), wk =   0.1111111
        k(   17) = (  -0.0837437   0.0483494   0.0000000), wk =   0.0555556
        k(   18) = (  -0.0837437   0.0805824   0.0000000), wk =   0.1111111
        k(   19) = (  -0.0837437   0.1128153   0.0000000), wk =   0.1111111
        k(   20) = (  -0.0837437  -0.0483494   0.0000000), wk =   0.0555556

     Largest allocated arrays     est. size (Mb)     dimensions
     Largest temporary arrays     est. size (Mb)     dimensions

     Initial potential from superposition of free atoms
     Check: negative starting charge=   -0.005247

     starting charge  156.96719, renormalised to  157.00000

     negative rho (up, down):  5.248E-03 0.000E+00

     *
     * You are using vdW-DF for exchange-correlation in this calculation.
     * Please cite the following three references that made this development
     * possible:
     *
     *   M. Dion, H. Rydberg, E. Schroder, D. C. Langreth, and
     *   B. I. Lundqvist, Phys. Rev. Lett. 92, 246401 (2004).
     *
     *   T. Thonhauser, V. R. Cooper, S. Li, A. Puzder, P. Hyldgaard, and
     *   D. C. Langreth, Phys. Rev. B 76, 125112 (2007).
     *
     *   G. Roman-Perez and J. M. Soler, Phys. Rev. Lett. 103, 096102 (2009).
     *
     *
     * If you are using vdW-DF2, please also cite:
     *
     *   K. Lee, E. D. Murray, L. Kong, B. I. Lundqvist, and
     *   D. C. Langreth, Phys. Rev. B 82, 081101(R) (2010).
     *
     *
     * If you are calculating the stress with vdW-DF, please also cite:
     *
     *   R. Sabatini, E. Kucukbenli, B. Kolb, T. Thonhauser, and
     *   S. de Gironcoli, J. Phys.: Condens. Matter 24, 424209 (2012).
     *

     Carrying out vdW-DF run using the following parameters:

     Nqs =      20    Nr_points =    1024   r_max =   100.000
     q_mesh =
               0.00001000     0.04494208     0.09755937     0.15916263
               0.23128650     0.31572767     0.41458969     0.53033537
               0.66584808     0.82450364     1.01025438     1.22772762
               1.48234092     1.78043706     2.12944203     2.53805004
               3.01644009     3.57652955     4.23227104     5.00000000

     Gradients computed in reciprocal space

     Adding external electric field

     Computed dipole along edir(3) :
        Dipole               -0.0014 Ry au,         -0.0036 Debye
        Dipole field         -0.0000 Ry au

        Potential amp.        0.0003 Ry
        Total length         45.8317 bohr

     Starting wfc are  157 randomized atomic wfcs

     Self-consistent Calculation

     iteration #  1     ecut=    36.75 Ry     beta=0.30
     Davidson diagonalization with overlap
     ethr =  1.00E-02,  avg # of iterations =  2.0

[...]

     total energy              =   -1421.38371226 Ry
     Harris-Foulkes estimate   =   -1423.85553430 Ry
     estimated scf accuracy    <       5.47336355 Ry

[...]

     End of self-consistent calculation

          k = 0.0000 0.0000 0.0000 ( 19435 PWs)   bands (ev):

   -53.2689 -53.2219 -53.1224 -53.1223 -53.1223 -53.1133 -53.0922 -53.0921
   -53.0889 -53.0384 -53.0384 -53.0105 -29.7095 -29.6965 -29.6965 -29.6497
   -29.6369 -29.6264 -29.6264 -29.5851 -29.5749 -29.5748 -29.3161 -29.1895
   -29.1894 -29.1843 -29.1298 -29.1297 -29.1243 -29.0023 -29.0022 -28.9994
   -28.9246 -28.9246 -28.9161 -28.9118 -28.9118 -28.8898 -28.8357 -28.8181
   -28.8181 -28.8180 -28.7616 -28.7616 -28.7194 -28.7194 -28.6526 -28.6526
    -3.8747  -3.0735  -2.0419  -1.6905  -1.6590  -1.6546  -1.6546  -1.3506
    -1.3506  -1.1892  -0.9636  -0.9636  -0.9168  -0.8695  -0.8694  -0.3438
     0.2281   0.2281   0.7986   1.2411   1.2854   1.2854   1.4156   1.6104
     1.9932   1.9932   2.1320   2.2311   2.2311   2.2488   2.2488   2.3238
     2.3238   2.3277   2.3809   2.3809   2.4215   2.8967   3.1290   3.1290

[...]

          k =-0.0837 0.0483 0.0000 ( 19524 PWs)   bands (ev):

[...]

     the Fermi energy is     1.8966 ev

!    total energy              =   -1423.36013051 Ry
     Harris-Foulkes estimate   =   -1423.36013179 Ry
     estimated scf accuracy    <       0.00000233 Ry

     The total energy is the sum of the following terms:

     one-electron contribution =  -11456.54756282 Ry
     hartree contribution      =    5720.40971322 Ry
     xc contribution           =    -228.90245550 Ry
     ewald contribution        =    4541.80008083 Ry
     electric field correction =       0.00000242 Ry
     smearing contrib. (-TS)   =      -0.11990865 Ry

     convergence has been achieved in  17 iterations

 BEEF-vdW xc energy contributions
           1 :   -196.285009928210
           2 :    178.501492403156
           3 :   -148.173230521387
           4 :    113.441181071581
           5 :   -82.1589981771035
           6 :    59.2352228545578
           7 :   -45.5728649523717
           8 :    38.7374625289013
           9 :   -34.7870805356929
          10 :    30.2608530609296
          11 :   -23.4844589038161
          12 :    14.7881205330010
          13 :   -5.80012617678079
          14 :   -1.68885323329354
          15 :    6.68402309816520
          16 :   -9.36352287071685
          17 :    10.7849253357482
          18 :   -12.1782491302309
          19 :    14.2402080674971
          20 :   -16.8107414175005
          21 :    19.0596467956825
          22 :   -20.0311888969437
          23 :    19.2067120880349
          24 :   -16.7817653197220
          25 :    13.5385966261636
          26 :   -10.4318664194928
          27 :    8.13460832678504
          28 :   -6.78432314310461
          29 :    6.02988864533583
          30 :   -5.32089785805752
          31 :   -22.6253245554047
          32 :   -17.0976495662241

     Forces acting on atoms (Ry/au):

     negative rho (up, down):  4.884E-03 0.000E+00
     atom    1 type  1   force =     0.00000332    0.00000712   -0.00644592
     atom    2 type  1   force =    -0.00000611    0.00115064   -0.00398997
     atom    3 type  1   force =     0.00099040   -0.00058486   -0.00398924
     atom    4 type  1   force =    -0.00099381   -0.00057788   -0.00397014
     atom    5 type  1   force =     0.00080353   -0.00046816    0.00128535
     atom    6 type  1   force =    -0.00080984   -0.00046426    0.00128125
     atom    7 type  1   force =     0.00000505   -0.00000039   -0.01356340
     atom    8 type  1   force =    -0.00000740    0.00093225    0.00128805
     atom    9 type  1   force =    -0.00059574   -0.00034167    0.01730626
     atom   10 type  1   force =     0.00060672   -0.00033367    0.01730382
     atom   11 type  1   force =     0.00000561    0.00068574    0.01730773
     atom   12 type  1   force =    -0.00000291   -0.00000412   -0.00228057
     atom   13 type  2   force =     0.00000118   -0.00000074   -0.02153321

     Total force =     0.036997     Total SCF correction =     0.003406

     entering subroutine stress ...

     negative rho (up, down):  4.884E-03 0.000E+00
          total   stress  (Ry/bohr**3)                   (kbar)     P=  -21.17
  -0.00023250   0.00000000   0.00000000        -34.20      0.00      0.00
   0.00000000  -0.00023250   0.00000000          0.00    -34.20      0.00
   0.00000000   0.00000000   0.00003333          0.00      0.00      4.90

     BFGS Geometry Optimization

     number of scf cycles    =   1
     number of bfgs steps    =   0

     energy   new            =   -1423.3601305080 Ry

     new trust radius        =       0.0215332115 bohr
     new conv_thr            =       0.0000099958 Ry

ATOMIC_POSITIONS (crystal)
Nb1      0.166666667   0.166666667   0.402010442    0   0   0
Nb1      0.666666667   0.166666667   0.402010442    0   0   0
Nb1      0.166666667   0.666666667   0.402010442    0   0   0
Nb1      0.666666667   0.666666667   0.402010442    0   0   0
Nb1      0.833333333   0.333333333   0.500000000    0   0   0
Nb1      0.333333333   0.333333333   0.500000000    0   0   0
Nb1      0.833333333   0.833333333   0.500000000    0   0   0
Nb1      0.333333333   0.833333333   0.500000000    0   0   0
Nb1     -0.000035317  -0.000034967   0.598357722
Nb1      0.500070848  -0.000034149   0.598357670
Nb1     -0.000034592   0.500070180   0.598357754
Nb1      0.499999953   0.499999578   0.597941042
H1       0.166666809   0.166666591   0.648486295

     Writing output data file calc.save
     Check: negative starting charge=   -0.005247
     NEW-OLD atomic charge density approx. for the potential
     Check: negative starting charge=   -0.005236

[...]

     iteration #  2     ecut=    36.75 Ry     beta=0.30
     Davidson diagonalization with overlap
     c_bands:  2 eigenvalues not converged
     ethr =  2.55E-06,  avg # of iterations =  8.8

[...]

     Total force =     0.032572     Total SCF correction =     0.005589
     SCF correction compared to forces is large: reduce conv_thr to get better values

[...]

     energy   old            =   -1423.3601305080 Ry
     energy   new            =   -1423.3614126154 Ry

     CASE: energy  _new < energy  _old

     WARNING: bfgs curvature condition failed, Theta= 0.910
     new trust radius        =       0.0236865326 bohr
     new conv_thr            =       0.0000001000 Ry

[...]

     iteration #  2     ecut=    36.75 Ry     beta=0.30
     Davidson diagonalization with overlap
     c_bands:  1 eigenvalues not converged
     ethr =  2.49E-06,  avg # of iterations =  9.1

[...]

     Threshold (ethr) on eigenvalues was too large:
     Diagonalizing with lowered threshold

     Davidson diagonalization with overlap
     ethr =  2.86E-08,  avg # of iterations =  6.0

[...]

     Threshold (ethr) on eigenvalues was too large:
     Diagonalizing with lowered threshold

     Davidson diagonalization with overlap
     ethr =  5.83E-08,  avg # of iterations =  3.4

[...]

     Total force =     0.004820     Total SCF correction =     0.000314

[...]

     number of scf cycles    =  13
     number of bfgs steps    =  12

     energy   old            =   -1423.3665719198 Ry
     energy   new            =   -1423.3666287150 Ry

     CASE: energy  _new < energy  _old

     new trust radius        =       0.0294635419 bohr
     new conv_thr            =       0.0000001000 Ry

ATOMIC_POSITIONS (crystal)
Nb1      0.166666667   0.166666667   0.402010442    0   0   0
Nb1      0.666666667   0.166666667   0.402010442    0   0   0
Nb1      0.166666667   0.666666667   0.402010442    0   0   0
Nb1      0.666666667   0.666666667   0.402010442    0   0   0
Nb1      0.833333333   0.333333333   0.500000000    0   0   0
Nb1      0.333333333   0.333333333   0.500000000    0   0   0
Nb1      0.833333333   0.833333333   0.500000000    0   0   0
Nb1      0.333333333   0.833333333   0.500000000    0   0   0
Nb1     -0.004087755  -0.004086646   0.600751582
Nb1      0.508166470  -0.004081261   0.600751038
Nb1     -0.004088640   0.508176199   0.600751623
Nb1      0.499999322   0.500001352   0.593245853
H1       0.166666894   0.166667146   0.643809791

     Writing output data file calc.save
     Check: negative starting charge=   -0.005281
     NEW-OLD atomic charge density approx. for the potential
     Check: negative starting charge=   -0.005269

[...]

     Self-consistent Calculation

[...]

     total energy              =   -1423.36669144 Ry
     Harris-Foulkes estimate   =   -1423.36669150 Ry
     estimated scf accuracy    <       0.00000057 Ry

     iteration # 10     ecut=    36.75 Ry     beta=0.30
     Davidson diagonalization with overlap
     ethr =  3.66E-10,  avg # of iterations =  3.5

[...]

     negative rho (up, down):  4.889E-03 0.000E+00

     Adding external electric field

     Computed dipole along edir(3) :
        Dipole               -0.0097 Ry au,         -0.0248 Debye
        Dipole field         -0.0000 Ry au

        Potential amp.        0.0022 Ry
        Total length         45.8317 bohr

     End of self-consistent calculation

[...]

          k = 0.0558-0.0645 0.0000 ( 19505 PWs)   bands (ev):

[...]

          k =-0.0837-0.0483 0.0000 ( 19524 PWs)   bands (ev):

   -53.1943 -53.1734 -53.1508 -53.1457 -53.1182 -53.0887 -53.0797 -53.0789
   -53.0661 -53.0330 -53.0282 -53.0070 -29.5336 -29.5056 -29.5043 -29.4951
   -29.4944 -29.4846 -29.4127 -29.3899 -29.3511 -29.3420 -29.2994 -29.2845
   -29.2157 -29.1688 -29.1550 -29.1260 -29.1228 -29.1074 -29.0938 -29.0826
   -29.0397 -29.0255 -29.0044 -29.0039 -28.9953 -28.9740 -28.8834 -28.8655
   -28.8591 -28.8351 -28.8207 -28.8093 -28.7934 -28.7785 -28.7227 -28.7162
    -3.2471  -2.0221  -1.9099  -1.0794  -0.8546  -0.6936  -0.6646  -0.5886
    -0.5776  -0.4793  -0.3529  -0.0100   0.0568   0.1686   0.2128   0.2264
     0.3340   0.6259   0.7291   0.7891   0.8110   0.8670   0.9472   1.1649
     1.3599   1.3775   1.4406   1.4982   1.5552   1.6065   1.6681   1.7767
     1.7898   2.0012   2.0096   2.0790   2.1130   2.2285   2.7535   2.8291

     the Fermi energy is     1.9086 ev

!    total energy              =   -1423.36669148 Ry
     Harris-Foulkes estimate   =   -1423.36669147 Ry
     estimated scf accuracy    <       0.00000005 Ry

     The total energy is the sum of the following terms:

     one-electron contribution =  -11425.42136727 Ry
     hartree contribution      =    5704.87024163 Ry
     xc contribution           =    -228.90317954 Ry
     ewald contribution        =    4526.20527984 Ry
     electric field correction =       0.00000023 Ry
     smearing contrib. (-TS)   =      -0.11766636 Ry

     convergence has been achieved in  10 iterations

 BEEF-vdW xc energy contributions
           1 :   -196.285046783257
           2 :    178.492402520937
           3 :   -148.148274479277
           4 :    113.399621981655
           5 :   -82.1061869016339
           6 :    59.1763214907843
           7 :   -45.5074048360298
           8 :    38.6608533373446
           9 :   -34.6963401577245
          10 :    30.1588354220436
          11 :   -23.3813713817900
          12 :    14.6980007136217
          13 :   -5.73216990790235
          14 :   -1.73652201407134
          15 :    6.72396273886199
          16 :   -9.41301142087872
          17 :    10.8568272034230
          18 :   -12.2728380745003
          19 :    14.3430393079892
          20 :   -16.8993563681530
          21 :    19.1158551234865
          22 :   -20.0515844694120
          23 :    19.2052771847912
          24 :   -16.7832770901940
          25 :    13.5659952673618
          26 :   -10.4946712886310
          27 :    8.22456255722761
          28 :   -6.88116498307048
          29 :    6.11431333745500
          30 :   -5.38626650063662
          31 :   -22.6250921688591
          32 :   -17.0945053165795

     Forces acting on atoms (Ry/au):

     negative rho (up, down):  4.889E-03 0.000E+00
     atom    1 type  1   force =    -0.00000114    0.00000072   -0.00513322
     atom    2 type  1   force =     0.00000261    0.00021007   -0.00492262
     atom    3 type  1   force =     0.00018203   -0.00010433   -0.00492501
     atom    4 type  1   force =    -0.00018151   -0.00010676   -0.00492127
     atom    5 type  1   force =     0.01098296   -0.00634213    0.00480202
     atom    6 type  1   force =    -0.01098432   -0.00634192    0.00479654
     atom    7 type  1   force =     0.00000075   -0.00000115    0.00406410
     atom    8 type  1   force =    -0.00000064    0.01268241    0.00479942
     atom    9 type  1   force =     0.00102768    0.00059838    0.00071551
     atom   10 type  1   force =    -0.00102756    0.00059239    0.00071868
     atom   11 type  1   force =    -0.00000487   -0.00118764    0.00071622
     atom   12 type  1   force =     0.00000458   -0.00000083   -0.00061329
     atom   13 type  2   force =    -0.00000057    0.00000079   -0.00009708

     Total force =     0.002482     Total SCF correction =     0.000283
     SCF correction compared to forces is large: reduce conv_thr to get better values

     entering subroutine stress ...

     negative rho (up, down):  4.889E-03 0.000E+00
          total   stress  (Ry/bohr**3)                   (kbar)     P=  -21.71
  -0.00022991  -0.00000000  -0.00000000        -33.82     -0.00     -0.00
  -0.00000000  -0.00022991   0.00000000         -0.00    -33.82      0.00
  -0.00000000   0.00000000   0.00001708         -0.00      0.00      2.51

     bfgs converged in  14 scf cycles and  13 bfgs steps
     (criteria: energy <  1.0E+00, force <  1.9E-03)

     End of BFGS Geometry Optimization

     Final energy   =   -1423.3666914768 Ry
Begin final coordinates

ATOMIC_POSITIONS (crystal)
Nb1      0.166666667   0.166666667   0.402010442    0   0   0
Nb1      0.666666667   0.166666667   0.402010442    0   0   0
Nb1      0.166666667   0.666666667   0.402010442    0   0   0
Nb1      0.666666667   0.666666667   0.402010442    0   0   0
Nb1      0.833333333   0.333333333   0.500000000    0   0   0
Nb1      0.333333333   0.333333333   0.500000000    0   0   0
Nb1      0.833333333   0.833333333   0.500000000    0   0   0
Nb1      0.333333333   0.833333333   0.500000000    0   0   0
Nb1     -0.004087755  -0.004086646   0.600751582
Nb1      0.508166470  -0.004081261   0.600751038
Nb1     -0.004088640   0.508176199   0.600751623
Nb1      0.499999322   0.500001352   0.593245853
H1       0.166666894   0.166667146   0.643809791
End final coordinates

     Writing output data file calc.save

     General routines

     Parallel routines

   This run was terminated on:  10:35:33   3May2018

   JOB DONE.
Job  /afs/slac/g/suncat/bin/suncat-tsmpirun -x LD_LIBRARY_PATH -wdir /scratch/qe700038_sF26v pw.x -npool 4 -in pw.inp

TID   HOST_NAME   COMMAND_LINE            STATUS            TERMINATION_TIME
00000 suncat0031 pw.x -npool 4 -i  Done                     05/03/2018 10:35:33
00001 suncat0031 pw.x -npool 4 -i  Done                     05/03/2018 10:35:33
00002 suncat0031 pw.x -npool 4 -i  Done                     05/03/2018 10:35:33
00003 suncat0031 pw.x -npool 4 -i  Done                     05/03/2018 10:35:33
00004 suncat0031 pw.x -npool 4 -i  Done                     05/03/2018 10:35:33
00005 suncat0031 pw.x -npool 4 -i  Done                     05/03/2018 10:35:33
00006 suncat0031 pw.x -npool 4 -i  Done                     05/03/2018 10:35:33
00007 suncat0031 pw.x -npool 4 -i  Done                     05/03/2018 10:35:33
00008 suncat0023 pw.x -npool 4 -i  Done                     05/03/2018 10:35:33
00009 suncat0023 pw.x -npool 4 -i  Done                     05/03/2018 10:35:33
00010 suncat0023 pw.x -npool 4 -i  Done                     05/03/2018 10:35:33
00011 suncat0023 pw.x -npool 4 -i  Done                     05/03/2018 10:35:33
00012 suncat0023 pw.x -npool 4 -i  Done                     05/03/2018 10:35:33
00013 suncat0023 pw.x -npool 4 -i  Done                     05/03/2018 10:35:33
00014 suncat0023 pw.x -npool 4 -i  Done                     05/03/2018 10:35:33
00015 suncat0023 pw.x -npool 4 -i  Done                     05/03/2018 10:35:33
00016 suncat0159 pw.x -npool 4 -i  Done                     05/03/2018 10:35:33
00017 suncat0159 pw.x -npool 4 -i  Done                     05/03/2018 10:35:33
00018 suncat0159 pw.x -npool 4 -i  Done                     05/03/2018 10:35:33
00019 suncat0159 pw.x -npool 4 -i  Done                     05/03/2018 10:35:33
00020 suncat0159 pw.x -npool 4 -i  Done                     05/03/2018 10:35:33
00021 suncat0159 pw.x -npool 4 -i  Done                     05/03/2018 10:35:33
00022 suncat0159 pw.x -npool 4 -i  Done                     05/03/2018 10:35:33
00023 suncat0159 pw.x -npool 4 -i  Done                     05/03/2018 10:35:33
00024 suncat0151 pw.x -npool 4 -i  Done                     05/03/2018 10:35:33
00025 suncat0151 pw.x -npool 4 -i  Done                     05/03/2018 10:35:33
00026 suncat0151 pw.x -npool 4 -i  Done                     05/03/2018 10:35:33
00027 suncat0151 pw.x -npool 4 -i  Done                     05/03/2018 10:35:33
00028 suncat0151 pw.x -npool 4 -i  Done                     05/03/2018 10:35:33
00029 suncat0151 pw.x -npool 4 -i  Done                     05/03/2018 10:35:33
00030 suncat0151 pw.x -npool 4 -i  Done                     05/03/2018 10:35:33
00031 suncat0151 pw.x -npool 4 -i  Done                     05/03/2018 10:35:33