     Program PWSCF v.5.1rc2 (svn rev. 11289) starts on 18Jan2018 at  8:38:57

     Current dimensions of program PWSCF are:
     Max number of different atomic species (ntypx) = 10
     Max number of k-points (npk) =  40000
     Max angular momentum in pseudopotentials (lmaxx) =  3
     Presently stress not available with electric field

     IMPORTANT: XC functional enforced from input :
     Exchange-correlation      = BEEF-VDW ( 1  4 27 13 2)
     Any further DFT definition will be discarded
     Please, verify this is what you really want

     Subspace diagonalization in iterative solution of the eigenvalue problem:
     a serial algorithm will be used

     bravais-lattice index     =            0
     lattice parameter (alat)  =       1.8897  a.u.
     unit-cell volume          =    4228.3700 (a.u.)^3
     number of atoms/cell      =           13
     number of atomic types    =            2
     number of electrons       =       198.00
     number of Kohn-Sham states=          109
     kinetic-energy cutoff     =      36.7493  Ry
     charge density cutoff     =     367.4932  Ry
     convergence threshold     =      1.0E-05
     mixing beta               =       0.3000
     number of iterations used =           10  plain     mixing
     Exchange-correlation      = BEEF-VDW ( 1  4 27 13 2)
     nstep                     =           50

     celldm(1)=   1.889726  celldm(2)=   0.000000  celldm(3)=   0.000000
     celldm(4)=   0.000000  celldm(5)=   0.000000  celldm(6)=   0.000000

     crystal axes: (cart. coord. in units of alat)
               a(1) = (   5.440665   0.000000   0.000000 )
               a(2) = (   2.720332   4.711754   0.000000 )
               a(3) = (   0.000000   0.000000  24.442284 )

     reciprocal axes: (cart. coord. in units 2 pi/alat)
               b(1) = (  0.183801 -0.106118  0.000000 )
               b(2) = (  0.000000  0.212235  0.000000 )
               b(3) = (  0.000000  0.000000  0.040913 )

     PseudoPot. # 1 for Os read from file:
     /afs/slac.stanford.edu/u/if/mamunm/psp/gbrv1.5pbe/Os.UPF
     MD5 check sum: a3fb40a04f0c37c25c34bbc47164c9a8
     Pseudo is Ultrasoft + core correction, Zval = 16.0
     Generated by new atomic code, or converted to UPF format
     Using radial grid of  983 points,  8 beta functions with:
                l(1) =   0
                l(2) =   0
                l(3) =   1
                l(4) =   1
                l(5) =   2
                l(6) =   2
                l(7) =   3
                l(8) =   3
     Q(r) pseudized with  8 coefficients,  rinner =    1.150   1.150   1.150
                                                       1.150   1.150   1.150
                                                       1.150

     PseudoPot. # 2 for S  read from file:
     /afs/slac.stanford.edu/u/if/mamunm/psp/gbrv1.5pbe/S.UPF
     MD5 check sum: 88d86576ff6df21479756cfb9bdac1df
     Pseudo is Ultrasoft + core correction, Zval =  6.0
     Generated by new atomic code, or converted to UPF format
     Using radial grid of  907 points,  6 beta functions with:
                l(1) =   0
                l(2) =   0
                l(3) =   1
                l(4) =   1
                l(5) =   2
                l(6) =   2
     Q(r) pseudized with  8 coefficients,  rinner =    1.300   1.300   1.300
                                                       1.300   1.300

     vdW kernel table read from file vdW_kernel_table
     MD5 check sum: 095c7af220d748ca6e76c0b4c6cfb241

     atomic species   valence    mass     pseudopotential
        Os1           16.00   190.23000     Os( 1.00)
        S1             6.00    32.06000     S ( 1.00)

     No symmetry found

   Cartesian axes

     site n.     atom                  positions (alat units)
         1           Os1 tau(   1) = (   1.3601662   0.7852923  10.0000000  )
         2           Os1 tau(   2) = (   4.0804987   0.7852923  10.0000000  )
         3           Os1 tau(   3) = (   2.7203325   3.1411694  10.0000000  )
         4           Os1 tau(   4) = (   5.4406649   3.1411694  10.0000000  )
         5           Os1 tau(   5) = (   5.4406649   1.5705847  12.2211422  )
         6           Os1 tau(   6) = (   2.7203325   1.5705847  12.2211422  )
         7           Os1 tau(   7) = (   6.8008312   3.9264617  12.2211422  )
         8           Os1 tau(   8) = (   4.0804987   3.9264617  12.2211422  )
         9           Os1 tau(   9) = (   0.0000000   0.0000000  14.4422843  )
        10           Os1 tau(  10) = (   2.7203325   0.0000000  14.4422843  )
        11           Os1 tau(  11) = (   1.3601662   2.3558770  14.4422843  )
        12           Os1 tau(  12) = (   4.0804987   2.3558770  14.4422843  )
        13           S1  tau(  13) = (   1.3601662   0.0000000  16.9322843  )

     number of k points=    20  Fermi-Dirac smearing, width (Ry)=  0.0110
                       cart. coord. in units 2pi/alat
        k(    1) = (   0.0000000   0.0000000   0.0000000), wk =   0.0555556
        k(    2) = (   0.0000000   0.0353725   0.0000000), wk =   0.1111111
        k(    3) = (   0.0000000   0.0707451   0.0000000), wk =   0.1111111
        k(    4) = (   0.0000000  -0.1061176   0.0000000), wk =   0.0555556
        k(    5) = (   0.0306335  -0.0176863   0.0000000), wk =   0.1111111
        k(    6) = (   0.0306335   0.0176863   0.0000000), wk =   0.1111111
        k(    7) = (   0.0306335   0.0530588   0.0000000), wk =   0.1111111
        k(    8) = (   0.0306335  -0.1238039   0.0000000), wk =   0.1111111
        k(    9) = (   0.0306335  -0.0884313   0.0000000), wk =   0.1111111
        k(   10) = (   0.0306335  -0.0530588   0.0000000), wk =   0.1111111
        k(   11) = (   0.0612670  -0.0353725   0.0000000), wk =   0.1111111
        k(   12) = (   0.0612670   0.0000000   0.0000000), wk =   0.1111111
        k(   13) = (   0.0612670   0.0353725   0.0000000), wk =   0.1111111
        k(   14) = (   0.0612670  -0.1414901   0.0000000), wk =   0.1111111
        k(   15) = (   0.0612670  -0.1061176   0.0000000), wk =   0.1111111
        k(   16) = (   0.0612670  -0.0707451   0.0000000), wk =   0.1111111
        k(   17) = (  -0.0919005   0.0530588   0.0000000), wk =   0.0555556
        k(   18) = (  -0.0919005   0.0884313   0.0000000), wk =   0.1111111
        k(   19) = (  -0.0919005   0.1238039   0.0000000), wk =   0.1111111
        k(   20) = (  -0.0919005  -0.0530588   0.0000000), wk =   0.0555556

     Largest allocated arrays     est. size (Mb)     dimensions
     Largest temporary arrays     est. size (Mb)     dimensions

     Initial potential from superposition of free atoms
     Check: negative starting charge=   -1.495747

     starting charge  191.99953, renormalised to  198.00000

     negative rho (up, down):  1.542E+00 0.000E+00

     *
     * You are using vdW-DF for exchange-correlation in this calculation.
     * Please cite the following three references that made this development
     * possible:
     *
     *   M. Dion, H. Rydberg, E. Schroder, D. C. Langreth, and
     *   B. I. Lundqvist, Phys. Rev. Lett. 92, 246401 (2004).
     *
     *   T. Thonhauser, V. R. Cooper, S. Li, A. Puzder, P. Hyldgaard, and
     *   D. C. Langreth, Phys. Rev. B 76, 125112 (2007).
     *
     *   G. Roman-Perez and J. M. Soler, Phys. Rev. Lett. 103, 096102 (2009).
     *
     *
     * If you are using vdW-DF2, please also cite:
     *
     *   K. Lee, E. D. Murray, L. Kong, B. I. Lundqvist, and
     *   D. C. Langreth, Phys. Rev. B 82, 081101(R) (2010).
     *
     *
     * If you are calculating the stress with vdW-DF, please also cite:
     *
     *   R. Sabatini, E. Kucukbenli, B. Kolb, T. Thonhauser, and
     *   S. de Gironcoli, J. Phys.: Condens. Matter 24, 424209 (2012).
     *

     Carrying out vdW-DF run using the following parameters:

     Nqs =      20    Nr_points =    1024   r_max =   100.000
     q_mesh =
               0.00001000     0.04494208     0.09755937     0.15916263
               0.23128650     0.31572767     0.41458969     0.53033537
               0.66584808     0.82450364     1.01025438     1.22772762
               1.48234092     1.78043706     2.12944203     2.53805004
               3.01644009     3.57652955     4.23227104     5.00000000

     Gradients computed in reciprocal space

     Adding external electric field

     Computed dipole along edir(3) :
        Dipole               -1.6691 Ry au,         -4.2424 Debye
        Dipole field         -0.0050 Ry au

        Potential amp.        0.4468 Ry
        Total length         45.0345 bohr

     Starting wfc are  160 randomized atomic wfcs

     Self-consistent Calculation

     iteration #  1     ecut=    36.75 Ry     beta=0.30
     Davidson diagonalization with overlap
     ethr =  1.00E-02,  avg # of iterations =  2.0

[...]

     total energy              =   -2375.32666150 Ry
     Harris-Foulkes estimate   =   -2421.39659481 Ry
     estimated scf accuracy    <      95.46309955 Ry

[...]

     End of self-consistent calculation

          k = 0.0000 0.0000 0.0000 ( 15845 PWs)   bands (ev):

   -84.1326 -84.0829 -84.0678 -83.9992 -83.7150 -83.6776 -83.6120 -83.6088
   -83.5742 -83.5578 -83.5541 -83.5463 -43.8011 -43.7746 -43.7730 -43.6150
   -43.5118 -43.4957 -43.4759 -43.2812 -43.2586 -43.2463 -43.1983 -43.1854
   -43.1663 -43.1109 -43.0990 -43.0855 -42.9878 -42.9877 -42.9709 -42.9122
   -42.8705 -42.8388 -42.7764 -42.7721 -42.7587 -42.7524 -42.7327 -42.7311
   -42.7012 -42.6524 -42.6507 -42.6483 -42.5385 -42.5353 -42.4762 -42.4730
    -8.3633  -6.6748  -4.6889  -4.2867  -3.9565  -3.9457  -3.9450  -3.6263
    -3.6205  -3.6155  -3.0420  -3.0218  -3.0182  -2.7545  -2.7504  -2.7348
    -1.2749  -1.2212  -1.1777  -0.4415  -0.3997  -0.3925  -0.1482  -0.0624
     0.0880   0.0896   0.5870   0.5880   0.6069   0.6202   0.6296   0.7171
     0.7781   0.9389   0.9405   0.9716   1.1935   1.7812   1.9759   2.3248
     2.5165   2.6596   2.6635   2.6966   2.8778   2.9250   2.9536   2.9552
     3.6714   3.6734   3.8938   4.2514   4.3044   4.3674   4.5552   4.5704
     4.5802   4.5948   4.6475   4.8120   4.8134

[...]

          k =-0.0919 0.0531 0.0000 ( 15968 PWs)   bands (ev):

[...]

     the Fermi energy is     2.9616 ev

!    total energy              =   -2421.71120589 Ry
     Harris-Foulkes estimate   =   -2421.71120653 Ry
     estimated scf accuracy    <       0.00000120 Ry

     The total energy is the sum of the following terms:

     one-electron contribution =  -21717.85961102 Ry
     hartree contribution      =   10843.49163721 Ry
     xc contribution           =    -472.85466490 Ry
     ewald contribution        =    8925.58166791 Ry
     electric field correction =       0.00014427 Ry
     smearing contrib. (-TS)   =      -0.07037936 Ry

     convergence has been achieved in  23 iterations

 BEEF-vdW xc energy contributions
           1 :   -414.025131950603
           2 :    383.291296660450
           3 :   -329.105883463256
           4 :    263.337597269732
           5 :   -198.696491551731
           6 :    145.292603507928
           7 :   -108.399836660688
           8 :    87.9299050877584
           9 :   -79.6091209763176
          10 :    77.2441151952942
[...]

[...]

   This run was terminated on:   9:34: 7  18Jan2018

[...]

     Program PWSCF v.5.1rc2 (svn rev. 11289) starts on 18Jan2018 at  9:47:34

     Current dimensions of program PWSCF are:
     Max number of different atomic species (ntypx) = 10
     Max number of k-points (npk) =  40000
     Max angular momentum in pseudopotentials (lmaxx) =  3
     Presently stress not available with electric field

     IMPORTANT: XC functional enforced from input :
     Exchange-correlation      = BEEF-VDW ( 1  4 27 13 2)
     Any further DFT definition will be discarded
     Please, verify this is what you really want

     Subspace diagonalization in iterative solution of the eigenvalue problem:
     a serial algorithm will be used

     bravais-lattice index     =            0
     lattice parameter (alat)  =       1.8897  a.u.
     unit-cell volume          =    4228.3700 (a.u.)^3
     number of atoms/cell      =           13
     number of atomic types    =            2
     number of electrons       =       198.00
     number of Kohn-Sham states=          109
     kinetic-energy cutoff     =      36.7493  Ry
     charge density cutoff     =     367.4932  Ry
     convergence threshold     =      1.0E-05
     mixing beta               =       0.3000
     number of iterations used =           10  plain     mixing
     Exchange-correlation      = BEEF-VDW ( 1  4 27 13 2)
     nstep                     =           50

     celldm(1)=   1.889726  celldm(2)=   0.000000  celldm(3)=   0.000000
     celldm(4)=   0.000000  celldm(5)=   0.000000  celldm(6)=   0.000000

     crystal axes: (cart. coord. in units of alat)
               a(1) = (   5.440665   0.000000   0.000000 )
               a(2) = (   2.720332   4.711754   0.000000 )
               a(3) = (   0.000000   0.000000  24.442284 )

     reciprocal axes: (cart. coord. in units 2 pi/alat)
               b(1) = (  0.183801 -0.106118  0.000000 )
               b(2) = (  0.000000  0.212235  0.000000 )
               b(3) = (  0.000000  0.000000  0.040913 )

     PseudoPot. # 1 for Os read from file:
     /afs/slac.stanford.edu/u/if/mamunm/psp/gbrv1.5pbe/Os.UPF
     MD5 check sum: a3fb40a04f0c37c25c34bbc47164c9a8
     Pseudo is Ultrasoft + core correction, Zval = 16.0
     Generated by new atomic code, or converted to UPF format
     Using radial grid of  983 points,  8 beta functions with:
                l(1) =   0
                l(2) =   0
                l(3) =   1
                l(4) =   1
                l(5) =   2
                l(6) =   2
                l(7) =   3
                l(8) =   3
     Q(r) pseudized with  8 coefficients,  rinner =    1.150   1.150   1.150
                                                       1.150   1.150   1.150
                                                       1.150

     PseudoPot. # 2 for S  read from file:
     /afs/slac.stanford.edu/u/if/mamunm/psp/gbrv1.5pbe/S.UPF
     MD5 check sum: 88d86576ff6df21479756cfb9bdac1df
     Pseudo is Ultrasoft + core correction, Zval =  6.0
     Generated by new atomic code, or converted to UPF format
     Using radial grid of  907 points,  6 beta functions with:
                l(1) =   0
                l(2) =   0
                l(3) =   1
                l(4) =   1
                l(5) =   2
                l(6) =   2
     Q(r) pseudized with  8 coefficients,  rinner =    1.300   1.300   1.300
                                                       1.300   1.300

     vdW kernel table read from file vdW_kernel_table
     MD5 check sum: 095c7af220d748ca6e76c0b4c6cfb241

     atomic species   valence    mass     pseudopotential
        Os1           16.00   190.23000     Os( 1.00)
        S1             6.00    32.06000     S ( 1.00)

     No symmetry found

   Cartesian axes

     site n.     atom                  positions (alat units)
         1           Os1 tau(   1) = (   1.3601662   0.7852923  10.0000000  )
         2           Os1 tau(   2) = (   4.0804987   0.7852923  10.0000000  )
         3           Os1 tau(   3) = (   2.7203325   3.1411694  10.0000000  )
         4           Os1 tau(   4) = (   5.4406649   3.1411694  10.0000000  )
         5           Os1 tau(   5) = (   5.4406649   1.5705847  12.2211422  )
         6           Os1 tau(   6) = (   2.7203325   1.5705847  12.2211422  )
         7           Os1 tau(   7) = (   6.8008312   3.9264617  12.2211422  )
         8           Os1 tau(   8) = (   4.0804987   3.9264617  12.2211422  )
         9           Os1 tau(   9) = (   5.3858958   0.0480213  14.3914421  )
        10           Os1 tau(  10) = (   2.7751601   0.0479615  14.3914244  )
        11           Os1 tau(  11) = (   1.3601357   2.3499628  14.3456604  )
        12           Os1 tau(  12) = (   4.0805470   2.4044490  14.3680299  )
        13           S1  tau(  13) = (   1.3601842   0.0456781  16.2380142  )

     number of k points=    20  Fermi-Dirac smearing, width (Ry)=  0.0110
                       cart. coord. in units 2pi/alat
        k(    1) = (   0.0000000   0.0000000   0.0000000), wk =   0.0555556
        k(    2) = (   0.0000000   0.0353725   0.0000000), wk =   0.1111111
        k(    3) = (   0.0000000   0.0707451   0.0000000), wk =   0.1111111
        k(    4) = (   0.0000000  -0.1061176   0.0000000), wk =   0.0555556
        k(    5) = (   0.0306335  -0.0176863   0.0000000), wk =   0.1111111
        k(    6) = (   0.0306335   0.0176863   0.0000000), wk =   0.1111111
        k(    7) = (   0.0306335   0.0530588   0.0000000), wk =   0.1111111
        k(    8) = (   0.0306335  -0.1238039   0.0000000), wk =   0.1111111
        k(    9) = (   0.0306335  -0.0884313   0.0000000), wk =   0.1111111
        k(   10) = (   0.0306335  -0.0530588   0.0000000), wk =   0.1111111
        k(   11) = (   0.0612670  -0.0353725   0.0000000), wk =   0.1111111
        k(   12) = (   0.0612670   0.0000000   0.0000000), wk =   0.1111111
        k(   13) = (   0.0612670   0.0353725   0.0000000), wk =   0.1111111
        k(   14) = (   0.0612670  -0.1414901   0.0000000), wk =   0.1111111
        k(   15) = (   0.0612670  -0.1061176   0.0000000), wk =   0.1111111
        k(   16) = (   0.0612670  -0.0707451   0.0000000), wk =   0.1111111
        k(   17) = (  -0.0919005   0.0530588   0.0000000), wk =   0.0555556
        k(   18) = (  -0.0919005   0.0884313   0.0000000), wk =   0.1111111
        k(   19) = (  -0.0919005   0.1238039   0.0000000), wk =   0.1111111
        k(   20) = (  -0.0919005  -0.0530588   0.0000000), wk =   0.0555556

     Largest allocated arrays     est. size (Mb)     dimensions
     Largest temporary arrays     est. size (Mb)     dimensions

     Initial potential from superposition of free atoms
     Check: negative starting charge=   -1.490401

     starting charge  191.99953, renormalised to  198.00000

[...]

     *
     * You are using vdW-DF for exchange-correlation in this calculation.
     * Please cite the following three references that made this development
     * possible:
     *
     *   M. Dion, H. Rydberg, E. Schroder, D. C. Langreth, and
     *   B. I. Lundqvist, Phys. Rev. Lett. 92, 246401 (2004).
     *
     *   T. Thonhauser, V. R. Cooper, S. Li, A. Puzder, P. Hyldgaard, and
     *   D. C. Langreth, Phys. Rev. B 76, 125112 (2007).
     *
     *   G. Roman-Perez and J. M. Soler, Phys. Rev. Lett. 103, 096102 (2009).
     *
     *
     * If you are using vdW-DF2, please also cite:
     *
     *   K. Lee, E. D. Murray, L. Kong, B. I. Lundqvist, and
     *   D. C. Langreth, Phys. Rev. B 82, 081101(R) (2010).
     *
     *
     * If you are calculating the stress with vdW-DF, please also cite:
     *
     *   R. Sabatini, E. Kucukbenli, B. Kolb, T. Thonhauser, and
     *   S. de Gironcoli, J. Phys.: Condens. Matter 24, 424209 (2012).
     *

     Carrying out vdW-DF run using the following parameters:

     Nqs =      20    Nr_points =    1024   r_max =   100.000
     q_mesh =
               0.00001000     0.04494208     0.09755937     0.15916263
               0.23128650     0.31572767     0.41458969     0.53033537
               0.66584808     0.82450364     1.01025438     1.22772762
               1.48234092     1.78043706     2.12944203     2.53805004
               3.01644009     3.57652955     4.23227104     5.00000000

     Gradients computed in reciprocal space

[...]

     Starting wfc are  160 randomized atomic wfcs

     Self-consistent Calculation

[...]

     iteration # 12     ecut=    36.75 Ry     beta=0.30
     Davidson diagonalization with overlap
     c_bands:  2 eigenvalues not converged
     ethr =  2.17E-05,  avg # of iterations =  1.9

[...]

     total energy              =   -2421.83415174 Ry
     Harris-Foulkes estimate   =   -2421.83416284 Ry
     estimated scf accuracy    <       0.00013319 Ry

     iteration # 20     ecut=    36.75 Ry     beta=0.30
     Davidson diagonalization with overlap
     ethr =  6.73E-08,  avg # of iterations =  1.0

[...]

     negative rho (up, down):  1.511E+00 0.000E+00

     Adding external electric field

     Computed dipole along edir(3) :
        Dipole                0.0338 Ry au,          0.0858 Debye
        Dipole field          0.0001 Ry au

        Potential amp.       -0.0090 Ry
        Total length         45.0345 bohr

     End of self-consistent calculation

[...]

          k = 0.0613-0.0707 0.0000 ( 15922 PWs)   bands (ev):

[...]

          k =-0.0919-0.0531 0.0000 ( 15968 PWs)   bands (ev):

   -83.7556 -83.7306 -83.7193 -83.6064 -83.4583 -83.4428 -83.2607 -83.2287
   -83.1955 -83.1916 -83.1651 -83.1545 -43.3193 -43.2811 -43.2234 -43.2134
   -43.1477 -43.1365 -43.0883 -43.0643 -43.0385 -42.9808 -42.8689 -42.8229
   -42.7665 -42.7567 -42.7426 -42.6989 -42.6489 -42.6331 -42.6182 -42.5792
   -42.5336 -42.5080 -42.4796 -42.4708 -42.4546 -42.4491 -42.4028 -42.3998
   -42.3842 -42.3758 -42.3620 -42.3550 -42.3385 -42.3153 -42.1731 -42.1680
    -9.9854  -4.5482  -4.4193  -3.0630  -2.9236  -2.6511  -2.5389  -2.4542
    -2.4117  -2.3944  -2.3838  -1.8991  -1.7758  -1.6123  -1.5244  -1.3190
    -1.2654  -1.1887  -1.0623  -0.9169  -0.8279  -0.7659  -0.5874  -0.4247
    -0.2420  -0.2334   0.2638   0.3027   0.5558   0.6045   0.6257   0.6429
     0.7710   0.8612   0.9485   1.0616   1.0834   1.1479   1.1995   1.2358
     1.3400   1.3571   1.9809   2.1906   2.2084   2.3095   2.4909   2.5997
     2.7562   2.8611   2.9801   3.0889   3.1151   3.3675   3.4255   3.5362
     3.7250   3.9938   4.0652   4.0767   4.4076

     the Fermi energy is     3.3436 ev

!    total energy              =   -2421.83415356 Ry
     Harris-Foulkes estimate   =   -2421.83415656 Ry
     estimated scf accuracy    <       0.00000614 Ry

     The total energy is the sum of the following terms:

     one-electron contribution =  -22184.71442853 Ry
     hartree contribution      =   11078.71131970 Ry
     xc contribution           =    -473.41908678 Ry
     ewald contribution        =    9157.65469953 Ry
     electric field correction =       0.00000339 Ry
     smearing contrib. (-TS)   =      -0.06666086 Ry

     convergence has been achieved in  20 iterations

 BEEF-vdW xc energy contributions
           1 :   -414.601148490487
           2 :    384.097175253371
           3 :   -330.210980206099
           4 :    264.612789361184
           5 :   -199.895192185992
           6 :    146.177246335248
           7 :   -108.849296935600
           8 :    87.9851472899612
           9 :   -79.4413844197776
          10 :    77.0669468253753
          11 :   -75.1268107235184
          12 :    70.0666586333850
          13 :   -61.1357457570096
          14 :    49.8803980803780
          15 :   -38.9258123980803
          16 :    30.6218764039112
          17 :   -26.0836454826550
          18 :    24.9153000955128
          19 :   -25.6030527514146
          20 :    26.3003687970561
          21 :   -25.6239998479194
          22 :    23.1304619873349
          23 :   -19.3291661271166
          24 :    15.2954268519799
          25 :   -12.1057998002712
          26 :    10.3590345186579
          27 :   -9.97734728805347
          28 :    10.3333194153013
          29 :   -10.6056660309903
          30 :    10.1759792367918
          31 :   -39.4767839898657
          32 :   -30.1289161235959

     Forces acting on atoms (Ry/au):

     negative rho (up, down):  1.511E+00 0.000E+00
     atom    1 type  1   force =     0.00001482   -0.00348163    0.02463529
     atom    2 type  1   force =    -0.00000661    0.00283030    0.01919226
     atom    3 type  1   force =     0.00637725    0.00470263    0.02713382
     atom    4 type  1   force =    -0.00637893    0.00472009    0.02711619
     atom    5 type  1   force =    -0.00229761    0.00184779   -0.01493448
     atom    6 type  1   force =     0.00230124    0.00186338   -0.01492793
     atom    7 type  1   force =     0.00000532   -0.01660463   -0.03993026
     atom    8 type  1   force =    -0.00001113    0.00455893   -0.02864303
     atom    9 type  1   force =     0.00013559    0.00011389   -0.00007075
     atom   10 type  1   force =    -0.00014153    0.00015324   -0.00006886
     atom   11 type  1   force =     0.00003015   -0.00014826   -0.00029548
     atom   12 type  1   force =    -0.00002973    0.00035328   -0.00011759
     atom   13 type  2   force =     0.00000119   -0.00090900    0.00091083

     Total force =     0.075956     Total SCF correction =     0.012746
     SCF correction compared to forces is large: reduce conv_thr to get better values

     entering subroutine stress ...

     negative rho (up, down):  1.511E+00 0.000E+00
          total   stress  (Ry/bohr**3)                   (kbar)     P=  -19.12
  -0.00013265   0.00000000  -0.00000003        -19.51      0.00     -0.00
   0.00000000  -0.00014244  -0.00001010          0.00    -20.95     -1.49
  -0.00000003  -0.00001010  -0.00011491         -0.00     -1.49    -16.90

 !ASE

     Writing output data file calc.save

     General routines

     Parallel routines

   This run was terminated on:   9:53:54  18Jan2018

   JOB DONE.
Job  /afs/slac/g/suncat/bin/suncat-tsmpirun -x LD_LIBRARY_PATH -wdir /scratch/qe842464_vjst1 pw.x -in pw.inp

TID   HOST_NAME   COMMAND_LINE            STATUS            TERMINATION_TIME
00000 suncat2041 pw.x -in pw.inp   Done                     01/18/2018 09:53:54
00001 suncat2041 pw.x -in pw.inp   Done                     01/18/2018 09:53:54
00002 suncat2041 pw.x -in pw.inp   Done                     01/18/2018 09:53:54
00003 suncat2041 pw.x -in pw.inp   Done                     01/18/2018 09:53:54
00004 suncat2041 pw.x -in pw.inp   Done                     01/18/2018 09:53:54
00005 suncat2041 pw.x -in pw.inp   Done                     01/18/2018 09:53:54
00006 suncat2041 pw.x -in pw.inp   Done                     01/18/2018 09:53:54
00007 suncat2041 pw.x -in pw.inp   Done                     01/18/2018 09:53:54
00008 suncat2041 pw.x -in pw.inp   Done                     01/18/2018 09:53:54
00009 suncat2041 pw.x -in pw.inp   Done                     01/18/2018 09:53:54
00010 suncat2041 pw.x -in pw.inp   Done                     01/18/2018 09:53:54
00011 suncat2041 pw.x -in pw.inp   Done                     01/18/2018 09:53:54
00012 suncat2041 pw.x -in pw.inp   Done                     01/18/2018 09:53:54
00013 suncat2041 pw.x -in pw.inp   Done                     01/18/2018 09:53:54
00014 suncat2041 pw.x -in pw.inp   Done                     01/18/2018 09:53:54
00015 suncat2041 pw.x -in pw.inp   Done                     01/18/2018 09:53:54
00016 suncat2040 pw.x -in pw.inp   Done                     01/18/2018 09:53:54
00017 suncat2040 pw.x -in pw.inp   Done                     01/18/2018 09:53:54
00018 suncat2040 pw.x -in pw.inp   Done                     01/18/2018 09:53:54
00019 suncat2040 pw.x -in pw.inp   Done                     01/18/2018 09:53:54
00020 suncat2040 pw.x -in pw.inp   Done                     01/18/2018 09:53:54
00021 suncat2040 pw.x -in pw.inp   Done                     01/18/2018 09:53:54
00022 suncat2040 pw.x -in pw.inp   Done                     01/18/2018 09:53:54
00023 suncat2040 pw.x -in pw.inp   Done                     01/18/2018 09:53:54
00024 suncat2040 pw.x -in pw.inp   Done                     01/18/2018 09:53:54
00025 suncat2040 pw.x -in pw.inp   Done                     01/18/2018 09:53:54
00026 suncat2040 pw.x -in pw.inp   Done                     01/18/2018 09:53:54
00027 suncat2040 pw.x -in pw.inp   Done                     01/18/2018 09:53:54
00028 suncat2040 pw.x -in pw.inp   Done                     01/18/2018 09:53:54
00029 suncat2040 pw.x -in pw.inp   Done                     01/18/2018 09:53:54
00030 suncat2040 pw.x -in pw.inp   Done                     01/18/2018 09:53:54
00031 suncat2040 pw.x -in pw.inp   Done                     01/18/2018 09:53:54