     Program PWSCF v.5.1rc2 (svn rev. ) starts on 16Apr2018 at 10: 2:37

     Current dimensions of program PWSCF are:
     Max number of different atomic species (ntypx) = 10
     Max number of k-points (npk) =  40000
     Max angular momentum in pseudopotentials (lmaxx) =  3
     Presently stress not available with electric field

     IMPORTANT: XC functional enforced from input :
     Exchange-correlation      = BEEF-VDW ( 1  4 27 13 2)
     Any further DFT definition will be discarded
     Please, verify this is what you really want

     Subspace diagonalization in iterative solution of the eigenvalue problem:
     a serial algorithm will be used

     bravais-lattice index     =            0
     lattice parameter (alat)  =       1.8897  a.u.
     unit-cell volume          =    5174.6160 (a.u.)^3
     number of atoms/cell      =           14
     number of atomic types    =            3
     number of electrons       =       234.00
     number of Kohn-Sham states=          127
     kinetic-energy cutoff     =      36.7493  Ry
     charge density cutoff     =     367.4932  Ry
     convergence threshold     =      1.0E-05
     mixing beta               =       0.3000
     number of iterations used =           10  plain     mixing
     Exchange-correlation      = BEEF-VDW ( 1  4 27 13 2)
     nstep                     =           50

     celldm(1)=   1.889726  celldm(2)=   0.000000  celldm(3)=   0.000000
     celldm(4)=   0.000000  celldm(5)=   0.000000  celldm(6)=   0.000000

     crystal axes: (cart. coord. in units of alat)
               a(1) = (   5.966546   0.000000   0.000000 )
               a(2) = (   2.983273   5.167181   0.000000 )
               a(3) = (   0.000000   0.000000  24.871665 )

     reciprocal axes: (cart. coord. in units 2 pi/alat)
               b(1) = (  0.167601 -0.096765  0.000000 )
               b(2) = (  0.000000  0.193529  0.000000 )
               b(3) = (  0.000000  0.000000  0.040206 )

     PseudoPot. # 1 for Ag read from file:
     /home/mamunm/src/pseudo/gbrv1.5pbe/Ag.UPF
     MD5 check sum: d66d668201baa78d5eb5b04ef7011058
     Pseudo is Ultrasoft + core correction, Zval = 19.0
     Generated by new atomic code, or converted to UPF format
     Using radial grid of  887 points,  6 beta functions with:
                l(1) =   0
                l(2) =   0
                l(3) =   1
                l(4) =   1
                l(5) =   2
                l(6) =   2
     Q(r) pseudized with  6 coefficients,  rinner =    1.300   1.300   1.300
                                                       1.300   1.300

     PseudoPot. # 2 for N  read from file:
     /home/mamunm/src/pseudo/gbrv1.5pbe/N.UPF
     MD5 check sum: 95339753478d7afb44899504a8723017
     Pseudo is Ultrasoft + core correction, Zval =  5.0
     Generated by new atomic code, or converted to UPF format
     Using radial grid of  729 points,  4 beta functions with:
                l(1) =   0
                l(2) =   0
                l(3) =   1
                l(4) =   1
     Q(r) pseudized with  8 coefficients,  rinner =    0.900   0.900   0.900

     PseudoPot. # 3 for H  read from file:
     /home/mamunm/src/pseudo/gbrv1.5pbe/H.UPF
     MD5 check sum: 761ae9a214b05c3daf00ab9f6b793d6f
     Pseudo is Ultrasoft, Zval =  1.0
     Generated by new atomic code, or converted to UPF format
     Using radial grid of  615 points,  2 beta functions with:
                l(1) =   0
                l(2) =   0
     Q(r) pseudized with  8 coefficients,  rinner =    0.700

     vdW kernel table read from file vdW_kernel_table
     MD5 check sum: 095c7af220d748ca6e76c0b4c6cfb241

     atomic species   valence    mass     pseudopotential
        Ag1           19.00   107.86820     Ag( 1.00)
        N1             5.00    14.00700     N ( 1.00)
        H1             1.00     1.00800     H ( 1.00)

     No symmetry found

   Cartesian axes

     site n.     atom                  positions (alat units)
         1           Ag1 tau(   1) = (   1.4916366   0.8611968  10.0000000  )
         2           Ag1 tau(   2) = (   4.4749098   0.8611968  10.0000000  )
         3           Ag1 tau(   3) = (   2.9832732   3.4447871  10.0000000  )
         4           Ag1 tau(   4) = (   5.9665464   3.4447871  10.0000000  )
         5           Ag1 tau(   5) = (   5.9665464   1.7223936  12.4358324  )
         6           Ag1 tau(   6) = (   2.9832732   1.7223936  12.4358324  )
         7           Ag1 tau(   7) = (   7.4581830   4.3059839  12.4358324  )
         8           Ag1 tau(   8) = (   4.4749098   4.3059839  12.4358324  )
         9           Ag1 tau(   9) = (   0.0000000   0.0000000  14.8716647  )
        10           Ag1 tau(  10) = (   2.9832732   0.0000000  14.8716647  )
        11           Ag1 tau(  11) = (   1.4916366   2.5835904  14.8716647  )
        12           Ag1 tau(  12) = (   4.4749098   2.5835904  14.8716647  )
        13           N1  tau(  13) = (   2.9832732   1.7223936  16.2756647  )
        14           H1  tau(  14) = (   2.9832732   1.7223936  17.3256647  )

     number of k points=    20  Fermi-Dirac smearing, width (Ry)=  0.0110
                       cart. coord. in units 2pi/alat
        k(    1) = (   0.0000000   0.0000000   0.0000000), wk =   0.0555556
        k(    2) = (   0.0000000   0.0322549   0.0000000), wk =   0.1111111
        k(    3) = (   0.0000000   0.0645097   0.0000000), wk =   0.1111111
        k(    4) = (   0.0000000  -0.0967646   0.0000000), wk =   0.0555556
        k(    5) = (   0.0279335  -0.0161274   0.0000000), wk =   0.1111111
        k(    6) = (   0.0279335   0.0161274   0.0000000), wk =   0.1111111
        k(    7) = (   0.0279335   0.0483823   0.0000000), wk =   0.1111111
        k(    8) = (   0.0279335  -0.1128920   0.0000000), wk =   0.1111111
        k(    9) = (   0.0279335  -0.0806371   0.0000000), wk =   0.1111111
        k(   10) = (   0.0279335  -0.0483823   0.0000000), wk =   0.1111111
        k(   11) = (   0.0558670  -0.0322549   0.0000000), wk =   0.1111111
        k(   12) = (   0.0558670   0.0000000   0.0000000), wk =   0.1111111
        k(   13) = (   0.0558670   0.0322549   0.0000000), wk =   0.1111111
        k(   14) = (   0.0558670  -0.1290194   0.0000000), wk =   0.1111111
        k(   15) = (   0.0558670  -0.0967646   0.0000000), wk =   0.1111111
        k(   16) = (   0.0558670  -0.0645097   0.0000000), wk =   0.1111111
        k(   17) = (  -0.0838006   0.0483823   0.0000000), wk =   0.0555556
        k(   18) = (  -0.0838006   0.0806371   0.0000000), wk =   0.1111111
        k(   19) = (  -0.0838006   0.1128920   0.0000000), wk =   0.1111111
        k(   20) = (  -0.0838006  -0.0483823   0.0000000), wk =   0.0555556

     Largest allocated arrays     est. size (Mb)     dimensions
     Largest temporary arrays     est. size (Mb)     dimensions

     Initial potential from superposition of free atoms
     Check: negative starting charge=   -0.002053

     starting charge  227.99941, renormalised to  234.00000

     negative rho (up, down):  2.107E-03 0.000E+00

     *
     * You are using vdW-DF for exchange-correlation in this calculation.
     * Please cite the following three references that made this development
     * possible:
     *
     *   M. Dion, H. Rydberg, E. Schroder, D. C. Langreth, and
     *   B. I. Lundqvist, Phys. Rev. Lett. 92, 246401 (2004).
     *
     *   T. Thonhauser, V. R. Cooper, S. Li, A. Puzder, P. Hyldgaard, and
     *   D. C. Langreth, Phys. Rev. B 76, 125112 (2007).
     *
     *   G. Roman-Perez and J. M. Soler, Phys. Rev. Lett. 103, 096102 (2009).
     *
     *
     * If you are using vdW-DF2, please also cite:
     *
     *   K. Lee, E. D. Murray, L. Kong, B. I. Lundqvist, and
     *   D. C. Langreth, Phys. Rev. B 82, 081101(R) (2010).
     *
     *
     * If you are calculating the stress with vdW-DF, please also cite:
     *
     *   R. Sabatini, E. Kucukbenli, B. Kolb, T. Thonhauser, and
     *   S. de Gironcoli, J. Phys.: Condens. Matter 24, 424209 (2012).
     *

     Carrying out vdW-DF run using the following parameters:

     Nqs =      20    Nr_points =    1024   r_max =   100.000
     q_mesh =
               0.00001000     0.04494208     0.09755937     0.15916263
               0.23128650     0.31572767     0.41458969     0.53033537
               0.66584808     0.82450364     1.01025438     1.22772762
               1.48234092     1.78043706     2.12944203     2.53805004
               3.01644009     3.57652955     4.23227104     5.00000000

     Gradients computed in reciprocal space

     Adding external electric field

     Computed dipole along edir(3) :
        Dipole               -1.1979 Ry au,         -3.0448 Debye
        Dipole field         -0.0029 Ry au

        Potential amp.        0.2666 Ry
        Total length         45.8256 bohr

     Starting wfc are  161 randomized atomic wfcs

     Self-consistent Calculation

     iteration #  1     ecut=    36.75 Ry     beta=0.30
     Davidson diagonalization with overlap
     ethr =  1.00E-02,  avg # of iterations =  5.7

[...]

     total energy              =   -3569.43396054 Ry
     Harris-Foulkes estimate   =   -3584.51237180 Ry
     estimated scf accuracy    <      32.53184695 Ry

[...]

     End of self-consistent calculation

          k = 0.0000 0.0000 0.0000 ( 19435 PWs)   bands (ev):

   -90.7907 -90.7852 -90.7852 -90.7467 -90.5975 -90.5910 -90.5878 -90.5877
   -90.5584 -90.5228 -90.5178 -90.5178 -54.3251 -54.3186 -54.3186 -54.2873
   -54.2782 -54.2782 -54.2677 -54.2536 -54.2536 -54.2477 -54.2255 -54.2255
   -54.1385 -54.1385 -54.1369 -54.0963 -54.0963 -54.0793 -54.0793 -54.0770
   -54.0738 -54.0656 -54.0618 -54.0617 -54.0580 -54.0580 -54.0543 -54.0392
   -54.0277 -54.0277 -54.0207 -53.9888 -53.9885 -53.9885 -53.9774 -53.9774
   -13.0288  -5.5463  -5.0864  -4.5154  -4.5154  -4.5103  -4.4663  -4.3815
    -4.3815  -4.3488  -4.2919  -4.2919  -4.2593  -4.1963  -4.1205  -4.1205
    -3.7486  -3.5710  -3.5710  -3.4662  -3.4372  -3.4372  -3.3436  -3.3436
    -3.3417  -3.2319  -3.2319  -3.1574  -3.1574  -3.1286  -3.0857  -3.0857
    -2.7360  -2.7359  -2.6646  -2.5952  -2.5227  -2.5226  -2.4966  -2.4966
    -2.4471  -2.4081  -2.2741  -2.2741  -2.2279  -2.2279  -2.0951  -2.0950
    -2.0025  -1.9635  -1.9635  -1.9254  -1.9158  -1.9158  -1.8639  -1.8577
    -1.8577  -1.6948  -1.6948  -1.6908  -1.6489  -1.6489  -1.6089  -1.4025
     0.4445   0.4545   0.4545   1.8454   1.8454   1.8507   2.1668   2.6111
     2.6111   2.7346   3.0164   3.0164   4.1390   4.9242   4.9573

[...]

          k =-0.0838 0.0484 0.0000 ( 19500 PWs)   bands (ev):

[...]

     the Fermi energy is     1.2766 ev

!    total energy              =   -3581.23854893 Ry
     Harris-Foulkes estimate   =   -3581.23855366 Ry
     estimated scf accuracy    <       0.00000650 Ry

     The total energy is the sum of the following terms:

     one-electron contribution =  -26257.98682563 Ry
     hartree contribution      =   13122.69098450 Ry
     xc contribution           =    -367.21854983 Ry
     ewald contribution        =    9921.30073782 Ry
     electric field correction =       0.00000320 Ry
     smearing contrib. (-TS)   =      -0.02489899 Ry

     convergence has been achieved in  15 iterations

 BEEF-vdW xc energy contributions
           1 :   -318.091378940329
           2 :    287.850928388657
           3 :   -237.446204655227
           4 :    182.126553244768
           5 :   -135.696668623789
           6 :    105.549242810009
           7 :   -91.3172877131024
           8 :    87.1082789340902
           9 :   -85.6292635390636
          10 :    81.8624517143631
          11 :   -74.6151207618640
          12 :    65.6752047806690
          13 :   -57.6508291528417
          14 :    52.0464765294839
          15 :   -48.6239415078333
          16 :    46.0738734652326
          17 :   -43.2208377952702
          18 :    39.8139749818149
          19 :   -36.4517227484542
          20 :    33.8818762342267
          21 :   -32.3150037544150
          22 :    31.2593657735668
          23 :   -29.9332710875843
          24 :    27.8818202366813
          25 :   -25.3213035111168
          26 :    22.9725050227049
          27 :   -21.5345317522396
          28 :    21.1929692279887
          29 :   -21.5067388661178
          30 :    21.7291653491291
          31 :   -31.8403621825965
          32 :   -23.1328742644819

     Forces acting on atoms (Ry/au):

     negative rho (up, down):  2.220E-03 0.000E+00
     atom    1 type  1   force =    -0.00052829   -0.00030365    0.00135211
     atom    2 type  1   force =     0.00052956   -0.00030304    0.00135202
     atom    3 type  1   force =     0.00000031    0.00060815    0.00136701
     atom    4 type  1   force =    -0.00000129   -0.00000122   -0.00181860
     atom    5 type  1   force =     0.00000112    0.00220027    0.00458249
     atom    6 type  1   force =    -0.00000153   -0.00001204   -0.00841804
     atom    7 type  1   force =    -0.00191535   -0.00109541    0.00457718
     atom    8 type  1   force =     0.00191571   -0.00109377    0.00457623
     atom    9 type  1   force =     0.00000004   -0.00000126   -0.00515427
     atom   10 type  1   force =     0.00000025   -0.01207542    0.01080196
     atom   11 type  1   force =    -0.01045812    0.00603886    0.01080736
     atom   12 type  1   force =     0.01045780    0.00603858    0.01080707
     atom   13 type  2   force =    -0.00000014    0.00000002    0.00645983
     atom   14 type  3   force =    -0.00000009   -0.00000005   -0.04129233

     Total force =     0.050607     Total SCF correction =     0.006415
     SCF correction compared to forces is large: reduce conv_thr to get better values

     entering subroutine stress ...

     negative rho (up, down):  2.220E-03 0.000E+00
          total   stress  (Ry/bohr**3)                   (kbar)     P=   -7.49
  -0.00005015   0.00000000  -0.00000000         -7.38      0.00     -0.00
   0.00000000  -0.00005014  -0.00000000          0.00     -7.38     -0.00
  -0.00000000  -0.00000000  -0.00005238         -0.00     -0.00     -7.71

     BFGS Geometry Optimization

     number of scf cycles    =   1
     number of bfgs steps    =   0

     energy   new            =   -3581.2385489337 Ry

     new trust radius        =       0.0412923345 bohr
     new conv_thr            =       0.0000099958 Ry

ATOMIC_POSITIONS (crystal)
Ag1      0.166666667   0.166666667   0.402063960    0   0   0
Ag1      0.666666667   0.166666667   0.402063960    0   0   0
Ag1      0.166666667   0.666666667   0.402063960    0   0   0
Ag1      0.666666667   0.666666667   0.402063960    0   0   0
Ag1      0.833333333   0.333333333   0.500000000    0   0   0
Ag1      0.333333333   0.333333333   0.500000000    0   0   0
Ag1      0.833333333   0.833333333   0.500000000    0   0   0
Ag1      0.333333333   0.833333333   0.500000000    0   0   0
Ag1      0.000000068  -0.000000129   0.597826376
Ag1      0.500618352  -0.001236659   0.598165866
Ag1     -0.001236762   0.500618447   0.598165981
Ag1      0.500618301   0.500618418   0.598165975
N1       0.333333320   0.333333335   0.654523261
H1       0.333333328   0.333333328   0.695723987

     Writing output data file calc.save
     Check: negative starting charge=   -0.002053
     NEW-OLD atomic charge density approx. for the potential
     Check: negative starting charge=   -0.002057

[...]

     energy   old            =   -3581.2385489337 Ry
     energy   new            =   -3581.2401866715 Ry

     CASE: energy  _new < energy  _old

[...]

     Total force =     0.046402     Total SCF correction =     0.001315

[...]

     Total force =     0.013179     Total SCF correction =     0.000487

[...]

     Threshold (ethr) on eigenvalues was too large:
     Diagonalizing with lowered threshold

     Davidson diagonalization with overlap
     ethr =  2.72E-08,  avg # of iterations =  1.0

[...]

     WARNING: bfgs curvature condition failed, Theta= 0.890
     new trust radius        =       0.0034470035 bohr
     new conv_thr            =       0.0000001000 Ry

[...]

     Threshold (ethr) on eigenvalues was too large:
     Diagonalizing with lowered threshold

     Davidson diagonalization with overlap
     ethr =  6.39E-08,  avg # of iterations =  1.0

[...]

     number of scf cycles    =  10
     number of bfgs steps    =   9

     energy   old            =   -3581.2504094709 Ry
     energy   new            =   -3581.2504628605 Ry

     CASE: energy  _new < energy  _old

     new trust radius        =       0.0116336367 bohr
     new conv_thr            =       0.0000001000 Ry

ATOMIC_POSITIONS (crystal)
Ag1      0.166666667   0.166666667   0.402063960    0   0   0
Ag1      0.666666667   0.166666667   0.402063960    0   0   0
Ag1      0.166666667   0.666666667   0.402063960    0   0   0
Ag1      0.666666667   0.666666667   0.402063960    0   0   0
Ag1      0.833333333   0.333333333   0.500000000    0   0   0
Ag1      0.333333333   0.333333333   0.500000000    0   0   0
Ag1      0.833333333   0.833333333   0.500000000    0   0   0
Ag1      0.333333333   0.833333333   0.500000000    0   0   0
Ag1      0.000000043   0.000000060   0.595558542
Ag1      0.508817993  -0.017635964   0.601314171
Ag1     -0.017637404   0.508818802   0.601314723
Ag1      0.508818475   0.508818773   0.601314695
N1       0.333333457   0.333332910   0.648051329
H1       0.333333526   0.333332832   0.689219225

     Writing output data file calc.save
     Check: negative starting charge=   -0.002150
     NEW-OLD atomic charge density approx. for the potential
     Check: negative starting charge=   -0.002155

[...]

     Self-consistent Calculation

[...]

     total energy              =   -3581.25052848 Ry
     Harris-Foulkes estimate   =   -3581.25052845 Ry
     estimated scf accuracy    <       0.00000024 Ry

     iteration #  7     ecut=    36.75 Ry     beta=0.30
     Davidson diagonalization with overlap
     ethr =  1.04E-10,  avg # of iterations =  2.0

[...]

     negative rho (up, down):  2.278E-03 0.000E+00

     Adding external electric field

     Computed dipole along edir(3) :
        Dipole                0.0221 Ry au,          0.0561 Debye
        Dipole field          0.0001 Ry au

        Potential amp.       -0.0049 Ry
        Total length         45.8256 bohr

     End of self-consistent calculation

[...]

          k = 0.0559-0.0645 0.0000 ( 19479 PWs)   bands (ev):

[...]

          k =-0.0838-0.0484 0.0000 ( 19500 PWs)   bands (ev):

   -90.7206 -90.7189 -90.7171 -90.6398 -90.5333 -90.5168 -90.5109 -90.5090
   -90.5074 -90.4666 -90.4616 -90.4606 -54.2456 -54.2279 -54.2220 -54.2203
   -54.2167 -54.2110 -54.2083 -54.2057 -54.1853 -54.1416 -54.1338 -54.1320
   -54.0556 -54.0426 -54.0385 -54.0370 -54.0267 -54.0179 -54.0152 -54.0135
   -54.0103 -54.0057 -54.0035 -53.9966 -53.9897 -53.9881 -53.9830 -53.9812
   -53.9799 -53.9790 -53.9580 -53.9467 -53.9314 -53.9290 -53.9227 -53.9201
   -13.4143  -5.3270  -4.2496  -4.1346  -4.0874  -4.0440  -3.9832  -3.9429
    -3.9011  -3.8368  -3.8054  -3.7790  -3.7515  -3.7226  -3.6903  -3.6147
    -3.5621  -3.5502  -3.5081  -3.4040  -3.3085  -3.2996  -3.2985  -3.2348
    -3.2090  -3.1895  -3.1682  -3.0586  -3.0364  -3.0166  -2.9284  -2.8917
    -2.8849  -2.8642  -2.8299  -2.7408  -2.7294  -2.7070  -2.6596  -2.6528
    -2.6335  -2.6144  -2.6026  -2.5100  -2.4759  -2.4439  -2.4225  -2.4163
    -2.3951  -2.3818  -2.3516  -2.3293  -2.3067  -2.2093  -2.1615  -2.1527
    -2.0997  -1.9059  -1.8909  -1.8699  -1.8513  -1.7341  -1.7291  -1.2937
    -1.1681  -0.0656   0.2087   0.4994   1.1927   1.3296   1.9648   2.3052
     2.9326   3.3220   4.3132   4.4645   5.1544   5.4715   6.0946

     the Fermi energy is     1.3611 ev

!    total energy              =   -3581.25052847 Ry
     Harris-Foulkes estimate   =   -3581.25052848 Ry
     estimated scf accuracy    <       0.00000004 Ry

     The total energy is the sum of the following terms:

     one-electron contribution =  -26156.23051973 Ry
     hartree contribution      =   13072.23913293 Ry
     xc contribution           =    -367.27685718 Ry
     ewald contribution        =    9870.04143999 Ry
     electric field correction =       0.00000118 Ry
     smearing contrib. (-TS)   =      -0.02372566 Ry

     convergence has been achieved in   7 iterations

 BEEF-vdW xc energy contributions
           1 :   -318.152016651304
           2 :    287.922207098205
           3 :   -237.517215293384
           4 :    182.171328728142
           5 :   -135.696119122352
           6 :    105.504817748326
           7 :   -91.2489438906374
           8 :    87.0419818055586
           9 :   -85.5840469061404
          10 :    81.8446713699038
          11 :   -74.6202550736118
          12 :    65.6933039938509
          13 :   -57.6721354289419
          14 :    52.0648735183166
          15 :   -48.6378241370918
          16 :    46.0858926168982
          17 :   -43.2363137138323
          18 :    39.8372220338375
          19 :   -36.4817041564150
          20 :    33.9096952657007
          21 :   -32.3259843683115
          22 :    31.2413257369165
          23 :   -29.8875531231175
          24 :    27.8280983884854
          25 :   -25.2893922887116
          26 :    22.9844753752175
          27 :   -21.5887538269533
          28 :    21.2624096217504
          29 :   -21.5541572522313
          30 :    21.7294649204671
          31 :   -31.8442679207619
          32 :   -23.1365783040411

     Forces acting on atoms (Ry/au):

     negative rho (up, down):  2.278E-03 0.000E+00
     atom    1 type  1   force =    -0.00070174   -0.00040515   -0.00032584
     atom    2 type  1   force =     0.00070175   -0.00040515   -0.00032585
     atom    3 type  1   force =     0.00000000    0.00081029   -0.00032580
     atom    4 type  1   force =     0.00000000    0.00000000   -0.00254154
     atom    5 type  1   force =    -0.00000000    0.00312400    0.00407151
     atom    6 type  1   force =    -0.00000001    0.00000021   -0.00159165
     atom    7 type  1   force =    -0.00270534   -0.00156208    0.00407128
     atom    8 type  1   force =     0.00270535   -0.00156208    0.00407125
     atom    9 type  1   force =    -0.00000005    0.00000003   -0.00086569
     atom   10 type  1   force =     0.00000000   -0.00080398   -0.00171960
     atom   11 type  1   force =    -0.00069535    0.00040174   -0.00171990
     atom   12 type  1   force =     0.00069534    0.00040170   -0.00171983
     atom   13 type  2   force =     0.00000006    0.00000067    0.00053479
     atom   14 type  3   force =    -0.00000000   -0.00000018   -0.00161313

     Total force =     0.003801     Total SCF correction =     0.000765
     SCF correction compared to forces is large: reduce conv_thr to get better values

     entering subroutine stress ...

     negative rho (up, down):  2.278E-03 0.000E+00
          total   stress  (Ry/bohr**3)                   (kbar)     P=   -4.84
  -0.00003597  -0.00000000   0.00000000         -5.29     -0.00      0.00
  -0.00000000  -0.00003597   0.00000000         -0.00     -5.29      0.00
   0.00000000   0.00000000  -0.00002679          0.00      0.00     -3.94

     bfgs converged in  11 scf cycles and  10 bfgs steps
     (criteria: energy <  1.0E+00, force <  1.9E-03)

     End of BFGS Geometry Optimization

     Final energy   =   -3581.2505284710 Ry
Begin final coordinates

ATOMIC_POSITIONS (crystal)
Ag1      0.166666667   0.166666667   0.402063960    0   0   0
Ag1      0.666666667   0.166666667   0.402063960    0   0   0
Ag1      0.166666667   0.666666667   0.402063960    0   0   0
Ag1      0.666666667   0.666666667   0.402063960    0   0   0
Ag1      0.833333333   0.333333333   0.500000000    0   0   0
Ag1      0.333333333   0.333333333   0.500000000    0   0   0
Ag1      0.833333333   0.833333333   0.500000000    0   0   0
Ag1      0.333333333   0.833333333   0.500000000    0   0   0
Ag1      0.000000043   0.000000060   0.595558542
Ag1      0.508817993  -0.017635964   0.601314171
Ag1     -0.017637404   0.508818802   0.601314723
Ag1      0.508818475   0.508818773   0.601314695
N1       0.333333457   0.333332910   0.648051329
H1       0.333333526   0.333332832   0.689219225
End final coordinates

     Writing output data file calc.save

     General routines

     Parallel routines

   This run was terminated on:  10:44: 3  16Apr2018

   JOB DONE.