     Program PWSCF v.5.1rc2 (svn rev. 11289) starts on  2May2018 at 12:39:16

     Current dimensions of program PWSCF are:
     Max number of different atomic species (ntypx) = 10
     Max number of k-points (npk) =  40000
     Max angular momentum in pseudopotentials (lmaxx) =  3
     Presently stress not available with electric field

     IMPORTANT: XC functional enforced from input :
     Exchange-correlation      = BEEF-VDW ( 1  4 27 13 2)
     Any further DFT definition will be discarded
     Please, verify this is what you really want

     Subspace diagonalization in iterative solution of the eigenvalue problem:
     a serial algorithm will be used

     bravais-lattice index     =            0
     lattice parameter (alat)  =       1.8897  a.u.
     unit-cell volume          =    3807.2308 (a.u.)^3
     number of atoms/cell      =           13
     number of atomic types    =            2
     number of electrons       =       234.00
     number of Kohn-Sham states=          127
     kinetic-energy cutoff     =      36.7493  Ry
     charge density cutoff     =     367.4932  Ry
     convergence threshold     =      1.0E-05
     mixing beta               =       0.3000
     number of iterations used =           10  plain     mixing
     Exchange-correlation      = BEEF-VDW ( 1  4 27 13 2)
     nstep                     =           50

     celldm(1)=   1.889726  celldm(2)=   0.000000  celldm(3)=   0.000000
     celldm(4)=   0.000000  celldm(5)=   0.000000  celldm(6)=   0.000000

     crystal axes: (cart. coord. in units of alat)
               a(1) = (   5.184823   0.000000   0.000000 )
               a(2) = (   2.592411   4.490188   0.000000 )
               a(3) = (   0.000000   0.000000  24.233390 )

     reciprocal axes: (cart. coord. in units 2 pi/alat)
               b(1) = (  0.192871 -0.111354  0.000000 )
               b(2) = (  0.000000  0.222708  0.000000 )
               b(3) = (  0.000000  0.000000  0.041265 )

     PseudoPot. # 1 for Cu read from file:
     /u/if/mamunm/psp/gbrv1.5pbe/Cu.UPF
     MD5 check sum: 6e991ff952a84172a2a52a1c1e996048
     Pseudo is Ultrasoft + core correction, Zval = 19.0
     Generated by new atomic code, or converted to UPF format
     Using radial grid of  867 points,  6 beta functions with:
                l(1) =   0
                l(2) =   0
                l(3) =   1
                l(4) =   1
                l(5) =   2
                l(6) =   2
     Q(r) pseudized with  8 coefficients,  rinner =    1.150   1.150   1.150
                                                       1.150   1.150

     PseudoPot. # 2 for S  read from file:
     /u/if/mamunm/psp/gbrv1.5pbe/S.UPF
     MD5 check sum: 88d86576ff6df21479756cfb9bdac1df
     Pseudo is Ultrasoft + core correction, Zval =  6.0
     Generated by new atomic code, or converted to UPF format
     Using radial grid of  907 points,  6 beta functions with:
                l(1) =   0
                l(2) =   0
                l(3) =   1
                l(4) =   1
                l(5) =   2
                l(6) =   2
     Q(r) pseudized with  8 coefficients,  rinner =    1.300   1.300   1.300
                                                       1.300   1.300

     vdW kernel table read from file vdW_kernel_table
     MD5 check sum: 095c7af220d748ca6e76c0b4c6cfb241

     atomic species   valence    mass     pseudopotential
        Cu1           19.00    63.54600     Cu( 1.00)
        S1             6.00    32.06000     S ( 1.00)

     No symmetry found

   Cartesian axes

     site n.     atom                  positions (alat units)
         1           Cu1 tau(   1) = (   1.2962057   0.7483647  10.0000000  )
         2           Cu1 tau(   2) = (   3.8886170   0.7483647  10.0000000  )
         3           Cu1 tau(   3) = (   2.5924113   2.9934587  10.0000000  )
         4           Cu1 tau(   4) = (   5.1848226   2.9934587  10.0000000  )
         5           Cu1 tau(   5) = (   5.1848226   1.4967294  12.1166950  )
         6           Cu1 tau(   6) = (   2.5924113   1.4967294  12.1166950  )
         7           Cu1 tau(   7) = (   6.4810283   3.7418234  12.1166950  )
         8           Cu1 tau(   8) = (   3.8886170   3.7418234  12.1166950  )
         9           Cu1 tau(   9) = (   0.0000000   0.0000000  14.2333899  )
        10           Cu1 tau(  10) = (   2.5924113   0.0000000  14.2333899  )
        11           Cu1 tau(  11) = (   1.2962057   2.2450940  14.2333899  )
        12           Cu1 tau(  12) = (   3.8886170   2.2450940  14.2333899  )
        13           S1  tau(  13) = (   1.2962057   0.7483647  15.7738899  )

     number of k points=    20  Fermi-Dirac smearing, width (Ry)=  0.0110
                       cart. coord. in units 2pi/alat
        k(    1) = (   0.0000000   0.0000000   0.0000000), wk =   0.0555556
        k(    2) = (   0.0000000   0.0371180   0.0000000), wk =   0.1111111
        k(    3) = (   0.0000000   0.0742359   0.0000000), wk =   0.1111111
        k(    4) = (   0.0000000  -0.1113539   0.0000000), wk =   0.0555556
        k(    5) = (   0.0321451  -0.0185590   0.0000000), wk =   0.1111111
        k(    6) = (   0.0321451   0.0185590   0.0000000), wk =   0.1111111
        k(    7) = (   0.0321451   0.0556770   0.0000000), wk =   0.1111111
        k(    8) = (   0.0321451  -0.1299129   0.0000000), wk =   0.1111111
        k(    9) = (   0.0321451  -0.0927949   0.0000000), wk =   0.1111111
        k(   10) = (   0.0321451  -0.0556770   0.0000000), wk =   0.1111111
        k(   11) = (   0.0642902  -0.0371180   0.0000000), wk =   0.1111111
        k(   12) = (   0.0642902  -0.0000000   0.0000000), wk =   0.1111111
        k(   13) = (   0.0642902   0.0371180   0.0000000), wk =   0.1111111
        k(   14) = (   0.0642902  -0.1484719   0.0000000), wk =   0.1111111
        k(   15) = (   0.0642902  -0.1113539   0.0000000), wk =   0.1111111
        k(   16) = (   0.0642902  -0.0742359   0.0000000), wk =   0.1111111
        k(   17) = (  -0.0964353   0.0556770   0.0000000), wk =   0.0555556
        k(   18) = (  -0.0964353   0.0927949   0.0000000), wk =   0.1111111
        k(   19) = (  -0.0964353   0.1299129   0.0000000), wk =   0.1111111
        k(   20) = (  -0.0964353  -0.0556770   0.0000000), wk =   0.0555556

     Largest allocated arrays     est. size (Mb)     dimensions
     Largest temporary arrays     est. size (Mb)     dimensions

     Initial potential from superposition of free atoms
     Check: negative starting charge=   -0.000108

     starting charge  221.99994, renormalised to  234.00000

     negative rho (up, down):  1.141E-04 0.000E+00

     *
     * You are using vdW-DF for exchange-correlation in this calculation.
     * Please cite the following three references that made this development
     * possible:
     *
     *   M. Dion, H. Rydberg, E. Schroder, D. C. Langreth, and
     *   B. I. Lundqvist, Phys. Rev. Lett. 92, 246401 (2004).
     *
     *   T. Thonhauser, V. R. Cooper, S. Li, A. Puzder, P. Hyldgaard, and
     *   D. C. Langreth, Phys. Rev. B 76, 125112 (2007).
     *
     *   G. Roman-Perez and J. M. Soler, Phys. Rev. Lett. 103, 096102 (2009).
     *
     *
     * If you are using vdW-DF2, please also cite:
     *
     *   K. Lee, E. D. Murray, L. Kong, B. I. Lundqvist, and
     *   D. C. Langreth, Phys. Rev. B 82, 081101(R) (2010).
     *
     *
     * If you are calculating the stress with vdW-DF, please also cite:
     *
     *   R. Sabatini, E. Kucukbenli, B. Kolb, T. Thonhauser, and
     *   S. de Gironcoli, J. Phys.: Condens. Matter 24, 424209 (2012).
     *

     Carrying out vdW-DF run using the following parameters:

     Nqs =      20    Nr_points =    1024   r_max =   100.000
     q_mesh =
               0.00001000     0.04494208     0.09755937     0.15916263
               0.23128650     0.31572767     0.41458969     0.53033537
               0.66584808     0.82450364     1.01025438     1.22772762
               1.48234092     1.78043706     2.12944203     2.53805004
               3.01644009     3.57652955     4.23227104     5.00000000

     Gradients computed in reciprocal space

     Adding external electric field

     Computed dipole along edir(3) :
        Dipole               -2.2412 Ry au,         -5.6965 Debye
        Dipole field         -0.0074 Ry au

        Potential amp.        0.6606 Ry
        Total length         44.6496 bohr

     Starting wfc are  160 randomized atomic wfcs

     Self-consistent Calculation

     iteration #  1     ecut=    36.75 Ry     beta=0.30
     Davidson diagonalization with overlap
     ethr =  1.00E-02,  avg # of iterations =  8.2

[...]

     total energy              =   -4561.32078196 Ry
     Harris-Foulkes estimate   =   -4881.88832386 Ry
     estimated scf accuracy    <     675.34835001 Ry

     iteration #  2     ecut=    36.75 Ry     beta=0.30
     Davidson diagonalization with overlap
     c_bands:  4 eigenvalues not converged
     ethr =  1.00E-02,  avg # of iterations = 19.9

[...]

     End of self-consistent calculation

          k = 0.0000 0.0000 0.0000 ( 14321 PWs)   bands (ev):

  -112.3634-112.3580-112.3575-112.2604-112.1348-112.1297-112.1286-111.9266
  -111.8867-111.8816-111.8797-111.8517 -69.8651 -69.8309 -69.8305 -69.7437
   -69.7433 -69.7182 -69.7085 -69.6783 -69.6779 -69.6611 -69.6520 -69.6519
   -69.5773 -69.5373 -69.5373 -69.5279 -69.5220 -69.5210 -69.5073 -69.5067
   -69.5063 -69.3658 -69.3652 -69.3372 -69.3058 -69.3050 -69.2936 -69.2792
   -69.2791 -69.2791 -69.2755 -69.2742 -69.2380 -69.2330 -69.2311 -69.2192
   -12.8264  -7.7891  -5.8972  -4.7205  -4.5444  -4.5444  -4.3804  -4.1348
    -4.1346  -4.1022  -3.8315  -3.7279  -3.7276  -3.6704  -3.6703  -3.5610
    -3.3209  -3.3207  -3.1949  -2.8094  -2.8092  -2.7085  -2.6982  -2.6980
    -2.5981  -2.5164  -2.5163  -2.4487  -2.4358  -2.4358  -2.3852  -2.3341
    -2.3339  -2.2718  -2.2149  -2.2148  -2.0350  -2.0344  -1.9954  -1.8613
    -1.8373  -1.8371  -1.6823  -1.6819  -1.5814  -1.5812  -1.4356  -1.4353
    -1.3995  -1.3259  -1.3197  -1.3190  -1.3031  -1.2608  -1.2606  -1.2206
    -1.2204  -1.1790  -1.1787  -1.1596  -1.1045  -0.9671  -0.9661  -0.9508
    -0.7024  -0.7022  -0.5108   0.6191   0.7204   0.7205   1.1010   1.6574
     1.6576   1.8913   2.0453   2.0454   3.4349   4.4486   4.7202

[...]

          k =-0.0964 0.0557 0.0000 ( 14294 PWs)   bands (ev):

[...]

     the Fermi energy is     0.4521 ev

!    total energy              =   -4883.71574667 Ry
     Harris-Foulkes estimate   =   -4883.71573729 Ry
     estimated scf accuracy    <       0.00000329 Ry

     The total energy is the sum of the following terms:

     one-electron contribution =  -37877.83053527 Ry
     hartree contribution      =   18954.60072621 Ry
     xc contribution           =    -488.94917460 Ry
     ewald contribution        =   14528.49087177 Ry
     electric field correction =       0.00007307 Ry
     smearing contrib. (-TS)   =      -0.02770785 Ry

     convergence has been achieved in  35 iterations

 BEEF-vdW xc energy contributions
           1 :   -433.101352337026
           2 :    392.565065563075
           3 :   -323.835053888730
           4 :    245.742371117019
           5 :   -175.507419973484
           6 :    122.599667059909
           7 :   -87.1982966870493
           8 :    63.2582531154077
           9 :   -43.7867556695469
          10 :    25.0847771700419
          11 :   -7.82709967104586
          12 :   -4.95379241035749
          13 :    11.0552643260565
          14 :   -11.1447585712406
          15 :    8.45372459648519
          16 :   -6.66245018882864
          17 :    7.64392775439353
          18 :   -10.6241863618451
          19 :    13.1814748885572
          20 :   -13.2246284710626
          21 :    10.5124107694196
          22 :   -6.72357305449475
          23 :    4.16252181645632
          24 :   -4.11637155348842
          25 :    6.03267355373862
          26 :   -8.03300415305387
          27 :    8.31641511041107
          28 :   -6.42186850001906
          29 :    3.47884410394568
          30 :   -1.32809947344026
          31 :   -34.7618052878549
          32 :   -23.7688702018707

     Forces acting on atoms (Ry/au):

     negative rho (up, down):  1.040E-03 0.000E+00
     atom    1 type  1   force =    -0.00006760    0.00008706    0.00683121
     atom    2 type  1   force =     0.00006403    0.00118135    0.00076811
     atom    3 type  1   force =     0.00089280   -0.00057251    0.00096691
     atom    4 type  1   force =    -0.00089516   -0.00064933    0.00115947
     atom    5 type  1   force =    -0.00184191    0.00100378   -0.00276138
     atom    6 type  1   force =     0.00188214    0.00104504   -0.00284803
     atom    7 type  1   force =     0.00000877    0.00003627    0.01139883
     atom    8 type  1   force =    -0.00000904   -0.00208878   -0.00276703
     atom    9 type  1   force =    -0.03375371   -0.01939294   -0.02042119
     atom   10 type  1   force =     0.03371656   -0.01940520   -0.02040269
     atom   11 type  1   force =    -0.00002853    0.03883643   -0.02049668
     atom   12 type  1   force =     0.00002715   -0.00007636   -0.01255919
     atom   13 type  2   force =     0.00000450   -0.00000481    0.06113166

     Total force =     0.098414     Total SCF correction =     0.002984

     entering subroutine stress ...

     negative rho (up, down):  1.040E-03 0.000E+00
          total   stress  (Ry/bohr**3)                   (kbar)     P=  -18.95
  -0.00014687  -0.00000000  -0.00000000        -21.60     -0.00     -0.00
  -0.00000000  -0.00014685  -0.00000002         -0.00    -21.60     -0.00
  -0.00000000  -0.00000002  -0.00009281         -0.00     -0.00    -13.65

     BFGS Geometry Optimization

     number of scf cycles    =   1
     number of bfgs steps    =   0

     energy   new            =   -4883.7157466747 Ry

     new trust radius        =       0.0611316608 bohr
     new conv_thr            =       0.0000099958 Ry

ATOMIC_POSITIONS (crystal)
Cu1      0.166666667   0.166666667   0.412653782    0   0   0
Cu1      0.666666667   0.166666667   0.412653782    0   0   0
Cu1      0.166666667   0.666666667   0.412653782    0   0   0
Cu1      0.666666667   0.666666667   0.412653782    0   0   0
Cu1      0.833333333   0.333333333   0.500000000    0   0   0
Cu1      0.333333333   0.333333333   0.500000000    0   0   0
Cu1      0.833333333   0.833333333   0.500000000    0   0   0
Cu1      0.333333333   0.833333333   0.500000000    0   0   0
Cu1     -0.002302249  -0.002285495   0.586900287
Cu1      0.504584675  -0.002286940   0.586900691
Cu1     -0.002291385   0.504576947   0.586898638
Cu1      0.500007271   0.499991001   0.587071967
S1       0.166667410   0.166666100   0.652250447

     Writing output data file calc.save
     Check: negative starting charge=   -0.000108
     NEW-OLD atomic charge density approx. for the potential
     Check: negative starting charge=   -0.000107

[...]

     Total force =     0.043192     Total SCF correction =     0.009657
     SCF correction compared to forces is large: reduce conv_thr to get better values

[...]

     energy   old            =   -4883.7157466747 Ry
     energy   new            =   -4883.7227634005 Ry

     CASE: energy  _new < energy  _old

[...]

     Threshold (ethr) on eigenvalues was too large:
     Diagonalizing with lowered threshold

     Davidson diagonalization with overlap
     ethr =  4.34E-08,  avg # of iterations =  1.0

[...]

     Total force =     0.006114     Total SCF correction =     0.000557

[...]

     number of scf cycles    =   7
     number of bfgs steps    =   6

     energy   old            =   -4883.7251671731 Ry
     energy   new            =   -4883.7252727184 Ry

     CASE: energy  _new < energy  _old

     new trust radius        =       0.0251190601 bohr
     new conv_thr            =       0.0000001000 Ry

ATOMIC_POSITIONS (crystal)
Cu1      0.166666667   0.166666667   0.412653782    0   0   0
Cu1      0.666666667   0.166666667   0.412653782    0   0   0
Cu1      0.166666667   0.666666667   0.412653782    0   0   0
Cu1      0.666666667   0.666666667   0.412653782    0   0   0
Cu1      0.833333333   0.333333333   0.500000000    0   0   0
Cu1      0.333333333   0.333333333   0.500000000    0   0   0
Cu1      0.833333333   0.833333333   0.500000000    0   0   0
Cu1      0.333333333   0.833333333   0.500000000    0   0   0
Cu1     -0.005446378  -0.005459186   0.587154194
Cu1      0.510905747  -0.005458128   0.587154011
Cu1     -0.005452335   0.510907304   0.587152759
Cu1      0.499995182   0.500005826   0.584810240
S1       0.166664965   0.166661823   0.653459726

     Writing output data file calc.save
     Check: negative starting charge=   -0.000108
     NEW-OLD atomic charge density approx. for the potential
     Check: negative starting charge=   -0.000110

[...]

     Self-consistent Calculation

[...]

     total energy              =   -4883.72531917 Ry
     Harris-Foulkes estimate   =   -4883.72531909 Ry
     estimated scf accuracy    <       0.00000033 Ry

     iteration #  9     ecut=    36.75 Ry     beta=0.30
     Davidson diagonalization with overlap
     ethr =  1.41E-10,  avg # of iterations =  2.0

[...]

     negative rho (up, down):  1.052E-03 0.000E+00

     Adding external electric field

     Computed dipole along edir(3) :
        Dipole               -0.1965 Ry au,         -0.4995 Debye
        Dipole field         -0.0006 Ry au

        Potential amp.        0.0579 Ry
        Total length         44.6496 bohr

     End of self-consistent calculation

[...]

          k = 0.0643-0.0742 0.0000 ( 14299 PWs)   bands (ev):

[...]

          k =-0.0964-0.0557 0.0000 ( 14294 PWs)   bands (ev):

  -112.3487-112.3164-112.3132-112.3117-112.2104-112.2085-112.2067-112.0067
  -111.9612-111.9593-111.9575-111.9392 -69.7951 -69.7713 -69.7627 -69.7461
   -69.7335 -69.7311 -69.7058 -69.7007 -69.6886 -69.6679 -69.6583 -69.6467
   -69.6388 -69.6189 -69.6063 -69.6032 -69.6016 -69.5986 -69.5975 -69.5940
   -69.5852 -69.4371 -69.4268 -69.4032 -69.3844 -69.3813 -69.3773 -69.3742
   -69.3646 -69.3627 -69.3607 -69.3553 -69.3132 -69.3115 -69.3108 -69.3094
   -12.3708  -6.2606  -6.1178  -4.8428  -4.6292  -4.1025  -4.0593  -3.8848
    -3.7814  -3.7565  -3.6508  -3.6350  -3.5053  -3.3497  -3.3360  -3.2930
    -3.2542  -3.1982  -3.1443  -3.1242  -2.9733  -2.9480  -2.9318  -2.8914
    -2.8769  -2.8276  -2.6937  -2.6436  -2.6292  -2.5411  -2.4748  -2.4486
    -2.3893  -2.3661  -2.3341  -2.3318  -2.3058  -2.3045  -2.2472  -2.2304
    -2.2246  -2.0908  -2.0895  -2.0579  -2.0032  -1.9852  -1.9582  -1.9006
    -1.8764  -1.8113  -1.7852  -1.7239  -1.6892  -1.6840  -1.6348  -1.6336
    -1.5918  -1.5635  -1.4456  -1.4208  -1.3389  -1.3242  -1.2874  -1.2329
    -1.2080  -0.7397  -0.6517  -0.1582   0.3753   0.3758   1.1236   1.5386
     1.8697   2.4885   3.5285   4.1524   4.5659   5.4886   5.9591

     the Fermi energy is     0.3762 ev

!    total energy              =   -4883.72531924 Ry
     Harris-Foulkes estimate   =   -4883.72531932 Ry
     estimated scf accuracy    <       0.00000006 Ry

     The total energy is the sum of the following terms:

     one-electron contribution =  -37930.64179857 Ry
     hartree contribution      =   18980.75857159 Ry
     xc contribution           =    -488.90400532 Ry
     ewald contribution        =   14555.08959419 Ry
     electric field correction =       0.00012749 Ry
     smearing contrib. (-TS)   =      -0.02780861 Ry

     convergence has been achieved in   9 iterations

 BEEF-vdW xc energy contributions
           1 :   -433.053929334413
           2 :    392.495527791328
           3 :   -323.736642141345
           4 :    245.626216045693
           5 :   -175.394074453227
           6 :    122.507586419510
           7 :   -87.1350146281227
           8 :    63.2182374664782
           9 :   -43.7568126351582
          10 :    25.0537816927729
          11 :   -7.79406119020484
          12 :   -4.97802410562724
          13 :    11.0537925868323
          14 :   -11.1048760128327
          15 :    8.37574926351255
          16 :   -6.56196044129229
          17 :    7.54592257532408
          18 :   -10.5517855724901
          19 :    13.1452140629573
          20 :   -13.2185987402401
          21 :    10.5193527798882
          22 :   -6.72584138362441
          23 :    4.15246456851412
          24 :   -4.09989164354386
          25 :    6.02411501108975
          26 :   -8.04467647075586
          27 :    8.34946130129759
          28 :   -6.46486223741067
          29 :    3.51526117775967
          30 :   -1.34824229352330
          31 :   -34.7586013654844
          32 :   -23.7600733364629

     Forces acting on atoms (Ry/au):

     negative rho (up, down):  1.052E-03 0.000E+00
     atom    1 type  1   force =    -0.00000004   -0.00000008    0.00642813
     atom    2 type  1   force =    -0.00000005    0.00088528    0.00060650
     atom    3 type  1   force =     0.00076673   -0.00044247    0.00060635
     atom    4 type  1   force =    -0.00076686   -0.00044268    0.00060628
     atom    5 type  1   force =     0.00024656   -0.00014412   -0.00472427
     atom    6 type  1   force =    -0.00024704   -0.00014450   -0.00472561
     atom    7 type  1   force =     0.00000096    0.00000113    0.00527237
     atom    8 type  1   force =    -0.00000030    0.00028820   -0.00472878
     atom    9 type  1   force =     0.00115036    0.00067977   -0.00001647
     atom   10 type  1   force =    -0.00115452    0.00067894   -0.00001161
     atom   11 type  1   force =    -0.00000314   -0.00135299   -0.00000296
     atom   12 type  1   force =     0.00000366   -0.00001373   -0.00053436
     atom   13 type  2   force =     0.00000366    0.00000723    0.00122445

     Total force =     0.002682     Total SCF correction =     0.000347
     SCF correction compared to forces is large: reduce conv_thr to get better values

     entering subroutine stress ...

     negative rho (up, down):  1.052E-03 0.000E+00
          total   stress  (Ry/bohr**3)                   (kbar)     P=  -16.83
  -0.00012496   0.00000000   0.00000000        -18.38      0.00      0.00
   0.00000000  -0.00012496   0.00000001          0.00    -18.38      0.00
   0.00000000   0.00000001  -0.00009336          0.00      0.00    -13.73

     bfgs converged in   8 scf cycles and   7 bfgs steps
     (criteria: energy <  1.0E+00, force <  1.9E-03)

     End of BFGS Geometry Optimization

     Final energy   =   -4883.7253192424 Ry
Begin final coordinates

ATOMIC_POSITIONS (crystal)
Cu1      0.166666667   0.166666667   0.412653782    0   0   0
Cu1      0.666666667   0.166666667   0.412653782    0   0   0
Cu1      0.166666667   0.666666667   0.412653782    0   0   0
Cu1      0.666666667   0.666666667   0.412653782    0   0   0
Cu1      0.833333333   0.333333333   0.500000000    0   0   0
Cu1      0.333333333   0.333333333   0.500000000    0   0   0
Cu1      0.833333333   0.833333333   0.500000000    0   0   0
Cu1      0.333333333   0.833333333   0.500000000    0   0   0
Cu1     -0.005446378  -0.005459186   0.587154194
Cu1      0.510905747  -0.005458128   0.587154011
Cu1     -0.005452335   0.510907304   0.587152759
Cu1      0.499995182   0.500005826   0.584810240
S1       0.166664965   0.166661823   0.653459726
End final coordinates

     Writing output data file calc.save

     General routines

     Parallel routines

   This run was terminated on:  13:23:11   2May2018

   JOB DONE.
Job  /afs/slac/g/suncat/bin/suncat-tsmpirun -x LD_LIBRARY_PATH -wdir /scratch/qe629132_9xcrG pw.x -npool 4 -in pw.inp

TID   HOST_NAME   COMMAND_LINE            STATUS            TERMINATION_TIME
00000 suncat0169 pw.x -npool 4 -i  Done                     05/02/2018 13:23:11
00001 suncat0169 pw.x -npool 4 -i  Done                     05/02/2018 13:23:11
00002 suncat0169 pw.x -npool 4 -i  Done                     05/02/2018 13:23:11
00003 suncat0169 pw.x -npool 4 -i  Done                     05/02/2018 13:23:11
00004 suncat0169 pw.x -npool 4 -i  Done                     05/02/2018 13:23:11
00005 suncat0169 pw.x -npool 4 -i  Done                     05/02/2018 13:23:11
00006 suncat0169 pw.x -npool 4 -i  Done                     05/02/2018 13:23:11
00007 suncat0169 pw.x -npool 4 -i  Done                     05/02/2018 13:23:11
00008 suncat0167 pw.x -npool 4 -i  Done                     05/02/2018 13:23:11
00009 suncat0167 pw.x -npool 4 -i  Done                     05/02/2018 13:23:11
00010 suncat0167 pw.x -npool 4 -i  Done                     05/02/2018 13:23:11
00011 suncat0167 pw.x -npool 4 -i  Done                     05/02/2018 13:23:11
00012 suncat0167 pw.x -npool 4 -i  Done                     05/02/2018 13:23:11
00013 suncat0167 pw.x -npool 4 -i  Done                     05/02/2018 13:23:11
00014 suncat0167 pw.x -npool 4 -i  Done                     05/02/2018 13:23:11
00015 suncat0167 pw.x -npool 4 -i  Done                     05/02/2018 13:23:11
00016 suncat0124 pw.x -npool 4 -i  Done                     05/02/2018 13:23:11
00017 suncat0124 pw.x -npool 4 -i  Done                     05/02/2018 13:23:11
00018 suncat0124 pw.x -npool 4 -i  Done                     05/02/2018 13:23:11
00019 suncat0124 pw.x -npool 4 -i  Done                     05/02/2018 13:23:11
00020 suncat0124 pw.x -npool 4 -i  Done                     05/02/2018 13:23:11
00021 suncat0124 pw.x -npool 4 -i  Done                     05/02/2018 13:23:11
00022 suncat0124 pw.x -npool 4 -i  Done                     05/02/2018 13:23:11
00023 suncat0124 pw.x -npool 4 -i  Done                     05/02/2018 13:23:11
00024 suncat0123 pw.x -npool 4 -i  Done                     05/02/2018 13:23:11
00025 suncat0123 pw.x -npool 4 -i  Done                     05/02/2018 13:23:11
00026 suncat0123 pw.x -npool 4 -i  Done                     05/02/2018 13:23:11
00027 suncat0123 pw.x -npool 4 -i  Done                     05/02/2018 13:23:11
00028 suncat0123 pw.x -npool 4 -i  Done                     05/02/2018 13:23:11
00029 suncat0123 pw.x -npool 4 -i  Done                     05/02/2018 13:23:11
00030 suncat0123 pw.x -npool 4 -i  Done                     05/02/2018 13:23:11
00031 suncat0123 pw.x -npool 4 -i  Done                     05/02/2018 13:23:11