     Program PWSCF v.5.1rc2 (svn rev. 11289) starts on 20Apr2018 at 22:44:20

     Current dimensions of program PWSCF are:
     Max number of different atomic species (ntypx) = 10
     Max number of k-points (npk) =  40000
     Max angular momentum in pseudopotentials (lmaxx) =  3
     Presently stress not available with electric field

     IMPORTANT: XC functional enforced from input :
     Exchange-correlation      = BEEF-VDW ( 1  4 27 13 2)
     Any further DFT definition will be discarded
     Please, verify this is what you really want

     Subspace diagonalization in iterative solution of the eigenvalue problem:
     a serial algorithm will be used

     bravais-lattice index     =            0
     lattice parameter (alat)  =       1.8897  a.u.
     unit-cell volume          =    7171.5276 (a.u.)^3
     number of atoms/cell      =           14
     number of atomic types    =            3
     number of electrons       =       175.00
     number of Kohn-Sham states=           97
     kinetic-energy cutoff     =      36.7493  Ry
     charge density cutoff     =     367.4932  Ry
     convergence threshold     =      1.0E-05
     mixing beta               =       0.3000
     number of iterations used =           10  plain     mixing
     Exchange-correlation      = BEEF-VDW ( 1  4 27 13 2)
     nstep                     =           50

     celldm(1)=   1.889726  celldm(2)=   0.000000  celldm(3)=   0.000000
     celldm(4)=   0.000000  celldm(5)=   0.000000  celldm(6)=   0.000000

     crystal axes: (cart. coord. in units of alat)
               a(1) = (   6.917003   0.000000   0.000000 )
               a(2) = (   3.458501   5.990300   0.000000 )
               a(3) = (   0.000000   0.000000  25.647709 )

     reciprocal axes: (cart. coord. in units 2 pi/alat)
               b(1) = (  0.144571 -0.083468  0.000000 )
               b(2) = (  0.000000  0.166937  0.000000 )
               b(3) = (  0.000000  0.000000  0.038990 )

     PseudoPot. # 1 for Pb read from file:
     /u/if/mamunm/psp/gbrv1.5pbe/Pb.UPF
     MD5 check sum: 3d1c1779aa92214d1e8f3a7db79003e2
     Pseudo is Ultrasoft + core correction, Zval = 14.0
     Generated by new atomic code, or converted to UPF format
     Using radial grid of  899 points,  6 beta functions with:
                l(1) =   0
                l(2) =   0
                l(3) =   1
                l(4) =   1
                l(5) =   2
                l(6) =   2
     Q(r) pseudized with  6 coefficients,  rinner =    1.000   1.000   1.000
                                                       1.000   1.000

     PseudoPot. # 2 for O  read from file:
     /u/if/mamunm/psp/gbrv1.5pbe/O.UPF
     MD5 check sum: 734c27235a0248c51dbae37a1fbe46ec
     Pseudo is Ultrasoft + core correction, Zval =  6.0
     Generated by new atomic code, or converted to UPF format
     Using radial grid of  737 points,  5 beta functions with:
                l(1) =   0
                l(2) =   0
                l(3) =   1
                l(4) =   1
                l(5) =   2
     Q(r) pseudized with  8 coefficients,  rinner =    0.900   0.900   0.900
                                                       0.900   0.900

     PseudoPot. # 3 for H  read from file:
     /u/if/mamunm/psp/gbrv1.5pbe/H.UPF
     MD5 check sum: 761ae9a214b05c3daf00ab9f6b793d6f
     Pseudo is Ultrasoft, Zval =  1.0
     Generated by new atomic code, or converted to UPF format
     Using radial grid of  615 points,  2 beta functions with:
                l(1) =   0
                l(2) =   0
     Q(r) pseudized with  8 coefficients,  rinner =    0.700

     vdW kernel table read from file vdW_kernel_table
     MD5 check sum: 095c7af220d748ca6e76c0b4c6cfb241

     atomic species   valence    mass     pseudopotential
        Pb1           14.00   207.20000     Pb( 1.00)
        O1             6.00    15.99900     O ( 1.00)
        H1             1.00     1.00800     H ( 1.00)

     No symmetry found

   Cartesian axes

     site n.     atom                  positions (alat units)
         1           Pb1 tau(   1) = (   1.7292506   0.9983833  10.0000000  )
         2           Pb1 tau(   2) = (   5.1877519   0.9983833  10.0000000  )
         3           Pb1 tau(   3) = (   3.4585013   3.9935333  10.0000000  )
         4           Pb1 tau(   4) = (   6.9170025   3.9935333  10.0000000  )
         5           Pb1 tau(   5) = (   6.9170025   1.9967666  12.8238544  )
         6           Pb1 tau(   6) = (   3.4585013   1.9967666  12.8238544  )
         7           Pb1 tau(   7) = (   8.6462531   4.9919166  12.8238544  )
         8           Pb1 tau(   8) = (   5.1877519   4.9919166  12.8238544  )
         9           Pb1 tau(   9) = (   0.0000000   0.0000000  15.6477089  )
        10           Pb1 tau(  10) = (   3.4585013   0.0000000  15.6477089  )
        11           Pb1 tau(  11) = (   1.7292506   2.9951499  15.6477089  )
        12           Pb1 tau(  12) = (   5.1877519   2.9951499  15.6477089  )
        13           O1  tau(  13) = (   1.7292506   0.0000000  17.2377089  )
        14           H1  tau(  14) = (   1.7292506   0.0000000  18.1877089  )

     number of k points=    20  Fermi-Dirac smearing, width (Ry)=  0.0110
                       cart. coord. in units 2pi/alat
        k(    1) = (   0.0000000   0.0000000   0.0000000), wk =   0.0555556
        k(    2) = (   0.0000000   0.0278228   0.0000000), wk =   0.1111111
        k(    3) = (   0.0000000   0.0556455   0.0000000), wk =   0.1111111
        k(    4) = (   0.0000000  -0.0834683   0.0000000), wk =   0.0555556
        k(    5) = (   0.0240952  -0.0139114   0.0000000), wk =   0.1111111
        k(    6) = (   0.0240952   0.0139114   0.0000000), wk =   0.1111111
        k(    7) = (   0.0240952   0.0417341   0.0000000), wk =   0.1111111
        k(    8) = (   0.0240952  -0.0973797   0.0000000), wk =   0.1111111
        k(    9) = (   0.0240952  -0.0695569   0.0000000), wk =   0.1111111
        k(   10) = (   0.0240952  -0.0417341   0.0000000), wk =   0.1111111
        k(   11) = (   0.0481904  -0.0278228   0.0000000), wk =   0.1111111
        k(   12) = (   0.0481904   0.0000000   0.0000000), wk =   0.1111111
        k(   13) = (   0.0481904   0.0278228   0.0000000), wk =   0.1111111
        k(   14) = (   0.0481904  -0.1112910   0.0000000), wk =   0.1111111
        k(   15) = (   0.0481904  -0.0834683   0.0000000), wk =   0.1111111
        k(   16) = (   0.0481904  -0.0556455   0.0000000), wk =   0.1111111
        k(   17) = (  -0.0722856   0.0417341   0.0000000), wk =   0.0555556
        k(   18) = (  -0.0722856   0.0695569   0.0000000), wk =   0.1111111
        k(   19) = (  -0.0722856   0.0973797   0.0000000), wk =   0.1111111
        k(   20) = (  -0.0722856  -0.0417341   0.0000000), wk =   0.0555556

     Largest allocated arrays     est. size (Mb)     dimensions
     Largest temporary arrays     est. size (Mb)     dimensions

     Check: negative/imaginary core charge=   -0.000001    0.000000

     Initial potential from superposition of free atoms
     Check: negative starting charge=   -0.197994

     starting charge  174.97177, renormalised to  175.00000

     negative rho (up, down):  1.980E-01 0.000E+00

     *
     * You are using vdW-DF for exchange-correlation in this calculation.
     * Please cite the following three references that made this development
     * possible:
     *
     *   M. Dion, H. Rydberg, E. Schroder, D. C. Langreth, and
     *   B. I. Lundqvist, Phys. Rev. Lett. 92, 246401 (2004).
     *
     *   T. Thonhauser, V. R. Cooper, S. Li, A. Puzder, P. Hyldgaard, and
     *   D. C. Langreth, Phys. Rev. B 76, 125112 (2007).
     *
     *   G. Roman-Perez and J. M. Soler, Phys. Rev. Lett. 103, 096102 (2009).
     *
     *
     * If you are using vdW-DF2, please also cite:
     *
     *   K. Lee, E. D. Murray, L. Kong, B. I. Lundqvist, and
     *   D. C. Langreth, Phys. Rev. B 82, 081101(R) (2010).
     *
     *
     * If you are calculating the stress with vdW-DF, please also cite:
     *
     *   R. Sabatini, E. Kucukbenli, B. Kolb, T. Thonhauser, and
     *   S. de Gironcoli, J. Phys.: Condens. Matter 24, 424209 (2012).
     *

     Carrying out vdW-DF run using the following parameters:

     Nqs =      20    Nr_points =    1024   r_max =   100.000
     q_mesh =
               0.00001000     0.04494208     0.09755937     0.15916263
               0.23128650     0.31572767     0.41458969     0.53033537
               0.66584808     0.82450364     1.01025438     1.22772762
               1.48234092     1.78043706     2.12944203     2.53805004
               3.01644009     3.57652955     4.23227104     5.00000000

     Gradients computed in reciprocal space

     Adding external electric field

     Computed dipole along edir(3) :
        Dipole               -0.0096 Ry au,         -0.0244 Debye
        Dipole field         -0.0000 Ry au

        Potential amp.        0.0016 Ry
        Total length         47.2555 bohr

     Starting wfc are  113 randomized atomic wfcs

     Self-consistent Calculation

     iteration #  1     ecut=    36.75 Ry     beta=0.30
     Davidson diagonalization with overlap
     ethr =  1.00E-02,  avg # of iterations =  2.0

     Threshold (ethr) on eigenvalues was too large:
     Diagonalizing with lowered threshold

     Davidson diagonalization with overlap
     ethr =  5.38E-04,  avg # of iterations =  2.0

[...]

     total energy              =   -2025.80904750 Ry
     Harris-Foulkes estimate   =   -2026.22937998 Ry
     estimated scf accuracy    <       0.95499819 Ry

[...]

     End of self-consistent calculation

          k = 0.0000 0.0000 0.0000 ( 27033 PWs)   bands (ev):

   -18.6432 -16.2537 -16.2522 -16.2488 -16.2090 -16.2054 -16.2037 -16.1653
   -16.1589 -16.1502 -16.1424 -16.1387 -16.1249 -16.1214 -16.1092 -16.1086
   -16.1077 -16.0930 -16.0891 -16.0883 -16.0845 -16.0719 -16.0717 -16.0686
   -16.0654 -16.0621 -16.0563 -16.0529 -16.0500 -16.0444 -16.0205 -15.9979
   -15.9899 -15.9711 -15.9626 -15.9596 -15.9520 -15.9423 -15.9408 -15.9254
   -15.9189 -15.8762 -15.8669 -15.8588 -15.8561 -15.8532 -15.8444 -15.8433
   -15.8380 -15.8298 -15.8258 -15.8242 -15.8239 -15.8170 -15.8141 -15.7964
   -15.7929 -15.7839 -15.7593 -15.7559 -15.7548 -10.2009  -9.1463  -7.7144
    -6.8408  -6.7515  -6.6448  -6.4712  -6.3906  -6.2174  -5.8392  -5.7025
    -5.5829  -5.0287  -2.6355  -2.5570  -2.2573  -2.0999  -1.9496  -1.7470
    -1.2996  -1.2575  -1.2067  -0.9415  -0.6414  -0.4825   0.9958   2.5208
     2.5316   2.5467   2.6984   2.9863   3.1629   3.4260   3.9475   3.9754
     4.0024

[...]

          k =-0.0723 0.0417 0.0000 ( 26962 PWs)   bands (ev):

[...]

     the Fermi energy is     1.3967 ev

!    total energy              =   -2025.99152285 Ry
     Harris-Foulkes estimate   =   -2025.99153441 Ry
     estimated scf accuracy    <       0.00000225 Ry

     The total energy is the sum of the following terms:

     one-electron contribution =   -9737.45975304 Ry
     hartree contribution      =    4942.63699206 Ry
     xc contribution           =    -792.34497406 Ry
     ewald contribution        =    3561.21970526 Ry
     electric field correction =       0.00002827 Ry
     smearing contrib. (-TS)   =      -0.04352134 Ry

     convergence has been achieved in  10 iterations

 BEEF-vdW xc energy contributions
           1 :   -706.042451044073
           2 :    655.500802591296
           3 :   -566.631688871549
           4 :    459.028325628895
           5 :   -352.767202662004
           6 :    262.427444708379
           7 :   -194.009373906082
           8 :    145.413862552423
           9 :   -109.762922810203
          10 :    79.7686324267031
          11 :   -51.1405757237376
          12 :    23.7168830907217
          13 :  -0.259267734016021
          14 :   -16.0356834685598
          15 :    23.8015357602865
          16 :   -24.4029577408614
          17 :    21.2125752622204
          18 :   -17.8847376741803
          19 :    16.6677458641143
          20 :   -17.6438649989301
          21 :    19.1951605403474
          22 :   -19.3086600893428
          23 :    16.9155875048183
          24 :   -12.5261514605777
          25 :    7.87894161910413
          26 :   -4.89582616237408
          27 :    4.59121214654010
          28 :   -6.55486443806262
          29 :    9.25406913028041
          30 :   -10.9346219083717
          31 :   -56.6592387837082
          32 :   -41.4901573549467

     Forces acting on atoms (Ry/au):

     negative rho (up, down):  2.142E-01 0.000E+00
     atom    1 type  1   force =     0.00001246   -0.00309559   -0.00959957
     atom    2 type  1   force =    -0.00001517   -0.00006485   -0.00615751
     atom    3 type  1   force =    -0.00129664    0.00138417   -0.00609712
     atom    4 type  1   force =     0.00127475    0.00140131   -0.00606198
     atom    5 type  1   force =     0.00009384    0.00099981   -0.00318708
     atom    6 type  1   force =    -0.00008446    0.00099479   -0.00321062
     atom    7 type  1   force =    -0.00000439   -0.00401632   -0.01361256
     atom    8 type  1   force =    -0.00000512    0.00261876   -0.00193013
     atom    9 type  1   force =    -0.01509525   -0.00106491    0.00575772
     atom   10 type  1   force =     0.01508544   -0.00105613    0.00577678
     atom   11 type  1   force =     0.00000526    0.00706354    0.00463145
     atom   12 type  1   force =     0.00001544   -0.00546904    0.00586894
     atom   13 type  2   force =     0.00000706    0.00007687   -0.02608137
     atom   14 type  3   force =     0.00000677    0.00022760    0.05390305

     Total force =     0.065159     Total SCF correction =     0.005890

     entering subroutine stress ...

     negative rho (up, down):  2.142E-01 0.000E+00
          total   stress  (Ry/bohr**3)                   (kbar)     P=   13.63
   0.00010528   0.00000000  -0.00000000         15.49      0.00     -0.00
   0.00000000   0.00008570   0.00000032          0.00     12.61      0.05
  -0.00000000   0.00000032   0.00008708         -0.00      0.05     12.81

     BFGS Geometry Optimization

     number of scf cycles    =   1
     number of bfgs steps    =   0

     energy   new            =   -2025.9915228473 Ry

     new trust radius        =       0.0539035332 bohr
     new conv_thr            =       0.0000099958 Ry

ATOMIC_POSITIONS (crystal)
Pb1      0.166666667   0.166666667   0.389898374    0   0   0
Pb1      0.666666667   0.166666667   0.389898374    0   0   0
Pb1      0.166666667   0.666666667   0.389898374    0   0   0
Pb1      0.666666667   0.666666667   0.389898374    0   0   0
Pb1      0.833333333   0.333333333   0.500000000    0   0   0
Pb1      0.333333333   0.333333333   0.500000000    0   0   0
Pb1      0.833333333   0.833333333   0.500000000    0   0   0
Pb1      0.333333333   0.833333333   0.500000000    0   0   0
Pb1     -0.001107808  -0.000094073   0.610220422
Pb1      0.501200743  -0.000093298   0.610220815
Pb1     -0.000311591   0.500623986   0.610197184
Pb1      0.500242746   0.499516870   0.610222717
O1       0.249997145   0.000006790   0.671557343
H1       0.249990465   0.000020106   0.710247969

     Writing output data file calc.save
     Check: negative starting charge=   -0.197994
     NEW-OLD atomic charge density approx. for the potential

     Check: negative/imaginary core charge=   -0.000001    0.000000
     Check: negative starting charge=   -0.197639

[...]

     energy   old            =   -2025.9915228473 Ry
     energy   new            =   -2025.9921671619 Ry

     CASE: energy  _new < energy  _old

[...]

     Total force =     0.030210     Total SCF correction =     0.003271
     SCF correction compared to forces is large: reduce conv_thr to get better values

[...]

     CASE: energy  _new > energy  _old

[...]

     WARNING: bfgs curvature condition failed, Theta= 0.630
     new trust radius        =       0.0662612353 bohr
     new conv_thr            =       0.0000001000 Ry

[...]

     WARNING: info= 42 for Hessian
     uphill step: resetting bfgs history

[...]

     CASE: energy  _new > energy  _old

[...]

     WARNING: bfgs curvature condition failed, Theta= 0.941
     new trust radius        =       0.0190055578 bohr
     new conv_thr            =       0.0000001000 Ry

[...]

     Threshold (ethr) on eigenvalues was too large:
     Diagonalizing with lowered threshold

     Davidson diagonalization with overlap
     ethr =  6.78E-08,  avg # of iterations =  1.8

[...]

     Total force =     0.019713     Total SCF correction =     0.001678

[...]

     new trust radius        =       0.0427625050 bohr
     new conv_thr            =       0.0000001000 Ry

ATOMIC_POSITIONS (crystal)
Pb1      0.166666667   0.166666667   0.389898374    0   0   0
Pb1      0.666666667   0.166666667   0.389898374    0   0   0
Pb1      0.166666667   0.666666667   0.389898374    0   0   0
Pb1      0.666666667   0.666666667   0.389898374    0   0   0
Pb1      0.833333333   0.333333333   0.500000000    0   0   0
Pb1      0.333333333   0.333333333   0.500000000    0   0   0
Pb1      0.833333333   0.833333333   0.500000000    0   0   0
Pb1      0.333333333   0.833333333   0.500000000    0   0   0
Pb1     -0.001703622   0.002118398   0.628907329
Pb1      0.499587631   0.002118824   0.628906222
Pb1     -0.005883611   0.511771163   0.610523007
Pb1      0.502689714   0.494625842   0.610364970
O1       0.266543839  -0.033086251   0.694972820
H1       0.238730473   0.022542717   0.730898190

     Writing output data file calc.save
     Check: negative starting charge=   -0.195079
     NEW-OLD atomic charge density approx. for the potential

     Check: negative/imaginary core charge=   -0.000001    0.000000
     Check: negative starting charge=   -0.196368

[...]

     Self-consistent Calculation

[...]

     total energy              =   -2026.01354212 Ry
     Harris-Foulkes estimate   =   -2026.01354815 Ry
     estimated scf accuracy    <       0.00000036 Ry

     iteration #  8     ecut=    36.75 Ry     beta=0.30
     Davidson diagonalization with overlap
     ethr =  2.07E-10,  avg # of iterations =  5.0

[...]

     negative rho (up, down):  2.125E-01 0.000E+00

     Adding external electric field

     Computed dipole along edir(3) :
        Dipole                0.0126 Ry au,          0.0320 Debye
        Dipole field          0.0000 Ry au

        Potential amp.       -0.0021 Ry
        Total length         47.2555 bohr

     End of self-consistent calculation

[...]

          k = 0.0482-0.0556 0.0000 ( 26956 PWs)   bands (ev):

[...]

          k =-0.0723-0.0417 0.0000 ( 26962 PWs)   bands (ev):

   -18.1215 -16.2745 -16.2637 -16.2573 -16.2522 -16.2225 -16.2199 -16.2169
   -16.2117 -16.2072 -16.2029 -16.1962 -16.1942 -16.1915 -16.1883 -16.1870
   -16.1827 -16.1814 -16.1759 -16.1711 -16.1542 -16.1487 -16.1471 -16.1446
   -16.1351 -16.1226 -16.1189 -16.1185 -16.1111 -16.1028 -16.0930 -16.0843
   -16.0764 -16.0741 -16.0690 -16.0601 -16.0561 -16.0536 -16.0505 -16.0448
   -16.0405 -16.0365 -16.0315 -16.0106 -16.0056 -16.0039 -15.9979 -15.9927
   -15.9913 -15.9893 -15.9868 -15.9836 -15.9777 -15.9593 -15.9522 -15.9487
   -15.9443 -15.9271 -15.9219 -15.8880 -15.8795  -9.0629  -9.0416  -8.1296
    -8.1105  -7.2325  -7.1054  -6.9903  -6.9536  -6.4778  -6.3317  -5.7084
    -5.6496  -4.6690  -2.2484  -1.6419  -0.7823  -0.7054  -0.6618  -0.5565
    -0.4844  -0.4295   0.1682   0.3017   0.7723   0.8539   1.1282   1.3007
     1.8632   1.9886   2.0814   2.1843   2.3897   2.5190   2.6365   2.6964
     2.7902

     the Fermi energy is     1.2907 ev

!    total energy              =   -2026.01353645 Ry
     Harris-Foulkes estimate   =   -2026.01354229 Ry
     estimated scf accuracy    <       0.00000005 Ry

     The total energy is the sum of the following terms:

     one-electron contribution =   -9298.99309754 Ry
     hartree contribution      =    4722.92381789 Ry
     xc contribution           =    -792.11512089 Ry
     ewald contribution        =    3342.21169475 Ry
     electric field correction =       0.00000028 Ry
     smearing contrib. (-TS)   =      -0.04083093 Ry

     convergence has been achieved in   8 iterations

 BEEF-vdW xc energy contributions
           1 :   -705.801808331500
           2 :    655.126987579978
           3 :   -566.113109256251
           4 :    458.489094068571
           5 :   -352.384188146483
           6 :    262.316749335298
           7 :   -194.148873617009
           8 :    145.648695330533
           9 :   -109.891294017190
          10 :    79.6578426224542
          11 :   -50.8053133367371
          12 :    23.3119881337600
          13 :   1.052795723433064E-002
          14 :   -16.0363099556100
          15 :    23.5487506603431
          16 :   -24.0523827219408
          17 :    20.9674185987394
          18 :   -17.8772339484010
          19 :    16.8839007692825
          20 :   -17.9352995741441
          21 :    19.3702411953914
          22 :   -19.2476781128566
          23 :    16.6413484287643
          24 :   -12.1886764835142
          25 :    7.66468835739238
          26 :   -4.91743633290832
          27 :    4.82315143445612
          28 :   -6.85068130290574
          29 :    9.43350401170096
          30 :   -10.8893991105974
          31 :   -56.6391018376107
          32 :   -41.4367277635954

     Forces acting on atoms (Ry/au):

     negative rho (up, down):  2.125E-01 0.000E+00
     atom    1 type  1   force =     0.00000008   -0.00362769   -0.00878432
     atom    2 type  1   force =    -0.00000003    0.00064847   -0.00588145
     atom    3 type  1   force =     0.00051191    0.00131579   -0.00626941
     atom    4 type  1   force =    -0.00051202    0.00131579   -0.00626933
     atom    5 type  1   force =    -0.00019616   -0.00212463    0.00366101
     atom    6 type  1   force =     0.00019654   -0.00212450    0.00366074
     atom    7 type  1   force =     0.00000008    0.00105087    0.00300350
     atom    8 type  1   force =    -0.00000007    0.00371391    0.00692153
     atom    9 type  1   force =     0.00545845    0.00028427    0.00396969
     atom   10 type  1   force =    -0.00545893    0.00028377    0.00397060
     atom   11 type  1   force =    -0.00000008   -0.00131519    0.00269452
     atom   12 type  1   force =    -0.00000063    0.00214591    0.00333068
     atom   13 type  2   force =     0.00000140   -0.00215999    0.00759681
     atom   14 type  3   force =    -0.00000054    0.00059324   -0.01160457

     Total force =     0.017702     Total SCF correction =     0.001792
     SCF correction compared to forces is large: reduce conv_thr to get better values

     entering subroutine stress ...

     negative rho (up, down):  2.125E-01 0.000E+00
          total   stress  (Ry/bohr**3)                   (kbar)     P=    7.14
   0.00006457  -0.00000000  -0.00000000          9.50     -0.00     -0.00
  -0.00000000   0.00005844  -0.00000053         -0.00      8.60     -0.08
  -0.00000000  -0.00000053   0.00002266         -0.00     -0.08      3.33

     number of scf cycles    =  50
     number of bfgs steps    =  45

     energy   old            =   -2026.0132061117 Ry
     energy   new            =   -2026.0135364452 Ry

     CASE: energy  _new < energy  _old

     new trust radius        =       0.0641437575 bohr

     The maximum number of steps has been reached.

     End of BFGS Geometry Optimization
Begin final coordinates

ATOMIC_POSITIONS (crystal)
Pb1      0.166666667   0.166666667   0.389898374    0   0   0
Pb1      0.666666667   0.166666667   0.389898374    0   0   0
Pb1      0.166666667   0.666666667   0.389898374    0   0   0
Pb1      0.666666667   0.666666667   0.389898374    0   0   0
Pb1      0.833333333   0.333333333   0.500000000    0   0   0
Pb1      0.333333333   0.333333333   0.500000000    0   0   0
Pb1      0.833333333   0.833333333   0.500000000    0   0   0
Pb1      0.333333333   0.833333333   0.500000000    0   0   0
Pb1     -0.001074565   0.002707428   0.629781266
Pb1      0.498368772   0.002706976   0.629779802
Pb1     -0.006188876   0.512381676   0.609726901
Pb1      0.502231551   0.495542753   0.609392273
O1       0.269272502  -0.038543581   0.695328998
H1       0.237263762   0.025475787   0.730458728
End final coordinates

     Writing output data file calc.save

     General routines

     Parallel routines

   This run was terminated on:   5:26:57  21Apr2018

   JOB DONE.
Job  /afs/slac/g/suncat/bin/suncat-tsmpirun -x LD_LIBRARY_PATH -wdir /scratch/qe286063_vScBc pw.x -npool 4 -in pw.inp

TID   HOST_NAME   COMMAND_LINE            STATUS            TERMINATION_TIME
00000 suncat0069 pw.x -npool 4 -i  Done                     04/21/2018 05:26:57
00001 suncat0069 pw.x -npool 4 -i  Done                     04/21/2018 05:26:57
00002 suncat0069 pw.x -npool 4 -i  Done                     04/21/2018 05:26:57
00003 suncat0069 pw.x -npool 4 -i  Done                     04/21/2018 05:26:57
00004 suncat0069 pw.x -npool 4 -i  Done                     04/21/2018 05:26:57
00005 suncat0069 pw.x -npool 4 -i  Done                     04/21/2018 05:26:57
00006 suncat0069 pw.x -npool 4 -i  Done                     04/21/2018 05:26:57
00007 suncat0069 pw.x -npool 4 -i  Done                     04/21/2018 05:26:57
00008 suncat0042 pw.x -npool 4 -i  Done                     04/21/2018 05:26:57
00009 suncat0042 pw.x -npool 4 -i  Done                     04/21/2018 05:26:57
00010 suncat0042 pw.x -npool 4 -i  Done                     04/21/2018 05:26:57
00011 suncat0042 pw.x -npool 4 -i  Done                     04/21/2018 05:26:57
00012 suncat0042 pw.x -npool 4 -i  Done                     04/21/2018 05:26:57
00013 suncat0042 pw.x -npool 4 -i  Done                     04/21/2018 05:26:57
00014 suncat0042 pw.x -npool 4 -i  Done                     04/21/2018 05:26:57
00015 suncat0042 pw.x -npool 4 -i  Done                     04/21/2018 05:26:57
00016 suncat0003 pw.x -npool 4 -i  Done                     04/21/2018 05:26:57
00017 suncat0003 pw.x -npool 4 -i  Done                     04/21/2018 05:26:57
00018 suncat0003 pw.x -npool 4 -i  Done                     04/21/2018 05:26:57
00019 suncat0003 pw.x -npool 4 -i  Done                     04/21/2018 05:26:57
00020 suncat0003 pw.x -npool 4 -i  Done                     04/21/2018 05:26:57
00021 suncat0003 pw.x -npool 4 -i  Done                     04/21/2018 05:26:57
00022 suncat0003 pw.x -npool 4 -i  Done                     04/21/2018 05:26:57
00023 suncat0003 pw.x -npool 4 -i  Done                     04/21/2018 05:26:57
00024 suncat0183 pw.x -npool 4 -i  Done                     04/21/2018 05:26:57
00025 suncat0183 pw.x -npool 4 -i  Done                     04/21/2018 05:26:57
00026 suncat0183 pw.x -npool 4 -i  Done                     04/21/2018 05:26:57
00027 suncat0183 pw.x -npool 4 -i  Done                     04/21/2018 05:26:57
00028 suncat0183 pw.x -npool 4 -i  Done                     04/21/2018 05:26:57
00029 suncat0183 pw.x -npool 4 -i  Done                     04/21/2018 05:26:57
00030 suncat0183 pw.x -npool 4 -i  Done                     04/21/2018 05:26:57
00031 suncat0183 pw.x -npool 4 -i  Done                     04/21/2018 05:26:57