     Program PWSCF v.5.1rc2 (svn rev. 11289) starts on 16Apr2018 at 12: 1:39

     Current dimensions of program PWSCF are:
     Max number of different atomic species (ntypx) = 10
     Max number of k-points (npk) =  40000
     Max angular momentum in pseudopotentials (lmaxx) =  3
     Presently stress not available with electric field

     IMPORTANT: XC functional enforced from input :
     Exchange-correlation      = BEEF-VDW ( 1  4 27 13 2)
     Any further DFT definition will be discarded
     Please, verify this is what you really want

     Subspace diagonalization in iterative solution of the eigenvalue problem:
     a serial algorithm will be used

     bravais-lattice index     =            0
     lattice parameter (alat)  =       1.8897  a.u.
     unit-cell volume          =    5144.9564 (a.u.)^3
     number of atoms/cell      =           14
     number of atomic types    =            3
     number of electrons       =       139.00
     number of Kohn-Sham states=           79
     kinetic-energy cutoff     =      36.7493  Ry
     charge density cutoff     =     367.4932  Ry
     convergence threshold     =      1.0E-05
     mixing beta               =       0.3000
     number of iterations used =           10  plain     mixing
     Exchange-correlation      = BEEF-VDW ( 1  4 27 13 2)
     nstep                     =           50

     celldm(1)=   1.889726  celldm(2)=   0.000000  celldm(3)=   0.000000
     celldm(4)=   0.000000  celldm(5)=   0.000000  celldm(6)=   0.000000

     crystal axes: (cart. coord. in units of alat)
               a(1) = (   5.950946   0.000000   0.000000 )
               a(2) = (   2.975473   5.153671   0.000000 )
               a(3) = (   0.000000   0.000000  24.858927 )

     reciprocal axes: (cart. coord. in units 2 pi/alat)
               b(1) = (  0.168040 -0.097018  0.000000 )
               b(2) = (  0.000000  0.194036  0.000000 )
               b(3) = (  0.000000  0.000000  0.040227 )

     PseudoPot. # 1 for Au read from file:
     /u/if/mamunm/psp/gbrv1.5pbe/Au.UPF
     MD5 check sum: 9d7f43293ad2c663164586bc4b293ffc
     Pseudo is Ultrasoft + core correction, Zval = 11.0
     Generated by new atomic code, or converted to UPF format
     Using radial grid of  985 points,  7 beta functions with:
                l(1) =   0
                l(2) =   0
                l(3) =   1
                l(4) =   1
                l(5) =   2
                l(6) =   2
                l(7) =   3
     Q(r) pseudized with  6 coefficients,  rinner =    1.900   1.900   1.900
                                                       1.900   1.900   1.900
                                                       1.900

     PseudoPot. # 2 for S  read from file:
     /u/if/mamunm/psp/gbrv1.5pbe/S.UPF
     MD5 check sum: 88d86576ff6df21479756cfb9bdac1df
     Pseudo is Ultrasoft + core correction, Zval =  6.0
     Generated by new atomic code, or converted to UPF format
     Using radial grid of  907 points,  6 beta functions with:
                l(1) =   0
                l(2) =   0
                l(3) =   1
                l(4) =   1
                l(5) =   2
                l(6) =   2
     Q(r) pseudized with  8 coefficients,  rinner =    1.300   1.300   1.300
                                                       1.300   1.300

     PseudoPot. # 3 for H  read from file:
     /u/if/mamunm/psp/gbrv1.5pbe/H.UPF
     MD5 check sum: 761ae9a214b05c3daf00ab9f6b793d6f
     Pseudo is Ultrasoft, Zval =  1.0
     Generated by new atomic code, or converted to UPF format
     Using radial grid of  615 points,  2 beta functions with:
                l(1) =   0
                l(2) =   0
     Q(r) pseudized with  8 coefficients,  rinner =    0.700

     vdW kernel table read from file vdW_kernel_table
     MD5 check sum: 095c7af220d748ca6e76c0b4c6cfb241

     atomic species   valence    mass     pseudopotential
        Au1           11.00   196.96657     Au( 1.00)
        S1             6.00    32.06000     S ( 1.00)
        H1             1.00     1.00800     H ( 1.00)

     No symmetry found

   Cartesian axes

     site n.     atom                  positions (alat units)
         1           Au1 tau(   1) = (   1.4877366   0.8589451  10.0000000  )
         2           Au1 tau(   2) = (   4.4632098   0.8589451  10.0000000  )
         3           Au1 tau(   3) = (   2.9754732   3.4357805  10.0000000  )
         4           Au1 tau(   4) = (   5.9509464   3.4357805  10.0000000  )
         5           Au1 tau(   5) = (   5.9509464   1.7178903  12.4294637  )
         6           Au1 tau(   6) = (   2.9754732   1.7178903  12.4294637  )
         7           Au1 tau(   7) = (   7.4386830   4.2947256  12.4294637  )
         8           Au1 tau(   8) = (   4.4632098   4.2947256  12.4294637  )
         9           Au1 tau(   9) = (   0.0000000   0.0000000  14.8589274  )
        10           Au1 tau(  10) = (   2.9754732   0.0000000  14.8589274  )
        11           Au1 tau(  11) = (   1.4877366   2.5768354  14.8589274  )
        12           Au1 tau(  12) = (   4.4632098   2.5768354  14.8589274  )
        13           S1  tau(  13) = (   1.4877366   0.0000000  16.6664274  )
        14           H1  tau(  14) = (   1.4877366   0.0000000  17.9164274  )

     number of k points=    20  Fermi-Dirac smearing, width (Ry)=  0.0110
                       cart. coord. in units 2pi/alat
        k(    1) = (   0.0000000   0.0000000   0.0000000), wk =   0.0555556
        k(    2) = (   0.0000000   0.0323394   0.0000000), wk =   0.1111111
        k(    3) = (   0.0000000   0.0646788   0.0000000), wk =   0.1111111
        k(    4) = (   0.0000000  -0.0970182   0.0000000), wk =   0.0555556
        k(    5) = (   0.0280067  -0.0161697   0.0000000), wk =   0.1111111
        k(    6) = (   0.0280067   0.0161697   0.0000000), wk =   0.1111111
        k(    7) = (   0.0280067   0.0485091   0.0000000), wk =   0.1111111
        k(    8) = (   0.0280067  -0.1131879   0.0000000), wk =   0.1111111
        k(    9) = (   0.0280067  -0.0808485   0.0000000), wk =   0.1111111
        k(   10) = (   0.0280067  -0.0485091   0.0000000), wk =   0.1111111
        k(   11) = (   0.0560135  -0.0323394   0.0000000), wk =   0.1111111
        k(   12) = (   0.0560135   0.0000000   0.0000000), wk =   0.1111111
        k(   13) = (   0.0560135   0.0323394   0.0000000), wk =   0.1111111
        k(   14) = (   0.0560135  -0.1293576   0.0000000), wk =   0.1111111
        k(   15) = (   0.0560135  -0.0970182   0.0000000), wk =   0.1111111
        k(   16) = (   0.0560135  -0.0646788   0.0000000), wk =   0.1111111
        k(   17) = (  -0.0840202   0.0485091   0.0000000), wk =   0.0555556
        k(   18) = (  -0.0840202   0.0808485   0.0000000), wk =   0.1111111
        k(   19) = (  -0.0840202   0.1131879   0.0000000), wk =   0.1111111
        k(   20) = (  -0.0840202  -0.0485091   0.0000000), wk =   0.0555556

     Largest allocated arrays     est. size (Mb)     dimensions
     Largest temporary arrays     est. size (Mb)     dimensions

     Check: negative/imaginary core charge=   -0.000002    0.000000

     Initial potential from superposition of free atoms

     starting charge  138.99849, renormalised to  139.00000

     negative rho (up, down):  6.151E-05 0.000E+00

     *
     * You are using vdW-DF for exchange-correlation in this calculation.
     * Please cite the following three references that made this development
     * possible:
     *
     *   M. Dion, H. Rydberg, E. Schroder, D. C. Langreth, and
     *   B. I. Lundqvist, Phys. Rev. Lett. 92, 246401 (2004).
     *
     *   T. Thonhauser, V. R. Cooper, S. Li, A. Puzder, P. Hyldgaard, and
     *   D. C. Langreth, Phys. Rev. B 76, 125112 (2007).
     *
     *   G. Roman-Perez and J. M. Soler, Phys. Rev. Lett. 103, 096102 (2009).
     *
     *
     * If you are using vdW-DF2, please also cite:
     *
     *   K. Lee, E. D. Murray, L. Kong, B. I. Lundqvist, and
     *   D. C. Langreth, Phys. Rev. B 82, 081101(R) (2010).
     *
     *
     * If you are calculating the stress with vdW-DF, please also cite:
     *
     *   R. Sabatini, E. Kucukbenli, B. Kolb, T. Thonhauser, and
     *   S. de Gironcoli, J. Phys.: Condens. Matter 24, 424209 (2012).
     *

     Carrying out vdW-DF run using the following parameters:

     Nqs =      20    Nr_points =    1024   r_max =   100.000
     q_mesh =
               0.00001000     0.04494208     0.09755937     0.15916263
               0.23128650     0.31572767     0.41458969     0.53033537
               0.66584808     0.82450364     1.01025438     1.22772762
               1.48234092     1.78043706     2.12944203     2.53805004
               3.01644009     3.57652955     4.23227104     5.00000000

     Gradients computed in reciprocal space

     Adding external electric field

     Computed dipole along edir(3) :
        Dipole               -0.0003 Ry au,         -0.0006 Debye
        Dipole field         -0.0000 Ry au

        Potential amp.        0.0001 Ry
        Total length         45.8022 bohr

     Starting wfc are  113 randomized atomic wfcs

     Self-consistent Calculation

     iteration #  1     ecut=    36.75 Ry     beta=0.30
     Davidson diagonalization with overlap
     ethr =  1.00E-02,  avg # of iterations =  2.4

     Threshold (ethr) on eigenvalues was too large:
     Diagonalizing with lowered threshold

     Davidson diagonalization with overlap
     ethr =  3.36E-04,  avg # of iterations =  4.8

[...]

     total energy              =   -1425.92695464 Ry
     Harris-Foulkes estimate   =   -1426.13192974 Ry
     estimated scf accuracy    <       0.56840405 Ry

[...]

     End of self-consistent calculation

          k = 0.0000 0.0000 0.0000 ( 19315 PWs)   bands (ev):

   -13.5644  -7.7963  -7.0447  -5.7693  -5.5731  -5.4474  -5.4137  -5.3149
    -5.2599  -5.1828  -5.0684  -4.9221  -4.9113  -4.8549  -4.7464  -4.7179
    -4.5925  -4.3403  -4.0138  -3.8021  -3.6988  -3.6075  -3.5655  -3.5494
    -3.4656  -3.4494  -3.4382  -3.3553  -3.3325  -3.2069  -3.1556  -3.1354
    -3.0750  -3.0747  -2.8847  -2.6045  -2.5750  -2.5454  -2.3419  -2.3176
    -2.2020  -2.1999  -2.1855  -1.9909  -1.8998  -1.8662  -1.7608  -1.7080
    -1.5130  -1.5075  -1.4720  -1.4443  -1.3892  -1.3819  -1.3550  -1.3006
    -1.2359  -1.2177  -1.1807  -1.1237  -1.0647  -0.9141  -0.9094  -0.9046
    -0.8365  -0.2776  -0.1979   1.2032   1.2192   1.3864   1.6571   1.9245
     2.1112   2.1931   2.2617   2.4204   2.7056   3.8421   3.9713

[...]

          k =-0.0840 0.0485 0.0000 ( 19380 PWs)   bands (ev):

[...]

     the Fermi energy is     0.7454 ev

!    total energy              =   -1426.03435546 Ry
     Harris-Foulkes estimate   =   -1426.03438289 Ry
     estimated scf accuracy    <       0.00000658 Ry

     The total energy is the sum of the following terms:

     one-electron contribution =   -8293.03056074 Ry
     hartree contribution      =    4246.82258002 Ry
     xc contribution           =    -777.85255521 Ry
     ewald contribution        =    3398.05344669 Ry
     electric field correction =       0.00014976 Ry
     smearing contrib. (-TS)   =      -0.02741599 Ry

     convergence has been achieved in  10 iterations

 BEEF-vdW xc energy contributions
           1 :   -694.939983224275
           2 :    645.645178409851
           3 :   -557.566141746415
           4 :    447.859607392139
           5 :   -335.006369017625
           6 :    234.063503497083
           7 :   -153.815195741534
           8 :    96.3046339543025
           9 :   -58.4699075076095
          10 :    34.8634254068963
          11 :   -20.2283152977602
          12 :    10.9795574112729
          13 :   -5.34613034436859
          14 :    2.57699875973060
          15 :   -1.95876060160413
          16 :    2.26749109649893
          17 :   -1.90799834533891
          18 :  -0.452163518697262
          19 :    5.19766776451047
          20 :   -11.4820443569824
          21 :    17.5432959280049
          22 :   -21.4871782487833
          23 :    22.1392879955202
          24 :   -19.5466973614858
          25 :    14.8972033866597
          26 :   -9.93215384895211
          27 :    6.16703032528744
          28 :   -4.31061201122111
          29 :    4.13548581357168
          30 :   -4.80937575027281
          31 :   -55.2158321759023
          32 :   -40.2022088417314

     Forces acting on atoms (Ry/au):

     negative rho (up, down):  1.556E-04 0.000E+00
     atom    1 type  1   force =     0.00000837   -0.00108977   -0.00197240
     atom    2 type  1   force =    -0.00001773    0.00036755   -0.00414084
     atom    3 type  1   force =     0.00091002    0.00040671   -0.00089272
     atom    4 type  1   force =    -0.00089622    0.00040223   -0.00089152
     atom    5 type  1   force =     0.00053891   -0.00187984    0.00419644
     atom    6 type  1   force =    -0.00053629   -0.00188391    0.00420670
     atom    7 type  1   force =    -0.00000314    0.00465089    0.01526054
     atom    8 type  1   force =    -0.00000214    0.00158118   -0.00018174
     atom    9 type  1   force =    -0.06216524   -0.00141405   -0.03303723
     atom   10 type  1   force =     0.06216419   -0.00141879   -0.03304324
     atom   11 type  1   force =     0.00000612    0.01147334   -0.00895474
     atom   12 type  1   force =    -0.00000377   -0.01181476   -0.01075824
     atom   13 type  2   force =    -0.00000108    0.00108644   -0.06455936
     atom   14 type  3   force =    -0.00000198   -0.00046721    0.13476834

     Total force =     0.180873     Total SCF correction =     0.008789

     entering subroutine stress ...

     negative rho (up, down):  1.556E-04 0.000E+00
          total   stress  (Ry/bohr**3)                   (kbar)     P=   -0.21
  -0.00003172  -0.00000000  -0.00000000         -4.67     -0.00     -0.00
  -0.00000000  -0.00007791  -0.00000212         -0.00    -11.46     -0.31
  -0.00000000  -0.00000212   0.00010531         -0.00     -0.31     15.49

     BFGS Geometry Optimization

     number of scf cycles    =   1
     number of bfgs steps    =   0

     energy   new            =   -1426.0343554582 Ry

     new trust radius        =       0.1347691487 bohr
     new conv_thr            =       0.0000099958 Ry

ATOMIC_POSITIONS (crystal)
Au1      0.166666667   0.166666667   0.402269971    0   0   0
Au1      0.666666667   0.166666667   0.402269971    0   0   0
Au1      0.166666667   0.666666667   0.402269971    0   0   0
Au1      0.666666667   0.666666667   0.402269971    0   0   0
Au1      0.833333333   0.333333333   0.500000000    0   0   0
Au1      0.333333333   0.333333333   0.500000000    0   0   0
Au1      0.833333333   0.833333333   0.500000000    0   0   0
Au1      0.333333333   0.833333333   0.500000000    0   0   0
Au1     -0.005455335  -0.000145194   0.597026759
Au1      0.505600679  -0.000145681   0.597026631
Au1     -0.000588495   0.501178079   0.597539408
Au1      0.500606232   0.498786865   0.597501016
S1       0.249944126   0.000111555   0.669066038
H1       0.250023811  -0.000047973   0.723592915

     Writing output data file calc.save
     NEW-OLD atomic charge density approx. for the potential

[...]

     energy   old            =   -1426.0343554582 Ry
     energy   new            =   -1426.0526102475 Ry

     CASE: energy  _new < energy  _old

[...]

     CASE: energy  _new > energy  _old

[...]

     new trust radius        =       0.0367461482 bohr
     new conv_thr            =       0.0000001000 Ry

ATOMIC_POSITIONS (crystal)
Au1      0.166666667   0.166666667   0.402269971    0   0   0
Au1      0.666666667   0.166666667   0.402269971    0   0   0
Au1      0.166666667   0.666666667   0.402269971    0   0   0
Au1      0.666666667   0.666666667   0.402269971    0   0   0
Au1      0.833333333   0.333333333   0.500000000    0   0   0
Au1      0.333333333   0.333333333   0.500000000    0   0   0
Au1      0.833333333   0.833333333   0.500000000    0   0   0
Au1      0.333333333   0.833333333   0.500000000    0   0   0
Au1     -0.013118745   0.013313608   0.601767581
Au1      0.499805373   0.013316288   0.601768266
Au1     -0.014502377   0.529003222   0.595735915
Au1      0.496710977   0.506578347   0.594348613
S1       0.228965015   0.042068522   0.683552863
H1       0.355051263  -0.210100649   0.697839568

     Writing output data file calc.save
     NEW-OLD atomic charge density approx. for the potential

     Check: negative/imaginary core charge=   -0.000002    0.000000

[...]

     Self-consistent Calculation

[...]

     Threshold (ethr) on eigenvalues was too large:
     Diagonalizing with lowered threshold

     Davidson diagonalization with overlap
     ethr =  6.36E-08,  avg # of iterations =  2.2

[...]

     total energy              =   -1426.12084517 Ry
     Harris-Foulkes estimate   =   -1426.12084511 Ry
     estimated scf accuracy    <       0.00000036 Ry

     iteration #  7     ecut=    36.75 Ry     beta=0.30
     Davidson diagonalization with overlap
     ethr =  2.62E-10,  avg # of iterations =  2.9

[...]

     negative rho (up, down):  1.516E-04 0.000E+00

     Adding external electric field

     Computed dipole along edir(3) :
        Dipole                0.0549 Ry au,          0.1396 Debye
        Dipole field          0.0001 Ry au

        Potential amp.       -0.0123 Ry
        Total length         45.8022 bohr

     End of self-consistent calculation

[...]

          k = 0.0560-0.0647 0.0000 ( 19376 PWs)   bands (ev):

[...]

          k =-0.0840-0.0485 0.0000 ( 19380 PWs)   bands (ev):

   -13.0390  -6.1999  -6.0958  -5.7381  -5.1188  -5.0274  -4.9071  -4.8663
    -4.8594  -4.8135  -4.7728  -4.7545  -4.5046  -4.4509  -4.3645  -4.3355
    -4.2052  -4.1703  -4.0733  -4.0225  -3.9963  -3.9193  -3.8748  -3.8341
    -3.8139  -3.7434  -3.6418  -3.4746  -3.4437  -3.3616  -3.3089  -3.2540
    -3.2464  -3.2173  -3.1788  -3.1455  -3.0844  -3.0619  -3.0293  -2.9997
    -2.9791  -2.8762  -2.8425  -2.7708  -2.7152  -2.6671  -2.6062  -2.5341
    -2.5088  -2.4751  -2.4301  -2.3084  -2.3002  -2.2875  -2.1828  -2.1176
    -2.0896  -1.9894  -1.8901  -1.7715  -1.6319  -1.5854  -1.5651  -1.5392
    -1.3985  -1.3596  -0.8406  -0.2842   0.4616   0.4893   1.0017   1.0790
     1.6076   2.0415   3.4008   3.5677   4.1878   4.3402   5.0141

     the Fermi energy is     0.4996 ev

!    total energy              =   -1426.12084523 Ry
     Harris-Foulkes estimate   =   -1426.12084517 Ry
     estimated scf accuracy    <       0.00000004 Ry

     The total energy is the sum of the following terms:

     one-electron contribution =   -8220.79674702 Ry
     hartree contribution      =    4210.01565081 Ry
     xc contribution           =    -777.65927615 Ry
     ewald contribution        =    3362.34457031 Ry
     electric field correction =       0.00000737 Ry
     smearing contrib. (-TS)   =      -0.02505053 Ry

     convergence has been achieved in   7 iterations

 BEEF-vdW xc energy contributions
           1 :   -694.740924409473
           2 :    645.364996826509
           3 :   -557.188859912716
           4 :    447.441446812755
           5 :   -334.635679540022
           6 :    233.814903709034
           7 :   -153.716222560824
           8 :    96.3265470963444
           9 :   -58.5450723851155
          10 :    34.9202541508968
          11 :   -20.2260671549801
          12 :    10.9262342861039
          13 :   -5.28878563057799
          14 :    2.57127264751614
          15 :   -2.03639773751775
          16 :    2.41820996580827
          17 :   -2.08391287980123
          18 :  -0.311902655959557
          19 :    5.13603292421317
          20 :   -11.5046158509753
          21 :    17.6203711460818
          22 :   -21.5730961414278
          23 :    22.1970932599667
          24 :   -19.5648828478126
          25 :    14.8904666364948
          26 :   -9.92710389476599
          27 :    6.18297822793522
          28 :   -4.34753309480413
          29 :    4.17608463255601
          30 :   -4.83264551429113
          31 :   -55.2025517336155
          32 :   -40.1678309675995

     Forces acting on atoms (Ry/au):

     negative rho (up, down):  1.516E-04 0.000E+00
     atom    1 type  1   force =    -0.00000002   -0.00203350   -0.00250868
     atom    2 type  1   force =    -0.00000000    0.00014958   -0.00559528
     atom    3 type  1   force =     0.00136058    0.00085492   -0.00295409
     atom    4 type  1   force =    -0.00136061    0.00085496   -0.00295384
     atom    5 type  1   force =     0.00297874   -0.00576598    0.00172872
     atom    6 type  1   force =    -0.00297883   -0.00576619    0.00172913
     atom    7 type  1   force =    -0.00000016    0.01208762    0.00897389
     atom    8 type  1   force =     0.00000034    0.00797852    0.00225678
     atom    9 type  1   force =     0.00170133    0.00047920    0.00085915
     atom   10 type  1   force =    -0.00170187    0.00047817    0.00085837
     atom   11 type  1   force =     0.00000014   -0.00556547   -0.00018045
     atom   12 type  1   force =     0.00000034   -0.00232035   -0.00000267
     atom   13 type  2   force =     0.00000012    0.00270629   -0.00260441
     atom   14 type  3   force =    -0.00000010   -0.00413778    0.00039336

     Total force =     0.008689     Total SCF correction =     0.000513

     entering subroutine stress ...

     negative rho (up, down):  1.516E-04 0.000E+00
          total   stress  (Ry/bohr**3)                   (kbar)     P=   -7.53
  -0.00009073   0.00000000  -0.00000000        -13.35      0.00     -0.00
   0.00000000  -0.00007134  -0.00000850          0.00    -10.49     -1.25
  -0.00000000  -0.00000850   0.00000857         -0.00     -1.25      1.26

     number of scf cycles    =  50
     number of bfgs steps    =  48

     energy   old            =   -1426.1207214024 Ry
     energy   new            =   -1426.1208452265 Ry

     CASE: energy  _new < energy  _old

     new trust radius        =       0.0514804216 bohr

     The maximum number of steps has been reached.

     End of BFGS Geometry Optimization
Begin final coordinates

ATOMIC_POSITIONS (crystal)
Au1      0.166666667   0.166666667   0.402269971    0   0   0
Au1      0.666666667   0.166666667   0.402269971    0   0   0
Au1      0.166666667   0.666666667   0.402269971    0   0   0
Au1      0.666666667   0.666666667   0.402269971    0   0   0
Au1      0.833333333   0.333333333   0.500000000    0   0   0
Au1      0.333333333   0.333333333   0.500000000    0   0   0
Au1      0.833333333   0.833333333   0.500000000    0   0   0
Au1      0.333333333   0.833333333   0.500000000    0   0   0
Au1     -0.013649839   0.013190586   0.602100018
Au1      0.500460363   0.013190689   0.602100552
Au1     -0.013366086   0.526728508   0.595682262
Au1      0.497439657   0.505124331   0.594001060
S1       0.230552300   0.038893667   0.683855711
H1       0.357212218  -0.214422575   0.697208607
End final coordinates

     Writing output data file calc.save

     General routines

     Parallel routines

   This run was terminated on:  18: 0:27  16Apr2018

   JOB DONE.
Job  /afs/slac/g/suncat/bin/suncat-tsmpirun -x LD_LIBRARY_PATH -wdir /scratch/qe121389_Fm6xL pw.x -npool 4 -in pw.inp

TID   HOST_NAME   COMMAND_LINE            STATUS            TERMINATION_TIME
00000 suncat0177 pw.x -npool 4 -i  Done                     04/16/2018 18:00:27
00001 suncat0177 pw.x -npool 4 -i  Done                     04/16/2018 18:00:27
00002 suncat0177 pw.x -npool 4 -i  Done                     04/16/2018 18:00:27
00003 suncat0177 pw.x -npool 4 -i  Done                     04/16/2018 18:00:27
00004 suncat0177 pw.x -npool 4 -i  Done                     04/16/2018 18:00:27
00005 suncat0177 pw.x -npool 4 -i  Done                     04/16/2018 18:00:27
00006 suncat0177 pw.x -npool 4 -i  Done                     04/16/2018 18:00:27
00007 suncat0177 pw.x -npool 4 -i  Done                     04/16/2018 18:00:27
00008 suncat0163 pw.x -npool 4 -i  Done                     04/16/2018 18:00:27
00009 suncat0163 pw.x -npool 4 -i  Done                     04/16/2018 18:00:27
00010 suncat0163 pw.x -npool 4 -i  Done                     04/16/2018 18:00:27
00011 suncat0163 pw.x -npool 4 -i  Done                     04/16/2018 18:00:27
00012 suncat0163 pw.x -npool 4 -i  Done                     04/16/2018 18:00:27
00013 suncat0163 pw.x -npool 4 -i  Done                     04/16/2018 18:00:27
00014 suncat0163 pw.x -npool 4 -i  Done                     04/16/2018 18:00:27
00015 suncat0163 pw.x -npool 4 -i  Done                     04/16/2018 18:00:27
00016 suncat0205 pw.x -npool 4 -i  Done                     04/16/2018 18:00:27
00017 suncat0205 pw.x -npool 4 -i  Done                     04/16/2018 18:00:27
00018 suncat0205 pw.x -npool 4 -i  Done                     04/16/2018 18:00:27
00019 suncat0205 pw.x -npool 4 -i  Done                     04/16/2018 18:00:27
00020 suncat0205 pw.x -npool 4 -i  Done                     04/16/2018 18:00:27
00021 suncat0205 pw.x -npool 4 -i  Done                     04/16/2018 18:00:27
00022 suncat0205 pw.x -npool 4 -i  Done                     04/16/2018 18:00:27
00023 suncat0205 pw.x -npool 4 -i  Done                     04/16/2018 18:00:27
00024 suncat0200 pw.x -npool 4 -i  Done                     04/16/2018 18:00:27
00025 suncat0200 pw.x -npool 4 -i  Done                     04/16/2018 18:00:27
00026 suncat0200 pw.x -npool 4 -i  Done                     04/16/2018 18:00:27
00027 suncat0200 pw.x -npool 4 -i  Done                     04/16/2018 18:00:27
00028 suncat0200 pw.x -npool 4 -i  Done                     04/16/2018 18:00:27
00029 suncat0200 pw.x -npool 4 -i  Done                     04/16/2018 18:00:27
00030 suncat0200 pw.x -npool 4 -i  Done                     04/16/2018 18:00:27
00031 suncat0200 pw.x -npool 4 -i  Done                     04/16/2018 18:00:27