     Program PWSCF v.5.1rc2 (svn rev. 11289) starts on  4May2018 at  6: 9:34

     Current dimensions of program PWSCF are:
     Max number of different atomic species (ntypx) = 10
     Max number of k-points (npk) =  40000
     Max angular momentum in pseudopotentials (lmaxx) =  3
     Presently stress not available with electric field

     IMPORTANT: XC functional enforced from input :
     Exchange-correlation      = BEEF-VDW ( 1  4 27 13 2)
     Any further DFT definition will be discarded
     Please, verify this is what you really want

     Subspace diagonalization in iterative solution of the eigenvalue problem:
     a serial algorithm will be used

     bravais-lattice index     =            0
     lattice parameter (alat)  =       1.8897  a.u.
     unit-cell volume          =    5144.9564 (a.u.)^3
     number of atoms/cell      =           13
     number of atomic types    =            2
     number of electrons       =       136.00
     number of Kohn-Sham states=           78
     kinetic-energy cutoff     =      36.7493  Ry
     charge density cutoff     =     367.4932  Ry
     convergence threshold     =      1.0E-05
     mixing beta               =       0.3000
     number of iterations used =           10  plain     mixing
     Exchange-correlation      = BEEF-VDW ( 1  4 27 13 2)
     nstep                     =           50

     celldm(1)=   1.889726  celldm(2)=   0.000000  celldm(3)=   0.000000
     celldm(4)=   0.000000  celldm(5)=   0.000000  celldm(6)=   0.000000

     crystal axes: (cart. coord. in units of alat)
               a(1) = (   5.950946   0.000000   0.000000 )
               a(2) = (   2.975473   5.153671   0.000000 )
               a(3) = (   0.000000   0.000000  24.858927 )

     reciprocal axes: (cart. coord. in units 2 pi/alat)
               b(1) = (  0.168040 -0.097018  0.000000 )
               b(2) = (  0.000000  0.194036  0.000000 )
               b(3) = (  0.000000  0.000000  0.040227 )

     PseudoPot. # 1 for Au read from file:
     /u/if/mamunm/psp/gbrv1.5pbe/Au.UPF
     MD5 check sum: 9d7f43293ad2c663164586bc4b293ffc
     Pseudo is Ultrasoft + core correction, Zval = 11.0
     Generated by new atomic code, or converted to UPF format
     Using radial grid of  985 points,  7 beta functions with:
                l(1) =   0
                l(2) =   0
                l(3) =   1
                l(4) =   1
                l(5) =   2
                l(6) =   2
                l(7) =   3
     Q(r) pseudized with  6 coefficients,  rinner =    1.900   1.900   1.900
                                                       1.900   1.900   1.900
                                                       1.900

     PseudoPot. # 2 for C  read from file:
     /u/if/mamunm/psp/gbrv1.5pbe/C.UPF
     MD5 check sum: d1aef80898a10debaa0f26306b886e00
     Pseudo is Ultrasoft + core correction, Zval =  4.0
     Generated by new atomic code, or converted to UPF format
     Using radial grid of  721 points,  4 beta functions with:
                l(1) =   0
                l(2) =   0
                l(3) =   1
                l(4) =   1
     Q(r) pseudized with  8 coefficients,  rinner =    1.100   1.100   1.100

     vdW kernel table read from file vdW_kernel_table
     MD5 check sum: 095c7af220d748ca6e76c0b4c6cfb241

     atomic species   valence    mass     pseudopotential
        Au1           11.00   196.96657     Au( 1.00)
        C1             4.00    12.01100     C ( 1.00)

     No symmetry found

   Cartesian axes

     site n.     atom                  positions (alat units)
         1           Au1 tau(   1) = (   1.4877366   0.8589451  10.0000000  )
         2           Au1 tau(   2) = (   4.4632098   0.8589451  10.0000000  )
         3           Au1 tau(   3) = (   2.9754732   3.4357805  10.0000000  )
         4           Au1 tau(   4) = (   5.9509464   3.4357805  10.0000000  )
         5           Au1 tau(   5) = (   5.9509464   1.7178903  12.4294637  )
         6           Au1 tau(   6) = (   2.9754732   1.7178903  12.4294637  )
         7           Au1 tau(   7) = (   7.4386830   4.2947256  12.4294637  )
         8           Au1 tau(   8) = (   4.4632098   4.2947256  12.4294637  )
         9           Au1 tau(   9) = (   0.0000000   0.0000000  14.8589274  )
        10           Au1 tau(  10) = (   2.9754732   0.0000000  14.8589274  )
        11           Au1 tau(  11) = (   1.4877366   2.5768354  14.8589274  )
        12           Au1 tau(  12) = (   4.4632098   2.5768354  14.8589274  )
        13           C1  tau(  13) = (   1.4877366   0.8589451  16.2369274  )

     number of k points=    20  Fermi-Dirac smearing, width (Ry)=  0.0110
                       cart. coord. in units 2pi/alat
        k(    1) = (   0.0000000   0.0000000   0.0000000), wk =   0.0555556
        k(    2) = (   0.0000000   0.0323394   0.0000000), wk =   0.1111111
        k(    3) = (   0.0000000   0.0646788   0.0000000), wk =   0.1111111
        k(    4) = (   0.0000000  -0.0970182   0.0000000), wk =   0.0555556
        k(    5) = (   0.0280067  -0.0161697   0.0000000), wk =   0.1111111
        k(    6) = (   0.0280067   0.0161697   0.0000000), wk =   0.1111111
        k(    7) = (   0.0280067   0.0485091   0.0000000), wk =   0.1111111
        k(    8) = (   0.0280067  -0.1131879   0.0000000), wk =   0.1111111
        k(    9) = (   0.0280067  -0.0808485   0.0000000), wk =   0.1111111
        k(   10) = (   0.0280067  -0.0485091   0.0000000), wk =   0.1111111
        k(   11) = (   0.0560135  -0.0323394   0.0000000), wk =   0.1111111
        k(   12) = (   0.0560135   0.0000000   0.0000000), wk =   0.1111111
        k(   13) = (   0.0560135   0.0323394   0.0000000), wk =   0.1111111
        k(   14) = (   0.0560135  -0.1293576   0.0000000), wk =   0.1111111
        k(   15) = (   0.0560135  -0.0970182   0.0000000), wk =   0.1111111
        k(   16) = (   0.0560135  -0.0646788   0.0000000), wk =   0.1111111
        k(   17) = (  -0.0840202   0.0485091   0.0000000), wk =   0.0555556
        k(   18) = (  -0.0840202   0.0808485   0.0000000), wk =   0.1111111
        k(   19) = (  -0.0840202   0.1131879   0.0000000), wk =   0.1111111
        k(   20) = (  -0.0840202  -0.0485091   0.0000000), wk =   0.0555556

     Largest allocated arrays     est. size (Mb)     dimensions
     Largest temporary arrays     est. size (Mb)     dimensions

     Check: negative/imaginary core charge=   -0.000002    0.000000

     Initial potential from superposition of free atoms
     Check: negative starting charge=   -0.000114

     starting charge  135.99849, renormalised to  136.00000

     negative rho (up, down):  1.141E-04 0.000E+00

     *
     * You are using vdW-DF for exchange-correlation in this calculation.
     * Please cite the following three references that made this development
     * possible:
     *
     *   M. Dion, H. Rydberg, E. Schroder, D. C. Langreth, and
     *   B. I. Lundqvist, Phys. Rev. Lett. 92, 246401 (2004).
     *
     *   T. Thonhauser, V. R. Cooper, S. Li, A. Puzder, P. Hyldgaard, and
     *   D. C. Langreth, Phys. Rev. B 76, 125112 (2007).
     *
     *   G. Roman-Perez and J. M. Soler, Phys. Rev. Lett. 103, 096102 (2009).
     *
     *
     * If you are using vdW-DF2, please also cite:
     *
     *   K. Lee, E. D. Murray, L. Kong, B. I. Lundqvist, and
     *   D. C. Langreth, Phys. Rev. B 82, 081101(R) (2010).
     *
     *
     * If you are calculating the stress with vdW-DF, please also cite:
     *
     *   R. Sabatini, E. Kucukbenli, B. Kolb, T. Thonhauser, and
     *   S. de Gironcoli, J. Phys.: Condens. Matter 24, 424209 (2012).
     *

     Carrying out vdW-DF run using the following parameters:

     Nqs =      20    Nr_points =    1024   r_max =   100.000
     q_mesh =
               0.00001000     0.04494208     0.09755937     0.15916263
               0.23128650     0.31572767     0.41458969     0.53033537
               0.66584808     0.82450364     1.01025438     1.22772762
               1.48234092     1.78043706     2.12944203     2.53805004
               3.01644009     3.57652955     4.23227104     5.00000000

     Gradients computed in reciprocal space

     Adding external electric field

     Computed dipole along edir(3) :
        Dipole               -0.0000 Ry au,         -0.0001 Debye
        Dipole field         -0.0000 Ry au

        Potential amp.        0.0000 Ry
        Total length         45.8022 bohr

     Starting wfc are  112 randomized atomic wfcs

     Self-consistent Calculation

     iteration #  1     ecut=    36.75 Ry     beta=0.30
     Davidson diagonalization with overlap
     ethr =  1.00E-02,  avg # of iterations =  2.0

[...]

     total energy              =   -1410.98231013 Ry
     Harris-Foulkes estimate   =   -1411.92888900 Ry
     estimated scf accuracy    <       2.12283380 Ry

[...]

     End of self-consistent calculation

          k = 0.0000 0.0000 0.0000 ( 19315 PWs)   bands (ev):

   -10.7275  -7.9494  -6.5131  -6.3000  -6.0777  -6.0777  -6.0259  -6.0259
    -6.0203  -5.8716  -5.6302  -5.6302  -5.5273  -5.5273  -5.4990  -5.4835
    -4.8290  -4.8290  -4.4462  -4.3673  -4.3673  -4.3269  -4.3269  -4.3231
    -4.2497  -4.1737  -4.1737  -3.9663  -3.9663  -3.9552  -3.8278  -3.8278
    -3.7098  -3.6364  -3.6364  -3.2540  -3.2540  -3.2539  -3.0904  -2.9805
    -2.9805  -2.6999  -2.6999  -2.6712  -2.6712  -2.6209  -2.2832  -2.2801
    -2.2801  -2.1988  -2.1988  -2.1375  -2.1375  -2.1086  -2.0568  -1.9803
    -1.9803  -1.9018  -1.8943  -1.8943  -1.6606  -1.6606  -1.6562  -0.9666
    -0.3003  -0.1314  -0.1314   0.6643   0.6643   0.8135   1.1614   1.3720
     1.3720   1.4831   1.8848   1.8848   2.6711   3.3722

[...]

          k =-0.0840 0.0485 0.0000 ( 19380 PWs)   bands (ev):

[...]

     the Fermi energy is     0.0107 ev

!    total energy              =   -1411.77862368 Ry
     Harris-Foulkes estimate   =   -1411.77862636 Ry
     estimated scf accuracy    <       0.00000706 Ry

     The total energy is the sum of the following terms:

     one-electron contribution =   -8227.52789300 Ry
     hartree contribution      =    4209.95695063 Ry
     xc contribution           =    -771.44205645 Ry
     ewald contribution        =    3377.25945668 Ry
     electric field correction =       0.00011236 Ry
     smearing contrib. (-TS)   =      -0.02519391 Ry

     convergence has been achieved in  11 iterations

 BEEF-vdW xc energy contributions
           1 :   -689.522000088786
           2 :    641.017932304698
           3 :   -554.234527188929
           4 :    445.940680185308
           5 :   -334.291248614641
           6 :    234.154562392690
           7 :   -154.285743773416
           8 :    96.8334280759868
           9 :   -58.9068809860814
          10 :    35.2146200937528
          11 :   -20.5820779140648
          12 :    11.4183838441553
          13 :   -5.88619600598588
          14 :    3.15632320248426
          15 :   -2.47162781279883
          16 :    2.62083156731808
          17 :   -2.06629301810915
          18 :  -0.454287903745922
          19 :    5.27689470661869
          20 :   -11.5479480712447
          21 :    17.5383004617910
          22 :   -21.4067199706393
          23 :    22.0251920360766
          24 :   -19.4598617336918
          25 :    14.8850935358288
          26 :   -10.0063398283537
          27 :    6.29951269187688
          28 :   -4.44847626862850
          29 :    4.22552595978152
          30 :   -4.82028118931373
          31 :   -54.5890879410701
          32 :   -39.8061965912613

     Forces acting on atoms (Ry/au):

     negative rho (up, down):  2.376E-04 0.000E+00
     atom    1 type  1   force =    -0.00000112   -0.00000616   -0.00116355
     atom    2 type  1   force =    -0.00000046   -0.00227428   -0.00112959
     atom    3 type  1   force =    -0.00197528    0.00114901   -0.00113520
     atom    4 type  1   force =     0.00197063    0.00114686   -0.00114293
     atom    5 type  1   force =    -0.00160814    0.00091192   -0.00139099
     atom    6 type  1   force =     0.00158968    0.00091476   -0.00138570
     atom    7 type  1   force =    -0.00000440   -0.00000455    0.01338846
     atom    8 type  1   force =    -0.00000405   -0.00182932   -0.00139965
     atom    9 type  1   force =     0.00501759    0.00289910    0.02653891
     atom   10 type  1   force =    -0.00500561    0.00289403    0.02654796
     atom   11 type  1   force =     0.00000013   -0.00580664    0.02653178
     atom   12 type  1   force =     0.00002394    0.00000455   -0.00509995
     atom   13 type  2   force =    -0.00000290    0.00000072   -0.07915955

     Total force =     0.092228     Total SCF correction =     0.008634

     entering subroutine stress ...

     negative rho (up, down):  2.376E-04 0.000E+00
          total   stress  (Ry/bohr**3)                   (kbar)     P=  -12.15
  -0.00010932   0.00000000  -0.00000000        -16.08      0.00     -0.00
   0.00000000  -0.00010932   0.00000000          0.00    -16.08      0.00
  -0.00000000   0.00000000  -0.00002912         -0.00      0.00     -4.28

     BFGS Geometry Optimization

     number of scf cycles    =   1
     number of bfgs steps    =   0

     energy   new            =   -1411.7786236830 Ry

     new trust radius        =       0.0791595513 bohr
     new conv_thr            =       0.0000099958 Ry

ATOMIC_POSITIONS (crystal)
Au1      0.166666667   0.166666667   0.402269971    0   0   0
Au1      0.666666667   0.166666667   0.402269971    0   0   0
Au1      0.166666667   0.666666667   0.402269971    0   0   0
Au1      0.666666667   0.666666667   0.402269971    0   0   0
Au1      0.833333333   0.333333333   0.500000000    0   0   0
Au1      0.333333333   0.333333333   0.500000000    0   0   0
Au1      0.833333333   0.833333333   0.500000000    0   0   0
Au1      0.333333333   0.833333333   0.500000000    0   0   0
Au1      0.000297341   0.000297679   0.598294968
Au1      0.499406306   0.000297158   0.598295161
Au1      0.000298123   0.499403776   0.598294817
Au1      0.500001895   0.500000467   0.597621465
C1       0.166666371   0.166666741   0.651477745

     Writing output data file calc.save
     Check: negative starting charge=   -0.000114
     NEW-OLD atomic charge density approx. for the potential

     Check: negative/imaginary core charge=   -0.000002    0.000000
     Check: negative starting charge=   -0.000115

[...]

     energy   old            =   -1411.7786236831 Ry
     energy   new            =   -1411.7866214584 Ry

     CASE: energy  _new < energy  _old

     WARNING: bfgs curvature condition failed, Theta= 0.934
     new trust radius        =       0.1187393269 bohr
     new conv_thr            =       0.0000001000 Ry

[...]

     Total force =     0.006285     Total SCF correction =     0.001070
     SCF correction compared to forces is large: reduce conv_thr to get better values

[...]

     Threshold (ethr) on eigenvalues was too large:
     Diagonalizing with lowered threshold

     Davidson diagonalization with overlap
     ethr =  2.24E-08,  avg # of iterations =  2.0

[...]

     Total force =     0.004447     Total SCF correction =     0.000397

[...]

     number of scf cycles    =  12
     number of bfgs steps    =  11

     energy   old            =   -1411.8108733803 Ry
     energy   new            =   -1411.8109269916 Ry

     CASE: energy  _new < energy  _old

     new trust radius        =       0.0206679822 bohr
     new conv_thr            =       0.0000001000 Ry

ATOMIC_POSITIONS (crystal)
Au1      0.166666667   0.166666667   0.402269971    0   0   0
Au1      0.666666667   0.166666667   0.402269971    0   0   0
Au1      0.166666667   0.666666667   0.402269971    0   0   0
Au1      0.666666667   0.666666667   0.402269971    0   0   0
Au1      0.833333333   0.333333333   0.500000000    0   0   0
Au1      0.333333333   0.333333333   0.500000000    0   0   0
Au1      0.833333333   0.833333333   0.500000000    0   0   0
Au1      0.333333333   0.833333333   0.500000000    0   0   0
Au1     -0.007500767  -0.007505728   0.601538190
Au1      0.515009203  -0.007504052   0.601538677
Au1     -0.007500827   0.515007369   0.601538056
Au1      0.500000305   0.499999580   0.594869580
C1       0.166667611   0.166666601   0.639035332

     Writing output data file calc.save
     Check: negative starting charge=   -0.000121
     NEW-OLD atomic charge density approx. for the potential

     Check: negative/imaginary core charge=   -0.000002    0.000000
     Check: negative starting charge=   -0.000121

[...]

     Self-consistent Calculation

[...]

     Threshold (ethr) on eigenvalues was too large:
     Diagonalizing with lowered threshold

     Davidson diagonalization with overlap
     ethr =  2.95E-08,  avg # of iterations =  1.3

[...]

     total energy              =   -1411.81095934 Ry
     Harris-Foulkes estimate   =   -1411.81095924 Ry
     estimated scf accuracy    <       0.00000020 Ry

     iteration #  7     ecut=    36.75 Ry     beta=0.30
     Davidson diagonalization with overlap
     ethr =  1.44E-10,  avg # of iterations =  2.0

[...]

     negative rho (up, down):  2.484E-04 0.000E+00

     Adding external electric field

     Computed dipole along edir(3) :
        Dipole               -0.1113 Ry au,         -0.2828 Debye
        Dipole field         -0.0003 Ry au

        Potential amp.        0.0249 Ry
        Total length         45.8022 bohr

     End of self-consistent calculation

[...]

          k = 0.0560-0.0647 0.0000 ( 19376 PWs)   bands (ev):

[...]

          k =-0.0840-0.0485 0.0000 ( 19380 PWs)   bands (ev):

   -11.4769  -6.9298  -6.4578  -6.1680  -5.6970  -5.5653  -5.5323  -5.3568
    -5.2564  -5.2411  -5.2028  -5.1857  -5.0778  -4.9098  -4.8793  -4.8718
    -4.7843  -4.6674  -4.6642  -4.5111  -4.4566  -4.4063  -4.3917  -4.3464
    -4.3326  -4.1858  -4.1236  -4.1177  -4.0485  -3.9227  -3.8610  -3.7848
    -3.7268  -3.6411  -3.5737  -3.5093  -3.5034  -3.4738  -3.4474  -3.4443
    -3.3984  -3.3022  -3.2594  -3.2341  -3.1580  -3.0847  -3.0405  -2.9980
    -2.9963  -2.8794  -2.8541  -2.7446  -2.6802  -2.5861  -2.5552  -2.4372
    -2.3769  -2.2484  -2.2277  -2.0948  -2.0443  -1.9877  -1.8797  -1.8343
    -1.3530  -0.6952  -0.5591  -0.0691   0.4112   0.5599   0.7651   1.5430
     2.1690   2.6488   3.6239   3.8834   4.4096   5.0671

     the Fermi energy is     0.1425 ev

!    total energy              =   -1411.81095938 Ry
     Harris-Foulkes estimate   =   -1411.81095936 Ry
     estimated scf accuracy    <       0.00000005 Ry

     The total energy is the sum of the following terms:

     one-electron contribution =   -8218.44920507 Ry
     hartree contribution      =    4205.58000341 Ry
     xc contribution           =    -771.56666511 Ry
     ewald contribution        =    3372.65100822 Ry
     electric field correction =       0.00003024 Ry
     smearing contrib. (-TS)   =      -0.02613106 Ry

     convergence has been achieved in   7 iterations

 BEEF-vdW xc energy contributions
           1 :   -689.654791606181
           2 :    641.197518317540
           3 :   -554.463702378154
           4 :    446.179125143813
           5 :   -334.482578932047
           6 :    234.251923730926
           7 :   -154.270406200779
           8 :    96.7233369134923
           9 :   -58.7519879673463
          10 :    35.0804524599824
          11 :   -20.5266800970388
          12 :    11.4705694168130
          13 :   -6.03394650483790
          14 :    3.34959993736265
          15 :   -2.63835829728691
          16 :    2.69312340921044
          17 :   -2.00916729739993
          18 :  -0.626118463360967
          19 :    5.50373877713639
          20 :   -11.7489652482982
          21 :    17.6452929935989
          22 :   -21.3920211937620
          23 :    21.9108540492781
          24 :   -19.3045766491615
          25 :    14.7544760459961
          26 :   -9.94153728792651
          27 :    6.30059679833857
          28 :   -4.48043894523323
          29 :    4.24241249306920
          30 :   -4.79222055820003
          31 :   -54.5983078492437
          32 :   -39.8245813274973

     Forces acting on atoms (Ry/au):

     negative rho (up, down):  2.484E-04 0.000E+00
     atom    1 type  1   force =    -0.00000002    0.00000003   -0.00334234
     atom    2 type  1   force =    -0.00000001   -0.00061552   -0.00491379
     atom    3 type  1   force =    -0.00053306    0.00030775   -0.00491400
     atom    4 type  1   force =     0.00053306    0.00030776   -0.00491379
     atom    5 type  1   force =     0.00313543   -0.00181023    0.00119420
     atom    6 type  1   force =    -0.00313524   -0.00181065    0.00119357
     atom    7 type  1   force =    -0.00000011    0.00000018    0.01569663
     atom    8 type  1   force =     0.00000048    0.00362052    0.00119392
     atom    9 type  1   force =     0.00035697    0.00020892   -0.00020184
     atom   10 type  1   force =    -0.00035655    0.00020519   -0.00020216
     atom   11 type  1   force =    -0.00000297   -0.00041403   -0.00020145
     atom   12 type  1   force =     0.00000229   -0.00000057    0.00063239
     atom   13 type  2   force =    -0.00000029    0.00000064   -0.00122133

     Total force =     0.001589     Total SCF correction =     0.000329
     SCF correction compared to forces is large: reduce conv_thr to get better values

     entering subroutine stress ...

     negative rho (up, down):  2.484E-04 0.000E+00
          total   stress  (Ry/bohr**3)                   (kbar)     P=   -5.38
  -0.00006087   0.00000000  -0.00000000         -8.95      0.00     -0.00
   0.00000000  -0.00006087   0.00000000          0.00     -8.95      0.00
  -0.00000000   0.00000000   0.00001207         -0.00      0.00      1.78

     bfgs converged in  13 scf cycles and  12 bfgs steps
     (criteria: energy <  1.0E+00, force <  1.9E-03)

     End of BFGS Geometry Optimization

     Final energy   =   -1411.8109593790 Ry
Begin final coordinates

ATOMIC_POSITIONS (crystal)
Au1      0.166666667   0.166666667   0.402269971    0   0   0
Au1      0.666666667   0.166666667   0.402269971    0   0   0
Au1      0.166666667   0.666666667   0.402269971    0   0   0
Au1      0.666666667   0.666666667   0.402269971    0   0   0
Au1      0.833333333   0.333333333   0.500000000    0   0   0
Au1      0.333333333   0.333333333   0.500000000    0   0   0
Au1      0.833333333   0.833333333   0.500000000    0   0   0
Au1      0.333333333   0.833333333   0.500000000    0   0   0
Au1     -0.007500767  -0.007505728   0.601538190
Au1      0.515009203  -0.007504052   0.601538677
Au1     -0.007500827   0.515007369   0.601538056
Au1      0.500000305   0.499999580   0.594869580
C1       0.166667611   0.166666601   0.639035332
End final coordinates

     Writing output data file calc.save

     General routines

     Parallel routines

   This run was terminated on:   7:39:52   4May2018

   JOB DONE.
Job  /afs/slac/g/suncat/bin/suncat-tsmpirun -x LD_LIBRARY_PATH -wdir /scratch/qe916224_tOqzj pw.x -npool 4 -in pw.inp

TID   HOST_NAME   COMMAND_LINE            STATUS            TERMINATION_TIME
00000 suncat0180 pw.x -npool 4 -i  Done                     05/04/2018 07:39:52
00001 suncat0180 pw.x -npool 4 -i  Done                     05/04/2018 07:39:52
00002 suncat0180 pw.x -npool 4 -i  Done                     05/04/2018 07:39:52
00003 suncat0180 pw.x -npool 4 -i  Done                     05/04/2018 07:39:52
00004 suncat0180 pw.x -npool 4 -i  Done                     05/04/2018 07:39:52
00005 suncat0180 pw.x -npool 4 -i  Done                     05/04/2018 07:39:52
00006 suncat0180 pw.x -npool 4 -i  Done                     05/04/2018 07:39:52
00007 suncat0180 pw.x -npool 4 -i  Done                     05/04/2018 07:39:52
00008 suncat0166 pw.x -npool 4 -i  Done                     05/04/2018 07:39:52
00009 suncat0166 pw.x -npool 4 -i  Done                     05/04/2018 07:39:52
00010 suncat0166 pw.x -npool 4 -i  Done                     05/04/2018 07:39:52
00011 suncat0166 pw.x -npool 4 -i  Done                     05/04/2018 07:39:52
00012 suncat0166 pw.x -npool 4 -i  Done                     05/04/2018 07:39:52
00013 suncat0166 pw.x -npool 4 -i  Done                     05/04/2018 07:39:52
00014 suncat0166 pw.x -npool 4 -i  Done                     05/04/2018 07:39:52
00015 suncat0166 pw.x -npool 4 -i  Done                     05/04/2018 07:39:52
00016 suncat0152 pw.x -npool 4 -i  Done                     05/04/2018 07:39:52
00017 suncat0152 pw.x -npool 4 -i  Done                     05/04/2018 07:39:52
00018 suncat0152 pw.x -npool 4 -i  Done                     05/04/2018 07:39:52
00019 suncat0152 pw.x -npool 4 -i  Done                     05/04/2018 07:39:52
00020 suncat0152 pw.x -npool 4 -i  Done                     05/04/2018 07:39:52
00021 suncat0152 pw.x -npool 4 -i  Done                     05/04/2018 07:39:52
00022 suncat0152 pw.x -npool 4 -i  Done                     05/04/2018 07:39:52
00023 suncat0152 pw.x -npool 4 -i  Done                     05/04/2018 07:39:52
00024 suncat0139 pw.x -npool 4 -i  Done                     05/04/2018 07:39:52
00025 suncat0139 pw.x -npool 4 -i  Done                     05/04/2018 07:39:52
00026 suncat0139 pw.x -npool 4 -i  Done                     05/04/2018 07:39:52
00027 suncat0139 pw.x -npool 4 -i  Done                     05/04/2018 07:39:52
00028 suncat0139 pw.x -npool 4 -i  Done                     05/04/2018 07:39:52
00029 suncat0139 pw.x -npool 4 -i  Done                     05/04/2018 07:39:52
00030 suncat0139 pw.x -npool 4 -i  Done                     05/04/2018 07:39:52
00031 suncat0139 pw.x -npool 4 -i  Done                     05/04/2018 07:39:52