     Program PWSCF v.5.1rc2 (svn rev. 11289) starts on 24Apr2018 at 10:54:58

     Current dimensions of program PWSCF are:
     Max number of different atomic species (ntypx) = 10
     Max number of k-points (npk) =  40000
     Max angular momentum in pseudopotentials (lmaxx) =  3
     Presently stress not available with electric field

     IMPORTANT: XC functional enforced from input :
     Exchange-correlation      = BEEF-VDW ( 1  4 27 13 2)
     Any further DFT definition will be discarded
     Please, verify this is what you really want

     Subspace diagonalization in iterative solution of the eigenvalue problem:
     a serial algorithm will be used

     bravais-lattice index     =            0
     lattice parameter (alat)  =       1.8897  a.u.
     unit-cell volume          =    4158.3597 (a.u.)^3
     number of atoms/cell      =           14
     number of atomic types    =            3
     number of electrons       =       163.00
     number of Kohn-Sham states=           91
     kinetic-energy cutoff     =      36.7493  Ry
     charge density cutoff     =     367.4932  Ry
     convergence threshold     =      1.0E-05
     mixing beta               =       0.3000
     number of iterations used =           10  plain     mixing
     Exchange-correlation      = BEEF-VDW ( 1  4 27 13 2)
     nstep                     =           50

     celldm(1)=   1.889726  celldm(2)=   0.000000  celldm(3)=   0.000000
     celldm(4)=   0.000000  celldm(5)=   0.000000  celldm(6)=   0.000000

     crystal axes: (cart. coord. in units of alat)
               a(1) = (   5.399178   0.000000   0.000000 )
               a(2) = (   2.699589   4.675825   0.000000 )
               a(3) = (   0.000000   0.000000  24.408411 )

     reciprocal axes: (cart. coord. in units 2 pi/alat)
               b(1) = (  0.185213 -0.106933  0.000000 )
               b(2) = (  0.000000  0.213866  0.000000 )
               b(3) = (  0.000000  0.000000  0.040969 )

     PseudoPot. # 1 for V  read from file:
     /u/if/mamunm/psp/gbrv1.5pbe/V.UPF
     MD5 check sum: 22b79981416ebb76fdaf5b1b8640f6fb
     Pseudo is Ultrasoft + core correction, Zval = 13.0
     Generated by new atomic code, or converted to UPF format
     Using radial grid of  853 points,  6 beta functions with:
                l(1) =   0
                l(2) =   0
                l(3) =   1
                l(4) =   1
                l(5) =   2
                l(6) =   2
     Q(r) pseudized with  8 coefficients,  rinner =    1.100   1.100   1.100
                                                       1.100   1.100

     PseudoPot. # 2 for S  read from file:
     /u/if/mamunm/psp/gbrv1.5pbe/S.UPF
     MD5 check sum: 88d86576ff6df21479756cfb9bdac1df
     Pseudo is Ultrasoft + core correction, Zval =  6.0
     Generated by new atomic code, or converted to UPF format
     Using radial grid of  907 points,  6 beta functions with:
                l(1) =   0
                l(2) =   0
                l(3) =   1
                l(4) =   1
                l(5) =   2
                l(6) =   2
     Q(r) pseudized with  8 coefficients,  rinner =    1.300   1.300   1.300
                                                       1.300   1.300

     PseudoPot. # 3 for H  read from file:
     /u/if/mamunm/psp/gbrv1.5pbe/H.UPF
     MD5 check sum: 761ae9a214b05c3daf00ab9f6b793d6f
     Pseudo is Ultrasoft, Zval =  1.0
     Generated by new atomic code, or converted to UPF format
     Using radial grid of  615 points,  2 beta functions with:
                l(1) =   0
                l(2) =   0
     Q(r) pseudized with  8 coefficients,  rinner =    0.700

     vdW kernel table read from file vdW_kernel_table
     MD5 check sum: 095c7af220d748ca6e76c0b4c6cfb241

     atomic species   valence    mass     pseudopotential
        V1            13.00    50.94150     V ( 1.00)
        S1             6.00    32.06000     S ( 1.00)
        H1             1.00     1.00800     H ( 1.00)

     No symmetry found

   Cartesian axes

     site n.     atom                  positions (alat units)
         1           V1  tau(   1) = (   1.3497945   0.7793042  10.0000000  )
         2           V1  tau(   2) = (   4.0493836   0.7793042  10.0000000  )
         3           V1  tau(   3) = (   2.6995891   3.1172170  10.0000000  )
         4           V1  tau(   4) = (   5.3991782   3.1172170  10.0000000  )
         5           V1  tau(   5) = (   5.3991782   1.5586085  12.2042053  )
         6           V1  tau(   6) = (   2.6995891   1.5586085  12.2042053  )
         7           V1  tau(   7) = (   6.7489727   3.8965212  12.2042053  )
         8           V1  tau(   8) = (   4.0493836   3.8965212  12.2042053  )
         9           V1  tau(   9) = (   0.0000000   0.0000000  14.4084105  )
        10           V1  tau(  10) = (   2.6995891   0.0000000  14.4084105  )
        11           V1  tau(  11) = (   1.3497945   2.3379127  14.4084105  )
        12           V1  tau(  12) = (   4.0493836   2.3379127  14.4084105  )
        13           S1  tau(  13) = (   0.0000000   0.0000000  16.6014105  )
        14           H1  tau(  14) = (   0.0000000   0.0000000  17.8514105  )

     number of k points=    20  Fermi-Dirac smearing, width (Ry)=  0.0110
                       cart. coord. in units 2pi/alat
        k(    1) = (   0.0000000   0.0000000   0.0000000), wk =   0.0555556
        k(    2) = (   0.0000000   0.0356443   0.0000000), wk =   0.1111111
        k(    3) = (   0.0000000   0.0712887   0.0000000), wk =   0.1111111
        k(    4) = (   0.0000000  -0.1069330   0.0000000), wk =   0.0555556
        k(    5) = (   0.0308689  -0.0178222   0.0000000), wk =   0.1111111
        k(    6) = (   0.0308689   0.0178222   0.0000000), wk =   0.1111111
        k(    7) = (   0.0308689   0.0534665   0.0000000), wk =   0.1111111
        k(    8) = (   0.0308689  -0.1247552   0.0000000), wk =   0.1111111
        k(    9) = (   0.0308689  -0.0891108   0.0000000), wk =   0.1111111
        k(   10) = (   0.0308689  -0.0534665   0.0000000), wk =   0.1111111
        k(   11) = (   0.0617378  -0.0356443   0.0000000), wk =   0.1111111
        k(   12) = (   0.0617378   0.0000000   0.0000000), wk =   0.1111111
        k(   13) = (   0.0617378   0.0356443   0.0000000), wk =   0.1111111
        k(   14) = (   0.0617378  -0.1425773   0.0000000), wk =   0.1111111
        k(   15) = (   0.0617378  -0.1069330   0.0000000), wk =   0.1111111
        k(   16) = (   0.0617378  -0.0712887   0.0000000), wk =   0.1111111
        k(   17) = (  -0.0926067   0.0534665   0.0000000), wk =   0.0555556
        k(   18) = (  -0.0926067   0.0891108   0.0000000), wk =   0.1111111
        k(   19) = (  -0.0926067   0.1247552   0.0000000), wk =   0.1111111
        k(   20) = (  -0.0926067  -0.0534665   0.0000000), wk =   0.0555556

     Largest allocated arrays     est. size (Mb)     dimensions
     Largest temporary arrays     est. size (Mb)     dimensions

     Check: negative/imaginary core charge=   -0.000001    0.000000

     Initial potential from superposition of free atoms
     Check: negative starting charge=   -0.011391

     starting charge  162.98523, renormalised to  163.00000

     negative rho (up, down):  1.139E-02 0.000E+00

     *
     * You are using vdW-DF for exchange-correlation in this calculation.
     * Please cite the following three references that made this development
     * possible:
     *
     *   M. Dion, H. Rydberg, E. Schroder, D. C. Langreth, and
     *   B. I. Lundqvist, Phys. Rev. Lett. 92, 246401 (2004).
     *
     *   T. Thonhauser, V. R. Cooper, S. Li, A. Puzder, P. Hyldgaard, and
     *   D. C. Langreth, Phys. Rev. B 76, 125112 (2007).
     *
     *   G. Roman-Perez and J. M. Soler, Phys. Rev. Lett. 103, 096102 (2009).
     *
     *
     * If you are using vdW-DF2, please also cite:
     *
     *   K. Lee, E. D. Murray, L. Kong, B. I. Lundqvist, and
     *   D. C. Langreth, Phys. Rev. B 82, 081101(R) (2010).
     *
     *
     * If you are calculating the stress with vdW-DF, please also cite:
     *
     *   R. Sabatini, E. Kucukbenli, B. Kolb, T. Thonhauser, and
     *   S. de Gironcoli, J. Phys.: Condens. Matter 24, 424209 (2012).
     *

     Carrying out vdW-DF run using the following parameters:

     Nqs =      20    Nr_points =    1024   r_max =   100.000
     q_mesh =
               0.00001000     0.04494208     0.09755937     0.15916263
               0.23128650     0.31572767     0.41458969     0.53033537
               0.66584808     0.82450364     1.01025438     1.22772762
               1.48234092     1.78043706     2.12944203     2.53805004
               3.01644009     3.57652955     4.23227104     5.00000000

     Gradients computed in reciprocal space

     Adding external electric field

     Computed dipole along edir(3) :
        Dipole               -0.0051 Ry au,         -0.0129 Debye
        Dipole field         -0.0000 Ry au

        Potential amp.        0.0014 Ry
        Total length         44.9721 bohr

     Starting wfc are  125 randomized atomic wfcs

     Self-consistent Calculation

     iteration #  1     ecut=    36.75 Ry     beta=0.30
     Davidson diagonalization with overlap
     ethr =  1.00E-02,  avg # of iterations =  2.2

[...]

     total energy              =   -1767.87939530 Ry
     Harris-Foulkes estimate   =   -1775.35891237 Ry
     estimated scf accuracy    <      15.26603720 Ry

[...]

     End of self-consistent calculation

          k = 0.0000 0.0000 0.0000 ( 15569 PWs)   bands (ev):

   -62.4758 -62.4141 -62.3624 -62.3431 -62.3289 -62.3277 -62.3182 -62.2967
   -62.2963 -62.2680 -62.2678 -62.2676 -36.5636 -36.5581 -36.5579 -36.5273
   -36.5092 -36.5089 -36.4874 -36.4296 -36.4294 -36.4155 -36.3226 -36.2498
   -36.2008 -36.1998 -36.1402 -36.1401 -36.1400 -36.0660 -36.0547 -36.0545
   -36.0182 -35.9957 -35.9954 -35.9914 -35.9781 -35.9780 -35.9599 -35.9190
   -35.9189 -35.9169 -35.8861 -35.8858 -35.8424 -35.8421 -35.7961 -35.7961
   -12.8458  -5.8090  -4.1476  -2.6064  -1.7597  -1.7596  -1.6047  -1.2051
    -1.1246  -1.1245  -0.9700  -0.9699  -0.9348  -0.5267  -0.5265  -0.4958
    -0.4399  -0.4105  -0.4105   0.3816   0.5796   0.5797   1.3191   1.3958
     1.5148   1.5148   1.6539   1.7474   1.9796   1.9796   2.0480   2.0484
     2.0651   2.1353   2.1353   2.2185   2.2186   2.2251   2.2613   2.2613
     2.6257   2.7970   2.8838

[...]

          k =-0.0926 0.0535 0.0000 ( 15660 PWs)   bands (ev):

[...]

     the Fermi energy is     1.8346 ev

!    total energy              =   -1774.49182871 Ry
     Harris-Foulkes estimate   =   -1774.49184396 Ry
     estimated scf accuracy    <       0.00000729 Ry

     The total energy is the sum of the following terms:

     one-electron contribution =  -15193.22752201 Ry
     hartree contribution      =    7589.91902113 Ry
     xc contribution           =    -253.88638220 Ry
     ewald contribution        =    6082.84998178 Ry
     electric field correction =       0.00034247 Ry
     smearing contrib. (-TS)   =      -0.14726988 Ry

     convergence has been achieved in  34 iterations

 BEEF-vdW xc energy contributions
           1 :   -218.603485468325
           2 :    195.917947494417
           3 :   -158.490250254478
           4 :    118.087707119144
           5 :   -84.9096309970563
           6 :    63.8158174661723
           7 :   -53.7031818010836
           8 :    49.7294702091193
           9 :   -46.7200955013177
          10 :    41.7883170650514
          11 :   -35.0359813742354
          12 :    28.4387372858089
          13 :   -23.9742576691632
          14 :    22.2287621976154
          15 :   -22.2034177897660
          16 :    22.1953061236931
          17 :   -21.0059552243709
          18 :    18.6341092979584
          19 :   -16.0655900661869
          20 :    14.4195811918418
          21 :   -14.1197148563760
          22 :    14.6557083521123
          23 :   -15.0294888605944
          24 :    14.4930748426301
          25 :   -13.0368462770521
          26 :    11.3198238036998
          27 :   -10.1508568631958
          28 :    9.91719751593658
          29 :   -10.3529963809201
          30 :    10.7738076326493
          31 :   -22.7997461720925
          32 :   -16.3943116005376

     Forces acting on atoms (Ry/au):

     negative rho (up, down):  1.516E-02 0.000E+00
     atom    1 type  1   force =    -0.00005006   -0.00003040   -0.00111150
     atom    2 type  1   force =     0.00004731   -0.00004296   -0.00111874
     atom    3 type  1   force =    -0.00000811    0.00006981   -0.00111391
     atom    4 type  1   force =     0.00000555    0.00000206   -0.00120340
     atom    5 type  1   force =    -0.00004885    0.00285541   -0.00202306
     atom    6 type  1   force =     0.00003925   -0.00000362    0.00557073
     atom    7 type  1   force =    -0.00248240   -0.00139681   -0.00202459
     atom    8 type  1   force =     0.00247302   -0.00144515   -0.00198129
     atom    9 type  1   force =    -0.00001261   -0.00000734    0.01513655
     atom   10 type  1   force =     0.00001454    0.00217763   -0.00927827
     atom   11 type  1   force =     0.00190804   -0.00108594   -0.00936234
     atom   12 type  1   force =    -0.00188417   -0.00109397   -0.00926810
     atom   13 type  2   force =    -0.00000118    0.00000004   -0.10462033
     atom   14 type  3   force =    -0.00000032    0.00000123    0.12239825

     Total force =     0.162572     Total SCF correction =     0.001393

     entering subroutine stress ...

     negative rho (up, down):  1.516E-02 0.000E+00
          total   stress  (Ry/bohr**3)                   (kbar)     P=  -12.52
  -0.00017432   0.00000007   0.00000002        -25.64      0.01      0.00
   0.00000007  -0.00017425   0.00000000          0.01    -25.63      0.00
   0.00000002   0.00000000   0.00009325          0.00      0.00     13.72

     BFGS Geometry Optimization

     number of scf cycles    =   1
     number of bfgs steps    =   0

     energy   new            =   -1774.4918287063 Ry

     new trust radius        =       0.1223982508 bohr
     new conv_thr            =       0.0000099958 Ry

ATOMIC_POSITIONS (crystal)
V1       0.166666667   0.166666667   0.409694847    0   0   0
V1       0.666666667   0.166666667   0.409694847    0   0   0
V1       0.166666667   0.666666667   0.409694847    0   0   0
V1       0.666666667   0.666666667   0.409694847    0   0   0
V1       0.833333333   0.333333333   0.500000000    0   0   0
V1       0.333333333   0.333333333   0.500000000    0   0   0
V1       0.833333333   0.833333333   0.500000000    0   0   0
V1       0.333333333   0.833333333   0.500000000    0   0   0
V1      -0.000000821  -0.000000831   0.590633316
V1       0.499878201   0.000246449   0.590103999
V1       0.000248458   0.499877101   0.590102177
V1       0.499877235   0.499876192   0.590104220
S1      -0.000000118   0.000000005   0.677883052
H1      -0.000000101   0.000000139   0.734016698

     Writing output data file calc.save
     Check: negative starting charge=   -0.011391
     NEW-OLD atomic charge density approx. for the potential

     Check: negative/imaginary core charge=   -0.000001    0.000000
     Check: negative starting charge=   -0.011353

[...]

     iteration #  1     ecut=    36.75 Ry     beta=0.30
     Davidson diagonalization with overlap
     c_bands:  1 eigenvalues not converged
     ethr =  1.00E-06,  avg # of iterations = 11.6

[...]

     energy   old            =   -1774.4918287063 Ry
     energy   new            =   -1774.4995339772 Ry

     CASE: energy  _new < energy  _old

[...]

     iteration #  1     ecut=    36.75 Ry     beta=0.30
     Davidson diagonalization with overlap
     c_bands:  1 eigenvalues not converged
     ethr =  1.00E-06,  avg # of iterations = 16.3

[...]

     Total force =     0.008425     Total SCF correction =     0.001128
     SCF correction compared to forces is large: reduce conv_thr to get better values

[...]

     number of scf cycles    =  16
     number of bfgs steps    =  15

     energy   old            =   -1774.5195800337 Ry
     energy   new            =   -1774.5196232992 Ry

     CASE: energy  _new < energy  _old

     new trust radius        =       0.0081495308 bohr
     new conv_thr            =       0.0000001000 Ry

ATOMIC_POSITIONS (crystal)
V1       0.166666667   0.166666667   0.409694847    0   0   0
V1       0.666666667   0.166666667   0.409694847    0   0   0
V1       0.166666667   0.666666667   0.409694847    0   0   0
V1       0.666666667   0.666666667   0.409694847    0   0   0
V1       0.833333333   0.333333333   0.500000000    0   0   0
V1       0.333333333   0.333333333   0.500000000    0   0   0
V1       0.833333333   0.833333333   0.500000000    0   0   0
V1       0.333333333   0.833333333   0.500000000    0   0   0
V1       0.000007053  -0.000005213   0.601810600
V1       0.500583877  -0.001166378   0.584116886
V1      -0.001124675   0.500567020   0.584094429
V1       0.500586923   0.500576595   0.584115487
S1      -0.000002732   0.000012440   0.691249240
H1       0.000003414  -0.000007963   0.746376736

     Writing output data file calc.save
     Check: negative starting charge=   -0.011097
     NEW-OLD atomic charge density approx. for the potential

     Check: negative/imaginary core charge=   -0.000001    0.000000
     Check: negative starting charge=   -0.011061

[...]

     Self-consistent Calculation

[...]

     total energy              =   -1774.51965124 Ry
     Harris-Foulkes estimate   =   -1774.51965119 Ry
     estimated scf accuracy    <       0.00000022 Ry

     iteration # 16     ecut=    36.75 Ry     beta=0.30
     Davidson diagonalization with overlap
     ethr =  1.32E-10,  avg # of iterations =  1.0

[...]

     negative rho (up, down):  1.498E-02 0.000E+00

     Adding external electric field

     Computed dipole along edir(3) :
        Dipole                0.2854 Ry au,          0.7253 Debye
        Dipole field          0.0009 Ry au

        Potential amp.       -0.0776 Ry
        Total length         44.9721 bohr

     End of self-consistent calculation

[...]

          k = 0.0617-0.0713 0.0000 ( 15642 PWs)   bands (ev):

[...]

          k =-0.0926-0.0535 0.0000 ( 15660 PWs)   bands (ev):

   -62.6000 -62.5320 -62.5085 -62.4578 -62.4531 -62.4463 -62.4302 -62.4140
   -62.4107 -62.4075 -62.3917 -62.3895 -36.6656 -36.6082 -36.5998 -36.5975
   -36.5460 -36.5254 -36.4926 -36.4531 -36.4510 -36.4413 -36.4194 -36.4102
   -36.3325 -36.3182 -36.2790 -36.2576 -36.2476 -36.2454 -36.2389 -36.2176
   -36.2105 -36.1871 -36.1791 -36.1650 -36.1638 -36.1546 -36.1144 -36.1065
   -36.0752 -36.0633 -36.0312 -36.0241 -36.0180 -36.0107 -35.9782 -35.9644
   -12.2498  -5.2671  -2.6920  -2.6095  -1.7124  -1.3049  -1.3017  -1.2342
    -0.7499  -0.6657  -0.6519  -0.5874  -0.5126  -0.4227   0.0257   0.0288
     0.0979   0.2485   0.2744   0.3630   0.6151   0.6404   0.7561   0.7720
     0.7913   0.8187   0.9372   1.1357   1.2488   1.2635   1.3218   1.3929
     1.3991   1.5101   1.5680   1.6304   1.7502   1.8598   1.8859   2.0132
     2.1573   2.2366   2.4742

     the Fermi energy is     1.7007 ev

!    total energy              =   -1774.51965122 Ry
     Harris-Foulkes estimate   =   -1774.51965132 Ry
     estimated scf accuracy    <       0.00000002 Ry

     The total energy is the sum of the following terms:

     one-electron contribution =  -15168.83660415 Ry
     hartree contribution      =    7577.13961345 Ry
     xc contribution           =    -253.85590974 Ry
     ewald contribution        =    6071.17473664 Ry
     electric field correction =       0.00024608 Ry
     smearing contrib. (-TS)   =      -0.14173350 Ry

     convergence has been achieved in  16 iterations

 BEEF-vdW xc energy contributions
           1 :   -218.579716533481
           2 :    195.889382709238
           3 :   -158.457374386216
           4 :    118.041494715071
           5 :   -84.8322434100288
           6 :    63.7044336171162
           7 :   -53.5817501767020
           8 :    49.6341967245271
           9 :   -46.6753687085355
          10 :    41.7940109138101
          11 :   -35.0688390778286
          12 :    28.4612317115074
          13 :   -23.9481956980670
          14 :    22.1337455985370
          15 :   -22.0525228438933
          16 :    22.0340355705643
          17 :   -20.8855435221887
          18 :    18.5721266135219
          19 :   -16.0250335922019
          20 :    14.3278906306465
          21 :   -13.9186346435330
          22 :    14.3468306862741
          23 :   -14.6800916758090
          24 :    14.1952463124326
          25 :   -12.8474973755613
          26 :    11.2243801944705
          27 :   -10.0766955307211
          28 :    9.78732813181719
          29 :   -10.1420757565712
          30 :    10.5261911903202
          31 :   -22.7975055516804
          32 :   -16.3873050143082

     Forces acting on atoms (Ry/au):

     negative rho (up, down):  1.498E-02 0.000E+00
     atom    1 type  1   force =    -0.00088456   -0.00051223    0.00223577
     atom    2 type  1   force =     0.00088302   -0.00050640    0.00223455
     atom    3 type  1   force =     0.00000474    0.00102040    0.00223280
     atom    4 type  1   force =    -0.00000451   -0.00000172    0.00040527
     atom    5 type  1   force =    -0.00002420   -0.01579803    0.00290169
     atom    6 type  1   force =     0.00002520   -0.00001788   -0.01896519
     atom    7 type  1   force =     0.01366596    0.00792424    0.00290514
     atom    8 type  1   force =    -0.01367427    0.00789698    0.00294060
     atom    9 type  1   force =     0.00000411   -0.00000123    0.00174393
     atom   10 type  1   force =    -0.00000313    0.00158443    0.00063036
     atom   11 type  1   force =     0.00137846   -0.00079807    0.00062912
     atom   12 type  1   force =    -0.00136975   -0.00079250    0.00062259
     atom   13 type  2   force =    -0.00000088    0.00000605    0.00091882
     atom   14 type  3   force =    -0.00000017   -0.00000404   -0.00143544

     Total force =     0.003831     Total SCF correction =     0.000197

     entering subroutine stress ...

     negative rho (up, down):  1.498E-02 0.000E+00
          total   stress  (Ry/bohr**3)                   (kbar)     P=  -13.44
  -0.00013176   0.00000001   0.00000001        -19.38      0.00      0.00
   0.00000001  -0.00013174  -0.00000001          0.00    -19.38     -0.00
   0.00000001  -0.00000001  -0.00001064          0.00     -0.00     -1.57

     bfgs converged in  17 scf cycles and  16 bfgs steps
     (criteria: energy <  1.0E+00, force <  1.9E-03)

     End of BFGS Geometry Optimization

     Final energy   =   -1774.5196512205 Ry
Begin final coordinates

ATOMIC_POSITIONS (crystal)
V1       0.166666667   0.166666667   0.409694847    0   0   0
V1       0.666666667   0.166666667   0.409694847    0   0   0
V1       0.166666667   0.666666667   0.409694847    0   0   0
V1       0.666666667   0.666666667   0.409694847    0   0   0
V1       0.833333333   0.333333333   0.500000000    0   0   0
V1       0.333333333   0.333333333   0.500000000    0   0   0
V1       0.833333333   0.833333333   0.500000000    0   0   0
V1       0.333333333   0.833333333   0.500000000    0   0   0
V1       0.000007053  -0.000005213   0.601810600
V1       0.500583877  -0.001166378   0.584116886
V1      -0.001124675   0.500567020   0.584094429
V1       0.500586923   0.500576595   0.584115487
S1      -0.000002732   0.000012440   0.691249240
H1       0.000003414  -0.000007963   0.746376736
End final coordinates

     Writing output data file calc.save

     General routines

     Parallel routines

   This run was terminated on:  13:19:48  24Apr2018

   JOB DONE.
Job  /afs/slac/g/suncat/bin/suncat-tsmpirun -x LD_LIBRARY_PATH -wdir /scratch/qe747578_P65Ob pw.x -npool 4 -in pw.inp

TID   HOST_NAME   COMMAND_LINE            STATUS            TERMINATION_TIME
00000 suncat0074 pw.x -npool 4 -i  Done                     04/24/2018 13:19:48
00001 suncat0074 pw.x -npool 4 -i  Done                     04/24/2018 13:19:48
00002 suncat0074 pw.x -npool 4 -i  Done                     04/24/2018 13:19:48
00003 suncat0074 pw.x -npool 4 -i  Done                     04/24/2018 13:19:48
00004 suncat0074 pw.x -npool 4 -i  Done                     04/24/2018 13:19:48
00005 suncat0074 pw.x -npool 4 -i  Done                     04/24/2018 13:19:48
00006 suncat0074 pw.x -npool 4 -i  Done                     04/24/2018 13:19:48
00007 suncat0074 pw.x -npool 4 -i  Done                     04/24/2018 13:19:48
00008 suncat0063 pw.x -npool 4 -i  Done                     04/24/2018 13:19:48
00009 suncat0063 pw.x -npool 4 -i  Done                     04/24/2018 13:19:48
00010 suncat0063 pw.x -npool 4 -i  Done                     04/24/2018 13:19:48
00011 suncat0063 pw.x -npool 4 -i  Done                     04/24/2018 13:19:48
00012 suncat0063 pw.x -npool 4 -i  Done                     04/24/2018 13:19:48
00013 suncat0063 pw.x -npool 4 -i  Done                     04/24/2018 13:19:48
00014 suncat0063 pw.x -npool 4 -i  Done                     04/24/2018 13:19:48
00015 suncat0063 pw.x -npool 4 -i  Done                     04/24/2018 13:19:48
00016 suncat0018 pw.x -npool 4 -i  Done                     04/24/2018 13:19:48
00017 suncat0018 pw.x -npool 4 -i  Done                     04/24/2018 13:19:48
00018 suncat0018 pw.x -npool 4 -i  Done                     04/24/2018 13:19:48
00019 suncat0018 pw.x -npool 4 -i  Done                     04/24/2018 13:19:48
00020 suncat0018 pw.x -npool 4 -i  Done                     04/24/2018 13:19:48
00021 suncat0018 pw.x -npool 4 -i  Done                     04/24/2018 13:19:48
00022 suncat0018 pw.x -npool 4 -i  Done                     04/24/2018 13:19:48
00023 suncat0018 pw.x -npool 4 -i  Done                     04/24/2018 13:19:48
00024 suncat0125 pw.x -npool 4 -i  Done                     04/24/2018 13:19:48
00025 suncat0125 pw.x -npool 4 -i  Done                     04/24/2018 13:19:48
00026 suncat0125 pw.x -npool 4 -i  Done                     04/24/2018 13:19:48
00027 suncat0125 pw.x -npool 4 -i  Done                     04/24/2018 13:19:48
00028 suncat0125 pw.x -npool 4 -i  Done                     04/24/2018 13:19:48
00029 suncat0125 pw.x -npool 4 -i  Done                     04/24/2018 13:19:48
00030 suncat0125 pw.x -npool 4 -i  Done                     04/24/2018 13:19:48
00031 suncat0125 pw.x -npool 4 -i  Done                     04/24/2018 13:19:48