     Program PWSCF v.5.1rc2 (svn rev. 11289) starts on  3May2018 at  7: 9:10

     Current dimensions of program PWSCF are:
     Max number of different atomic species (ntypx) = 10
     Max number of k-points (npk) =  40000
     Max angular momentum in pseudopotentials (lmaxx) =  3
     Presently stress not available with electric field

     IMPORTANT: XC functional enforced from input :
     Exchange-correlation      = BEEF-VDW ( 1  4 27 13 2)
     Any further DFT definition will be discarded
     Please, verify this is what you really want

     Subspace diagonalization in iterative solution of the eigenvalue problem:
     a serial algorithm will be used

     bravais-lattice index     =            0
     lattice parameter (alat)  =       1.8897  a.u.
     unit-cell volume          =    5185.0501 (a.u.)^3
     number of atoms/cell      =           13
     number of atomic types    =            2
     number of electrons       =       162.00
     number of Kohn-Sham states=           91
     kinetic-energy cutoff     =      36.7493  Ry
     charge density cutoff     =     367.4932  Ry
     convergence threshold     =      1.0E-05
     mixing beta               =       0.3000
     number of iterations used =           10  plain     mixing
     Exchange-correlation      = BEEF-VDW ( 1  4 27 13 2)
     nstep                     =           50

     celldm(1)=   1.889726  celldm(2)=   0.000000  celldm(3)=   0.000000
     celldm(4)=   0.000000  celldm(5)=   0.000000  celldm(6)=   0.000000

     crystal axes: (cart. coord. in units of alat)
               a(1) = (   5.972022   0.000000   0.000000 )
               a(2) = (   2.986011   5.171923   0.000000 )
               a(3) = (   0.000000   0.000000  24.876136 )

     reciprocal axes: (cart. coord. in units 2 pi/alat)
               b(1) = (  0.167447 -0.096676  0.000000 )
               b(2) = (  0.000000  0.193352  0.000000 )
               b(3) = (  0.000000  0.000000  0.040199 )

     PseudoPot. # 1 for Ta read from file:
     /u/if/mamunm/psp/gbrv1.5pbe/Ta.UPF
     MD5 check sum: f8bbe9446314a3b8ea5d9f3e3836c939
     Pseudo is Ultrasoft + core correction, Zval = 13.0
     Generated by new atomic code, or converted to UPF format
     Using radial grid of  921 points,  7 beta functions with:
                l(1) =   0
                l(2) =   0
                l(3) =   1
                l(4) =   1
                l(5) =   2
                l(6) =   2
                l(7) =   3
     Q(r) pseudized with  6 coefficients,  rinner =    1.300   1.300   1.300
                                                       1.300   1.300   1.300
                                                       1.300

     PseudoPot. # 2 for O  read from file:
     /u/if/mamunm/psp/gbrv1.5pbe/O.UPF
     MD5 check sum: 734c27235a0248c51dbae37a1fbe46ec
     Pseudo is Ultrasoft + core correction, Zval =  6.0
     Generated by new atomic code, or converted to UPF format
     Using radial grid of  737 points,  5 beta functions with:
                l(1) =   0
                l(2) =   0
                l(3) =   1
                l(4) =   1
                l(5) =   2
     Q(r) pseudized with  8 coefficients,  rinner =    0.900   0.900   0.900
                                                       0.900   0.900

     vdW kernel table read from file vdW_kernel_table
     MD5 check sum: 095c7af220d748ca6e76c0b4c6cfb241

     atomic species   valence    mass     pseudopotential
        Ta1           13.00   180.94788     Ta( 1.00)
        O1             6.00    15.99900     O ( 1.00)

     No symmetry found

   Cartesian axes

     site n.     atom                  positions (alat units)
         1           Ta1 tau(   1) = (   1.4930055   0.8619871  10.0000000  )
         2           Ta1 tau(   2) = (   4.4790165   0.8619871  10.0000000  )
         3           Ta1 tau(   3) = (   2.9860110   3.4479485  10.0000000  )
         4           Ta1 tau(   4) = (   5.9720221   3.4479485  10.0000000  )
         5           Ta1 tau(   5) = (   5.9720221   1.7239743  12.4380678  )
         6           Ta1 tau(   6) = (   2.9860110   1.7239743  12.4380678  )
         7           Ta1 tau(   7) = (   7.4650276   4.3099357  12.4380678  )
         8           Ta1 tau(   8) = (   4.4790165   4.3099357  12.4380678  )
         9           Ta1 tau(   9) = (   0.0000000   0.0000000  14.8761356  )
        10           Ta1 tau(  10) = (   2.9860110   0.0000000  14.8761356  )
        11           Ta1 tau(  11) = (   1.4930055   2.5859614  14.8761356  )
        12           Ta1 tau(  12) = (   4.4790165   2.5859614  14.8761356  )
        13           O1  tau(  13) = (   0.0000000   0.0000000  16.8821356  )

     number of k points=    20  Fermi-Dirac smearing, width (Ry)=  0.0110
                       cart. coord. in units 2pi/alat
        k(    1) = (   0.0000000   0.0000000   0.0000000), wk =   0.0555556
        k(    2) = (   0.0000000   0.0322253   0.0000000), wk =   0.1111111
        k(    3) = (   0.0000000   0.0644506   0.0000000), wk =   0.1111111
        k(    4) = (   0.0000000  -0.0966758   0.0000000), wk =   0.0555556
        k(    5) = (   0.0279079  -0.0161126   0.0000000), wk =   0.1111111
        k(    6) = (   0.0279079   0.0161126   0.0000000), wk =   0.1111111
        k(    7) = (   0.0279079   0.0483379   0.0000000), wk =   0.1111111
        k(    8) = (   0.0279079  -0.1127885   0.0000000), wk =   0.1111111
        k(    9) = (   0.0279079  -0.0805632   0.0000000), wk =   0.1111111
        k(   10) = (   0.0279079  -0.0483379   0.0000000), wk =   0.1111111
        k(   11) = (   0.0558158  -0.0322253   0.0000000), wk =   0.1111111
        k(   12) = (   0.0558158   0.0000000   0.0000000), wk =   0.1111111
        k(   13) = (   0.0558158   0.0322253   0.0000000), wk =   0.1111111
        k(   14) = (   0.0558158  -0.1289011   0.0000000), wk =   0.1111111
        k(   15) = (   0.0558158  -0.0966758   0.0000000), wk =   0.1111111
        k(   16) = (   0.0558158  -0.0644506   0.0000000), wk =   0.1111111
        k(   17) = (  -0.0837237   0.0483379   0.0000000), wk =   0.0555556
        k(   18) = (  -0.0837237   0.0805632   0.0000000), wk =   0.1111111
        k(   19) = (  -0.0837237   0.1127885   0.0000000), wk =   0.1111111
        k(   20) = (  -0.0837237  -0.0483379   0.0000000), wk =   0.0555556

     Largest allocated arrays     est. size (Mb)     dimensions
     Largest temporary arrays     est. size (Mb)     dimensions

     Initial potential from superposition of free atoms
     Check: negative starting charge=   -1.121787

     starting charge  161.98665, renormalised to  162.00000

     negative rho (up, down):  1.122E+00 0.000E+00

     *
     * You are using vdW-DF for exchange-correlation in this calculation.
     * Please cite the following three references that made this development
     * possible:
     *
     *   M. Dion, H. Rydberg, E. Schroder, D. C. Langreth, and
     *   B. I. Lundqvist, Phys. Rev. Lett. 92, 246401 (2004).
     *
     *   T. Thonhauser, V. R. Cooper, S. Li, A. Puzder, P. Hyldgaard, and
     *   D. C. Langreth, Phys. Rev. B 76, 125112 (2007).
     *
     *   G. Roman-Perez and J. M. Soler, Phys. Rev. Lett. 103, 096102 (2009).
     *
     *
     * If you are using vdW-DF2, please also cite:
     *
     *   K. Lee, E. D. Murray, L. Kong, B. I. Lundqvist, and
     *   D. C. Langreth, Phys. Rev. B 82, 081101(R) (2010).
     *
     *
     * If you are calculating the stress with vdW-DF, please also cite:
     *
     *   R. Sabatini, E. Kucukbenli, B. Kolb, T. Thonhauser, and
     *   S. de Gironcoli, J. Phys.: Condens. Matter 24, 424209 (2012).
     *

     Carrying out vdW-DF run using the following parameters:

     Nqs =      20    Nr_points =    1024   r_max =   100.000
     q_mesh =
               0.00001000     0.04494208     0.09755937     0.15916263
               0.23128650     0.31572767     0.41458969     0.53033537
               0.66584808     0.82450364     1.01025438     1.22772762
               1.48234092     1.78043706     2.12944203     2.53805004
               3.01644009     3.57652955     4.23227104     5.00000000

     Gradients computed in reciprocal space

     Adding external electric field

     Computed dipole along edir(3) :
        Dipole               -0.0041 Ry au,         -0.0105 Debye
        Dipole field         -0.0000 Ry au

        Potential amp.        0.0009 Ry
        Total length         45.8339 bohr

     Starting wfc are  160 randomized atomic wfcs

     Self-consistent Calculation

     iteration #  1     ecut=    36.75 Ry     beta=0.30
     Davidson diagonalization with overlap
     ethr =  1.00E-02,  avg # of iterations =  2.0

[...]

     total energy              =   -1748.86699045 Ry
     Harris-Foulkes estimate   =   -1751.33930689 Ry
     estimated scf accuracy    <       5.38173851 Ry

[...]

     End of self-consistent calculation

          k = 0.0000 0.0000 0.0000 ( 19447 PWs)   bands (ev):

   -66.8691 -66.8236 -66.8236 -66.7389 -66.6818 -66.6813 -66.6812 -66.6793
   -66.6361 -66.5776 -66.5497 -66.5495 -33.5382 -33.5382 -33.4988 -33.4860
   -33.4509 -33.4508 -33.4085 -33.3881 -33.3881 -33.3855 -33.2347 -33.1745
   -33.1745 -33.0712 -33.0200 -33.0200 -33.0077 -32.9971 -32.9094 -32.9093
   -32.8348 -32.8320 -32.8320 -32.8111 -32.7836 -32.7834 -32.7482 -32.7482
   -32.7394 -32.7137 -32.7137 -32.7061 -32.6488 -32.6488 -32.5605 -32.5605
   -15.0919  -5.8859  -4.2970  -3.2388  -2.5529  -2.5405  -2.5405  -2.3613
    -2.3613  -2.3485  -1.6875  -1.6811  -1.6811  -1.5283  -1.4875  -1.4875
    -0.9795  -0.9795  -0.9386  -0.1922   0.2057   0.2057   0.9599   1.1410
     1.2565   1.2565   1.4500   1.5280   1.6605   1.6605   1.9268   1.9268
     2.0009   2.2053   2.2053   2.2927   2.3093   2.3093   2.3751   2.3751
     2.5027   2.6097   2.8418

[...]

          k =-0.0837 0.0483 0.0000 ( 19532 PWs)   bands (ev):

[...]

     the Fermi energy is     1.5742 ev

!    total energy              =   -1750.85240341 Ry
     Harris-Foulkes estimate   =   -1750.85238892 Ry
     estimated scf accuracy    <       0.00000429 Ry

     The total energy is the sum of the following terms:

     one-electron contribution =  -11680.64907242 Ry
     hartree contribution      =    5823.51359781 Ry
     xc contribution           =    -530.16999675 Ry
     ewald contribution        =    4636.55630790 Ry
     electric field correction =       0.00044265 Ry
     smearing contrib. (-TS)   =      -0.10368259 Ry

     convergence has been achieved in  15 iterations

 BEEF-vdW xc energy contributions
           1 :   -466.603234146677
           2 :    430.390967046441
           3 :   -367.314584070093
           4 :    292.084758631482
           5 :   -219.306798034546
           6 :    159.040315047158
           7 :   -114.877758884537
           8 :    84.8198941986013
           9 :   -64.0094056724239
          10 :    47.7421951651514
          11 :   -33.3796196815931
          12 :    20.5932056955038
          13 :   -10.3215942965915
          14 :    3.37831360951941
          15 :   0.421828764636984
          16 :   -2.26067744629813
          17 :    3.63094069379292
          18 :   -5.50088199759614
          19 :    7.87103534859517
          20 :   -9.95954818304870
          21 :    10.8449237310952
          22 :   -10.1367637256949
          23 :    8.26437605358547
          24 :   -6.23976284559978
          25 :    5.07360799610831
          26 :   -5.21263115318493
          27 :    6.33487402148899
          28 :   -7.60319699982296
          29 :    8.18787362674198
          30 :   -7.73048683014940
          31 :   -41.7699942994149
          32 :   -30.9313008425401

     Forces acting on atoms (Ry/au):

     negative rho (up, down):  1.176E+00 0.000E+00
     atom    1 type  1   force =    -0.00182466   -0.00103897    0.00196609
     atom    2 type  1   force =     0.00182332   -0.00106300    0.00197841
     atom    3 type  1   force =    -0.00002011    0.00210519    0.00197002
     atom    4 type  1   force =     0.00001926   -0.00000357    0.00214691
     atom    5 type  1   force =     0.00000474    0.00727179   -0.00655660
     atom    6 type  1   force =    -0.00000626    0.00000231    0.01027628
     atom    7 type  1   force =    -0.00629624   -0.00363827   -0.00655964
     atom    8 type  1   force =     0.00629719   -0.00363624   -0.00655632
     atom    9 type  1   force =    -0.00001178    0.00000268    0.21949172
     atom   10 type  1   force =     0.00001345    0.00557987   -0.01731096
     atom   11 type  1   force =     0.00483071   -0.00278404   -0.01732364
     atom   12 type  1   force =    -0.00482953   -0.00279765   -0.01728827
     atom   13 type  2   force =    -0.00000010   -0.00000011   -0.16623403

     Total force =     0.277132     Total SCF correction =     0.006543

     entering subroutine stress ...

     negative rho (up, down):  1.176E+00 0.000E+00
          total   stress  (Ry/bohr**3)                   (kbar)     P=  -34.37
  -0.00026198   0.00000000   0.00000000        -38.54      0.00      0.00
   0.00000000  -0.00026198   0.00000000          0.00    -38.54      0.00
   0.00000000   0.00000000  -0.00017706          0.00      0.00    -26.05

     BFGS Geometry Optimization

     number of scf cycles    =   1
     number of bfgs steps    =   0

     energy   new            =   -1750.8524034094 Ry

     new trust radius        =       0.2194917216 bohr
     new conv_thr            =       0.0000099958 Ry

ATOMIC_POSITIONS (crystal)
Ta1      0.166666667   0.166666667   0.401991699    0   0   0
Ta1      0.666666667   0.166666667   0.401991699    0   0   0
Ta1      0.166666667   0.666666667   0.401991699    0   0   0
Ta1      0.666666667   0.666666667   0.401991699    0   0   0
Ta1      0.833333333   0.333333333   0.500000000    0   0   0
Ta1      0.333333333   0.333333333   0.500000000    0   0   0
Ta1      0.833333333   0.833333333   0.500000000    0   0   0
Ta1      0.333333333   0.833333333   0.500000000    0   0   0
Ta1     -0.000001181   0.000000275   0.602677436
Ta1      0.499715733   0.000570918   0.597640054
Ta1      0.000570474   0.499715144   0.597639785
Ta1      0.499715182   0.499713752   0.597640537
O1      -0.000000003  -0.000000011   0.675111625

     Writing output data file calc.save
     Check: negative starting charge=   -1.121787
     NEW-OLD atomic charge density approx. for the potential
     Check: negative starting charge=   -1.121694

[...]

     energy   old            =   -1750.8524034094 Ry
     energy   new            =   -1750.9046956360 Ry

     CASE: energy  _new < energy  _old

[...]

     WARNING: bfgs curvature condition failed, Theta= 0.958
     new trust radius        =       0.0470273133 bohr
     new conv_thr            =       0.0000001000 Ry

[...]

     WARNING: bfgs curvature condition failed, Theta= 0.955
     new trust radius        =       0.0345701018 bohr
     new conv_thr            =       0.0000001000 Ry

[...]

     Threshold (ethr) on eigenvalues was too large:
     Diagonalizing with lowered threshold

     Davidson diagonalization with overlap
     ethr =  5.17E-08,  avg # of iterations =  1.4

[...]

     Total force =     0.005764     Total SCF correction =     0.000458

[...]

     Total force =     0.004290     Total SCF correction =     0.001164
     SCF correction compared to forces is large: reduce conv_thr to get better values

[...]

     number of scf cycles    =  14
     number of bfgs steps    =  13

     energy   old            =   -1750.9274282339 Ry
     energy   new            =   -1750.9274962415 Ry

     CASE: energy  _new < energy  _old

     new trust radius        =       0.0101576106 bohr
     new conv_thr            =       0.0000001000 Ry

ATOMIC_POSITIONS (crystal)
Ta1      0.166666667   0.166666667   0.401991699    0   0   0
Ta1      0.666666667   0.166666667   0.401991699    0   0   0
Ta1      0.166666667   0.666666667   0.401991699    0   0   0
Ta1      0.666666667   0.666666667   0.401991699    0   0   0
Ta1      0.833333333   0.333333333   0.500000000    0   0   0
Ta1      0.333333333   0.333333333   0.500000000    0   0   0
Ta1      0.833333333   0.833333333   0.500000000    0   0   0
Ta1      0.333333333   0.833333333   0.500000000    0   0   0
Ta1     -0.000000245   0.000000127   0.615474724
Ta1      0.498665699   0.002668099   0.592072146
Ta1      0.002667953   0.498666041   0.592072242
Ta1      0.498665742   0.498666250   0.592072105
O1       0.000000454   0.000000108   0.686266192

     Writing output data file calc.save
     Check: negative starting charge=   -1.121366
     NEW-OLD atomic charge density approx. for the potential
     Check: negative starting charge=   -1.121978

[...]

     Self-consistent Calculation

[...]

     total energy              =   -1750.92754059 Ry
     Harris-Foulkes estimate   =   -1750.92754118 Ry
     estimated scf accuracy    <       0.00000022 Ry

     iteration #  9     ecut=    36.75 Ry     beta=0.30
     Davidson diagonalization with overlap
     ethr =  1.33E-10,  avg # of iterations =  3.5

[...]

     negative rho (up, down):  1.175E+00 0.000E+00

     Adding external electric field

     Computed dipole along edir(3) :
        Dipole               -0.5397 Ry au,         -1.3717 Debye
        Dipole field         -0.0013 Ry au

        Potential amp.        0.1199 Ry
        Total length         45.8339 bohr

     End of self-consistent calculation

[...]

          k = 0.0558-0.0645 0.0000 ( 19521 PWs)   bands (ev):

[...]

          k =-0.0837-0.0483 0.0000 ( 19532 PWs)   bands (ev):

   -66.8558 -66.8520 -66.8478 -66.8347 -66.8240 -66.8214 -66.8179 -66.7474
   -66.7384 -66.7242 -66.6902 -66.5475 -33.5514 -33.5270 -33.5099 -33.4932
   -33.4408 -33.4380 -33.3752 -33.3743 -33.3459 -33.3278 -33.2901 -33.2661
   -33.1950 -33.1752 -33.1699 -33.1516 -33.1466 -33.1362 -33.1126 -33.0836
   -33.0337 -33.0295 -33.0146 -33.0020 -32.9651 -32.9319 -32.9258 -32.8987
   -32.8795 -32.8688 -32.8650 -32.8408 -32.8146 -32.8099 -32.7521 -32.7497
   -15.3821  -4.2700  -4.1623  -2.8288  -2.7091  -2.0805  -2.0065  -1.8147
    -1.7660  -1.6779  -1.6459  -1.6458  -1.4623  -1.2860  -0.7028  -0.6969
    -0.5308  -0.4329  -0.3021  -0.2789  -0.0594   0.0418   0.0994   0.2150
     0.2680   0.3520   0.5938   0.6535   0.8204   0.8245   0.8752   0.8842
     1.0318   1.2053   1.2385   1.3554   1.5332   1.7164   1.7757   1.9889
     2.1429   2.4509   2.9734

     the Fermi energy is     1.4207 ev

!    total energy              =   -1750.92754060 Ry
     Harris-Foulkes estimate   =   -1750.92753833 Ry
     estimated scf accuracy    <       0.00000010 Ry

     The total energy is the sum of the following terms:

     one-electron contribution =  -11632.71358782 Ry
     hartree contribution      =    5799.04487667 Ry
     xc contribution           =    -530.41697046 Ry
     ewald contribution        =    4613.26013978 Ry
     electric field correction =       0.00070585 Ry
     smearing contrib. (-TS)   =      -0.10270461 Ry

     convergence has been achieved in   9 iterations

 BEEF-vdW xc energy contributions
           1 :   -466.850571828965
           2 :    430.669653618649
           3 :   -367.628277937391
           4 :    292.382637476128
           5 :   -219.502768232408
           6 :    159.067977277980
           7 :   -114.728127752845
           8 :    84.5379892378062
           9 :   -63.6626607463440
          10 :    47.3887677012759
          11 :   -33.0527204129616
          12 :    20.2972807900516
          13 :   -10.0364565963162
          14 :    3.07280797255504
          15 :   0.773238376278357
          16 :   -2.66429176313744
          17 :    4.06529570079232
          18 :   -5.92315648107166
          19 :    8.24086461870326
          20 :   -10.2659425963752
          21 :    11.1164143330015
          22 :   -10.4233006840040
          23 :    8.60162354536203
          24 :   -6.62205828937948
          25 :    5.45269702018783
          26 :   -5.52506034628362
          27 :    6.54437471199361
          28 :   -7.72569427632567
          29 :    8.27998198212248
          30 :   -7.85154332814710
          31 :   -41.7827023513296
          32 :   -30.9461392784248

     Forces acting on atoms (Ry/au):

     negative rho (up, down):  1.175E+00 0.000E+00
     atom    1 type  1   force =    -0.00269704   -0.00155691    0.00387872
     atom    2 type  1   force =     0.00269711   -0.00155718    0.00387904
     atom    3 type  1   force =    -0.00000017    0.00311414    0.00387870
     atom    4 type  1   force =     0.00000010   -0.00000006    0.00604217
     atom    5 type  1   force =     0.00000012   -0.01400071    0.00070041
     atom    6 type  1   force =    -0.00000012    0.00000005   -0.01944486
     atom    7 type  1   force =     0.01212497    0.00700024    0.00070050
     atom    8 type  1   force =    -0.01212504    0.00700046    0.00069995
     atom    9 type  1   force =    -0.00000006    0.00000009   -0.00094422
     atom   10 type  1   force =     0.00000047    0.00084044   -0.00010496
     atom   11 type  1   force =     0.00072748   -0.00041995   -0.00010562
     atom   12 type  1   force =    -0.00072776   -0.00042062   -0.00010488
     atom   13 type  2   force =    -0.00000006    0.00000001    0.00092505

     Total force =     0.001975     Total SCF correction =     0.000858
     SCF correction compared to forces is large: reduce conv_thr to get better values

     entering subroutine stress ...

     negative rho (up, down):  1.175E+00 0.000E+00
          total   stress  (Ry/bohr**3)                   (kbar)     P=  -24.40
  -0.00021640   0.00000000  -0.00000000        -31.83      0.00     -0.00
   0.00000000  -0.00021640   0.00000000          0.00    -31.83      0.00
  -0.00000000   0.00000000  -0.00006479         -0.00      0.00     -9.53

     bfgs converged in  15 scf cycles and  14 bfgs steps
     (criteria: energy <  1.0E+00, force <  1.9E-03)

     End of BFGS Geometry Optimization

     Final energy   =   -1750.9275405960 Ry
Begin final coordinates

ATOMIC_POSITIONS (crystal)
Ta1      0.166666667   0.166666667   0.401991699    0   0   0
Ta1      0.666666667   0.166666667   0.401991699    0   0   0
Ta1      0.166666667   0.666666667   0.401991699    0   0   0
Ta1      0.666666667   0.666666667   0.401991699    0   0   0
Ta1      0.833333333   0.333333333   0.500000000    0   0   0
Ta1      0.333333333   0.333333333   0.500000000    0   0   0
Ta1      0.833333333   0.833333333   0.500000000    0   0   0
Ta1      0.333333333   0.833333333   0.500000000    0   0   0
Ta1     -0.000000245   0.000000127   0.615474724
Ta1      0.498665699   0.002668099   0.592072146
Ta1      0.002667953   0.498666041   0.592072242
Ta1      0.498665742   0.498666250   0.592072105
O1       0.000000454   0.000000108   0.686266192
End final coordinates

     Writing output data file calc.save

     General routines

     Parallel routines

   This run was terminated on:   9:29: 2   3May2018

   JOB DONE.
Job  /afs/slac/g/suncat/bin/suncat-tsmpirun -x LD_LIBRARY_PATH -wdir /scratch/qe659199_ZsQS1 pw.x -npool 4 -in pw.inp

TID   HOST_NAME   COMMAND_LINE            STATUS            TERMINATION_TIME
00000 suncat0080 pw.x -npool 4 -i  Done                     05/03/2018 09:29:02
00001 suncat0080 pw.x -npool 4 -i  Done                     05/03/2018 09:29:02
00002 suncat0080 pw.x -npool 4 -i  Done                     05/03/2018 09:29:02
00003 suncat0080 pw.x -npool 4 -i  Done                     05/03/2018 09:29:02
00004 suncat0080 pw.x -npool 4 -i  Done                     05/03/2018 09:29:02
00005 suncat0080 pw.x -npool 4 -i  Done                     05/03/2018 09:29:02
00006 suncat0080 pw.x -npool 4 -i  Done                     05/03/2018 09:29:02
00007 suncat0080 pw.x -npool 4 -i  Done                     05/03/2018 09:29:02
00008 suncat0078 pw.x -npool 4 -i  Done                     05/03/2018 09:29:02
00009 suncat0078 pw.x -npool 4 -i  Done                     05/03/2018 09:29:02
00010 suncat0078 pw.x -npool 4 -i  Done                     05/03/2018 09:29:02
00011 suncat0078 pw.x -npool 4 -i  Done                     05/03/2018 09:29:02
00012 suncat0078 pw.x -npool 4 -i  Done                     05/03/2018 09:29:02
00013 suncat0078 pw.x -npool 4 -i  Done                     05/03/2018 09:29:02
00014 suncat0078 pw.x -npool 4 -i  Done                     05/03/2018 09:29:02
00015 suncat0078 pw.x -npool 4 -i  Done                     05/03/2018 09:29:02
00016 suncat0049 pw.x -npool 4 -i  Done                     05/03/2018 09:29:02
00017 suncat0049 pw.x -npool 4 -i  Done                     05/03/2018 09:29:02
00018 suncat0049 pw.x -npool 4 -i  Done                     05/03/2018 09:29:02
00019 suncat0049 pw.x -npool 4 -i  Done                     05/03/2018 09:29:02
00020 suncat0049 pw.x -npool 4 -i  Done                     05/03/2018 09:29:02
00021 suncat0049 pw.x -npool 4 -i  Done                     05/03/2018 09:29:02
00022 suncat0049 pw.x -npool 4 -i  Done                     05/03/2018 09:29:02
00023 suncat0049 pw.x -npool 4 -i  Done                     05/03/2018 09:29:02
00024 suncat0194 pw.x -npool 4 -i  Done                     05/03/2018 09:29:02
00025 suncat0194 pw.x -npool 4 -i  Done                     05/03/2018 09:29:02
00026 suncat0194 pw.x -npool 4 -i  Done                     05/03/2018 09:29:02
00027 suncat0194 pw.x -npool 4 -i  Done                     05/03/2018 09:29:02
00028 suncat0194 pw.x -npool 4 -i  Done                     05/03/2018 09:29:02
00029 suncat0194 pw.x -npool 4 -i  Done                     05/03/2018 09:29:02
00030 suncat0194 pw.x -npool 4 -i  Done                     05/03/2018 09:29:02
00031 suncat0194 pw.x -npool 4 -i  Done                     05/03/2018 09:29:02