     Program PWSCF v.5.1rc2 (svn rev. 11289) starts on 14Jan2018 at 19:40:46

     Current dimensions of program PWSCF are:
     Max number of different atomic species (ntypx) = 10
     Max number of k-points (npk) =  40000
     Max angular momentum in pseudopotentials (lmaxx) =  3
     Presently stress not available with electric field

     IMPORTANT: XC functional enforced from input :
     Exchange-correlation      = BEEF-VDW ( 1  4 27 13 2)
     Any further DFT definition will be discarded
     Please, verify this is what you really want

     Subspace diagonalization in iterative solution of the eigenvalue problem:
     a serial algorithm will be used

     bravais-lattice index     =            0
     lattice parameter (alat)  =       1.8897  a.u.
     unit-cell volume          =    4552.2840 (a.u.)^3
     number of atoms/cell      =           13
     number of atomic types    =            2
     number of electrons       =       173.00
     number of Kohn-Sham states=           96
     kinetic-energy cutoff     =      36.7493  Ry
     charge density cutoff     =     367.4932  Ry
     convergence threshold     =      1.0E-05
     mixing beta               =       0.3000
     number of iterations used =           10  plain     mixing
     Exchange-correlation      = BEEF-VDW ( 1  4 27 13 2)
     nstep                     =           50

     celldm(1)=   1.889726  celldm(2)=   0.000000  celldm(3)=   0.000000
     celldm(4)=   0.000000  celldm(5)=   0.000000  celldm(6)=   0.000000

     crystal axes: (cart. coord. in units of alat)
               a(1) = (   5.627661   0.000000   0.000000 )
               a(2) = (   2.813831   4.873698   0.000000 )
               a(3) = (   0.000000   0.000000  24.594966 )

     reciprocal axes: (cart. coord. in units 2 pi/alat)
               b(1) = (  0.177694 -0.102592  0.000000 )
               b(2) = (  0.000000  0.205183  0.000000 )
               b(3) = (  0.000000  0.000000  0.040659 )

     PseudoPot. # 1 for Mo read from file:
     /afs/slac.stanford.edu/u/if/mamunm/psp/gbrv1.5pbe/Mo.UPF
     MD5 check sum: 30c4dcd161f5d35cd49bb5239c51a633
     Pseudo is Ultrasoft + core correction, Zval = 14.0
     Generated by new atomic code, or converted to UPF format
     Using radial grid of  889 points,  6 beta functions with:
                l(1) =   0
                l(2) =   0
                l(3) =   1
                l(4) =   1
                l(5) =   2
                l(6) =   2
     Q(r) pseudized with  6 coefficients,  rinner =    1.000   1.000   1.000
                                                       1.000   1.000

     PseudoPot. # 2 for N  read from file:
     /afs/slac.stanford.edu/u/if/mamunm/psp/gbrv1.5pbe/N.UPF
     MD5 check sum: 95339753478d7afb44899504a8723017
     Pseudo is Ultrasoft + core correction, Zval =  5.0
     Generated by new atomic code, or converted to UPF format
     Using radial grid of  729 points,  4 beta functions with:
                l(1) =   0
                l(2) =   0
                l(3) =   1
                l(4) =   1
     Q(r) pseudized with  8 coefficients,  rinner =    0.900   0.900   0.900

     vdW kernel table read from file vdW_kernel_table
     MD5 check sum: 095c7af220d748ca6e76c0b4c6cfb241

     atomic species   valence    mass     pseudopotential
        Mo1           14.00    95.95000     Mo( 1.00)
        N1             5.00    14.00700     N ( 1.00)

     No symmetry found

   Cartesian axes

     site n.     atom                  positions (alat units)
         1           Mo1 tau(   1) = (   1.4069153   0.8122829  10.0000000  )
         2           Mo1 tau(   2) = (   4.2207459   0.8122829  10.0000000  )
         3           Mo1 tau(   3) = (   2.8138306   3.2491317  10.0000000  )
         4           Mo1 tau(   4) = (   5.6276612   3.2491317  10.0000000  )
         5           Mo1 tau(   5) = (   5.6276612   1.6245658  12.2974831  )
         6           Mo1 tau(   6) = (   2.8138306   1.6245658  12.2974831  )
         7           Mo1 tau(   7) = (   7.0345765   4.0614146  12.2974831  )
         8           Mo1 tau(   8) = (   4.2207459   4.0614146  12.2974831  )
         9           Mo1 tau(   9) = (   0.0000000   0.0000000  14.5949661  )
        10           Mo1 tau(  10) = (   2.8138306   0.0000000  14.5949661  )
        11           Mo1 tau(  11) = (   1.4069153   2.4368488  14.5949661  )
        12           Mo1 tau(  12) = (   4.2207459   2.4368488  14.5949661  )
        13           N1  tau(  13) = (   0.0000000   0.0000000  16.8449661  )

     number of k points=    20  Fermi-Dirac smearing, width (Ry)=  0.0110
                       cart. coord. in units 2pi/alat
        k(    1) = (   0.0000000   0.0000000   0.0000000), wk =   0.0555556
        k(    2) = (   0.0000000   0.0341972   0.0000000), wk =   0.1111111
        k(    3) = (   0.0000000   0.0683943   0.0000000), wk =   0.1111111
        k(    4) = (   0.0000000  -0.1025915   0.0000000), wk =   0.0555556
        k(    5) = (   0.0296156  -0.0170986   0.0000000), wk =   0.1111111
        k(    6) = (   0.0296156   0.0170986   0.0000000), wk =   0.1111111
        k(    7) = (   0.0296156   0.0512958   0.0000000), wk =   0.1111111
        k(    8) = (   0.0296156  -0.1196901   0.0000000), wk =   0.1111111
        k(    9) = (   0.0296156  -0.0854929   0.0000000), wk =   0.1111111
        k(   10) = (   0.0296156  -0.0512958   0.0000000), wk =   0.1111111
        k(   11) = (   0.0592312  -0.0341972   0.0000000), wk =   0.1111111
        k(   12) = (   0.0592312   0.0000000   0.0000000), wk =   0.1111111
        k(   13) = (   0.0592312   0.0341972   0.0000000), wk =   0.1111111
        k(   14) = (   0.0592312  -0.1367887   0.0000000), wk =   0.1111111
        k(   15) = (   0.0592312  -0.1025915   0.0000000), wk =   0.1111111
        k(   16) = (   0.0592312  -0.0683943   0.0000000), wk =   0.1111111
        k(   17) = (  -0.0888469   0.0512958   0.0000000), wk =   0.0555556
        k(   18) = (  -0.0888469   0.0854929   0.0000000), wk =   0.1111111
        k(   19) = (  -0.0888469   0.1196901   0.0000000), wk =   0.1111111
        k(   20) = (  -0.0888469  -0.0512958   0.0000000), wk =   0.0555556

     Largest allocated arrays     est. size (Mb)     dimensions
     Largest temporary arrays     est. size (Mb)     dimensions

     Initial potential from superposition of free atoms
     Check: negative starting charge=   -0.004867

     starting charge  172.98723, renormalised to  173.00000

     negative rho (up, down):  4.867E-03 0.000E+00

     *
     * You are using vdW-DF for exchange-correlation in this calculation.
     * Please cite the following three references that made this development
     * possible:
     *
     *   M. Dion, H. Rydberg, E. Schroder, D. C. Langreth, and
     *   B. I. Lundqvist, Phys. Rev. Lett. 92, 246401 (2004).
     *
     *   T. Thonhauser, V. R. Cooper, S. Li, A. Puzder, P. Hyldgaard, and
     *   D. C. Langreth, Phys. Rev. B 76, 125112 (2007).
     *
     *   G. Roman-Perez and J. M. Soler, Phys. Rev. Lett. 103, 096102 (2009).
     *
     *
     * If you are using vdW-DF2, please also cite:
     *
     *   K. Lee, E. D. Murray, L. Kong, B. I. Lundqvist, and
     *   D. C. Langreth, Phys. Rev. B 82, 081101(R) (2010).
     *
     *
     * If you are calculating the stress with vdW-DF, please also cite:
     *
     *   R. Sabatini, E. Kucukbenli, B. Kolb, T. Thonhauser, and
     *   S. de Gironcoli, J. Phys.: Condens. Matter 24, 424209 (2012).
     *

     Carrying out vdW-DF run using the following parameters:

     Nqs =      20    Nr_points =    1024   r_max =   100.000
     q_mesh =
               0.00001000     0.04494208     0.09755937     0.15916263
               0.23128650     0.31572767     0.41458969     0.53033537
               0.66584808     0.82450364     1.01025438     1.22772762
               1.48234092     1.78043706     2.12944203     2.53805004
               3.01644009     3.57652955     4.23227104     5.00000000

     Gradients computed in reciprocal space

     Adding external electric field

     Computed dipole along edir(3) :
        Dipole               -0.0031 Ry au,         -0.0079 Debye
        Dipole field         -0.0000 Ry au

        Potential amp.        0.0008 Ry
        Total length         45.3158 bohr

     Starting wfc are  160 randomized atomic wfcs

     Self-consistent Calculation

     iteration #  1     ecut=    36.75 Ry     beta=0.30
     Davidson diagonalization with overlap
     ethr =  1.00E-02,  avg # of iterations =  2.0

[...]

     total energy              =   -1696.49624365 Ry
     Harris-Foulkes estimate   =   -1699.89992968 Ry
     estimated scf accuracy    <       7.05453071 Ry

[...]

     End of self-consistent calculation

          k = 0.0000 0.0000 0.0000 ( 17111 PWs)   bands (ev):

   -59.3277 -59.2222 -59.1679 -59.1364 -59.1363 -59.1160 -59.0564 -59.0362
   -59.0359 -59.0148 -58.9956 -58.9955 -33.8352 -33.8352 -33.8163 -33.7519
   -33.7519 -33.7508 -33.7370 -33.6484 -33.6481 -33.6386 -33.3350 -33.2097
   -33.2096 -33.2094 -33.1253 -33.1132 -33.1129 -33.0199 -33.0199 -33.0180
   -32.9043 -32.9014 -32.9013 -32.9008 -32.8717 -32.8716 -32.7972 -32.7809
   -32.7808 -32.7721 -32.7438 -32.7438 -32.6600 -32.6600 -32.5786 -32.5786
   -10.0676  -4.2017  -2.8684  -2.7443  -2.7443  -2.7273  -2.7021  -2.3029
    -2.2774  -2.2774  -2.0872  -2.0821  -2.0820  -1.8347  -1.8347  -1.8288
    -0.7462  -0.7461  -0.6361   0.0820   0.2869   0.2869   0.4053   0.6253
     0.9682   1.0424   1.0424   1.2416   1.2416   1.3127   1.3127   1.4314
     1.4974   1.4974   1.5195   1.5195   1.7717   1.7718   1.8266   2.4928
     2.8608   2.9782   2.9782   3.0140   3.2456   3.2457   3.3834   3.5835

[...]

          k =-0.0888 0.0513 0.0000 ( 17160 PWs)   bands (ev):

[...]

     the Fermi energy is     1.7599 ev

!    total energy              =   -1699.33625415 Ry
     Harris-Foulkes estimate   =   -1699.33625524 Ry
     estimated scf accuracy    <       0.00000281 Ry

     The total energy is the sum of the following terms:

     one-electron contribution =  -15416.58138548 Ry
     hartree contribution      =    7702.03000093 Ry
     xc contribution           =    -245.25500496 Ry
     ewald contribution        =    6260.57260246 Ry
     electric field correction =       0.00073935 Ry
     smearing contrib. (-TS)   =      -0.10320645 Ry

     convergence has been achieved in  20 iterations

 BEEF-vdW xc energy contributions
           1 :   -210.540052581143
           2 :    192.102550610902
           3 :   -160.645323916123
           4 :    124.576020954294
           5 :   -92.1520992922657
           6 :    68.9142968065102
           7 :   -56.4955206068134
           8 :    52.9412215679768
           9 :   -54.1960904142860
          10 :    56.0010102901549
          11 :   -55.4546875731907
          12 :    51.7140598456630
          13 :   -45.7483373786117
          14 :    39.4254189286968
          15 :   -34.4419996946158
          16 :    31.5491851149413
          17 :   -30.3515965146344
          18 :    29.6753486221987
          19 :   -28.2632154735912
          20 :    25.4161576250964
          21 :   -21.2829758395619
[...]
00031 suncat1036 pw.x -in pw.inp   Done                     01/14/2018 19:56:01

     Program PWSCF v.5.1rc2 (svn rev. 11289) starts on 14Jan2018 at 19:56: 8

[...]

   This run was terminated on:  20:10:38  14Jan2018

[...]

   This run was terminated on:  20:25: 5  14Jan2018

[...]

     Program PWSCF v.5.1rc2 (svn rev. 11289) starts on 14Jan2018 at 20:56: 0

[...]

     Total force =     0.073140     Total SCF correction =     0.009441
     SCF correction compared to forces is large: reduce conv_thr to get better values

[...]

     Total force =     0.042674     Total SCF correction =     0.003745

[...]

     Program PWSCF v.5.1rc2 (svn rev. 11289) starts on 14Jan2018 at 22:27:54

     Current dimensions of program PWSCF are:
     Max number of different atomic species (ntypx) = 10
     Max number of k-points (npk) =  40000
     Max angular momentum in pseudopotentials (lmaxx) =  3
     Presently stress not available with electric field

     IMPORTANT: XC functional enforced from input :
     Exchange-correlation      = BEEF-VDW ( 1  4 27 13 2)
     Any further DFT definition will be discarded
     Please, verify this is what you really want

     Subspace diagonalization in iterative solution of the eigenvalue problem:
     a serial algorithm will be used

     bravais-lattice index     =            0
     lattice parameter (alat)  =       1.8897  a.u.
     unit-cell volume          =    4552.2840 (a.u.)^3
     number of atoms/cell      =           13
     number of atomic types    =            2
     number of electrons       =       173.00
     number of Kohn-Sham states=           96
     kinetic-energy cutoff     =      36.7493  Ry
     charge density cutoff     =     367.4932  Ry
     convergence threshold     =      1.0E-05
     mixing beta               =       0.3000
     number of iterations used =           10  plain     mixing
     Exchange-correlation      = BEEF-VDW ( 1  4 27 13 2)
     nstep                     =           50

     celldm(1)=   1.889726  celldm(2)=   0.000000  celldm(3)=   0.000000
     celldm(4)=   0.000000  celldm(5)=   0.000000  celldm(6)=   0.000000

     crystal axes: (cart. coord. in units of alat)
               a(1) = (   5.627661   0.000000   0.000000 )
               a(2) = (   2.813831   4.873698   0.000000 )
               a(3) = (   0.000000   0.000000  24.594966 )

     reciprocal axes: (cart. coord. in units 2 pi/alat)
               b(1) = (  0.177694 -0.102592  0.000000 )
               b(2) = (  0.000000  0.205183  0.000000 )
               b(3) = (  0.000000  0.000000  0.040659 )

     PseudoPot. # 1 for Mo read from file:
     /afs/slac.stanford.edu/u/if/mamunm/psp/gbrv1.5pbe/Mo.UPF
     MD5 check sum: 30c4dcd161f5d35cd49bb5239c51a633
     Pseudo is Ultrasoft + core correction, Zval = 14.0
     Generated by new atomic code, or converted to UPF format
     Using radial grid of  889 points,  6 beta functions with:
                l(1) =   0
                l(2) =   0
                l(3) =   1
                l(4) =   1
                l(5) =   2
                l(6) =   2
     Q(r) pseudized with  6 coefficients,  rinner =    1.000   1.000   1.000
                                                       1.000   1.000

     PseudoPot. # 2 for N  read from file:
     /afs/slac.stanford.edu/u/if/mamunm/psp/gbrv1.5pbe/N.UPF
     MD5 check sum: 95339753478d7afb44899504a8723017
     Pseudo is Ultrasoft + core correction, Zval =  5.0
     Generated by new atomic code, or converted to UPF format
     Using radial grid of  729 points,  4 beta functions with:
                l(1) =   0
                l(2) =   0
                l(3) =   1
                l(4) =   1
     Q(r) pseudized with  8 coefficients,  rinner =    0.900   0.900   0.900

     vdW kernel table read from file vdW_kernel_table
     MD5 check sum: 095c7af220d748ca6e76c0b4c6cfb241

     atomic species   valence    mass     pseudopotential
        Mo1           14.00    95.95000     Mo( 1.00)
        N1             5.00    14.00700     N ( 1.00)

     No symmetry found

   Cartesian axes

     site n.     atom                  positions (alat units)
         1           Mo1 tau(   1) = (   1.4069153   0.8122829  10.0000000  )
         2           Mo1 tau(   2) = (   4.2207459   0.8122829  10.0000000  )
         3           Mo1 tau(   3) = (   2.8138306   3.2491317  10.0000000  )
         4           Mo1 tau(   4) = (   5.6276612   3.2491317  10.0000000  )
         5           Mo1 tau(   5) = (   5.6276612   1.6245658  12.2974831  )
         6           Mo1 tau(   6) = (   2.8138306   1.6245658  12.2974831  )
         7           Mo1 tau(   7) = (   7.0345765   4.0614146  12.2974831  )
         8           Mo1 tau(   8) = (   4.2207459   4.0614146  12.2974831  )
         9           Mo1 tau(   9) = (   2.8138303   4.8736776  15.0497948  )
        10           Mo1 tau(  10) = (   5.6276652   4.8449466  14.4631907  )
        11           Mo1 tau(  11) = (   7.0096576   2.4512197  14.4630380  )
        12           Mo1 tau(  12) = (   4.2455989   2.4512107  14.4630527  )
        13           N1  tau(  13) = (   0.0000083   0.0000109  16.7269738  )

     number of k points=    20  Fermi-Dirac smearing, width (Ry)=  0.0110
                       cart. coord. in units 2pi/alat
        k(    1) = (   0.0000000   0.0000000   0.0000000), wk =   0.0555556
        k(    2) = (   0.0000000   0.0341972   0.0000000), wk =   0.1111111
        k(    3) = (   0.0000000   0.0683943   0.0000000), wk =   0.1111111
        k(    4) = (   0.0000000  -0.1025915   0.0000000), wk =   0.0555556
        k(    5) = (   0.0296156  -0.0170986   0.0000000), wk =   0.1111111
        k(    6) = (   0.0296156   0.0170986   0.0000000), wk =   0.1111111
        k(    7) = (   0.0296156   0.0512958   0.0000000), wk =   0.1111111
        k(    8) = (   0.0296156  -0.1196901   0.0000000), wk =   0.1111111
        k(    9) = (   0.0296156  -0.0854929   0.0000000), wk =   0.1111111
        k(   10) = (   0.0296156  -0.0512958   0.0000000), wk =   0.1111111
        k(   11) = (   0.0592312  -0.0341972   0.0000000), wk =   0.1111111
        k(   12) = (   0.0592312   0.0000000   0.0000000), wk =   0.1111111
        k(   13) = (   0.0592312   0.0341972   0.0000000), wk =   0.1111111
        k(   14) = (   0.0592312  -0.1367887   0.0000000), wk =   0.1111111
        k(   15) = (   0.0592312  -0.1025915   0.0000000), wk =   0.1111111
        k(   16) = (   0.0592312  -0.0683943   0.0000000), wk =   0.1111111
        k(   17) = (  -0.0888469   0.0512958   0.0000000), wk =   0.0555556
        k(   18) = (  -0.0888469   0.0854929   0.0000000), wk =   0.1111111
        k(   19) = (  -0.0888469   0.1196901   0.0000000), wk =   0.1111111
        k(   20) = (  -0.0888469  -0.0512958   0.0000000), wk =   0.0555556

     Largest allocated arrays     est. size (Mb)     dimensions
     Largest temporary arrays     est. size (Mb)     dimensions

     Initial potential from superposition of free atoms
     Check: negative starting charge=   -0.004690

     starting charge  172.98723, renormalised to  173.00000

[...]

     *
     * You are using vdW-DF for exchange-correlation in this calculation.
     * Please cite the following three references that made this development
     * possible:
     *
     *   M. Dion, H. Rydberg, E. Schroder, D. C. Langreth, and
     *   B. I. Lundqvist, Phys. Rev. Lett. 92, 246401 (2004).
     *
     *   T. Thonhauser, V. R. Cooper, S. Li, A. Puzder, P. Hyldgaard, and
     *   D. C. Langreth, Phys. Rev. B 76, 125112 (2007).
     *
     *   G. Roman-Perez and J. M. Soler, Phys. Rev. Lett. 103, 096102 (2009).
     *
     *
     * If you are using vdW-DF2, please also cite:
     *
     *   K. Lee, E. D. Murray, L. Kong, B. I. Lundqvist, and
     *   D. C. Langreth, Phys. Rev. B 82, 081101(R) (2010).
     *
     *
     * If you are calculating the stress with vdW-DF, please also cite:
     *
     *   R. Sabatini, E. Kucukbenli, B. Kolb, T. Thonhauser, and
     *   S. de Gironcoli, J. Phys.: Condens. Matter 24, 424209 (2012).
     *

     Carrying out vdW-DF run using the following parameters:

     Nqs =      20    Nr_points =    1024   r_max =   100.000
     q_mesh =
               0.00001000     0.04494208     0.09755937     0.15916263
               0.23128650     0.31572767     0.41458969     0.53033537
               0.66584808     0.82450364     1.01025438     1.22772762
               1.48234092     1.78043706     2.12944203     2.53805004
               3.01644009     3.57652955     4.23227104     5.00000000

     Gradients computed in reciprocal space

[...]

     Starting wfc are  160 randomized atomic wfcs

     Self-consistent Calculation

[...]

     total energy              =   -1699.52743369 Ry
     Harris-Foulkes estimate   =   -1699.52743746 Ry
     estimated scf accuracy    <       0.00001264 Ry

     iteration # 21     ecut=    36.75 Ry     beta=0.30
     Davidson diagonalization with overlap
     ethr =  7.31E-09,  avg # of iterations =  2.0

[...]

     negative rho (up, down):  4.760E-03 0.000E+00

     Adding external electric field

     Computed dipole along edir(3) :
        Dipole               -0.4795 Ry au,         -1.2188 Debye
        Dipole field         -0.0013 Ry au

        Potential amp.        0.1200 Ry
        Total length         45.3158 bohr

     End of self-consistent calculation

[...]

          k = 0.0592-0.0684 0.0000 ( 17122 PWs)   bands (ev):

[...]

          k =-0.0888-0.0513 0.0000 ( 17160 PWs)   bands (ev):

   -59.1729 -59.1605 -59.0901 -59.0774 -59.0612 -59.0503 -59.0204 -59.0126
   -58.9784 -58.9504 -58.9247 -58.7738 -33.6529 -33.6261 -33.6085 -33.5787
   -33.5633 -33.5381 -33.4178 -33.4093 -33.3718 -33.3555 -33.3304 -33.2602
   -33.2468 -33.1402 -33.1164 -33.1112 -33.0588 -33.0562 -33.0484 -33.0277
   -33.0031 -32.9906 -32.9488 -32.9049 -32.8930 -32.8498 -32.8312 -32.8242
   -32.7648 -32.7366 -32.7156 -32.7008 -32.6970 -32.6526 -32.5957 -32.5567
   -10.3211  -2.5846  -2.5744  -1.9266  -1.8628  -1.6644  -1.6504  -1.5568
    -1.5411  -1.3857  -1.2442  -1.1212  -1.0416  -1.0411  -0.8643  -0.7537
    -0.6303  -0.6060  -0.3944  -0.3193  -0.1268  -0.0608  -0.0224   0.0588
     0.2328   0.2880   0.6806   0.7443   0.7662   0.8341   0.9589   1.0096
     1.0244   1.0811   1.1635   1.2098   1.3122   1.3952   1.4179   1.5852
     1.7602   1.7782   2.3415   2.4661   2.5666   2.6574   2.7750   2.9183

     the Fermi energy is     1.7752 ev

!    total energy              =   -1699.52743277 Ry
     Harris-Foulkes estimate   =   -1699.52744266 Ry
     estimated scf accuracy    <       0.00000174 Ry

     The total energy is the sum of the following terms:

     one-electron contribution =  -15410.77887525 Ry
     hartree contribution      =    7699.50008722 Ry
     xc contribution           =    -245.73099959 Ry
     ewald contribution        =    6257.57712293 Ry
     electric field correction =       0.00063467 Ry
     smearing contrib. (-TS)   =      -0.09540275 Ry

     convergence has been achieved in  21 iterations

 BEEF-vdW xc energy contributions
           1 :   -211.003980956642
           2 :    192.616543546067
           3 :   -161.223771867133
           4 :    125.173497210546
           5 :   -92.6744193359867
           6 :    69.2599880040497
           7 :   -56.5973522998310
           8 :    52.7879761222484
           9 :   -53.8299257309142
          10 :    55.4999087238746
          11 :   -54.9101329220208
          12 :    51.2078690525987
          13 :   -45.3296298949428
          14 :    39.0949403105445
          15 :   -34.1520678081743
          16 :    31.2257055540114
          17 :   -29.9337086491391
          18 :    29.1549614845935
          19 :   -27.6989032845754
          20 :    24.9092445330137
          21 :   -20.9273291161102
          22 :    16.5291850861852
          23 :   -12.6743741842074
          24 :    10.0164103197047
          25 :   -8.61494333955130
          26 :    7.96093982625965
          27 :   -7.27563488350694
          28 :    5.90828345564165
          29 :   -3.63190392554458
          30 :   0.708694456338378
          31 :   -24.1014572166188
          32 :   -18.4438096808732

     Forces acting on atoms (Ry/au):

     negative rho (up, down):  4.760E-03 0.000E+00
     atom    1 type  1   force =     0.00267499    0.00154794   -0.00021663
     atom    2 type  1   force =    -0.00267347    0.00153802   -0.00019120
     atom    3 type  1   force =    -0.00000735   -0.00308410   -0.00018826
     atom    4 type  1   force =     0.00000948    0.00000270   -0.01124485
     atom    5 type  1   force =     0.00000448   -0.02135177    0.00846789
     atom    6 type  1   force =    -0.00000138   -0.00001841   -0.01309011
     atom    7 type  1   force =     0.01847782    0.01068115    0.00850385
     atom    8 type  1   force =    -0.01847791    0.01068504    0.00847497
     atom    9 type  1   force =    -0.00000868    0.00000596   -0.00037517
     atom   10 type  1   force =    -0.00000161    0.00014203   -0.00008186
     atom   11 type  1   force =     0.00012519   -0.00007601   -0.00006921
     atom   12 type  1   force =    -0.00012198   -0.00007333   -0.00006723
     atom   13 type  2   force =     0.00000044    0.00000077    0.00007780

     Total force =     0.043699     Total SCF correction =     0.005749
     SCF correction compared to forces is large: reduce conv_thr to get better values

     entering subroutine stress ...

     negative rho (up, down):  4.760E-03 0.000E+00
          total   stress  (Ry/bohr**3)                   (kbar)     P=  -10.08
  -0.00010643  -0.00000001  -0.00000002        -15.66     -0.00     -0.00
  -0.00000001  -0.00010645  -0.00000000         -0.00    -15.66     -0.00
  -0.00000002  -0.00000000   0.00000729         -0.00     -0.00      1.07

 !ASE

     Writing output data file calc.save

     General routines

     Parallel routines

   This run was terminated on:  22:44:12  14Jan2018

   JOB DONE.
Job  /afs/slac/g/suncat/bin/suncat-tsmpirun -x LD_LIBRARY_PATH -wdir /scratch/qe842458_yTzap pw.x -in pw.inp

TID   HOST_NAME   COMMAND_LINE            STATUS            TERMINATION_TIME
00000 suncat1058 pw.x -in pw.inp   Done                     01/14/2018 22:44:12
00001 suncat1058 pw.x -in pw.inp   Done                     01/14/2018 22:44:12
00002 suncat1058 pw.x -in pw.inp   Done                     01/14/2018 22:44:12
00003 suncat1058 pw.x -in pw.inp   Done                     01/14/2018 22:44:12
00004 suncat1058 pw.x -in pw.inp   Done                     01/14/2018 22:44:12
00005 suncat1058 pw.x -in pw.inp   Done                     01/14/2018 22:44:12
00006 suncat1058 pw.x -in pw.inp   Done                     01/14/2018 22:44:12
00007 suncat1058 pw.x -in pw.inp   Done                     01/14/2018 22:44:12
00008 suncat1037 pw.x -in pw.inp   Done                     01/14/2018 22:44:12
00009 suncat1037 pw.x -in pw.inp   Done                     01/14/2018 22:44:12
00010 suncat1037 pw.x -in pw.inp   Done                     01/14/2018 22:44:12
00011 suncat1037 pw.x -in pw.inp   Done                     01/14/2018 22:44:12
00012 suncat1037 pw.x -in pw.inp   Done                     01/14/2018 22:44:12
00013 suncat1037 pw.x -in pw.inp   Done                     01/14/2018 22:44:12
00014 suncat1037 pw.x -in pw.inp   Done                     01/14/2018 22:44:12
00015 suncat1037 pw.x -in pw.inp   Done                     01/14/2018 22:44:12
00016 suncat1037 pw.x -in pw.inp   Done                     01/14/2018 22:44:12
00017 suncat1037 pw.x -in pw.inp   Done                     01/14/2018 22:44:12
00018 suncat1037 pw.x -in pw.inp   Done                     01/14/2018 22:44:12
00019 suncat1037 pw.x -in pw.inp   Done                     01/14/2018 22:44:12
00020 suncat1036 pw.x -in pw.inp   Done                     01/14/2018 22:44:12
00021 suncat1036 pw.x -in pw.inp   Done                     01/14/2018 22:44:12
00022 suncat1036 pw.x -in pw.inp   Done                     01/14/2018 22:44:12
00023 suncat1036 pw.x -in pw.inp   Done                     01/14/2018 22:44:12
00024 suncat1036 pw.x -in pw.inp   Done                     01/14/2018 22:44:12
00025 suncat1036 pw.x -in pw.inp   Done                     01/14/2018 22:44:12
00026 suncat1036 pw.x -in pw.inp   Done                     01/14/2018 22:44:12
00027 suncat1036 pw.x -in pw.inp   Done                     01/14/2018 22:44:12
00028 suncat1036 pw.x -in pw.inp   Done                     01/14/2018 22:44:12
00029 suncat1036 pw.x -in pw.inp   Done                     01/14/2018 22:44:12
00030 suncat1036 pw.x -in pw.inp   Done                     01/14/2018 22:44:12
00031 suncat1036 pw.x -in pw.inp   Done                     01/14/2018 22:44:12