     Program PWSCF v.6.1 starts on  9Jan2019 at 16:24:37

     Current dimensions of program PWSCF are:
     Max number of different atomic species (ntypx) = 10
     Max number of k-points (npk) =  40000
     Max angular momentum in pseudopotentials (lmaxx) =  3

     IMPORTANT: XC functional enforced from input :
     Exchange-correlation      = BEEF-VDW ( 1  4 29 14 2 0)
     Any further DFT definition will be discarded
     Please, verify this is what you really want

     bravais-lattice index     =            0
     lattice parameter (alat)  =       9.4723  a.u.
     unit-cell volume          =    3537.7769 (a.u.)^3
     number of atoms/cell      =           14
     number of atomic types    =            3
     number of electrons       =       211.00
     number of Kohn-Sham states=          115
     kinetic-energy cutoff     =      36.7493  Ry
     charge density cutoff     =     367.4933  Ry
     convergence threshold     =      1.0E-04
     mixing beta               =       0.1000
     number of iterations used =            8  plain     mixing
     Exchange-correlation      = BEEF-VDW ( 1  4 29 14 2 0)
     nstep                     =           50

     celldm(1)=   9.472344  celldm(2)=   0.000000  celldm(3)=   0.000000
     celldm(4)=   0.000000  celldm(5)=   0.000000  celldm(6)=   0.000000

     crystal axes: (cart. coord. in units of alat)
               a(1) = (   1.000000   0.000000   0.000000 )
               a(2) = (   0.500000   0.866025   0.000000 )
               a(3) = (   0.000000   0.000000   4.806483 )

     reciprocal axes: (cart. coord. in units 2 pi/alat)
               b(1) = (  1.000000 -0.577350  0.000000 )
               b(2) = (  0.000000  1.154701  0.000000 )
               b(3) = (  0.000000  0.000000  0.208052 )

     PseudoPot. # 1 for Co read from file:
     /home/users/jrboes/code/decaf-espresso/gbrv15pbe/Co.UPF
     MD5 check sum: 5f91765df6ddd3222702df6e7b74a16d
     Pseudo is Ultrasoft + core correction, Zval = 17.0
     Generated by new atomic code, or converted to UPF format
     Using radial grid of  863 points,  6 beta functions with:
                l(1) =   0
                l(2) =   0
                l(3) =   1
                l(4) =   1
                l(5) =   2
                l(6) =   2
     Q(r) pseudized with  8 coefficients,  rinner =    1.200   1.200   1.200
                                                       1.200   1.200

     PseudoPot. # 2 for O  read from file:
     /home/users/jrboes/code/decaf-espresso/gbrv15pbe/O.UPF
     MD5 check sum: 734c27235a0248c51dbae37a1fbe46ec
     Pseudo is Ultrasoft + core correction, Zval =  6.0
     Generated by new atomic code, or converted to UPF format
     Using radial grid of  737 points,  5 beta functions with:
                l(1) =   0
                l(2) =   0
                l(3) =   1
                l(4) =   1
                l(5) =   2
     Q(r) pseudized with  8 coefficients,  rinner =    0.900   0.900   0.900
                                                       0.900   0.900

     PseudoPot. # 3 for H  read from file:
     /home/users/jrboes/code/decaf-espresso/gbrv15pbe/H.UPF
     MD5 check sum: 761ae9a214b05c3daf00ab9f6b793d6f
     Pseudo is Ultrasoft, Zval =  1.0
     Generated by new atomic code, or converted to UPF format
     Using radial grid of  615 points,  2 beta functions with:
                l(1) =   0
                l(2) =   0
     Q(r) pseudized with  8 coefficients,  rinner =    0.700

     vdW kernel table read from file vdW_kernel_table
     MD5 check sum: 095c7af220d748ca6e76c0b4c6cfb241

     atomic species   valence    mass     pseudopotential
        Co            17.00    58.93319     Co( 1.00)
        O              6.00    15.99900     O ( 1.00)
        H              1.00     1.00800     H ( 1.00)

     Starting magnetic structure
     atomic species   magnetization
        Co           0.118
        O            0.000
        H            0.000

     No symmetry found

   Cartesian axes

     site n.     atom                  positions (alat units)
         1           Co  tau(   1) = (   0.2500000   0.1443376   1.9949931  )
         2           Co  tau(   2) = (   0.7500000   0.1443376   1.9949931  )
         3           Co  tau(   3) = (   0.5000000   0.5773503   1.9949931  )
         4           Co  tau(   4) = (   1.0000000   0.5773503   1.9949931  )
         5           Co  tau(   5) = (   1.0000000   0.2886751   2.4032414  )
         6           Co  tau(   6) = (   0.5000000   0.2886751   2.4032414  )
         7           Co  tau(   7) = (   1.2500000   0.7216878   2.4032414  )
         8           Co  tau(   8) = (   0.7500000   0.7216878   2.4032414  )
         9           Co  tau(   9) = (  -0.0000055   0.0000028   2.7870998  )
        10           Co  tau(  10) = (   0.5000020  -0.0102587   2.8088690  )
        11           Co  tau(  11) = (   0.2411121   0.4381437   2.8088679  )
        12           Co  tau(  12) = (   0.7588837   0.4381384   2.8088642  )
        13           O   tau(  13) = (   0.5000045   0.2886779   3.0720332  )
        14           H   tau(  14) = (   0.5000021   0.2886729   3.2656516  )

     number of k points=    20  Fermi-Dirac smearing, width (Ry)=  0.0110
                       cart. coord. in units 2pi/alat
        k(    1) = (   0.0000000   0.0000000   0.0000000), wk =   0.0277778
        k(    2) = (   0.0000000   0.1924501   0.0000000), wk =   0.0555556
        k(    3) = (   0.0000000   0.3849002   0.0000000), wk =   0.0555556
        k(    4) = (   0.0000000  -0.5773503   0.0000000), wk =   0.0277778
        k(    5) = (   0.1666667  -0.0962250   0.0000000), wk =   0.0555556
        k(    6) = (   0.1666667   0.0962250   0.0000000), wk =   0.0555556
        k(    7) = (   0.1666667   0.2886751   0.0000000), wk =   0.0555556
        k(    8) = (   0.1666667  -0.6735753   0.0000000), wk =   0.0555556
        k(    9) = (   0.1666667  -0.4811252   0.0000000), wk =   0.0555556
        k(   10) = (   0.1666667  -0.2886751   0.0000000), wk =   0.0555556
        k(   11) = (   0.3333333  -0.1924501   0.0000000), wk =   0.0555556
        k(   12) = (   0.3333333  -0.0000000   0.0000000), wk =   0.0555556
        k(   13) = (   0.3333333   0.1924501   0.0000000), wk =   0.0555556
        k(   14) = (   0.3333333  -0.7698004   0.0000000), wk =   0.0555556
        k(   15) = (   0.3333333  -0.5773503   0.0000000), wk =   0.0555556
        k(   16) = (   0.3333333  -0.3849002   0.0000000), wk =   0.0555556
        k(   17) = (  -0.5000000   0.2886751   0.0000000), wk =   0.0277778
        k(   18) = (  -0.5000000   0.4811252   0.0000000), wk =   0.0555556
        k(   19) = (  -0.5000000   0.6735753   0.0000000), wk =   0.0555556
        k(   20) = (  -0.5000000  -0.2886751   0.0000000), wk =   0.0277778

     Check: negative/imaginary core charge=   -0.000007    0.000000

     Initial potential from superposition of free atoms
     Check: negative starting charge=(component1):   -0.000206
     Check: negative starting charge=(component2):   -0.000174

     starting charge  198.99991, renormalised to  211.00000

     negative rho (up, down):  2.182E-04 1.849E-04

     %%%%%%%%%%%%%%%%%%%%%%%%%%%%%%%%%%%%%%%%%%%%%%%%%%%%%%%%%%%%%%%%%%%%%%%%
     %                                                                      %
     % You are using vdW-DF, which was implemented by the Thonhauser group. %
     % Please cite the following two papers that made this development      %
     % possible and the two reviews that describe the various versions:     %
     %                                                                      %
     %   T. Thonhauser et al., PRL 115, 136402 (2015).                      %
     %   T. Thonhauser et al., PRB 76, 125112 (2007).                       %
     %   K. Berland et al., Rep. Prog. Phys. 78, 066501 (2015).             %
     %   D.C. Langreth et al., J. Phys.: Condens. Matter 21, 084203 (2009). %
     %                                                                      %
     %                                                                      %
     % If you are calculating the stress with vdW-DF, please also cite:     %
     %                                                                      %
     %   R. Sabatini et al., J. Phys.: Condens. Matter 24, 424209 (2012).   %
     %                                                                      %
     %%%%%%%%%%%%%%%%%%%%%%%%%%%%%%%%%%%%%%%%%%%%%%%%%%%%%%%%%%%%%%%%%%%%%%%%

     Adding external electric field

     Computed dipole along edir(3) :
        Dipole               -2.7954 Ry au,         -7.1051 Debye
        Dipole field         -0.0099 Ry au,

        Potential amp.        0.8137 Ry
        Total length         40.9758 bohr

[...]

     Starting wfc are  161 randomized atomic wfcs

     Self-consistent Calculation

     iteration #  1     ecut=    36.75 Ry     beta=0.10
     Davidson diagonalization with overlap
     ethr =  1.00E-02,  avg # of iterations =  7.3

[...]

     total energy              =   -3435.92229478 Ry
     Harris-Foulkes estimate   =   -3654.13428665 Ry
     estimated scf accuracy    <    1196.90551435 Ry

     total magnetization       =     9.94 Bohr mag/cell
     absolute magnetization    =    10.59 Bohr mag/cell

[...]

     Magnetic moment per site:
     atom:    1    charge:   14.4136    magn:    1.6717    constr:    0.0000
     atom:    2    charge:   14.4131    magn:    1.6732    constr:    0.0000
     atom:    3    charge:   14.4129    magn:    1.6727    constr:    0.0000
     atom:    4    charge:   14.4110    magn:    1.6901    constr:    0.0000
     atom:    5    charge:   14.4268    magn:    1.6160    constr:    0.0000
     atom:    6    charge:   14.4199    magn:    1.7372    constr:    0.0000
     atom:    7    charge:   14.4281    magn:    1.6144    constr:    0.0000
     atom:    8    charge:   14.4270    magn:    1.6149    constr:    0.0000
     atom:    9    charge:   14.4422    magn:    1.7046    constr:    0.0000
     atom:   10    charge:   14.4252    magn:    1.6438    constr:    0.0000
     atom:   11    charge:   14.4254    magn:    1.6447    constr:    0.0000
     atom:   12    charge:   14.4247    magn:    1.6445    constr:    0.0000
     atom:   13    charge:    1.9699    magn:    0.0309    constr:    0.0000
     atom:   14    charge:    0.3966    magn:    0.0018    constr:    0.0000

     End of self-consistent calculation

 ------ SPIN UP ------------

          k = 0.0000 0.0000 0.0000 ( 13257 PWs)   bands (ev):

   -94.6390 -94.5503 -94.5266 -94.5253 -94.5058 -94.4805 -94.4789 -94.3793
   -94.3688 -94.3525 -94.3421 -94.3405 -58.0603 -57.9738 -57.9732 -57.9374
   -57.9290 -57.9279 -57.9122 -57.8321 -57.8294 -57.8284 -57.7693 -57.7691
   -57.7373 -57.7186 -57.7185 -57.7177 -57.6974 -57.6963 -57.6957 -57.6833
   -57.6781 -57.6777 -57.6588 -57.6536 -57.6519 -57.6479 -57.6241 -57.6231
   -57.5710 -57.5345 -57.5339 -57.5270 -57.5254 -57.5249 -57.4787 -57.4786
   -19.4747  -7.9939  -6.0409  -4.1229  -4.1229  -4.0463  -3.2549  -3.0541
    -3.0540  -2.9930  -2.7749  -2.7547  -2.7545  -2.5243  -2.4643  -2.4640
    -2.2847  -2.2843  -2.2091  -1.6097  -1.6092  -1.5859  -1.1420  -1.1418
    -1.0874  -1.0141  -0.9342  -0.9342  -0.9020  -0.7784  -0.7784  -0.7547
    -0.7547  -0.7429  -0.5851  -0.5850  -0.5139  -0.3272  -0.3265   0.0545
     0.0592   0.0597   0.1445   0.1449   0.2363   0.2365   0.2377   0.3890
     0.3893   0.6400   0.6406   0.6666   0.6879   0.7898   0.7903   0.9035
     0.9037   0.9783   1.0039   1.0041   1.0405   1.0498   1.1119   1.1125
     1.1968   1.1974   1.1988

[...]

          k =-0.5000 0.2887 0.0000 ( 13378 PWs)   bands (ev):

[...]

 ------ SPIN DOWN ----------

[...]

     the Fermi energy is     1.9377 ev

!    total energy              =   -3628.11195701 Ry
     Harris-Foulkes estimate   =   -3628.11198094 Ry
     estimated scf accuracy    <       0.00008141 Ry

     The total energy is the sum of the following terms:

     one-electron contribution =  -32340.22659726 Ry
     hartree contribution      =   16185.05022633 Ry
     xc contribution           =    -413.81243792 Ry
     ewald contribution        =   12940.94802319 Ry
     electric field correction =       0.00068537 Ry
     smearing contrib. (-TS)   =      -0.07185673 Ry

[...]

     convergence has been achieved in  31 iterations

[...]

     Forces acting on atoms (cartesian axes, Ry/au):

     atom    1 type  1   force =     0.00023228    0.00014205    0.00985146
     atom    2 type  1   force =    -0.00023748    0.00025510    0.00982816
     atom    3 type  1   force =     0.00011182   -0.00031611    0.00975717
     atom    4 type  1   force =    -0.00009192   -0.00008475    0.00885949
     atom    5 type  1   force =    -0.00019079    0.00512685   -0.00644129
     atom    6 type  1   force =     0.00019915    0.00021486   -0.00862392
     atom    7 type  1   force =    -0.00424706   -0.00255991   -0.00675772
     atom    8 type  1   force =     0.00427626   -0.00279458   -0.00643871
     atom    9 type  1   force =     0.00023095    0.00006991   -0.00142228
     atom   10 type  1   force =    -0.00024620   -0.00345864   -0.00263275
     atom   11 type  1   force =    -0.00310971    0.00159602   -0.00264398
     atom   12 type  1   force =     0.00301575    0.00181239   -0.00282313
     atom   13 type  2   force =     0.00004300    0.00000206    0.00011706
     atom   14 type  3   force =     0.00001395   -0.00000525   -0.00062955

     Total force =     0.007811     Total SCF correction =     0.004540
     SCF correction compared to forces is large: reduce conv_thr to get better values

     BFGS Geometry Optimization

     number of scf cycles    =   1
     number of bfgs steps    =   0

     energy   new            =   -3628.1119570068 Ry

     new trust radius        =       0.0045110502 bohr
     new conv_thr            =       0.0001000000 Ry

ATOMIC_POSITIONS (angstrom)
Co       1.253137179   0.723499088  10.000000000    0   0   0
Co       3.759411536   0.723499088  10.000000000    0   0   0
Co       2.506274358   2.893996350  10.000000000    0   0   0
Co       5.012548715   2.893996350  10.000000000    0   0   0
Co       5.012548715   1.446998175  12.046364444    0   0   0
Co       2.506274357   1.446998175  12.046364444    0   0   0
Co       6.265685894   3.617495438  12.046364444    0   0   0
Co       3.759411536   3.617495438  12.046364444    0   0   0
Co       0.000094841   0.000050893  13.969721075
Co       2.506154100  -0.053252625  14.078199261
Co       1.206940521   2.197060969  14.078187853
Co       3.805537336   2.197149169  14.078074861
O        2.506319674   1.447013326  15.398778213
H        2.506292120   1.446984429  16.368904720

     Writing output data file calc.save
     Check: negative starting charge=(component1):   -0.000379
     NEW-OLD atomic charge density approx. for the potential

     Check: negative/imaginary core charge=   -0.000007    0.000000
     Check: negative starting charge=(component1):   -0.000379

[...]

     number of scf cycles    =   2
     number of bfgs steps    =   1

     energy   old            =   -3628.1119570068 Ry
     energy   new            =   -3628.1120039461 Ry

     CASE: energy  _new < energy  _old

     new trust radius        =       0.0024723193 bohr
     new conv_thr            =       0.0000010000 Ry

ATOMIC_POSITIONS (angstrom)
Co       1.253137179   0.723499088  10.000000000    0   0   0
Co       3.759411536   0.723499088  10.000000000    0   0   0
Co       2.506274358   2.893996350  10.000000000    0   0   0
Co       5.012548715   2.893996350  10.000000000    0   0   0
Co       5.012548715   1.446998175  12.046364444    0   0   0
Co       2.506274357   1.446998175  12.046364444    0   0   0
Co       6.265685894   3.617495438  12.046364444    0   0   0
Co       3.759411536   3.617495438  12.046364444    0   0   0
Co       0.000000180   0.000001032  13.970635065
Co       2.506228549  -0.052477331  14.079118356
Co       1.207645709   2.196737216  14.079129154
Co       3.804797198   2.196720713  14.079064940
O        2.506337103   1.447024267  15.398338625
H        2.506296773   1.446986081  16.368841919

     Writing output data file calc.save
     Check: negative starting charge=(component1):   -0.000379
     NEW-OLD atomic charge density approx. for the potential

     Check: negative/imaginary core charge=   -0.000007    0.000000
     Check: negative starting charge=(component1):   -0.000379

[...]

     Self-consistent Calculation

[...]

     total energy              =   -3628.11202426 Ry
     Harris-Foulkes estimate   =   -3628.11202346 Ry
     estimated scf accuracy    <       0.00000144 Ry

[...]

     iteration # 15     ecut=    36.75 Ry     beta=0.10
     Davidson diagonalization with overlap
     ethr =  6.81E-10,  avg # of iterations =  3.4

[...]

     Adding external electric field

     Computed dipole along edir(3) :
        Dipole                0.4311 Ry au,          1.0957 Debye
        Dipole field          0.0015 Ry au,

        Potential amp.       -0.1255 Ry
        Total length         40.9758 bohr

     Magnetic moment per site:
     atom:    1    charge:   14.4127    magn:    1.6793    constr:    0.0000
     atom:    2    charge:   14.4127    magn:    1.6793    constr:    0.0000
     atom:    3    charge:   14.4127    magn:    1.6793    constr:    0.0000
     atom:    4    charge:   14.4122    magn:    1.6973    constr:    0.0000
     atom:    5    charge:   14.4269    magn:    1.6108    constr:    0.0000
     atom:    6    charge:   14.4184    magn:    1.7353    constr:    0.0000
     atom:    7    charge:   14.4269    magn:    1.6107    constr:    0.0000
     atom:    8    charge:   14.4269    magn:    1.6107    constr:    0.0000
     atom:    9    charge:   14.4414    magn:    1.7112    constr:    0.0000
     atom:   10    charge:   14.4259    magn:    1.6523    constr:    0.0000
     atom:   11    charge:   14.4259    magn:    1.6524    constr:    0.0000
     atom:   12    charge:   14.4259    magn:    1.6523    constr:    0.0000
     atom:   13    charge:    1.9695    magn:    0.0310    constr:    0.0000
     atom:   14    charge:    0.3964    magn:    0.0018    constr:    0.0000

     End of self-consistent calculation

 ------ SPIN UP ------------

[...]

 ------ SPIN DOWN ----------

[...]

          k = 0.3333-0.3849 0.0000 ( 13313 PWs)   bands (ev):

[...]

          k =-0.5000-0.2887 0.0000 ( 13378 PWs)   bands (ev):

   -92.2799 -92.2719 -92.2611 -92.2082 -92.2006 -92.1895 -92.1863 -92.0315
   -92.0313 -92.0144 -92.0143 -91.9986 -55.7355 -55.7157 -55.6969 -55.6864
   -55.6665 -55.6460 -55.6408 -55.6324 -55.6236 -55.6044 -55.5754 -55.5700
   -55.5693 -55.5589 -55.5546 -55.5352 -55.5140 -55.5035 -55.4825 -55.4653
   -55.4628 -55.4463 -55.4326 -55.3969 -55.3951 -55.3804 -55.3798 -55.3659
   -55.3378 -55.3341 -55.3301 -55.3260 -55.3236 -55.3165 -55.3088 -55.3058
   -19.3882  -7.7739  -4.6967  -4.3363  -3.7934  -3.7750  -2.5098  -2.3632
    -1.8127  -1.8068  -1.3504  -1.2760  -1.2743  -1.1566  -0.7542  -0.7059
    -0.6082  -0.5739  -0.3757  -0.3328  -0.1103  -0.0724  -0.0569  -0.0482
     0.0306   0.0518   0.2893   0.4206   0.4802   0.5034   0.5454   0.5497
     0.6141   0.6532   0.7349   0.8509   0.9903   0.9989   1.0349   1.0411
     1.1131   1.1925   1.3288   1.5935   1.6441   1.6484   1.6902   1.8604
     1.8674   1.9058   1.9723   2.0189   2.0609   2.1295   2.1904   2.2248
     2.2907   2.3692   2.4338   2.4990   2.5827   2.7519   2.7548   2.8713
     2.8890   2.9919   3.0246

     the Fermi energy is     1.8916 ev

!    total energy              =   -3628.11202443 Ry
     Harris-Foulkes estimate   =   -3628.11202712 Ry
     estimated scf accuracy    <       0.00000033 Ry

     The total energy is the sum of the following terms:

     one-electron contribution =  -32341.60307496 Ry
     hartree contribution      =   16185.69004419 Ry
     xc contribution           =    -413.81714301 Ry
     ewald contribution        =   12941.68913621 Ry
     electric field correction =       0.00066012 Ry
     smearing contrib. (-TS)   =      -0.07164698 Ry

     total magnetization       =    18.94 Bohr mag/cell
     absolute magnetization    =    22.17 Bohr mag/cell

     convergence has been achieved in  15 iterations

     negative rho (up, down):  6.231E-04 3.306E-04

     Forces acting on atoms (cartesian axes, Ry/au):

     atom    1 type  1   force =     0.00049232    0.00029240    0.01036513
     atom    2 type  1   force =    -0.00048879    0.00029252    0.01036452
     atom    3 type  1   force =     0.00000148   -0.00057393    0.01036351
     atom    4 type  1   force =     0.00000218   -0.00000619    0.00912321
     atom    5 type  1   force =     0.00000985    0.00468273   -0.01062836
     atom    6 type  1   force =    -0.00001060   -0.00000280   -0.01235822
     atom    7 type  1   force =    -0.00405957   -0.00234620   -0.01059864
     atom    8 type  1   force =     0.00405863   -0.00233532   -0.01062728
     atom    9 type  1   force =    -0.00002667    0.00000235    0.00042544
     atom   10 type  1   force =     0.00001936   -0.00190013    0.00007713
     atom   11 type  1   force =    -0.00164249    0.00095495    0.00007652
     atom   12 type  1   force =     0.00165670    0.00094287    0.00007776
     atom   13 type  2   force =    -0.00001657   -0.00000502    0.00166698
     atom   14 type  3   force =     0.00000417    0.00000179    0.00167229

     Total force =     0.004078     Total SCF correction =     0.002337
     SCF correction compared to forces is large: reduce conv_thr to get better values

     bfgs converged in   3 scf cycles and   2 bfgs steps
     (criteria: energy <  1.0E+12 Ry, force <  1.9E-03 Ry/Bohr)

     End of BFGS Geometry Optimization

     Final energy   =   -3628.1120244334 Ry
Begin final coordinates

ATOMIC_POSITIONS (angstrom)
Co       1.253137179   0.723499088  10.000000000    0   0   0
Co       3.759411536   0.723499088  10.000000000    0   0   0
Co       2.506274358   2.893996350  10.000000000    0   0   0
Co       5.012548715   2.893996350  10.000000000    0   0   0
Co       5.012548715   1.446998175  12.046364444    0   0   0
Co       2.506274357   1.446998175  12.046364444    0   0   0
Co       6.265685894   3.617495438  12.046364444    0   0   0
Co       3.759411536   3.617495438  12.046364444    0   0   0
Co       0.000000180   0.000001032  13.970635065
Co       2.506228549  -0.052477331  14.079118356
Co       1.207645709   2.196737216  14.079129154
Co       3.804797198   2.196720713  14.079064940
O        2.506337103   1.447024267  15.398338625
H        2.506296773   1.446986081  16.368841919
End final coordinates

     Writing output data file calc.save

     General routines

     Parallel routines

   This run was terminated on:  16:46:11   9Jan2019

   JOB DONE.