     Program PWSCF v.5.1rc2 (svn rev. 11289) starts on 25Apr2018 at  1:48:42

     Current dimensions of program PWSCF are:
     Max number of different atomic species (ntypx) = 10
     Max number of k-points (npk) =  40000
     Max angular momentum in pseudopotentials (lmaxx) =  3
     Presently stress not available with electric field

     IMPORTANT: XC functional enforced from input :
     Exchange-correlation      = BEEF-VDW ( 1  4 27 13 2)
     Any further DFT definition will be discarded
     Please, verify this is what you really want

     Subspace diagonalization in iterative solution of the eigenvalue problem:
     a serial algorithm will be used

     bravais-lattice index     =            0
     lattice parameter (alat)  =       1.8897  a.u.
     unit-cell volume          =    7725.1200 (a.u.)^3
     number of atoms/cell      =           16
     number of atomic types    =            3
     number of electrons       =       139.00
     number of Kohn-Sham states=           79
     kinetic-energy cutoff     =      36.7493  Ry
     charge density cutoff     =     367.4932  Ry
     convergence threshold     =      1.0E-05
     mixing beta               =       0.3000
     number of iterations used =           10  plain     mixing
     Exchange-correlation      = BEEF-VDW ( 1  4 27 13 2)
     nstep                     =           50

     celldm(1)=   1.889726  celldm(2)=   0.000000  celldm(3)=   0.000000
     celldm(4)=   0.000000  celldm(5)=   0.000000  celldm(6)=   0.000000

     crystal axes: (cart. coord. in units of alat)
               a(1) = (   7.152277   0.000000   0.000000 )
               a(2) = (   3.576139   6.194054   0.000000 )
               a(3) = (   0.000000   0.000000  25.839810 )

     reciprocal axes: (cart. coord. in units 2 pi/alat)
               b(1) = (  0.139816 -0.080723  0.000000 )
               b(2) = (  0.000000  0.161445  0.000000 )
               b(3) = (  0.000000  0.000000  0.038700 )

     PseudoPot. # 1 for Y  read from file:
     /u/if/mamunm/psp/gbrv1.5pbe/Y.UPF
     MD5 check sum: d034151ed7554c50b6e82763ed42c788
     Pseudo is Ultrasoft + core correction, Zval = 11.0
     Generated by new atomic code, or converted to UPF format
     Using radial grid of  885 points,  6 beta functions with:
                l(1) =   0
                l(2) =   0
                l(3) =   1
                l(4) =   1
                l(5) =   2
                l(6) =   2
     Q(r) pseudized with  8 coefficients,  rinner =    1.200   1.200   1.200
                                                       1.200   1.200

     PseudoPot. # 2 for C  read from file:
     /u/if/mamunm/psp/gbrv1.5pbe/C.UPF
     MD5 check sum: d1aef80898a10debaa0f26306b886e00
     Pseudo is Ultrasoft + core correction, Zval =  4.0
     Generated by new atomic code, or converted to UPF format
     Using radial grid of  721 points,  4 beta functions with:
                l(1) =   0
                l(2) =   0
                l(3) =   1
                l(4) =   1
     Q(r) pseudized with  8 coefficients,  rinner =    1.100   1.100   1.100

     PseudoPot. # 3 for H  read from file:
     /u/if/mamunm/psp/gbrv1.5pbe/H.UPF
     MD5 check sum: 761ae9a214b05c3daf00ab9f6b793d6f
     Pseudo is Ultrasoft, Zval =  1.0
     Generated by new atomic code, or converted to UPF format
     Using radial grid of  615 points,  2 beta functions with:
                l(1) =   0
                l(2) =   0
     Q(r) pseudized with  8 coefficients,  rinner =    0.700

     vdW kernel table read from file vdW_kernel_table
     MD5 check sum: 095c7af220d748ca6e76c0b4c6cfb241

     atomic species   valence    mass     pseudopotential
        Y1            11.00    88.90584     Y ( 1.00)
        C1             4.00    12.01100     C ( 1.00)
        H1             1.00     1.00800     H ( 1.00)

     No symmetry found

   Cartesian axes

     site n.     atom                  positions (alat units)
         1           Y1  tau(   1) = (   1.7880693   1.0323423  10.0000000  )
         2           Y1  tau(   2) = (   5.3642080   1.0323423  10.0000000  )
         3           Y1  tau(   3) = (   3.5761386   4.1293692  10.0000000  )
         4           Y1  tau(   4) = (   7.1522773   4.1293692  10.0000000  )
         5           Y1  tau(   5) = (   7.1522773   2.0646846  12.9199050  )
         6           Y1  tau(   6) = (   3.5761386   2.0646846  12.9199050  )
         7           Y1  tau(   7) = (   8.9403466   5.1617115  12.9199050  )
         8           Y1  tau(   8) = (   5.3642080   5.1617115  12.9199050  )
         9           Y1  tau(   9) = (   0.0000000   0.0000000  15.8398100  )
        10           Y1  tau(  10) = (   3.5761386   0.0000000  15.8398100  )
        11           Y1  tau(  11) = (   1.7880693   3.0970269  15.8398100  )
        12           Y1  tau(  12) = (   5.3642080   3.0970269  15.8398100  )
        13           C1  tau(  13) = (   0.0000000   0.0000000  18.1008100  )
        14           H1  tau(  14) = (   1.0900000   0.0000000  18.7308100  )
        15           H1  tau(  15) = (   6.7022773   0.8895000  18.7308100  )
        16           H1  tau(  16) = (   3.1261386   5.3045538  18.7308100  )

     number of k points=    20  Fermi-Dirac smearing, width (Ry)=  0.0110
                       cart. coord. in units 2pi/alat
        k(    1) = (   0.0000000   0.0000000   0.0000000), wk =   0.0555556
        k(    2) = (   0.0000000   0.0269075   0.0000000), wk =   0.1111111
        k(    3) = (   0.0000000   0.0538151   0.0000000), wk =   0.1111111
        k(    4) = (   0.0000000  -0.0807226   0.0000000), wk =   0.0555556
        k(    5) = (   0.0233026  -0.0134538   0.0000000), wk =   0.1111111
        k(    6) = (   0.0233026   0.0134538   0.0000000), wk =   0.1111111
        k(    7) = (   0.0233026   0.0403613   0.0000000), wk =   0.1111111
        k(    8) = (   0.0233026  -0.0941763   0.0000000), wk =   0.1111111
        k(    9) = (   0.0233026  -0.0672688   0.0000000), wk =   0.1111111
        k(   10) = (   0.0233026  -0.0403613   0.0000000), wk =   0.1111111
        k(   11) = (   0.0466052  -0.0269075   0.0000000), wk =   0.1111111
        k(   12) = (   0.0466052   0.0000000   0.0000000), wk =   0.1111111
        k(   13) = (   0.0466052   0.0269075   0.0000000), wk =   0.1111111
        k(   14) = (   0.0466052  -0.1076301   0.0000000), wk =   0.1111111
        k(   15) = (   0.0466052  -0.0807226   0.0000000), wk =   0.1111111
        k(   16) = (   0.0466052  -0.0538151   0.0000000), wk =   0.1111111
        k(   17) = (  -0.0699078   0.0403613   0.0000000), wk =   0.0555556
        k(   18) = (  -0.0699078   0.0672688   0.0000000), wk =   0.1111111
        k(   19) = (  -0.0699078   0.0941763   0.0000000), wk =   0.1111111
        k(   20) = (  -0.0699078  -0.0403613   0.0000000), wk =   0.0555556

     Largest allocated arrays     est. size (Mb)     dimensions
     Largest temporary arrays     est. size (Mb)     dimensions

     Initial potential from superposition of free atoms
     Check: negative starting charge=   -0.000483

     starting charge  138.94630, renormalised to  139.00000

     negative rho (up, down):  4.836E-04 0.000E+00

     *
     * You are using vdW-DF for exchange-correlation in this calculation.
     * Please cite the following three references that made this development
     * possible:
     *
     *   M. Dion, H. Rydberg, E. Schroder, D. C. Langreth, and
     *   B. I. Lundqvist, Phys. Rev. Lett. 92, 246401 (2004).
     *
     *   T. Thonhauser, V. R. Cooper, S. Li, A. Puzder, P. Hyldgaard, and
     *   D. C. Langreth, Phys. Rev. B 76, 125112 (2007).
     *
     *   G. Roman-Perez and J. M. Soler, Phys. Rev. Lett. 103, 096102 (2009).
     *
     *
     * If you are using vdW-DF2, please also cite:
     *
     *   K. Lee, E. D. Murray, L. Kong, B. I. Lundqvist, and
     *   D. C. Langreth, Phys. Rev. B 82, 081101(R) (2010).
     *
     *
     * If you are calculating the stress with vdW-DF, please also cite:
     *
     *   R. Sabatini, E. Kucukbenli, B. Kolb, T. Thonhauser, and
     *   S. de Gironcoli, J. Phys.: Condens. Matter 24, 424209 (2012).
     *

     Carrying out vdW-DF run using the following parameters:

     Nqs =      20    Nr_points =    1024   r_max =   100.000
     q_mesh =
               0.00001000     0.04494208     0.09755937     0.15916263
               0.23128650     0.31572767     0.41458969     0.53033537
               0.66584808     0.82450364     1.01025438     1.22772762
               1.48234092     1.78043706     2.12944203     2.53805004
               3.01644009     3.57652955     4.23227104     5.00000000

     Gradients computed in reciprocal space

     Adding external electric field

     Computed dipole along edir(3) :
        Dipole               -0.0272 Ry au,         -0.0691 Debye
        Dipole field         -0.0000 Ry au

        Potential amp.        0.0042 Ry
        Total length         47.6094 bohr

     Starting wfc are  163 randomized atomic wfcs

     Self-consistent Calculation

     iteration #  1     ecut=    36.75 Ry     beta=0.30
     Davidson diagonalization with overlap
     ethr =  1.00E-02,  avg # of iterations =  2.0

[...]

     total energy              =   -1137.68242146 Ry
     Harris-Foulkes estimate   =   -1140.08948655 Ry
     estimated scf accuracy    <       5.25930033 Ry

[...]

     End of self-consistent calculation

          k = 0.0000 0.0000 0.0000 ( 28997 PWs)   bands (ev):

   -42.3021 -42.2700 -42.2693 -42.2457 -42.2052 -42.2051 -42.1966 -41.7210
   -41.6819 -41.6812 -41.6638 -41.6259 -22.3798 -22.3623 -22.3531 -22.3529
   -22.3492 -22.3340 -22.3334 -22.3030 -22.3023 -22.2729 -22.2077 -22.2076
   -22.2003 -22.1066 -22.0284 -22.0248 -22.0247 -22.0048 -22.0043 -21.9267
   -21.9267 -21.8747 -21.8298 -21.8295 -21.6745 -21.6413 -21.6404 -21.5973
   -21.5806 -21.5796 -21.5349 -21.5329 -21.5325 -21.5117 -21.4370 -21.4369
   -11.0706  -4.1026  -3.6841  -3.2210  -2.3593  -1.6667  -1.2391  -0.5258
    -0.5242  -0.4653  -0.3944  -0.3921  -0.3793  -0.1305  -0.1299  -0.0557
     0.4129   0.4136   0.4389   0.7927   0.9036   0.9069   1.2806   1.5359
     1.6676   1.7049   1.7979   1.7985   1.9170   2.0570   2.0677

[...]

          k =-0.0699 0.0404 0.0000 ( 29048 PWs)   bands (ev):

[...]

     the Fermi energy is     1.0970 ev

!    total energy              =   -1139.46310066 Ry
     Harris-Foulkes estimate   =   -1139.46309994 Ry
     estimated scf accuracy    <       0.00000388 Ry

     The total energy is the sum of the following terms:

     one-electron contribution =   -5480.64544834 Ry
     hartree contribution      =    2734.99220516 Ry
     xc contribution           =    -344.79244506 Ry
     ewald contribution        =    1951.10683498 Ry
     electric field correction =       0.00000511 Ry
     smearing contrib. (-TS)   =      -0.12425251 Ry

     convergence has been achieved in  14 iterations

 BEEF-vdW xc energy contributions
           1 :   -300.524033659993
           2 :    269.694112235290
           3 :   -216.752620226322
           4 :    154.804211051460
           5 :   -95.9049158164901
           6 :    47.5589785828494
           7 :   -12.2609087946507
           8 :   -10.7171021279186
           9 :    23.0728121053660
          10 :   -26.2327893451521
          11 :    21.4792853913120
          12 :   -10.7889569632350
          13 :   -2.64654065564804
          14 :    14.8622870248344
          15 :   -22.3782907780822
          16 :    23.4829282794788
          17 :   -18.7225993846330
          18 :    10.3333828522267
          19 :   -1.05303134408086
          20 :   -6.93175322264352
          21 :    12.4033490772031
          22 :   -14.9454167940582
          23 :    14.5943261752680
          24 :   -11.6735566813762
          25 :    6.86214505663088
          26 :   -1.27518061512870
          27 :   -3.69446900182959
          28 :    6.81090694838599
          29 :   -7.48552631360337
          30 :    6.00433390758553
          31 :   -28.9550092841080
          32 :   -19.7952026394345

     Forces acting on atoms (Ry/au):

     negative rho (up, down):  1.639E-04 0.000E+00
     atom    1 type  1   force =    -0.00030631   -0.00012031    0.00458382
     atom    2 type  1   force =     0.00031339   -0.00011586    0.00455614
     atom    3 type  1   force =    -0.00004730    0.00030399    0.00453828
     atom    4 type  1   force =     0.00001159   -0.00006145    0.00542019
     atom    5 type  1   force =    -0.00010396    0.00791113   -0.00125589
     atom    6 type  1   force =     0.00001408    0.00002675    0.00336088
     atom    7 type  1   force =    -0.00676161   -0.00403144   -0.00122389
     atom    8 type  1   force =     0.00685697   -0.00387213   -0.00112641
     atom    9 type  1   force =     0.00079398   -0.00006441   -0.03524316
     atom   10 type  1   force =    -0.00111534   -0.00202515   -0.00875386
     atom   11 type  1   force =    -0.00108350    0.00245696   -0.00952332
     atom   12 type  1   force =     0.00239622   -0.00046288   -0.00942065
     atom   13 type  2   force =     0.04624897    0.00005747    0.21229155
     atom   14 type  3   force =    -0.07836445   -0.00009472   -0.07037500
     atom   15 type  3   force =     0.01562973   -0.04310139   -0.04891803
     atom   16 type  3   force =     0.01551753    0.04319344   -0.04891064

     Total force =     0.262319     Total SCF correction =     0.001550

     entering subroutine stress ...

     negative rho (up, down):  1.639E-04 0.000E+00
          total   stress  (Ry/bohr**3)                   (kbar)     P=   -4.46
  -0.00003247   0.00000001  -0.00000780         -4.78      0.00     -1.15
   0.00000001  -0.00002671   0.00000000          0.00     -3.93      0.00
  -0.00000780   0.00000000  -0.00003176         -1.15      0.00     -4.67

     BFGS Geometry Optimization

     number of scf cycles    =   1
     number of bfgs steps    =   0

     energy   new            =   -1139.4631006569 Ry

     new trust radius        =       0.2172709630 bohr
     new conv_thr            =       0.0000099958 Ry

ATOMIC_POSITIONS (crystal)
Y1       0.166666667   0.166666667   0.386999750    0   0   0
Y1       0.666666667   0.166666667   0.386999750    0   0   0
Y1       0.166666667   0.666666667   0.386999750    0   0   0
Y1       0.666666667   0.666666667   0.386999750    0   0   0
Y1       0.833333333   0.333333333   0.500000000    0   0   0
Y1       0.333333333   0.333333333   0.500000000    0   0   0
Y1       0.833333333   0.833333333   0.500000000    0   0   0
Y1       0.333333333   0.833333333   0.500000000    0   0   0
Y1       0.000061496  -0.000005503   0.612278500
Y1       0.500003987  -0.000173014   0.612820978
Y1      -0.000185118   0.500209906   0.612805220
Y1       0.500197062   0.499960455   0.612807323
C1       0.003419378   0.000004910   0.704848443
H1       0.146605090  -0.000008092   0.723440658
H1       0.868277785   0.139923183   0.723880078
H1       0.008188735   0.860084681   0.723880229

     Writing output data file calc.save
     Check: negative starting charge=   -0.000483
     NEW-OLD atomic charge density approx. for the potential
     Check: negative starting charge=   -0.000479

[...]

     energy   old            =   -1139.4631006569 Ry
     energy   new            =   -1139.5044053379 Ry

     CASE: energy  _new < energy  _old

[...]

     Threshold (ethr) on eigenvalues was too large:
     Diagonalizing with lowered threshold

     Davidson diagonalization with overlap
     ethr =  6.82E-08,  avg # of iterations =  2.6

[...]

     Total force =     0.006147     Total SCF correction =     0.000209

[...]

     Total force =     0.004060     Total SCF correction =     0.000499
     SCF correction compared to forces is large: reduce conv_thr to get better values

[...]

     number of scf cycles    =  13
     number of bfgs steps    =  12

     energy   old            =   -1139.5103793737 Ry
     energy   new            =   -1139.5104433582 Ry

     CASE: energy  _new < energy  _old

     new trust radius        =       0.0065158300 bohr
     new conv_thr            =       0.0000001000 Ry

ATOMIC_POSITIONS (crystal)
Y1       0.166666667   0.166666667   0.386999750    0   0   0
Y1       0.666666667   0.166666667   0.386999750    0   0   0
Y1       0.166666667   0.666666667   0.386999750    0   0   0
Y1       0.666666667   0.666666667   0.386999750    0   0   0
Y1       0.833333333   0.333333333   0.500000000    0   0   0
Y1       0.333333333   0.333333333   0.500000000    0   0   0
Y1       0.833333333   0.833333333   0.500000000    0   0   0
Y1       0.333333333   0.833333333   0.500000000    0   0   0
Y1      -0.000598028   0.000018217   0.614415300
Y1       0.498973659  -0.001024031   0.608650594
Y1      -0.001609335   0.501537101   0.608616628
Y1       0.500953075   0.499463575   0.608643420
C1       0.007092931   0.000018304   0.707080224
H1       0.149196713  -0.000195943   0.723430405
H1       0.865327780   0.142251429   0.723494707
H1       0.007199755   0.857955234   0.723491197

     Writing output data file calc.save
     Check: negative starting charge=   -0.000484
     NEW-OLD atomic charge density approx. for the potential
     Check: negative starting charge=   -0.000483

[...]

     Self-consistent Calculation

[...]

     Threshold (ethr) on eigenvalues was too large:
     Diagonalizing with lowered threshold

     Davidson diagonalization with overlap
     ethr =  6.94E-08,  avg # of iterations =  3.2

[...]

     total energy              =   -1139.51047152 Ry
     Harris-Foulkes estimate   =   -1139.51047155 Ry
     estimated scf accuracy    <       0.00000012 Ry

     iteration # 10     ecut=    36.75 Ry     beta=0.30
     Davidson diagonalization with overlap
     ethr =  8.81E-11,  avg # of iterations =  7.2

[...]

     negative rho (up, down):  1.765E-04 0.000E+00

     Adding external electric field

     Computed dipole along edir(3) :
        Dipole               -0.2030 Ry au,         -0.5159 Debye
        Dipole field         -0.0003 Ry au

        Potential amp.        0.0314 Ry
        Total length         47.6094 bohr

     End of self-consistent calculation

[...]

          k = 0.0466-0.0538 0.0000 ( 29098 PWs)   bands (ev):

[...]

          k =-0.0699-0.0404 0.0000 ( 29048 PWs)   bands (ev):

   -42.3692 -42.3630 -42.3478 -42.3337 -42.3327 -42.3218 -42.3110 -41.8158
   -41.7810 -41.7739 -41.7609 -41.7150 -22.4157 -22.4073 -22.4068 -22.3935
   -22.3755 -22.3740 -22.3659 -22.3594 -22.3487 -22.3336 -22.3009 -22.2855
   -22.2802 -22.2574 -22.2523 -22.2428 -22.2278 -22.2153 -22.1197 -22.1114
   -22.0701 -21.8877 -21.8558 -21.8202 -21.8064 -21.7681 -21.7266 -21.7172
   -21.6997 -21.6866 -21.6806 -21.6594 -21.6475 -21.5997 -21.5779 -21.5410
   -11.3109  -4.4556  -4.4412  -2.1536  -2.1254  -1.3903  -1.2841  -0.7554
    -0.4370  -0.3824  -0.2610  -0.2364  -0.0099   0.0613   0.6566   0.6794
     0.6997   0.7378   0.8050   0.8337   0.8821   0.9777   1.0635   1.0880
     1.1105   1.1418   1.2187   1.3661   1.4040   1.4359   1.5034

     the Fermi energy is     0.9690 ev

!    total energy              =   -1139.51047148 Ry
     Harris-Foulkes estimate   =   -1139.51047165 Ry
     estimated scf accuracy    <       0.00000008 Ry

     The total energy is the sum of the following terms:

     one-electron contribution =   -5521.10157503 Ry
     hartree contribution      =    2754.93679862 Ry
     xc contribution           =    -345.01495029 Ry
     ewald contribution        =    1971.79244717 Ry
     electric field correction =       0.00006700 Ry
     smearing contrib. (-TS)   =      -0.12325897 Ry

     convergence has been achieved in  10 iterations

 BEEF-vdW xc energy contributions
           1 :   -300.724578018757
           2 :    269.883171304542
           3 :   -216.923034762038
           4 :    154.941785978910
           5 :   -95.9918610350890
           6 :    47.5976657533106
           7 :   -12.2829870480447
           8 :   -10.6702638147498
           9 :    22.9790225527781
          10 :   -26.1052298308196
          11 :    21.3591868658020
          12 :   -10.7170792341230
          13 :   -2.66321138206570
          14 :    14.8607982512202
          15 :   -22.4102170494731
          16 :    23.5684633139766
          17 :   -18.8320567497229
          18 :    10.4124890732144
          19 :   -1.06961055828350
          20 :   -6.96052439957600
          21 :    12.4272603935681
          22 :   -14.9243675734073
          23 :    14.5299225889514
          24 :   -11.6050302373489
          25 :    6.83218256499305
          26 :   -1.29486826790009
          27 :   -3.65208158491498
          28 :    6.78381460984264
          29 :   -7.48592005320438
          30 :    6.00379697873586
          31 :   -28.9689981651426
          32 :   -19.8063986594123

     Forces acting on atoms (Ry/au):

     negative rho (up, down):  1.765E-04 0.000E+00
     atom    1 type  1   force =    -0.00049347   -0.00027616    0.00451175
     atom    2 type  1   force =     0.00048149   -0.00028635    0.00451745
     atom    3 type  1   force =    -0.00001869    0.00056169    0.00451319
     atom    4 type  1   force =     0.00000542    0.00000184    0.00432494
     atom    5 type  1   force =     0.00010276    0.00543143   -0.00487933
     atom    6 type  1   force =    -0.00011114    0.00000108   -0.00544893
     atom    7 type  1   force =    -0.00481032   -0.00242279   -0.00486715
     atom    8 type  1   force =     0.00460205   -0.00301741   -0.00488413
     atom    9 type  1   force =    -0.00011162   -0.00000720    0.00025271
     atom   10 type  1   force =    -0.00010925    0.00011886    0.00010923
     atom   11 type  1   force =    -0.00015397   -0.00021425    0.00007205
     atom   12 type  1   force =    -0.00036475    0.00009818    0.00006451
     atom   13 type  2   force =     0.00151940    0.00000193    0.00120832
     atom   14 type  3   force =     0.00046793   -0.00005092    0.00045246
     atom   15 type  3   force =    -0.00046190    0.00018966    0.00003176
     atom   16 type  3   force =    -0.00054395   -0.00012959    0.00002117

     Total force =     0.002257     Total SCF correction =     0.000470
     SCF correction compared to forces is large: reduce conv_thr to get better values

     entering subroutine stress ...

     negative rho (up, down):  1.765E-04 0.000E+00
          total   stress  (Ry/bohr**3)                   (kbar)     P=   -0.85
  -0.00000257   0.00000006   0.00000073         -0.38      0.01      0.11
   0.00000006  -0.00000263   0.00000002          0.01     -0.39      0.00
   0.00000073   0.00000002  -0.00001212          0.11      0.00     -1.78

     bfgs converged in  14 scf cycles and  13 bfgs steps
     (criteria: energy <  1.0E+00, force <  1.9E-03)

     End of BFGS Geometry Optimization

     Final energy   =   -1139.5104714850 Ry
Begin final coordinates

ATOMIC_POSITIONS (crystal)
Y1       0.166666667   0.166666667   0.386999750    0   0   0
Y1       0.666666667   0.166666667   0.386999750    0   0   0
Y1       0.166666667   0.666666667   0.386999750    0   0   0
Y1       0.666666667   0.666666667   0.386999750    0   0   0
Y1       0.833333333   0.333333333   0.500000000    0   0   0
Y1       0.333333333   0.333333333   0.500000000    0   0   0
Y1       0.833333333   0.833333333   0.500000000    0   0   0
Y1       0.333333333   0.833333333   0.500000000    0   0   0
Y1      -0.000598028   0.000018217   0.614415300
Y1       0.498973659  -0.001024031   0.608650594
Y1      -0.001609335   0.501537101   0.608616628
Y1       0.500953075   0.499463575   0.608643420
C1       0.007092931   0.000018304   0.707080224
H1       0.149196713  -0.000195943   0.723430405
H1       0.865327780   0.142251429   0.723494707
H1       0.007199755   0.857955234   0.723491197
End final coordinates

     Writing output data file calc.save

     General routines

     Parallel routines

   This run was terminated on:   4:14:23  25Apr2018

   JOB DONE.
Job  /afs/slac/g/suncat/bin/suncat-tsmpirun -x LD_LIBRARY_PATH -wdir /scratch/qe261355_TnnaA pw.x -npool 4 -in pw.inp

TID   HOST_NAME   COMMAND_LINE            STATUS            TERMINATION_TIME
00000 suncat0256 pw.x -npool 4 -i  Done                     04/25/2018 04:14:23
00001 suncat0256 pw.x -npool 4 -i  Done                     04/25/2018 04:14:23
00002 suncat0256 pw.x -npool 4 -i  Done                     04/25/2018 04:14:23
00003 suncat0256 pw.x -npool 4 -i  Done                     04/25/2018 04:14:23
00004 suncat0256 pw.x -npool 4 -i  Done                     04/25/2018 04:14:23
00005 suncat0256 pw.x -npool 4 -i  Done                     04/25/2018 04:14:23
00006 suncat0256 pw.x -npool 4 -i  Done                     04/25/2018 04:14:23
00007 suncat0256 pw.x -npool 4 -i  Done                     04/25/2018 04:14:23
00008 suncat0252 pw.x -npool 4 -i  Done                     04/25/2018 04:14:23
00009 suncat0252 pw.x -npool 4 -i  Done                     04/25/2018 04:14:23
00010 suncat0252 pw.x -npool 4 -i  Done                     04/25/2018 04:14:23
00011 suncat0252 pw.x -npool 4 -i  Done                     04/25/2018 04:14:23
00012 suncat0252 pw.x -npool 4 -i  Done                     04/25/2018 04:14:23
00013 suncat0252 pw.x -npool 4 -i  Done                     04/25/2018 04:14:23
00014 suncat0252 pw.x -npool 4 -i  Done                     04/25/2018 04:14:23
00015 suncat0252 pw.x -npool 4 -i  Done                     04/25/2018 04:14:23
00016 suncat0235 pw.x -npool 4 -i  Done                     04/25/2018 04:14:23
00017 suncat0235 pw.x -npool 4 -i  Done                     04/25/2018 04:14:23
00018 suncat0235 pw.x -npool 4 -i  Done                     04/25/2018 04:14:23
00019 suncat0235 pw.x -npool 4 -i  Done                     04/25/2018 04:14:23
00020 suncat0235 pw.x -npool 4 -i  Done                     04/25/2018 04:14:23
00021 suncat0235 pw.x -npool 4 -i  Done                     04/25/2018 04:14:23
00022 suncat0235 pw.x -npool 4 -i  Done                     04/25/2018 04:14:23
00023 suncat0235 pw.x -npool 4 -i  Done                     04/25/2018 04:14:23
00024 suncat0229 pw.x -npool 4 -i  Done                     04/25/2018 04:14:23
00025 suncat0229 pw.x -npool 4 -i  Done                     04/25/2018 04:14:23
00026 suncat0229 pw.x -npool 4 -i  Done                     04/25/2018 04:14:23
00027 suncat0229 pw.x -npool 4 -i  Done                     04/25/2018 04:14:23
00028 suncat0229 pw.x -npool 4 -i  Done                     04/25/2018 04:14:23
00029 suncat0229 pw.x -npool 4 -i  Done                     04/25/2018 04:14:23
00030 suncat0229 pw.x -npool 4 -i  Done                     04/25/2018 04:14:23
00031 suncat0229 pw.x -npool 4 -i  Done                     04/25/2018 04:14:23