     Program PWSCF v.5.1rc2 (svn rev. 11289) starts on 16Jan2018 at 12: 6:13

     Current dimensions of program PWSCF are:
     Max number of different atomic species (ntypx) = 10
     Max number of k-points (npk) =  40000
     Max angular momentum in pseudopotentials (lmaxx) =  3
     Presently stress not available with electric field

     IMPORTANT: XC functional enforced from input :
     Exchange-correlation      = BEEF-VDW ( 1  4 27 13 2)
     Any further DFT definition will be discarded
     Please, verify this is what you really want

     Subspace diagonalization in iterative solution of the eigenvalue problem:
     a serial algorithm will be used

     bravais-lattice index     =            0
     lattice parameter (alat)  =       1.8897  a.u.
     unit-cell volume          =    4198.3539 (a.u.)^3
     number of atoms/cell      =           13
     number of atomic types    =            2
     number of electrons       =       193.00
     number of Kohn-Sham states=          106
     kinetic-energy cutoff     =      36.7493  Ry
     charge density cutoff     =     367.4932  Ry
     convergence threshold     =      1.0E-05
     mixing beta               =       0.3000
     number of iterations used =           10  plain     mixing
     Exchange-correlation      = BEEF-VDW ( 1  4 27 13 2)
     nstep                     =           50

     celldm(1)=   1.889726  celldm(2)=   0.000000  celldm(3)=   0.000000
     celldm(4)=   0.000000  celldm(5)=   0.000000  celldm(6)=   0.000000

     crystal axes: (cart. coord. in units of alat)
               a(1) = (   5.422927   0.000000   0.000000 )
               a(2) = (   2.711463   4.696392   0.000000 )
               a(3) = (   0.000000   0.000000  24.427801 )

     reciprocal axes: (cart. coord. in units 2 pi/alat)
               b(1) = (  0.184402 -0.106465  0.000000 )
               b(2) = (  0.000000  0.212929  0.000000 )
               b(3) = (  0.000000  0.000000  0.040937 )

     PseudoPot. # 1 for Ru read from file:
     /afs/slac.stanford.edu/u/if/mamunm/psp/gbrv1.5pbe/Ru.UPF
     MD5 check sum: 7158a806dd851261a58e6920c40ebe78
     Pseudo is Ultrasoft + core correction, Zval = 16.0
     Generated by new atomic code, or converted to UPF format
     Using radial grid of  967 points,  6 beta functions with:
                l(1) =   0
                l(2) =   0
                l(3) =   1
                l(4) =   1
                l(5) =   2
                l(6) =   2
     Q(r) pseudized with  8 coefficients,  rinner =    1.300   1.300   1.300
                                                       1.300   1.300

     PseudoPot. # 2 for H  read from file:
     /afs/slac.stanford.edu/u/if/mamunm/psp/gbrv1.5pbe/H.UPF
     MD5 check sum: 761ae9a214b05c3daf00ab9f6b793d6f
     Pseudo is Ultrasoft, Zval =  1.0
     Generated by new atomic code, or converted to UPF format
     Using radial grid of  615 points,  2 beta functions with:
                l(1) =   0
                l(2) =   0
     Q(r) pseudized with  8 coefficients,  rinner =    0.700

     vdW kernel table read from file vdW_kernel_table
     MD5 check sum: 095c7af220d748ca6e76c0b4c6cfb241

     atomic species   valence    mass     pseudopotential
        Ru1           16.00   101.07000     Ru( 1.00)
        H1             1.00     1.00800     H ( 1.00)

     No symmetry found

   Cartesian axes

     site n.     atom                  positions (alat units)
         1           Ru1 tau(   1) = (   1.3557316   0.7827320  10.0000000  )
         2           Ru1 tau(   2) = (   4.0671949   0.7827320  10.0000000  )
         3           Ru1 tau(   3) = (   2.7114633   3.1309281  10.0000000  )
         4           Ru1 tau(   4) = (   5.4229265   3.1309281  10.0000000  )
         5           Ru1 tau(   5) = (   5.4229265   1.5654640  12.2139005  )
         6           Ru1 tau(   6) = (   2.7114633   1.5654640  12.2139005  )
         7           Ru1 tau(   7) = (   6.7786581   3.9136601  12.2139005  )
         8           Ru1 tau(   8) = (   4.0671949   3.9136601  12.2139005  )
         9           Ru1 tau(   9) = (   0.0000000   0.0000000  14.4278010  )
        10           Ru1 tau(  10) = (   2.7114633   0.0000000  14.4278010  )
        11           Ru1 tau(  11) = (   1.3557316   2.3481961  14.4278010  )
        12           Ru1 tau(  12) = (   4.0671949   2.3481961  14.4278010  )
        13           H1  tau(  13) = (   0.0000000   0.0000000  16.1978010  )

     number of k points=    20  Fermi-Dirac smearing, width (Ry)=  0.0110
                       cart. coord. in units 2pi/alat
        k(    1) = (   0.0000000   0.0000000   0.0000000), wk =   0.0555556
        k(    2) = (   0.0000000   0.0354882   0.0000000), wk =   0.1111111
        k(    3) = (   0.0000000   0.0709765   0.0000000), wk =   0.1111111
        k(    4) = (   0.0000000  -0.1064647   0.0000000), wk =   0.0555556
        k(    5) = (   0.0307337  -0.0177441   0.0000000), wk =   0.1111111
        k(    6) = (   0.0307337   0.0177441   0.0000000), wk =   0.1111111
        k(    7) = (   0.0307337   0.0532324   0.0000000), wk =   0.1111111
        k(    8) = (   0.0307337  -0.1242088   0.0000000), wk =   0.1111111
        k(    9) = (   0.0307337  -0.0887206   0.0000000), wk =   0.1111111
        k(   10) = (   0.0307337  -0.0532324   0.0000000), wk =   0.1111111
        k(   11) = (   0.0614674  -0.0354882   0.0000000), wk =   0.1111111
        k(   12) = (   0.0614674   0.0000000   0.0000000), wk =   0.1111111
        k(   13) = (   0.0614674   0.0354882   0.0000000), wk =   0.1111111
        k(   14) = (   0.0614674  -0.1419529   0.0000000), wk =   0.1111111
        k(   15) = (   0.0614674  -0.1064647   0.0000000), wk =   0.1111111
        k(   16) = (   0.0614674  -0.0709765   0.0000000), wk =   0.1111111
        k(   17) = (  -0.0922011   0.0532324   0.0000000), wk =   0.0555556
        k(   18) = (  -0.0922011   0.0887206   0.0000000), wk =   0.1111111
        k(   19) = (  -0.0922011   0.1242088   0.0000000), wk =   0.1111111
        k(   20) = (  -0.0922011  -0.0532324   0.0000000), wk =   0.0555556

     Largest allocated arrays     est. size (Mb)     dimensions
     Largest temporary arrays     est. size (Mb)     dimensions

     Initial potential from superposition of free atoms
     Check: negative starting charge=   -0.873592

     starting charge  180.99980, renormalised to  193.00000

     negative rho (up, down):  9.315E-01 0.000E+00

     *
     * You are using vdW-DF for exchange-correlation in this calculation.
     * Please cite the following three references that made this development
     * possible:
     *
     *   M. Dion, H. Rydberg, E. Schroder, D. C. Langreth, and
     *   B. I. Lundqvist, Phys. Rev. Lett. 92, 246401 (2004).
     *
     *   T. Thonhauser, V. R. Cooper, S. Li, A. Puzder, P. Hyldgaard, and
     *   D. C. Langreth, Phys. Rev. B 76, 125112 (2007).
     *
     *   G. Roman-Perez and J. M. Soler, Phys. Rev. Lett. 103, 096102 (2009).
     *
     *
     * If you are using vdW-DF2, please also cite:
     *
     *   K. Lee, E. D. Murray, L. Kong, B. I. Lundqvist, and
     *   D. C. Langreth, Phys. Rev. B 82, 081101(R) (2010).
     *
     *
     * If you are calculating the stress with vdW-DF, please also cite:
     *
     *   R. Sabatini, E. Kucukbenli, B. Kolb, T. Thonhauser, and
     *   S. de Gironcoli, J. Phys.: Condens. Matter 24, 424209 (2012).
     *

     Carrying out vdW-DF run using the following parameters:

     Nqs =      20    Nr_points =    1024   r_max =   100.000
     q_mesh =
               0.00001000     0.04494208     0.09755937     0.15916263
               0.23128650     0.31572767     0.41458969     0.53033537
               0.66584808     0.82450364     1.01025438     1.22772762
               1.48234092     1.78043706     2.12944203     2.53805004
               3.01644009     3.57652955     4.23227104     5.00000000

     Gradients computed in reciprocal space

     Adding external electric field

     Computed dipole along edir(3) :
        Dipole               -0.4991 Ry au,         -1.2685 Debye
        Dipole field         -0.0015 Ry au

        Potential amp.        0.1345 Ry
        Total length         45.0078 bohr

     Starting wfc are  157 randomized atomic wfcs

     Self-consistent Calculation

     iteration #  1     ecut=    36.75 Ry     beta=0.30
     Davidson diagonalization with overlap
     ethr =  1.00E-02,  avg # of iterations =  2.2

[...]

     total energy              =   -2335.68124094 Ry
     Harris-Foulkes estimate   =   -2347.74329221 Ry
     estimated scf accuracy    <      27.18934596 Ry

[...]

     End of self-consistent calculation

          k = 0.0000 0.0000 0.0000 ( 15761 PWs)   bands (ev):

   -71.0958 -71.0037 -70.9779 -70.9777 -70.6335 -70.6159 -70.5451 -70.5321
   -70.5295 -70.5289 -70.5050 -70.5043 -41.3738 -41.3737 -41.3461 -41.1996
   -41.1020 -41.0895 -41.0894 -40.8830 -40.8829 -40.8708 -40.8101 -40.8066
   -40.8065 -40.7364 -40.7305 -40.7304 -40.6292 -40.6292 -40.5658 -40.4767
   -40.4614 -40.4611 -40.4173 -40.3938 -40.3934 -40.3887 -40.3544 -40.3542
   -40.3514 -40.3363 -40.3361 -40.3261 -40.1882 -40.1882 -40.1706 -40.1705
    -4.5637  -3.3171  -3.3171  -3.3161  -3.2064  -3.0936  -2.9849  -2.9471
    -2.9471  -2.6824  -2.6800  -2.6799  -2.3165  -2.3131  -2.3131  -1.2254
    -1.1713  -1.1712  -1.1376  -0.5703  -0.5703  -0.5426  -0.2895  -0.1978
    -0.1978   0.2162   0.2162   0.2468   0.2468   0.2496   0.3830   0.4815
     0.4815   0.9716   0.9717   1.3603   1.8677   1.8677   1.8736   1.9911
     2.0090   2.0091   2.0131   2.0131   2.5740   2.6073   2.6073   3.1677
     3.1678   3.2082   3.2452   3.2452   3.2532   3.4160   3.4160   3.7558
     3.7559   3.7635

[...]

          k =-0.0922 0.0532 0.0000 ( 15808 PWs)   bands (ev):

[...]

     the Fermi energy is     2.1840 ev

!    total energy              =   -2342.39811279 Ry
     Harris-Foulkes estimate   =   -2342.39811195 Ry
     estimated scf accuracy    <       0.00000713 Ry

     The total energy is the sum of the following terms:

     one-electron contribution =  -21881.71051758 Ry
     hartree contribution      =   10939.73382778 Ry
     xc contribution           =    -322.42023625 Ry
     ewald contribution        =    8922.08717570 Ry
     electric field correction =       0.00003228 Ry
     smearing contrib. (-TS)   =      -0.08839471 Ry

     convergence has been achieved in  21 iterations

 BEEF-vdW xc energy contributions
           1 :   -279.638133736021
           2 :    256.699424974438
           3 :   -216.975016906097
           4 :    170.296443971233
           5 :   -126.679143749137
           6 :    93.2741760234551
           7 :   -72.7252958955233
           8 :    63.3021644870111
           9 :   -60.4922497116719
          10 :    59.2481790052592
          11 :   -55.9534543873581
          12 :    49.4183368695514
          13 :   -40.7080717695407
          14 :    32.0979143321258
          15 :   -25.7431019312085
          16 :    22.6607003359308
          17 :   -22.3960215300938
          18 :    23.4105380337913
          19 :   -23.9183481922766
          20 :    22.7350248389987
          21 :   -19.7454039731026
[...]
00030 suncat0114 pw.x -in pw.inp   Done                     01/16/2018 12:19:53
00031 suncat0114 pw.x -in pw.inp   Done                     01/16/2018 12:19:53

     Program PWSCF v.5.1rc2 (svn rev. 11289) starts on 16Jan2018 at 12:19:59

[...]

     iteration # 13     ecut=    36.75 Ry     beta=0.30
     Davidson diagonalization with overlap
     c_bands:  1 eigenvalues not converged
     ethr =  2.85E-05,  avg # of iterations =  1.9

[...]

     iteration # 15     ecut=    36.75 Ry     beta=0.30
     Davidson diagonalization with overlap
     c_bands:  1 eigenvalues not converged
     ethr =  1.78E-06,  avg # of iterations =  5.8

[...]

     Program PWSCF v.5.1rc2 (svn rev. 11289) starts on 16Jan2018 at 13:11:50

     Current dimensions of program PWSCF are:
     Max number of different atomic species (ntypx) = 10
     Max number of k-points (npk) =  40000
     Max angular momentum in pseudopotentials (lmaxx) =  3
     Presently stress not available with electric field

     IMPORTANT: XC functional enforced from input :
     Exchange-correlation      = BEEF-VDW ( 1  4 27 13 2)
     Any further DFT definition will be discarded
     Please, verify this is what you really want

     Subspace diagonalization in iterative solution of the eigenvalue problem:
     a serial algorithm will be used

     bravais-lattice index     =            0
     lattice parameter (alat)  =       1.8897  a.u.
     unit-cell volume          =    4198.3539 (a.u.)^3
     number of atoms/cell      =           13
     number of atomic types    =            2
     number of electrons       =       193.00
     number of Kohn-Sham states=          106
     kinetic-energy cutoff     =      36.7493  Ry
     charge density cutoff     =     367.4932  Ry
     convergence threshold     =      1.0E-05
     mixing beta               =       0.3000
     number of iterations used =           10  plain     mixing
     Exchange-correlation      = BEEF-VDW ( 1  4 27 13 2)
     nstep                     =           50

     celldm(1)=   1.889726  celldm(2)=   0.000000  celldm(3)=   0.000000
     celldm(4)=   0.000000  celldm(5)=   0.000000  celldm(6)=   0.000000

     crystal axes: (cart. coord. in units of alat)
               a(1) = (   5.422927   0.000000   0.000000 )
               a(2) = (   2.711463   4.696392   0.000000 )
               a(3) = (   0.000000   0.000000  24.427801 )

     reciprocal axes: (cart. coord. in units 2 pi/alat)
               b(1) = (  0.184402 -0.106465  0.000000 )
               b(2) = (  0.000000  0.212929  0.000000 )
               b(3) = (  0.000000  0.000000  0.040937 )

     PseudoPot. # 1 for Ru read from file:
     /afs/slac.stanford.edu/u/if/mamunm/psp/gbrv1.5pbe/Ru.UPF
     MD5 check sum: 7158a806dd851261a58e6920c40ebe78
     Pseudo is Ultrasoft + core correction, Zval = 16.0
     Generated by new atomic code, or converted to UPF format
     Using radial grid of  967 points,  6 beta functions with:
                l(1) =   0
                l(2) =   0
                l(3) =   1
                l(4) =   1
                l(5) =   2
                l(6) =   2
     Q(r) pseudized with  8 coefficients,  rinner =    1.300   1.300   1.300
                                                       1.300   1.300

     PseudoPot. # 2 for H  read from file:
     /afs/slac.stanford.edu/u/if/mamunm/psp/gbrv1.5pbe/H.UPF
     MD5 check sum: 761ae9a214b05c3daf00ab9f6b793d6f
     Pseudo is Ultrasoft, Zval =  1.0
     Generated by new atomic code, or converted to UPF format
     Using radial grid of  615 points,  2 beta functions with:
                l(1) =   0
                l(2) =   0
     Q(r) pseudized with  8 coefficients,  rinner =    0.700

     vdW kernel table read from file vdW_kernel_table
     MD5 check sum: 095c7af220d748ca6e76c0b4c6cfb241

     atomic species   valence    mass     pseudopotential
        Ru1           16.00   101.07000     Ru( 1.00)
        H1             1.00     1.00800     H ( 1.00)

     No symmetry found

   Cartesian axes

     site n.     atom                  positions (alat units)
         1           Ru1 tau(   1) = (   1.3557316   0.7827320  10.0000000  )
         2           Ru1 tau(   2) = (   4.0671949   0.7827320  10.0000000  )
         3           Ru1 tau(   3) = (   2.7114633   3.1309281  10.0000000  )
         4           Ru1 tau(   4) = (   5.4229265   3.1309281  10.0000000  )
         5           Ru1 tau(   5) = (   5.4229265   1.5654640  12.2139005  )
         6           Ru1 tau(   6) = (   2.7114633   1.5654640  12.2139005  )
         7           Ru1 tau(   7) = (   6.7786581   3.9136601  12.2139005  )
         8           Ru1 tau(   8) = (   4.0671949   3.9136601  12.2139005  )
         9           Ru1 tau(   9) = (   0.0000450   0.0000435  14.3477368  )
        10           Ru1 tau(  10) = (   5.4228924   4.6887749  14.3111897  )
        11           Ru1 tau(  11) = (   6.7720586   2.3519652  14.3111641  )
        12           Ru1 tau(  12) = (   4.0738263   2.3519555  14.3111977  )
        13           H1  tau(  13) = (   5.4229145   0.0000022  15.9943549  )

     number of k points=    20  Fermi-Dirac smearing, width (Ry)=  0.0110
                       cart. coord. in units 2pi/alat
        k(    1) = (   0.0000000   0.0000000   0.0000000), wk =   0.0555556
        k(    2) = (   0.0000000   0.0354882   0.0000000), wk =   0.1111111
        k(    3) = (   0.0000000   0.0709765   0.0000000), wk =   0.1111111
        k(    4) = (   0.0000000  -0.1064647   0.0000000), wk =   0.0555556
        k(    5) = (   0.0307337  -0.0177441   0.0000000), wk =   0.1111111
        k(    6) = (   0.0307337   0.0177441   0.0000000), wk =   0.1111111
        k(    7) = (   0.0307337   0.0532324   0.0000000), wk =   0.1111111
        k(    8) = (   0.0307337  -0.1242088   0.0000000), wk =   0.1111111
        k(    9) = (   0.0307337  -0.0887206   0.0000000), wk =   0.1111111
        k(   10) = (   0.0307337  -0.0532324   0.0000000), wk =   0.1111111
        k(   11) = (   0.0614674  -0.0354882   0.0000000), wk =   0.1111111
        k(   12) = (   0.0614674   0.0000000   0.0000000), wk =   0.1111111
        k(   13) = (   0.0614674   0.0354882   0.0000000), wk =   0.1111111
        k(   14) = (   0.0614674  -0.1419529   0.0000000), wk =   0.1111111
        k(   15) = (   0.0614674  -0.1064647   0.0000000), wk =   0.1111111
        k(   16) = (   0.0614674  -0.0709765   0.0000000), wk =   0.1111111
        k(   17) = (  -0.0922011   0.0532324   0.0000000), wk =   0.0555556
        k(   18) = (  -0.0922011   0.0887206   0.0000000), wk =   0.1111111
        k(   19) = (  -0.0922011   0.1242088   0.0000000), wk =   0.1111111
        k(   20) = (  -0.0922011  -0.0532324   0.0000000), wk =   0.0555556

     Largest allocated arrays     est. size (Mb)     dimensions
     Largest temporary arrays     est. size (Mb)     dimensions

     Initial potential from superposition of free atoms
     Check: negative starting charge=   -0.878128

     starting charge  180.99980, renormalised to  193.00000

[...]

     *
     * You are using vdW-DF for exchange-correlation in this calculation.
     * Please cite the following three references that made this development
     * possible:
     *
     *   M. Dion, H. Rydberg, E. Schroder, D. C. Langreth, and
     *   B. I. Lundqvist, Phys. Rev. Lett. 92, 246401 (2004).
     *
     *   T. Thonhauser, V. R. Cooper, S. Li, A. Puzder, P. Hyldgaard, and
     *   D. C. Langreth, Phys. Rev. B 76, 125112 (2007).
     *
     *   G. Roman-Perez and J. M. Soler, Phys. Rev. Lett. 103, 096102 (2009).
     *
     *
     * If you are using vdW-DF2, please also cite:
     *
     *   K. Lee, E. D. Murray, L. Kong, B. I. Lundqvist, and
     *   D. C. Langreth, Phys. Rev. B 82, 081101(R) (2010).
     *
     *
     * If you are calculating the stress with vdW-DF, please also cite:
     *
     *   R. Sabatini, E. Kucukbenli, B. Kolb, T. Thonhauser, and
     *   S. de Gironcoli, J. Phys.: Condens. Matter 24, 424209 (2012).
     *

     Carrying out vdW-DF run using the following parameters:

     Nqs =      20    Nr_points =    1024   r_max =   100.000
     q_mesh =
               0.00001000     0.04494208     0.09755937     0.15916263
               0.23128650     0.31572767     0.41458969     0.53033537
               0.66584808     0.82450364     1.01025438     1.22772762
               1.48234092     1.78043706     2.12944203     2.53805004
               3.01644009     3.57652955     4.23227104     5.00000000

     Gradients computed in reciprocal space

[...]

     Starting wfc are  157 randomized atomic wfcs

     Self-consistent Calculation

[...]

     total energy              =   -2342.41932136 Ry
     Harris-Foulkes estimate   =   -2342.41932316 Ry
     estimated scf accuracy    <       0.00003355 Ry

     iteration # 19     ecut=    36.75 Ry     beta=0.30
     Davidson diagonalization with overlap
     ethr =  1.74E-08,  avg # of iterations =  1.2

[...]

     negative rho (up, down):  9.155E-01 0.000E+00

     Adding external electric field

     Computed dipole along edir(3) :
        Dipole               -0.0433 Ry au,         -0.1100 Debye
        Dipole field         -0.0001 Ry au

        Potential amp.        0.0117 Ry
        Total length         45.0078 bohr

     End of self-consistent calculation

[...]

          k = 0.0615-0.0710 0.0000 ( 15803 PWs)   bands (ev):

[...]

          k =-0.0922-0.0532 0.0000 ( 15808 PWs)   bands (ev):

   -71.0837 -71.0532 -71.0128 -70.9987 -70.6126 -70.6023 -70.5651 -70.5482
   -70.5279 -70.4906 -70.4565 -70.4415 -41.2901 -41.2623 -41.2017 -41.1708
   -41.1216 -41.1043 -41.0654 -41.0519 -41.0009 -40.9879 -40.7647 -40.7348
   -40.7339 -40.7307 -40.6291 -40.6206 -40.5657 -40.5490 -40.5105 -40.5053
   -40.4975 -40.4925 -40.4706 -40.4705 -40.4464 -40.4375 -40.4030 -40.3905
   -40.3745 -40.3389 -40.3375 -40.3359 -40.2951 -40.2846 -40.2066 -40.1841
    -3.1668  -3.0995  -2.5639  -2.5026  -2.4942  -2.4656  -2.2659  -2.1925
    -2.1824  -2.0072  -1.9593  -1.9358  -1.5195  -1.4976  -1.4806  -1.4631
    -1.3524  -1.0873  -1.0252  -0.9506  -0.6660  -0.6658  -0.4578  -0.2107
    -0.1666   0.0821   0.1005   0.1306   0.1880   0.3285   0.3604   0.3997
     0.4313   0.5257   0.5370   0.5492   0.6106   0.6374   0.7009   0.7081
     0.8938   1.1863   1.2070   1.4830   1.5495   1.5896   1.7698   1.8860
     1.9983   2.0296   2.0790   2.1826   2.1998   2.5453   2.5813   2.6515
     2.6691   2.7097

     the Fermi energy is     2.2149 ev

!    total energy              =   -2342.41931760 Ry
     Harris-Foulkes estimate   =   -2342.41932818 Ry
     estimated scf accuracy    <       0.00000604 Ry

     The total energy is the sum of the following terms:

     one-electron contribution =  -22226.95637241 Ry
     hartree contribution      =   11112.29093385 Ry
     xc contribution           =    -322.69394256 Ry
     ewald contribution        =    9095.02325310 Ry
     electric field correction =       0.00000561 Ry
     smearing contrib. (-TS)   =      -0.08319519 Ry

     convergence has been achieved in  19 iterations

 BEEF-vdW xc energy contributions
           1 :   -279.920869720671
           2 :    257.091537596070
           3 :   -217.513071716306
           4 :    170.912260787568
           5 :   -127.226553619340
           6 :    93.6016992258081
           7 :   -72.7571570185989
           8 :    63.0843923403352
           9 :   -60.1780250727074
          10 :    59.0279972850483
          11 :   -55.9644708824009
          12 :    49.6783294374184
          13 :   -41.1073390259045
          14 :    32.4540604812438
          15 :   -25.8921293902256
          16 :    22.5388517877529
          17 :   -22.0715455050882
          18 :    23.0501838362781
          19 :   -23.7053998896199
          20 :    22.7794218305431
          21 :   -20.0307321943782
          22 :    16.2085250549268
          23 :   -12.5688794602880
          24 :    10.2084426857476
          25 :   -9.54736381434532
          26 :    10.1909167438635
          27 :   -11.1976379604948
          28 :    11.5849436558420
          29 :   -10.8048436847967
          30 :    8.96294823088431
          31 :   -29.0376006128307
          32 :   -22.0408923082838

     Forces acting on atoms (Ry/au):

     negative rho (up, down):  9.155E-01 0.000E+00
     atom    1 type  1   force =     0.00229437    0.00131076    0.02225707
     atom    2 type  1   force =    -0.00229081    0.00132963    0.02226495
     atom    3 type  1   force =     0.00001814   -0.00264792    0.02224535
     atom    4 type  1   force =    -0.00002389    0.00000276    0.02448569
     atom    5 type  1   force =     0.00004421    0.00330213   -0.02180452
     atom    6 type  1   force =    -0.00004203    0.00002162   -0.02622279
     atom    7 type  1   force =    -0.00283508   -0.00168605   -0.02178598
     atom    8 type  1   force =     0.00283947   -0.00163956   -0.02184812
     atom    9 type  1   force =     0.00002026   -0.00002391    0.00005830
     atom   10 type  1   force =    -0.00001375   -0.00039531   -0.00041006
     atom   11 type  1   force =    -0.00033714    0.00019771   -0.00037287
     atom   12 type  1   force =     0.00032765    0.00022653   -0.00042925
     atom   13 type  2   force =    -0.00000139    0.00000162    0.00156223

     Total force =     0.065250     Total SCF correction =     0.020286
     SCF correction compared to forces is large: reduce conv_thr to get better values

     entering subroutine stress ...

     negative rho (up, down):  9.155E-01 0.000E+00
          total   stress  (Ry/bohr**3)                   (kbar)     P=  -21.14
  -0.00016967  -0.00000003  -0.00000004        -24.96     -0.00     -0.01
  -0.00000003  -0.00016967   0.00000002         -0.00    -24.96      0.00
  -0.00000004   0.00000002  -0.00009168         -0.01      0.00    -13.49

 !ASE

     Writing output data file calc.save

     General routines

     Parallel routines

   This run was terminated on:  13:24:26  16Jan2018

   JOB DONE.
Job  /afs/slac/g/suncat/bin/suncat-tsmpirun -x LD_LIBRARY_PATH -wdir /scratch/qe842477_QUYvM pw.x -in pw.inp

TID   HOST_NAME   COMMAND_LINE            STATUS            TERMINATION_TIME
00000 suncat0153 pw.x -in pw.inp   Done                     01/16/2018 13:24:26
00001 suncat0153 pw.x -in pw.inp   Done                     01/16/2018 13:24:26
00002 suncat0153 pw.x -in pw.inp   Done                     01/16/2018 13:24:26
00003 suncat0153 pw.x -in pw.inp   Done                     01/16/2018 13:24:26
00004 suncat0153 pw.x -in pw.inp   Done                     01/16/2018 13:24:26
00005 suncat0153 pw.x -in pw.inp   Done                     01/16/2018 13:24:26
00006 suncat0153 pw.x -in pw.inp   Done                     01/16/2018 13:24:26
00007 suncat0153 pw.x -in pw.inp   Done                     01/16/2018 13:24:26
00008 suncat0146 pw.x -in pw.inp   Done                     01/16/2018 13:24:26
00009 suncat0146 pw.x -in pw.inp   Done                     01/16/2018 13:24:26
00010 suncat0146 pw.x -in pw.inp   Done                     01/16/2018 13:24:26
00011 suncat0146 pw.x -in pw.inp   Done                     01/16/2018 13:24:26
00012 suncat0146 pw.x -in pw.inp   Done                     01/16/2018 13:24:26
00013 suncat0146 pw.x -in pw.inp   Done                     01/16/2018 13:24:26
00014 suncat0146 pw.x -in pw.inp   Done                     01/16/2018 13:24:26
00015 suncat0146 pw.x -in pw.inp   Done                     01/16/2018 13:24:26
00016 suncat0115 pw.x -in pw.inp   Done                     01/16/2018 13:24:26
00017 suncat0115 pw.x -in pw.inp   Done                     01/16/2018 13:24:26
00018 suncat0115 pw.x -in pw.inp   Done                     01/16/2018 13:24:26
00019 suncat0115 pw.x -in pw.inp   Done                     01/16/2018 13:24:26
00020 suncat0115 pw.x -in pw.inp   Done                     01/16/2018 13:24:26
00021 suncat0115 pw.x -in pw.inp   Done                     01/16/2018 13:24:26
00022 suncat0115 pw.x -in pw.inp   Done                     01/16/2018 13:24:26
00023 suncat0115 pw.x -in pw.inp   Done                     01/16/2018 13:24:26
00024 suncat0114 pw.x -in pw.inp   Done                     01/16/2018 13:24:26
00025 suncat0114 pw.x -in pw.inp   Done                     01/16/2018 13:24:26
00026 suncat0114 pw.x -in pw.inp   Done                     01/16/2018 13:24:26
00027 suncat0114 pw.x -in pw.inp   Done                     01/16/2018 13:24:26
00028 suncat0114 pw.x -in pw.inp   Done                     01/16/2018 13:24:26
00029 suncat0114 pw.x -in pw.inp   Done                     01/16/2018 13:24:26
00030 suncat0114 pw.x -in pw.inp   Done                     01/16/2018 13:24:26
00031 suncat0114 pw.x -in pw.inp   Done                     01/16/2018 13:24:26