     Program PWSCF v.5.1rc2 (svn rev. 11289) starts on  3May2018 at 17:54:46

     Current dimensions of program PWSCF are:
     Max number of different atomic species (ntypx) = 10
     Max number of k-points (npk) =  40000
     Max angular momentum in pseudopotentials (lmaxx) =  3
     Presently stress not available with electric field

     IMPORTANT: XC functional enforced from input :
     Exchange-correlation      = BEEF-VDW ( 1  4 27 13 2)
     Any further DFT definition will be discarded
     Please, verify this is what you really want

     Subspace diagonalization in iterative solution of the eigenvalue problem:
     a serial algorithm will be used

     bravais-lattice index     =            0
     lattice parameter (alat)  =       1.8897  a.u.
     unit-cell volume          =    5409.9593 (a.u.)^3
     number of atoms/cell      =           13
     number of atomic types    =            2
     number of electrons       =       232.00
     number of Kohn-Sham states=          126
     kinetic-energy cutoff     =      36.7493  Ry
     charge density cutoff     =     367.4932  Ry
     convergence threshold     =      1.0E-05
     mixing beta               =       0.3000
     number of iterations used =           10  plain     mixing
     Exchange-correlation      = BEEF-VDW ( 1  4 27 13 2)
     nstep                     =           50

     celldm(1)=   1.889726  celldm(2)=   0.000000  celldm(3)=   0.000000
     celldm(4)=   0.000000  celldm(5)=   0.000000  celldm(6)=   0.000000

     crystal axes: (cart. coord. in units of alat)
               a(1) = (   6.088539   0.000000   0.000000 )
               a(2) = (   3.044269   5.272829   0.000000 )
               a(3) = (   0.000000   0.000000  24.971271 )

     reciprocal axes: (cart. coord. in units 2 pi/alat)
               b(1) = (  0.164243 -0.094826  0.000000 )
               b(2) = (  0.000000  0.189652  0.000000 )
               b(3) = (  0.000000  0.000000  0.040046 )

     PseudoPot. # 1 for Ga read from file:
     /u/if/mamunm/psp/gbrv1.5pbe/Ga.UPF
     MD5 check sum: ccd671392a58a050fbb373893b4fcd66
     Pseudo is Ultrasoft + core correction, Zval = 19.0
     Generated by new atomic code, or converted to UPF format
     Using radial grid of  871 points,  6 beta functions with:
                l(1) =   0
                l(2) =   0
                l(3) =   1
                l(4) =   1
                l(5) =   2
                l(6) =   2
     Q(r) pseudized with  8 coefficients,  rinner =    1.250   1.250   1.250
                                                       1.250   1.250

     PseudoPot. # 2 for C  read from file:
     /u/if/mamunm/psp/gbrv1.5pbe/C.UPF
     MD5 check sum: d1aef80898a10debaa0f26306b886e00
     Pseudo is Ultrasoft + core correction, Zval =  4.0
     Generated by new atomic code, or converted to UPF format
     Using radial grid of  721 points,  4 beta functions with:
                l(1) =   0
                l(2) =   0
                l(3) =   1
                l(4) =   1
     Q(r) pseudized with  8 coefficients,  rinner =    1.100   1.100   1.100

     vdW kernel table read from file vdW_kernel_table
     MD5 check sum: 095c7af220d748ca6e76c0b4c6cfb241

     atomic species   valence    mass     pseudopotential
        Ga1           19.00    69.72300     Ga( 1.00)
        C1             4.00    12.01100     C ( 1.00)

     No symmetry found

   Cartesian axes

     site n.     atom                  positions (alat units)
         1           Ga1 tau(   1) = (   1.5221346   0.8788048  10.0000000  )
         2           Ga1 tau(   2) = (   4.5664039   0.8788048  10.0000000  )
         3           Ga1 tau(   3) = (   3.0442693   3.5152194  10.0000000  )
         4           Ga1 tau(   4) = (   6.0885386   3.5152194  10.0000000  )
         5           Ga1 tau(   5) = (   6.0885386   1.7576097  12.4856355  )
         6           Ga1 tau(   6) = (   3.0442693   1.7576097  12.4856355  )
         7           Ga1 tau(   7) = (   7.6106732   4.3940242  12.4856355  )
         8           Ga1 tau(   8) = (   4.5664039   4.3940242  12.4856355  )
         9           Ga1 tau(   9) = (   0.0000000   0.0000000  14.9712709  )
        10           Ga1 tau(  10) = (   3.0442693   0.0000000  14.9712709  )
        11           Ga1 tau(  11) = (   1.5221346   2.6364145  14.9712709  )
        12           Ga1 tau(  12) = (   4.5664039   2.6364145  14.9712709  )
        13           C1  tau(  13) = (   1.5221346   0.8788048  16.2582709  )

     number of k points=    20  Fermi-Dirac smearing, width (Ry)=  0.0110
                       cart. coord. in units 2pi/alat
        k(    1) = (   0.0000000   0.0000000   0.0000000), wk =   0.0555556
        k(    2) = (   0.0000000   0.0316086   0.0000000), wk =   0.1111111
        k(    3) = (   0.0000000   0.0632172   0.0000000), wk =   0.1111111
        k(    4) = (   0.0000000  -0.0948258   0.0000000), wk =   0.0555556
        k(    5) = (   0.0273738  -0.0158043   0.0000000), wk =   0.1111111
        k(    6) = (   0.0273738   0.0158043   0.0000000), wk =   0.1111111
        k(    7) = (   0.0273738   0.0474129   0.0000000), wk =   0.1111111
        k(    8) = (   0.0273738  -0.1106300   0.0000000), wk =   0.1111111
        k(    9) = (   0.0273738  -0.0790215   0.0000000), wk =   0.1111111
        k(   10) = (   0.0273738  -0.0474129   0.0000000), wk =   0.1111111
        k(   11) = (   0.0547477  -0.0316086   0.0000000), wk =   0.1111111
        k(   12) = (   0.0547477   0.0000000   0.0000000), wk =   0.1111111
        k(   13) = (   0.0547477   0.0316086   0.0000000), wk =   0.1111111
        k(   14) = (   0.0547477  -0.1264343   0.0000000), wk =   0.1111111
        k(   15) = (   0.0547477  -0.0948258   0.0000000), wk =   0.1111111
        k(   16) = (   0.0547477  -0.0632172   0.0000000), wk =   0.1111111
        k(   17) = (  -0.0821215   0.0474129   0.0000000), wk =   0.0555556
        k(   18) = (  -0.0821215   0.0790215   0.0000000), wk =   0.1111111
        k(   19) = (  -0.0821215   0.1106300   0.0000000), wk =   0.1111111
        k(   20) = (  -0.0821215  -0.0474129   0.0000000), wk =   0.0555556

     Largest allocated arrays     est. size (Mb)     dimensions
     Largest temporary arrays     est. size (Mb)     dimensions

     Initial potential from superposition of free atoms
     Check: negative starting charge=   -0.001207

     starting charge  219.99995, renormalised to  232.00000

     negative rho (up, down):  1.272E-03 0.000E+00

     *
     * You are using vdW-DF for exchange-correlation in this calculation.
     * Please cite the following three references that made this development
     * possible:
     *
     *   M. Dion, H. Rydberg, E. Schroder, D. C. Langreth, and
     *   B. I. Lundqvist, Phys. Rev. Lett. 92, 246401 (2004).
     *
     *   T. Thonhauser, V. R. Cooper, S. Li, A. Puzder, P. Hyldgaard, and
     *   D. C. Langreth, Phys. Rev. B 76, 125112 (2007).
     *
     *   G. Roman-Perez and J. M. Soler, Phys. Rev. Lett. 103, 096102 (2009).
     *
     *
     * If you are using vdW-DF2, please also cite:
     *
     *   K. Lee, E. D. Murray, L. Kong, B. I. Lundqvist, and
     *   D. C. Langreth, Phys. Rev. B 82, 081101(R) (2010).
     *
     *
     * If you are calculating the stress with vdW-DF, please also cite:
     *
     *   R. Sabatini, E. Kucukbenli, B. Kolb, T. Thonhauser, and
     *   S. de Gironcoli, J. Phys.: Condens. Matter 24, 424209 (2012).
     *

     Carrying out vdW-DF run using the following parameters:

     Nqs =      20    Nr_points =    1024   r_max =   100.000
     q_mesh =
               0.00001000     0.04494208     0.09755937     0.15916263
               0.23128650     0.31572767     0.41458969     0.53033537
               0.66584808     0.82450364     1.01025438     1.22772762
               1.48234092     1.78043706     2.12944203     2.53805004
               3.01644009     3.57652955     4.23227104     5.00000000

     Gradients computed in reciprocal space

     Adding external electric field

     Computed dipole along edir(3) :
        Dipole               -1.5552 Ry au,         -3.9529 Debye
        Dipole field         -0.0036 Ry au

        Potential amp.        0.3324 Ry
        Total length         46.0091 bohr

     Starting wfc are  148 randomized atomic wfcs

     Self-consistent Calculation

     iteration #  1     ecut=    36.75 Ry     beta=0.30
     Davidson diagonalization with overlap
     ethr =  1.00E-02,  avg # of iterations =  7.5

[...]

     total energy              =   -4852.84266569 Ry
     Harris-Foulkes estimate   =   -5028.49841440 Ry
     estimated scf accuracy    <     370.11368136 Ry

     iteration #  2     ecut=    36.75 Ry     beta=0.30
     Davidson diagonalization with overlap
     c_bands:  4 eigenvalues not converged
     c_bands:  5 eigenvalues not converged
     c_bands:  3 eigenvalues not converged
     ethr =  1.00E-02,  avg # of iterations = 18.8

[...]

     End of self-consistent calculation

          k = 0.0000 0.0000 0.0000 ( 20347 PWs)   bands (ev):

   -95.1032 -95.0970 -95.0970 -95.0723 -95.0721 -95.0721 -95.0575 -95.0563
   -95.0563 -95.0552 -95.0551 -95.0548 -95.0539 -95.0287 -95.0287 -95.0202
   -95.0201 -95.0195 -95.0181 -95.0166 -95.0165 -95.0064 -95.0062 -95.0062
   -95.0048 -94.9924 -94.9924 -94.9436 -94.9430 -94.9429 -94.9351 -94.9351
   -94.9346 -94.8588 -94.8578 -94.8577 -15.5518 -15.5462 -15.5462 -15.5033
   -15.5033 -15.4985 -15.4892 -15.4892 -15.4818 -15.4772 -15.4658 -15.4498
   -15.4498 -15.4467 -15.4273 -15.4273 -15.4223 -15.4209 -15.4209 -15.4157
   -15.4157 -15.4086 -15.4086 -15.4062 -15.3940 -15.3786 -15.3786 -15.3437
   -15.3437 -15.3405 -15.3262 -15.3262 -15.3128 -15.3128 -15.3058 -15.2977
   -15.2976 -15.2781 -15.2746 -15.2746 -15.2722 -15.2559 -15.2511 -15.2510
   -15.2449 -15.2449 -15.2275 -15.2261 -15.2256 -15.2256 -15.2185 -15.2185
   -15.2050 -15.2023 -15.2023 -15.1740 -15.1739 -15.1253 -15.1253 -15.1060
   -10.9388  -9.9736  -8.1845  -6.0704  -5.3347  -5.3347  -5.2220  -4.9433
    -4.9433  -4.7103  -3.8043  -3.8043  -3.3989  -3.2154  -3.2154  -3.0543
    -2.1457  -1.8085  -1.8085  -1.3704  -1.1935  -1.1935  -1.1536   0.8345
     0.8345   1.0546   1.8509   2.7446   2.7446   2.8012

[...]

          k =-0.0821 0.0474 0.0000 ( 20384 PWs)   bands (ev):

[...]

     the Fermi energy is    -0.3162 ev

!    total energy              =   -5010.39075835 Ry
     Harris-Foulkes estimate   =   -5010.39076033 Ry
     estimated scf accuracy    <       0.00000223 Ry

     The total energy is the sum of the following terms:

     one-electron contribution =  -27459.21850078 Ry
     hartree contribution      =   13731.81429193 Ry
     xc contribution           =    -599.93732647 Ry
     ewald contribution        =    9316.98716571 Ry
     electric field correction =       0.00040048 Ry
     smearing contrib. (-TS)   =      -0.03678922 Ry

     convergence has been achieved in  17 iterations

 BEEF-vdW xc energy contributions
           1 :   -536.288328566091
           2 :    486.918358699399
           3 :   -404.119900718739
           4 :    311.934854439905
           5 :   -231.665566297963
           6 :    173.868677708405
           7 :   -136.832159070207
           8 :    111.323897932481
           9 :   -88.0168924640357
          10 :    62.9692328759121
          11 :   -38.3895480457686
          12 :    19.2069622153872
          13 :   -8.50399967955150
          14 :    5.08887439764044
          15 :   -4.53572282161099
          16 :    2.44278979438650
          17 :    2.70698949462735
          18 :   -9.07494296007371
          19 :    13.4299896435114
          20 :   -13.8546939937276
          21 :    11.1528067107706
          22 :   -8.07329499795924
          23 :    7.14179135029769
          24 :   -8.84052158690849
          25 :    11.4629276255680
          26 :   -12.6192929030479
          27 :    11.1398621439761
          28 :   -7.92033046270876
          29 :    5.14708257765005
          30 :   -4.59037644091518
          31 :   -39.6732867742812
          32 :   -26.9722444361455

     Forces acting on atoms (Ry/au):

     negative rho (up, down):  1.012E-03 0.000E+00
     atom    1 type  1   force =     0.00000144    0.00001291    0.00027923
     atom    2 type  1   force =     0.00000771    0.00146777   -0.00117024
     atom    3 type  1   force =     0.00127256   -0.00073039   -0.00117571
     atom    4 type  1   force =    -0.00127106   -0.00074370   -0.00117357
     atom    5 type  1   force =     0.00129208   -0.00075558    0.00255215
     atom    6 type  1   force =    -0.00128862   -0.00073937    0.00255822
     atom    7 type  1   force =     0.00000848    0.00000695    0.00936306
     atom    8 type  1   force =    -0.00001497    0.00148902    0.00257707
     atom    9 type  1   force =     0.01224533    0.00707128    0.02281941
     atom   10 type  1   force =    -0.01225504    0.00707690    0.02281585
     atom   11 type  1   force =     0.00000238   -0.01415226    0.02281259
     atom   12 type  1   force =    -0.00000000   -0.00000337   -0.00526994
     atom   13 type  2   force =    -0.00000029   -0.00000017   -0.07698812

     Total force =     0.090095     Total SCF correction =     0.003268

     entering subroutine stress ...

     negative rho (up, down):  1.012E-03 0.000E+00
          total   stress  (Ry/bohr**3)                   (kbar)     P=  -14.08
  -0.00010713   0.00000000   0.00000000        -15.76      0.00      0.00
   0.00000000  -0.00010713   0.00000000          0.00    -15.76      0.00
   0.00000000   0.00000000  -0.00007284          0.00      0.00    -10.72

     BFGS Geometry Optimization

     number of scf cycles    =   1
     number of bfgs steps    =   0

     energy   new            =   -5010.3907583517 Ry

     new trust radius        =       0.0769881177 bohr
     new conv_thr            =       0.0000099958 Ry

ATOMIC_POSITIONS (crystal)
Ga1      0.166666667   0.166666667   0.400460194    0   0   0
Ga1      0.666666667   0.166666667   0.400460194    0   0   0
Ga1      0.166666667   0.666666667   0.400460194    0   0   0
Ga1      0.666666667   0.666666667   0.400460194    0   0   0
Ga1      0.833333333   0.333333333   0.500000000    0   0   0
Ga1      0.333333333   0.333333333   0.500000000    0   0   0
Ga1      0.833333333   0.833333333   0.500000000    0   0   0
Ga1      0.333333333   0.833333333   0.500000000    0   0   0
Ga1      0.000709453   0.000709669   0.600023382
Ga1      0.498579753   0.000710233   0.600023307
Ga1      0.000710361   0.498579690   0.600023238
Ga1      0.500000169   0.499999661   0.599428128
C1       0.166666650   0.166666649   0.649447544

     Writing output data file calc.save
     Check: negative starting charge=   -0.001207
     NEW-OLD atomic charge density approx. for the potential
     Check: negative starting charge=   -0.001198

[...]

     energy   old            =   -5010.3907583517 Ry
     energy   new            =   -5010.3982818582 Ry

     CASE: energy  _new < energy  _old

     WARNING: bfgs curvature condition failed, Theta= 0.925
     new trust radius        =       0.0846869295 bohr
     new conv_thr            =       0.0000001000 Ry

[...]

     Total force =     0.040397     Total SCF correction =     0.001218

[...]

     Total force =     0.016187     Total SCF correction =     0.002258
     SCF correction compared to forces is large: reduce conv_thr to get better values

[...]

     number of scf cycles    =  10
     number of bfgs steps    =   9

     energy   old            =   -5010.4346401577 Ry
     energy   new            =   -5010.4349668886 Ry

     CASE: energy  _new < energy  _old

     new trust radius        =       0.0935002469 bohr
     new conv_thr            =       0.0000001000 Ry

ATOMIC_POSITIONS (crystal)
Ga1      0.166666667   0.166666667   0.400460194    0   0   0
Ga1      0.666666667   0.166666667   0.400460194    0   0   0
Ga1      0.166666667   0.666666667   0.400460194    0   0   0
Ga1      0.666666667   0.666666667   0.400460194    0   0   0
Ga1      0.833333333   0.333333333   0.500000000    0   0   0
Ga1      0.333333333   0.333333333   0.500000000    0   0   0
Ga1      0.833333333   0.833333333   0.500000000    0   0   0
Ga1      0.333333333   0.833333333   0.500000000    0   0   0
Ga1     -0.014911033  -0.014911891   0.606635978
Ga1      0.529812691  -0.014905805   0.606633294
Ga1     -0.014907378   0.529816167   0.606635486
Ga1      0.500001804   0.499997573   0.595457389
C1       0.166664524   0.166664755   0.624705632

     Writing output data file calc.save
     Check: negative starting charge=   -0.001259
     NEW-OLD atomic charge density approx. for the potential
     Check: negative starting charge=   -0.001262

[...]

     Self-consistent Calculation

[...]

     total energy              =   -5010.43545937 Ry
     Harris-Foulkes estimate   =   -5010.43545883 Ry
     estimated scf accuracy    <       0.00000160 Ry

     iteration #  8     ecut=    36.75 Ry     beta=0.30
     Davidson diagonalization with overlap
     ethr =  6.88E-10,  avg # of iterations =  2.2

[...]

     negative rho (up, down):  9.980E-04 0.000E+00

     Adding external electric field

     Computed dipole along edir(3) :
        Dipole               -0.1441 Ry au,         -0.3663 Debye
        Dipole field         -0.0003 Ry au

        Potential amp.        0.0308 Ry
        Total length         46.0091 bohr

     End of self-consistent calculation

[...]

          k = 0.0547-0.0632 0.0000 ( 20377 PWs)   bands (ev):

[...]

          k =-0.0821-0.0474 0.0000 ( 20384 PWs)   bands (ev):

   -94.8325 -94.8010 -94.8010 -94.7661 -94.7658 -94.7656 -94.7619 -94.7618
   -94.7618 -94.7602 -94.7600 -94.7598 -94.7550 -94.7547 -94.7544 -94.7476
   -94.7471 -94.7471 -94.7470 -94.7469 -94.7463 -94.7425 -94.7408 -94.7404
   -94.7404 -94.7360 -94.7359 -94.7342 -94.7342 -94.7306 -94.7242 -94.7241
   -94.7229 -94.6389 -94.6359 -94.6357 -15.3285 -15.2245 -15.2116 -15.1998
   -15.1991 -15.1847 -15.1797 -15.1771 -15.1725 -15.1717 -15.1587 -15.1581
   -15.1511 -15.1470 -15.1431 -15.1430 -15.1347 -15.1255 -15.1253 -15.1222
   -15.1200 -15.1178 -15.1099 -15.1091 -15.1053 -15.0976 -15.0960 -15.0882
   -15.0829 -15.0761 -15.0722 -15.0680 -15.0653 -15.0638 -15.0606 -15.0523
   -15.0499 -15.0497 -15.0424 -15.0400 -15.0364 -15.0340 -15.0317 -15.0293
   -15.0276 -15.0231 -15.0186 -15.0183 -15.0117 -15.0036 -15.0009 -14.9926
   -14.9888 -14.9819 -14.9784 -14.9763 -14.9653 -14.9498 -14.9431 -14.8895
   -10.7496  -8.8203  -8.4269  -7.6208  -6.6482  -6.1569  -5.7882  -5.5016
    -5.2392  -4.9190  -3.3377  -3.2299  -2.7464  -1.9552  -0.9632  -0.8341
    -0.7249  -0.4018  -0.1918   0.0987   0.1845   0.4654   1.0385   1.3962
     1.5367   1.7450   2.1476   2.4266   2.5764   2.8112

     the Fermi energy is    -0.0175 ev

!    total energy              =   -5010.43545961 Ry
     Harris-Foulkes estimate   =   -5010.43545909 Ry
     estimated scf accuracy    <       0.00000007 Ry

     The total energy is the sum of the following terms:

     one-electron contribution =  -27263.18122908 Ry
     hartree contribution      =   13635.83436290 Ry
     xc contribution           =    -600.13044155 Ry
     ewald contribution        =    9217.07691097 Ry
     electric field correction =       0.00004823 Ry
     smearing contrib. (-TS)   =      -0.03511108 Ry

     convergence has been achieved in   8 iterations

 BEEF-vdW xc energy contributions
           1 :   -536.483249561713
           2 :    487.147395890918
           3 :   -404.354010895543
           4 :    312.102244771280
           5 :   -231.710626911460
           6 :    173.787006148072
           7 :   -136.673021738752
           8 :    111.166385805124
           9 :   -87.9313087779402
          10 :    62.9825941493651
          11 :   -38.4728247188941
          12 :    19.2922562819731
          13 :   -8.52442020840840
          14 :    5.01776710040531
          15 :   -4.39901026495261
          16 :    2.29653296916990
          17 :    2.81381857999077
          18 :   -9.12569918868735
          19 :    13.4395252810069
          20 :   -13.8463830799785
          21 :    11.1328271687438
          22 :   -8.02358347168490
          23 :    7.03840698336319
          24 :   -8.68299172733157
          25 :    11.2891804786386
          26 :   -12.4899088366283
          27 :    11.0992049098943
          28 :   -7.96279922768520
          29 :    5.21561436488355
          30 :   -4.61136113882344
          31 :   -39.6860057728341
          32 :   -26.9868364699529

     Forces acting on atoms (Ry/au):

     negative rho (up, down):  9.980E-04 0.000E+00
     atom    1 type  1   force =     0.00000021    0.00000001    0.00240965
     atom    2 type  1   force =     0.00000009   -0.00180397   -0.00287081
     atom    3 type  1   force =    -0.00156160    0.00090158   -0.00287122
     atom    4 type  1   force =     0.00156247    0.00090196   -0.00287058
     atom    5 type  1   force =     0.00157656   -0.00091019    0.00275485
     atom    6 type  1   force =    -0.00157698   -0.00091086    0.00275601
     atom    7 type  1   force =    -0.00000017    0.00000046    0.00337315
     atom    8 type  1   force =     0.00000026    0.00182094    0.00275695
     atom    9 type  1   force =     0.00032369    0.00018620   -0.00133709
     atom   10 type  1   force =    -0.00032189    0.00018369   -0.00133868
     atom   11 type  1   force =    -0.00000074   -0.00037153   -0.00133797
     atom   12 type  1   force =     0.00000064    0.00000099    0.00007368
     atom   13 type  2   force =    -0.00000254    0.00000072   -0.00149794

     Total force =     0.002834     Total SCF correction =     0.001127
     SCF correction compared to forces is large: reduce conv_thr to get better values

     entering subroutine stress ...

     negative rho (up, down):  9.980E-04 0.000E+00
          total   stress  (Ry/bohr**3)                   (kbar)     P=   -6.77
  -0.00006703  -0.00000000  -0.00000000         -9.86     -0.00     -0.00
  -0.00000000  -0.00006703   0.00000000         -0.00     -9.86      0.00
  -0.00000000   0.00000000  -0.00000401         -0.00      0.00     -0.59

     bfgs converged in  11 scf cycles and  10 bfgs steps
     (criteria: energy <  1.0E+00, force <  1.9E-03)

     End of BFGS Geometry Optimization

     Final energy   =   -5010.4354596069 Ry
Begin final coordinates

ATOMIC_POSITIONS (crystal)
Ga1      0.166666667   0.166666667   0.400460194    0   0   0
Ga1      0.666666667   0.166666667   0.400460194    0   0   0
Ga1      0.166666667   0.666666667   0.400460194    0   0   0
Ga1      0.666666667   0.666666667   0.400460194    0   0   0
Ga1      0.833333333   0.333333333   0.500000000    0   0   0
Ga1      0.333333333   0.333333333   0.500000000    0   0   0
Ga1      0.833333333   0.833333333   0.500000000    0   0   0
Ga1      0.333333333   0.833333333   0.500000000    0   0   0
Ga1     -0.014911033  -0.014911891   0.606635978
Ga1      0.529812691  -0.014905805   0.606633294
Ga1     -0.014907378   0.529816167   0.606635486
Ga1      0.500001804   0.499997573   0.595457389
C1       0.166664524   0.166664755   0.624705632
End final coordinates

     Writing output data file calc.save

     General routines

     Parallel routines

   This run was terminated on:  19:10:30   3May2018

   JOB DONE.
Job  /afs/slac/g/suncat/bin/suncat-tsmpirun -x LD_LIBRARY_PATH -wdir /scratch/qe799734_TdK6i pw.x -npool 4 -in pw.inp

TID   HOST_NAME   COMMAND_LINE            STATUS            TERMINATION_TIME
00000 suncat0086 pw.x -npool 4 -i  Done                     05/03/2018 19:10:30
00001 suncat0086 pw.x -npool 4 -i  Done                     05/03/2018 19:10:30
00002 suncat0086 pw.x -npool 4 -i  Done                     05/03/2018 19:10:30
00003 suncat0086 pw.x -npool 4 -i  Done                     05/03/2018 19:10:30
00004 suncat0086 pw.x -npool 4 -i  Done                     05/03/2018 19:10:30
00005 suncat0086 pw.x -npool 4 -i  Done                     05/03/2018 19:10:30
00006 suncat0086 pw.x -npool 4 -i  Done                     05/03/2018 19:10:30
00007 suncat0086 pw.x -npool 4 -i  Done                     05/03/2018 19:10:30
00008 suncat0266 pw.x -npool 4 -i  Done                     05/03/2018 19:10:30
00009 suncat0266 pw.x -npool 4 -i  Done                     05/03/2018 19:10:30
00010 suncat0266 pw.x -npool 4 -i  Done                     05/03/2018 19:10:30
00011 suncat0266 pw.x -npool 4 -i  Done                     05/03/2018 19:10:30
00012 suncat0266 pw.x -npool 4 -i  Done                     05/03/2018 19:10:30
00013 suncat0266 pw.x -npool 4 -i  Done                     05/03/2018 19:10:30
00014 suncat0266 pw.x -npool 4 -i  Done                     05/03/2018 19:10:30
00015 suncat0266 pw.x -npool 4 -i  Done                     05/03/2018 19:10:30
00016 suncat0264 pw.x -npool 4 -i  Done                     05/03/2018 19:10:30
00017 suncat0264 pw.x -npool 4 -i  Done                     05/03/2018 19:10:30
00018 suncat0264 pw.x -npool 4 -i  Done                     05/03/2018 19:10:30
00019 suncat0264 pw.x -npool 4 -i  Done                     05/03/2018 19:10:30
00020 suncat0264 pw.x -npool 4 -i  Done                     05/03/2018 19:10:30
00021 suncat0264 pw.x -npool 4 -i  Done                     05/03/2018 19:10:30
00022 suncat0264 pw.x -npool 4 -i  Done                     05/03/2018 19:10:30
00023 suncat0264 pw.x -npool 4 -i  Done                     05/03/2018 19:10:30
00024 suncat0229 pw.x -npool 4 -i  Done                     05/03/2018 19:10:30
00025 suncat0229 pw.x -npool 4 -i  Done                     05/03/2018 19:10:30
00026 suncat0229 pw.x -npool 4 -i  Done                     05/03/2018 19:10:30
00027 suncat0229 pw.x -npool 4 -i  Done                     05/03/2018 19:10:30
00028 suncat0229 pw.x -npool 4 -i  Done                     05/03/2018 19:10:30
00029 suncat0229 pw.x -npool 4 -i  Done                     05/03/2018 19:10:30
00030 suncat0229 pw.x -npool 4 -i  Done                     05/03/2018 19:10:30
00031 suncat0229 pw.x -npool 4 -i  Done                     05/03/2018 19:10:30