     Program PWSCF v.5.1rc2 (svn rev. 11289) starts on 18Apr2018 at  4:38:54

     Current dimensions of program PWSCF are:
     Max number of different atomic species (ntypx) = 10
     Max number of k-points (npk) =  40000
     Max angular momentum in pseudopotentials (lmaxx) =  3
     Presently stress not available with electric field

     IMPORTANT: XC functional enforced from input :
     Exchange-correlation      = BEEF-VDW ( 1  4 27 13 2)
     Any further DFT definition will be discarded
     Please, verify this is what you really want

     Subspace diagonalization in iterative solution of the eigenvalue problem:
     a serial algorithm will be used

     bravais-lattice index     =            0
     lattice parameter (alat)  =       1.8897  a.u.
     unit-cell volume          =    6024.3322 (a.u.)^3
     number of atoms/cell      =           16
     number of atomic types    =            3
     number of electrons       =       151.00
     number of Kohn-Sham states=           85
     kinetic-energy cutoff     =      36.7493  Ry
     charge density cutoff     =     367.4932  Ry
     convergence threshold     =      1.0E-05
     mixing beta               =       0.3000
     number of iterations used =           10  plain     mixing
     Exchange-correlation      = BEEF-VDW ( 1  4 27 13 2)
     nstep                     =           50

     celldm(1)=   1.889726  celldm(2)=   0.000000  celldm(3)=   0.000000
     celldm(4)=   0.000000  celldm(5)=   0.000000  celldm(6)=   0.000000

     crystal axes: (cart. coord. in units of alat)
               a(1) = (   6.393197   0.000000   0.000000 )
               a(2) = (   3.196599   5.536671   0.000000 )
               a(3) = (   0.000000   0.000000  25.220024 )

     reciprocal axes: (cart. coord. in units 2 pi/alat)
               b(1) = (  0.156416 -0.090307  0.000000 )
               b(2) = (  0.000000  0.180614  0.000000 )
               b(3) = (  0.000000  0.000000  0.039651 )

     PseudoPot. # 1 for Hf read from file:
     /u/if/mamunm/psp/gbrv1.5pbe/Hf.UPF
     MD5 check sum: 8ee9378dfe14276e333edf04c5e4aa26
     Pseudo is Ultrasoft + core correction, Zval = 12.0
     Generated by new atomic code, or converted to UPF format
     Using radial grid of  921 points,  8 beta functions with:
                l(1) =   0
                l(2) =   0
                l(3) =   0
                l(4) =   1
                l(5) =   1
                l(6) =   2
                l(7) =   2
                l(8) =   3
     Q(r) pseudized with  6 coefficients,  rinner =    1.200   1.200   1.200
                                                       1.200   1.200   1.200
                                                       1.200

     PseudoPot. # 2 for C  read from file:
     /u/if/mamunm/psp/gbrv1.5pbe/C.UPF
     MD5 check sum: d1aef80898a10debaa0f26306b886e00
     Pseudo is Ultrasoft + core correction, Zval =  4.0
     Generated by new atomic code, or converted to UPF format
     Using radial grid of  721 points,  4 beta functions with:
                l(1) =   0
                l(2) =   0
                l(3) =   1
                l(4) =   1
     Q(r) pseudized with  8 coefficients,  rinner =    1.100   1.100   1.100

     PseudoPot. # 3 for H  read from file:
     /u/if/mamunm/psp/gbrv1.5pbe/H.UPF
     MD5 check sum: 761ae9a214b05c3daf00ab9f6b793d6f
     Pseudo is Ultrasoft, Zval =  1.0
     Generated by new atomic code, or converted to UPF format
     Using radial grid of  615 points,  2 beta functions with:
                l(1) =   0
                l(2) =   0
     Q(r) pseudized with  8 coefficients,  rinner =    0.700

     vdW kernel table read from file vdW_kernel_table
     MD5 check sum: 095c7af220d748ca6e76c0b4c6cfb241

     atomic species   valence    mass     pseudopotential
        Hf1           12.00   178.49000     Hf( 1.00)
        C1             4.00    12.01100     C ( 1.00)
        H1             1.00     1.00800     H ( 1.00)

     No symmetry found

   Cartesian axes

     site n.     atom                  positions (alat units)
         1           Hf1 tau(   1) = (   1.5982993   0.9227785  10.0000000  )
         2           Hf1 tau(   2) = (   4.7948978   0.9227785  10.0000000  )
         3           Hf1 tau(   3) = (   3.1965986   3.6911141  10.0000000  )
         4           Hf1 tau(   4) = (   6.3931971   3.6911141  10.0000000  )
         5           Hf1 tau(   5) = (   6.3931971   1.8455570  12.6100118  )
         6           Hf1 tau(   6) = (   3.1965986   1.8455570  12.6100118  )
         7           Hf1 tau(   7) = (   7.9914964   4.6138926  12.6100118  )
         8           Hf1 tau(   8) = (   4.7948978   4.6138926  12.6100118  )
         9           Hf1 tau(   9) = (   0.0000000   0.0000000  15.2200236  )
        10           Hf1 tau(  10) = (   3.1965986   0.0000000  15.2200236  )
        11           Hf1 tau(  11) = (   1.5982993   2.7683356  15.2200236  )
        12           Hf1 tau(  12) = (   4.7948978   2.7683356  15.2200236  )
        13           C1  tau(  13) = (   3.1965986   1.8455570  16.8515236  )
        14           H1  tau(  14) = (   4.2865986   1.8455570  17.4815236  )
        15           H1  tau(  15) = (   2.7465986   2.7350570  17.4815236  )
        16           H1  tau(  16) = (   2.7465986   0.9560570  17.4815236  )

     number of k points=    20  Fermi-Dirac smearing, width (Ry)=  0.0110
                       cart. coord. in units 2pi/alat
        k(    1) = (   0.0000000   0.0000000   0.0000000), wk =   0.0555556
        k(    2) = (   0.0000000   0.0301023   0.0000000), wk =   0.1111111
        k(    3) = (   0.0000000   0.0602046   0.0000000), wk =   0.1111111
        k(    4) = (   0.0000000  -0.0903070   0.0000000), wk =   0.0555556
        k(    5) = (   0.0260694  -0.0150512   0.0000000), wk =   0.1111111
        k(    6) = (   0.0260694   0.0150512   0.0000000), wk =   0.1111111
        k(    7) = (   0.0260694   0.0451535   0.0000000), wk =   0.1111111
        k(    8) = (   0.0260694  -0.1053581   0.0000000), wk =   0.1111111
        k(    9) = (   0.0260694  -0.0752558   0.0000000), wk =   0.1111111
        k(   10) = (   0.0260694  -0.0451535   0.0000000), wk =   0.1111111
        k(   11) = (   0.0521388  -0.0301023   0.0000000), wk =   0.1111111
        k(   12) = (   0.0521388   0.0000000   0.0000000), wk =   0.1111111
        k(   13) = (   0.0521388   0.0301023   0.0000000), wk =   0.1111111
        k(   14) = (   0.0521388  -0.1204093   0.0000000), wk =   0.1111111
        k(   15) = (   0.0521388  -0.0903070   0.0000000), wk =   0.1111111
        k(   16) = (   0.0521388  -0.0602046   0.0000000), wk =   0.1111111
        k(   17) = (  -0.0782081   0.0451535   0.0000000), wk =   0.0555556
        k(   18) = (  -0.0782081   0.0752558   0.0000000), wk =   0.1111111
        k(   19) = (  -0.0782081   0.1053581   0.0000000), wk =   0.1111111
        k(   20) = (  -0.0782081  -0.0451535   0.0000000), wk =   0.0555556

     Largest allocated arrays     est. size (Mb)     dimensions
     Largest temporary arrays     est. size (Mb)     dimensions

     Check: negative/imaginary core charge=   -0.000003    0.000000

     Initial potential from superposition of free atoms
     Check: negative starting charge=   -1.301247

     starting charge  126.99991, renormalised to  151.00000

     negative rho (up, down):  1.547E+00 0.000E+00

     *
     * You are using vdW-DF for exchange-correlation in this calculation.
     * Please cite the following three references that made this development
     * possible:
     *
     *   M. Dion, H. Rydberg, E. Schroder, D. C. Langreth, and
     *   B. I. Lundqvist, Phys. Rev. Lett. 92, 246401 (2004).
     *
     *   T. Thonhauser, V. R. Cooper, S. Li, A. Puzder, P. Hyldgaard, and
     *   D. C. Langreth, Phys. Rev. B 76, 125112 (2007).
     *
     *   G. Roman-Perez and J. M. Soler, Phys. Rev. Lett. 103, 096102 (2009).
     *
     *
     * If you are using vdW-DF2, please also cite:
     *
     *   K. Lee, E. D. Murray, L. Kong, B. I. Lundqvist, and
     *   D. C. Langreth, Phys. Rev. B 82, 081101(R) (2010).
     *
     *
     * If you are calculating the stress with vdW-DF, please also cite:
     *
     *   R. Sabatini, E. Kucukbenli, B. Kolb, T. Thonhauser, and
     *   S. de Gironcoli, J. Phys.: Condens. Matter 24, 424209 (2012).
     *

     Carrying out vdW-DF run using the following parameters:

     Nqs =      20    Nr_points =    1024   r_max =   100.000
     q_mesh =
               0.00001000     0.04494208     0.09755937     0.15916263
               0.23128650     0.31572767     0.41458969     0.53033537
               0.66584808     0.82450364     1.01025438     1.22772762
               1.48234092     1.78043706     2.12944203     2.53805004
               3.01644009     3.57652955     4.23227104     5.00000000

     Gradients computed in reciprocal space

     Adding external electric field

     Computed dipole along edir(3) :
        Dipole              -11.2772 Ry au,        -28.6638 Debye
        Dipole field         -0.0235 Ry au

        Potential amp.        2.1862 Ry
        Total length         46.4675 bohr

     Starting wfc are  163 randomized atomic wfcs

     Self-consistent Calculation

     iteration #  1     ecut=    36.75 Ry     beta=0.30
     Davidson diagonalization with overlap
     ethr =  1.00E-02,  avg # of iterations =  9.8

[...]

     total energy              =   -1210.05366349 Ry
     Harris-Foulkes estimate   =   -1932.06813843 Ry
     estimated scf accuracy    <    1549.22816702 Ry

[...]

     iteration # 39     ecut=    36.75 Ry     beta=0.30
     Davidson diagonalization with overlap
     c_bands:  1 eigenvalues not converged
     ethr =  6.81E-07,  avg # of iterations =  4.7

[...]

     End of self-consistent calculation

          k = 0.0000 0.0000 0.0000 ( 22729 PWs)   bands (ev):

   -60.8398 -60.8114 -60.8077 -60.8073 -60.7999 -60.7813 -60.7668 -60.7594
   -60.4123 -60.3829 -60.3821 -60.3622 -29.5974 -29.5930 -29.5924 -29.5708
   -29.5562 -29.5517 -29.5194 -29.4298 -29.4263 -29.4227 -29.4132 -29.3446
   -29.3410 -29.3375 -29.1795 -29.1773 -29.1772 -29.1545 -29.1512 -29.1357
   -29.1096 -29.1090 -29.1076 -29.0497 -29.0497 -29.0186 -29.0172 -28.8711
   -28.8644 -28.8633 -28.8333 -28.7806 -28.7660 -28.7658 -28.6491 -28.6489
   -11.9378  -5.0505  -4.7714  -4.6409  -3.7837  -2.7581  -1.9110  -1.2091
    -1.1710  -1.1645  -0.9635  -0.9612  -0.8155  -0.4988  -0.4899  -0.0125
     0.0830   0.0871   0.1042   0.8368   0.8500   1.0249   1.7809   1.8722
     2.1066   2.1248   2.1366   2.2430   2.3749   2.3849   2.6422   2.7454
     2.7686   2.7885   2.9900   3.0206   3.0287

[...]

          k =-0.0782 0.0452 0.0000 ( 22668 PWs)   bands (ev):

[...]

     the Fermi energy is     1.7963 ev

!    total energy              =   -1941.86276072 Ry
     Harris-Foulkes estimate   =   -1941.86274529 Ry
     estimated scf accuracy    <       0.00000310 Ry

     The total energy is the sum of the following terms:

     one-electron contribution =   -8598.43885940 Ry
     hartree contribution      =    4285.92052253 Ry
     xc contribution           =    -933.64815464 Ry
     ewald contribution        =    3304.42543411 Ry
     electric field correction =       0.00021925 Ry
     smearing contrib. (-TS)   =      -0.12192257 Ry

     convergence has been achieved in  43 iterations

 BEEF-vdW xc energy contributions
           1 :   -843.966307474997
           2 :    784.247898483312
           3 :   -678.475454428680
           4 :    548.567193834916
           5 :   -417.157928648080
           6 :    301.263347228845
           7 :   -209.501902547065
           8 :    142.994906536915
           9 :   -98.4383247364410
          10 :    71.1378966101914
          11 :   -56.6070919081310
          12 :    50.6339947013735
          13 :   -48.8159351712613
          14 :    46.6002449421737
          15 :   -40.2079353335437
          16 :    27.9136254044181
          17 :   -10.7945415382039
          18 :   -7.68534282125745
          19 :    23.1556089767743
          20 :   -32.1717932729600
          21 :    33.4899249332251
          22 :   -28.2574793296379
          23 :    19.2055321889246
          24 :   -9.43372383255507
          25 :    1.43873602172403
          26 :    3.26688909708855
          27 :   -4.05878271734923
          28 :   0.982871612294389
          29 :    5.29808495358657
          30 :   -13.4157645694352
          31 :   -60.9007384072611
          32 :   -43.7922821764751

     Forces acting on atoms (Ry/au):

     negative rho (up, down):  1.379E+00 0.000E+00
     atom    1 type  1   force =    -0.00014162    0.00000911    0.02306718
     atom    2 type  1   force =     0.00012379   -0.00004725    0.02300243
     atom    3 type  1   force =    -0.00002559    0.00006941    0.02294632
     atom    4 type  1   force =     0.00004880   -0.00011356    0.02403554
     atom    5 type  1   force =    -0.00040461    0.00208252   -0.00516985
     atom    6 type  1   force =    -0.00003869   -0.00015554   -0.00057113
     atom    7 type  1   force =    -0.00154060   -0.00169786   -0.00481220
     atom    8 type  1   force =     0.00207448   -0.00032185   -0.00537143
     atom    9 type  1   force =     0.00199602    0.00007811   -0.04531983
     atom   10 type  1   force =    -0.00682171    0.00235360   -0.01797583
     atom   11 type  1   force =     0.00332741    0.00372339   -0.01900027
     atom   12 type  1   force =     0.00142861   -0.00510215   -0.01489387
     atom   13 type  2   force =     0.04155364   -0.00114151    0.17082745
     atom   14 type  3   force =    -0.07143287    0.00930343   -0.06447079
     atom   15 type  3   force =     0.00732755   -0.04563825   -0.04363732
     atom   16 type  3   force =     0.02252538    0.03659837   -0.04265640

     Total force =     0.225902     Total SCF correction =     0.001100

     entering subroutine stress ...

     negative rho (up, down):  1.379E+00 0.000E+00
          total   stress  (Ry/bohr**3)                   (kbar)     P=  -27.12
  -0.00018499  -0.00000001  -0.00000836        -27.21     -0.00     -1.23
  -0.00000001  -0.00018008  -0.00000019         -0.00    -26.49     -0.03
  -0.00000836  -0.00000019  -0.00018807         -1.23     -0.03    -27.67

     BFGS Geometry Optimization

     number of scf cycles    =   1
     number of bfgs steps    =   0

     energy   new            =   -1941.8627607218 Ry

     new trust radius        =       0.1758124696 bohr
     new conv_thr            =       0.0000099958 Ry

ATOMIC_POSITIONS (crystal)
Hf1      0.166666667   0.166666667   0.396510335    0   0   0
Hf1      0.666666667   0.166666667   0.396510335    0   0   0
Hf1      0.166666667   0.666666667   0.396510335    0   0   0
Hf1      0.666666667   0.666666667   0.396510335    0   0   0
Hf1      0.833333333   0.333333333   0.500000000    0   0   0
Hf1      0.333333333   0.333333333   0.500000000    0   0   0
Hf1      0.833333333   0.833333333   0.500000000    0   0   0
Hf1      0.333333333   0.833333333   0.500000000    0   0   0
Hf1      0.000161482   0.000007466   0.602538745
Hf1      0.499322879   0.000224950   0.603112489
Hf1      0.000097481   0.500355869   0.603090993
Hf1      0.500362072   0.499512353   0.603177156
C1       0.336827359   0.333224232   0.671764700
H1       0.497469827   0.334222525   0.691807724
H1       0.185405458   0.489627478   0.692244861
H1       0.343389558   0.176175186   0.692265443

     Writing output data file calc.save
     Check: negative starting charge=   -1.301247
     NEW-OLD atomic charge density approx. for the potential

     Check: negative/imaginary core charge=   -0.000003    0.000000
     Check: negative starting charge=   -1.301085

[...]

     energy   old            =   -1941.8627607218 Ry
     energy   new            =   -1941.8976956506 Ry

     CASE: energy  _new < energy  _old

[...]

     iteration #  1     ecut=    36.75 Ry     beta=0.30
     Davidson diagonalization with overlap
     c_bands:  1 eigenvalues not converged
     ethr =  1.00E-06,  avg # of iterations = 15.9

[...]

     WARNING: bfgs curvature condition failed, Theta= 0.937
     new trust radius        =       0.0110307297 bohr
     new conv_thr            =       0.0000001000 Ry

[...]

     number of scf cycles    =  28
     number of bfgs steps    =  27

     energy   old            =   -1941.9260606078 Ry
     energy   new            =   -1941.9262230250 Ry

     CASE: energy  _new < energy  _old

     new trust radius        =       0.0446984413 bohr
     new conv_thr            =       0.0000001000 Ry

ATOMIC_POSITIONS (crystal)
Hf1      0.166666667   0.166666667   0.396510335    0   0   0
Hf1      0.666666667   0.166666667   0.396510335    0   0   0
Hf1      0.166666667   0.666666667   0.396510335    0   0   0
Hf1      0.666666667   0.666666667   0.396510335    0   0   0
Hf1      0.833333333   0.333333333   0.500000000    0   0   0
Hf1      0.333333333   0.333333333   0.500000000    0   0   0
Hf1      0.833333333   0.833333333   0.500000000    0   0   0
Hf1      0.333333333   0.833333333   0.500000000    0   0   0
Hf1      0.000751767   0.000051032   0.593672118
Hf1      0.497529034   0.005620837   0.598740414
Hf1      0.005927892   0.497095507   0.598803977
Hf1      0.496827860   0.497905160   0.598714132
C1       0.334774609   0.333135961   0.669788974
H1       0.424327025   0.424480858   0.688543949
H1       0.154216068   0.422681411   0.688712429
H1       0.427517608   0.152210168   0.688566511

     Writing output data file calc.save
     Check: negative starting charge=   -1.298080
     NEW-OLD atomic charge density approx. for the potential

     Check: negative/imaginary core charge=   -0.000003    0.000000
     Check: negative starting charge=   -1.298041

[...]

     Self-consistent Calculation

[...]

     total energy              =   -1941.92629855 Ry
     Harris-Foulkes estimate   =   -1941.92629867 Ry
     estimated scf accuracy    <       0.00000012 Ry

     iteration # 10     ecut=    36.75 Ry     beta=0.30
     Davidson diagonalization with overlap
     ethr =  7.75E-11,  avg # of iterations =  3.2

[...]

     negative rho (up, down):  1.374E+00 0.000E+00

     Adding external electric field

     Computed dipole along edir(3) :
        Dipole                0.2427 Ry au,          0.6168 Debye
        Dipole field          0.0005 Ry au

        Potential amp.       -0.0470 Ry
        Total length         46.4675 bohr

     End of self-consistent calculation

[...]

          k = 0.0521-0.0602 0.0000 ( 22643 PWs)   bands (ev):

[...]

          k =-0.0782-0.0452 0.0000 ( 22668 PWs)   bands (ev):

   -60.8981 -60.8950 -60.8811 -60.8760 -60.7912 -60.7785 -60.7724 -60.6381
   -60.3464 -60.3435 -60.3297 -60.3174 -29.5648 -29.5619 -29.5188 -29.5121
   -29.4961 -29.4567 -29.4534 -29.4493 -29.4448 -29.4299 -29.3946 -29.3931
   -29.3906 -29.3663 -29.3511 -29.3408 -29.3243 -29.2773 -29.2744 -29.1977
   -29.1871 -29.1846 -29.0982 -29.0416 -28.9924 -28.9680 -28.8665 -28.8523
   -28.8350 -28.8246 -28.8069 -28.8030 -28.7851 -28.7780 -28.6723 -28.6673
   -12.2308  -5.3487  -5.3041  -3.3617  -3.1620  -2.6313  -1.9032  -1.5179
    -0.9517  -0.9412  -0.6225  -0.4060  -0.3496  -0.2986   0.5356   0.5474
     0.6849   0.7120   0.8193   0.8891   1.0264   1.0701   1.1876   1.2279
     1.2640   1.3694   1.4404   1.5368   1.6039   1.6783   1.7049   1.8300
     1.8642   2.0463   2.0859   2.2499   2.6275

     the Fermi energy is     1.7196 ev

!    total energy              =   -1941.92629968 Ry
     Harris-Foulkes estimate   =   -1941.92629833 Ry
     estimated scf accuracy    <       0.00000003 Ry

     The total energy is the sum of the following terms:

     one-electron contribution =   -8773.09903693 Ry
     hartree contribution      =    4373.32803089 Ry
     xc contribution           =    -934.04869025 Ry
     ewald contribution        =    3392.01079031 Ry
     electric field correction =       0.00012284 Ry
     smearing contrib. (-TS)   =      -0.11751653 Ry

     convergence has been achieved in  10 iterations

 BEEF-vdW xc energy contributions
           1 :   -844.343703376330
           2 :    784.659627860582
           3 :   -678.908324883323
           4 :    548.942180895767
           5 :   -417.373174039803
           6 :    301.278752251842
           7 :   -209.386662381251
           8 :    142.890952666900
           9 :   -98.4646784246482
          10 :    71.3116148452698
          11 :   -56.8378364522238
          12 :    50.7932558345774
          13 :   -48.8285475971398
          14 :    46.4930928619131
          15 :   -40.0844972023581
          16 :    27.8778549537419
          17 :   -10.8776495164168
          18 :   -7.54595085730784
          19 :    23.0714023076091
          20 :   -32.2222408112167
          21 :    33.6631771945861
          22 :   -28.4555967279441
          23 :    19.3116690741144
          24 :   -9.39372650433381
          25 :    1.29954521756872
          26 :    3.39194294149797
          27 :   -4.07415856311036
          28 :   0.882010349404368
          29 :    5.42981781889705
          30 :   -13.4704719709182
          31 :   -60.9267482595116
          32 :   -43.8211346440334

     Forces acting on atoms (Ry/au):

     negative rho (up, down):  1.374E+00 0.000E+00
     atom    1 type  1   force =    -0.00051687   -0.00025785    0.01868318
     atom    2 type  1   force =     0.00050727   -0.00030467    0.01871331
     atom    3 type  1   force =    -0.00004972    0.00057583    0.01868964
     atom    4 type  1   force =     0.00004704   -0.00002314    0.01821331
     atom    5 type  1   force =     0.00003452    0.00870095   -0.02182266
     atom    6 type  1   force =    -0.00002540    0.00003022   -0.01083702
     atom    7 type  1   force =    -0.00719339   -0.00437514   -0.02169180
     atom    8 type  1   force =     0.00771422   -0.00416093   -0.02253621
     atom    9 type  1   force =    -0.00034409   -0.00011011    0.00169377
     atom   10 type  1   force =    -0.00020021    0.00117754   -0.00079060
     atom   11 type  1   force =     0.00096937   -0.00053666   -0.00087540
     atom   12 type  1   force =    -0.00063153   -0.00083009   -0.00070551
     atom   13 type  2   force =     0.00039493    0.00004941    0.00144779
     atom   14 type  3   force =     0.00177310    0.00123935    0.00049890
     atom   15 type  3   force =    -0.00134395    0.00004491    0.00074208
     atom   16 type  3   force =    -0.00113528   -0.00121960    0.00057720

     Total force =     0.004613     Total SCF correction =     0.000418

     entering subroutine stress ...

     negative rho (up, down):  1.374E+00 0.000E+00
          total   stress  (Ry/bohr**3)                   (kbar)     P=  -17.72
  -0.00014014   0.00000026  -0.00000067        -20.62      0.04     -0.10
   0.00000026  -0.00014017  -0.00000007          0.04    -20.62     -0.01
  -0.00000067  -0.00000007  -0.00008113         -0.10     -0.01    -11.93

     bfgs converged in  29 scf cycles and  28 bfgs steps
     (criteria: energy <  1.0E+00, force <  1.9E-03)

     End of BFGS Geometry Optimization

     Final energy   =   -1941.9262996805 Ry
Begin final coordinates

ATOMIC_POSITIONS (crystal)
Hf1      0.166666667   0.166666667   0.396510335    0   0   0
Hf1      0.666666667   0.166666667   0.396510335    0   0   0
Hf1      0.166666667   0.666666667   0.396510335    0   0   0
Hf1      0.666666667   0.666666667   0.396510335    0   0   0
Hf1      0.833333333   0.333333333   0.500000000    0   0   0
Hf1      0.333333333   0.333333333   0.500000000    0   0   0
Hf1      0.833333333   0.833333333   0.500000000    0   0   0
Hf1      0.333333333   0.833333333   0.500000000    0   0   0
Hf1      0.000751767   0.000051032   0.593672118
Hf1      0.497529034   0.005620837   0.598740414
Hf1      0.005927892   0.497095507   0.598803977
Hf1      0.496827860   0.497905160   0.598714132
C1       0.334774609   0.333135961   0.669788974
H1       0.424327025   0.424480858   0.688543949
H1       0.154216068   0.422681411   0.688712429
H1       0.427517608   0.152210168   0.688566511
End final coordinates

     Writing output data file calc.save

     General routines

     Parallel routines

   This run was terminated on:  12:52:40  18Apr2018

   JOB DONE.
Job  /afs/slac/g/suncat/bin/suncat-tsmpirun -x LD_LIBRARY_PATH -wdir /scratch/qe195403_YDMKF pw.x -npool 4 -in pw.inp

TID   HOST_NAME   COMMAND_LINE            STATUS            TERMINATION_TIME
00000 suncat0051 pw.x -npool 4 -i  Done                     04/18/2018 12:52:40
00001 suncat0051 pw.x -npool 4 -i  Done                     04/18/2018 12:52:40
00002 suncat0051 pw.x -npool 4 -i  Done                     04/18/2018 12:52:40
00003 suncat0051 pw.x -npool 4 -i  Done                     04/18/2018 12:52:40
00004 suncat0051 pw.x -npool 4 -i  Done                     04/18/2018 12:52:40
00005 suncat0051 pw.x -npool 4 -i  Done                     04/18/2018 12:52:40
00006 suncat0051 pw.x -npool 4 -i  Done                     04/18/2018 12:52:40
00007 suncat0051 pw.x -npool 4 -i  Done                     04/18/2018 12:52:40
00008 suncat0041 pw.x -npool 4 -i  Done                     04/18/2018 12:52:40
00009 suncat0041 pw.x -npool 4 -i  Done                     04/18/2018 12:52:40
00010 suncat0041 pw.x -npool 4 -i  Done                     04/18/2018 12:52:40
00011 suncat0041 pw.x -npool 4 -i  Done                     04/18/2018 12:52:40
00012 suncat0041 pw.x -npool 4 -i  Done                     04/18/2018 12:52:40
00013 suncat0041 pw.x -npool 4 -i  Done                     04/18/2018 12:52:40
00014 suncat0041 pw.x -npool 4 -i  Done                     04/18/2018 12:52:40
00015 suncat0041 pw.x -npool 4 -i  Done                     04/18/2018 12:52:40
00016 suncat0037 pw.x -npool 4 -i  Done                     04/18/2018 12:52:40
00017 suncat0037 pw.x -npool 4 -i  Done                     04/18/2018 12:52:40
00018 suncat0037 pw.x -npool 4 -i  Done                     04/18/2018 12:52:40
00019 suncat0037 pw.x -npool 4 -i  Done                     04/18/2018 12:52:40
00020 suncat0037 pw.x -npool 4 -i  Done                     04/18/2018 12:52:40
00021 suncat0037 pw.x -npool 4 -i  Done                     04/18/2018 12:52:40
00022 suncat0037 pw.x -npool 4 -i  Done                     04/18/2018 12:52:40
00023 suncat0037 pw.x -npool 4 -i  Done                     04/18/2018 12:52:40
00024 suncat0154 pw.x -npool 4 -i  Done                     04/18/2018 12:52:40
00025 suncat0154 pw.x -npool 4 -i  Done                     04/18/2018 12:52:40
00026 suncat0154 pw.x -npool 4 -i  Done                     04/18/2018 12:52:40
00027 suncat0154 pw.x -npool 4 -i  Done                     04/18/2018 12:52:40
00028 suncat0154 pw.x -npool 4 -i  Done                     04/18/2018 12:52:40
00029 suncat0154 pw.x -npool 4 -i  Done                     04/18/2018 12:52:40
00030 suncat0154 pw.x -npool 4 -i  Done                     04/18/2018 12:52:40
00031 suncat0154 pw.x -npool 4 -i  Done                     04/18/2018 12:52:40