     Program PWSCF v.5.1rc2 (svn rev. 11289) starts on 17Apr2018 at  8:46:26

     Current dimensions of program PWSCF are:
     Max number of different atomic species (ntypx) = 10
     Max number of k-points (npk) =  40000
     Max angular momentum in pseudopotentials (lmaxx) =  3
     Presently stress not available with electric field

     IMPORTANT: XC functional enforced from input :
     Exchange-correlation      = BEEF-VDW ( 1  4 27 13 2)
     Any further DFT definition will be discarded
     Please, verify this is what you really want

     Subspace diagonalization in iterative solution of the eigenvalue problem:
     a serial algorithm will be used

     bravais-lattice index     =            0
     lattice parameter (alat)  =       1.8897  a.u.
     unit-cell volume          =    3807.2308 (a.u.)^3
     number of atoms/cell      =           16
     number of atomic types    =            3
     number of electrons       =       235.00
     number of Kohn-Sham states=          127
     kinetic-energy cutoff     =      36.7493  Ry
     charge density cutoff     =     367.4932  Ry
     convergence threshold     =      1.0E-05
     mixing beta               =       0.3000
     number of iterations used =           10  plain     mixing
     Exchange-correlation      = BEEF-VDW ( 1  4 27 13 2)
     nstep                     =           50

     celldm(1)=   1.889726  celldm(2)=   0.000000  celldm(3)=   0.000000
     celldm(4)=   0.000000  celldm(5)=   0.000000  celldm(6)=   0.000000

     crystal axes: (cart. coord. in units of alat)
               a(1) = (   5.184823   0.000000   0.000000 )
               a(2) = (   2.592411   4.490188   0.000000 )
               a(3) = (   0.000000   0.000000  24.233390 )

     reciprocal axes: (cart. coord. in units 2 pi/alat)
               b(1) = (  0.192871 -0.111354  0.000000 )
               b(2) = (  0.000000  0.222708  0.000000 )
               b(3) = (  0.000000  0.000000  0.041265 )

     PseudoPot. # 1 for Cu read from file:
     /u/if/mamunm/psp/gbrv1.5pbe/Cu.UPF
     MD5 check sum: 6e991ff952a84172a2a52a1c1e996048
     Pseudo is Ultrasoft + core correction, Zval = 19.0
     Generated by new atomic code, or converted to UPF format
     Using radial grid of  867 points,  6 beta functions with:
                l(1) =   0
                l(2) =   0
                l(3) =   1
                l(4) =   1
                l(5) =   2
                l(6) =   2
     Q(r) pseudized with  8 coefficients,  rinner =    1.150   1.150   1.150
                                                       1.150   1.150

     PseudoPot. # 2 for C  read from file:
     /u/if/mamunm/psp/gbrv1.5pbe/C.UPF
     MD5 check sum: d1aef80898a10debaa0f26306b886e00
     Pseudo is Ultrasoft + core correction, Zval =  4.0
     Generated by new atomic code, or converted to UPF format
     Using radial grid of  721 points,  4 beta functions with:
                l(1) =   0
                l(2) =   0
                l(3) =   1
                l(4) =   1
     Q(r) pseudized with  8 coefficients,  rinner =    1.100   1.100   1.100

     PseudoPot. # 3 for H  read from file:
     /u/if/mamunm/psp/gbrv1.5pbe/H.UPF
     MD5 check sum: 761ae9a214b05c3daf00ab9f6b793d6f
     Pseudo is Ultrasoft, Zval =  1.0
     Generated by new atomic code, or converted to UPF format
     Using radial grid of  615 points,  2 beta functions with:
                l(1) =   0
                l(2) =   0
     Q(r) pseudized with  8 coefficients,  rinner =    0.700

     vdW kernel table read from file vdW_kernel_table
     MD5 check sum: 095c7af220d748ca6e76c0b4c6cfb241

     atomic species   valence    mass     pseudopotential
        Cu1           19.00    63.54600     Cu( 1.00)
        C1             4.00    12.01100     C ( 1.00)
        H1             1.00     1.00800     H ( 1.00)

     No symmetry found

   Cartesian axes

     site n.     atom                  positions (alat units)
         1           Cu1 tau(   1) = (   1.2962057   0.7483647  10.0000000  )
         2           Cu1 tau(   2) = (   3.8886170   0.7483647  10.0000000  )
         3           Cu1 tau(   3) = (   2.5924113   2.9934587  10.0000000  )
         4           Cu1 tau(   4) = (   5.1848226   2.9934587  10.0000000  )
         5           Cu1 tau(   5) = (   5.1848226   1.4967294  12.1166950  )
         6           Cu1 tau(   6) = (   2.5924113   1.4967294  12.1166950  )
         7           Cu1 tau(   7) = (   6.4810283   3.7418234  12.1166950  )
         8           Cu1 tau(   8) = (   3.8886170   3.7418234  12.1166950  )
         9           Cu1 tau(   9) = (   0.0000000   0.0000000  14.2333899  )
        10           Cu1 tau(  10) = (   2.5924113   0.0000000  14.2333899  )
        11           Cu1 tau(  11) = (   1.2962057   2.2450940  14.2333899  )
        12           Cu1 tau(  12) = (   3.8886170   2.2450940  14.2333899  )
        13           C1  tau(  13) = (   2.5924113   1.4967294  15.5853899  )
        14           H1  tau(  14) = (   3.6824113   1.4967294  16.2153899  )
        15           H1  tau(  15) = (   2.1424113   2.3862294  16.2153899  )
        16           H1  tau(  16) = (   2.1424113   0.6072294  16.2153899  )

     number of k points=    20  Fermi-Dirac smearing, width (Ry)=  0.0110
                       cart. coord. in units 2pi/alat
        k(    1) = (   0.0000000   0.0000000   0.0000000), wk =   0.0555556
        k(    2) = (   0.0000000   0.0371180   0.0000000), wk =   0.1111111
        k(    3) = (   0.0000000   0.0742359   0.0000000), wk =   0.1111111
        k(    4) = (   0.0000000  -0.1113539   0.0000000), wk =   0.0555556
        k(    5) = (   0.0321451  -0.0185590   0.0000000), wk =   0.1111111
        k(    6) = (   0.0321451   0.0185590   0.0000000), wk =   0.1111111
        k(    7) = (   0.0321451   0.0556770   0.0000000), wk =   0.1111111
        k(    8) = (   0.0321451  -0.1299129   0.0000000), wk =   0.1111111
        k(    9) = (   0.0321451  -0.0927949   0.0000000), wk =   0.1111111
        k(   10) = (   0.0321451  -0.0556770   0.0000000), wk =   0.1111111
        k(   11) = (   0.0642902  -0.0371180   0.0000000), wk =   0.1111111
        k(   12) = (   0.0642902  -0.0000000   0.0000000), wk =   0.1111111
        k(   13) = (   0.0642902   0.0371180   0.0000000), wk =   0.1111111
        k(   14) = (   0.0642902  -0.1484719   0.0000000), wk =   0.1111111
        k(   15) = (   0.0642902  -0.1113539   0.0000000), wk =   0.1111111
        k(   16) = (   0.0642902  -0.0742359   0.0000000), wk =   0.1111111
        k(   17) = (  -0.0964353   0.0556770   0.0000000), wk =   0.0555556
        k(   18) = (  -0.0964353   0.0927949   0.0000000), wk =   0.1111111
        k(   19) = (  -0.0964353   0.1299129   0.0000000), wk =   0.1111111
        k(   20) = (  -0.0964353  -0.0556770   0.0000000), wk =   0.0555556

     Largest allocated arrays     est. size (Mb)     dimensions
     Largest temporary arrays     est. size (Mb)     dimensions

     Initial potential from superposition of free atoms
     Check: negative starting charge=   -0.000136

     starting charge  222.99991, renormalised to  235.00000

     negative rho (up, down):  1.434E-04 0.000E+00

     *
     * You are using vdW-DF for exchange-correlation in this calculation.
     * Please cite the following three references that made this development
     * possible:
     *
     *   M. Dion, H. Rydberg, E. Schroder, D. C. Langreth, and
     *   B. I. Lundqvist, Phys. Rev. Lett. 92, 246401 (2004).
     *
     *   T. Thonhauser, V. R. Cooper, S. Li, A. Puzder, P. Hyldgaard, and
     *   D. C. Langreth, Phys. Rev. B 76, 125112 (2007).
     *
     *   G. Roman-Perez and J. M. Soler, Phys. Rev. Lett. 103, 096102 (2009).
     *
     *
     * If you are using vdW-DF2, please also cite:
     *
     *   K. Lee, E. D. Murray, L. Kong, B. I. Lundqvist, and
     *   D. C. Langreth, Phys. Rev. B 82, 081101(R) (2010).
     *
     *
     * If you are calculating the stress with vdW-DF, please also cite:
     *
     *   R. Sabatini, E. Kucukbenli, B. Kolb, T. Thonhauser, and
     *   S. de Gironcoli, J. Phys.: Condens. Matter 24, 424209 (2012).
     *

     Carrying out vdW-DF run using the following parameters:

     Nqs =      20    Nr_points =    1024   r_max =   100.000
     q_mesh =
               0.00001000     0.04494208     0.09755937     0.15916263
               0.23128650     0.31572767     0.41458969     0.53033537
               0.66584808     0.82450364     1.01025438     1.22772762
               1.48234092     1.78043706     2.12944203     2.53805004
               3.01644009     3.57652955     4.23227104     5.00000000

     Gradients computed in reciprocal space

     Adding external electric field

     Computed dipole along edir(3) :
        Dipole               -2.6608 Ry au,         -6.7631 Debye
        Dipole field         -0.0088 Ry au

        Potential amp.        0.7843 Ry
        Total length         44.6496 bohr

     Starting wfc are  163 randomized atomic wfcs

     Self-consistent Calculation

     iteration #  1     ecut=    36.75 Ry     beta=0.30
     Davidson diagonalization with overlap
     ethr =  1.00E-02,  avg # of iterations =  8.4

[...]

     total energy              =   -4474.68785794 Ry
     Harris-Foulkes estimate   =   -4868.82399497 Ry
     estimated scf accuracy    <     830.70055068 Ry

[...]

     End of self-consistent calculation

          k = 0.0000 0.0000 0.0000 ( 14321 PWs)   bands (ev):

  -111.6890-111.6760-111.6727-111.4738-111.4686-111.4670-111.3678-111.1937
  -111.1808-111.1763-111.1756-111.1465 -69.1647 -69.1285 -69.1212 -69.0755
   -69.0685 -69.0503 -69.0468 -69.0269 -69.0190 -68.8964 -68.8904 -68.8893
   -68.8732 -68.8670 -68.8653 -68.8547 -68.8360 -68.8349 -68.7648 -68.7647
   -68.7553 -68.6418 -68.6416 -68.6295 -68.5883 -68.5881 -68.5854 -68.5666
   -68.5663 -68.5572 -68.5568 -68.5478 -68.5386 -68.5371 -68.5330 -68.5323
   -12.7153  -7.1920  -5.8022  -5.6931  -5.4364  -4.5135  -3.7686  -3.4668
    -3.3859  -3.3825  -3.2381  -3.2248  -3.0698  -2.9775  -2.9671  -2.9445
    -2.8407  -2.8374  -2.6465  -2.3040  -2.2942  -2.0521  -1.9516  -1.9504
    -1.9495  -1.8380  -1.8343  -1.7624  -1.7611  -1.7606  -1.7229  -1.6417
    -1.6390  -1.5056  -1.5053  -1.5004  -1.4091  -1.3960  -1.3775  -1.2016
    -1.1939  -1.1795  -1.0388  -1.0278  -0.9835  -0.9791  -0.8382  -0.8374
    -0.7196  -0.6650  -0.6373  -0.6192  -0.6183  -0.5751  -0.5703  -0.5495
    -0.5430  -0.5429  -0.4894  -0.4864  -0.4807  -0.4364  -0.4356  -0.2475
    -0.2472  -0.2425   0.0186   1.1345   1.1525   1.1692   1.6686   2.1844
     2.2128   2.5749   2.6549   2.6614   3.1127   4.5855   5.0535

[...]

          k =-0.0964 0.0557 0.0000 ( 14294 PWs)   bands (ev):

[...]

     the Fermi energy is     1.1205 ev

!    total energy              =   -4874.36564612 Ry
     Harris-Foulkes estimate   =   -4874.36565514 Ry
     estimated scf accuracy    <       0.00000180 Ry

     The total energy is the sum of the following terms:

     one-electron contribution =  -37994.10238009 Ry
     hartree contribution      =   19018.08948965 Ry
     xc contribution           =    -486.09126597 Ry
     ewald contribution        =   14587.76338774 Ry
     electric field correction =       0.00031968 Ry
     smearing contrib. (-TS)   =      -0.02519713 Ry

     convergence has been achieved in  29 iterations

 BEEF-vdW xc energy contributions
           1 :   -430.590228289536
           2 :    390.348023299010
           3 :   -322.175557940926
           4 :    244.810009900747
           5 :   -175.311702913869
           6 :    122.982581158103
           7 :   -87.8939780816194
           8 :    63.9857381557765
           9 :   -44.3436697948841
          10 :    25.4094362031653
          11 :   -8.00078542775066
          12 :   -4.76878262636086
          13 :    10.7134941944740
          14 :   -10.6016736815168
          15 :    7.79184142639741
          16 :   -6.04598014625651
          17 :    7.22770087337807
          18 :   -10.4712533028134
          19 :    13.2386062052540
          20 :   -13.3669240114735
          21 :    10.6233195439019
          22 :   -6.75710617555910
          23 :    4.15208319377746
          24 :   -4.13334898611708
          25 :    6.12927000586421
          26 :   -8.20754431931232
          27 :    8.51840173005439
          28 :   -6.58623467317113
          29 :    3.56264914588485
          30 :   -1.32782538815593
          31 :   -34.5579208565778
          32 :   -23.6444811150832

     Forces acting on atoms (Ry/au):

     negative rho (up, down):  9.863E-04 0.000E+00
     atom    1 type  1   force =     0.00224883    0.00145304    0.00319197
     atom    2 type  1   force =    -0.00232267    0.00131173    0.00310728
     atom    3 type  1   force =     0.00003203   -0.00268036    0.00240484
     atom    4 type  1   force =     0.00004298   -0.00004901    0.00015183
     atom    5 type  1   force =     0.00048904    0.00121897    0.00182105
     atom    6 type  1   force =     0.00017460    0.00018176   -0.01364783
     atom    7 type  1   force =    -0.00130540   -0.00001811    0.00222851
     atom    8 type  1   force =     0.00054311   -0.00141850    0.00235360
     atom    9 type  1   force =     0.00025151    0.00023773   -0.02346481
     atom   10 type  1   force =    -0.00583368   -0.02197124   -0.02839440
     atom   11 type  1   force =    -0.01588993    0.01457059   -0.02770810
     atom   12 type  1   force =     0.02233921    0.00525833   -0.02414129
     atom   13 type  2   force =     0.04146975    0.00184216    0.23670775
     atom   14 type  3   force =    -0.07426714    0.00863704   -0.05842021
     atom   15 type  3   force =     0.00898661   -0.04766142   -0.03817946
     atom   16 type  3   force =     0.02304114    0.03908727   -0.03801073

     Total force =     0.279797     Total SCF correction =     0.002876

     entering subroutine stress ...

     negative rho (up, down):  9.863E-04 0.000E+00
          total   stress  (Ry/bohr**3)                   (kbar)     P=  -16.82
  -0.00014331   0.00000064  -0.00001364        -21.08      0.09     -2.01
   0.00000064  -0.00013540   0.00000134          0.09    -19.92      0.20
  -0.00001364   0.00000134  -0.00006422         -2.01      0.20     -9.45

     BFGS Geometry Optimization

     number of scf cycles    =   1
     number of bfgs steps    =   0

     energy   new            =   -4874.3656461214 Ry

     new trust radius        =       0.2403199753 bohr
     new conv_thr            =       0.0000099958 Ry

ATOMIC_POSITIONS (crystal)
Cu1      0.166666667   0.166666667   0.412653782    0   0   0
Cu1      0.666666667   0.166666667   0.412653782    0   0   0
Cu1      0.166666667   0.666666667   0.412653782    0   0   0
Cu1      0.666666667   0.666666667   0.412653782    0   0   0
Cu1      0.833333333   0.333333333   0.500000000    0   0   0
Cu1      0.333333333   0.333333333   0.500000000    0   0   0
Cu1      0.833333333   0.833333333   0.500000000    0   0   0
Cu1      0.333333333   0.833333333   0.500000000    0   0   0
Cu1      0.000011661   0.000028017   0.586833824
Cu1      0.500699275  -0.002589353   0.586726178
Cu1     -0.002480356   0.501717172   0.586741165
Cu1      0.501970149   0.500619704   0.586819052
C1       0.337457299   0.333550436   0.648305925
H1       0.535473466   0.334351225   0.667858493
H1       0.151217940   0.525814950   0.668300484
H1       0.345639240   0.139841237   0.668304169

     Writing output data file calc.save
     Check: negative starting charge=   -0.000136
     NEW-OLD atomic charge density approx. for the potential
     Check: negative starting charge=   -0.000136

[...]

     iteration #  1     ecut=    36.75 Ry     beta=0.30
     Davidson diagonalization with overlap
     c_bands:  1 eigenvalues not converged
     ethr =  1.00E-06,  avg # of iterations = 12.2

[...]

     energy   old            =   -4874.3656461214 Ry
     energy   new            =   -4874.4171025627 Ry

     CASE: energy  _new < energy  _old

[...]

     Total force =     0.022184     Total SCF correction =     0.002312
     SCF correction compared to forces is large: reduce conv_thr to get better values

[...]

     iteration #  1     ecut=    36.75 Ry     beta=0.30
     Davidson diagonalization with overlap
     c_bands:  1 eigenvalues not converged
     ethr =  1.00E-06,  avg # of iterations = 12.5

[...]

     Total force =     0.014964     Total SCF correction =     0.001177

[...]

     number of scf cycles    =  30
     number of bfgs steps    =  29

     energy   old            =   -4874.4443069534 Ry
     energy   new            =   -4874.4444765170 Ry

     CASE: energy  _new < energy  _old

     new trust radius        =       0.0163848086 bohr
     new conv_thr            =       0.0000001000 Ry

ATOMIC_POSITIONS (crystal)
Cu1      0.166666667   0.166666667   0.412653782    0   0   0
Cu1      0.666666667   0.166666667   0.412653782    0   0   0
Cu1      0.166666667   0.666666667   0.412653782    0   0   0
Cu1      0.666666667   0.666666667   0.412653782    0   0   0
Cu1      0.833333333   0.333333333   0.500000000    0   0   0
Cu1      0.333333333   0.333333333   0.500000000    0   0   0
Cu1      0.833333333   0.833333333   0.500000000    0   0   0
Cu1      0.333333333   0.833333333   0.500000000    0   0   0
Cu1     -0.001716426  -0.000213713   0.582883751
Cu1      0.496368943   0.004565905   0.586934011
Cu1      0.002022405   0.497061430   0.586692269
Cu1      0.493909090   0.497088346   0.587641707
C1       0.339954465   0.334578315   0.660738425
H1       0.461378587   0.437360828   0.678657850
H1       0.112587845   0.455918807   0.677173677
H1       0.443308160   0.107239513   0.677206436

     Writing output data file calc.save
     Check: negative starting charge=   -0.000138
     NEW-OLD atomic charge density approx. for the potential
     Check: negative starting charge=   -0.000139

[...]

     Self-consistent Calculation

[...]

     total energy              =   -4874.44456853 Ry
     Harris-Foulkes estimate   =   -4874.44456890 Ry
     estimated scf accuracy    <       0.00000028 Ry

     iteration #  9     ecut=    36.75 Ry     beta=0.30
     Davidson diagonalization with overlap
     ethr =  1.18E-10,  avg # of iterations =  2.0

[...]

     negative rho (up, down):  9.857E-04 0.000E+00

     Adding external electric field

     Computed dipole along edir(3) :
        Dipole                0.1924 Ry au,          0.4889 Debye
        Dipole field          0.0006 Ry au

        Potential amp.       -0.0567 Ry
        Total length         44.6496 bohr

     End of self-consistent calculation

[...]

          k = 0.0643-0.0742 0.0000 ( 14299 PWs)   bands (ev):

[...]

          k =-0.0964-0.0557 0.0000 ( 14294 PWs)   bands (ev):

  -111.7072-111.7048-111.7034-111.6312-111.6122-111.5990-111.5755-111.4101
  -111.4042-111.4026-111.4005-111.3566 -69.1226 -69.1114 -69.1095 -69.1070
   -69.1062 -69.1034 -69.1000 -69.0956 -69.0729 -69.0422 -69.0405 -69.0361
   -69.0194 -69.0099 -69.0066 -68.9951 -68.9885 -68.9843 -68.9769 -68.9680
   -68.9512 -68.8498 -68.8419 -68.8280 -68.8237 -68.8205 -68.8171 -68.8026
   -68.7944 -68.7691 -68.7679 -68.7640 -68.7625 -68.7614 -68.7590 -68.7426
   -12.3196  -5.9356  -5.6392  -5.4765  -5.3585  -4.2353  -3.8809  -3.3672
    -3.3481  -3.3316  -3.1043  -3.0905  -3.0849  -2.9209  -2.7816  -2.7588
    -2.6285  -2.6278  -2.5652  -2.4919  -2.3985  -2.3656  -2.3393  -2.3322
    -2.2725  -2.2575  -2.0661  -2.0495  -1.9927  -1.9339  -1.9090  -1.8736
    -1.8564  -1.8201  -1.7658  -1.7482  -1.7387  -1.7301  -1.7109  -1.6863
    -1.6798  -1.6559  -1.6378  -1.4673  -1.4379  -1.3853  -1.3380  -1.3212
    -1.2695  -1.2592  -1.2184  -1.1706  -1.1422  -1.1191  -1.0994  -1.0475
    -1.0198  -1.0025  -0.9301  -0.9059  -0.7573  -0.7555  -0.7273  -0.7201
    -0.6466  -0.6391  -0.6084   0.2777   0.8460   0.9056   1.4161   1.6776
     2.0938   2.7849   3.8752   4.1148   4.6845   5.0281   5.3103

     the Fermi energy is     0.8957 ev

!    total energy              =   -4874.44456856 Ry
     Harris-Foulkes estimate   =   -4874.44456885 Ry
     estimated scf accuracy    <       0.00000003 Ry

     The total energy is the sum of the following terms:

     one-electron contribution =  -37936.63153935 Ry
     hartree contribution      =   18988.33183476 Ry
     xc contribution           =    -486.14933185 Ry
     ewald contribution        =   14560.03026335 Ry
     electric field correction =       0.00012214 Ry
     smearing contrib. (-TS)   =      -0.02591760 Ry

     convergence has been achieved in   9 iterations

 BEEF-vdW xc energy contributions
           1 :   -430.608529111750
           2 :    390.245096870692
           3 :   -321.948315179479
           4 :    244.560937495011
           5 :   -175.156156825881
           6 :    122.976952821879
           7 :   -88.0171451998775
           8 :    64.1678781351424
           9 :   -44.5195315825243
          10 :    25.5596539228667
          11 :   -8.15304952462230
          12 :   -4.57680646130751
          13 :    10.4778522052196
          14 :   -10.3675155237635
          15 :    7.62805680650530
          16 :   -5.99748395383153
          17 :    7.28371714550218
          18 :   -10.5747105178406
          19 :    13.3266216477561
          20 :   -13.4105076652007
          21 :    10.6385778330630
          22 :   -6.78251935740576
          23 :    4.21198443374351
          24 :   -4.21635164369343
          25 :    6.19652160309101
          26 :   -8.22290979440766
          27 :    8.47642626233238
          28 :   -6.51642110039381
          29 :    3.50834915891073
          30 :   -1.31706976969150
          31 :   -34.5571251637733
          32 :   -23.6180505299776

     Forces acting on atoms (Ry/au):

     negative rho (up, down):  9.857E-04 0.000E+00
     atom    1 type  1   force =     0.00262114    0.00149787    0.00381924
     atom    2 type  1   force =    -0.00259698    0.00154602    0.00406931
     atom    3 type  1   force =     0.00005702   -0.00302379    0.00401061
     atom    4 type  1   force =    -0.00001246   -0.00000885    0.00087416
     atom    5 type  1   force =    -0.00099279    0.00587525   -0.00079002
     atom    6 type  1   force =     0.00012372    0.00007884   -0.01126171
     atom    7 type  1   force =    -0.00528253   -0.00278135   -0.00215038
     atom    8 type  1   force =     0.00475849   -0.00335678   -0.00006901
     atom    9 type  1   force =     0.00056204    0.00008862    0.00108883
     atom   10 type  1   force =    -0.00062201   -0.00083222    0.00094091
     atom   11 type  1   force =     0.00024400    0.00143926    0.00086037
     atom   12 type  1   force =     0.00167122   -0.00045385    0.00057437
     atom   13 type  2   force =    -0.00013832   -0.00047459   -0.00170819
     atom   14 type  3   force =     0.00008932    0.00066568   -0.00063825
     atom   15 type  3   force =    -0.00074520    0.00002995    0.00028965
     atom   16 type  3   force =     0.00026335   -0.00029007    0.00009011

     Total force =     0.003807     Total SCF correction =     0.000968
     SCF correction compared to forces is large: reduce conv_thr to get better values

     entering subroutine stress ...

     negative rho (up, down):  9.857E-04 0.000E+00
          total   stress  (Ry/bohr**3)                   (kbar)     P=  -21.13
  -0.00016303  -0.00000033   0.00000073        -23.98     -0.05      0.11
  -0.00000033  -0.00016278   0.00000018         -0.05    -23.95      0.03
   0.00000073   0.00000018  -0.00010508          0.11      0.03    -15.46

     bfgs converged in  31 scf cycles and  30 bfgs steps
     (criteria: energy <  1.0E+00, force <  1.9E-03)

     End of BFGS Geometry Optimization

     Final energy   =   -4874.4445685614 Ry
Begin final coordinates

ATOMIC_POSITIONS (crystal)
Cu1      0.166666667   0.166666667   0.412653782    0   0   0
Cu1      0.666666667   0.166666667   0.412653782    0   0   0
Cu1      0.166666667   0.666666667   0.412653782    0   0   0
Cu1      0.666666667   0.666666667   0.412653782    0   0   0
Cu1      0.833333333   0.333333333   0.500000000    0   0   0
Cu1      0.333333333   0.333333333   0.500000000    0   0   0
Cu1      0.833333333   0.833333333   0.500000000    0   0   0
Cu1      0.333333333   0.833333333   0.500000000    0   0   0
Cu1     -0.001716426  -0.000213713   0.582883751
Cu1      0.496368943   0.004565905   0.586934011
Cu1      0.002022405   0.497061430   0.586692269
Cu1      0.493909090   0.497088346   0.587641707
C1       0.339954465   0.334578315   0.660738425
H1       0.461378587   0.437360828   0.678657850
H1       0.112587845   0.455918807   0.677173677
H1       0.443308160   0.107239513   0.677206436
End final coordinates

     Writing output data file calc.save

     General routines

     Parallel routines

   This run was terminated on:  11:18:24  17Apr2018

   JOB DONE.
Job  /afs/slac/g/suncat/bin/suncat-tsmpirun -x LD_LIBRARY_PATH -wdir /scratch/qe174984_VjAa7 pw.x -npool 4 -in pw.inp

TID   HOST_NAME   COMMAND_LINE            STATUS            TERMINATION_TIME
00000 suncat0174 pw.x -npool 4 -i  Done                     04/17/2018 11:18:24
00001 suncat0174 pw.x -npool 4 -i  Done                     04/17/2018 11:18:24
00002 suncat0174 pw.x -npool 4 -i  Done                     04/17/2018 11:18:24
00003 suncat0174 pw.x -npool 4 -i  Done                     04/17/2018 11:18:24
00004 suncat0174 pw.x -npool 4 -i  Done                     04/17/2018 11:18:24
00005 suncat0174 pw.x -npool 4 -i  Done                     04/17/2018 11:18:24
00006 suncat0174 pw.x -npool 4 -i  Done                     04/17/2018 11:18:24
00007 suncat0174 pw.x -npool 4 -i  Done                     04/17/2018 11:18:24
00008 suncat0159 pw.x -npool 4 -i  Done                     04/17/2018 11:18:24
00009 suncat0159 pw.x -npool 4 -i  Done                     04/17/2018 11:18:24
00010 suncat0159 pw.x -npool 4 -i  Done                     04/17/2018 11:18:24
00011 suncat0159 pw.x -npool 4 -i  Done                     04/17/2018 11:18:24
00012 suncat0159 pw.x -npool 4 -i  Done                     04/17/2018 11:18:24
00013 suncat0159 pw.x -npool 4 -i  Done                     04/17/2018 11:18:24
00014 suncat0159 pw.x -npool 4 -i  Done                     04/17/2018 11:18:24
00015 suncat0159 pw.x -npool 4 -i  Done                     04/17/2018 11:18:24
00016 suncat0150 pw.x -npool 4 -i  Done                     04/17/2018 11:18:24
00017 suncat0150 pw.x -npool 4 -i  Done                     04/17/2018 11:18:24
00018 suncat0150 pw.x -npool 4 -i  Done                     04/17/2018 11:18:24
00019 suncat0150 pw.x -npool 4 -i  Done                     04/17/2018 11:18:24
00020 suncat0150 pw.x -npool 4 -i  Done                     04/17/2018 11:18:24
00021 suncat0150 pw.x -npool 4 -i  Done                     04/17/2018 11:18:24
00022 suncat0150 pw.x -npool 4 -i  Done                     04/17/2018 11:18:24
00023 suncat0150 pw.x -npool 4 -i  Done                     04/17/2018 11:18:24
00024 suncat0131 pw.x -npool 4 -i  Done                     04/17/2018 11:18:24
00025 suncat0131 pw.x -npool 4 -i  Done                     04/17/2018 11:18:24
00026 suncat0131 pw.x -npool 4 -i  Done                     04/17/2018 11:18:24
00027 suncat0131 pw.x -npool 4 -i  Done                     04/17/2018 11:18:24
00028 suncat0131 pw.x -npool 4 -i  Done                     04/17/2018 11:18:24
00029 suncat0131 pw.x -npool 4 -i  Done                     04/17/2018 11:18:24
00030 suncat0131 pw.x -npool 4 -i  Done                     04/17/2018 11:18:24
00031 suncat0131 pw.x -npool 4 -i  Done                     04/17/2018 11:18:24