     Program PWSCF v.5.1rc2 (svn rev. 11289) starts on 17Jan2018 at  4:50:12

     Current dimensions of program PWSCF are:
     Max number of different atomic species (ntypx) = 10
     Max number of k-points (npk) =  40000
     Max angular momentum in pseudopotentials (lmaxx) =  3
     Presently stress not available with electric field

     IMPORTANT: XC functional enforced from input :
     Exchange-correlation      = BEEF-VDW ( 1  4 27 13 2)
     Any further DFT definition will be discarded
     Please, verify this is what you really want

     Subspace diagonalization in iterative solution of the eigenvalue problem:
     a serial algorithm will be used

     bravais-lattice index     =            0
     lattice parameter (alat)  =       1.8897  a.u.
     unit-cell volume          =    4204.8134 (a.u.)^3
     number of atoms/cell      =           13
     number of atomic types    =            2
     number of electrons       =       186.00
     number of Kohn-Sham states=          103
     kinetic-energy cutoff     =      36.7493  Ry
     charge density cutoff     =     367.4932  Ry
     convergence threshold     =      1.0E-05
     mixing beta               =       0.3000
     number of iterations used =           10  plain     mixing
     Exchange-correlation      = BEEF-VDW ( 1  4 27 13 2)
     nstep                     =           50

     celldm(1)=   1.889726  celldm(2)=   0.000000  celldm(3)=   0.000000
     celldm(4)=   0.000000  celldm(5)=   0.000000  celldm(6)=   0.000000

     crystal axes: (cart. coord. in units of alat)
               a(1) = (   5.426750   0.000000   0.000000 )
               a(2) = (   2.713375   4.699703   0.000000 )
               a(3) = (   0.000000   0.000000  24.430923 )

     reciprocal axes: (cart. coord. in units 2 pi/alat)
               b(1) = (  0.184272 -0.106390  0.000000 )
               b(2) = (  0.000000  0.212779  0.000000 )
               b(3) = (  0.000000  0.000000  0.040932 )

     PseudoPot. # 1 for Rh read from file:
     /afs/slac.stanford.edu/u/if/mamunm/psp/gbrv1.5pbe/Rh.UPF
     MD5 check sum: 761627e959a2e3a1f56b0b5fe687810e
     Pseudo is Ultrasoft + core correction, Zval = 15.0
     Generated by new atomic code, or converted to UPF format
     Using radial grid of  969 points,  7 beta functions with:
                l(1) =   0
                l(2) =   0
                l(3) =   1
                l(4) =   1
                l(5) =   2
                l(6) =   2
                l(7) =   2
     Q(r) pseudized with  8 coefficients,  rinner =    1.200   1.200   1.200
                                                       1.200   1.200

     PseudoPot. # 2 for O  read from file:
     /afs/slac.stanford.edu/u/if/mamunm/psp/gbrv1.5pbe/O.UPF
     MD5 check sum: 734c27235a0248c51dbae37a1fbe46ec
     Pseudo is Ultrasoft + core correction, Zval =  6.0
     Generated by new atomic code, or converted to UPF format
     Using radial grid of  737 points,  5 beta functions with:
                l(1) =   0
                l(2) =   0
                l(3) =   1
                l(4) =   1
                l(5) =   2
     Q(r) pseudized with  8 coefficients,  rinner =    0.900   0.900   0.900
                                                       0.900   0.900

     vdW kernel table read from file vdW_kernel_table
     MD5 check sum: 095c7af220d748ca6e76c0b4c6cfb241

     atomic species   valence    mass     pseudopotential
        Rh1           15.00   102.90550     Rh( 1.00)
        O1             6.00    15.99900     O ( 1.00)

     No symmetry found

   Cartesian axes

     site n.     atom                  positions (alat units)
         1           Rh1 tau(   1) = (   1.3566875   0.7832839  10.0000000  )
         2           Rh1 tau(   2) = (   4.0700625   0.7832839  10.0000000  )
         3           Rh1 tau(   3) = (   2.7133750   3.1331356  10.0000000  )
         4           Rh1 tau(   4) = (   5.4267500   3.1331356  10.0000000  )
         5           Rh1 tau(   5) = (   5.4267500   1.5665678  12.2154614  )
         6           Rh1 tau(   6) = (   2.7133750   1.5665678  12.2154614  )
         7           Rh1 tau(   7) = (   6.7834375   3.9164194  12.2154614  )
         8           Rh1 tau(   8) = (   4.0700625   3.9164194  12.2154614  )
         9           Rh1 tau(   9) = (   0.0000000   0.0000000  14.4309228  )
        10           Rh1 tau(  10) = (   2.7133750   0.0000000  14.4309228  )
        11           Rh1 tau(  11) = (   1.3566875   2.3498517  14.4309228  )
        12           Rh1 tau(  12) = (   4.0700625   2.3498517  14.4309228  )
        13           O1  tau(  13) = (   1.3566875   0.7832839  16.5109228  )

     number of k points=    20  Fermi-Dirac smearing, width (Ry)=  0.0110
                       cart. coord. in units 2pi/alat
        k(    1) = (   0.0000000   0.0000000   0.0000000), wk =   0.0555556
        k(    2) = (   0.0000000   0.0354632   0.0000000), wk =   0.1111111
        k(    3) = (   0.0000000   0.0709265   0.0000000), wk =   0.1111111
        k(    4) = (   0.0000000  -0.1063897   0.0000000), wk =   0.0555556
        k(    5) = (   0.0307121  -0.0177316   0.0000000), wk =   0.1111111
        k(    6) = (   0.0307121   0.0177316   0.0000000), wk =   0.1111111
        k(    7) = (   0.0307121   0.0531948   0.0000000), wk =   0.1111111
        k(    8) = (   0.0307121  -0.1241213   0.0000000), wk =   0.1111111
        k(    9) = (   0.0307121  -0.0886581   0.0000000), wk =   0.1111111
        k(   10) = (   0.0307121  -0.0531948   0.0000000), wk =   0.1111111
        k(   11) = (   0.0614241  -0.0354632   0.0000000), wk =   0.1111111
        k(   12) = (   0.0614241   0.0000000   0.0000000), wk =   0.1111111
        k(   13) = (   0.0614241   0.0354632   0.0000000), wk =   0.1111111
        k(   14) = (   0.0614241  -0.1418529   0.0000000), wk =   0.1111111
        k(   15) = (   0.0614241  -0.1063897   0.0000000), wk =   0.1111111
        k(   16) = (   0.0614241  -0.0709265   0.0000000), wk =   0.1111111
        k(   17) = (  -0.0921362   0.0531948   0.0000000), wk =   0.0555556
        k(   18) = (  -0.0921362   0.0886581   0.0000000), wk =   0.1111111
        k(   19) = (  -0.0921362   0.1241213   0.0000000), wk =   0.1111111
        k(   20) = (  -0.0921362  -0.0531948   0.0000000), wk =   0.0555556

     Largest allocated arrays     est. size (Mb)     dimensions
     Largest temporary arrays     est. size (Mb)     dimensions

     Initial potential from superposition of free atoms
     Check: negative starting charge=   -0.653012

     starting charge  179.99882, renormalised to  186.00000

     negative rho (up, down):  6.748E-01 0.000E+00

     *
     * You are using vdW-DF for exchange-correlation in this calculation.
     * Please cite the following three references that made this development
     * possible:
     *
     *   M. Dion, H. Rydberg, E. Schroder, D. C. Langreth, and
     *   B. I. Lundqvist, Phys. Rev. Lett. 92, 246401 (2004).
     *
     *   T. Thonhauser, V. R. Cooper, S. Li, A. Puzder, P. Hyldgaard, and
     *   D. C. Langreth, Phys. Rev. B 76, 125112 (2007).
     *
     *   G. Roman-Perez and J. M. Soler, Phys. Rev. Lett. 103, 096102 (2009).
     *
     *
     * If you are using vdW-DF2, please also cite:
     *
     *   K. Lee, E. D. Murray, L. Kong, B. I. Lundqvist, and
     *   D. C. Langreth, Phys. Rev. B 82, 081101(R) (2010).
     *
     *
     * If you are calculating the stress with vdW-DF, please also cite:
     *
     *   R. Sabatini, E. Kucukbenli, B. Kolb, T. Thonhauser, and
     *   S. de Gironcoli, J. Phys.: Condens. Matter 24, 424209 (2012).
     *

     Carrying out vdW-DF run using the following parameters:

     Nqs =      20    Nr_points =    1024   r_max =   100.000
     q_mesh =
               0.00001000     0.04494208     0.09755937     0.15916263
               0.23128650     0.31572767     0.41458969     0.53033537
               0.66584808     0.82450364     1.01025438     1.22772762
               1.48234092     1.78043706     2.12944203     2.53805004
               3.01644009     3.57652955     4.23227104     5.00000000

     Gradients computed in reciprocal space

     Adding external electric field

     Computed dipole along edir(3) :
        Dipole               -1.6238 Ry au,         -4.1272 Debye
        Dipole field         -0.0049 Ry au

        Potential amp.        0.4369 Ry
        Total length         45.0136 bohr

     Starting wfc are  148 randomized atomic wfcs

     Self-consistent Calculation

     iteration #  1     ecut=    36.75 Ry     beta=0.30
     Davidson diagonalization with overlap
     ethr =  1.00E-02,  avg # of iterations =  2.0

[...]

     total energy              =   -2049.32066057 Ry
     Harris-Foulkes estimate   =   -2099.86011808 Ry
     estimated scf accuracy    <     104.03347713 Ry

[...]

     End of self-consistent calculation

          k = 0.0000 0.0000 0.0000 ( 15785 PWs)   bands (ev):

   -46.1599 -46.1598 -46.1558 -46.0370 -45.9746 -45.9745 -45.9743 -45.8114
   -45.7923 -45.7741 -45.7740 -45.7524 -45.7523 -45.6733 -45.6731 -45.6590
   -45.6416 -45.6416 -45.4983 -45.4982 -45.4840 -45.4583 -45.4096 -45.4095
   -45.3397 -45.3378 -45.3377 -45.2926 -45.2791 -45.2790 -45.2533 -45.2396
   -45.2393 -45.2390 -45.2186 -45.2186 -14.7761  -5.7932  -4.5574  -4.5481
    -4.5481  -4.5020  -4.3702  -4.2633  -4.2632  -4.2565  -4.0615  -4.0240
    -4.0239  -3.7313  -3.7138  -3.7137  -2.6593  -2.5954  -2.5953  -2.1477
    -2.1477  -2.1465  -1.9519  -1.8576  -1.8576  -1.5531  -1.5531  -1.4660
    -1.4569  -1.4569  -1.4511  -1.3131  -1.3131  -0.8425  -0.8424  -0.7588
    -0.3903  -0.2411  -0.2410  -0.0098   0.0354   0.0354   0.0820   0.0820
     0.4340   0.4341   0.4694   0.6298   0.6298   1.1131   1.1235   1.1379
     1.1379   1.2588   1.2588   1.3758   1.3759   1.4429   1.4949   1.5180
     1.5181   1.7950   1.8394   1.8394   1.9147   1.9169   1.9170

[...]

          k =-0.0921 0.0532 0.0000 ( 15852 PWs)   bands (ev):

[...]

     the Fermi energy is     0.9094 ev

!    total energy              =   -2098.76715700 Ry
     Harris-Foulkes estimate   =   -2098.76715582 Ry
     estimated scf accuracy    <       0.00000245 Ry

     The total energy is the sum of the following terms:

     one-electron contribution =  -19477.33186018 Ry
     hartree contribution      =    9778.53232783 Ry
     xc contribution           =    -379.30606766 Ry
     ewald contribution        =    7979.46177818 Ry
     electric field correction =       0.00118008 Ry
     smearing contrib. (-TS)   =      -0.12451526 Ry

     convergence has been achieved in  23 iterations

 BEEF-vdW xc energy contributions
           1 :   -330.186099253122
           2 :    302.847322344258
           3 :   -255.755882803527
           4 :    200.790093054579
           5 :   -149.715036668224
           6 :    110.589094628411
           7 :   -86.0220988789127
           8 :    73.5988091155127
           9 :   -67.9852507016860
          10 :    63.6524879783772
          11 :   -57.0548681390558
          12 :    47.4845408467722
          13 :   -36.5321004143011
          14 :    26.6948658129770
          15 :   -19.9075533897881
[...]

[...]

   This run was terminated on:   6:11: 2  17Jan2018

[...]

     Program PWSCF v.5.1rc2 (svn rev. 11289) starts on 17Jan2018 at  6:11: 8

[...]

     Total force =     0.086311     Total SCF correction =     0.008609

[...]

     Program PWSCF v.5.1rc2 (svn rev. 11289) starts on 17Jan2018 at  6:45: 3

[...]

   This run was terminated on:   7: 2:29  17Jan2018

[...]

     Program PWSCF v.5.1rc2 (svn rev. 11289) starts on 17Jan2018 at  7: 2:36

[...]

     Program PWSCF v.5.1rc2 (svn rev. 11289) starts on 17Jan2018 at  7:35:27

     Current dimensions of program PWSCF are:
     Max number of different atomic species (ntypx) = 10
     Max number of k-points (npk) =  40000
     Max angular momentum in pseudopotentials (lmaxx) =  3
     Presently stress not available with electric field

     IMPORTANT: XC functional enforced from input :
     Exchange-correlation      = BEEF-VDW ( 1  4 27 13 2)
     Any further DFT definition will be discarded
     Please, verify this is what you really want

     Subspace diagonalization in iterative solution of the eigenvalue problem:
     a serial algorithm will be used

     bravais-lattice index     =            0
     lattice parameter (alat)  =       1.8897  a.u.
     unit-cell volume          =    4204.8134 (a.u.)^3
     number of atoms/cell      =           13
     number of atomic types    =            2
     number of electrons       =       186.00
     number of Kohn-Sham states=          103
     kinetic-energy cutoff     =      36.7493  Ry
     charge density cutoff     =     367.4932  Ry
     convergence threshold     =      1.0E-05
     mixing beta               =       0.3000
     number of iterations used =           10  plain     mixing
     Exchange-correlation      = BEEF-VDW ( 1  4 27 13 2)
     nstep                     =           50

     celldm(1)=   1.889726  celldm(2)=   0.000000  celldm(3)=   0.000000
     celldm(4)=   0.000000  celldm(5)=   0.000000  celldm(6)=   0.000000

     crystal axes: (cart. coord. in units of alat)
               a(1) = (   5.426750   0.000000   0.000000 )
               a(2) = (   2.713375   4.699703   0.000000 )
               a(3) = (   0.000000   0.000000  24.430923 )

     reciprocal axes: (cart. coord. in units 2 pi/alat)
               b(1) = (  0.184272 -0.106390  0.000000 )
               b(2) = (  0.000000  0.212779  0.000000 )
               b(3) = (  0.000000  0.000000  0.040932 )

     PseudoPot. # 1 for Rh read from file:
     /afs/slac.stanford.edu/u/if/mamunm/psp/gbrv1.5pbe/Rh.UPF
     MD5 check sum: 761627e959a2e3a1f56b0b5fe687810e
     Pseudo is Ultrasoft + core correction, Zval = 15.0
     Generated by new atomic code, or converted to UPF format
     Using radial grid of  969 points,  7 beta functions with:
                l(1) =   0
                l(2) =   0
                l(3) =   1
                l(4) =   1
                l(5) =   2
                l(6) =   2
                l(7) =   2
     Q(r) pseudized with  8 coefficients,  rinner =    1.200   1.200   1.200
                                                       1.200   1.200

     PseudoPot. # 2 for O  read from file:
     /afs/slac.stanford.edu/u/if/mamunm/psp/gbrv1.5pbe/O.UPF
     MD5 check sum: 734c27235a0248c51dbae37a1fbe46ec
     Pseudo is Ultrasoft + core correction, Zval =  6.0
     Generated by new atomic code, or converted to UPF format
     Using radial grid of  737 points,  5 beta functions with:
                l(1) =   0
                l(2) =   0
                l(3) =   1
                l(4) =   1
                l(5) =   2
     Q(r) pseudized with  8 coefficients,  rinner =    0.900   0.900   0.900
                                                       0.900   0.900

     vdW kernel table read from file vdW_kernel_table
     MD5 check sum: 095c7af220d748ca6e76c0b4c6cfb241

     atomic species   valence    mass     pseudopotential
        Rh1           15.00   102.90550     Rh( 1.00)
        O1             6.00    15.99900     O ( 1.00)

     No symmetry found

   Cartesian axes

     site n.     atom                  positions (alat units)
         1           Rh1 tau(   1) = (   1.3566875   0.7832839  10.0000000  )
         2           Rh1 tau(   2) = (   4.0700625   0.7832839  10.0000000  )
         3           Rh1 tau(   3) = (   2.7133750   3.1331356  10.0000000  )
         4           Rh1 tau(   4) = (   5.4267500   3.1331356  10.0000000  )
         5           Rh1 tau(   5) = (   5.4267500   1.5665678  12.2154614  )
         6           Rh1 tau(   6) = (   2.7133750   1.5665678  12.2154614  )
         7           Rh1 tau(   7) = (   6.7834375   3.9164194  12.2154614  )
         8           Rh1 tau(   8) = (   4.0700625   3.9164194  12.2154614  )
         9           Rh1 tau(   9) = (   8.1109812   4.6828746  14.4670028  )
        10           Rh1 tau(  10) = (   5.4560196   4.6827931  14.4669456  )
        11           Rh1 tau(  11) = (   6.7834362   2.3836186  14.4669581  )
        12           Rh1 tau(  12) = (   4.0700547   2.3498821  14.3980833  )
        13           O1  tau(  13) = (   1.3567362   0.7833103  15.7063048  )

     number of k points=    20  Fermi-Dirac smearing, width (Ry)=  0.0110
                       cart. coord. in units 2pi/alat
        k(    1) = (   0.0000000   0.0000000   0.0000000), wk =   0.0555556
        k(    2) = (   0.0000000   0.0354632   0.0000000), wk =   0.1111111
        k(    3) = (   0.0000000   0.0709265   0.0000000), wk =   0.1111111
        k(    4) = (   0.0000000  -0.1063897   0.0000000), wk =   0.0555556
        k(    5) = (   0.0307121  -0.0177316   0.0000000), wk =   0.1111111
        k(    6) = (   0.0307121   0.0177316   0.0000000), wk =   0.1111111
        k(    7) = (   0.0307121   0.0531948   0.0000000), wk =   0.1111111
        k(    8) = (   0.0307121  -0.1241213   0.0000000), wk =   0.1111111
        k(    9) = (   0.0307121  -0.0886581   0.0000000), wk =   0.1111111
        k(   10) = (   0.0307121  -0.0531948   0.0000000), wk =   0.1111111
        k(   11) = (   0.0614241  -0.0354632   0.0000000), wk =   0.1111111
        k(   12) = (   0.0614241   0.0000000   0.0000000), wk =   0.1111111
        k(   13) = (   0.0614241   0.0354632   0.0000000), wk =   0.1111111
        k(   14) = (   0.0614241  -0.1418529   0.0000000), wk =   0.1111111
        k(   15) = (   0.0614241  -0.1063897   0.0000000), wk =   0.1111111
        k(   16) = (   0.0614241  -0.0709265   0.0000000), wk =   0.1111111
        k(   17) = (  -0.0921362   0.0531948   0.0000000), wk =   0.0555556
        k(   18) = (  -0.0921362   0.0886581   0.0000000), wk =   0.1111111
        k(   19) = (  -0.0921362   0.1241213   0.0000000), wk =   0.1111111
        k(   20) = (  -0.0921362  -0.0531948   0.0000000), wk =   0.0555556

     Largest allocated arrays     est. size (Mb)     dimensions
     Largest temporary arrays     est. size (Mb)     dimensions

     Initial potential from superposition of free atoms
     Check: negative starting charge=   -0.658964

     starting charge  179.99882, renormalised to  186.00000

[...]

     *
     * You are using vdW-DF for exchange-correlation in this calculation.
     * Please cite the following three references that made this development
     * possible:
     *
     *   M. Dion, H. Rydberg, E. Schroder, D. C. Langreth, and
     *   B. I. Lundqvist, Phys. Rev. Lett. 92, 246401 (2004).
     *
     *   T. Thonhauser, V. R. Cooper, S. Li, A. Puzder, P. Hyldgaard, and
     *   D. C. Langreth, Phys. Rev. B 76, 125112 (2007).
     *
     *   G. Roman-Perez and J. M. Soler, Phys. Rev. Lett. 103, 096102 (2009).
     *
     *
     * If you are using vdW-DF2, please also cite:
     *
     *   K. Lee, E. D. Murray, L. Kong, B. I. Lundqvist, and
     *   D. C. Langreth, Phys. Rev. B 82, 081101(R) (2010).
     *
     *
     * If you are calculating the stress with vdW-DF, please also cite:
     *
     *   R. Sabatini, E. Kucukbenli, B. Kolb, T. Thonhauser, and
     *   S. de Gironcoli, J. Phys.: Condens. Matter 24, 424209 (2012).
     *

     Carrying out vdW-DF run using the following parameters:

     Nqs =      20    Nr_points =    1024   r_max =   100.000
     q_mesh =
               0.00001000     0.04494208     0.09755937     0.15916263
               0.23128650     0.31572767     0.41458969     0.53033537
               0.66584808     0.82450364     1.01025438     1.22772762
               1.48234092     1.78043706     2.12944203     2.53805004
               3.01644009     3.57652955     4.23227104     5.00000000

     Gradients computed in reciprocal space

[...]

     Starting wfc are  148 randomized atomic wfcs

     Self-consistent Calculation

[...]

     total energy              =   -2098.93192153 Ry
     Harris-Foulkes estimate   =   -2098.93192801 Ry
     estimated scf accuracy    <       0.00002853 Ry

     iteration # 23     ecut=    36.75 Ry     beta=0.30
     Davidson diagonalization with overlap
     ethr =  1.53E-08,  avg # of iterations =  1.6

[...]

     negative rho (up, down):  6.940E-01 0.000E+00

     Adding external electric field

     Computed dipole along edir(3) :
        Dipole               -0.1793 Ry au,         -0.4557 Debye
        Dipole field         -0.0005 Ry au

        Potential amp.        0.0482 Ry
        Total length         45.0136 bohr

     End of self-consistent calculation

[...]

          k = 0.0614-0.0709 0.0000 ( 15838 PWs)   bands (ev):

[...]

          k =-0.0921-0.0532 0.0000 ( 15852 PWs)   bands (ev):

   -45.5160 -45.3766 -45.3719 -45.3374 -45.2834 -45.2715 -45.2556 -45.2339
   -45.2184 -45.2071 -45.1850 -45.0953 -45.0835 -45.0650 -45.0478 -45.0156
   -44.9846 -44.9319 -44.9235 -44.9197 -44.9040 -44.8866 -44.8528 -44.7939
   -44.7929 -44.7642 -44.7594 -44.7098 -44.6396 -44.6166 -44.6112 -44.6055
   -44.5937 -44.5804 -44.5779 -44.5658 -17.1999  -4.3703  -3.7668  -3.7533
    -3.5893  -3.4751  -3.0736  -2.9836  -2.9593  -2.9221  -2.7549  -2.7237
    -2.6100  -2.5132  -2.4424  -2.4268  -2.3046  -2.1716  -2.1039  -2.0157
    -1.7810  -1.7231  -1.6201  -1.6166  -1.5917  -1.4663  -1.2535  -1.1863
    -0.9309  -0.8767  -0.7041  -0.6909  -0.6685  -0.6099  -0.5408  -0.4348
    -0.4315  -0.4095  -0.3867  -0.3329  -0.2973  -0.0921   0.0408   0.1331
     0.1368   0.2810   0.3272   0.3813   0.5130   0.5574   0.6234   0.6908
     0.7568   0.8214   1.0332   1.1203   1.1396   1.2766   1.4795   1.5711
     1.7810   1.8172   1.8764   1.9751   2.2025   2.4396   2.5475

     the Fermi energy is     1.5766 ev

!    total energy              =   -2098.93191703 Ry
     Harris-Foulkes estimate   =   -2098.93191627 Ry
     estimated scf accuracy    <       0.00000788 Ry

     The total energy is the sum of the following terms:

     one-electron contribution =  -19736.27557793 Ry
     hartree contribution      =    9911.17947285 Ry
     xc contribution           =    -379.66426391 Ry
     ewald contribution        =    8105.95219834 Ry
     electric field correction =       0.00009608 Ry
     smearing contrib. (-TS)   =      -0.12384245 Ry

     convergence has been achieved in  23 iterations

 BEEF-vdW xc energy contributions
           1 :   -330.574878962318
           2 :    303.412119537908
           3 :   -256.483482046061
           4 :    201.485716950045
           5 :   -150.149633061838
           6 :    110.641879506466
           7 :   -85.7402248984408
           8 :    73.1604201935990
           9 :   -67.6006878889024
          10 :    63.4635647223739
          11 :   -57.0841458071080
          12 :    47.6560287934092
          13 :   -36.7380610205295
          14 :    26.8575418477078
          15 :   -20.0052012233495
          16 :    16.7041555628022
          17 :   -15.9650989364511
          18 :    15.9883273731722
          19 :   -15.1535613800547
          20 :    12.7686679601605
          21 :   -9.24011111072616
          22 :    5.66656930462921
          23 :   -3.14734946490495
          24 :    2.19196114332567
          25 :   -2.51559853530392
          26 :    3.27357757165919
          27 :   -3.55951716880674
          28 :    2.88272805264916
          29 :   -1.37953102340884
          30 :  -0.328954333599711
          31 :   -32.7506217828054
          32 :   -24.5253956083843

     Forces acting on atoms (Ry/au):

     negative rho (up, down):  6.940E-01 0.000E+00
     atom    1 type  1   force =    -0.00002309    0.00003210    0.00739241
     atom    2 type  1   force =     0.00001596    0.00472739    0.00727288
     atom    3 type  1   force =     0.00403495   -0.00234560    0.00727647
     atom    4 type  1   force =    -0.00404026   -0.00236164    0.00729499
     atom    5 type  1   force =    -0.00186359    0.00108679   -0.01145628
     atom    6 type  1   force =     0.00186333    0.00108024   -0.01147962
     atom    7 type  1   force =     0.00000005   -0.00000769    0.00675724
     atom    8 type  1   force =    -0.00000388   -0.00217745   -0.01148838
     atom    9 type  1   force =     0.00016597    0.00013483   -0.00072243
     atom   10 type  1   force =    -0.00019460    0.00013961   -0.00070832
     atom   11 type  1   force =     0.00000416   -0.00027512   -0.00069905
     atom   12 type  1   force =     0.00000955   -0.00002638   -0.00064830
     atom   13 type  2   force =     0.00003147   -0.00000707    0.00120839

     Total force =     0.027167     Total SCF correction =     0.013305
     SCF correction compared to forces is large: reduce conv_thr to get better values

     entering subroutine stress ...

     negative rho (up, down):  6.940E-01 0.000E+00
          total   stress  (Ry/bohr**3)                   (kbar)     P=  -29.35
  -0.00020535  -0.00000000   0.00000000        -30.21     -0.00      0.00
  -0.00000000  -0.00020529  -0.00000002         -0.00    -30.20     -0.00
   0.00000000  -0.00000002  -0.00018786          0.00     -0.00    -27.64

 !ASE

     Writing output data file calc.save

     General routines

     Parallel routines

   This run was terminated on:   7:51:17  17Jan2018

   JOB DONE.
Job  /afs/slac/g/suncat/bin/suncat-tsmpirun -x LD_LIBRARY_PATH -wdir /scratch/qe842475_VpfHv pw.x -in pw.inp

TID   HOST_NAME   COMMAND_LINE            STATUS            TERMINATION_TIME
00000 suncat0273 pw.x -in pw.inp   Done                     01/17/2018 07:51:17
00001 suncat0273 pw.x -in pw.inp   Done                     01/17/2018 07:51:17
00002 suncat0273 pw.x -in pw.inp   Done                     01/17/2018 07:51:17
00003 suncat0273 pw.x -in pw.inp   Done                     01/17/2018 07:51:17
00004 suncat0273 pw.x -in pw.inp   Done                     01/17/2018 07:51:17
00005 suncat0273 pw.x -in pw.inp   Done                     01/17/2018 07:51:17
00006 suncat0273 pw.x -in pw.inp   Done                     01/17/2018 07:51:17
00007 suncat0273 pw.x -in pw.inp   Done                     01/17/2018 07:51:17
00008 suncat0268 pw.x -in pw.inp   Done                     01/17/2018 07:51:17
00009 suncat0268 pw.x -in pw.inp   Done                     01/17/2018 07:51:17
00010 suncat0268 pw.x -in pw.inp   Done                     01/17/2018 07:51:17
00011 suncat0268 pw.x -in pw.inp   Done                     01/17/2018 07:51:17
00012 suncat0268 pw.x -in pw.inp   Done                     01/17/2018 07:51:17
00013 suncat0268 pw.x -in pw.inp   Done                     01/17/2018 07:51:17
00014 suncat0268 pw.x -in pw.inp   Done                     01/17/2018 07:51:17
00015 suncat0268 pw.x -in pw.inp   Done                     01/17/2018 07:51:17
00016 suncat0266 pw.x -in pw.inp   Done                     01/17/2018 07:51:17
00017 suncat0266 pw.x -in pw.inp   Done                     01/17/2018 07:51:17
00018 suncat0266 pw.x -in pw.inp   Done                     01/17/2018 07:51:17
00019 suncat0266 pw.x -in pw.inp   Done                     01/17/2018 07:51:17
00020 suncat0266 pw.x -in pw.inp   Done                     01/17/2018 07:51:17
00021 suncat0266 pw.x -in pw.inp   Done                     01/17/2018 07:51:17
00022 suncat0266 pw.x -in pw.inp   Done                     01/17/2018 07:51:17
00023 suncat0266 pw.x -in pw.inp   Done                     01/17/2018 07:51:17
00024 suncat0233 pw.x -in pw.inp   Done                     01/17/2018 07:51:17
00025 suncat0233 pw.x -in pw.inp   Done                     01/17/2018 07:51:17
00026 suncat0233 pw.x -in pw.inp   Done                     01/17/2018 07:51:17
00027 suncat0233 pw.x -in pw.inp   Done                     01/17/2018 07:51:17
00028 suncat0233 pw.x -in pw.inp   Done                     01/17/2018 07:51:17
00029 suncat0233 pw.x -in pw.inp   Done                     01/17/2018 07:51:17
00030 suncat0233 pw.x -in pw.inp   Done                     01/17/2018 07:51:17
00031 suncat0233 pw.x -in pw.inp   Done                     01/17/2018 07:51:17