     Program PWSCF v.5.1rc2 (svn rev. 11289) starts on 19Apr2018 at 10:35: 6

     Current dimensions of program PWSCF are:
     Max number of different atomic species (ntypx) = 10
     Max number of k-points (npk) =  40000
     Max angular momentum in pseudopotentials (lmaxx) =  3
     Presently stress not available with electric field

     IMPORTANT: XC functional enforced from input :
     Exchange-correlation      = BEEF-VDW ( 1  4 27 13 2)
     Any further DFT definition will be discarded
     Please, verify this is what you really want

     Subspace diagonalization in iterative solution of the eigenvalue problem:
     a serial algorithm will be used

     bravais-lattice index     =            0
     lattice parameter (alat)  =       1.8897  a.u.
     unit-cell volume          =    5182.3421 (a.u.)^3
     number of atoms/cell      =           14
     number of atomic types    =            3
     number of electrons       =       163.00
     number of Kohn-Sham states=           91
     kinetic-energy cutoff     =      36.7493  Ry
     charge density cutoff     =     367.4932  Ry
     convergence threshold     =      1.0E-05
     mixing beta               =       0.3000
     number of iterations used =           10  plain     mixing
     Exchange-correlation      = BEEF-VDW ( 1  4 27 13 2)
     nstep                     =           50

     celldm(1)=   1.889726  celldm(2)=   0.000000  celldm(3)=   0.000000
     celldm(4)=   0.000000  celldm(5)=   0.000000  celldm(6)=   0.000000

     crystal axes: (cart. coord. in units of alat)
               a(1) = (   5.970602   0.000000   0.000000 )
               a(2) = (   2.985301   5.170693   0.000000 )
               a(3) = (   0.000000   0.000000  24.874976 )

     reciprocal axes: (cart. coord. in units 2 pi/alat)
               b(1) = (  0.167487 -0.096699  0.000000 )
               b(2) = (  0.000000  0.193398  0.000000 )
               b(3) = (  0.000000  0.000000  0.040201 )

     PseudoPot. # 1 for Nb read from file:
     /u/if/mamunm/psp/gbrv1.5pbe/Nb.UPF
     MD5 check sum: 573aab8a2fa660278ed4a62cd769473f
     Pseudo is Ultrasoft + core correction, Zval = 13.0
     Generated by new atomic code, or converted to UPF format
     Using radial grid of  887 points,  6 beta functions with:
                l(1) =   0
                l(2) =   0
                l(3) =   1
                l(4) =   1
                l(5) =   2
                l(6) =   2
     Q(r) pseudized with  6 coefficients,  rinner =    1.000   1.000   1.000
                                                       1.000   1.000

     PseudoPot. # 2 for S  read from file:
     /u/if/mamunm/psp/gbrv1.5pbe/S.UPF
     MD5 check sum: 88d86576ff6df21479756cfb9bdac1df
     Pseudo is Ultrasoft + core correction, Zval =  6.0
     Generated by new atomic code, or converted to UPF format
     Using radial grid of  907 points,  6 beta functions with:
                l(1) =   0
                l(2) =   0
                l(3) =   1
                l(4) =   1
                l(5) =   2
                l(6) =   2
     Q(r) pseudized with  8 coefficients,  rinner =    1.300   1.300   1.300
                                                       1.300   1.300

     PseudoPot. # 3 for H  read from file:
     /u/if/mamunm/psp/gbrv1.5pbe/H.UPF
     MD5 check sum: 761ae9a214b05c3daf00ab9f6b793d6f
     Pseudo is Ultrasoft, Zval =  1.0
     Generated by new atomic code, or converted to UPF format
     Using radial grid of  615 points,  2 beta functions with:
                l(1) =   0
                l(2) =   0
     Q(r) pseudized with  8 coefficients,  rinner =    0.700

     vdW kernel table read from file vdW_kernel_table
     MD5 check sum: 095c7af220d748ca6e76c0b4c6cfb241

     atomic species   valence    mass     pseudopotential
        Nb1           13.00    92.90637     Nb( 1.00)
        S1             6.00    32.06000     S ( 1.00)
        H1             1.00     1.00800     H ( 1.00)

     No symmetry found

   Cartesian axes

     site n.     atom                  positions (alat units)
         1           Nb1 tau(   1) = (   1.4926504   0.8617821  10.0000000  )
         2           Nb1 tau(   2) = (   4.4779512   0.8617821  10.0000000  )
         3           Nb1 tau(   3) = (   2.9853008   3.4471284  10.0000000  )
         4           Nb1 tau(   4) = (   5.9706016   3.4471284  10.0000000  )
         5           Nb1 tau(   5) = (   5.9706016   1.7235642  12.4374879  )
         6           Nb1 tau(   6) = (   2.9853008   1.7235642  12.4374879  )
         7           Nb1 tau(   7) = (   7.4632520   4.3089105  12.4374879  )
         8           Nb1 tau(   8) = (   4.4779512   4.3089105  12.4374879  )
         9           Nb1 tau(   9) = (   0.0000000   0.0000000  14.8749758  )
        10           Nb1 tau(  10) = (   2.9853008   0.0000000  14.8749758  )
        11           Nb1 tau(  11) = (   1.4926504   2.5853463  14.8749758  )
        12           Nb1 tau(  12) = (   4.4779512   2.5853463  14.8749758  )
        13           S1  tau(  13) = (   1.4926504   0.8617821  16.6234758  )
        14           H1  tau(  14) = (   1.4926504   0.8617821  17.8734758  )

     number of k points=    20  Fermi-Dirac smearing, width (Ry)=  0.0110
                       cart. coord. in units 2pi/alat
        k(    1) = (   0.0000000   0.0000000   0.0000000), wk =   0.0555556
        k(    2) = (   0.0000000   0.0322329   0.0000000), wk =   0.1111111
        k(    3) = (   0.0000000   0.0644659   0.0000000), wk =   0.1111111
        k(    4) = (   0.0000000  -0.0966988   0.0000000), wk =   0.0555556
        k(    5) = (   0.0279146  -0.0161165   0.0000000), wk =   0.1111111
        k(    6) = (   0.0279146   0.0161165   0.0000000), wk =   0.1111111
        k(    7) = (   0.0279146   0.0483494   0.0000000), wk =   0.1111111
        k(    8) = (   0.0279146  -0.1128153   0.0000000), wk =   0.1111111
        k(    9) = (   0.0279146  -0.0805824   0.0000000), wk =   0.1111111
        k(   10) = (   0.0279146  -0.0483494   0.0000000), wk =   0.1111111
        k(   11) = (   0.0558291  -0.0322329   0.0000000), wk =   0.1111111
        k(   12) = (   0.0558291   0.0000000   0.0000000), wk =   0.1111111
        k(   13) = (   0.0558291   0.0322329   0.0000000), wk =   0.1111111
        k(   14) = (   0.0558291  -0.1289318   0.0000000), wk =   0.1111111
        k(   15) = (   0.0558291  -0.0966988   0.0000000), wk =   0.1111111
        k(   16) = (   0.0558291  -0.0644659   0.0000000), wk =   0.1111111
        k(   17) = (  -0.0837437   0.0483494   0.0000000), wk =   0.0555556
        k(   18) = (  -0.0837437   0.0805824   0.0000000), wk =   0.1111111
        k(   19) = (  -0.0837437   0.1128153   0.0000000), wk =   0.1111111
        k(   20) = (  -0.0837437  -0.0483494   0.0000000), wk =   0.0555556

     Largest allocated arrays     est. size (Mb)     dimensions
     Largest temporary arrays     est. size (Mb)     dimensions

     Initial potential from superposition of free atoms
     Check: negative starting charge=   -0.004773

     starting charge  162.96716, renormalised to  163.00000

     negative rho (up, down):  4.774E-03 0.000E+00

     *
     * You are using vdW-DF for exchange-correlation in this calculation.
     * Please cite the following three references that made this development
     * possible:
     *
     *   M. Dion, H. Rydberg, E. Schroder, D. C. Langreth, and
     *   B. I. Lundqvist, Phys. Rev. Lett. 92, 246401 (2004).
     *
     *   T. Thonhauser, V. R. Cooper, S. Li, A. Puzder, P. Hyldgaard, and
     *   D. C. Langreth, Phys. Rev. B 76, 125112 (2007).
     *
     *   G. Roman-Perez and J. M. Soler, Phys. Rev. Lett. 103, 096102 (2009).
     *
     *
     * If you are using vdW-DF2, please also cite:
     *
     *   K. Lee, E. D. Murray, L. Kong, B. I. Lundqvist, and
     *   D. C. Langreth, Phys. Rev. B 82, 081101(R) (2010).
     *
     *
     * If you are calculating the stress with vdW-DF, please also cite:
     *
     *   R. Sabatini, E. Kucukbenli, B. Kolb, T. Thonhauser, and
     *   S. de Gironcoli, J. Phys.: Condens. Matter 24, 424209 (2012).
     *

     Carrying out vdW-DF run using the following parameters:

     Nqs =      20    Nr_points =    1024   r_max =   100.000
     q_mesh =
               0.00001000     0.04494208     0.09755937     0.15916263
               0.23128650     0.31572767     0.41458969     0.53033537
               0.66584808     0.82450364     1.01025438     1.22772762
               1.48234092     1.78043706     2.12944203     2.53805004
               3.01644009     3.57652955     4.23227104     5.00000000

     Gradients computed in reciprocal space

     Adding external electric field

     Computed dipole along edir(3) :
        Dipole               -0.0113 Ry au,         -0.0286 Debye
        Dipole field         -0.0000 Ry au

        Potential amp.        0.0025 Ry
        Total length         45.8317 bohr

     Starting wfc are  161 randomized atomic wfcs

     Self-consistent Calculation

     iteration #  1     ecut=    36.75 Ry     beta=0.30
     Davidson diagonalization with overlap
     ethr =  1.00E-02,  avg # of iterations =  2.0

[...]

     total energy              =   -1445.77065455 Ry
     Harris-Foulkes estimate   =   -1448.36239571 Ry
     estimated scf accuracy    <       5.71457063 Ry

[...]

     End of self-consistent calculation

          k = 0.0000 0.0000 0.0000 ( 19435 PWs)   bands (ev):

   -52.6340 -52.5893 -52.5054 -52.4584 -52.4558 -52.4553 -52.4532 -52.4359
   -52.4356 -52.3735 -52.3732 -52.3489 -29.0759 -29.0637 -29.0636 -29.0133
   -28.9999 -28.9730 -28.9729 -28.9502 -28.9500 -28.9431 -28.6806 -28.5666
   -28.5317 -28.5314 -28.4813 -28.4811 -28.4810 -28.3662 -28.3662 -28.3430
   -28.2993 -28.2992 -28.2736 -28.2522 -28.2504 -28.2502 -28.1877 -28.1668
   -28.1667 -28.1564 -28.1171 -28.1171 -28.0822 -28.0822 -27.9942 -27.9941
   -12.6319  -5.7072  -2.8538  -2.1757  -2.1757  -1.5495  -1.1545  -1.0231
    -0.9295  -0.9294  -0.6238  -0.6237  -0.6023  -0.3255  -0.3255  -0.2773
    -0.1328  -0.0615  -0.0615   1.0005   1.0006   1.1067   1.8345   1.8843
     1.8844   2.0189   2.1974   2.6169   2.6169   2.6644   2.8271   2.8272
     2.9114   2.9114   2.9727   2.9825   2.9905   2.9905   3.0297   3.0297
     3.4427   3.8411   3.8413

[...]

          k =-0.0837 0.0483 0.0000 ( 19524 PWs)   bands (ev):

[...]

     the Fermi energy is     2.5322 ev

!    total energy              =   -1447.86372001 Ry
     Harris-Foulkes estimate   =   -1447.86372125 Ry
     estimated scf accuracy    <       0.00000243 Ry

     The total energy is the sum of the following terms:

     one-electron contribution =  -11771.82394939 Ry
     hartree contribution      =    5883.19321187 Ry
     xc contribution           =    -237.99698973 Ry
     ewald contribution        =    4678.88524811 Ry
     electric field correction =       0.00020867 Ry
     smearing contrib. (-TS)   =      -0.12144954 Ry

     convergence has been achieved in  18 iterations

 BEEF-vdW xc energy contributions
           1 :   -203.967781812600
           2 :    185.263609467796
           3 :   -153.393395495689
           4 :    116.885712602043
           5 :   -83.9328255944916
           6 :    59.7054646547117
           7 :   -45.2502712824959
           8 :    38.1143150090403
           9 :   -34.1945466537694
          10 :    29.8152885455370
          11 :   -23.1392562634041
          12 :    14.4409009055752
          13 :   -5.38388323763795
          14 :   -2.16840619599864
          15 :    7.16127755264600
          16 :   -9.75075841790789
          17 :    11.0094015934730
          18 :   -12.2066761644195
          19 :    14.0904725974782
          20 :   -16.5506465089188
          21 :    18.7879666818714
          22 :   -19.8416981562682
          23 :    19.1483603903273
          24 :   -16.8370176043295
          25 :    13.6349305217790
          26 :   -10.4821606737502
          27 :    8.08332551489852
          28 :   -6.63442062573529
          29 :    5.83770428080533
          30 :   -5.16377781140071
          31 :   -23.5929546441953
          32 :   -17.7825190384564

     Forces acting on atoms (Ry/au):

     negative rho (up, down):  4.527E-03 0.000E+00
     atom    1 type  1   force =     0.00001701   -0.00000243   -0.00818418
     atom    2 type  1   force =    -0.00001532    0.00164628   -0.00578686
     atom    3 type  1   force =     0.00142480   -0.00082779   -0.00575401
     atom    4 type  1   force =    -0.00142624   -0.00081207   -0.00580279
     atom    5 type  1   force =     0.00254966   -0.00148849   -0.00187607
     atom    6 type  1   force =    -0.00255752   -0.00145316   -0.00188979
     atom    7 type  1   force =     0.00003030   -0.00000490   -0.01456562
     atom    8 type  1   force =    -0.00003047    0.00294325   -0.00188638
     atom    9 type  1   force =    -0.03191748   -0.01844209    0.01767150
     atom   10 type  1   force =     0.03191719   -0.01841568    0.01765688
     atom   11 type  1   force =     0.00002253    0.03685721    0.01766734
     atom   12 type  1   force =    -0.00001676    0.00000030   -0.02530749
     atom   13 type  2   force =     0.00000268   -0.00000033   -0.11980195
     atom   14 type  3   force =    -0.00000038   -0.00000012    0.13785942

     Total force =     0.197508     Total SCF correction =     0.005123

     entering subroutine stress ...

     negative rho (up, down):  4.527E-03 0.000E+00
          total   stress  (Ry/bohr**3)                   (kbar)     P=  -12.19
  -0.00019029   0.00000000   0.00000001        -27.99      0.00      0.00
   0.00000000  -0.00019029   0.00000000          0.00    -27.99      0.00
   0.00000001   0.00000000   0.00013194          0.00      0.00     19.41

     BFGS Geometry Optimization

     number of scf cycles    =   1
     number of bfgs steps    =   0

     energy   new            =   -1447.8637200099 Ry

     new trust radius        =       0.1378594189 bohr
     new conv_thr            =       0.0000099958 Ry

ATOMIC_POSITIONS (crystal)
Nb1      0.166666667   0.166666667   0.402010442    0   0   0
Nb1      0.666666667   0.166666667   0.402010442    0   0   0
Nb1      0.166666667   0.666666667   0.402010442    0   0   0
Nb1      0.666666667   0.666666667   0.402010442    0   0   0
Nb1      0.833333333   0.333333333   0.500000000    0   0   0
Nb1      0.333333333   0.333333333   0.500000000    0   0   0
Nb1      0.833333333   0.833333333   0.500000000    0   0   0
Nb1      0.333333333   0.833333333   0.500000000    0   0   0
Nb1     -0.001885165  -0.001887394   0.598365492
Nb1      0.503771181  -0.001884691   0.598365181
Nb1     -0.001884017   0.503772028   0.598365404
Nb1      0.499998499   0.500000031   0.597451180
S1       0.166666921   0.166666633   0.665732480
H1       0.166666639   0.166666655   0.721465138

     Writing output data file calc.save
     Check: negative starting charge=   -0.004773
     NEW-OLD atomic charge density approx. for the potential
     Check: negative starting charge=   -0.004756

[...]

     energy   old            =   -1447.8637200099 Ry
     energy   new            =   -1447.8805311516 Ry

     CASE: energy  _new < energy  _old

[...]

     Total force =     0.007967     Total SCF correction =     0.000290

[...]

     Total force =     0.003119     Total SCF correction =     0.000443
     SCF correction compared to forces is large: reduce conv_thr to get better values

[...]

     number of scf cycles    =  13
     number of bfgs steps    =  12

     energy   old            =   -1447.9085275446 Ry
     energy   new            =   -1447.9086203170 Ry

     CASE: energy  _new < energy  _old

     new trust radius        =       0.0041209532 bohr
     new conv_thr            =       0.0000001000 Ry

ATOMIC_POSITIONS (crystal)
Nb1      0.166666667   0.166666667   0.402010442    0   0   0
Nb1      0.666666667   0.166666667   0.402010442    0   0   0
Nb1      0.166666667   0.666666667   0.402010442    0   0   0
Nb1      0.666666667   0.666666667   0.402010442    0   0   0
Nb1      0.833333333   0.333333333   0.500000000    0   0   0
Nb1      0.333333333   0.333333333   0.500000000    0   0   0
Nb1      0.833333333   0.833333333   0.500000000    0   0   0
Nb1      0.333333333   0.833333333   0.500000000    0   0   0
Nb1     -0.008293916  -0.008289193   0.603418210
Nb1      0.516582743  -0.008290445   0.603418100
Nb1     -0.008293368   0.516585340   0.603418161
Nb1      0.499997639   0.499998663   0.583252690
S1       0.166667137   0.166667920   0.672893090
H1       0.166666856   0.166666967   0.727949928

     Writing output data file calc.save
     Check: negative starting charge=   -0.004712
     NEW-OLD atomic charge density approx. for the potential
     Check: negative starting charge=   -0.004710

[...]

     Self-consistent Calculation

[...]

     Threshold (ethr) on eigenvalues was too large:
     Diagonalizing with lowered threshold

     Davidson diagonalization with overlap
     ethr =  8.85E-09,  avg # of iterations =  6.6

[...]

     total energy              =   -1447.90863277 Ry
     Harris-Foulkes estimate   =   -1447.90863293 Ry
     estimated scf accuracy    <       0.00000074 Ry

     iteration #  9     ecut=    36.75 Ry     beta=0.30
     Davidson diagonalization with overlap
     ethr =  4.46E-10,  avg # of iterations =  2.8

[...]

     negative rho (up, down):  4.500E-03 0.000E+00

     Adding external electric field

     Computed dipole along edir(3) :
        Dipole                0.2586 Ry au,          0.6574 Debye
        Dipole field          0.0006 Ry au

        Potential amp.       -0.0575 Ry
        Total length         45.8317 bohr

     End of self-consistent calculation

[...]

          k = 0.0558-0.0645 0.0000 ( 19505 PWs)   bands (ev):

[...]

          k =-0.0837-0.0483 0.0000 ( 19524 PWs)   bands (ev):

   -52.6328 -52.5831 -52.5802 -52.5670 -52.5418 -52.5106 -52.5089 -52.4867
   -52.4709 -52.4121 -52.3859 -52.2830 -29.0429 -28.9952 -28.9456 -28.9261
   -28.8991 -28.8703 -28.8568 -28.8033 -28.7900 -28.7624 -28.7328 -28.6977
   -28.6749 -28.5985 -28.5950 -28.5872 -28.5368 -28.5330 -28.5201 -28.4826
   -28.4732 -28.4290 -28.4260 -28.4151 -28.3717 -28.3378 -28.3157 -28.2853
   -28.2671 -28.2586 -28.2272 -28.1710 -28.1320 -28.1014 -28.0142 -27.9532
   -12.1343  -5.0896  -2.2061  -1.8408  -1.3844  -1.2605  -0.4712  -0.3057
    -0.1724  -0.1246  -0.0280   0.0519   0.0595   0.3602   0.4691   0.6510
     0.6576   0.7534   0.7572   0.9709   1.0636   1.2087   1.3888   1.4681
     1.4898   1.5085   1.6320   1.8163   1.8763   1.9823   2.0631   2.1222
     2.1307   2.1689   2.3100   2.5429   2.5494   2.6295   2.7219   2.9686
     3.1418   3.2149   3.2296

     the Fermi energy is     2.4723 ev

!    total energy              =   -1447.90863278 Ry
     Harris-Foulkes estimate   =   -1447.90863246 Ry
     estimated scf accuracy    <       0.00000005 Ry

     The total energy is the sum of the following terms:

     one-electron contribution =  -11709.17501255 Ry
     hartree contribution      =    5851.74605800 Ry
     xc contribution           =    -237.92374759 Ry
     ewald contribution        =    4647.55389936 Ry
     electric field correction =       0.00016221 Ry
     smearing contrib. (-TS)   =      -0.10999222 Ry

     convergence has been achieved in   9 iterations

 BEEF-vdW xc energy contributions
           1 :   -203.900117551456
           2 :    185.169053459562
           3 :   -153.260933580047
           4 :    116.719943844066
           5 :   -83.7438572576862
           6 :    59.4976203316195
           7 :   -45.0162286422367
           8 :    37.8413414084579
           9 :   -33.8806433322197
          10 :    29.4832325563618
          11 :   -22.8347030537507
          12 :    14.2095116029517
          13 :   -5.23858252999571
          14 :   -2.26593432565906
          15 :    7.28608504197550
          16 :   -9.97224111051963
          17 :    11.3476619003423
          18 :   -12.6158672709537
          19 :    14.4807880994276
          20 :   -16.8349876457896
          21 :    18.9259531959104
          22 :   -19.8576043690091
          23 :    19.1151980919855
          24 :   -16.8382947324197
          25 :    13.7243062351197
          26 :   -10.6596931894488
          27 :    8.29865641640083
          28 :   -6.81492705339960
          29 :    5.92859308719710
          30 :   -5.15975178481420
          31 :   -23.5875993571078
          32 :   -17.7667831167021

     Forces acting on atoms (Ry/au):

     negative rho (up, down):  4.500E-03 0.000E+00
     atom    1 type  1   force =     0.00000018   -0.00000037   -0.00001533
     atom    2 type  1   force =     0.00000014    0.00017701   -0.00468344
     atom    3 type  1   force =     0.00015318   -0.00008967   -0.00468538
     atom    4 type  1   force =    -0.00015293   -0.00008964   -0.00468578
     atom    5 type  1   force =     0.03052751   -0.01762705   -0.00346319
     atom    6 type  1   force =    -0.03052918   -0.01762670   -0.00346592
     atom    7 type  1   force =     0.00000081   -0.00000066    0.02152507
     atom    8 type  1   force =    -0.00000117    0.03525504   -0.00346150
     atom    9 type  1   force =    -0.00004601   -0.00003068    0.00046087
     atom   10 type  1   force =     0.00004917   -0.00003234    0.00046178
     atom   11 type  1   force =    -0.00000071    0.00006418    0.00045828
     atom   12 type  1   force =     0.00000224    0.00000492    0.00076084
     atom   13 type  2   force =    -0.00000299   -0.00000337    0.00066714
     atom   14 type  3   force =    -0.00000024   -0.00000065    0.00012657

     Total force =     0.001299     Total SCF correction =     0.000338
     SCF correction compared to forces is large: reduce conv_thr to get better values

     entering subroutine stress ...

     negative rho (up, down):  4.500E-03 0.000E+00
          total   stress  (Ry/bohr**3)                   (kbar)     P=  -16.53
  -0.00017558   0.00000000  -0.00000000        -25.83      0.00     -0.00
   0.00000000  -0.00017558   0.00000000          0.00    -25.83      0.00
  -0.00000000   0.00000000   0.00001404         -0.00      0.00      2.07

     bfgs converged in  14 scf cycles and  13 bfgs steps
     (criteria: energy <  1.0E+00, force <  1.9E-03)

     End of BFGS Geometry Optimization

     Final energy   =   -1447.9086327797 Ry
Begin final coordinates

ATOMIC_POSITIONS (crystal)
Nb1      0.166666667   0.166666667   0.402010442    0   0   0
Nb1      0.666666667   0.166666667   0.402010442    0   0   0
Nb1      0.166666667   0.666666667   0.402010442    0   0   0
Nb1      0.666666667   0.666666667   0.402010442    0   0   0
Nb1      0.833333333   0.333333333   0.500000000    0   0   0
Nb1      0.333333333   0.333333333   0.500000000    0   0   0
Nb1      0.833333333   0.833333333   0.500000000    0   0   0
Nb1      0.333333333   0.833333333   0.500000000    0   0   0
Nb1     -0.008293916  -0.008289193   0.603418210
Nb1      0.516582743  -0.008290445   0.603418100
Nb1     -0.008293368   0.516585340   0.603418161
Nb1      0.499997639   0.499998663   0.583252690
S1       0.166667137   0.166667920   0.672893090
H1       0.166666856   0.166666967   0.727949928
End final coordinates

     Writing output data file calc.save

     General routines

     Parallel routines

   This run was terminated on:  12:21:16  19Apr2018

   JOB DONE.
Job  /afs/slac/g/suncat/bin/suncat-tsmpirun -x LD_LIBRARY_PATH -wdir /scratch/qe814077_4puye pw.x -npool 4 -in pw.inp

TID   HOST_NAME   COMMAND_LINE            STATUS            TERMINATION_TIME
00000 suncat0070 pw.x -npool 4 -i  Done                     04/19/2018 12:21:16
00001 suncat0070 pw.x -npool 4 -i  Done                     04/19/2018 12:21:16
00002 suncat0070 pw.x -npool 4 -i  Done                     04/19/2018 12:21:16
00003 suncat0070 pw.x -npool 4 -i  Done                     04/19/2018 12:21:16
00004 suncat0070 pw.x -npool 4 -i  Done                     04/19/2018 12:21:16
00005 suncat0070 pw.x -npool 4 -i  Done                     04/19/2018 12:21:16
00006 suncat0070 pw.x -npool 4 -i  Done                     04/19/2018 12:21:16
00007 suncat0070 pw.x -npool 4 -i  Done                     04/19/2018 12:21:16
00008 suncat0060 pw.x -npool 4 -i  Done                     04/19/2018 12:21:16
00009 suncat0060 pw.x -npool 4 -i  Done                     04/19/2018 12:21:16
00010 suncat0060 pw.x -npool 4 -i  Done                     04/19/2018 12:21:16
00011 suncat0060 pw.x -npool 4 -i  Done                     04/19/2018 12:21:16
00012 suncat0060 pw.x -npool 4 -i  Done                     04/19/2018 12:21:16
00013 suncat0060 pw.x -npool 4 -i  Done                     04/19/2018 12:21:16
00014 suncat0060 pw.x -npool 4 -i  Done                     04/19/2018 12:21:16
00015 suncat0060 pw.x -npool 4 -i  Done                     04/19/2018 12:21:16
00016 suncat0165 pw.x -npool 4 -i  Done                     04/19/2018 12:21:16
00017 suncat0165 pw.x -npool 4 -i  Done                     04/19/2018 12:21:16
00018 suncat0165 pw.x -npool 4 -i  Done                     04/19/2018 12:21:16
00019 suncat0165 pw.x -npool 4 -i  Done                     04/19/2018 12:21:16
00020 suncat0165 pw.x -npool 4 -i  Done                     04/19/2018 12:21:16
00021 suncat0165 pw.x -npool 4 -i  Done                     04/19/2018 12:21:16
00022 suncat0165 pw.x -npool 4 -i  Done                     04/19/2018 12:21:16
00023 suncat0165 pw.x -npool 4 -i  Done                     04/19/2018 12:21:16
00024 suncat0136 pw.x -npool 4 -i  Done                     04/19/2018 12:21:16
00025 suncat0136 pw.x -npool 4 -i  Done                     04/19/2018 12:21:16
00026 suncat0136 pw.x -npool 4 -i  Done                     04/19/2018 12:21:16
00027 suncat0136 pw.x -npool 4 -i  Done                     04/19/2018 12:21:16
00028 suncat0136 pw.x -npool 4 -i  Done                     04/19/2018 12:21:16
00029 suncat0136 pw.x -npool 4 -i  Done                     04/19/2018 12:21:16
00030 suncat0136 pw.x -npool 4 -i  Done                     04/19/2018 12:21:16
00031 suncat0136 pw.x -npool 4 -i  Done                     04/19/2018 12:21:16