     Program PWSCF v.5.1rc2 (svn rev. 11289) starts on 12Jan2019 at  0:57:59

     Current dimensions of program PWSCF are:
     Max number of different atomic species (ntypx) = 10
     Max number of k-points (npk) =  40000
     Max angular momentum in pseudopotentials (lmaxx) =  3

     IMPORTANT: XC functional enforced from input :
     Exchange-correlation      = BEEF-VDW ( 1  4 27 13 2)
     Any further DFT definition will be discarded
     Please, verify this is what you really want

     Subspace diagonalization in iterative solution of the eigenvalue problem:
     a serial algorithm will be used

     bravais-lattice index     =            0
     lattice parameter (alat)  =      12.6383  a.u.
     unit-cell volume          =    6655.4372 (a.u.)^3
     number of atoms/cell      =           13
     number of atomic types    =            2
     number of electrons       =       162.00
     number of Kohn-Sham states=           91
     kinetic-energy cutoff     =      36.7493  Ry
     charge density cutoff     =     367.4933  Ry
     convergence threshold     =      1.0E-04
     mixing beta               =       0.2000
     number of iterations used =            8  plain     mixing
     Exchange-correlation      = BEEF-VDW ( 1  4 27 13 2)
     nstep                     =           50

     celldm(1)=  12.638304  celldm(2)=   0.000000  celldm(3)=   0.000000
     celldm(4)=   0.000000  celldm(5)=   0.000000  celldm(6)=   0.000000

     crystal axes: (cart. coord. in units of alat)
               a(1) = (   1.000000   0.000000   0.000000 )
               a(2) = (   0.500000   0.866025   0.000000 )
               a(3) = (   0.000000   0.000000   3.806971 )

     reciprocal axes: (cart. coord. in units 2 pi/alat)
               b(1) = (  1.000000 -0.577350  0.000000 )
               b(2) = (  0.000000  1.154701  0.000000 )
               b(3) = (  0.000000  0.000000  0.262676 )

     PseudoPot. # 1 for Tl read from file:
     /u/if/jboes/code/decaf-espresso/gbrv15pbe/Tl.UPF
     MD5 check sum: b76cf1f7e72655a2b2c53cf6385d7059
     Pseudo is Ultrasoft + core correction, Zval = 13.0
     Generated by new atomic code, or converted to UPF format
     Using radial grid of  899 points,  6 beta functions with:
                l(1) =   0
                l(2) =   0
                l(3) =   1
                l(4) =   1
                l(5) =   2
                l(6) =   2
     Q(r) pseudized with  6 coefficients,  rinner =    1.100   1.100   1.100
                                                       1.100   1.100

     PseudoPot. # 2 for S  read from file:
     /u/if/jboes/code/decaf-espresso/gbrv15pbe/S.UPF
     MD5 check sum: 88d86576ff6df21479756cfb9bdac1df
     Pseudo is Ultrasoft + core correction, Zval =  6.0
     Generated by new atomic code, or converted to UPF format
     Using radial grid of  907 points,  6 beta functions with:
                l(1) =   0
                l(2) =   0
                l(3) =   1
                l(4) =   1
                l(5) =   2
                l(6) =   2
     Q(r) pseudized with  8 coefficients,  rinner =    1.300   1.300   1.300
                                                       1.300   1.300

     vdW kernel table read from file vdW_kernel_table
     MD5 check sum: 095c7af220d748ca6e76c0b4c6cfb241

     atomic species   valence    mass     pseudopotential
        Tl            13.00   204.38000     Tl( 1.00)
        S              6.00    32.06000     S ( 1.00)

     No symmetry found

   Cartesian axes

     site n.     atom                  positions (alat units)
         1           Tl  tau(   1) = (   0.2500000   0.1443376   1.4952371  )
         2           Tl  tau(   2) = (   0.7500000   0.1443376   1.4952371  )
         3           Tl  tau(   3) = (   0.5000000   0.5773503   1.4952371  )
         4           Tl  tau(   4) = (   1.0000000   0.5773503   1.4952371  )
         5           Tl  tau(   5) = (   1.0000000   0.2886751   1.9034854  )
         6           Tl  tau(   6) = (   0.5000000   0.2886751   1.9034854  )
         7           Tl  tau(   7) = (   1.2500000   0.7216878   1.9034854  )
         8           Tl  tau(   8) = (   0.7500000   0.7216878   1.9034854  )
         9           Tl  tau(   9) = (   0.0000055   0.0000179   2.3186883  )
        10           Tl  tau(  10) = (   0.5000092  -0.0001147   2.6228845  )
        11           Tl  tau(  11) = (   0.2499043   0.4330813   2.6229277  )
        12           Tl  tau(  12) = (   0.7501096   0.4330783   2.6229864  )
        13           S   tau(  13) = (  -0.0000172  -0.0000362   2.7198764  )

     number of k points=    20  Fermi-Dirac smearing, width (Ry)=  0.0110
                       cart. coord. in units 2pi/alat
        k(    1) = (   0.0000000   0.0000000   0.0000000), wk =   0.0555556
        k(    2) = (   0.0000000   0.1924501   0.0000000), wk =   0.1111111
        k(    3) = (   0.0000000   0.3849002   0.0000000), wk =   0.1111111
        k(    4) = (   0.0000000  -0.5773503   0.0000000), wk =   0.0555556
        k(    5) = (   0.1666667  -0.0962250   0.0000000), wk =   0.1111111
        k(    6) = (   0.1666667   0.0962250   0.0000000), wk =   0.1111111
        k(    7) = (   0.1666667   0.2886751   0.0000000), wk =   0.1111111
        k(    8) = (   0.1666667  -0.6735753   0.0000000), wk =   0.1111111
        k(    9) = (   0.1666667  -0.4811252   0.0000000), wk =   0.1111111
        k(   10) = (   0.1666667  -0.2886751   0.0000000), wk =   0.1111111
        k(   11) = (   0.3333333  -0.1924501   0.0000000), wk =   0.1111111
        k(   12) = (   0.3333333  -0.0000000   0.0000000), wk =   0.1111111
        k(   13) = (   0.3333333   0.1924501   0.0000000), wk =   0.1111111
        k(   14) = (   0.3333333  -0.7698004   0.0000000), wk =   0.1111111
        k(   15) = (   0.3333333  -0.5773503   0.0000000), wk =   0.1111111
        k(   16) = (   0.3333333  -0.3849002   0.0000000), wk =   0.1111111
        k(   17) = (  -0.5000000   0.2886751   0.0000000), wk =   0.0555556
        k(   18) = (  -0.5000000   0.4811252   0.0000000), wk =   0.1111111
        k(   19) = (  -0.5000000   0.6735753   0.0000000), wk =   0.1111111
        k(   20) = (  -0.5000000  -0.2886751   0.0000000), wk =   0.0555556

     Largest allocated arrays     est. size (Mb)     dimensions
     Largest temporary arrays     est. size (Mb)     dimensions

     Check: negative/imaginary core charge=   -0.000002    0.000000

     Initial potential from superposition of free atoms
     Check: negative starting charge=   -0.604813

     starting charge  161.94157, renormalised to  162.00000

     negative rho (up, down):  6.050E-01 0.000E+00

     *
     * You are using vdW-DF for exchange-correlation in this calculation.
     * Please cite the following three references that made this development
     * possible:
     *
     *   M. Dion, H. Rydberg, E. Schroder, D. C. Langreth, and
     *   B. I. Lundqvist, Phys. Rev. Lett. 92, 246401 (2004).
     *
     *   T. Thonhauser, V. R. Cooper, S. Li, A. Puzder, P. Hyldgaard, and
     *   D. C. Langreth, Phys. Rev. B 76, 125112 (2007).
     *
     *   G. Roman-Perez and J. M. Soler, Phys. Rev. Lett. 103, 096102 (2009).
     *
     *
     * If you are using vdW-DF2, please also cite:
     *
     *   K. Lee, E. D. Murray, L. Kong, B. I. Lundqvist, and
     *   D. C. Langreth, Phys. Rev. B 82, 081101(R) (2010).
     *
     *
     * If you are calculating the stress with vdW-DF, please also cite:
     *
     *   R. Sabatini, E. Kucukbenli, B. Kolb, T. Thonhauser, and
     *   S. de Gironcoli, J. Phys.: Condens. Matter 24, 424209 (2012).
     *

     Carrying out vdW-DF run using the following parameters:

     Nqs =      20    Nr_points =    1024   r_max =   100.000
     q_mesh =
               0.00001000     0.04494208     0.09755937     0.15916263
               0.23128650     0.31572767     0.41458969     0.53033537
               0.66584808     0.82450364     1.01025438     1.22772762
               1.48234092     1.78043706     2.12944203     2.53805004
               3.01644009     3.57652955     4.23227104     5.00000000

     Gradients computed in reciprocal space

     Adding external electric field

     Computed dipole along edir(3) :
        Dipole               -0.0198 Ry au,         -0.0505 Debye
        Dipole field         -0.0000 Ry au

        Potential amp.        0.0032 Ry
        Total length         43.3023 bohr

     Starting wfc are  112 randomized atomic wfcs

     Self-consistent Calculation

     iteration #  1     ecut=    36.75 Ry     beta=0.20
     Davidson diagonalization with overlap
     ethr =  1.00E-02,  avg # of iterations =  2.0

     Threshold (ethr) on eigenvalues was too large:
     Diagonalizing with lowered threshold

     Davidson diagonalization with overlap
     ethr =  3.63E-04,  avg # of iterations =  3.3

[...]

     total energy              =   -1785.89072835 Ry
     Harris-Foulkes estimate   =   -1786.07831720 Ry
     estimated scf accuracy    <       0.60869699 Ry

[...]

     End of self-consistent calculation

          k = 0.0000 0.0000 0.0000 ( 24957 PWs)   bands (ev):

   -11.2647 -11.1695 -11.1626 -11.1626 -11.1354 -11.0448 -11.0372 -11.0372
   -11.0316 -11.0192 -11.0192 -11.0044 -11.0012 -11.0012 -10.9289 -10.9050
   -10.8472 -10.8388 -10.8388 -10.8154 -10.8154 -10.8087 -10.8087 -10.7937
   -10.7937 -10.7164 -10.7164 -10.7121 -10.6423 -10.6385 -10.6385 -10.6324
   -10.6234 -10.6234 -10.5703 -10.5703 -10.5386 -10.5386 -10.5143 -10.5143
   -10.4572 -10.4572 -10.4257 -10.4112 -10.4112 -10.4045 -10.3712 -10.3712
   -10.3587 -10.3587 -10.3532 -10.3311 -10.2799 -10.2799 -10.2575 -10.2495
   -10.2495 -10.2244 -10.2124 -10.2124  -9.8507  -8.5617  -6.4015  -6.0641
    -4.4131  -3.9780  -3.9780  -3.9279  -3.2845  -3.2845  -3.1014  -3.1014
    -3.0457  -1.5175  -1.5174  -0.9771  -0.7891  -0.7891  -0.7087  -0.4238
    -0.1672   0.0996   0.0996   0.7740   1.4120   2.3286   2.3288   3.4283
     3.7950   3.7951   3.8091

[...]

          k =-0.5000 0.2887 0.0000 ( 25090 PWs)   bands (ev):

[...]

     the Fermi energy is     1.2447 ev

!    total energy              =   -1785.97279962 Ry
     Harris-Foulkes estimate   =   -1785.97281109 Ry
     estimated scf accuracy    <       0.00004326 Ry

     The total energy is the sum of the following terms:

     one-electron contribution =   -6966.14588140 Ry
     hartree contribution      =    3568.37047685 Ry
     xc contribution           =    -776.83513432 Ry
     ewald contribution        =    2388.68312182 Ry
     electric field correction =       0.00003763 Ry
     smearing contrib. (-TS)   =      -0.04542020 Ry

     convergence has been achieved in  10 iterations

     Forces acting on atoms (Ry/au):

     negative rho (up, down):  6.287E-01 0.000E+00
     atom    1 type  1   force =     0.00028671    0.00013986   -0.02675333
     atom    2 type  1   force =    -0.00028361    0.00015068   -0.02675322
     atom    3 type  1   force =     0.00001728   -0.00032723   -0.02671792
     atom    4 type  1   force =     0.00001100   -0.00000682   -0.02758854
     atom    5 type  1   force =     0.00000975    0.01240364    0.02063959
     atom    6 type  1   force =    -0.00002211   -0.00000057    0.02976487
     atom    7 type  1   force =    -0.01071633   -0.00619403    0.02063960
     atom    8 type  1   force =     0.01069338   -0.00619227    0.02063445
     atom    9 type  1   force =     0.00002956    0.00001286    0.00370018
     atom   10 type  1   force =    -0.00002782    0.00006943    0.00469079
     atom   11 type  1   force =     0.00006564   -0.00002551    0.00471552
     atom   12 type  1   force =    -0.00006044   -0.00001700    0.00470081
     atom   13 type  2   force =    -0.00000301   -0.00001305   -0.00167280

     Total force =     0.009102     Total SCF correction =     0.025159
     SCF correction compared to forces is large: reduce conv_thr to get better values

     BFGS Geometry Optimization

     number of scf cycles    =   1
     number of bfgs steps    =   0

     energy   new            =   -1785.9727996241 Ry

     new trust radius        =       0.0047160448 bohr
     new conv_thr            =       0.0001000000 Ry

ATOMIC_POSITIONS (angstrom)
Tl       1.671975640   0.965315586  10.000000000    0   0   0
Tl       5.015926920   0.965315586  10.000000000    0   0   0
Tl       3.343951280   3.861262344  10.000000000    0   0   0
Tl       6.687902560   3.861262344  10.000000000    0   0   0
Tl       6.687902560   1.930631172  12.730324787    0   0   0
Tl       3.343951280   1.930631172  12.730324787    0   0   0
Tl       8.359878201   4.826577929  12.730324787    0   0   0
Tl       5.015926920   4.826577929  12.730324787    0   0   0
Tl       0.000052442   0.000126493  15.509119736
Tl       3.343997915  -0.000730608  17.544078448
Tl       1.671370101   2.896391723  17.544380512
Tl       5.016627832   2.896376580  17.544765002
S       -0.000116826  -0.000249331  18.189383025

     Writing output data file calc.save
     Check: negative starting charge=   -0.604813
     NEW-OLD atomic charge density approx. for the potential

     Check: negative/imaginary core charge=   -0.000002    0.000000
     Check: negative starting charge=   -0.604707

[...]

     energy   old            =   -1785.9727996241 Ry
     energy   new            =   -1785.9727572319 Ry

     CASE: energy  _new > energy  _old

[...]

     iteration #  4     ecut=    36.75 Ry     beta=0.20
     Davidson diagonalization with overlap
     c_bands:  1 eigenvalues not converged
     ethr =  5.04E-06,  avg # of iterations =  6.4

[...]

     new trust radius        =       0.0000318304 bohr

     trust_radius < trust_radius_min

     resetting bfgs history

     new conv_thr            =       0.0001000000 Ry

[...]

     CASE: energy  _new > energy  _old

[...]

     iteration #  4     ecut=    36.75 Ry     beta=0.20
     Davidson diagonalization with overlap
     c_bands:  1 eigenvalues not converged
     ethr =  2.06E-06,  avg # of iterations =  6.5

[...]

     number of scf cycles    =   6
     number of bfgs steps    =   1

     energy   old            =   -1785.9727996241 Ry
     energy   new            =   -1785.9728166730 Ry

     CASE: energy  _new < energy  _old

     new trust radius        =       0.0030403363 bohr
     new conv_thr            =       0.0000010000 Ry

ATOMIC_POSITIONS (angstrom)
Tl       1.671975640   0.965315586  10.000000000    0   0   0
Tl       5.015926920   0.965315586  10.000000000    0   0   0
Tl       3.343951280   3.861262344  10.000000000    0   0   0
Tl       6.687902560   3.861262344  10.000000000    0   0   0
Tl       6.687902560   1.930631172  12.730324787    0   0   0
Tl       3.343951280   1.930631172  12.730324787    0   0   0
Tl       8.359878201   4.826577929  12.730324787    0   0   0
Tl       5.015926920   4.826577929  12.730324787    0   0   0
Tl       0.000053017   0.000123641  15.509712547
Tl       3.344001236  -0.000738015  17.542644577
Tl       1.671361485   2.896396845  17.542939777
Tl       5.016632274   2.896377970  17.543341936
S       -0.000119715  -0.000253613  18.189524626

     Writing output data file calc.save
     Check: negative starting charge=   -0.604777
     NEW-OLD atomic charge density approx. for the potential

     Check: negative/imaginary core charge=   -0.000002    0.000000
     Check: negative starting charge=   -0.604744

[...]

     Self-consistent Calculation

[...]

     total energy              =   -1785.97283934 Ry
     Harris-Foulkes estimate   =   -1785.97283984 Ry
     estimated scf accuracy    <       0.00000177 Ry

     iteration #  9     ecut=    36.75 Ry     beta=0.20
     Davidson diagonalization with overlap
     ethr =  1.09E-09,  avg # of iterations =  3.1

     negative rho (up, down):  6.288E-01 0.000E+00

     Adding external electric field

     Computed dipole along edir(3) :
        Dipole               -0.1987 Ry au,         -0.5051 Debye
        Dipole field         -0.0004 Ry au

        Potential amp.        0.0325 Ry
        Total length         43.3023 bohr

     End of self-consistent calculation

[...]

          k = 0.3333-0.3849 0.0000 ( 25036 PWs)   bands (ev):

[...]

          k =-0.5000-0.2887 0.0000 ( 25090 PWs)   bands (ev):

   -11.1180 -11.0576 -11.0331 -11.0289 -10.9308 -10.9257 -10.9223 -10.9118
   -10.9085 -10.9047 -10.8717 -10.8648 -10.8583 -10.8552 -10.8070 -10.8026
   -10.7830 -10.7775 -10.7693 -10.7565 -10.7495 -10.7449 -10.7423 -10.7403
   -10.7340 -10.7298 -10.7271 -10.7215 -10.7213 -10.7145 -10.6781 -10.6585
   -10.6520 -10.6269 -10.6171 -10.6138 -10.5993 -10.5988 -10.5916 -10.5552
   -10.5462 -10.5379 -10.5140 -10.5013 -10.4911 -10.4864 -10.4836 -10.4756
   -10.4713 -10.4691 -10.4570 -10.4533 -10.4262 -10.3843 -10.3718 -10.3640
   -10.3560 -10.3093 -10.2549 -10.2512  -9.8539  -7.3044  -7.2181  -5.9775
    -5.4932  -4.9289  -4.9255  -4.7218  -4.7215  -4.0204  -3.7691  -2.9831
    -2.9132  -0.4826  -0.3726  -0.0479   0.4117   0.9732   0.9832   1.1910
     1.4097   1.6003   1.6087   1.7277   2.0959   2.4920   3.0267   3.1741
     3.5552   3.6884   4.1247

     the Fermi energy is     1.2480 ev

!    total energy              =   -1785.97283943 Ry
     Harris-Foulkes estimate   =   -1785.97283794 Ry
     estimated scf accuracy    <       0.00000014 Ry

     The total energy is the sum of the following terms:

     one-electron contribution =   -6964.81221359 Ry
     hartree contribution      =    3567.62038543 Ry
     xc contribution           =    -776.83523087 Ry
     ewald contribution        =    2388.09956483 Ry
     electric field correction =       0.00007456 Ry
     smearing contrib. (-TS)   =      -0.04541978 Ry

     convergence has been achieved in   9 iterations

     Forces acting on atoms (Ry/au):

     negative rho (up, down):  6.288E-01 0.000E+00
     atom    1 type  1   force =     0.00058033    0.00033475   -0.02338157
     atom    2 type  1   force =    -0.00058043    0.00033385   -0.02338129
     atom    3 type  1   force =    -0.00000149   -0.00067105   -0.02338090
     atom    4 type  1   force =     0.00000257    0.00000276   -0.02370556
     atom    5 type  1   force =    -0.00000234    0.01096461    0.02103333
     atom    6 type  1   force =     0.00000032    0.00000135    0.02918432
     atom    7 type  1   force =    -0.00949104   -0.00548122    0.02103080
     atom    8 type  1   force =     0.00949272   -0.00548571    0.02103113
     atom    9 type  1   force =     0.00000210    0.00000492   -0.00043920
     atom   10 type  1   force =    -0.00000036    0.00001438    0.00022499
     atom   11 type  1   force =     0.00001345   -0.00000348    0.00022097
     atom   12 type  1   force =    -0.00000977   -0.00000231    0.00023377
     atom   13 type  2   force =    -0.00000605   -0.00001286    0.00132921

     Total force =     0.001454     Total SCF correction =     0.000999
     SCF correction compared to forces is large: reduce conv_thr to get better values

     bfgs converged in   7 scf cycles and   2 bfgs steps
     (criteria: energy <  1.0E+12, force <  1.9E-03)

     End of BFGS Geometry Optimization

     Final energy   =   -1785.9728394259 Ry
Begin final coordinates

ATOMIC_POSITIONS (angstrom)
Tl       1.671975640   0.965315586  10.000000000    0   0   0
Tl       5.015926920   0.965315586  10.000000000    0   0   0
Tl       3.343951280   3.861262344  10.000000000    0   0   0
Tl       6.687902560   3.861262344  10.000000000    0   0   0
Tl       6.687902560   1.930631172  12.730324787    0   0   0
Tl       3.343951280   1.930631172  12.730324787    0   0   0
Tl       8.359878201   4.826577929  12.730324787    0   0   0
Tl       5.015926920   4.826577929  12.730324787    0   0   0
Tl       0.000053017   0.000123641  15.509712547
Tl       3.344001236  -0.000738015  17.542644577
Tl       1.671361485   2.896396845  17.542939777
Tl       5.016632274   2.896377970  17.543341936
S       -0.000119715  -0.000253613  18.189524626
End final coordinates

     Writing output data file calc.save

     General routines

     Parallel routines

   This run was terminated on:   1:25:28  12Jan2019

   JOB DONE.
Job  /afs/slac/g/suncat/bin/suncat-tsmpirun -x LD_LIBRARY_PATH -wdir /tmp/qe_7592897y_xoaov_scratch pw.x -npool 3 -in pw.pwi

TID   HOST_NAME   COMMAND_LINE            STATUS            TERMINATION_TIME
00000 suncat1035 pw.x -npool 3 -i  Done                     01/12/2019 01:25:28
00001 suncat1035 pw.x -npool 3 -i  Done                     01/12/2019 01:25:28
00002 suncat1035 pw.x -npool 3 -i  Done                     01/12/2019 01:25:28
00003 suncat1035 pw.x -npool 3 -i  Done                     01/12/2019 01:25:28
00004 suncat1035 pw.x -npool 3 -i  Done                     01/12/2019 01:25:28
00005 suncat1035 pw.x -npool 3 -i  Done                     01/12/2019 01:25:28
00006 suncat1035 pw.x -npool 3 -i  Done                     01/12/2019 01:25:28
00007 suncat1035 pw.x -npool 3 -i  Done                     01/12/2019 01:25:28
00008 suncat1035 pw.x -npool 3 -i  Done                     01/12/2019 01:25:28
00009 suncat1035 pw.x -npool 3 -i  Done                     01/12/2019 01:25:28
00010 suncat1035 pw.x -npool 3 -i  Done                     01/12/2019 01:25:28
00011 suncat1035 pw.x -npool 3 -i  Done                     01/12/2019 01:25:28
00012 suncat1033 pw.x -npool 3 -i  Done                     01/12/2019 01:25:28
00013 suncat1033 pw.x -npool 3 -i  Done                     01/12/2019 01:25:28
00014 suncat1033 pw.x -npool 3 -i  Done                     01/12/2019 01:25:28
00015 suncat1033 pw.x -npool 3 -i  Done                     01/12/2019 01:25:28
00016 suncat1033 pw.x -npool 3 -i  Done                     01/12/2019 01:25:28
00017 suncat1033 pw.x -npool 3 -i  Done                     01/12/2019 01:25:28
00018 suncat1033 pw.x -npool 3 -i  Done                     01/12/2019 01:25:28
00019 suncat1033 pw.x -npool 3 -i  Done                     01/12/2019 01:25:28
00020 suncat1033 pw.x -npool 3 -i  Done                     01/12/2019 01:25:28
00021 suncat1033 pw.x -npool 3 -i  Done                     01/12/2019 01:25:28
00022 suncat1033 pw.x -npool 3 -i  Done                     01/12/2019 01:25:28
00023 suncat1033 pw.x -npool 3 -i  Done                     01/12/2019 01:25:28
00024 suncat1030 pw.x -npool 3 -i  Done                     01/12/2019 01:25:28
00025 suncat1030 pw.x -npool 3 -i  Done                     01/12/2019 01:25:28
00026 suncat1030 pw.x -npool 3 -i  Done                     01/12/2019 01:25:28
00027 suncat1030 pw.x -npool 3 -i  Done                     01/12/2019 01:25:28
00028 suncat1030 pw.x -npool 3 -i  Done                     01/12/2019 01:25:28
00029 suncat1030 pw.x -npool 3 -i  Done                     01/12/2019 01:25:28
00030 suncat1030 pw.x -npool 3 -i  Done                     01/12/2019 01:25:28
00031 suncat1030 pw.x -npool 3 -i  Done                     01/12/2019 01:25:28
00032 suncat1030 pw.x -npool 3 -i  Done                     01/12/2019 01:25:28
00033 suncat1030 pw.x -npool 3 -i  Done                     01/12/2019 01:25:28
00034 suncat1030 pw.x -npool 3 -i  Done                     01/12/2019 01:25:28
00035 suncat1030 pw.x -npool 3 -i  Done                     01/12/2019 01:25:28