     Program PWSCF v.5.1rc2 (svn rev. 11289) starts on 16Jan2018 at  8:40:57

     Current dimensions of program PWSCF are:
     Max number of different atomic species (ntypx) = 10
     Max number of k-points (npk) =  40000
     Max angular momentum in pseudopotentials (lmaxx) =  3
     Presently stress not available with electric field

     IMPORTANT: XC functional enforced from input :
     Exchange-correlation      = BEEF-VDW ( 1  4 27 13 2)
     Any further DFT definition will be discarded
     Please, verify this is what you really want

     Subspace diagonalization in iterative solution of the eigenvalue problem:
     a serial algorithm will be used

     bravais-lattice index     =            0
     lattice parameter (alat)  =       1.8897  a.u.
     unit-cell volume          =    6501.5726 (a.u.)^3
     number of atoms/cell      =           13
     number of atomic types    =            2
     number of electrons       =       157.00
     number of Kohn-Sham states=           88
     kinetic-energy cutoff     =      36.7493  Ry
     charge density cutoff     =     367.4932  Ry
     convergence threshold     =      1.0E-05
     mixing beta               =       0.3000
     number of iterations used =           10  plain     mixing
     Exchange-correlation      = BEEF-VDW ( 1  4 27 13 2)
     nstep                     =           50

     celldm(1)=   1.889726  celldm(2)=   0.000000  celldm(3)=   0.000000
     celldm(4)=   0.000000  celldm(5)=   0.000000  celldm(6)=   0.000000

     crystal axes: (cart. coord. in units of alat)
               a(1) = (   6.617606   0.000000   0.000000 )
               a(2) = (   3.308803   5.731015   0.000000 )
               a(3) = (   0.000000   0.000000  25.403253 )

     reciprocal axes: (cart. coord. in units 2 pi/alat)
               b(1) = (  0.151112 -0.087245  0.000000 )
               b(2) = (  0.000000  0.174489  0.000000 )
               b(3) = (  0.000000  0.000000  0.039365 )

     PseudoPot. # 1 for In read from file:
     /afs/slac.stanford.edu/u/if/mamunm/psp/gbrv1.5pbe/In.UPF
     MD5 check sum: 90777abd96fbb83f2e67db2a40c566b9
     Pseudo is Ultrasoft + core correction, Zval = 13.0
     Generated by new atomic code, or converted to UPF format
     Using radial grid of  889 points,  6 beta functions with:
                l(1) =   0
                l(2) =   0
                l(3) =   1
                l(4) =   1
                l(5) =   2
                l(6) =   2
     Q(r) pseudized with  6 coefficients,  rinner =    1.400   1.400   1.400
                                                       1.400   1.400

     PseudoPot. # 2 for H  read from file:
     /afs/slac.stanford.edu/u/if/mamunm/psp/gbrv1.5pbe/H.UPF
     MD5 check sum: 761ae9a214b05c3daf00ab9f6b793d6f
     Pseudo is Ultrasoft, Zval =  1.0
     Generated by new atomic code, or converted to UPF format
     Using radial grid of  615 points,  2 beta functions with:
                l(1) =   0
                l(2) =   0
     Q(r) pseudized with  8 coefficients,  rinner =    0.700

     vdW kernel table read from file vdW_kernel_table
     MD5 check sum: 095c7af220d748ca6e76c0b4c6cfb241

     atomic species   valence    mass     pseudopotential
        In1           13.00   114.81800     In( 1.00)
        H1             1.00     1.00800     H ( 1.00)

     No symmetry found

   Cartesian axes

     site n.     atom                  positions (alat units)
         1           In1 tau(   1) = (   1.6544016   0.9551692  10.0000000  )
         2           In1 tau(   2) = (   4.9632047   0.9551692  10.0000000  )
         3           In1 tau(   3) = (   3.3088031   3.8206768  10.0000000  )
         4           In1 tau(   4) = (   6.6176063   3.8206768  10.0000000  )
         5           In1 tau(   5) = (   6.6176063   1.9103384  12.7016265  )
         6           In1 tau(   6) = (   3.3088031   1.9103384  12.7016265  )
         7           In1 tau(   7) = (   8.2720078   4.7758460  12.7016265  )
         8           In1 tau(   8) = (   4.9632047   4.7758460  12.7016265  )
         9           In1 tau(   9) = (   0.0000000   0.0000000  15.4032529  )
        10           In1 tau(  10) = (   3.3088031   0.0000000  15.4032529  )
        11           In1 tau(  11) = (   1.6544016   2.8655076  15.4032529  )
        12           In1 tau(  12) = (   4.9632047   2.8655076  15.4032529  )
        13           H1  tau(  13) = (   1.6544016   0.0000000  17.1332529  )

     number of k points=    20  Fermi-Dirac smearing, width (Ry)=  0.0110
                       cart. coord. in units 2pi/alat
        k(    1) = (   0.0000000   0.0000000   0.0000000), wk =   0.0555556
        k(    2) = (   0.0000000   0.0290815   0.0000000), wk =   0.1111111
        k(    3) = (   0.0000000   0.0581631   0.0000000), wk =   0.1111111
        k(    4) = (   0.0000000  -0.0872446   0.0000000), wk =   0.0555556
        k(    5) = (   0.0251853  -0.0145408   0.0000000), wk =   0.1111111
        k(    6) = (   0.0251853   0.0145408   0.0000000), wk =   0.1111111
        k(    7) = (   0.0251853   0.0436223   0.0000000), wk =   0.1111111
        k(    8) = (   0.0251853  -0.1017853   0.0000000), wk =   0.1111111
        k(    9) = (   0.0251853  -0.0727038   0.0000000), wk =   0.1111111
        k(   10) = (   0.0251853  -0.0436223   0.0000000), wk =   0.1111111
        k(   11) = (   0.0503707  -0.0290815   0.0000000), wk =   0.1111111
        k(   12) = (   0.0503707   0.0000000   0.0000000), wk =   0.1111111
        k(   13) = (   0.0503707   0.0290815   0.0000000), wk =   0.1111111
        k(   14) = (   0.0503707  -0.1163261   0.0000000), wk =   0.1111111
        k(   15) = (   0.0503707  -0.0872446   0.0000000), wk =   0.1111111
        k(   16) = (   0.0503707  -0.0581631   0.0000000), wk =   0.1111111
        k(   17) = (  -0.0755560   0.0436223   0.0000000), wk =   0.0555556
        k(   18) = (  -0.0755560   0.0727038   0.0000000), wk =   0.1111111
        k(   19) = (  -0.0755560   0.1017853   0.0000000), wk =   0.1111111
        k(   20) = (  -0.0755560  -0.0436223   0.0000000), wk =   0.0555556

     Largest allocated arrays     est. size (Mb)     dimensions
     Largest temporary arrays     est. size (Mb)     dimensions

     Initial potential from superposition of free atoms
     Check: negative starting charge=   -0.000173

     starting charge  138.99999, renormalised to  157.00000

     negative rho (up, down):  1.959E-04 0.000E+00

     *
     * You are using vdW-DF for exchange-correlation in this calculation.
     * Please cite the following three references that made this development
     * possible:
     *
     *   M. Dion, H. Rydberg, E. Schroder, D. C. Langreth, and
     *   B. I. Lundqvist, Phys. Rev. Lett. 92, 246401 (2004).
     *
     *   T. Thonhauser, V. R. Cooper, S. Li, A. Puzder, P. Hyldgaard, and
     *   D. C. Langreth, Phys. Rev. B 76, 125112 (2007).
     *
     *   G. Roman-Perez and J. M. Soler, Phys. Rev. Lett. 103, 096102 (2009).
     *
     *
     * If you are using vdW-DF2, please also cite:
     *
     *   K. Lee, E. D. Murray, L. Kong, B. I. Lundqvist, and
     *   D. C. Langreth, Phys. Rev. B 82, 081101(R) (2010).
     *
     *
     * If you are calculating the stress with vdW-DF, please also cite:
     *
     *   R. Sabatini, E. Kucukbenli, B. Kolb, T. Thonhauser, and
     *   S. de Gironcoli, J. Phys.: Condens. Matter 24, 424209 (2012).
     *

     Carrying out vdW-DF run using the following parameters:

     Nqs =      20    Nr_points =    1024   r_max =   100.000
     q_mesh =
               0.00001000     0.04494208     0.09755937     0.15916263
               0.23128650     0.31572767     0.41458969     0.53033537
               0.66584808     0.82450364     1.01025438     1.22772762
               1.48234092     1.78043706     2.12944203     2.53805004
               3.01644009     3.57652955     4.23227104     5.00000000

     Gradients computed in reciprocal space

     Adding external electric field

     Computed dipole along edir(3) :
        Dipole               -1.0844 Ry au,         -2.7562 Debye
        Dipole field         -0.0021 Ry au

        Potential amp.        0.1962 Ry
        Total length         46.8051 bohr

     Starting wfc are  109 randomized atomic wfcs

     Self-consistent Calculation

     iteration #  1     ecut=    36.75 Ry     beta=0.30
     Davidson diagonalization with overlap
     ethr =  1.00E-02,  avg # of iterations =  8.5

[...]

     total energy              =   -1592.44137118 Ry
     Harris-Foulkes estimate   =   -1633.77218320 Ry
     estimated scf accuracy    <      89.79892715 Ry

[...]

     End of self-consistent calculation

          k = 0.0000 0.0000 0.0000 ( 24345 PWs)   bands (ev):

   -14.8044 -14.8038 -14.8028 -14.7156 -14.7141 -14.7075 -14.7055 -14.7033
   -14.7029 -14.6852 -14.6687 -14.6675 -14.6656 -14.6456 -14.6215 -14.6204
   -14.6171 -14.6137 -14.6125 -14.6108 -14.5893 -14.5885 -14.5799 -14.5787
   -14.5749 -14.5720 -14.5719 -14.5682 -14.5611 -14.5598 -14.4574 -14.4573
   -14.4436 -14.4398 -14.4319 -14.4017 -14.3975 -14.3970 -14.3863 -14.3799
   -14.3578 -14.3536 -14.3505 -14.3434 -14.3392 -14.3376 -14.3295 -14.3285
   -14.3053 -14.3033 -14.3029 -14.2965 -14.2946 -14.2929 -14.2723 -14.2703
   -14.2635 -14.2590 -14.2563 -14.2562  -8.8362  -7.4838  -5.4387  -4.0363
    -3.9813  -3.9786  -3.7490  -3.7000  -3.6951  -2.8793  -2.4390  -2.4383
    -2.3223  -2.1956  -2.1931  -2.0078  -1.0311  -0.5389  -0.5349  -0.4387
    -0.3257  -0.3248   0.4946   1.8511   3.0483   3.0504   3.0895   3.1231

[...]

          k =-0.0756 0.0436 0.0000 ( 24448 PWs)   bands (ev):

[...]

     the Fermi energy is     0.3651 ev

!    total energy              =   -1618.41910801 Ry
     Harris-Foulkes estimate   =   -1618.41910442 Ry
     estimated scf accuracy    <       0.00000115 Ry

     The total energy is the sum of the following terms:

     one-electron contribution =   -9209.03031784 Ry
     hartree contribution      =    4683.19717153 Ry
     xc contribution           =    -470.23558560 Ry
     ewald contribution        =    3377.68701131 Ry
     electric field correction =       0.00012859 Ry
     smearing contrib. (-TS)   =      -0.03751601 Ry

     convergence has been achieved in  15 iterations

 BEEF-vdW xc energy contributions
           1 :   -411.962909520695
           2 :    376.577967099833
           3 :   -316.809770512338
           4 :    249.466002263368
           5 :   -189.935520698265
           6 :    146.576523665843
           7 :   -119.104242695067
           8 :    101.164852949821
           9 :   -85.1965952675669
          10 :    66.7300647292436
          11 :   -45.9962466529341
          12 :    26.5065555948392
          13 :   -12.0280558374762
          14 :    4.03734102763110
          15 :   -1.07849021054341
          16 :   3.906200513097247E-002
          17 :    1.80161610820369
          18 :   -5.35577180312146
          19 :    9.68549660192218
          20 :   -13.0913587929144
          21 :    14.4270736928800
          22 :   -13.7711645468193
          23 :    12.1627841394597
          24 :   -10.7751450414427
          25 :    10.1895651970045
[...]
00029 suncat2062 pw.x -in pw.inp   Done                     01/16/2018 08:45:44
00030 suncat2062 pw.x -in pw.inp   Done                     01/16/2018 08:45:44
00031 suncat2062 pw.x -in pw.inp   Done                     01/16/2018 08:45:44

[...]

     Total force =     0.052122     Total SCF correction =     0.007890
     SCF correction compared to forces is large: reduce conv_thr to get better values

[...]

   This run was terminated on:   9: 0:42  16Jan2018

[...]

     Program PWSCF v.5.1rc2 (svn rev. 11289) starts on 16Jan2018 at  9: 0:47

[...]

   This run was terminated on:   9: 5:39  16Jan2018

[...]

     Program PWSCF v.5.1rc2 (svn rev. 11289) starts on 16Jan2018 at  9: 5:44

[...]

     Total force =     0.033113     Total SCF correction =     0.005240
     SCF correction compared to forces is large: reduce conv_thr to get better values

[...]

     Program PWSCF v.5.1rc2 (svn rev. 11289) starts on 16Jan2018 at  9:20:36

     Current dimensions of program PWSCF are:
     Max number of different atomic species (ntypx) = 10
     Max number of k-points (npk) =  40000
     Max angular momentum in pseudopotentials (lmaxx) =  3
     Presently stress not available with electric field

     IMPORTANT: XC functional enforced from input :
     Exchange-correlation      = BEEF-VDW ( 1  4 27 13 2)
     Any further DFT definition will be discarded
     Please, verify this is what you really want

     Subspace diagonalization in iterative solution of the eigenvalue problem:
     a serial algorithm will be used

     bravais-lattice index     =            0
     lattice parameter (alat)  =       1.8897  a.u.
     unit-cell volume          =    6501.5726 (a.u.)^3
     number of atoms/cell      =           13
     number of atomic types    =            2
     number of electrons       =       157.00
     number of Kohn-Sham states=           88
     kinetic-energy cutoff     =      36.7493  Ry
     charge density cutoff     =     367.4932  Ry
     convergence threshold     =      1.0E-05
     mixing beta               =       0.3000
     number of iterations used =           10  plain     mixing
     Exchange-correlation      = BEEF-VDW ( 1  4 27 13 2)
     nstep                     =           50

     celldm(1)=   1.889726  celldm(2)=   0.000000  celldm(3)=   0.000000
     celldm(4)=   0.000000  celldm(5)=   0.000000  celldm(6)=   0.000000

     crystal axes: (cart. coord. in units of alat)
               a(1) = (   6.617606   0.000000   0.000000 )
               a(2) = (   3.308803   5.731015   0.000000 )
               a(3) = (   0.000000   0.000000  25.403253 )

     reciprocal axes: (cart. coord. in units 2 pi/alat)
               b(1) = (  0.151112 -0.087245  0.000000 )
               b(2) = (  0.000000  0.174489  0.000000 )
               b(3) = (  0.000000  0.000000  0.039365 )

     PseudoPot. # 1 for In read from file:
     /afs/slac.stanford.edu/u/if/mamunm/psp/gbrv1.5pbe/In.UPF
     MD5 check sum: 90777abd96fbb83f2e67db2a40c566b9
     Pseudo is Ultrasoft + core correction, Zval = 13.0
     Generated by new atomic code, or converted to UPF format
     Using radial grid of  889 points,  6 beta functions with:
                l(1) =   0
                l(2) =   0
                l(3) =   1
                l(4) =   1
                l(5) =   2
                l(6) =   2
     Q(r) pseudized with  6 coefficients,  rinner =    1.400   1.400   1.400
                                                       1.400   1.400

     PseudoPot. # 2 for H  read from file:
     /afs/slac.stanford.edu/u/if/mamunm/psp/gbrv1.5pbe/H.UPF
     MD5 check sum: 761ae9a214b05c3daf00ab9f6b793d6f
     Pseudo is Ultrasoft, Zval =  1.0
     Generated by new atomic code, or converted to UPF format
     Using radial grid of  615 points,  2 beta functions with:
                l(1) =   0
                l(2) =   0
     Q(r) pseudized with  8 coefficients,  rinner =    0.700

     vdW kernel table read from file vdW_kernel_table
     MD5 check sum: 095c7af220d748ca6e76c0b4c6cfb241

     atomic species   valence    mass     pseudopotential
        In1           13.00   114.81800     In( 1.00)
        H1             1.00     1.00800     H ( 1.00)

     No symmetry found

   Cartesian axes

     site n.     atom                  positions (alat units)
         1           In1 tau(   1) = (   1.6544016   0.9551692  10.0000000  )
         2           In1 tau(   2) = (   4.9632047   0.9551692  10.0000000  )
         3           In1 tau(   3) = (   3.3088031   3.8206768  10.0000000  )
         4           In1 tau(   4) = (   6.6176063   3.8206768  10.0000000  )
         5           In1 tau(   5) = (   6.6176063   1.9103384  12.7016265  )
         6           In1 tau(   6) = (   3.3088031   1.9103384  12.7016265  )
         7           In1 tau(   7) = (   8.2720078   4.7758460  12.7016265  )
         8           In1 tau(   8) = (   4.9632047   4.7758460  12.7016265  )
         9           In1 tau(   9) = (   9.8924870   5.7189180  15.7028418  )
        10           In1 tau(  10) = (   6.6514729   5.7189317  15.7028517  )
        11           In1 tau(  11) = (   8.2719880   2.9679154  15.4958157  )
        12           In1 tau(  12) = (   4.9631506   2.7833102  15.4968630  )
        13           H1  tau(  13) = (   1.6543629   0.0421493  16.8107664  )

     number of k points=    20  Fermi-Dirac smearing, width (Ry)=  0.0110
                       cart. coord. in units 2pi/alat
        k(    1) = (   0.0000000   0.0000000   0.0000000), wk =   0.0555556
        k(    2) = (   0.0000000   0.0290815   0.0000000), wk =   0.1111111
        k(    3) = (   0.0000000   0.0581631   0.0000000), wk =   0.1111111
        k(    4) = (   0.0000000  -0.0872446   0.0000000), wk =   0.0555556
        k(    5) = (   0.0251853  -0.0145408   0.0000000), wk =   0.1111111
        k(    6) = (   0.0251853   0.0145408   0.0000000), wk =   0.1111111
        k(    7) = (   0.0251853   0.0436223   0.0000000), wk =   0.1111111
        k(    8) = (   0.0251853  -0.1017853   0.0000000), wk =   0.1111111
        k(    9) = (   0.0251853  -0.0727038   0.0000000), wk =   0.1111111
        k(   10) = (   0.0251853  -0.0436223   0.0000000), wk =   0.1111111
        k(   11) = (   0.0503707  -0.0290815   0.0000000), wk =   0.1111111
        k(   12) = (   0.0503707   0.0000000   0.0000000), wk =   0.1111111
        k(   13) = (   0.0503707   0.0290815   0.0000000), wk =   0.1111111
        k(   14) = (   0.0503707  -0.1163261   0.0000000), wk =   0.1111111
        k(   15) = (   0.0503707  -0.0872446   0.0000000), wk =   0.1111111
        k(   16) = (   0.0503707  -0.0581631   0.0000000), wk =   0.1111111
        k(   17) = (  -0.0755560   0.0436223   0.0000000), wk =   0.0555556
        k(   18) = (  -0.0755560   0.0727038   0.0000000), wk =   0.1111111
        k(   19) = (  -0.0755560   0.1017853   0.0000000), wk =   0.1111111
        k(   20) = (  -0.0755560  -0.0436223   0.0000000), wk =   0.0555556

     Largest allocated arrays     est. size (Mb)     dimensions
     Largest temporary arrays     est. size (Mb)     dimensions

     Initial potential from superposition of free atoms
     Check: negative starting charge=   -0.000183

     starting charge  138.99999, renormalised to  157.00000

[...]

     *
     * You are using vdW-DF for exchange-correlation in this calculation.
     * Please cite the following three references that made this development
     * possible:
     *
     *   M. Dion, H. Rydberg, E. Schroder, D. C. Langreth, and
     *   B. I. Lundqvist, Phys. Rev. Lett. 92, 246401 (2004).
     *
     *   T. Thonhauser, V. R. Cooper, S. Li, A. Puzder, P. Hyldgaard, and
     *   D. C. Langreth, Phys. Rev. B 76, 125112 (2007).
     *
     *   G. Roman-Perez and J. M. Soler, Phys. Rev. Lett. 103, 096102 (2009).
     *
     *
     * If you are using vdW-DF2, please also cite:
     *
     *   K. Lee, E. D. Murray, L. Kong, B. I. Lundqvist, and
     *   D. C. Langreth, Phys. Rev. B 82, 081101(R) (2010).
     *
     *
     * If you are calculating the stress with vdW-DF, please also cite:
     *
     *   R. Sabatini, E. Kucukbenli, B. Kolb, T. Thonhauser, and
     *   S. de Gironcoli, J. Phys.: Condens. Matter 24, 424209 (2012).
     *

     Carrying out vdW-DF run using the following parameters:

     Nqs =      20    Nr_points =    1024   r_max =   100.000
     q_mesh =
               0.00001000     0.04494208     0.09755937     0.15916263
               0.23128650     0.31572767     0.41458969     0.53033537
               0.66584808     0.82450364     1.01025438     1.22772762
               1.48234092     1.78043706     2.12944203     2.53805004
               3.01644009     3.57652955     4.23227104     5.00000000

     Gradients computed in reciprocal space

[...]

     Starting wfc are  109 randomized atomic wfcs

     Self-consistent Calculation

[...]

     total energy              =   -1618.44891813 Ry
     Harris-Foulkes estimate   =   -1618.44892521 Ry
     estimated scf accuracy    <       0.00003669 Ry

     iteration # 15     ecut=    36.75 Ry     beta=0.30
     Davidson diagonalization with overlap
     ethr =  2.34E-08,  avg # of iterations =  3.0

[...]

     negative rho (up, down):  1.127E-03 0.000E+00

     Adding external electric field

     Computed dipole along edir(3) :
        Dipole               -0.0272 Ry au,         -0.0692 Debye
        Dipole field         -0.0001 Ry au

        Potential amp.        0.0049 Ry
        Total length         46.8051 bohr

     End of self-consistent calculation

[...]

          k = 0.0504-0.0582 0.0000 ( 24479 PWs)   bands (ev):

[...]

          k =-0.0756-0.0436 0.0000 ( 24448 PWs)   bands (ev):

   -14.4696 -14.4655 -14.4352 -14.4189 -14.4160 -14.4133 -14.4080 -14.4070
   -14.3849 -14.3818 -14.3699 -14.3654 -14.3594 -14.3508 -14.3483 -14.3458
   -14.3407 -14.3374 -14.3317 -14.3261 -14.3127 -14.3062 -14.2937 -14.2909
   -14.2893 -14.2822 -14.2799 -14.2753 -14.2696 -14.2633 -14.2599 -14.2558
   -14.2366 -14.2307 -14.2183 -14.2171 -14.2087 -14.2059 -14.2026 -14.1886
   -14.1871 -14.1820 -14.1806 -14.1765 -14.1738 -14.1661 -14.1637 -14.1627
   -14.1585 -14.1534 -14.1511 -14.1458 -14.1119 -14.1049 -14.1008 -14.0918
   -14.0843 -14.0798 -14.0486 -14.0442  -7.2152  -7.2002  -6.2540  -5.9924
    -4.9079  -4.6500  -4.4562  -4.1586  -3.7130  -3.3974  -2.2084  -1.8411
    -0.9569  -0.3984   0.1894   0.2580   0.5660   0.6245   0.7760   1.4968
     1.5871   1.6425   1.8480   2.1622   2.4639   2.6193   2.9784   3.0155

     the Fermi energy is     0.6333 ev

!    total energy              =   -1618.44892422 Ry
     Harris-Foulkes estimate   =   -1618.44892161 Ry
     estimated scf accuracy    <       0.00000082 Ry

     The total energy is the sum of the following terms:

     one-electron contribution =   -8975.19247966 Ry
     hartree contribution      =    4567.41093735 Ry
     xc contribution           =    -470.21506343 Ry
     ewald contribution        =    3259.58331326 Ry
     electric field correction =       0.00000143 Ry
     smearing contrib. (-TS)   =      -0.03563318 Ry

     convergence has been achieved in  15 iterations

 BEEF-vdW xc energy contributions
           1 :   -411.938524061579
           2 :    376.503585947236
           3 :   -316.658178842311
           4 :    249.251412182597
           5 :   -189.707101581096
           6 :    146.387640100857
           7 :   -118.981232633215
           8 :    101.095960564359
           9 :   -85.1463542461569
          10 :    66.6667434032760
          11 :   -45.9125856727831
          12 :    26.4212643393216
          13 :   -11.9702190297667
          14 :    4.02651316877882
          15 :   -1.11343882129086
          16 :   0.100751448353435
          17 :    1.73764734791911
          18 :   -5.30820897695111
          19 :    9.66357794226724
          20 :   -13.0968278213585
          21 :    14.4559979788785
          22 :   -13.8133659032918
          23 :    12.2010200456742
          24 :   -10.7881459456621
          25 :    10.1613984739259
          26 :   -10.1587773677118
          27 :    10.2294186484273
          28 :   -9.93969641123067
          29 :    9.23386402124993
          30 :   -8.33373626769207
          31 :   -37.3654394108456
          32 :   -27.1135063736945

     Forces acting on atoms (Ry/au):

     negative rho (up, down):  1.127E-03 0.000E+00
     atom    1 type  1   force =     0.00000491    0.00236686   -0.00927402
     atom    2 type  1   force =     0.00000119   -0.00013948   -0.01000696
     atom    3 type  1   force =    -0.00095674   -0.00038533   -0.01094243
     atom    4 type  1   force =     0.00094597   -0.00038749   -0.01097580
     atom    5 type  1   force =    -0.00077275   -0.00196999    0.00938091
     atom    6 type  1   force =     0.00077389   -0.00197162    0.00937634
     atom    7 type  1   force =    -0.00000224   -0.00092595    0.00778455
     atom    8 type  1   force =     0.00000253    0.00133507    0.01811518
     atom    9 type  1   force =     0.00005882   -0.00013608   -0.00111385
     atom   10 type  1   force =    -0.00005785   -0.00013640   -0.00111442
     atom   11 type  1   force =    -0.00000059   -0.00070777   -0.00059303
     atom   12 type  1   force =     0.00000248    0.00117860   -0.00081701
     atom   13 type  2   force =     0.00000038    0.00187958    0.00018055

     Total force =     0.031927     Total SCF correction =     0.002782

     entering subroutine stress ...

     negative rho (up, down):  1.127E-03 0.000E+00
          total   stress  (Ry/bohr**3)                   (kbar)     P=    5.35
   0.00004254   0.00000000  -0.00000000          6.26      0.00     -0.00
   0.00000000   0.00004739   0.00000127          0.00      6.97      0.19
  -0.00000000   0.00000127   0.00001912         -0.00      0.19      2.81

 !ASE

     Writing output data file calc.save

     General routines

     Parallel routines

   This run was terminated on:   9:25:29  16Jan2018

   JOB DONE.
Job  /afs/slac/g/suncat/bin/suncat-tsmpirun -x LD_LIBRARY_PATH -wdir /scratch/qe842449_4hwuS pw.x -in pw.inp

TID   HOST_NAME   COMMAND_LINE            STATUS            TERMINATION_TIME
00000 suncat2070 pw.x -in pw.inp   Done                     01/16/2018 09:25:29
00001 suncat2070 pw.x -in pw.inp   Done                     01/16/2018 09:25:29
00002 suncat2070 pw.x -in pw.inp   Done                     01/16/2018 09:25:29
00003 suncat2070 pw.x -in pw.inp   Done                     01/16/2018 09:25:29
00004 suncat2070 pw.x -in pw.inp   Done                     01/16/2018 09:25:29
00005 suncat2070 pw.x -in pw.inp   Done                     01/16/2018 09:25:29
00006 suncat2070 pw.x -in pw.inp   Done                     01/16/2018 09:25:29
00007 suncat2070 pw.x -in pw.inp   Done                     01/16/2018 09:25:29
00008 suncat2070 pw.x -in pw.inp   Done                     01/16/2018 09:25:29
00009 suncat2070 pw.x -in pw.inp   Done                     01/16/2018 09:25:29
00010 suncat2070 pw.x -in pw.inp   Done                     01/16/2018 09:25:29
00011 suncat2070 pw.x -in pw.inp   Done                     01/16/2018 09:25:29
00012 suncat2070 pw.x -in pw.inp   Done                     01/16/2018 09:25:29
00013 suncat2070 pw.x -in pw.inp   Done                     01/16/2018 09:25:29
00014 suncat2070 pw.x -in pw.inp   Done                     01/16/2018 09:25:29
00015 suncat2070 pw.x -in pw.inp   Done                     01/16/2018 09:25:29
00016 suncat2062 pw.x -in pw.inp   Done                     01/16/2018 09:25:29
00017 suncat2062 pw.x -in pw.inp   Done                     01/16/2018 09:25:29
00018 suncat2062 pw.x -in pw.inp   Done                     01/16/2018 09:25:29
00019 suncat2062 pw.x -in pw.inp   Done                     01/16/2018 09:25:29
00020 suncat2062 pw.x -in pw.inp   Done                     01/16/2018 09:25:29
00021 suncat2062 pw.x -in pw.inp   Done                     01/16/2018 09:25:29
00022 suncat2062 pw.x -in pw.inp   Done                     01/16/2018 09:25:29
00023 suncat2062 pw.x -in pw.inp   Done                     01/16/2018 09:25:29
00024 suncat2062 pw.x -in pw.inp   Done                     01/16/2018 09:25:29
00025 suncat2062 pw.x -in pw.inp   Done                     01/16/2018 09:25:29
00026 suncat2062 pw.x -in pw.inp   Done                     01/16/2018 09:25:29
00027 suncat2062 pw.x -in pw.inp   Done                     01/16/2018 09:25:29
00028 suncat2062 pw.x -in pw.inp   Done                     01/16/2018 09:25:29
00029 suncat2062 pw.x -in pw.inp   Done                     01/16/2018 09:25:29
00030 suncat2062 pw.x -in pw.inp   Done                     01/16/2018 09:25:29
00031 suncat2062 pw.x -in pw.inp   Done                     01/16/2018 09:25:29