     Program PWSCF v.5.1rc2 (svn rev. 11289) starts on 10May2018 at 21:15: 2

     Current dimensions of program PWSCF are:
     Max number of different atomic species (ntypx) = 10
     Max number of k-points (npk) =  40000
     Max angular momentum in pseudopotentials (lmaxx) =  3
     Presently stress not available with electric field

     IMPORTANT: XC functional enforced from input :
     Exchange-correlation      = BEEF-VDW ( 1  4 27 13 2)
     Any further DFT definition will be discarded
     Please, verify this is what you really want

     Subspace diagonalization in iterative solution of the eigenvalue problem:
     a serial algorithm will be used

     Generating pointlists ...
     new r_m :   0.4125 (alat units)  0.7795 (a.u.) for type    1
     new r_m :   0.4125 (alat units)  0.7795 (a.u.) for type    2
     new r_m :   0.4125 (alat units)  0.7795 (a.u.) for type    3

     bravais-lattice index     =            0
     lattice parameter (alat)  =       1.8897  a.u.
     unit-cell volume          =    3747.1846 (a.u.)^3
     number of atoms/cell      =           15
     number of atomic types    =            3
     number of electrons       =       186.00
     number of Kohn-Sham states=          103
     kinetic-energy cutoff     =      36.7493  Ry
     charge density cutoff     =     367.4932  Ry
     convergence threshold     =      1.0E-05
     mixing beta               =       0.1000
     number of iterations used =           10  plain     mixing
     Exchange-correlation      = BEEF-VDW ( 1  4 27 13 2)
     nstep                     =           50

     celldm(1)=   1.889726  celldm(2)=   0.000000  celldm(3)=   0.000000
     celldm(4)=   0.000000  celldm(5)=   0.000000  celldm(6)=   0.000000

     crystal axes: (cart. coord. in units of alat)
               a(1) = (   5.147050   0.000000   0.000000 )
               a(2) = (   2.573525   4.457476   0.000000 )
               a(3) = (   0.000000   0.000000  24.202549 )

     reciprocal axes: (cart. coord. in units 2 pi/alat)
               b(1) = (  0.194286 -0.112171 -0.000000 )
               b(2) = (  0.000000  0.224342  0.000000 )
               b(3) = (  0.000000  0.000000  0.041318 )

     PseudoPot. # 1 for Mn read from file:
     /nfs/slac/g/suncatfs/sw/external/esp-psp/gbrv1.5pbe/Mn.UPF
     MD5 check sum: 82ef2b46521d7a7d9e736dc3972e4928
     Pseudo is Ultrasoft + core correction, Zval = 15.0
     Generated by new atomic code, or converted to UPF format
     Using radial grid of  859 points,  6 beta functions with:
                l(1) =   0
                l(2) =   0
                l(3) =   1
                l(4) =   1
                l(5) =   2
                l(6) =   2
     Q(r) pseudized with  8 coefficients,  rinner =    0.950   0.950   0.950
                                                       0.950   0.950

     PseudoPot. # 2 for C  read from file:
     /nfs/slac/g/suncatfs/sw/external/esp-psp/gbrv1.5pbe/C.UPF
     MD5 check sum: d1aef80898a10debaa0f26306b886e00
     Pseudo is Ultrasoft + core correction, Zval =  4.0
     Generated by new atomic code, or converted to UPF format
     Using radial grid of  721 points,  4 beta functions with:
                l(1) =   0
                l(2) =   0
                l(3) =   1
                l(4) =   1
     Q(r) pseudized with  8 coefficients,  rinner =    1.100   1.100   1.100

     PseudoPot. # 3 for H  read from file:
     /nfs/slac/g/suncatfs/sw/external/esp-psp/gbrv1.5pbe/H.UPF
     MD5 check sum: 761ae9a214b05c3daf00ab9f6b793d6f
     Pseudo is Ultrasoft, Zval =  1.0
     Generated by new atomic code, or converted to UPF format
     Using radial grid of  615 points,  2 beta functions with:
                l(1) =   0
                l(2) =   0
     Q(r) pseudized with  8 coefficients,  rinner =    0.700

     vdW kernel table read from file vdW_kernel_table
     MD5 check sum: 095c7af220d748ca6e76c0b4c6cfb241

     atomic species   valence    mass     pseudopotential
        Mn1           15.00    54.93804     Mn( 1.00)
        C1             4.00    12.01100     C ( 1.00)
        H1             1.00     1.00800     H ( 1.00)

     Starting magnetic structure
     atomic species   magnetization
        Mn1          0.193
        C1           0.000
        H1           0.000

     No symmetry found

   Cartesian axes

     site n.     atom                  positions (alat units)
         1           Mn1 tau(   1) = (   0.0000000   0.0000000  10.0000000  )
         2           Mn1 tau(   2) = (   1.2867625   2.2287380  10.0000000  )
         3           Mn1 tau(   3) = (   2.5735249   0.0000000  10.0000000  )
         4           Mn1 tau(   4) = (   3.8602874   2.2287380  10.0000000  )
         5           Mn1 tau(   5) = (   5.1470499   2.9716506  12.1012743  )
         6           Mn1 tau(   6) = (   3.8602874   0.7429127  12.1012743  )
         7           Mn1 tau(   7) = (   2.5735249   2.9716506  12.1012743  )
         8           Mn1 tau(   8) = (   1.2867625   0.7429127  12.1012743  )
         9           Mn1 tau(   9) = (   2.5729805   1.4859362  14.2013976  )
        10           Mn1 tau(  10) = (   3.8606631   3.7139626  14.2022569  )
        11           Mn1 tau(  11) = (   5.1464482   1.4876776  14.2025351  )
        12           Mn1 tau(  12) = (   6.4327546   3.7153858  14.2013278  )
        13           C1  tau(  13) = (   3.8604963   2.2267783  15.6026944  )
        14           H1  tau(  14) = (   3.8604843   2.2294764  16.6741940  )
        15           H1  tau(  15) = (   2.5734093   1.4855242  15.8160701  )

     number of k points=    40  Fermi-Dirac smearing, width (Ry)=  0.0110
                       cart. coord. in units 2pi/alat
        k(    1) = (   0.0000000   0.0000000   0.0000000), wk =   0.0277778
        k(    2) = (   0.0000000   0.0373904   0.0000000), wk =   0.0555556
        k(    3) = (   0.0000000   0.0747807   0.0000000), wk =   0.0555556
        k(    4) = (   0.0000000  -0.1121711   0.0000000), wk =   0.0277778
        k(    5) = (   0.0323810  -0.0186952  -0.0000000), wk =   0.0555556
        k(    6) = (   0.0323810   0.0186952  -0.0000000), wk =   0.0555556
        k(    7) = (   0.0323810   0.0560856  -0.0000000), wk =   0.0555556
        k(    8) = (   0.0323810  -0.1308663  -0.0000000), wk =   0.0555556
        k(    9) = (   0.0323810  -0.0934759  -0.0000000), wk =   0.0555556
        k(   10) = (   0.0323810  -0.0560856  -0.0000000), wk =   0.0555556
        k(   11) = (   0.0647620  -0.0373904  -0.0000000), wk =   0.0555556
        k(   12) = (   0.0647620   0.0000000  -0.0000000), wk =   0.0555556
        k(   13) = (   0.0647620   0.0373904  -0.0000000), wk =   0.0555556
        k(   14) = (   0.0647620  -0.1495615  -0.0000000), wk =   0.0555556
        k(   15) = (   0.0647620  -0.1121711  -0.0000000), wk =   0.0555556
        k(   16) = (   0.0647620  -0.0747807  -0.0000000), wk =   0.0555556
        k(   17) = (  -0.0971430   0.0560856   0.0000000), wk =   0.0277778
        k(   18) = (  -0.0971430   0.0934759   0.0000000), wk =   0.0555556
        k(   19) = (  -0.0971430   0.1308663   0.0000000), wk =   0.0555556
        k(   20) = (  -0.0971430  -0.0560856   0.0000000), wk =   0.0277778
        k(   21) = (   0.0000000   0.0000000   0.0000000), wk =   0.0277778
        k(   22) = (   0.0000000   0.0373904   0.0000000), wk =   0.0555556
        k(   23) = (   0.0000000   0.0747807   0.0000000), wk =   0.0555556
        k(   24) = (   0.0000000  -0.1121711   0.0000000), wk =   0.0277778
        k(   25) = (   0.0323810  -0.0186952  -0.0000000), wk =   0.0555556
        k(   26) = (   0.0323810   0.0186952  -0.0000000), wk =   0.0555556
        k(   27) = (   0.0323810   0.0560856  -0.0000000), wk =   0.0555556
        k(   28) = (   0.0323810  -0.1308663  -0.0000000), wk =   0.0555556
        k(   29) = (   0.0323810  -0.0934759  -0.0000000), wk =   0.0555556
        k(   30) = (   0.0323810  -0.0560856  -0.0000000), wk =   0.0555556
        k(   31) = (   0.0647620  -0.0373904  -0.0000000), wk =   0.0555556
        k(   32) = (   0.0647620   0.0000000  -0.0000000), wk =   0.0555556
        k(   33) = (   0.0647620   0.0373904  -0.0000000), wk =   0.0555556
        k(   34) = (   0.0647620  -0.1495615  -0.0000000), wk =   0.0555556
        k(   35) = (   0.0647620  -0.1121711  -0.0000000), wk =   0.0555556
        k(   36) = (   0.0647620  -0.0747807  -0.0000000), wk =   0.0555556
        k(   37) = (  -0.0971430   0.0560856   0.0000000), wk =   0.0277778
        k(   38) = (  -0.0971430   0.0934759   0.0000000), wk =   0.0555556
        k(   39) = (  -0.0971430   0.1308663   0.0000000), wk =   0.0555556
        k(   40) = (  -0.0971430  -0.0560856   0.0000000), wk =   0.0277778

     Largest allocated arrays     est. size (Mb)     dimensions
     Largest temporary arrays     est. size (Mb)     dimensions

     Check: negative/imaginary core charge=   -0.000010    0.000000

     Initial potential from superposition of free atoms
     Check: negative starting charge=(component1):   -0.001535
     Check: negative starting charge=(component2):   -0.001021

     starting charge  179.99892, renormalised to  186.00000

     negative rho (up, down):  1.587E-03 1.055E-03

     *
     * You are using vdW-DF for exchange-correlation in this calculation.
     * Please cite the following three references that made this development
     * possible:
     *
     *   M. Dion, H. Rydberg, E. Schroder, D. C. Langreth, and
     *   B. I. Lundqvist, Phys. Rev. Lett. 92, 246401 (2004).
     *
     *   T. Thonhauser, V. R. Cooper, S. Li, A. Puzder, P. Hyldgaard, and
     *   D. C. Langreth, Phys. Rev. B 76, 125112 (2007).
     *
     *   G. Roman-Perez and J. M. Soler, Phys. Rev. Lett. 103, 096102 (2009).
     *
     *
     * If you are using vdW-DF2, please also cite:
     *
     *   K. Lee, E. D. Murray, L. Kong, B. I. Lundqvist, and
     *   D. C. Langreth, Phys. Rev. B 82, 081101(R) (2010).
     *
     *
     * If you are calculating the stress with vdW-DF, please also cite:
     *
     *   R. Sabatini, E. Kucukbenli, B. Kolb, T. Thonhauser, and
     *   S. de Gironcoli, J. Phys.: Condens. Matter 24, 424209 (2012).
     *

     Carrying out vdW-DF run using the following parameters:

     Nqs =      20    Nr_points =    1024   r_max =   100.000
     q_mesh =
               0.00001000     0.04494208     0.09755937     0.15916263
               0.23128650     0.31572767     0.41458969     0.53033537
               0.66584808     0.82450364     1.01025438     1.22772762
               1.48234092     1.78043706     2.12944203     2.53805004
               3.01644009     3.57652955     4.23227104     5.00000000

     Gradients computed in reciprocal space

     Adding external electric field

     Computed dipole along edir(3) :
        Dipole               -1.4042 Ry au,         -3.5691 Debye
        Dipole field         -0.0047 Ry au

        Potential amp.        0.4200 Ry
        Total length         44.5928 bohr

[...]

     Starting wfc are  162 randomized atomic wfcs

     Self-consistent Calculation

     iteration #  1     ecut=    36.75 Ry     beta=0.10
     Davidson diagonalization with overlap
[...]
     ewald contribution        =    9298.37465181 Ry
     electric field correction =       0.00001070 Ry
     smearing contrib. (-TS)   =      -0.10341872 Ry

[...]

     convergence has been achieved in 165 iterations

 BEEF-vdW xc energy contributions
           1 :   -292.786412762283
           2 :    264.529820370097
           3 :   -217.313673482094
           4 :    165.029682838435
           5 :   -119.970155104831
           6 :    88.4877801463579
           7 :   -70.1796913057834
           8 :    60.1908487545815
           9 :   -52.8280584150567
          10 :    44.4522272838534
          11 :   -34.4524121197755
          12 :    24.3484576562250
          13 :   -16.0572043498346
          14 :    10.5371842416770
          15 :   -7.46054953423464
          16 :    5.74801567575804
          17 :   -4.34897609782615
          18 :    2.72547359023946
          19 :  -0.888207869471273
          20 :  -0.854295962506569
          21 :    2.17612401457546
          22 :   -2.89595809827279
          23 :    3.01912671676109
          24 :   -2.72684903383845
          25 :    2.33421712209878
          26 :   -2.18946273198861
          27 :    2.50741599219089
          28 :   -3.22439769265253
          29 :    3.99922248580293
          30 :   -4.40705548850389
          31 :   -27.0262584511273
          32 :   -19.2306666468680

     Forces acting on atoms (Ry/au):

     negative rho (up, down):  1.952E-03 1.760E-03
     atom    1 type  1   force =    -0.00458103   -0.00258860    0.00193486
     atom    2 type  1   force =     0.00049183    0.00189507    0.00125778
     atom    3 type  1   force =     0.00195367   -0.00048900    0.00132163
     atom    4 type  1   force =     0.00019519    0.00005554    0.01352918
     atom    5 type  1   force =    -0.00140353   -0.00079304    0.00137123
     atom    6 type  1   force =     0.00453327    0.00325838   -0.00808332
     atom    7 type  1   force =     0.00502438    0.00232936   -0.00813574
     atom    8 type  1   force =     0.00734660    0.00422642    0.00881548
     atom    9 type  1   force =    -0.00771582   -0.00436523    0.00053583
     atom   10 type  1   force =     0.00093712   -0.01708933    0.02081164
     atom   11 type  1   force =    -0.01421889    0.00931882    0.02065605
     atom   12 type  1   force =     0.00091478    0.00038418   -0.00844080
     atom   13 type  2   force =    -0.03848895   -0.02202296   -0.06824538
     atom   14 type  3   force =     0.02708955    0.01562291    0.03000149
     atom   15 type  3   force =     0.01792183    0.01025747   -0.00732992

     Total force =     0.102834     Total SCF correction =     0.003866

     entering subroutine stress ...

     negative rho (up, down):  1.952E-03 1.760E-03
          total   stress  (Ry/bohr**3)                   (kbar)     P=  -14.95
  -0.00011763   0.00000151   0.00000887        -17.30      0.22      1.30
   0.00000151  -0.00011939   0.00000517          0.22    -17.56      0.76
   0.00000887   0.00000517  -0.00006779          1.30      0.76     -9.97

     BFGS Geometry Optimization

     number of scf cycles    =   1
     number of bfgs steps    =   0

     energy   new            =   -2559.2542538951 Ry

     new trust radius        =       0.0813869841 bohr
     new conv_thr            =       0.0000099958 Ry

ATOMIC_POSITIONS (crystal)
Mn1      0.000000000   0.000000000   0.413179627    0   0   0
Mn1     -0.000000000   0.500000000   0.413179627    0   0   0
Mn1      0.500000000   0.000000000   0.413179627    0   0   0
Mn1      0.500000000   0.500000000   0.413179627    0   0   0
Mn1      0.666666667   0.666666667   0.500000000    0   0   0
Mn1      0.666666667   0.166666667   0.500000000    0   0   0
Mn1      0.166666667   0.666666667   0.500000000    0   0   0
Mn1      0.166666667   0.166666667   0.500000000    0   0   0
Mn1      0.332680961   0.332839992   0.586784532
Mn1      0.334584443   0.831169795   0.587263358
Mn1      0.830993639   0.334855177   0.587271450
Mn1      0.833106814   0.833563474   0.586585377
C1       0.497610529   0.496945869   0.643179393
H1       0.501813186   0.502020371   0.689599693
H1       0.334578347   0.334483517   0.653327528

     Writing output data file calc.save
     Check: negative starting charge=(component1):   -0.002554
     NEW-OLD atomic charge density approx. for the potential

     Check: negative/imaginary core charge=   -0.000010    0.000000
     Check: negative starting charge=(component1):   -0.002558

[...]

     energy   old            =   -2559.2542538951 Ry
     energy   new            =   -2559.2601802991 Ry

     CASE: energy  _new < energy  _old

[...]

     iteration #  1     ecut=    36.75 Ry     beta=0.10
     Davidson diagonalization with overlap
     c_bands:  1 eigenvalues not converged
     c_bands:  1 eigenvalues not converged
     ethr =  1.00E-06,  avg # of iterations =  5.8

[...]

     Total force =     0.009819     Total SCF correction =     0.001180
     SCF correction compared to forces is large: reduce conv_thr to get better values

[...]

     Total force =     0.007713     Total SCF correction =     0.000449

[...]

     number of scf cycles    =  22
     number of bfgs steps    =  21

     energy   old            =   -2559.2958054396 Ry
     energy   new            =   -2559.2958463133 Ry

     CASE: energy  _new < energy  _old

     new trust radius        =       0.0143732746 bohr
     new conv_thr            =       0.0000001000 Ry

ATOMIC_POSITIONS (crystal)
Mn1      0.000000000   0.000000000   0.413179627    0   0   0
Mn1     -0.000000000   0.500000000   0.413179627    0   0   0
Mn1      0.500000000   0.000000000   0.413179627    0   0   0
Mn1      0.500000000   0.500000000   0.413179627    0   0   0
Mn1      0.666666667   0.666666667   0.500000000    0   0   0
Mn1      0.666666667   0.166666667   0.500000000    0   0   0
Mn1      0.166666667   0.666666667   0.500000000    0   0   0
Mn1      0.166666667   0.166666667   0.500000000    0   0   0
Mn1      0.307585028   0.307629769   0.587847642
Mn1      0.315503099   0.809919476   0.586173234
Mn1      0.809919034   0.315522648   0.586169738
Mn1      0.815117695   0.815175135   0.584406497
C1       0.485085433   0.484989013   0.643528779
H1       0.552930020   0.552935965   0.681234218
H1       0.365983565   0.365795883   0.661484959

     Writing output data file calc.save
     Check: negative starting charge=(component1):   -0.002594
     NEW-OLD atomic charge density approx. for the potential

     Check: negative/imaginary core charge=   -0.000010    0.000000
     Check: negative starting charge=(component1):   -0.002591

[...]

     Self-consistent Calculation

[...]

     total energy              =   -2559.29588034 Ry
     Harris-Foulkes estimate   =   -2559.29588023 Ry
     estimated scf accuracy    <       0.00000022 Ry

[...]

     iteration # 18     ecut=    36.75 Ry     beta=0.10
     Davidson diagonalization with overlap
     ethr =  1.20E-10,  avg # of iterations =  1.2

[...]

     negative rho (up, down):  1.941E-03 1.768E-03

[...]

     Adding external electric field

     Computed dipole along edir(3) :
        Dipole                0.1277 Ry au,          0.3246 Debye
        Dipole field          0.0004 Ry au

        Potential amp.       -0.0382 Ry
        Total length         44.5928 bohr

     Magnetic moment per site:
     atom:    1    charge:    6.0016    magn:    1.0050    constr:    0.0000
     atom:    2    charge:    6.0014    magn:    0.9979    constr:    0.0000
     atom:    3    charge:    6.0014    magn:    0.9979    constr:    0.0000
     atom:    4    charge:    6.0016    magn:    1.0223    constr:    0.0000
     atom:    5    charge:    5.9912    magn:   -0.9009    constr:    0.0000
     atom:    6    charge:    5.9912    magn:   -0.8639    constr:    0.0000
     atom:    7    charge:    5.9912    magn:   -0.8640    constr:    0.0000
     atom:    8    charge:    5.9932    magn:    0.9352    constr:    0.0000
     atom:    9    charge:    4.8210    magn:   -0.9154    constr:    0.0000
     atom:   10    charge:    5.1852    magn:    0.7309    constr:    0.0000
     atom:   11    charge:    5.1835    magn:    0.7305    constr:    0.0000
     atom:   12    charge:    5.3019    magn:    1.0552    constr:    0.0000
     atom:   13    charge:    0.6349    magn:   -0.0184    constr:    0.0000
     atom:   14    charge:    0.2284    magn:    0.0025    constr:    0.0000
     atom:   15    charge:    0.2551    magn:    0.0037    constr:    0.0000

     End of self-consistent calculation

 ------ SPIN UP ------------

[...]

 ------ SPIN DOWN ----------

[...]

          k = 0.0648-0.0748-0.0000 ( 14076 PWs)   bands (ev):

[...]

          k =-0.0971-0.0561 0.0000 ( 14098 PWs)   bands (ev):

   -79.2876 -78.9522 -78.8846 -78.8537 -76.3671 -76.3319 -76.2696 -75.9685
   -75.9560 -75.9225 -75.9215 -75.9193 -48.0252 -48.0186 -47.9518 -47.7700
   -47.7251 -47.6747 -47.6552 -47.6161 -47.5556 -47.5540 -47.5382 -47.3329
   -45.3649 -45.1875 -45.1401 -45.0808 -45.0588 -45.0379 -45.0051 -45.0026
   -44.9556 -44.9191 -44.8961 -44.7943 -44.7913 -44.7658 -44.7415 -44.7233
   -44.7032 -44.6823 -44.6512 -44.6296 -44.6189 -44.6065 -44.5836 -44.5783
   -11.0887  -5.3209  -4.1806  -3.7503  -3.3691  -2.3150  -1.9753  -1.9724
    -1.9115  -1.7171  -1.6854  -1.5442  -1.5386  -1.4584  -1.1112  -1.0719
    -0.8392  -0.8149  -0.7486  -0.7066  -0.5346  -0.5120  -0.3146  -0.3056
    -0.1978  -0.0061   0.3982   0.4137   0.5623   0.5822   0.7958   0.8028
     0.9322   0.9971   1.1986   1.2582   1.3044   1.4041   1.4209   1.4473
     1.5832   1.6130   1.6692   1.8463   1.9782   2.1863   2.2672   2.4138
     2.4907   2.5143   2.5656   2.7355   2.8052   2.8952   2.9339

     the Fermi energy is     1.6394 ev

!    total energy              =   -2559.29588085 Ry
     Harris-Foulkes estimate   =   -2559.29588049 Ry
     estimated scf accuracy    <       0.00000008 Ry

     The total energy is the sum of the following terms:

     one-electron contribution =  -23097.30301547 Ry
     hartree contribution      =   11549.27295236 Ry
     xc contribution           =    -336.02410939 Ry
     ewald contribution        =    9324.86057664 Ry
     electric field correction =       0.00005471 Ry
     smearing contrib. (-TS)   =      -0.10233971 Ry

     total magnetization       =    10.50 Bohr mag/cell
     absolute magnetization    =    29.68 Bohr mag/cell

     convergence has been achieved in  18 iterations

 BEEF-vdW xc energy contributions
           1 :   -292.965487370298
           2 :    264.696092385963
           3 :   -217.459624208353
           4 :    165.157986454906
           5 :   -120.086528685211
           6 :    88.5891204305921
           7 :   -70.2548325210853
           8 :    60.2352560155876
           9 :   -52.8573844171627
          10 :    44.4958006433891
          11 :   -34.5287433227938
          12 :    24.4464530363442
          13 :   -16.1422999144155
          14 :    10.5784227772694
          15 :   -7.45496331427847
          16 :    5.72162451736801
          17 :   -4.33737675853439
          18 :    2.75225157028245
          19 :  -0.954779129548626
          20 :  -0.764996437641969
          21 :    2.08828344732132
          22 :   -2.83025853003517
          23 :    2.98677556797350
          24 :   -2.72783861840952
          25 :    2.35809246647096
          26 :   -2.21868855185369
          27 :    2.52415676851643
          28 :   -3.21782352331917
          29 :    3.96758129676954
          30 :   -4.35269024957040
          31 :   -27.0286777198230
          32 :   -19.2305389347038

     Forces acting on atoms (Ry/au):

     negative rho (up, down):  1.941E-03 1.768E-03
     atom    1 type  1   force =    -0.00536941   -0.00309962    0.00288772
     atom    2 type  1   force =    -0.00040457    0.00141394    0.00143100
     atom    3 type  1   force =     0.00102316   -0.00105741    0.00142752
     atom    4 type  1   force =     0.00020928    0.00012100    0.01282031
     atom    5 type  1   force =    -0.00427889   -0.00247254   -0.00527723
     atom    6 type  1   force =     0.00055744    0.00128468   -0.01073446
     atom    7 type  1   force =     0.00138356   -0.00015493   -0.01073169
     atom    8 type  1   force =     0.00205009    0.00117336    0.00922352
     atom    9 type  1   force =    -0.00098579   -0.00056511   -0.00080043
     atom   10 type  1   force =     0.00103161    0.00107581    0.00008932
     atom   11 type  1   force =     0.00147240    0.00035636    0.00007844
     atom   12 type  1   force =     0.00001178   -0.00001039   -0.00155165
     atom   13 type  2   force =     0.00162903    0.00096662   -0.00060709
     atom   14 type  3   force =     0.00095834    0.00055258    0.00163189
     atom   15 type  3   force =     0.00071196    0.00041562    0.00011283

     Total force =     0.004172     Total SCF correction =     0.000770
     SCF correction compared to forces is large: reduce conv_thr to get better values

     entering subroutine stress ...

     negative rho (up, down):  1.941E-03 1.768E-03
          total   stress  (Ry/bohr**3)                   (kbar)     P=   -9.02
  -0.00006155   0.00002070   0.00001276         -9.05      3.05      1.88
   0.00002070  -0.00008549   0.00000739          3.05    -12.58      1.09
   0.00001276   0.00000739  -0.00003683          1.88      1.09     -5.42

     bfgs converged in  23 scf cycles and  22 bfgs steps
     (criteria: energy <  1.0E+00, force <  1.9E-03)

     End of BFGS Geometry Optimization

     Final energy   =   -2559.2958808539 Ry
Begin final coordinates

ATOMIC_POSITIONS (crystal)
Mn1      0.000000000   0.000000000   0.413179627    0   0   0
Mn1     -0.000000000   0.500000000   0.413179627    0   0   0
Mn1      0.500000000   0.000000000   0.413179627    0   0   0
Mn1      0.500000000   0.500000000   0.413179627    0   0   0
Mn1      0.666666667   0.666666667   0.500000000    0   0   0
Mn1      0.666666667   0.166666667   0.500000000    0   0   0
Mn1      0.166666667   0.666666667   0.500000000    0   0   0
Mn1      0.166666667   0.166666667   0.500000000    0   0   0
Mn1      0.307585028   0.307629769   0.587847642
Mn1      0.315503099   0.809919476   0.586173234
Mn1      0.809919034   0.315522648   0.586169738
Mn1      0.815117695   0.815175135   0.584406497
C1       0.485085433   0.484989013   0.643528779
H1       0.552930020   0.552935965   0.681234218
H1       0.365983565   0.365795883   0.661484959
End final coordinates

     Writing output data file calc.save

     General routines

     Parallel routines

   This run was terminated on:   2: 6:53  11May2018

   JOB DONE.
Job  /afs/slac/g/suncat/bin/suncat-tsmpirun -x LD_LIBRARY_PATH -wdir /scratch/qe556999_bn24x pw.x -npool 2 -in pw.inp

TID   HOST_NAME   COMMAND_LINE            STATUS            TERMINATION_TIME
00000 suncat2072 pw.x -npool 2 -i  Done                     05/11/2018 02:06:53
00001 suncat2072 pw.x -npool 2 -i  Done                     05/11/2018 02:06:53
00002 suncat2072 pw.x -npool 2 -i  Done                     05/11/2018 02:06:53
00003 suncat2072 pw.x -npool 2 -i  Done                     05/11/2018 02:06:53
00004 suncat2072 pw.x -npool 2 -i  Done                     05/11/2018 02:06:53
00005 suncat2072 pw.x -npool 2 -i  Done                     05/11/2018 02:06:53
00006 suncat2072 pw.x -npool 2 -i  Done                     05/11/2018 02:06:53
00007 suncat2072 pw.x -npool 2 -i  Done                     05/11/2018 02:06:53
00008 suncat2058 pw.x -npool 2 -i  Done                     05/11/2018 02:06:53
00009 suncat2058 pw.x -npool 2 -i  Done                     05/11/2018 02:06:53
00010 suncat2058 pw.x -npool 2 -i  Done                     05/11/2018 02:06:53
00011 suncat2058 pw.x -npool 2 -i  Done                     05/11/2018 02:06:53
00012 suncat2058 pw.x -npool 2 -i  Done                     05/11/2018 02:06:53
00013 suncat2058 pw.x -npool 2 -i  Done                     05/11/2018 02:06:53
00014 suncat2058 pw.x -npool 2 -i  Done                     05/11/2018 02:06:53
00015 suncat2058 pw.x -npool 2 -i  Done                     05/11/2018 02:06:53
00016 suncat2058 pw.x -npool 2 -i  Done                     05/11/2018 02:06:53
00017 suncat2058 pw.x -npool 2 -i  Done                     05/11/2018 02:06:53
00018 suncat2058 pw.x -npool 2 -i  Done                     05/11/2018 02:06:53
00019 suncat2058 pw.x -npool 2 -i  Done                     05/11/2018 02:06:53
00020 suncat2058 pw.x -npool 2 -i  Done                     05/11/2018 02:06:53
00021 suncat2058 pw.x -npool 2 -i  Done                     05/11/2018 02:06:53
00022 suncat2058 pw.x -npool 2 -i  Done                     05/11/2018 02:06:53
00023 suncat2058 pw.x -npool 2 -i  Done                     05/11/2018 02:06:53