     Program PWSCF v.5.1rc2 (svn rev. 11289) starts on 16Apr2018 at 22:20:58

     Current dimensions of program PWSCF are:
     Max number of different atomic species (ntypx) = 10
     Max number of k-points (npk) =  40000
     Max angular momentum in pseudopotentials (lmaxx) =  3
     Presently stress not available with electric field

     IMPORTANT: XC functional enforced from input :
     Exchange-correlation      = BEEF-VDW ( 1  4 27 13 2)
     Any further DFT definition will be discarded
     Please, verify this is what you really want

     Subspace diagonalization in iterative solution of the eigenvalue problem:
     a serial algorithm will be used

     bravais-lattice index     =            0
     lattice parameter (alat)  =       1.8897  a.u.
     unit-cell volume          =    3724.3394 (a.u.)^3
     number of atoms/cell      =           14
     number of atomic types    =            3
     number of electrons       =       175.00
     number of Kohn-Sham states=           97
     kinetic-energy cutoff     =      36.7493  Ry
     charge density cutoff     =     367.4932  Ry
     convergence threshold     =      1.0E-05
     mixing beta               =       0.3000
     number of iterations used =           10  plain     mixing
     Exchange-correlation      = BEEF-VDW ( 1  4 27 13 2)
     nstep                     =           50

     celldm(1)=   1.889726  celldm(2)=   0.000000  celldm(3)=   0.000000
     celldm(4)=   0.000000  celldm(5)=   0.000000  celldm(6)=   0.000000

     crystal axes: (cart. coord. in units of alat)
               a(1) = (   5.132588   0.000000   0.000000 )
               a(2) = (   2.566294   4.444952   0.000000 )
               a(3) = (   0.000000   0.000000  24.190741 )

     reciprocal axes: (cart. coord. in units 2 pi/alat)
               b(1) = (  0.194833 -0.112487  0.000000 )
               b(2) = (  0.000000  0.224974  0.000000 )
               b(3) = (  0.000000  0.000000  0.041338 )

     PseudoPot. # 1 for Cr read from file:
     /u/if/mamunm/psp/gbrv1.5pbe/Cr.UPF
     MD5 check sum: 0d52af634a40206e4dee301ad30da4bf
     Pseudo is Ultrasoft + core correction, Zval = 14.0
     Generated by new atomic code, or converted to UPF format
     Using radial grid of  857 points,  6 beta functions with:
                l(1) =   0
                l(2) =   0
                l(3) =   1
                l(4) =   1
                l(5) =   2
                l(6) =   2
     Q(r) pseudized with  8 coefficients,  rinner =    0.950   0.950   0.950
                                                       0.950   0.950

     PseudoPot. # 2 for O  read from file:
     /u/if/mamunm/psp/gbrv1.5pbe/O.UPF
     MD5 check sum: 734c27235a0248c51dbae37a1fbe46ec
     Pseudo is Ultrasoft + core correction, Zval =  6.0
     Generated by new atomic code, or converted to UPF format
     Using radial grid of  737 points,  5 beta functions with:
                l(1) =   0
                l(2) =   0
                l(3) =   1
                l(4) =   1
                l(5) =   2
     Q(r) pseudized with  8 coefficients,  rinner =    0.900   0.900   0.900
                                                       0.900   0.900

     PseudoPot. # 3 for H  read from file:
     /u/if/mamunm/psp/gbrv1.5pbe/H.UPF
     MD5 check sum: 761ae9a214b05c3daf00ab9f6b793d6f
     Pseudo is Ultrasoft, Zval =  1.0
     Generated by new atomic code, or converted to UPF format
     Using radial grid of  615 points,  2 beta functions with:
                l(1) =   0
                l(2) =   0
     Q(r) pseudized with  8 coefficients,  rinner =    0.700

     vdW kernel table read from file vdW_kernel_table
     MD5 check sum: 095c7af220d748ca6e76c0b4c6cfb241

     atomic species   valence    mass     pseudopotential
        Cr1           14.00    51.99610     Cr( 1.00)
        O1             6.00    15.99900     O ( 1.00)
        H1             1.00     1.00800     H ( 1.00)

     No symmetry found

   Cartesian axes

     site n.     atom                  positions (alat units)
         1           Cr1 tau(   1) = (   1.2831471   0.7408253  10.0000000  )
         2           Cr1 tau(   2) = (   3.8494412   0.7408253  10.0000000  )
         3           Cr1 tau(   3) = (   2.5662941   2.9633012  10.0000000  )
         4           Cr1 tau(   4) = (   5.1325882   2.9633012  10.0000000  )
         5           Cr1 tau(   5) = (   5.1325882   1.4816506  12.0953704  )
         6           Cr1 tau(   6) = (   2.5662941   1.4816506  12.0953704  )
         7           Cr1 tau(   7) = (   6.4157353   3.7041265  12.0953704  )
         8           Cr1 tau(   8) = (   3.8494412   3.7041265  12.0953704  )
         9           Cr1 tau(   9) = (   0.0000000   0.0000000  14.1907408  )
        10           Cr1 tau(  10) = (   2.5662941   0.0000000  14.1907408  )
        11           Cr1 tau(  11) = (   1.2831471   2.2224759  14.1907408  )
        12           Cr1 tau(  12) = (   3.8494412   2.2224759  14.1907408  )
        13           O1  tau(  13) = (   1.2831471   0.7408253  15.5232408  )
        14           H1  tau(  14) = (   1.2831471   0.7408253  16.4732408  )

     number of k points=    20  Fermi-Dirac smearing, width (Ry)=  0.0110
                       cart. coord. in units 2pi/alat
        k(    1) = (   0.0000000   0.0000000   0.0000000), wk =   0.0555556
        k(    2) = (   0.0000000   0.0374957   0.0000000), wk =   0.1111111
        k(    3) = (   0.0000000   0.0749914   0.0000000), wk =   0.1111111
        k(    4) = (   0.0000000  -0.1124872   0.0000000), wk =   0.0555556
        k(    5) = (   0.0324722  -0.0187479   0.0000000), wk =   0.1111111
        k(    6) = (   0.0324722   0.0187479   0.0000000), wk =   0.1111111
        k(    7) = (   0.0324722   0.0562436   0.0000000), wk =   0.1111111
        k(    8) = (   0.0324722  -0.1312350   0.0000000), wk =   0.1111111
        k(    9) = (   0.0324722  -0.0937393   0.0000000), wk =   0.1111111
        k(   10) = (   0.0324722  -0.0562436   0.0000000), wk =   0.1111111
        k(   11) = (   0.0649445  -0.0374957   0.0000000), wk =   0.1111111
        k(   12) = (   0.0649445   0.0000000   0.0000000), wk =   0.1111111
        k(   13) = (   0.0649445   0.0374957   0.0000000), wk =   0.1111111
        k(   14) = (   0.0649445  -0.1499829   0.0000000), wk =   0.1111111
        k(   15) = (   0.0649445  -0.1124872   0.0000000), wk =   0.1111111
        k(   16) = (   0.0649445  -0.0749914   0.0000000), wk =   0.1111111
        k(   17) = (  -0.0974167   0.0562436   0.0000000), wk =   0.0555556
        k(   18) = (  -0.0974167   0.0937393   0.0000000), wk =   0.1111111
        k(   19) = (  -0.0974167   0.1312350   0.0000000), wk =   0.1111111
        k(   20) = (  -0.0974167  -0.0562436   0.0000000), wk =   0.0555556

     Largest allocated arrays     est. size (Mb)     dimensions
     Largest temporary arrays     est. size (Mb)     dimensions

     Check: negative/imaginary core charge=   -0.000004    0.000000

     Initial potential from superposition of free atoms
     Check: negative starting charge=   -0.014897

     starting charge  162.99980, renormalised to  175.00000

     negative rho (up, down):  1.599E-02 0.000E+00

     *
     * You are using vdW-DF for exchange-correlation in this calculation.
     * Please cite the following three references that made this development
     * possible:
     *
     *   M. Dion, H. Rydberg, E. Schroder, D. C. Langreth, and
     *   B. I. Lundqvist, Phys. Rev. Lett. 92, 246401 (2004).
     *
     *   T. Thonhauser, V. R. Cooper, S. Li, A. Puzder, P. Hyldgaard, and
     *   D. C. Langreth, Phys. Rev. B 76, 125112 (2007).
     *
     *   G. Roman-Perez and J. M. Soler, Phys. Rev. Lett. 103, 096102 (2009).
     *
     *
     * If you are using vdW-DF2, please also cite:
     *
     *   K. Lee, E. D. Murray, L. Kong, B. I. Lundqvist, and
     *   D. C. Langreth, Phys. Rev. B 82, 081101(R) (2010).
     *
     *
     * If you are calculating the stress with vdW-DF, please also cite:
     *
     *   R. Sabatini, E. Kucukbenli, B. Kolb, T. Thonhauser, and
     *   S. de Gironcoli, J. Phys.: Condens. Matter 24, 424209 (2012).
     *

     Carrying out vdW-DF run using the following parameters:

     Nqs =      20    Nr_points =    1024   r_max =   100.000
     q_mesh =
               0.00001000     0.04494208     0.09755937     0.15916263
               0.23128650     0.31572767     0.41458969     0.53033537
               0.66584808     0.82450364     1.01025438     1.22772762
               1.48234092     1.78043706     2.12944203     2.53805004
               3.01644009     3.57652955     4.23227104     5.00000000

     Gradients computed in reciprocal space

     Adding external electric field

     Computed dipole along edir(3) :
        Dipole               -3.4704 Ry au,         -8.8208 Debye
        Dipole field         -0.0117 Ry au

        Potential amp.        1.0438 Ry
        Total length         44.5710 bohr

     Starting wfc are  125 randomized atomic wfcs

     Self-consistent Calculation

     iteration #  1     ecut=    36.75 Ry     beta=0.30
     Davidson diagonalization with overlap
     ethr =  1.00E-02,  avg # of iterations =  8.6

[...]

     total energy              =   -1839.27748307 Ry
     Harris-Foulkes estimate   =   -2148.07405865 Ry
     estimated scf accuracy    <     643.09098413 Ry

     iteration #  2     ecut=    36.75 Ry     beta=0.30
     Davidson diagonalization with overlap
     c_bands:  2 eigenvalues not converged
     ethr =  1.00E-02,  avg # of iterations = 20.1

[...]

     End of self-consistent calculation

          k = 0.0000 0.0000 0.0000 ( 14081 PWs)   bands (ev):

   -69.7655 -69.6814 -69.6486 -69.6473 -69.5866 -69.5774 -69.5771 -69.5612
   -69.5172 -69.4643 -69.4639 -69.4619 -41.4465 -41.3319 -41.3318 -41.3182
   -41.2605 -41.2483 -41.2479 -41.1396 -41.1371 -41.1370 -41.0159 -41.0149
   -41.0039 -40.8837 -40.8639 -40.8602 -40.8600 -40.8273 -40.8268 -40.8162
   -40.7602 -40.7598 -40.7442 -40.7335 -40.7330 -40.7290 -40.6884 -40.6471
   -40.6471 -40.6105 -40.6103 -40.6100 -40.5916 -40.5914 -40.4759 -40.4759
   -19.9781  -8.2590  -4.6036  -4.2250  -4.2249  -2.8087  -1.8844  -1.6748
    -1.6069  -1.6068  -1.2785  -1.2784  -1.2543  -0.9232  -0.9231  -0.8453
    -0.7213  -0.7212  -0.6530   0.1633   0.1635   0.3699   0.9620   1.0590
     1.0590   1.0862   1.2792   1.5585   1.5585   1.6817   1.7147   1.7148
     1.8110   1.8112   1.8299   1.8803   1.8804   1.9321   1.9424   1.9424
     2.5275   2.6769   2.6770   2.8783   2.9895   2.9897   3.1002   3.1773
     3.1773

[...]

          k =-0.0974 0.0562 0.0000 ( 14010 PWs)   bands (ev):

[...]

     the Fermi energy is     2.0088 ev

!    total energy              =   -2148.77042435 Ry
     Harris-Foulkes estimate   =   -2148.77043680 Ry
     estimated scf accuracy    <       0.00000816 Ry

     The total energy is the sum of the following terms:

     one-electron contribution =  -20247.74215950 Ry
     hartree contribution      =   10121.83121544 Ry
     xc contribution           =    -287.61979051 Ry
     ewald contribution        =    8264.89203468 Ry
     electric field correction =       0.00066371 Ry
     smearing contrib. (-TS)   =      -0.13238817 Ry

     convergence has been achieved in  52 iterations

 BEEF-vdW xc energy contributions
           1 :   -248.915871610969
           2 :    223.966272164817
           3 :   -182.314868437558
           4 :    136.489011636165
           5 :   -97.8608103953009
           6 :    72.5278724923155
           7 :   -60.1809167736727
           8 :    55.9723151418683
           9 :   -53.9776887956392
          10 :    50.2629288928886
          11 :   -44.1377518006851
          12 :    37.3815085250314
          13 :   -32.3369353487631
          14 :    30.1801027119771
          15 :   -30.3116058780529
          16 :    30.9844810530666
          17 :   -30.5520158482847
          18 :    28.4652593437885
          19 :   -25.4474043229578
          20 :    22.8464829424821
          21 :   -21.6721249083959
          22 :    21.9593395061326
          23 :   -22.8308625490571
          24 :    23.1447428403925
          25 :   -22.2539601148849
          26 :    20.3762376476847
          27 :   -18.3731165689943
          28 :    17.1357633470375
          29 :   -17.0080319845853
          30 :    17.6082714632764
          31 :   -24.6982904592921
          32 :   -17.7204118679564

     Forces acting on atoms (Ry/au):

     negative rho (up, down):  1.453E-02 0.000E+00
     atom    1 type  1   force =     0.00000158   -0.00001991    0.00153587
     atom    2 type  1   force =     0.00001999   -0.00074946   -0.00152324
     atom    3 type  1   force =    -0.00061486    0.00037297   -0.00151671
     atom    4 type  1   force =     0.00064153    0.00037046   -0.00145884
     atom    5 type  1   force =     0.00265170   -0.00154889    0.00298110
     atom    6 type  1   force =    -0.00263256   -0.00154378    0.00296470
     atom    7 type  1   force =     0.00002972    0.00000133   -0.01444270
     atom    8 type  1   force =     0.00000485    0.00306220    0.00299566
     atom    9 type  1   force =    -0.02394315   -0.01383657    0.01228587
     atom   10 type  1   force =     0.02394102   -0.01384114    0.01235141
     atom   11 type  1   force =    -0.00000503    0.02765910    0.01231363
     atom   12 type  1   force =     0.00002540    0.00000077   -0.04232968
     atom   13 type  2   force =    -0.00012966    0.00008054   -0.03271433
     atom   14 type  3   force =     0.00000946   -0.00000764    0.04655726

     Total force =     0.088200     Total SCF correction =     0.005110

     entering subroutine stress ...

     negative rho (up, down):  1.453E-02 0.000E+00
          total   stress  (Ry/bohr**3)                   (kbar)     P=  -21.15
  -0.00022930   0.00000012   0.00000018        -33.73      0.02      0.03
   0.00000012  -0.00022917  -0.00000012          0.02    -33.71     -0.02
   0.00000018  -0.00000012   0.00002723          0.03     -0.02      4.01

     BFGS Geometry Optimization

     number of scf cycles    =   1
     number of bfgs steps    =   0

     energy   new            =   -2148.7704243539 Ry

     new trust radius        =       0.0465572585 bohr
     new conv_thr            =       0.0000099958 Ry

ATOMIC_POSITIONS (crystal)
Cr1      0.166666667   0.166666667   0.413381306    0   0   0
Cr1      0.666666667   0.166666667   0.413381306    0   0   0
Cr1      0.166666667   0.666666667   0.413381306    0   0   0
Cr1      0.666666667   0.666666667   0.413381306    0   0   0
Cr1      0.833333333   0.333333333   0.500000000    0   0   0
Cr1      0.333333333   0.333333333   0.500000000    0   0   0
Cr1      0.833333333   0.833333333   0.500000000    0   0   0
Cr1      0.333333333   0.833333333   0.500000000    0   0   0
Cr1     -0.001644942  -0.001647261   0.586887450
Cr1      0.503292256  -0.001647805   0.586888884
Cr1     -0.001646944   0.503292852   0.586888057
Cr1      0.500002573   0.500000092   0.585692724
O1       0.166648505   0.166676255   0.640986121
H1       0.166668096   0.166665758   0.681991426

     Writing output data file calc.save
     Check: negative starting charge=   -0.014897
     NEW-OLD atomic charge density approx. for the potential

     Check: negative/imaginary core charge=   -0.000004    0.000000
     Check: negative starting charge=   -0.014661

[...]

     energy   old            =   -2148.7704243539 Ry
     energy   new            =   -2148.7743653457 Ry

     CASE: energy  _new < energy  _old

[...]

     Total force =     0.007490     Total SCF correction =     0.000554

[...]

     Total force =     0.005962     Total SCF correction =     0.000763
     SCF correction compared to forces is large: reduce conv_thr to get better values

[...]

     number of scf cycles    =  10
     number of bfgs steps    =   9

     energy   old            =   -2148.8014035507 Ry
     energy   new            =   -2148.8014646046 Ry

     CASE: energy  _new < energy  _old

     new trust radius        =       0.0089084474 bohr
     new conv_thr            =       0.0000001000 Ry

ATOMIC_POSITIONS (crystal)
Cr1      0.166666667   0.166666667   0.413381306    0   0   0
Cr1      0.666666667   0.166666667   0.413381306    0   0   0
Cr1      0.166666667   0.666666667   0.413381306    0   0   0
Cr1      0.666666667   0.666666667   0.413381306    0   0   0
Cr1      0.833333333   0.333333333   0.500000000    0   0   0
Cr1      0.333333333   0.333333333   0.500000000    0   0   0
Cr1      0.833333333   0.833333333   0.500000000    0   0   0
Cr1      0.333333333   0.833333333   0.500000000    0   0   0
Cr1     -0.010068346  -0.010085158   0.590364960
Cr1      0.520098400  -0.010051223   0.590365274
Cr1     -0.010076507   0.520166747   0.590365795
Cr1      0.500012819   0.499994386   0.570320235
O1       0.166629295   0.166688823   0.643210098
H1       0.166652214   0.166670541   0.683368639

     Writing output data file calc.save
     Check: negative starting charge=   -0.014787
     NEW-OLD atomic charge density approx. for the potential

     Check: negative/imaginary core charge=   -0.000004    0.000000
     Check: negative starting charge=   -0.014779

[...]

     Self-consistent Calculation

[...]

     total energy              =   -2148.80152191 Ry
     Harris-Foulkes estimate   =   -2148.80152182 Ry
     estimated scf accuracy    <       0.00000011 Ry

     iteration # 28     ecut=    36.75 Ry     beta=0.30
     Davidson diagonalization with overlap
     ethr =  6.09E-11,  avg # of iterations =  1.1

[...]

     negative rho (up, down):  1.449E-02 0.000E+00

     Adding external electric field

     Computed dipole along edir(3) :
        Dipole                0.4841 Ry au,          1.2304 Debye
        Dipole field          0.0016 Ry au

        Potential amp.       -0.1456 Ry
        Total length         44.5710 bohr

     End of self-consistent calculation

[...]

          k = 0.0649-0.0750 0.0000 ( 13990 PWs)   bands (ev):

[...]

          k =-0.0974-0.0562 0.0000 ( 14010 PWs)   bands (ev):

   -69.7372 -69.6818 -69.6515 -69.6426 -69.6374 -69.5767 -69.5475 -69.4808
   -69.4734 -69.4335 -69.4232 -69.4189 -41.3867 -41.3752 -41.2462 -41.2250
   -41.1865 -41.1786 -41.1058 -41.0872 -41.0460 -41.0295 -41.0197 -40.9977
   -40.9770 -40.9422 -40.9355 -40.8857 -40.8750 -40.8495 -40.8110 -40.7951
   -40.7924 -40.7571 -40.7507 -40.7437 -40.7228 -40.7109 -40.7069 -40.7059
   -40.6820 -40.6722 -40.6530 -40.5581 -40.5283 -40.5003 -40.4925 -40.4446
   -19.8258  -7.9315  -4.3391  -4.1084  -2.7727  -2.7001  -1.4417  -1.2678
    -0.9882  -0.9612  -0.8326  -0.8148  -0.7751  -0.4644  -0.2845  -0.1753
    -0.1239  -0.0233   0.0782   0.2148   0.3325   0.4130   0.5680   0.5988
     0.6215   0.6922   0.8153   0.9069   0.9370   1.1819   1.2614   1.3137
     1.3615   1.4221   1.5019   1.6397   1.6746   1.7233   1.7935   1.8211
     2.0446   2.1477   2.4045   2.4503   2.5068   2.5152   2.6244   2.7786
     2.9198

     the Fermi energy is     2.0645 ev

!    total energy              =   -2148.80152185 Ry
     Harris-Foulkes estimate   =   -2148.80152006 Ry
     estimated scf accuracy    <       0.00000006 Ry

     The total energy is the sum of the following terms:

     one-electron contribution =  -20288.94865105 Ry
     hartree contribution      =   10142.52170925 Ry
     xc contribution           =    -287.70582844 Ry
     ewald contribution        =    8285.45250441 Ry
     electric field correction =       0.00079061 Ry
     smearing contrib. (-TS)   =      -0.12204663 Ry

     convergence has been achieved in  28 iterations

 BEEF-vdW xc energy contributions
           1 :   -249.003165517510
           2 :    224.056667841427
           3 :   -182.400184507706
           4 :    136.540614504721
           5 :   -97.8326044884483
           6 :    72.3753060720834
           7 :   -59.8895459659696
           8 :    55.5805742282325
           9 :   -53.5729735152177
          10 :    49.9425914171312
          11 :   -43.9518329580603
          12 :    37.2933745676604
          13 :   -32.2356881297109
          14 :    29.9465732830450
          15 :   -29.8990674175050
          16 :    30.4598505438447
          17 :   -30.0643491423443
          18 :    28.1549948825760
          19 :   -25.3540173662029
          20 :    22.8783741321510
          21 :   -21.6626585431601
          22 :    21.7739042912587
          23 :   -22.4537089023095
          24 :    22.6879566834082
          25 :   -21.8838378905315
          26 :    20.2065764333194
          27 :   -18.3945862902236
          28 :    17.2247733928726
          29 :   -17.0070444149871
          30 :    17.4260757318003
          31 :   -24.7029989473746
          32 :   -17.7211051940061

     Forces acting on atoms (Ry/au):

     negative rho (up, down):  1.449E-02 0.000E+00
     atom    1 type  1   force =     0.00000350   -0.00000182    0.00857761
     atom    2 type  1   force =    -0.00000087   -0.00038873   -0.00302587
     atom    3 type  1   force =    -0.00033564    0.00019339   -0.00302552
     atom    4 type  1   force =     0.00033600    0.00019426   -0.00302532
     atom    5 type  1   force =     0.02145598   -0.01238705   -0.00294925
     atom    6 type  1   force =    -0.02145216   -0.01238220   -0.00294998
     atom    7 type  1   force =    -0.00000277   -0.00000074    0.01096064
     atom    8 type  1   force =    -0.00000214    0.02476528   -0.00295334
     atom    9 type  1   force =    -0.00076917   -0.00043446   -0.00094158
     atom   10 type  1   force =     0.00076662   -0.00043910   -0.00094674
     atom   11 type  1   force =    -0.00000598    0.00088404   -0.00094539
     atom   12 type  1   force =     0.00000225   -0.00000557    0.00040165
     atom   13 type  2   force =     0.00000414    0.00000309    0.00055496
     atom   14 type  3   force =     0.00000024   -0.00000040    0.00026814

     Total force =     0.002358     Total SCF correction =     0.000333
     SCF correction compared to forces is large: reduce conv_thr to get better values

     entering subroutine stress ...

     negative rho (up, down):  1.449E-02 0.000E+00
          total   stress  (Ry/bohr**3)                   (kbar)     P=  -18.13
  -0.00017926  -0.00000002   0.00000002        -26.37     -0.00      0.00
  -0.00000002  -0.00017928  -0.00000002         -0.00    -26.37     -0.00
   0.00000002  -0.00000002  -0.00001109          0.00     -0.00     -1.63

     bfgs converged in  11 scf cycles and  10 bfgs steps
     (criteria: energy <  1.0E+00, force <  1.9E-03)

     End of BFGS Geometry Optimization

     Final energy   =   -2148.8015218519 Ry
Begin final coordinates

ATOMIC_POSITIONS (crystal)
Cr1      0.166666667   0.166666667   0.413381306    0   0   0
Cr1      0.666666667   0.166666667   0.413381306    0   0   0
Cr1      0.166666667   0.666666667   0.413381306    0   0   0
Cr1      0.666666667   0.666666667   0.413381306    0   0   0
Cr1      0.833333333   0.333333333   0.500000000    0   0   0
Cr1      0.333333333   0.333333333   0.500000000    0   0   0
Cr1      0.833333333   0.833333333   0.500000000    0   0   0
Cr1      0.333333333   0.833333333   0.500000000    0   0   0
Cr1     -0.010068346  -0.010085158   0.590364960
Cr1      0.520098400  -0.010051223   0.590365274
Cr1     -0.010076507   0.520166747   0.590365795
Cr1      0.500012819   0.499994386   0.570320235
O1       0.166629295   0.166688823   0.643210098
H1       0.166652214   0.166670541   0.683368639
End final coordinates

     Writing output data file calc.save

     General routines

     Parallel routines

   This run was terminated on:   0: 9:17  17Apr2018

   JOB DONE.
Job  /afs/slac/g/suncat/bin/suncat-tsmpirun -x LD_LIBRARY_PATH -wdir /scratch/qe154409_fTi4I pw.x -npool 4 -in pw.inp

TID   HOST_NAME   COMMAND_LINE            STATUS            TERMINATION_TIME
00000 suncat0060 pw.x -npool 4 -i  Done                     04/17/2018 00:09:17
00001 suncat0060 pw.x -npool 4 -i  Done                     04/17/2018 00:09:17
00002 suncat0060 pw.x -npool 4 -i  Done                     04/17/2018 00:09:17
00003 suncat0060 pw.x -npool 4 -i  Done                     04/17/2018 00:09:17
00004 suncat0060 pw.x -npool 4 -i  Done                     04/17/2018 00:09:17
00005 suncat0060 pw.x -npool 4 -i  Done                     04/17/2018 00:09:17
00006 suncat0060 pw.x -npool 4 -i  Done                     04/17/2018 00:09:17
00007 suncat0060 pw.x -npool 4 -i  Done                     04/17/2018 00:09:17
00008 suncat0049 pw.x -npool 4 -i  Done                     04/17/2018 00:09:17
00009 suncat0049 pw.x -npool 4 -i  Done                     04/17/2018 00:09:17
00010 suncat0049 pw.x -npool 4 -i  Done                     04/17/2018 00:09:17
00011 suncat0049 pw.x -npool 4 -i  Done                     04/17/2018 00:09:17
00012 suncat0049 pw.x -npool 4 -i  Done                     04/17/2018 00:09:17
00013 suncat0049 pw.x -npool 4 -i  Done                     04/17/2018 00:09:17
00014 suncat0049 pw.x -npool 4 -i  Done                     04/17/2018 00:09:17
00015 suncat0049 pw.x -npool 4 -i  Done                     04/17/2018 00:09:17
00016 suncat0239 pw.x -npool 4 -i  Done                     04/17/2018 00:09:17
00017 suncat0239 pw.x -npool 4 -i  Done                     04/17/2018 00:09:17
00018 suncat0239 pw.x -npool 4 -i  Done                     04/17/2018 00:09:17
00019 suncat0239 pw.x -npool 4 -i  Done                     04/17/2018 00:09:17
00020 suncat0239 pw.x -npool 4 -i  Done                     04/17/2018 00:09:17
00021 suncat0239 pw.x -npool 4 -i  Done                     04/17/2018 00:09:17
00022 suncat0239 pw.x -npool 4 -i  Done                     04/17/2018 00:09:17
00023 suncat0239 pw.x -npool 4 -i  Done                     04/17/2018 00:09:17
00024 suncat0235 pw.x -npool 4 -i  Done                     04/17/2018 00:09:17
00025 suncat0235 pw.x -npool 4 -i  Done                     04/17/2018 00:09:17
00026 suncat0235 pw.x -npool 4 -i  Done                     04/17/2018 00:09:17
00027 suncat0235 pw.x -npool 4 -i  Done                     04/17/2018 00:09:17
00028 suncat0235 pw.x -npool 4 -i  Done                     04/17/2018 00:09:17
00029 suncat0235 pw.x -npool 4 -i  Done                     04/17/2018 00:09:17
00030 suncat0235 pw.x -npool 4 -i  Done                     04/17/2018 00:09:17
00031 suncat0235 pw.x -npool 4 -i  Done                     04/17/2018 00:09:17