     Program PWSCF v.5.1rc2 (svn rev. ) starts on 18Apr2018 at 20:31:39

     Current dimensions of program PWSCF are:
     Max number of different atomic species (ntypx) = 10
     Max number of k-points (npk) =  40000
     Max angular momentum in pseudopotentials (lmaxx) =  3
     Presently stress not available with electric field

     IMPORTANT: XC functional enforced from input :
     Exchange-correlation      = BEEF-VDW ( 1  4 27 13 2)
     Any further DFT definition will be discarded
     Please, verify this is what you really want

     Subspace diagonalization in iterative solution of the eigenvalue problem:
     a serial algorithm will be used

     bravais-lattice index     =            0
     lattice parameter (alat)  =       1.8897  a.u.
     unit-cell volume          =    6501.5726 (a.u.)^3
     number of atoms/cell      =           15
     number of atomic types    =            3
     number of electrons       =       162.00
     number of Kohn-Sham states=           91
     kinetic-energy cutoff     =      36.7493  Ry
     charge density cutoff     =     367.4932  Ry
     convergence threshold     =      1.0E-05
     mixing beta               =       0.3000
     number of iterations used =           10  plain     mixing
     Exchange-correlation      = BEEF-VDW ( 1  4 27 13 2)
     nstep                     =           50

     celldm(1)=   1.889726  celldm(2)=   0.000000  celldm(3)=   0.000000
     celldm(4)=   0.000000  celldm(5)=   0.000000  celldm(6)=   0.000000

     crystal axes: (cart. coord. in units of alat)
               a(1) = (   6.617606   0.000000   0.000000 )
               a(2) = (   3.308803   5.731015   0.000000 )
               a(3) = (   0.000000   0.000000  25.403253 )

     reciprocal axes: (cart. coord. in units 2 pi/alat)
               b(1) = (  0.151112 -0.087245  0.000000 )
               b(2) = (  0.000000  0.174489  0.000000 )
               b(3) = (  0.000000  0.000000  0.039365 )

     PseudoPot. # 1 for In read from file:
     /home/mamunm/src/pseudo/gbrv1.5pbe/In.UPF
     MD5 check sum: 90777abd96fbb83f2e67db2a40c566b9
     Pseudo is Ultrasoft + core correction, Zval = 13.0
     Generated by new atomic code, or converted to UPF format
     Using radial grid of  889 points,  6 beta functions with:
                l(1) =   0
                l(2) =   0
                l(3) =   1
                l(4) =   1
                l(5) =   2
                l(6) =   2
     Q(r) pseudized with  6 coefficients,  rinner =    1.400   1.400   1.400
                                                       1.400   1.400

     PseudoPot. # 2 for C  read from file:
     /home/mamunm/src/pseudo/gbrv1.5pbe/C.UPF
     MD5 check sum: d1aef80898a10debaa0f26306b886e00
     Pseudo is Ultrasoft + core correction, Zval =  4.0
     Generated by new atomic code, or converted to UPF format
     Using radial grid of  721 points,  4 beta functions with:
                l(1) =   0
                l(2) =   0
                l(3) =   1
                l(4) =   1
     Q(r) pseudized with  8 coefficients,  rinner =    1.100   1.100   1.100

     PseudoPot. # 3 for H  read from file:
     /home/mamunm/src/pseudo/gbrv1.5pbe/H.UPF
     MD5 check sum: 761ae9a214b05c3daf00ab9f6b793d6f
     Pseudo is Ultrasoft, Zval =  1.0
     Generated by new atomic code, or converted to UPF format
     Using radial grid of  615 points,  2 beta functions with:
                l(1) =   0
                l(2) =   0
     Q(r) pseudized with  8 coefficients,  rinner =    0.700

     vdW kernel table read from file vdW_kernel_table
     MD5 check sum: 095c7af220d748ca6e76c0b4c6cfb241

     atomic species   valence    mass     pseudopotential
        In1           13.00   114.81800     In( 1.00)
        C1             4.00    12.01100     C ( 1.00)
        H1             1.00     1.00800     H ( 1.00)

     No symmetry found

   Cartesian axes

     site n.     atom                  positions (alat units)
         1           In1 tau(   1) = (   1.6544016   0.9551692  10.0000000  )
         2           In1 tau(   2) = (   4.9632047   0.9551692  10.0000000  )
         3           In1 tau(   3) = (   3.3088031   3.8206768  10.0000000  )
         4           In1 tau(   4) = (   6.6176063   3.8206768  10.0000000  )
         5           In1 tau(   5) = (   6.6176063   1.9103384  12.7016265  )
         6           In1 tau(   6) = (   3.3088031   1.9103384  12.7016265  )
         7           In1 tau(   7) = (   8.2720078   4.7758460  12.7016265  )
         8           In1 tau(   8) = (   4.9632047   4.7758460  12.7016265  )
         9           In1 tau(   9) = (   0.0000000   0.0000000  15.4032529  )
        10           In1 tau(  10) = (   3.3088031   0.0000000  15.4032529  )
        11           In1 tau(  11) = (   1.6544016   2.8655076  15.4032529  )
        12           In1 tau(  12) = (   4.9632047   2.8655076  15.4032529  )
        13           C1  tau(  13) = (   1.6544016   0.0000000  17.0382529  )
        14           H1  tau(  14) = (   2.2844016   0.6300000  17.6682529  )
        15           H1  tau(  15) = (   4.3332047   5.1010152  17.6682529  )

     number of k points=    20  Fermi-Dirac smearing, width (Ry)=  0.0110
                       cart. coord. in units 2pi/alat
        k(    1) = (   0.0000000   0.0000000   0.0000000), wk =   0.0555556
        k(    2) = (   0.0000000   0.0290815   0.0000000), wk =   0.1111111
        k(    3) = (   0.0000000   0.0581631   0.0000000), wk =   0.1111111
        k(    4) = (   0.0000000  -0.0872446   0.0000000), wk =   0.0555556
        k(    5) = (   0.0251853  -0.0145408   0.0000000), wk =   0.1111111
        k(    6) = (   0.0251853   0.0145408   0.0000000), wk =   0.1111111
        k(    7) = (   0.0251853   0.0436223   0.0000000), wk =   0.1111111
        k(    8) = (   0.0251853  -0.1017853   0.0000000), wk =   0.1111111
        k(    9) = (   0.0251853  -0.0727038   0.0000000), wk =   0.1111111
        k(   10) = (   0.0251853  -0.0436223   0.0000000), wk =   0.1111111
        k(   11) = (   0.0503707  -0.0290815   0.0000000), wk =   0.1111111
        k(   12) = (   0.0503707   0.0000000   0.0000000), wk =   0.1111111
        k(   13) = (   0.0503707   0.0290815   0.0000000), wk =   0.1111111
        k(   14) = (   0.0503707  -0.1163261   0.0000000), wk =   0.1111111
        k(   15) = (   0.0503707  -0.0872446   0.0000000), wk =   0.1111111
        k(   16) = (   0.0503707  -0.0581631   0.0000000), wk =   0.1111111
        k(   17) = (  -0.0755560   0.0436223   0.0000000), wk =   0.0555556
        k(   18) = (  -0.0755560   0.0727038   0.0000000), wk =   0.1111111
        k(   19) = (  -0.0755560   0.1017853   0.0000000), wk =   0.1111111
        k(   20) = (  -0.0755560  -0.0436223   0.0000000), wk =   0.0555556

     Largest allocated arrays     est. size (Mb)     dimensions
     Largest temporary arrays     est. size (Mb)     dimensions

     Initial potential from superposition of free atoms
     Check: negative starting charge=   -0.000194

     starting charge  143.99994, renormalised to  162.00000

     negative rho (up, down):  2.188E-04 0.000E+00

     *
     * You are using vdW-DF for exchange-correlation in this calculation.
     * Please cite the following three references that made this development
     * possible:
     *
     *   M. Dion, H. Rydberg, E. Schroder, D. C. Langreth, and
     *   B. I. Lundqvist, Phys. Rev. Lett. 92, 246401 (2004).
     *
     *   T. Thonhauser, V. R. Cooper, S. Li, A. Puzder, P. Hyldgaard, and
     *   D. C. Langreth, Phys. Rev. B 76, 125112 (2007).
     *
     *   G. Roman-Perez and J. M. Soler, Phys. Rev. Lett. 103, 096102 (2009).
     *
     *
     * If you are using vdW-DF2, please also cite:
     *
     *   K. Lee, E. D. Murray, L. Kong, B. I. Lundqvist, and
     *   D. C. Langreth, Phys. Rev. B 82, 081101(R) (2010).
     *
     *
     * If you are calculating the stress with vdW-DF, please also cite:
     *
     *   R. Sabatini, E. Kucukbenli, B. Kolb, T. Thonhauser, and
     *   S. de Gironcoli, J. Phys.: Condens. Matter 24, 424209 (2012).
     *

     Carrying out vdW-DF run using the following parameters:

     Nqs =      20    Nr_points =    1024   r_max =   100.000
     q_mesh =
               0.00001000     0.04494208     0.09755937     0.15916263
               0.23128650     0.31572767     0.41458969     0.53033537
               0.66584808     0.82450364     1.01025438     1.22772762
               1.48234092     1.78043706     2.12944203     2.53805004
               3.01644009     3.57652955     4.23227104     5.00000000

     Gradients computed in reciprocal space

     Adding external electric field

     Computed dipole along edir(3) :
        Dipole               -6.4434 Ry au,        -16.3774 Debye
        Dipole field         -0.0125 Ry au

        Potential amp.        1.1658 Ry
        Total length         46.8051 bohr

     Starting wfc are  114 randomized atomic wfcs

     Self-consistent Calculation

     iteration #  1     ecut=    36.75 Ry     beta=0.30
     Davidson diagonalization with overlap
     ethr =  1.00E-02,  avg # of iterations =  7.9

[...]

     total energy              =   -1167.14552752 Ry
     Harris-Foulkes estimate   =   -1623.51172901 Ry
     estimated scf accuracy    <     973.67795043 Ry

     iteration #  2     ecut=    36.75 Ry     beta=0.30
     Davidson diagonalization with overlap
     c_bands:  2 eigenvalues not converged
     c_bands:  4 eigenvalues not converged
     c_bands:  3 eigenvalues not converged
     ethr =  1.00E-02,  avg # of iterations = 22.7

[...]

     End of self-consistent calculation

          k = 0.0000 0.0000 0.0000 ( 24345 PWs)   bands (ev):

   -14.5264 -14.5218 -14.5194 -14.4671 -14.4367 -14.4296 -14.4278 -14.4243
   -14.4228 -14.4007 -14.3955 -14.3898 -14.3885 -14.3656 -14.3573 -14.3408
   -14.3357 -14.3339 -14.3291 -14.3272 -14.3215 -14.3112 -14.3057 -14.2987
   -14.2958 -14.2894 -14.2877 -14.2842 -14.2811 -14.2722 -14.1777 -14.1726
   -14.1660 -14.1587 -14.1519 -14.1237 -14.1203 -14.1162 -14.1034 -14.0980
   -14.0871 -14.0732 -14.0665 -14.0602 -14.0583 -14.0529 -14.0455 -14.0412
   -14.0248 -14.0194 -14.0188 -14.0146 -14.0115 -14.0091 -13.9912 -13.9876
   -13.9793 -13.9756 -13.9698 -13.9685 -11.4082  -8.5155  -7.1188  -5.7821
    -5.0871  -3.8792  -3.7093  -3.6839  -3.5402  -3.4509  -3.3471  -2.8755
    -2.4044  -2.1622  -2.0102  -1.9566  -1.8262  -1.6030  -0.9155  -0.8275
    -0.2779  -0.1357  -0.1117   0.0960   1.2377   1.3052   1.9397   3.2926
     3.3205   3.3575   3.5001

[...]

          k =-0.0756 0.0436 0.0000 ( 24448 PWs)   bands (ev):

[...]

     the Fermi energy is     0.6724 ev

!    total energy              =   -1631.17221387 Ry
     Harris-Foulkes estimate   =   -1631.17220164 Ry
     estimated scf accuracy    <       0.00000959 Ry

     The total energy is the sum of the following terms:

     one-electron contribution =   -9435.75594885 Ry
     hartree contribution      =    4799.67697508 Ry
     xc contribution           =    -474.81997657 Ry
     ewald contribution        =    3479.76325190 Ry
     electric field correction =       0.00003208 Ry
     smearing contrib. (-TS)   =      -0.03654751 Ry

     convergence has been achieved in  18 iterations

 BEEF-vdW xc energy contributions
           1 :   -415.777988221146
           2 :    379.927706910721
           3 :   -319.437055499926
           4 :    251.336767296172
           5 :   -191.138084391884
           6 :    147.246855096482
           7 :   -119.396015543098
           8 :    101.231035993941
           9 :   -85.1667724419756
          10 :    66.6908759148585
          11 :   -45.9876090712493
          12 :    26.5342590875085
          13 :   -12.0843048513549
          14 :    4.11886040274362
          15 :   -1.19158405327397
          16 :   0.189821877174495
          17 :    1.62125486202740
          18 :   -5.17326434531287
          19 :    9.53869006711415
          20 :   -13.0095678008033
          21 :    14.4137553451492
          22 :   -13.8005743951647
          23 :    12.1949830613308
          24 :   -10.7805304584922
          25 :    10.1662091621102
          26 :   -10.1989790637131
          27 :    10.3128945644243
          28 :   -10.0447287782249
          29 :    9.31749838339999
          30 :   -8.35831145140628
          31 :   -37.9254561893050
          32 :   -27.5407059058095

     Forces acting on atoms (Ry/au):

     negative rho (up, down):  1.142E-03 0.000E+00
     atom    1 type  1   force =     0.00126396    0.00036661   -0.00887994
     atom    2 type  1   force =    -0.00074152   -0.00115409   -0.00823406
     atom    3 type  1   force =     0.00151703    0.00030254   -0.01031973
     atom    4 type  1   force =    -0.00093198    0.00023403   -0.00936587
     atom    5 type  1   force =     0.00069093   -0.00070008    0.00275619
     atom    6 type  1   force =    -0.00188827    0.00053765   -0.00000701
     atom    7 type  1   force =    -0.00043326   -0.00147678   -0.00110442
     atom    8 type  1   force =    -0.00030521   -0.00218566    0.00536411
     atom    9 type  1   force =    -0.00798604    0.01230623    0.00694930
     atom   10 type  1   force =     0.00661598   -0.01302895    0.00756238
     atom   11 type  1   force =     0.00095056    0.00974741    0.00858973
     atom   12 type  1   force =    -0.00142966   -0.00845512    0.00697957
     atom   13 type  2   force =     0.00443145    0.00197550   -0.01385145
     atom   14 type  3   force =    -0.01801887    0.02092498    0.00752330
     atom   15 type  3   force =     0.01626492   -0.01939428    0.00603789

     Total force =     0.050377     Total SCF correction =     0.007698
     SCF correction compared to forces is large: reduce conv_thr to get better values

     entering subroutine stress ...

     negative rho (up, down):  1.142E-03 0.000E+00
          total   stress  (Ry/bohr**3)                   (kbar)     P=    8.03
   0.00004429  -0.00000844   0.00000073          6.52     -1.24      0.11
  -0.00000844   0.00007069   0.00000535         -1.24     10.40      0.79
   0.00000073   0.00000535   0.00004870          0.11      0.79      7.16

     BFGS Geometry Optimization

     number of scf cycles    =   1
     number of bfgs steps    =   0

     energy   new            =   -1631.1722138666 Ry

     new trust radius        =       0.0286205300 bohr
     new conv_thr            =       0.0000099958 Ry

ATOMIC_POSITIONS (crystal)
In1      0.166666667   0.166666667   0.393650374    0   0   0
In1      0.666666667   0.166666667   0.393650374    0   0   0
In1      0.166666667   0.666666667   0.393650374    0   0   0
In1      0.666666667   0.666666667   0.393650374    0   0   0
In1      0.833333333   0.333333333   0.500000000    0   0   0
In1      0.333333333   0.333333333   0.500000000    0   0   0
In1      0.833333333   0.833333333   0.500000000    0   0   0
In1      0.333333333   0.833333333   0.500000000    0   0   0
In1     -0.001206756   0.001136304   0.606494388
In1      0.501130566  -0.001203037   0.606507159
In1     -0.000374005   0.500900034   0.606528560
In1      0.500276032   0.499219291   0.606495018
C1       0.250263156   0.000182409   0.670422922
H1       0.287829561   0.111860291   0.695668154
H1       0.211959515   0.888281047   0.695637212

     Writing output data file calc.save
     Check: negative starting charge=   -0.000194
     NEW-OLD atomic charge density approx. for the potential
     Check: negative starting charge=   -0.000195

[...]

     Total force =     0.047285     Total SCF correction =     0.001470

[...]

     energy   old            =   -1631.1722138666 Ry
     energy   new            =   -1631.1745983744 Ry

     CASE: energy  _new < energy  _old

     WARNING: bfgs curvature condition failed, Theta= 0.916
     new trust radius        =       0.0314825830 bohr
     new conv_thr            =       0.0000001000 Ry

[...]

     iteration #  1     ecut=    36.75 Ry     beta=0.30
     Davidson diagonalization with overlap
     c_bands:  1 eigenvalues not converged
     ethr =  1.00E-06,  avg # of iterations = 10.4

[...]

     Total force =     0.008198     Total SCF correction =     0.000555

[...]

     Threshold (ethr) on eigenvalues was too large:
     Diagonalizing with lowered threshold

     Davidson diagonalization with overlap
     ethr =  8.98E-08,  avg # of iterations =  1.0

[...]

     Threshold (ethr) on eigenvalues was too large:
     Diagonalizing with lowered threshold

     Davidson diagonalization with overlap
     ethr =  6.36E-08,  avg # of iterations =  1.0

[...]

     number of scf cycles    =  38
     number of bfgs steps    =  37

     energy   old            =   -1631.2267701977 Ry
     energy   new            =   -1631.2268146739 Ry

     CASE: energy  _new < energy  _old

     new trust radius        =       0.0140082472 bohr
     new conv_thr            =       0.0000001000 Ry

ATOMIC_POSITIONS (crystal)
In1      0.166666667   0.166666667   0.393650374    0   0   0
In1      0.666666667   0.166666667   0.393650374    0   0   0
In1      0.166666667   0.666666667   0.393650374    0   0   0
In1      0.666666667   0.666666667   0.393650374    0   0   0
In1      0.833333333   0.333333333   0.500000000    0   0   0
In1      0.333333333   0.333333333   0.500000000    0   0   0
In1      0.833333333   0.833333333   0.500000000    0   0   0
In1      0.333333333   0.833333333   0.500000000    0   0   0
In1     -0.018936051   0.016970413   0.617804102
In1      0.492433056   0.026980605   0.616301894
In1     -0.024572383   0.543444444   0.607825356
In1      0.503970257   0.496927669   0.606169949
C1       0.237700838   0.022431529   0.674824258
H1       0.159785435   0.175390532   0.700574838
H1       0.323265871   0.861611884   0.698011617

     Writing output data file calc.save
     Check: negative starting charge=   -0.000194
     NEW-OLD atomic charge density approx. for the potential
     Check: negative starting charge=   -0.000194

[...]

     Self-consistent Calculation

[...]

     total energy              =   -1631.22684573 Ry
     Harris-Foulkes estimate   =   -1631.22684571 Ry
     estimated scf accuracy    <       0.00000026 Ry

     iteration #  7     ecut=    36.75 Ry     beta=0.30
     Davidson diagonalization with overlap
     ethr =  1.60E-10,  avg # of iterations =  2.0

[...]

     negative rho (up, down):  1.122E-03 0.000E+00

     Adding external electric field

     Computed dipole along edir(3) :
        Dipole               -0.0667 Ry au,         -0.1695 Debye
        Dipole field         -0.0001 Ry au

        Potential amp.        0.0121 Ry
        Total length         46.8051 bohr

     End of self-consistent calculation

[...]

          k = 0.0504-0.0582 0.0000 ( 24479 PWs)   bands (ev):

[...]

          k =-0.0756-0.0436 0.0000 ( 24448 PWs)   bands (ev):

   -14.4117 -14.4015 -14.3713 -14.3596 -14.3531 -14.3519 -14.3408 -14.3390
   -14.3255 -14.3112 -14.3090 -14.3037 -14.3027 -14.2884 -14.2851 -14.2783
   -14.2759 -14.2722 -14.2689 -14.2471 -14.2402 -14.2389 -14.2268 -14.2252
   -14.2212 -14.2175 -14.2057 -14.1984 -14.1872 -14.1855 -14.1742 -14.1713
   -14.1540 -14.1532 -14.1487 -14.1401 -14.1335 -14.1189 -14.1175 -14.1147
   -14.1110 -14.1087 -14.1043 -14.1008 -14.0957 -14.0924 -14.0886 -14.0803
   -14.0738 -14.0696 -14.0524 -14.0406 -14.0346 -14.0301 -14.0183 -14.0118
   -13.9956 -13.9923 -13.9764 -13.9676 -11.2543  -7.2054  -7.1026  -6.0641
    -5.7509  -5.3444  -4.7354  -4.5893  -4.1986  -4.1266  -3.6554  -3.2005
    -2.0986  -1.9914  -0.8879  -0.6851   0.0945   0.2046   0.2981   0.6022
     0.7680   0.8230   1.6460   1.7371   1.9571   2.1046   2.4628   2.7077
     2.7599   3.0617   3.1085

     the Fermi energy is     0.7017 ev

!    total energy              =   -1631.22684577 Ry
     Harris-Foulkes estimate   =   -1631.22684576 Ry
     estimated scf accuracy    <       0.00000004 Ry

     The total energy is the sum of the following terms:

     one-electron contribution =   -9242.86421743 Ry
     hartree contribution      =    4703.37851164 Ry
     xc contribution           =    -474.77678571 Ry
     ewald contribution        =    3383.07075218 Ry
     electric field correction =       0.00000860 Ry
     smearing contrib. (-TS)   =      -0.03511506 Ry

     convergence has been achieved in   7 iterations

 BEEF-vdW xc energy contributions
           1 :   -415.729600198390
           2 :    379.830922777978
           3 :   -319.283735049490
           4 :    251.166608736207
           5 :   -191.009667398892
           6 :    147.195962712726
           7 :   -119.411880942865
           8 :    101.266326775430
           9 :   -85.1711866914944
          10 :    66.6426897728381
          11 :   -45.9022683414626
          12 :    26.4473417933619
          13 :   -12.0244318020717
          14 :    4.09153613557726
          15 :   -1.18383989880954
          16 :   0.188526196672228
          17 :    1.61479444412885
          18 :   -5.14575176385046
          19 :    9.48136686491370
          20 :   -12.9324505892516
          21 :    14.3435117317118
          22 :   -13.7622537729537
          23 :    12.1919155154628
          24 :   -10.7895157387299
          25 :    10.1537383924826
          26 :   -10.1470189036278
          27 :    10.2341198508237
          28 :   -9.97458368077639
          29 :    9.28851840807056
          30 :   -8.37631035512777
          31 :   -37.9204936643446
          32 :   -27.5226259202144

     Forces acting on atoms (Ry/au):

     negative rho (up, down):  1.122E-03 0.000E+00
     atom    1 type  1   force =    -0.00022571    0.00149307   -0.01002506
     atom    2 type  1   force =     0.00014953   -0.00199942   -0.00878461
     atom    3 type  1   force =     0.00117724    0.00018460   -0.01153517
     atom    4 type  1   force =    -0.00120733    0.00010825   -0.01155235
     atom    5 type  1   force =     0.00236682   -0.00375221    0.00954300
     atom    6 type  1   force =    -0.00235279   -0.00323613    0.00974372
     atom    7 type  1   force =     0.00029846    0.00188288    0.00714770
     atom    8 type  1   force =    -0.00027344    0.00149802    0.01640368
     atom    9 type  1   force =    -0.00043496    0.00093999    0.00002651
     atom   10 type  1   force =    -0.00094585    0.00050510    0.00132743
     atom   11 type  1   force =     0.00051618    0.00106472   -0.00052015
     atom   12 type  1   force =    -0.00065769   -0.00023783   -0.00081123
     atom   13 type  2   force =     0.00192763    0.00068561   -0.00065033
     atom   14 type  3   force =     0.00032129    0.00024742   -0.00033034
     atom   15 type  3   force =    -0.00065937    0.00061593    0.00001720

     Total force =     0.003536     Total SCF correction =     0.000588
     SCF correction compared to forces is large: reduce conv_thr to get better values

     entering subroutine stress ...

     negative rho (up, down):  1.122E-03 0.000E+00
          total   stress  (Ry/bohr**3)                   (kbar)     P=    6.18
   0.00004010   0.00000085   0.00000077          5.90      0.12      0.11
   0.00000085   0.00006065   0.00000442          0.12      8.92      0.65
   0.00000077   0.00000442   0.00002531          0.11      0.65      3.72

     bfgs converged in  39 scf cycles and  38 bfgs steps
     (criteria: energy <  1.0E+00, force <  1.9E-03)

     End of BFGS Geometry Optimization

     Final energy   =   -1631.2268457720 Ry
Begin final coordinates

ATOMIC_POSITIONS (crystal)
In1      0.166666667   0.166666667   0.393650374    0   0   0
In1      0.666666667   0.166666667   0.393650374    0   0   0
In1      0.166666667   0.666666667   0.393650374    0   0   0
In1      0.666666667   0.666666667   0.393650374    0   0   0
In1      0.833333333   0.333333333   0.500000000    0   0   0
In1      0.333333333   0.333333333   0.500000000    0   0   0
In1      0.833333333   0.833333333   0.500000000    0   0   0
In1      0.333333333   0.833333333   0.500000000    0   0   0
In1     -0.018936051   0.016970413   0.617804102
In1      0.492433056   0.026980605   0.616301894
In1     -0.024572383   0.543444444   0.607825356
In1      0.503970257   0.496927669   0.606169949
C1       0.237700838   0.022431529   0.674824258
H1       0.159785435   0.175390532   0.700574838
H1       0.323265871   0.861611884   0.698011617
End final coordinates

     Writing output data file calc.save

     General routines

     Parallel routines

   This run was terminated on:  23: 0:55  18Apr2018

   JOB DONE.