     Program PWSCF v.5.1rc2 (svn rev. 11289) starts on  2May2018 at 23:49:14

     Current dimensions of program PWSCF are:
     Max number of different atomic species (ntypx) = 10
     Max number of k-points (npk) =  40000
     Max angular momentum in pseudopotentials (lmaxx) =  3
     Presently stress not available with electric field

     IMPORTANT: XC functional enforced from input :
     Exchange-correlation      = BEEF-VDW ( 1  4 27 13 2)
     Any further DFT definition will be discarded
     Please, verify this is what you really want

     Subspace diagonalization in iterative solution of the eigenvalue problem:
     a serial algorithm will be used

     bravais-lattice index     =            0
     lattice parameter (alat)  =       1.8897  a.u.
     unit-cell volume          =    7725.1200 (a.u.)^3
     number of atoms/cell      =           13
     number of atomic types    =            2
     number of electrons       =       133.00
     number of Kohn-Sham states=           76
     kinetic-energy cutoff     =      36.7493  Ry
     charge density cutoff     =     367.4932  Ry
     convergence threshold     =      1.0E-05
     mixing beta               =       0.3000
     number of iterations used =           10  plain     mixing
     Exchange-correlation      = BEEF-VDW ( 1  4 27 13 2)
     nstep                     =           50

     celldm(1)=   1.889726  celldm(2)=   0.000000  celldm(3)=   0.000000
     celldm(4)=   0.000000  celldm(5)=   0.000000  celldm(6)=   0.000000

     crystal axes: (cart. coord. in units of alat)
               a(1) = (   7.152277   0.000000   0.000000 )
               a(2) = (   3.576139   6.194054   0.000000 )
               a(3) = (   0.000000   0.000000  25.839810 )

     reciprocal axes: (cart. coord. in units 2 pi/alat)
               b(1) = (  0.139816 -0.080723  0.000000 )
               b(2) = (  0.000000  0.161445  0.000000 )
               b(3) = (  0.000000  0.000000  0.038700 )

     PseudoPot. # 1 for Y  read from file:
     /u/if/mamunm/psp/gbrv1.5pbe/Y.UPF
     MD5 check sum: d034151ed7554c50b6e82763ed42c788
     Pseudo is Ultrasoft + core correction, Zval = 11.0
     Generated by new atomic code, or converted to UPF format
     Using radial grid of  885 points,  6 beta functions with:
                l(1) =   0
                l(2) =   0
                l(3) =   1
                l(4) =   1
                l(5) =   2
                l(6) =   2
     Q(r) pseudized with  8 coefficients,  rinner =    1.200   1.200   1.200
                                                       1.200   1.200

     PseudoPot. # 2 for H  read from file:
     /u/if/mamunm/psp/gbrv1.5pbe/H.UPF
     MD5 check sum: 761ae9a214b05c3daf00ab9f6b793d6f
     Pseudo is Ultrasoft, Zval =  1.0
     Generated by new atomic code, or converted to UPF format
     Using radial grid of  615 points,  2 beta functions with:
                l(1) =   0
                l(2) =   0
     Q(r) pseudized with  8 coefficients,  rinner =    0.700

     vdW kernel table read from file vdW_kernel_table
     MD5 check sum: 095c7af220d748ca6e76c0b4c6cfb241

     atomic species   valence    mass     pseudopotential
        Y1            11.00    88.90584     Y ( 1.00)
        H1             1.00     1.00800     H ( 1.00)

     No symmetry found

   Cartesian axes

     site n.     atom                  positions (alat units)
         1           Y1  tau(   1) = (   1.7880693   1.0323423  10.0000000  )
         2           Y1  tau(   2) = (   5.3642080   1.0323423  10.0000000  )
         3           Y1  tau(   3) = (   3.5761386   4.1293692  10.0000000  )
         4           Y1  tau(   4) = (   7.1522773   4.1293692  10.0000000  )
         5           Y1  tau(   5) = (   7.1522773   2.0646846  12.9199050  )
         6           Y1  tau(   6) = (   3.5761386   2.0646846  12.9199050  )
         7           Y1  tau(   7) = (   8.9403466   5.1617115  12.9199050  )
         8           Y1  tau(   8) = (   5.3642080   5.1617115  12.9199050  )
         9           Y1  tau(   9) = (   0.0000000   0.0000000  15.8398100  )
        10           Y1  tau(  10) = (   3.5761386   0.0000000  15.8398100  )
        11           Y1  tau(  11) = (   1.7880693   3.0970269  15.8398100  )
        12           Y1  tau(  12) = (   5.3642080   3.0970269  15.8398100  )
        13           H1  tau(  13) = (   3.5761386   2.0646846  17.2763100  )

     number of k points=    20  Fermi-Dirac smearing, width (Ry)=  0.0110
                       cart. coord. in units 2pi/alat
        k(    1) = (   0.0000000   0.0000000   0.0000000), wk =   0.0555556
        k(    2) = (   0.0000000   0.0269075   0.0000000), wk =   0.1111111
        k(    3) = (   0.0000000   0.0538151   0.0000000), wk =   0.1111111
        k(    4) = (   0.0000000  -0.0807226   0.0000000), wk =   0.0555556
        k(    5) = (   0.0233026  -0.0134538   0.0000000), wk =   0.1111111
        k(    6) = (   0.0233026   0.0134538   0.0000000), wk =   0.1111111
        k(    7) = (   0.0233026   0.0403613   0.0000000), wk =   0.1111111
        k(    8) = (   0.0233026  -0.0941763   0.0000000), wk =   0.1111111
        k(    9) = (   0.0233026  -0.0672688   0.0000000), wk =   0.1111111
        k(   10) = (   0.0233026  -0.0403613   0.0000000), wk =   0.1111111
        k(   11) = (   0.0466052  -0.0269075   0.0000000), wk =   0.1111111
        k(   12) = (   0.0466052   0.0000000   0.0000000), wk =   0.1111111
        k(   13) = (   0.0466052   0.0269075   0.0000000), wk =   0.1111111
        k(   14) = (   0.0466052  -0.1076301   0.0000000), wk =   0.1111111
        k(   15) = (   0.0466052  -0.0807226   0.0000000), wk =   0.1111111
        k(   16) = (   0.0466052  -0.0538151   0.0000000), wk =   0.1111111
        k(   17) = (  -0.0699078   0.0403613   0.0000000), wk =   0.0555556
        k(   18) = (  -0.0699078   0.0672688   0.0000000), wk =   0.1111111
        k(   19) = (  -0.0699078   0.0941763   0.0000000), wk =   0.1111111
        k(   20) = (  -0.0699078  -0.0403613   0.0000000), wk =   0.0555556

     Largest allocated arrays     est. size (Mb)     dimensions
     Largest temporary arrays     est. size (Mb)     dimensions

     Initial potential from superposition of free atoms
     Check: negative starting charge=   -0.000596

     starting charge  132.94636, renormalised to  133.00000

     negative rho (up, down):  5.963E-04 0.000E+00

     *
     * You are using vdW-DF for exchange-correlation in this calculation.
     * Please cite the following three references that made this development
     * possible:
     *
     *   M. Dion, H. Rydberg, E. Schroder, D. C. Langreth, and
     *   B. I. Lundqvist, Phys. Rev. Lett. 92, 246401 (2004).
     *
     *   T. Thonhauser, V. R. Cooper, S. Li, A. Puzder, P. Hyldgaard, and
     *   D. C. Langreth, Phys. Rev. B 76, 125112 (2007).
     *
     *   G. Roman-Perez and J. M. Soler, Phys. Rev. Lett. 103, 096102 (2009).
     *
     *
     * If you are using vdW-DF2, please also cite:
     *
     *   K. Lee, E. D. Murray, L. Kong, B. I. Lundqvist, and
     *   D. C. Langreth, Phys. Rev. B 82, 081101(R) (2010).
     *
     *
     * If you are calculating the stress with vdW-DF, please also cite:
     *
     *   R. Sabatini, E. Kucukbenli, B. Kolb, T. Thonhauser, and
     *   S. de Gironcoli, J. Phys.: Condens. Matter 24, 424209 (2012).
     *

     Carrying out vdW-DF run using the following parameters:

     Nqs =      20    Nr_points =    1024   r_max =   100.000
     q_mesh =
               0.00001000     0.04494208     0.09755937     0.15916263
               0.23128650     0.31572767     0.41458969     0.53033537
               0.66584808     0.82450364     1.01025438     1.22772762
               1.48234092     1.78043706     2.12944203     2.53805004
               3.01644009     3.57652955     4.23227104     5.00000000

     Gradients computed in reciprocal space

     Adding external electric field

     Computed dipole along edir(3) :
        Dipole               -0.0032 Ry au,         -0.0083 Debye
        Dipole field         -0.0000 Ry au

        Potential amp.        0.0005 Ry
        Total length         47.6094 bohr

     Starting wfc are  157 randomized atomic wfcs

     Self-consistent Calculation

     iteration #  1     ecut=    36.75 Ry     beta=0.30
     Davidson diagonalization with overlap
     ethr =  1.00E-02,  avg # of iterations =  2.0

[...]

     total energy              =   -1123.67919447 Ry
     Harris-Foulkes estimate   =   -1125.91437212 Ry
     estimated scf accuracy    <       4.79843328 Ry

[...]

     End of self-consistent calculation

          k = 0.0000 0.0000 0.0000 ( 28997 PWs)   bands (ev):

   -42.4055 -42.3747 -42.3332 -42.3315 -42.3309 -42.3288 -42.3018 -42.3014
   -41.8133 -41.7749 -41.7747 -41.7558 -22.4907 -22.4906 -22.4801 -22.4741
   -22.4739 -22.4491 -22.4347 -22.3998 -22.3472 -22.3406 -22.3401 -22.3237
   -22.2944 -22.2941 -22.1562 -22.1560 -22.1540 -22.1510 -22.1510 -22.1313
   -22.0560 -22.0559 -22.0327 -22.0326 -21.9342 -21.9274 -21.9273 -21.7230
   -21.6992 -21.6990 -21.6765 -21.6375 -21.6284 -21.6283 -21.5337 -21.5337
    -3.5165  -2.8889  -1.9257  -1.1691  -0.6391  -0.6391  -0.6272  -0.5244
    -0.5244  -0.4256  -0.2493  -0.2493   0.0655   0.2891   0.2980   0.2980
     0.7065   0.7066   0.7992   1.1570   1.3452   1.5672   1.6195   1.6195
     1.6865   1.7361   1.7362   2.2150

[...]

          k =-0.0699 0.0404 0.0000 ( 29048 PWs)   bands (ev):

[...]

     the Fermi energy is     0.9713 ev

!    total energy              =   -1125.49779106 Ry
     Harris-Foulkes estimate   =   -1125.49778945 Ry
     estimated scf accuracy    <       0.00000891 Ry

     The total energy is the sum of the following terms:

     one-electron contribution =   -5401.67492995 Ry
     hartree contribution      =    2692.94976597 Ry
     xc contribution           =    -339.54618242 Ry
     ewald contribution        =    1922.90218776 Ry
     electric field correction =       0.00001107 Ry
     smearing contrib. (-TS)   =      -0.12864349 Ry

     convergence has been achieved in  15 iterations

 BEEF-vdW xc energy contributions
           1 :   -296.205498623463
           2 :    266.037344356959
           3 :   -214.054182732241
           4 :    153.004077417933
           5 :   -94.7984039321237
           6 :    46.9390631784003
           7 :   -11.9581869587671
           8 :   -10.8327749452064
           9 :    23.0878519902245
          10 :   -26.1863832888776
          11 :    21.3784512937497
          12 :   -10.6374804358088
          13 :   -2.82568597939780
          14 :    15.0245495545138
          15 :   -22.4756147542188
          16 :    23.4924465921832
          17 :   -18.6651950031496
          18 :    10.2637950077997
          19 :   -1.02700887945849
          20 :   -6.89021831250744
          21 :    12.3121694914718
          22 :   -14.8443193898589
          23 :    14.5105948014468
          24 :   -11.6020504170202
          25 :    6.77576709769647
          26 :   -1.15480798472237
          27 :   -3.83956746189517
          28 :    6.95130190344526
          29 :   -7.59885761673024
          30 :    6.09440676526282
          31 :   -28.3079549937713
          32 :   -19.3547786188124

     Forces acting on atoms (Ry/au):

     negative rho (up, down):  1.736E-05 0.000E+00
     atom    1 type  1   force =    -0.00017637   -0.00014057    0.00565285
     atom    2 type  1   force =     0.00016422   -0.00012052    0.00550642
     atom    3 type  1   force =     0.00000620    0.00022753    0.00552996
     atom    4 type  1   force =    -0.00000671    0.00002675    0.00500052
     atom    5 type  1   force =     0.00020951   -0.00027260    0.00016836
     atom    6 type  1   force =    -0.00022060   -0.00011712   -0.00559102
     atom    7 type  1   force =     0.00014559    0.00008245    0.00034269
     atom    8 type  1   force =    -0.00012801    0.00031475    0.00019803
     atom    9 type  1   force =     0.00000236   -0.00006465   -0.01223345
     atom   10 type  1   force =    -0.00001177    0.02176536    0.00762797
     atom   11 type  1   force =     0.01891164   -0.01085604    0.00766627
     atom   12 type  1   force =    -0.01889398   -0.01084578    0.00770963
     atom   13 type  2   force =    -0.00000209    0.00000045   -0.02757822

     Total force =     0.050105     Total SCF correction =     0.003084

     entering subroutine stress ...

     negative rho (up, down):  1.736E-05 0.000E+00
          total   stress  (Ry/bohr**3)                   (kbar)     P=   -4.12
  -0.00002508  -0.00000001   0.00000000         -3.69     -0.00      0.00
  -0.00000001  -0.00002507   0.00000000         -0.00     -3.69      0.00
   0.00000000   0.00000000  -0.00003391          0.00      0.00     -4.99

     BFGS Geometry Optimization

     number of scf cycles    =   1
     number of bfgs steps    =   0

     energy   new            =   -1125.4977910649 Ry

     new trust radius        =       0.0275782173 bohr
     new conv_thr            =       0.0000099958 Ry

ATOMIC_POSITIONS (crystal)
Y1       0.166666667   0.166666667   0.386999750    0   0   0
Y1       0.666666667   0.166666667   0.386999750    0   0   0
Y1       0.166666667   0.666666667   0.386999750    0   0   0
Y1       0.666666667   0.666666667   0.386999750    0   0   0
Y1       0.833333333   0.333333333   0.500000000    0   0   0
Y1       0.333333333   0.333333333   0.500000000    0   0   0
Y1       0.833333333   0.833333333   0.500000000    0   0   0
Y1       0.333333333   0.833333333   0.500000000    0   0   0
Y1       0.000002936  -0.000005523   0.612749719
Y1       0.499069388   0.001859482   0.613156464
Y1       0.001862953   0.499072535   0.613157248
Y1       0.499065381   0.499073412   0.613158136
H1       0.333333159   0.333333372   0.668027986

     Writing output data file calc.save
     Check: negative starting charge=   -0.000596
     NEW-OLD atomic charge density approx. for the potential
     Check: negative starting charge=   -0.000597

[...]

     Total force =     0.045683     Total SCF correction =     0.005759
     SCF correction compared to forces is large: reduce conv_thr to get better values

[...]

     energy   old            =   -1125.4977910649 Ry
     energy   new            =   -1125.5002028201 Ry

     CASE: energy  _new < energy  _old

     WARNING: bfgs curvature condition failed, Theta= 0.878
     new trust radius        =       0.0303360390 bohr
     new conv_thr            =       0.0000001000 Ry

[...]

     iteration #  1     ecut=    36.75 Ry     beta=0.30
     Davidson diagonalization with overlap
     c_bands:  1 eigenvalues not converged
     ethr =  1.00E-06,  avg # of iterations = 11.3

[...]

     Threshold (ethr) on eigenvalues was too large:
     Diagonalizing with lowered threshold

     Davidson diagonalization with overlap
     ethr =  3.88E-08,  avg # of iterations =  5.0

[...]

     iteration #  1     ecut=    36.75 Ry     beta=0.30
     Davidson diagonalization with overlap
     c_bands:  1 eigenvalues not converged
     ethr =  1.00E-06,  avg # of iterations =  8.5

[...]

     Davidson diagonalization with overlap
     c_bands:  1 eigenvalues not converged
     ethr =  2.01E-08,  avg # of iterations =  7.7

[...]

     Total force =     0.004467     Total SCF correction =     0.000638
     SCF correction compared to forces is large: reduce conv_thr to get better values

[...]

     WARNING: bfgs curvature condition failed, Theta= 0.929
     new trust radius        =       0.0081467636 bohr
     new conv_thr            =       0.0000001000 Ry

[...]

     number of scf cycles    =  14
     number of bfgs steps    =  13

     energy   old            =   -1125.5137061428 Ry
     energy   new            =   -1125.5137394440 Ry

     CASE: energy  _new < energy  _old

     new trust radius        =       0.0122201454 bohr
     new conv_thr            =       0.0000001000 Ry

ATOMIC_POSITIONS (crystal)
Y1       0.166666667   0.166666667   0.386999750    0   0   0
Y1       0.666666667   0.166666667   0.386999750    0   0   0
Y1       0.166666667   0.666666667   0.386999750    0   0   0
Y1       0.666666667   0.666666667   0.386999750    0   0   0
Y1       0.833333333   0.333333333   0.500000000    0   0   0
Y1       0.333333333   0.333333333   0.500000000    0   0   0
Y1       0.833333333   0.833333333   0.500000000    0   0   0
Y1       0.333333333   0.833333333   0.500000000    0   0   0
Y1      -0.000001100   0.000002806   0.606962531
Y1       0.494092060   0.011818410   0.614018094
Y1       0.011815796   0.494091668   0.614018740
Y1       0.494093751   0.494090316   0.614019334
H1       0.333333829   0.333330262   0.656550845

     Writing output data file calc.save
     Check: negative starting charge=   -0.000597
     NEW-OLD atomic charge density approx. for the potential
     Check: negative starting charge=   -0.000597

[...]

     Self-consistent Calculation

[...]

     Threshold (ethr) on eigenvalues was too large:
     Diagonalizing with lowered threshold

     Davidson diagonalization with overlap
     ethr =  9.26E-08,  avg # of iterations =  2.4

[...]

     total energy              =   -1125.51380159 Ry
     Harris-Foulkes estimate   =   -1125.51380160 Ry
     estimated scf accuracy    <       0.00000012 Ry

     iteration # 11     ecut=    36.75 Ry     beta=0.30
     Davidson diagonalization with overlap
     ethr =  8.97E-11,  avg # of iterations =  6.7

[...]

     negative rho (up, down):  1.659E-05 0.000E+00

     Adding external electric field

     Computed dipole along edir(3) :
        Dipole                0.0191 Ry au,          0.0484 Debye
        Dipole field          0.0000 Ry au

        Potential amp.       -0.0030 Ry
        Total length         47.6094 bohr

     End of self-consistent calculation

[...]

          k = 0.0466-0.0538 0.0000 ( 29098 PWs)   bands (ev):

[...]

          k =-0.0699-0.0404 0.0000 ( 29048 PWs)   bands (ev):

   -42.3091 -42.3037 -42.2859 -42.2823 -42.2584 -42.2414 -42.2308 -42.1932
   -41.7337 -41.7269 -41.7126 -41.6933 -22.3550 -22.3531 -22.3311 -22.3274
   -22.3180 -22.2952 -22.2865 -22.2820 -22.2770 -22.2617 -22.2343 -22.2326
   -22.2243 -22.2212 -22.2100 -22.1911 -22.1884 -22.1427 -22.1318 -22.0908
   -22.0595 -22.0570 -22.0027 -21.9775 -21.7946 -21.7938 -21.6837 -21.6720
   -21.6562 -21.6483 -21.6431 -21.6396 -21.6367 -21.6032 -21.5225 -21.5172
    -3.4901  -2.0614  -1.9433  -1.2347  -0.9709  -0.3696  -0.3605  -0.2303
    -0.0306   0.0490   0.0993   0.7213   0.7339   0.7774   0.8007   0.8513
     0.9195   0.9338   1.0056   1.0865   1.1356   1.1592   1.2063   1.2400
     1.3827   1.4342   1.5434   1.5625

     the Fermi energy is     1.0205 ev

!    total energy              =   -1125.51380162 Ry
     Harris-Foulkes estimate   =   -1125.51380161 Ry
     estimated scf accuracy    <       0.00000001 Ry

     The total energy is the sum of the following terms:

     one-electron contribution =   -5425.05613033 Ry
     hartree contribution      =    2704.88111306 Ry
     xc contribution           =    -339.62678114 Ry
     ewald contribution        =    1934.41756784 Ry
     electric field correction =       0.00000059 Ry
     smearing contrib. (-TS)   =      -0.12957164 Ry

     convergence has been achieved in  11 iterations

 BEEF-vdW xc energy contributions
           1 :   -296.286964931068
           2 :    266.140644041136
           3 :   -214.169002888929
           4 :    153.091528447837
           5 :   -94.8212563084900
           6 :    46.8902603491933
           7 :   -11.8664296477246
           8 :   -10.9244748666409
           9 :    23.1516194725341
          10 :   -26.2223204130763
          11 :    21.4046387112887
          12 :   -10.6704925917082
          13 :   -2.78355892891938
          14 :    14.9850077660501
          15 :   -22.4538253448966
          16 :    23.4931539023427
          17 :   -18.6747392280939
          18 :    10.2567116040962
          19 :  -0.985459975425329
          20 :   -6.95975063695931
          21 :    12.3812313111426
          22 :   -14.8835044289018
          23 :    14.5114043206014
          24 :   -11.5819469178364
          25 :    6.76450210730826
          26 :   -1.17435531446051
          27 :   -3.78731737735484
          28 :    6.88213652923275
          29 :   -7.53166905028741
          30 :    6.03543846302307
          31 :   -28.3142526598876
          32 :   -19.3647427702993

     Forces acting on atoms (Ry/au):

     negative rho (up, down):  1.659E-05 0.000E+00
     atom    1 type  1   force =     0.00028637    0.00016527    0.00483390
     atom    2 type  1   force =    -0.00028638    0.00016540    0.00483385
     atom    3 type  1   force =     0.00000039   -0.00033061    0.00483393
     atom    4 type  1   force =    -0.00000016   -0.00000023    0.00568866
     atom    5 type  1   force =    -0.00000027    0.00052897   -0.00357007
     atom    6 type  1   force =     0.00000019    0.00000016   -0.00516293
     atom    7 type  1   force =    -0.00045754   -0.00026409   -0.00357041
     atom    8 type  1   force =     0.00045783   -0.00026453   -0.00356977
     atom    9 type  1   force =     0.00000004   -0.00000258    0.00121038
     atom   10 type  1   force =    -0.00000109    0.00107257   -0.00165590
     atom   11 type  1   force =     0.00093313   -0.00053668   -0.00165559
     atom   12 type  1   force =    -0.00093292   -0.00053570   -0.00165599
     atom   13 type  2   force =     0.00000041    0.00000205   -0.00056006

     Total force =     0.003670     Total SCF correction =     0.000199

     entering subroutine stress ...

     negative rho (up, down):  1.659E-05 0.000E+00
          total   stress  (Ry/bohr**3)                   (kbar)     P=   -2.75
  -0.00001826   0.00000000  -0.00000000         -2.69      0.00     -0.00
   0.00000000  -0.00001825   0.00000000          0.00     -2.69      0.00
  -0.00000000   0.00000000  -0.00001950         -0.00      0.00     -2.87

     bfgs converged in  15 scf cycles and  14 bfgs steps
     (criteria: energy <  1.0E+00, force <  1.9E-03)

     End of BFGS Geometry Optimization

     Final energy   =   -1125.5138016213 Ry
Begin final coordinates

ATOMIC_POSITIONS (crystal)
Y1       0.166666667   0.166666667   0.386999750    0   0   0
Y1       0.666666667   0.166666667   0.386999750    0   0   0
Y1       0.166666667   0.666666667   0.386999750    0   0   0
Y1       0.666666667   0.666666667   0.386999750    0   0   0
Y1       0.833333333   0.333333333   0.500000000    0   0   0
Y1       0.333333333   0.333333333   0.500000000    0   0   0
Y1       0.833333333   0.833333333   0.500000000    0   0   0
Y1       0.333333333   0.833333333   0.500000000    0   0   0
Y1      -0.000001100   0.000002806   0.606962531
Y1       0.494092060   0.011818410   0.614018094
Y1       0.011815796   0.494091668   0.614018740
Y1       0.494093751   0.494090316   0.614019334
H1       0.333333829   0.333330262   0.656550845
End final coordinates

     Writing output data file calc.save

     General routines

     Parallel routines

   This run was terminated on:   2:19:16   3May2018

   JOB DONE.
Job  /afs/slac/g/suncat/bin/suncat-tsmpirun -x LD_LIBRARY_PATH -wdir /scratch/qe556985_l2xs0 pw.x -npool 4 -in pw.inp

TID   HOST_NAME   COMMAND_LINE            STATUS            TERMINATION_TIME
00000 suncat0040 pw.x -npool 4 -i  Done                     05/03/2018 02:19:16
00001 suncat0040 pw.x -npool 4 -i  Done                     05/03/2018 02:19:16
00002 suncat0040 pw.x -npool 4 -i  Done                     05/03/2018 02:19:16
00003 suncat0040 pw.x -npool 4 -i  Done                     05/03/2018 02:19:16
00004 suncat0040 pw.x -npool 4 -i  Done                     05/03/2018 02:19:16
00005 suncat0040 pw.x -npool 4 -i  Done                     05/03/2018 02:19:16
00006 suncat0040 pw.x -npool 4 -i  Done                     05/03/2018 02:19:16
00007 suncat0040 pw.x -npool 4 -i  Done                     05/03/2018 02:19:16
00008 suncat0037 pw.x -npool 4 -i  Done                     05/03/2018 02:19:16
00009 suncat0037 pw.x -npool 4 -i  Done                     05/03/2018 02:19:16
00010 suncat0037 pw.x -npool 4 -i  Done                     05/03/2018 02:19:16
00011 suncat0037 pw.x -npool 4 -i  Done                     05/03/2018 02:19:16
00012 suncat0037 pw.x -npool 4 -i  Done                     05/03/2018 02:19:16
00013 suncat0037 pw.x -npool 4 -i  Done                     05/03/2018 02:19:16
00014 suncat0037 pw.x -npool 4 -i  Done                     05/03/2018 02:19:16
00015 suncat0037 pw.x -npool 4 -i  Done                     05/03/2018 02:19:16
00016 suncat0025 pw.x -npool 4 -i  Done                     05/03/2018 02:19:16
00017 suncat0025 pw.x -npool 4 -i  Done                     05/03/2018 02:19:16
00018 suncat0025 pw.x -npool 4 -i  Done                     05/03/2018 02:19:16
00019 suncat0025 pw.x -npool 4 -i  Done                     05/03/2018 02:19:16
00020 suncat0025 pw.x -npool 4 -i  Done                     05/03/2018 02:19:16
00021 suncat0025 pw.x -npool 4 -i  Done                     05/03/2018 02:19:16
00022 suncat0025 pw.x -npool 4 -i  Done                     05/03/2018 02:19:16
00023 suncat0025 pw.x -npool 4 -i  Done                     05/03/2018 02:19:16
00024 suncat0199 pw.x -npool 4 -i  Done                     05/03/2018 02:19:16
00025 suncat0199 pw.x -npool 4 -i  Done                     05/03/2018 02:19:16
00026 suncat0199 pw.x -npool 4 -i  Done                     05/03/2018 02:19:16
00027 suncat0199 pw.x -npool 4 -i  Done                     05/03/2018 02:19:16
00028 suncat0199 pw.x -npool 4 -i  Done                     05/03/2018 02:19:16
00029 suncat0199 pw.x -npool 4 -i  Done                     05/03/2018 02:19:16
00030 suncat0199 pw.x -npool 4 -i  Done                     05/03/2018 02:19:16
00031 suncat0199 pw.x -npool 4 -i  Done                     05/03/2018 02:19:16