     Program PWSCF v.6.1 starts on 11Jan2019 at 17:18: 6

     Current dimensions of program PWSCF are:
     Max number of different atomic species (ntypx) = 10
     Max number of k-points (npk) =  40000
     Max angular momentum in pseudopotentials (lmaxx) =  3

     IMPORTANT: XC functional enforced from input :
     Exchange-correlation      = BEEF-VDW ( 1  4 29 14 2 0)
     Any further DFT definition will be discarded
     Please, verify this is what you really want

     bravais-lattice index     =            0
     lattice parameter (alat)  =       9.4723  a.u.
     unit-cell volume          =    3537.7769 (a.u.)^3
     number of atoms/cell      =           13
     number of atomic types    =            2
     number of electrons       =       209.00
     number of Kohn-Sham states=          114
     kinetic-energy cutoff     =      36.7493  Ry
     charge density cutoff     =     367.4933  Ry
     convergence threshold     =      1.0E-04
     mixing beta               =       0.1000
     number of iterations used =            8  plain     mixing
     Exchange-correlation      = BEEF-VDW ( 1  4 29 14 2 0)
     nstep                     =           50

     celldm(1)=   9.472344  celldm(2)=   0.000000  celldm(3)=   0.000000
     celldm(4)=   0.000000  celldm(5)=   0.000000  celldm(6)=   0.000000

     crystal axes: (cart. coord. in units of alat)
               a(1) = (   1.000000   0.000000   0.000000 )
               a(2) = (   0.500000   0.866025   0.000000 )
               a(3) = (   0.000000   0.000000   4.806483 )

     reciprocal axes: (cart. coord. in units 2 pi/alat)
               b(1) = (  1.000000 -0.577350  0.000000 )
               b(2) = (  0.000000  1.154701  0.000000 )
               b(3) = (  0.000000  0.000000  0.208052 )

     PseudoPot. # 1 for Co read from file:
     /home/users/mamunm/src/decaf-espresso/gbrv15pbe/Co.UPF
     MD5 check sum: 5f91765df6ddd3222702df6e7b74a16d
     Pseudo is Ultrasoft + core correction, Zval = 17.0
     Generated by new atomic code, or converted to UPF format
     Using radial grid of  863 points,  6 beta functions with:
                l(1) =   0
                l(2) =   0
                l(3) =   1
                l(4) =   1
                l(5) =   2
                l(6) =   2
     Q(r) pseudized with  8 coefficients,  rinner =    1.200   1.200   1.200
                                                       1.200   1.200

     PseudoPot. # 2 for N  read from file:
     /home/users/mamunm/src/decaf-espresso/gbrv15pbe/N.UPF
     MD5 check sum: 95339753478d7afb44899504a8723017
     Pseudo is Ultrasoft + core correction, Zval =  5.0
     Generated by new atomic code, or converted to UPF format
     Using radial grid of  729 points,  4 beta functions with:
                l(1) =   0
                l(2) =   0
                l(3) =   1
                l(4) =   1
     Q(r) pseudized with  8 coefficients,  rinner =    0.900   0.900   0.900

     vdW kernel table read from file vdW_kernel_table
     MD5 check sum: 095c7af220d748ca6e76c0b4c6cfb241

     atomic species   valence    mass     pseudopotential
        Co            17.00    58.93319     Co( 1.00)
        N              5.00    14.00700     N ( 1.00)

     Starting magnetic structure
     atomic species   magnetization
        Co           0.118
        N            0.000

     No symmetry found

   Cartesian axes

     site n.     atom                  positions (alat units)
         1           Co  tau(   1) = (   0.2500000   0.1443376   1.9949931  )
         2           Co  tau(   2) = (   0.7500000   0.1443376   1.9949931  )
         3           Co  tau(   3) = (   0.5000000   0.5773503   1.9949931  )
         4           Co  tau(   4) = (   1.0000000   0.5773503   1.9949931  )
         5           Co  tau(   5) = (   1.0000000   0.2886751   2.4032414  )
         6           Co  tau(   6) = (   0.5000000   0.2886751   2.4032414  )
         7           Co  tau(   7) = (   1.2500000   0.7216878   2.4032414  )
         8           Co  tau(   8) = (   0.7500000   0.7216878   2.4032414  )
         9           Co  tau(   9) = (   0.0000703  -0.0001250   2.7918824  )
        10           Co  tau(  10) = (   0.5000526  -0.0074410   2.8136356  )
        11           Co  tau(  11) = (   0.2434480   0.4367195   2.8134282  )
        12           Co  tau(  12) = (   0.7565392   0.4366516   2.8135314  )
        13           N   tau(  13) = (   0.4998567   0.2889345   3.0037192  )

     number of k points=    20  Fermi-Dirac smearing, width (Ry)=  0.0110
                       cart. coord. in units 2pi/alat
        k(    1) = (   0.0000000   0.0000000   0.0000000), wk =   0.0277778
        k(    2) = (   0.0000000   0.1924501   0.0000000), wk =   0.0555556
        k(    3) = (   0.0000000   0.3849002   0.0000000), wk =   0.0555556
        k(    4) = (   0.0000000  -0.5773503   0.0000000), wk =   0.0277778
        k(    5) = (   0.1666667  -0.0962250   0.0000000), wk =   0.0555556
        k(    6) = (   0.1666667   0.0962250   0.0000000), wk =   0.0555556
        k(    7) = (   0.1666667   0.2886751   0.0000000), wk =   0.0555556
        k(    8) = (   0.1666667  -0.6735753   0.0000000), wk =   0.0555556
        k(    9) = (   0.1666667  -0.4811252   0.0000000), wk =   0.0555556
        k(   10) = (   0.1666667  -0.2886751   0.0000000), wk =   0.0555556
        k(   11) = (   0.3333333  -0.1924501   0.0000000), wk =   0.0555556
        k(   12) = (   0.3333333  -0.0000000   0.0000000), wk =   0.0555556
        k(   13) = (   0.3333333   0.1924501   0.0000000), wk =   0.0555556
        k(   14) = (   0.3333333  -0.7698004   0.0000000), wk =   0.0555556
        k(   15) = (   0.3333333  -0.5773503   0.0000000), wk =   0.0555556
        k(   16) = (   0.3333333  -0.3849002   0.0000000), wk =   0.0555556
        k(   17) = (  -0.5000000   0.2886751   0.0000000), wk =   0.0277778
        k(   18) = (  -0.5000000   0.4811252   0.0000000), wk =   0.0555556
        k(   19) = (  -0.5000000   0.6735753   0.0000000), wk =   0.0555556
        k(   20) = (  -0.5000000  -0.2886751   0.0000000), wk =   0.0277778

     Check: negative/imaginary core charge=   -0.000007    0.000000

     Initial potential from superposition of free atoms
     Check: negative starting charge=(component1):   -0.000204
     Check: negative starting charge=(component2):   -0.000161

     starting charge  196.99991, renormalised to  209.00000

     negative rho (up, down):  2.167E-04 1.707E-04

     %%%%%%%%%%%%%%%%%%%%%%%%%%%%%%%%%%%%%%%%%%%%%%%%%%%%%%%%%%%%%%%%%%%%%%%%
     %                                                                      %
     % You are using vdW-DF, which was implemented by the Thonhauser group. %
     % Please cite the following two papers that made this development      %
     % possible and the two reviews that describe the various versions:     %
     %                                                                      %
     %   T. Thonhauser et al., PRL 115, 136402 (2015).                      %
     %   T. Thonhauser et al., PRB 76, 125112 (2007).                       %
     %   K. Berland et al., Rep. Prog. Phys. 78, 066501 (2015).             %
     %   D.C. Langreth et al., J. Phys.: Condens. Matter 21, 084203 (2009). %
     %                                                                      %
     %                                                                      %
     % If you are calculating the stress with vdW-DF, please also cite:     %
     %                                                                      %
     %   R. Sabatini et al., J. Phys.: Condens. Matter 24, 424209 (2012).   %
     %                                                                      %
     %%%%%%%%%%%%%%%%%%%%%%%%%%%%%%%%%%%%%%%%%%%%%%%%%%%%%%%%%%%%%%%%%%%%%%%%

     Adding external electric field

     Computed dipole along edir(3) :
        Dipole               -1.7356 Ry au,         -4.4114 Debye
        Dipole field         -0.0062 Ry au,

        Potential amp.        0.5052 Ry
        Total length         40.9758 bohr

[...]

     Starting wfc are  160 randomized atomic wfcs

     Self-consistent Calculation

     iteration #  1     ecut=    36.75 Ry     beta=0.10
     Davidson diagonalization with overlap
     ethr =  1.00E-02,  avg # of iterations =  7.8

[...]

     total energy              =   -3489.91353059 Ry
     Harris-Foulkes estimate   =   -3639.84747789 Ry
     estimated scf accuracy    <     829.73221773 Ry

     total magnetization       =    10.65 Bohr mag/cell
     absolute magnetization    =    11.24 Bohr mag/cell

[...]

     Magnetic moment per site:
     atom:    1    charge:   13.7111    magn:    1.6996    constr:    0.0000
     atom:    2    charge:   13.7119    magn:    1.6993    constr:    0.0000
     atom:    3    charge:   13.7117    magn:    1.6991    constr:    0.0000
     atom:    4    charge:   13.7119    magn:    1.7202    constr:    0.0000
     atom:    5    charge:   13.7100    magn:    1.6710    constr:    0.0000
     atom:    6    charge:   13.7085    magn:    1.7648    constr:    0.0000
     atom:    7    charge:   13.7100    magn:    1.6711    constr:    0.0000
     atom:    8    charge:   13.7094    magn:    1.6717    constr:    0.0000
     atom:    9    charge:   13.7226    magn:    1.7324    constr:    0.0000
     atom:   10    charge:   13.7280    magn:    0.9372    constr:    0.0000
     atom:   11    charge:   13.7268    magn:    0.9279    constr:    0.0000
     atom:   12    charge:   13.7279    magn:    0.9347    constr:    0.0000
     atom:   13    charge:    3.6639    magn:   -0.0918    constr:    0.0000

     End of self-consistent calculation

 ------ SPIN UP ------------

          k = 0.0000 0.0000 0.0000 ( 13257 PWs)   bands (ev):

   -95.9177 -95.8193 -95.7964 -95.7955 -95.6999 -95.6626 -95.6290 -95.6128
   -95.6116 -95.2444 -95.2207 -95.2147 -59.2291 -59.2288 -59.2111 -59.1920
   -59.1097 -59.0972 -59.0965 -59.0414 -59.0412 -59.0170 -59.0115 -58.9646
   -58.9620 -58.9615 -58.9453 -58.9447 -58.9443 -58.9349 -58.9333 -58.9332
   -58.9241 -58.9240 -58.8625 -58.8000 -58.7996 -58.7856 -58.7417 -58.7411
   -58.7084 -58.7037 -58.4082 -58.3932 -58.3924 -58.3395 -58.3377 -58.3173
   -14.3869  -7.2284  -5.2140  -4.8608  -4.8594  -4.6066  -4.2562  -4.2318
    -4.2316  -4.1607  -3.9278  -3.9203  -3.9203  -3.6183  -3.6180  -3.5928
    -3.2069  -3.2054  -2.7104  -2.6747  -2.6734  -2.5018  -2.3320  -2.3314
    -2.2673  -2.1422  -2.1421  -2.0282  -1.9268  -1.9267  -1.9069  -1.8786
    -1.8784  -1.7357  -1.6673  -1.6671  -1.3778  -1.3776  -1.1474  -1.1473
    -1.1244  -1.0094  -1.0087  -0.9818  -0.8289  -0.8272  -0.6790  -0.6782
    -0.5479  -0.4512  -0.4498  -0.4037  -0.3742  -0.3737  -0.3062  -0.3059
    -0.2339  -0.0651  -0.0644  -0.0474   0.0072   0.0570   0.0596   0.1605
     0.1982   1.0080

[...]

          k =-0.5000 0.2887 0.0000 ( 13378 PWs)   bands (ev):

[...]

 ------ SPIN DOWN ----------

[...]

     the Fermi energy is     0.7531 ev

!    total energy              =   -3614.64535118 Ry
     Harris-Foulkes estimate   =   -3614.64539074 Ry
     estimated scf accuracy    <       0.00008057 Ry

     The total energy is the sum of the following terms:

     one-electron contribution =  -32112.57888062 Ry
     hartree contribution      =   16062.99887092 Ry
     xc contribution           =    -410.79685555 Ry
     ewald contribution        =   12845.80847738 Ry
     electric field correction =       0.00003092 Ry
     smearing contrib. (-TS)   =      -0.07699423 Ry

[...]

     convergence has been achieved in  34 iterations

[...]

     Forces acting on atoms (cartesian axes, Ry/au):

     atom    1 type  1   force =     0.00063975    0.00024078    0.01179703
     atom    2 type  1   force =    -0.00064185    0.00038906    0.01162095
     atom    3 type  1   force =     0.00013725   -0.00068196    0.01177120
     atom    4 type  1   force =    -0.00013006    0.00003264    0.01064996
     atom    5 type  1   force =     0.00027011    0.00209610   -0.00371270
     atom    6 type  1   force =    -0.00024265    0.00004224   -0.01436282
     atom    7 type  1   force =    -0.00181407   -0.00124867   -0.00356156
     atom    8 type  1   force =     0.00186109   -0.00095799   -0.00378888
     atom    9 type  1   force =     0.00006028    0.00003687   -0.00037811
     atom   10 type  1   force =    -0.00007685   -0.00322767   -0.00584549
     atom   11 type  1   force =    -0.00268972    0.00158939   -0.00546541
     atom   12 type  1   force =     0.00276578    0.00170982   -0.00579422
     atom   13 type  2   force =    -0.00013907   -0.00002061   -0.00292996

     Total force =     0.011710     Total SCF correction =     0.011156
     SCF correction compared to forces is large: reduce conv_thr to get better values

     BFGS Geometry Optimization

     number of scf cycles    =   1
     number of bfgs steps    =   0

     energy   new            =   -3614.6453511832 Ry

     new trust radius        =       0.0066778382 bohr
     new conv_thr            =       0.0001000000 Ry

ATOMIC_POSITIONS (angstrom)
Co       1.253137179   0.723499088  10.000000000    0   0   0
Co       3.759411536   0.723499088  10.000000000    0   0   0
Co       2.506274358   2.893996350  10.000000000    0   0   0
Co       5.012548715   2.893996350  10.000000000    0   0   0
Co       5.012548715   1.446998175  12.046364444    0   0   0
Co       2.506274357   1.446998175  12.046364444    0   0   0
Co       6.265685894   3.617495438  12.046364444    0   0   0
Co       3.759411536   3.617495438  12.046364444    0   0   0
Co       0.000384324  -0.000606940  13.994246254
Co       2.506497332  -0.039006141  14.100392370
Co       1.218871379   2.189918882  14.099553733
Co       3.793653009   2.189642349  14.099897003
N        2.505482557   1.448287324  15.054738547

     Writing output data file calc.save
     Check: negative starting charge=(component1):   -0.000365
     NEW-OLD atomic charge density approx. for the potential

     Check: negative/imaginary core charge=   -0.000007    0.000000
     Check: negative starting charge=(component1):   -0.000365

[...]

     number of scf cycles    =   2
     number of bfgs steps    =   1

     energy   old            =   -3614.6453511832 Ry
     energy   new            =   -3614.6453848695 Ry

     CASE: energy  _new < energy  _old

     new trust radius        =       0.0073653464 bohr
     new conv_thr            =       0.0000010000 Ry

ATOMIC_POSITIONS (angstrom)
Co       1.253137179   0.723499088  10.000000000    0   0   0
Co       3.759411536   0.723499088  10.000000000    0   0   0
Co       2.506274358   2.893996350  10.000000000    0   0   0
Co       5.012548715   2.893996350  10.000000000    0   0   0
Co       5.012548715   1.446998175  12.046364444    0   0   0
Co       2.506274357   1.446998175  12.046364444    0   0   0
Co       6.265685894   3.617495438  12.046364444    0   0   0
Co       3.759411536   3.617495438  12.046364444    0   0   0
Co       0.000362278  -0.000565278  13.995474614
Co       2.506482430  -0.037684148  14.098866605
Co       1.219911271   2.189369101  14.098021181
Co       3.792493226   2.189039674  14.098411025
N        2.505533933   1.448195058  15.050842404

     Writing output data file calc.save
     Check: negative starting charge=(component1):   -0.000365
     NEW-OLD atomic charge density approx. for the potential

     Check: negative/imaginary core charge=   -0.000007    0.000000
     Check: negative starting charge=(component1):   -0.000365

[...]

     Self-consistent Calculation

[...]

     total energy              =   -3614.64546135 Ry
     Harris-Foulkes estimate   =   -3614.64546121 Ry
     estimated scf accuracy    <       0.00000128 Ry

[...]

     iteration # 16     ecut=    36.75 Ry     beta=0.10
     Davidson diagonalization with overlap
     ethr =  4.83E-10,  avg # of iterations =  1.9

[...]

     Adding external electric field

     Computed dipole along edir(3) :
        Dipole               -0.1075 Ry au,         -0.2732 Debye
        Dipole field         -0.0004 Ry au,

        Potential amp.        0.0313 Ry
        Total length         40.9758 bohr

     Magnetic moment per site:
     atom:    1    charge:   13.7115    magn:    1.7031    constr:    0.0000
     atom:    2    charge:   13.7116    magn:    1.7030    constr:    0.0000
     atom:    3    charge:   13.7116    magn:    1.7031    constr:    0.0000
     atom:    4    charge:   13.7110    magn:    1.7250    constr:    0.0000
     atom:    5    charge:   13.7094    magn:    1.6724    constr:    0.0000
     atom:    6    charge:   13.7079    magn:    1.7647    constr:    0.0000
     atom:    7    charge:   13.7094    magn:    1.6725    constr:    0.0000
     atom:    8    charge:   13.7093    magn:    1.6727    constr:    0.0000
     atom:    9    charge:   13.7266    magn:    1.7283    constr:    0.0000
     atom:   10    charge:   13.7271    magn:    0.9200    constr:    0.0000
     atom:   11    charge:   13.7272    magn:    0.9136    constr:    0.0000
     atom:   12    charge:   13.7271    magn:    0.9172    constr:    0.0000
     atom:   13    charge:    3.6598    magn:   -0.0900    constr:    0.0000

     End of self-consistent calculation

 ------ SPIN UP ------------

[...]

 ------ SPIN DOWN ----------

[...]

          k = 0.3333-0.3849 0.0000 ( 13313 PWs)   bands (ev):

[...]

          k =-0.5000-0.2887 0.0000 ( 13378 PWs)   bands (ev):

   -93.8683 -93.8558 -93.8473 -93.3445 -93.3379 -93.3263 -93.3034 -93.1617
   -93.1294 -93.1275 -93.1120 -93.1105 -57.6584 -57.5960 -57.5448 -57.0628
   -57.0492 -57.0037 -56.9737 -56.9483 -56.9195 -56.7769 -56.7530 -56.7325
   -56.7224 -56.7059 -56.6975 -56.6862 -56.6733 -56.6685 -56.6597 -56.5996
   -56.5863 -56.5548 -56.5512 -56.5157 -56.5047 -56.4994 -56.4847 -56.4830
   -56.4693 -56.4686 -56.4488 -56.4434 -56.4392 -56.4384 -56.3967 -56.3953
   -14.4800  -5.7678  -5.4608  -4.6385  -4.3653  -3.9527  -3.5153  -3.1304
    -2.9056  -2.7608  -2.4814  -2.3698  -2.3310  -2.1355  -1.8388  -1.8306
    -1.7333  -1.7063  -1.4544  -1.3969  -1.2742  -1.2152  -1.1666  -1.0976
    -1.0772  -1.0486  -0.8157  -0.8009  -0.7693  -0.6560  -0.5731  -0.5484
    -0.4663  -0.4021  -0.3793  -0.1696  -0.1569  -0.1206  -0.1080  -0.0874
     0.0366   0.1440   0.3317   0.4300   0.4612   0.5570   0.6062   0.6775
     0.6918   0.7685   0.7862   0.8914   0.9950   1.0101   1.1228   1.1600
     1.1936   1.2905   1.4251   1.4383   1.5754   1.6551   1.7142   1.8063
     1.8443   1.9318

     the Fermi energy is     0.7314 ev

!    total energy              =   -3614.64546139 Ry
     Harris-Foulkes estimate   =   -3614.64546219 Ry
     estimated scf accuracy    <       0.00000052 Ry

     The total energy is the sum of the following terms:

     one-electron contribution =  -32127.75654018 Ry
     hartree contribution      =   16070.62294384 Ry
     xc contribution           =    -410.79704030 Ry
     ewald contribution        =   12853.36223962 Ry
     electric field correction =       0.00004103 Ry
     smearing contrib. (-TS)   =      -0.07710540 Ry

     total magnetization       =    18.25 Bohr mag/cell
     absolute magnetization    =    20.79 Bohr mag/cell

     convergence has been achieved in  16 iterations

     negative rho (up, down):  6.971E-04 4.474E-04

     Forces acting on atoms (cartesian axes, Ry/au):

     atom    1 type  1   force =     0.00074963    0.00041338    0.00947368
     atom    2 type  1   force =    -0.00075179    0.00043331    0.00947491
     atom    3 type  1   force =     0.00001522   -0.00084779    0.00948534
     atom    4 type  1   force =    -0.00000957    0.00000537    0.00822096
     atom    5 type  1   force =     0.00001282    0.00279433   -0.00654675
     atom    6 type  1   force =    -0.00001839   -0.00000317   -0.01535971
     atom    7 type  1   force =    -0.00246227   -0.00141642   -0.00648967
     atom    8 type  1   force =     0.00249879   -0.00142273   -0.00647980
     atom    9 type  1   force =    -0.00003670    0.00003749    0.00148104
     atom   10 type  1   force =    -0.00001183   -0.00061146   -0.00092821
     atom   11 type  1   force =    -0.00053373    0.00034530   -0.00093645
     atom   12 type  1   force =     0.00049588    0.00033757   -0.00090757
     atom   13 type  2   force =     0.00005196   -0.00006519   -0.00048778

     Total force =     0.002478     Total SCF correction =     0.002775
     SCF correction compared to forces is large: reduce conv_thr to get better values

     bfgs converged in   3 scf cycles and   2 bfgs steps
     (criteria: energy <  1.0E+12 Ry, force <  1.9E-03 Ry/Bohr)

     End of BFGS Geometry Optimization

     Final energy   =   -3614.6454613925 Ry
Begin final coordinates

ATOMIC_POSITIONS (angstrom)
Co       1.253137179   0.723499088  10.000000000    0   0   0
Co       3.759411536   0.723499088  10.000000000    0   0   0
Co       2.506274358   2.893996350  10.000000000    0   0   0
Co       5.012548715   2.893996350  10.000000000    0   0   0
Co       5.012548715   1.446998175  12.046364444    0   0   0
Co       2.506274357   1.446998175  12.046364444    0   0   0
Co       6.265685894   3.617495438  12.046364444    0   0   0
Co       3.759411536   3.617495438  12.046364444    0   0   0
Co       0.000362278  -0.000565278  13.995474614
Co       2.506482430  -0.037684148  14.098866605
Co       1.219911271   2.189369101  14.098021181
Co       3.792493226   2.189039674  14.098411025
N        2.505533933   1.448195058  15.050842404
End final coordinates

     Writing output data file calc.save

     General routines

     Parallel routines

   This run was terminated on:  17:38:37  11Jan2019

   JOB DONE.