     Program PWSCF v.5.1rc2 (svn rev. 11289) starts on  4May2018 at  4:15: 9

     Current dimensions of program PWSCF are:
     Max number of different atomic species (ntypx) = 10
     Max number of k-points (npk) =  40000
     Max angular momentum in pseudopotentials (lmaxx) =  3
     Presently stress not available with electric field

     IMPORTANT: XC functional enforced from input :
     Exchange-correlation      = BEEF-VDW ( 1  4 27 13 2)
     Any further DFT definition will be discarded
     Please, verify this is what you really want

     Subspace diagonalization in iterative solution of the eigenvalue problem:
     a serial algorithm will be used

     bravais-lattice index     =            0
     lattice parameter (alat)  =       1.8897  a.u.
     unit-cell volume          =    5144.9564 (a.u.)^3
     number of atoms/cell      =           13
     number of atomic types    =            2
     number of electrons       =       136.00
     number of Kohn-Sham states=           78
     kinetic-energy cutoff     =      36.7493  Ry
     charge density cutoff     =     367.4932  Ry
     convergence threshold     =      1.0E-05
     mixing beta               =       0.3000
     number of iterations used =           10  plain     mixing
     Exchange-correlation      = BEEF-VDW ( 1  4 27 13 2)
     nstep                     =           50

     celldm(1)=   1.889726  celldm(2)=   0.000000  celldm(3)=   0.000000
     celldm(4)=   0.000000  celldm(5)=   0.000000  celldm(6)=   0.000000

     crystal axes: (cart. coord. in units of alat)
               a(1) = (   5.950946   0.000000   0.000000 )
               a(2) = (   2.975473   5.153671   0.000000 )
               a(3) = (   0.000000   0.000000  24.858927 )

     reciprocal axes: (cart. coord. in units 2 pi/alat)
               b(1) = (  0.168040 -0.097018  0.000000 )
               b(2) = (  0.000000  0.194036  0.000000 )
               b(3) = (  0.000000  0.000000  0.040227 )

     PseudoPot. # 1 for Au read from file:
     /u/if/mamunm/psp/gbrv1.5pbe/Au.UPF
     MD5 check sum: 9d7f43293ad2c663164586bc4b293ffc
     Pseudo is Ultrasoft + core correction, Zval = 11.0
     Generated by new atomic code, or converted to UPF format
     Using radial grid of  985 points,  7 beta functions with:
                l(1) =   0
                l(2) =   0
                l(3) =   1
                l(4) =   1
                l(5) =   2
                l(6) =   2
                l(7) =   3
     Q(r) pseudized with  6 coefficients,  rinner =    1.900   1.900   1.900
                                                       1.900   1.900   1.900
                                                       1.900

     PseudoPot. # 2 for C  read from file:
     /u/if/mamunm/psp/gbrv1.5pbe/C.UPF
     MD5 check sum: d1aef80898a10debaa0f26306b886e00
     Pseudo is Ultrasoft + core correction, Zval =  4.0
     Generated by new atomic code, or converted to UPF format
     Using radial grid of  721 points,  4 beta functions with:
                l(1) =   0
                l(2) =   0
                l(3) =   1
                l(4) =   1
     Q(r) pseudized with  8 coefficients,  rinner =    1.100   1.100   1.100

     vdW kernel table read from file vdW_kernel_table
     MD5 check sum: 095c7af220d748ca6e76c0b4c6cfb241

     atomic species   valence    mass     pseudopotential
        Au1           11.00   196.96657     Au( 1.00)
        C1             4.00    12.01100     C ( 1.00)

     No symmetry found

   Cartesian axes

     site n.     atom                  positions (alat units)
         1           Au1 tau(   1) = (   1.4877366   0.8589451  10.0000000  )
         2           Au1 tau(   2) = (   4.4632098   0.8589451  10.0000000  )
         3           Au1 tau(   3) = (   2.9754732   3.4357805  10.0000000  )
         4           Au1 tau(   4) = (   5.9509464   3.4357805  10.0000000  )
         5           Au1 tau(   5) = (   5.9509464   1.7178903  12.4294637  )
         6           Au1 tau(   6) = (   2.9754732   1.7178903  12.4294637  )
         7           Au1 tau(   7) = (   7.4386830   4.2947256  12.4294637  )
         8           Au1 tau(   8) = (   4.4632098   4.2947256  12.4294637  )
         9           Au1 tau(   9) = (   0.0000000   0.0000000  14.8589274  )
        10           Au1 tau(  10) = (   2.9754732   0.0000000  14.8589274  )
        11           Au1 tau(  11) = (   1.4877366   2.5768354  14.8589274  )
        12           Au1 tau(  12) = (   4.4632098   2.5768354  14.8589274  )
        13           C1  tau(  13) = (   0.0000000   0.0000000  16.6609274  )

     number of k points=    20  Fermi-Dirac smearing, width (Ry)=  0.0110
                       cart. coord. in units 2pi/alat
        k(    1) = (   0.0000000   0.0000000   0.0000000), wk =   0.0555556
        k(    2) = (   0.0000000   0.0323394   0.0000000), wk =   0.1111111
        k(    3) = (   0.0000000   0.0646788   0.0000000), wk =   0.1111111
        k(    4) = (   0.0000000  -0.0970182   0.0000000), wk =   0.0555556
        k(    5) = (   0.0280067  -0.0161697   0.0000000), wk =   0.1111111
        k(    6) = (   0.0280067   0.0161697   0.0000000), wk =   0.1111111
        k(    7) = (   0.0280067   0.0485091   0.0000000), wk =   0.1111111
        k(    8) = (   0.0280067  -0.1131879   0.0000000), wk =   0.1111111
        k(    9) = (   0.0280067  -0.0808485   0.0000000), wk =   0.1111111
        k(   10) = (   0.0280067  -0.0485091   0.0000000), wk =   0.1111111
        k(   11) = (   0.0560135  -0.0323394   0.0000000), wk =   0.1111111
        k(   12) = (   0.0560135   0.0000000   0.0000000), wk =   0.1111111
        k(   13) = (   0.0560135   0.0323394   0.0000000), wk =   0.1111111
        k(   14) = (   0.0560135  -0.1293576   0.0000000), wk =   0.1111111
        k(   15) = (   0.0560135  -0.0970182   0.0000000), wk =   0.1111111
        k(   16) = (   0.0560135  -0.0646788   0.0000000), wk =   0.1111111
        k(   17) = (  -0.0840202   0.0485091   0.0000000), wk =   0.0555556
        k(   18) = (  -0.0840202   0.0808485   0.0000000), wk =   0.1111111
        k(   19) = (  -0.0840202   0.1131879   0.0000000), wk =   0.1111111
        k(   20) = (  -0.0840202  -0.0485091   0.0000000), wk =   0.0555556

     Largest allocated arrays     est. size (Mb)     dimensions
     Largest temporary arrays     est. size (Mb)     dimensions

     Check: negative/imaginary core charge=   -0.000002    0.000000

     Initial potential from superposition of free atoms
     Check: negative starting charge=   -0.000112

     starting charge  135.99849, renormalised to  136.00000

     negative rho (up, down):  1.120E-04 0.000E+00

     *
     * You are using vdW-DF for exchange-correlation in this calculation.
     * Please cite the following three references that made this development
     * possible:
     *
     *   M. Dion, H. Rydberg, E. Schroder, D. C. Langreth, and
     *   B. I. Lundqvist, Phys. Rev. Lett. 92, 246401 (2004).
     *
     *   T. Thonhauser, V. R. Cooper, S. Li, A. Puzder, P. Hyldgaard, and
     *   D. C. Langreth, Phys. Rev. B 76, 125112 (2007).
     *
     *   G. Roman-Perez and J. M. Soler, Phys. Rev. Lett. 103, 096102 (2009).
     *
     *
     * If you are using vdW-DF2, please also cite:
     *
     *   K. Lee, E. D. Murray, L. Kong, B. I. Lundqvist, and
     *   D. C. Langreth, Phys. Rev. B 82, 081101(R) (2010).
     *
     *
     * If you are calculating the stress with vdW-DF, please also cite:
     *
     *   R. Sabatini, E. Kucukbenli, B. Kolb, T. Thonhauser, and
     *   S. de Gironcoli, J. Phys.: Condens. Matter 24, 424209 (2012).
     *

     Carrying out vdW-DF run using the following parameters:

     Nqs =      20    Nr_points =    1024   r_max =   100.000
     q_mesh =
               0.00001000     0.04494208     0.09755937     0.15916263
               0.23128650     0.31572767     0.41458969     0.53033537
               0.66584808     0.82450364     1.01025438     1.22772762
               1.48234092     1.78043706     2.12944203     2.53805004
               3.01644009     3.57652955     4.23227104     5.00000000

     Gradients computed in reciprocal space

     Adding external electric field

     Computed dipole along edir(3) :
        Dipole               -0.0000 Ry au,         -0.0001 Debye
        Dipole field         -0.0000 Ry au

        Potential amp.        0.0000 Ry
        Total length         45.8022 bohr

     Starting wfc are  112 randomized atomic wfcs

     Self-consistent Calculation

     iteration #  1     ecut=    36.75 Ry     beta=0.30
     Davidson diagonalization with overlap
     ethr =  1.00E-02,  avg # of iterations =  2.0

[...]

     total energy              =   -1410.80459385 Ry
     Harris-Foulkes estimate   =   -1411.81908595 Ry
     estimated scf accuracy    <       2.25589489 Ry

[...]

     End of self-consistent calculation

          k = 0.0000 0.0000 0.0000 ( 19315 PWs)   bands (ev):

   -11.3684  -7.9728  -6.8074  -6.4077  -6.4077  -6.2748  -6.0771  -6.0771
    -5.9513  -5.8018  -5.8017  -5.7523  -5.5210  -5.4653  -5.4653  -5.3387
    -5.1627  -5.1627  -4.5500  -4.3119  -4.2927  -4.2927  -4.1229  -4.0961
    -4.0961  -4.0568  -4.0568  -3.8739  -3.8739  -3.8302  -3.7638  -3.7237
    -3.7237  -3.5150  -3.3807  -3.3807  -3.1470  -3.1470  -2.8437  -2.8437
    -2.7593  -2.6607  -2.6607  -2.5705  -2.4571  -2.4571  -2.3046  -2.1613
    -2.1613  -2.1065  -2.1065  -2.0727  -1.9825  -1.9825  -1.9054  -1.9054
    -1.8496  -1.8151  -1.8151  -1.5749  -1.5557  -1.5557  -1.5397  -1.2587
    -0.3842  -0.3841   0.3890   0.6621   0.8926   0.8926   1.3064   1.4032
     1.5478   1.5478   1.6672   2.3375   2.3375   3.3109

[...]

          k =-0.0840 0.0485 0.0000 ( 19380 PWs)   bands (ev):

[...]

     the Fermi energy is     0.1005 ev

!    total energy              =   -1411.67372799 Ry
     Harris-Foulkes estimate   =   -1411.67372621 Ry
     estimated scf accuracy    <       0.00000176 Ry

     The total energy is the sum of the following terms:

     one-electron contribution =   -8167.41172788 Ry
     hartree contribution      =    4180.09463221 Ry
     xc contribution           =    -771.44590585 Ry
     ewald contribution        =    3347.11497059 Ry
     electric field correction =       0.00006872 Ry
     smearing contrib. (-TS)   =      -0.02576577 Ry

     convergence has been achieved in  12 iterations

 BEEF-vdW xc energy contributions
           1 :   -689.506334143555
           2 :    640.925421224691
           3 :   -554.055830314531
           4 :    445.732938565794
           5 :   -334.128734303262
           6 :    234.082889193935
           7 :   -154.303598983960
           8 :    96.9017497747088
           9 :   -58.9739678528224
          10 :    35.2424883497124
          11 :   -20.5624156661115
          12 :    11.3715415055772
          13 :   -5.84444257794848
          14 :    3.14333334012395
          15 :   -2.48917591197710
          16 :    2.64601584659340
          17 :   -2.05873588696249
          18 :  -0.537216559241301
          19 :    5.46174158840131
          20 :   -11.8311588604353
          21 :    17.8827376632312
          22 :   -21.7508372797887
          23 :    22.3030230906475
          24 :   -19.6246174551516
          25 :    14.9260922151423
          26 :   -9.95238987905304
          27 :    6.20726684860983
          28 :   -4.37992463485602
          29 :    4.22402622509139
          30 :   -4.89593270847217
          31 :   -54.5839360283705
          32 :   -39.7806084661436

     Forces acting on atoms (Ry/au):

     negative rho (up, down):  2.479E-04 0.000E+00
     atom    1 type  1   force =    -0.00105142   -0.00060600   -0.00354302
     atom    2 type  1   force =     0.00105723   -0.00061162   -0.00351626
     atom    3 type  1   force =    -0.00000288    0.00121460   -0.00350805
     atom    4 type  1   force =    -0.00000311    0.00000228   -0.00273602
     atom    5 type  1   force =    -0.00001349   -0.00233116   -0.00043651
     atom    6 type  1   force =     0.00000226   -0.00000588   -0.00025935
     atom    7 type  1   force =     0.00201827    0.00117163   -0.00042810
     atom    8 type  1   force =    -0.00202218    0.00116667   -0.00043007
     atom    9 type  1   force =     0.00001347    0.00000200   -0.05952763
     atom   10 type  1   force =     0.00000290   -0.00071112    0.00043873
     atom   11 type  1   force =    -0.00061838    0.00036034    0.00043853
     atom   12 type  1   force =     0.00061898    0.00034794    0.00043501
     atom   13 type  2   force =    -0.00000167    0.00000033    0.07307274

     Total force =     0.094262     Total SCF correction =     0.004465

     entering subroutine stress ...

     negative rho (up, down):  2.479E-04 0.000E+00
          total   stress  (Ry/bohr**3)                   (kbar)     P=   -5.91
  -0.00009671   0.00000000  -0.00000000        -14.23      0.00     -0.00
   0.00000000  -0.00009671   0.00000000          0.00    -14.23      0.00
  -0.00000000   0.00000000   0.00007298         -0.00      0.00     10.74

     BFGS Geometry Optimization

     number of scf cycles    =   1
     number of bfgs steps    =   0

     energy   new            =   -1411.6737279913 Ry

     new trust radius        =       0.0730727364 bohr
     new conv_thr            =       0.0000099958 Ry

ATOMIC_POSITIONS (crystal)
Au1      0.166666667   0.166666667   0.402269971    0   0   0
Au1      0.666666667   0.166666667   0.402269971    0   0   0
Au1      0.166666667   0.666666667   0.402269971    0   0   0
Au1      0.666666667   0.666666667   0.402269971    0   0   0
Au1      0.833333333   0.333333333   0.500000000    0   0   0
Au1      0.333333333   0.333333333   0.500000000    0   0   0
Au1      0.833333333   0.833333333   0.500000000    0   0   0
Au1      0.333333333   0.833333333   0.500000000    0   0   0
Au1      0.000001095   0.000000205   0.596462852
Au1      0.500036767  -0.000073017   0.597739369
Au1     -0.000073488   0.500037000   0.597739364
Au1      0.500037179   0.500035726   0.597739289
C1      -0.000000165   0.000000034   0.671774593

     Writing output data file calc.save
     Check: negative starting charge=   -0.000112
     NEW-OLD atomic charge density approx. for the potential

     Check: negative/imaginary core charge=   -0.000002    0.000000
     Check: negative starting charge=   -0.000110

[...]

     Total force =     0.010468     Total SCF correction =     0.007522
     SCF correction compared to forces is large: reduce conv_thr to get better values

[...]

     energy   old            =   -1411.6737279913 Ry
     energy   new            =   -1411.6780689957 Ry

     CASE: energy  _new < energy  _old

[...]

     WARNING: bfgs curvature condition failed, Theta= 0.922
     new trust radius        =       0.0156984871 bohr
     new conv_thr            =       0.0000001000 Ry

[...]

     Total force =     0.007984     Total SCF correction =     0.000766

[...]

     number of scf cycles    =  10
     number of bfgs steps    =   9

     energy   old            =   -1411.6797966217 Ry
     energy   new            =   -1411.6798441444 Ry

     CASE: energy  _new < energy  _old

     new trust radius        =       0.0078037219 bohr
     new conv_thr            =       0.0000001000 Ry

ATOMIC_POSITIONS (crystal)
Au1      0.166666667   0.166666667   0.402269971    0   0   0
Au1      0.666666667   0.166666667   0.402269971    0   0   0
Au1      0.166666667   0.666666667   0.402269971    0   0   0
Au1      0.666666667   0.666666667   0.402269971    0   0   0
Au1      0.833333333   0.333333333   0.500000000    0   0   0
Au1      0.333333333   0.333333333   0.500000000    0   0   0
Au1      0.833333333   0.833333333   0.500000000    0   0   0
Au1      0.333333333   0.833333333   0.500000000    0   0   0
Au1     -0.000001369  -0.000001275   0.601924481
Au1      0.500408386  -0.000816591   0.598858208
Au1     -0.000813324   0.500405250   0.598858604
Au1      0.500406718   0.500410353   0.598858379
C1      -0.000001422   0.000000233   0.677300364

     Writing output data file calc.save
     Check: negative starting charge=   -0.000108
     NEW-OLD atomic charge density approx. for the potential

     Check: negative/imaginary core charge=   -0.000002    0.000000
     Check: negative starting charge=   -0.000107

[...]

     Self-consistent Calculation

[...]

     Threshold (ethr) on eigenvalues was too large:
     Diagonalizing with lowered threshold

     Davidson diagonalization with overlap
     ethr =  1.40E-08,  avg # of iterations =  3.2

[...]

     total energy              =   -1411.67985671 Ry
     Harris-Foulkes estimate   =   -1411.67985658 Ry
     estimated scf accuracy    <       0.00000601 Ry

     iteration #  6     ecut=    36.75 Ry     beta=0.30
     Davidson diagonalization with overlap
     ethr =  4.42E-09,  avg # of iterations =  1.0

[...]

     negative rho (up, down):  2.334E-04 0.000E+00

     Adding external electric field

     Computed dipole along edir(3) :
        Dipole               -0.1822 Ry au,         -0.4632 Debye
        Dipole field         -0.0004 Ry au

        Potential amp.        0.0408 Ry
        Total length         45.8022 bohr

     End of self-consistent calculation

[...]

          k = 0.0560-0.0647 0.0000 ( 19376 PWs)   bands (ev):

[...]

          k =-0.0840-0.0485 0.0000 ( 19380 PWs)   bands (ev):

   -10.8370  -6.5146  -6.4756  -5.8616  -5.8152  -5.6107  -5.4447  -5.3174
    -5.2413  -5.2098  -5.1775  -5.1431  -5.0200  -4.9474  -4.8544  -4.8023
    -4.7709  -4.7180  -4.6442  -4.4983  -4.3760  -4.3548  -4.3123  -4.2182
    -4.1907  -4.1660  -4.1375  -3.9674  -3.8272  -3.7026  -3.6822  -3.6127
    -3.5797  -3.5636  -3.5139  -3.5011  -3.4471  -3.4427  -3.4273  -3.3945
    -3.3477  -3.2131  -3.1875  -3.1601  -3.0615  -3.0444  -2.9769  -2.9219
    -2.8685  -2.8467  -2.8015  -2.7262  -2.6865  -2.5856  -2.5639  -2.4207
    -2.4098  -2.2813  -2.0674  -2.0650  -2.0033  -1.9818  -1.9457  -1.8271
    -1.7631  -0.3908  -0.2206  -0.1108  -0.0368   0.4260   0.7906   0.9159
     1.5714   1.9445   3.0828   3.2332   3.5665   4.7163

     the Fermi energy is     0.0804 ev

!    total energy              =   -1411.67985685 Ry
     Harris-Foulkes estimate   =   -1411.67985621 Ry
     estimated scf accuracy    <       0.00000007 Ry

     The total energy is the sum of the following terms:

     one-electron contribution =   -8089.45022158 Ry
     hartree contribution      =    4141.28062508 Ry
     xc contribution           =    -771.35310781 Ry
     ewald contribution        =    3307.87072714 Ry
     electric field correction =       0.00008112 Ry
     smearing contrib. (-TS)   =      -0.02796080 Ry

     convergence has been achieved in   6 iterations

 BEEF-vdW xc energy contributions
           1 :   -689.405787841545
           2 :    640.766033376107
           3 :   -553.823849996989
           4 :    445.471703701638
           5 :   -333.914032207036
           6 :    233.980969654351
           7 :   -154.333528160631
           8 :    97.0225701309838
           9 :   -59.1041319372556
          10 :    35.3019620258025
          11 :   -20.5147315221371
          12 :    11.2424866885771
          13 :   -5.70598076484328
          14 :    3.07219580871242
          15 :   -2.52410020567072
          16 :    2.76707628294923
          17 :   -2.20004167326499
          18 :  -0.448730885562554
          19 :    5.46439562518697
          20 :   -11.9072719334199
          21 :    17.9704486485407
          22 :   -21.7819443898223
          23 :    22.2439595278219
          24 :   -19.4971172134371
          25 :    14.7963682164589
          26 :   -9.89362209717376
          27 :    6.25661024277827
          28 :   -4.51519522877140
          29 :    4.37436531917831
          30 :   -4.97992405119214
          31 :   -54.5764201010112
          32 :   -39.7585685292966

     Forces acting on atoms (Ry/au):

     negative rho (up, down):  2.334E-04 0.000E+00
     atom    1 type  1   force =    -0.00095949   -0.00055407   -0.00435498
     atom    2 type  1   force =     0.00095950   -0.00055399   -0.00435500
     atom    3 type  1   force =    -0.00000008    0.00110792   -0.00435491
     atom    4 type  1   force =     0.00000007    0.00000002   -0.00366745
     atom    5 type  1   force =     0.00000004   -0.00402978    0.00541126
     atom    6 type  1   force =     0.00000005    0.00000009    0.00359221
     atom    7 type  1   force =     0.00348994    0.00201462    0.00541078
     atom    8 type  1   force =    -0.00349014    0.00201498    0.00541040
     atom    9 type  1   force =     0.00000053    0.00000104   -0.00095991
     atom   10 type  1   force =     0.00000027    0.00044475   -0.00097891
     atom   11 type  1   force =     0.00038375   -0.00022191   -0.00097971
     atom   12 type  1   force =    -0.00038451   -0.00022389   -0.00097924
     atom   13 type  2   force =     0.00000008    0.00000022    0.00080546

     Total force =     0.002245     Total SCF correction =     0.000328
     SCF correction compared to forces is large: reduce conv_thr to get better values

     entering subroutine stress ...

     negative rho (up, down):  2.334E-04 0.000E+00
          total   stress  (Ry/bohr**3)                   (kbar)     P=   -9.98
  -0.00010740  -0.00000000   0.00000000        -15.80     -0.00      0.00
  -0.00000000  -0.00010740   0.00000000         -0.00    -15.80      0.00
   0.00000000   0.00000000   0.00001138          0.00      0.00      1.67

     bfgs converged in  11 scf cycles and  10 bfgs steps
     (criteria: energy <  1.0E+00, force <  1.9E-03)

     End of BFGS Geometry Optimization

     Final energy   =   -1411.6798568527 Ry
Begin final coordinates

ATOMIC_POSITIONS (crystal)
Au1      0.166666667   0.166666667   0.402269971    0   0   0
Au1      0.666666667   0.166666667   0.402269971    0   0   0
Au1      0.166666667   0.666666667   0.402269971    0   0   0
Au1      0.666666667   0.666666667   0.402269971    0   0   0
Au1      0.833333333   0.333333333   0.500000000    0   0   0
Au1      0.333333333   0.333333333   0.500000000    0   0   0
Au1      0.833333333   0.833333333   0.500000000    0   0   0
Au1      0.333333333   0.833333333   0.500000000    0   0   0
Au1     -0.000001369  -0.000001275   0.601924481
Au1      0.500408386  -0.000816591   0.598858208
Au1     -0.000813324   0.500405250   0.598858604
Au1      0.500406718   0.500410353   0.598858379
C1      -0.000001422   0.000000233   0.677300364
End final coordinates

     Writing output data file calc.save

     General routines

     Parallel routines

   This run was terminated on:   5:32:23   4May2018

   JOB DONE.
Job  /afs/slac/g/suncat/bin/suncat-tsmpirun -x LD_LIBRARY_PATH -wdir /scratch/qe913127_61W9f pw.x -npool 4 -in pw.inp

TID   HOST_NAME   COMMAND_LINE            STATUS            TERMINATION_TIME
00000 suncat0089 pw.x -npool 4 -i  Done                     05/04/2018 05:32:23
00001 suncat0089 pw.x -npool 4 -i  Done                     05/04/2018 05:32:23
00002 suncat0089 pw.x -npool 4 -i  Done                     05/04/2018 05:32:23
00003 suncat0089 pw.x -npool 4 -i  Done                     05/04/2018 05:32:23
00004 suncat0089 pw.x -npool 4 -i  Done                     05/04/2018 05:32:23
00005 suncat0089 pw.x -npool 4 -i  Done                     05/04/2018 05:32:23
00006 suncat0089 pw.x -npool 4 -i  Done                     05/04/2018 05:32:23
00007 suncat0089 pw.x -npool 4 -i  Done                     05/04/2018 05:32:23
00008 suncat0086 pw.x -npool 4 -i  Done                     05/04/2018 05:32:23
00009 suncat0086 pw.x -npool 4 -i  Done                     05/04/2018 05:32:23
00010 suncat0086 pw.x -npool 4 -i  Done                     05/04/2018 05:32:23
00011 suncat0086 pw.x -npool 4 -i  Done                     05/04/2018 05:32:23
00012 suncat0086 pw.x -npool 4 -i  Done                     05/04/2018 05:32:23
00013 suncat0086 pw.x -npool 4 -i  Done                     05/04/2018 05:32:23
00014 suncat0086 pw.x -npool 4 -i  Done                     05/04/2018 05:32:23
00015 suncat0086 pw.x -npool 4 -i  Done                     05/04/2018 05:32:23
00016 suncat0079 pw.x -npool 4 -i  Done                     05/04/2018 05:32:23
00017 suncat0079 pw.x -npool 4 -i  Done                     05/04/2018 05:32:23
00018 suncat0079 pw.x -npool 4 -i  Done                     05/04/2018 05:32:23
00019 suncat0079 pw.x -npool 4 -i  Done                     05/04/2018 05:32:23
00020 suncat0079 pw.x -npool 4 -i  Done                     05/04/2018 05:32:23
00021 suncat0079 pw.x -npool 4 -i  Done                     05/04/2018 05:32:23
00022 suncat0079 pw.x -npool 4 -i  Done                     05/04/2018 05:32:23
00023 suncat0079 pw.x -npool 4 -i  Done                     05/04/2018 05:32:23
00024 suncat0154 pw.x -npool 4 -i  Done                     05/04/2018 05:32:23
00025 suncat0154 pw.x -npool 4 -i  Done                     05/04/2018 05:32:23
00026 suncat0154 pw.x -npool 4 -i  Done                     05/04/2018 05:32:23
00027 suncat0154 pw.x -npool 4 -i  Done                     05/04/2018 05:32:23
00028 suncat0154 pw.x -npool 4 -i  Done                     05/04/2018 05:32:23
00029 suncat0154 pw.x -npool 4 -i  Done                     05/04/2018 05:32:23
00030 suncat0154 pw.x -npool 4 -i  Done                     05/04/2018 05:32:23
00031 suncat0154 pw.x -npool 4 -i  Done                     05/04/2018 05:32:23