     Program PWSCF v.5.1rc2 (svn rev. ) starts on 18Apr2018 at 21:38:19

     Current dimensions of program PWSCF are:
     Max number of different atomic species (ntypx) = 10
     Max number of k-points (npk) =  40000
     Max angular momentum in pseudopotentials (lmaxx) =  3
     Presently stress not available with electric field

     IMPORTANT: XC functional enforced from input :
     Exchange-correlation      = BEEF-VDW ( 1  4 27 13 2)
     Any further DFT definition will be discarded
     Please, verify this is what you really want

     Subspace diagonalization in iterative solution of the eigenvalue problem:
     a serial algorithm will be used

     bravais-lattice index     =            0
     lattice parameter (alat)  =       1.8897  a.u.
     unit-cell volume          =    8507.0471 (a.u.)^3
     number of atoms/cell      =           14
     number of atomic types    =            3
     number of electrons       =       137.00
     number of Kohn-Sham states=           78
     kinetic-energy cutoff     =      36.7493  Ry
     charge density cutoff     =     367.4932  Ry
     convergence threshold     =      1.0E-05
     mixing beta               =       0.3000
     number of iterations used =           10  plain     mixing
     Exchange-correlation      = BEEF-VDW ( 1  4 27 13 2)
     nstep                     =           50

     celldm(1)=   1.889726  celldm(2)=   0.000000  celldm(3)=   0.000000
     celldm(4)=   0.000000  celldm(5)=   0.000000  celldm(6)=   0.000000

     crystal axes: (cart. coord. in units of alat)
               a(1) = (   7.468327   0.000000   0.000000 )
               a(2) = (   3.734164   6.467761   0.000000 )
               a(3) = (   0.000000   0.000000  26.097863 )

     reciprocal axes: (cart. coord. in units 2 pi/alat)
               b(1) = (  0.133899 -0.077307  0.000000 )
               b(2) = (  0.000000  0.154613  0.000000 )
               b(3) = (  0.000000  0.000000  0.038317 )

     PseudoPot. # 1 for La read from file:
     /home/mamunm/src/pseudo/gbrv1.5pbe/La.UPF
     MD5 check sum: 5937b0c7494ba0601a847275249473aa
     Pseudo is Ultrasoft + core correction, Zval = 11.0
     Generated by new atomic code, or converted to UPF format
     Using radial grid of  995 points,  8 beta functions with:
                l(1) =   0
                l(2) =   0
                l(3) =   1
                l(4) =   1
                l(5) =   2
                l(6) =   2
                l(7) =   3
                l(8) =   3
     Q(r) pseudized with  8 coefficients,  rinner =    1.700   1.700   1.700
                                                       1.700   1.700   1.700
                                                       1.700

     PseudoPot. # 2 for C  read from file:
     /home/mamunm/src/pseudo/gbrv1.5pbe/C.UPF
     MD5 check sum: d1aef80898a10debaa0f26306b886e00
     Pseudo is Ultrasoft + core correction, Zval =  4.0
     Generated by new atomic code, or converted to UPF format
     Using radial grid of  721 points,  4 beta functions with:
                l(1) =   0
                l(2) =   0
                l(3) =   1
                l(4) =   1
     Q(r) pseudized with  8 coefficients,  rinner =    1.100   1.100   1.100

     PseudoPot. # 3 for H  read from file:
     /home/mamunm/src/pseudo/gbrv1.5pbe/H.UPF
     MD5 check sum: 761ae9a214b05c3daf00ab9f6b793d6f
     Pseudo is Ultrasoft, Zval =  1.0
     Generated by new atomic code, or converted to UPF format
     Using radial grid of  615 points,  2 beta functions with:
                l(1) =   0
                l(2) =   0
     Q(r) pseudized with  8 coefficients,  rinner =    0.700

     vdW kernel table read from file vdW_kernel_table
     MD5 check sum: 095c7af220d748ca6e76c0b4c6cfb241

     atomic species   valence    mass     pseudopotential
        La1           11.00   138.90547     La( 1.00)
        C1             4.00    12.01100     C ( 1.00)
        H1             1.00     1.00800     H ( 1.00)

     No symmetry found

   Cartesian axes

     site n.     atom                  positions (alat units)
         1           La1 tau(   1) = (   1.8670818   1.0779602  10.0000000  )
         2           La1 tau(   2) = (   5.6012453   1.0779602  10.0000000  )
         3           La1 tau(   3) = (   3.7341635   4.3118406  10.0000000  )
         4           La1 tau(   4) = (   7.4683270   4.3118406  10.0000000  )
         5           La1 tau(   5) = (   7.4683270   2.1559203  13.0489317  )
         6           La1 tau(   6) = (   3.7341635   2.1559203  13.0489317  )
         7           La1 tau(   7) = (   9.3354088   5.3898008  13.0489317  )
         8           La1 tau(   8) = (   5.6012453   5.3898008  13.0489317  )
         9           La1 tau(   9) = (   0.0000000   0.0000000  16.0978635  )
        10           La1 tau(  10) = (   3.7341635   0.0000000  16.0978635  )
        11           La1 tau(  11) = (   1.8670818   3.2338805  16.0978635  )
        12           La1 tau(  12) = (   5.6012453   3.2338805  16.0978635  )
        13           C1  tau(  13) = (   3.7341635   2.1559203  17.9373635  )
        14           H1  tau(  14) = (   3.7341635   2.1559203  19.0373635  )

     number of k points=    20  Fermi-Dirac smearing, width (Ry)=  0.0110
                       cart. coord. in units 2pi/alat
        k(    1) = (   0.0000000   0.0000000   0.0000000), wk =   0.0555556
        k(    2) = (   0.0000000   0.0257688   0.0000000), wk =   0.1111111
        k(    3) = (   0.0000000   0.0515377   0.0000000), wk =   0.1111111
        k(    4) = (   0.0000000  -0.0773065   0.0000000), wk =   0.0555556
        k(    5) = (   0.0223165  -0.0128844   0.0000000), wk =   0.1111111
        k(    6) = (   0.0223165   0.0128844   0.0000000), wk =   0.1111111
        k(    7) = (   0.0223165   0.0386533   0.0000000), wk =   0.1111111
        k(    8) = (   0.0223165  -0.0901909   0.0000000), wk =   0.1111111
        k(    9) = (   0.0223165  -0.0644221   0.0000000), wk =   0.1111111
        k(   10) = (   0.0223165  -0.0386533   0.0000000), wk =   0.1111111
        k(   11) = (   0.0446329  -0.0257688   0.0000000), wk =   0.1111111
        k(   12) = (   0.0446329   0.0000000   0.0000000), wk =   0.1111111
        k(   13) = (   0.0446329   0.0257688   0.0000000), wk =   0.1111111
        k(   14) = (   0.0446329  -0.1030753   0.0000000), wk =   0.1111111
        k(   15) = (   0.0446329  -0.0773065   0.0000000), wk =   0.1111111
        k(   16) = (   0.0446329  -0.0515377   0.0000000), wk =   0.1111111
        k(   17) = (  -0.0669494   0.0386533   0.0000000), wk =   0.0555556
        k(   18) = (  -0.0669494   0.0644221   0.0000000), wk =   0.1111111
        k(   19) = (  -0.0669494   0.0901909   0.0000000), wk =   0.1111111
        k(   20) = (  -0.0669494  -0.0386533   0.0000000), wk =   0.0555556

     Largest allocated arrays     est. size (Mb)     dimensions
     Largest temporary arrays     est. size (Mb)     dimensions

     Initial potential from superposition of free atoms
     Check: negative starting charge=   -0.830989

     starting charge  136.61513, renormalised to  137.00000

     negative rho (up, down):  8.333E-01 0.000E+00

     *
     * You are using vdW-DF for exchange-correlation in this calculation.
     * Please cite the following three references that made this development
     * possible:
     *
     *   M. Dion, H. Rydberg, E. Schroder, D. C. Langreth, and
     *   B. I. Lundqvist, Phys. Rev. Lett. 92, 246401 (2004).
     *
     *   T. Thonhauser, V. R. Cooper, S. Li, A. Puzder, P. Hyldgaard, and
     *   D. C. Langreth, Phys. Rev. B 76, 125112 (2007).
     *
     *   G. Roman-Perez and J. M. Soler, Phys. Rev. Lett. 103, 096102 (2009).
     *
     *
     * If you are using vdW-DF2, please also cite:
     *
     *   K. Lee, E. D. Murray, L. Kong, B. I. Lundqvist, and
     *   D. C. Langreth, Phys. Rev. B 82, 081101(R) (2010).
     *
     *
     * If you are calculating the stress with vdW-DF, please also cite:
     *
     *   R. Sabatini, E. Kucukbenli, B. Kolb, T. Thonhauser, and
     *   S. de Gironcoli, J. Phys.: Condens. Matter 24, 424209 (2012).
     *

     Carrying out vdW-DF run using the following parameters:

     Nqs =      20    Nr_points =    1024   r_max =   100.000
     q_mesh =
               0.00001000     0.04494208     0.09755937     0.15916263
               0.23128650     0.31572767     0.41458969     0.53033537
               0.66584808     0.82450364     1.01025438     1.22772762
               1.48234092     1.78043706     2.12944203     2.53805004
               3.01644009     3.57652955     4.23227104     5.00000000

     Gradients computed in reciprocal space

     Adding external electric field

     Computed dipole along edir(3) :
        Dipole               -0.1355 Ry au,         -0.3444 Debye
        Dipole field         -0.0002 Ry au

        Potential amp.        0.0192 Ry
        Total length         48.0849 bohr

     Starting wfc are  245 randomized atomic wfcs

     Self-consistent Calculation

     iteration #  1     ecut=    36.75 Ry     beta=0.30
     Davidson diagonalization with overlap
     ethr =  1.00E-02,  avg # of iterations =  2.0

[...]

     total energy              =   -1258.23438481 Ry
     Harris-Foulkes estimate   =   -1261.69703476 Ry
     estimated scf accuracy    <       7.41233483 Ry

[...]

     iteration # 11     ecut=    36.75 Ry     beta=0.30
     Davidson diagonalization with overlap
     c_bands:  1 eigenvalues not converged
     ethr =  5.17E-05,  avg # of iterations =  5.5

[...]

     End of self-consistent calculation

          k = 0.0000 0.0000 0.0000 ( 31997 PWs)   bands (ev):

   -31.7036 -31.6544 -31.5263 -31.5202 -31.5201 -31.4341 -31.3444 -31.3443
   -31.1927 -31.0743 -31.0742 -31.0702 -15.7544 -15.7544 -15.7333 -15.6814
   -15.6813 -15.6152 -15.5713 -15.5170 -15.4789 -15.4788 -15.3166 -15.1378
   -15.0830 -15.0830 -14.9771 -14.9142 -14.9142 -14.9111 -14.8936 -14.8936
   -14.8544 -14.8544 -14.7811 -14.6589 -14.6589 -14.5807 -14.5680 -14.5680
   -14.5345 -14.5345 -14.5258 -14.4657 -14.4628 -14.4627 -14.2422 -14.2422
    -8.3027  -1.9240  -1.0056  -0.2873   0.0140   0.0482   0.0482   0.2189
     0.2189   0.2365   0.3496   0.5068   0.5068   0.6670   0.6751   0.6752
     0.8962   1.1427   1.1427   1.6586   1.8031   1.8031   1.8968   2.3033
     2.3033   2.3795   2.5550   2.6913   2.8265   2.9237

[...]

          k =-0.0669 0.0387 0.0000 ( 31970 PWs)   bands (ev):

[...]

     the Fermi energy is     1.7079 ev

!    total energy              =   -1260.86299659 Ry
     Harris-Foulkes estimate   =   -1260.86297694 Ry
     estimated scf accuracy    <       0.00000958 Ry

     The total energy is the sum of the following terms:

     one-electron contribution =   -4748.91712976 Ry
     hartree contribution      =    2387.20392564 Ry
     xc contribution           =    -612.80985915 Ry
     ewald contribution        =    1713.78536698 Ry
     electric field correction =       0.00018255 Ry
     smearing contrib. (-TS)   =      -0.12548285 Ry

     convergence has been achieved in  24 iterations

 BEEF-vdW xc energy contributions
           1 :   -542.869255724168
           2 :    499.363789650775
           3 :   -422.413615905154
           4 :    328.409699060243
           5 :   -234.779320688765
           6 :    155.350619283186
           7 :   -97.7253068282594
           8 :    62.9510523064238
           9 :   -46.9939596781088
          10 :    43.1196906722221
          11 :   -44.2867054299190
          12 :    44.8799386005626
          13 :   -41.5289684083480
          14 :    33.1536598580246
          15 :   -20.5769416655619
          16 :    5.96162444577658
          17 :    7.84845786514495
          18 :   -18.0950156179281
          19 :    22.9028493592322
          20 :   -21.8898444543361
          21 :    16.3324587458392
          22 :   -8.76007528167338
          23 :    2.07241397175130
          24 :    1.49856984810253
          25 :   -1.15805823405196
          26 :   -2.28577882802938
          27 :    6.92147553490872
          28 :   -10.6481326233247
          29 :    12.0664614879988
          30 :   -10.9577465209341
          31 :   -46.2578813030977
          32 :   -33.2027062384470

     Forces acting on atoms (Ry/au):

     negative rho (up, down):  5.865E-01 0.000E+00
     atom    1 type  1   force =    -0.00070845   -0.00042003    0.00380749
     atom    2 type  1   force =     0.00072378   -0.00042001    0.00383286
     atom    3 type  1   force =    -0.00000990    0.00082233    0.00378498
     atom    4 type  1   force =     0.00000693   -0.00001691    0.00607806
     atom    5 type  1   force =     0.00000671   -0.00002791   -0.00374635
     atom    6 type  1   force =    -0.00002781    0.00002970   -0.00840776
     atom    7 type  1   force =     0.00002897    0.00000766   -0.00373221
     atom    8 type  1   force =    -0.00005107    0.00002355   -0.00373981
     atom    9 type  1   force =    -0.00001662    0.00000809    0.00486506
     atom   10 type  1   force =     0.00001334    0.04352025    0.02936627
     atom   11 type  1   force =     0.03771850   -0.02177084    0.02934116
     atom   12 type  1   force =    -0.03767981   -0.02175868    0.02935849
     atom   13 type  2   force =    -0.00000195    0.00000111   -0.09396661
     atom   14 type  3   force =    -0.00000262    0.00000168    0.00315838

     Total force =     0.130891     Total SCF correction =     0.002866

     entering subroutine stress ...

     negative rho (up, down):  5.865E-01 0.000E+00
          total   stress  (Ry/bohr**3)                   (kbar)     P=   -4.10
  -0.00001832   0.00000000   0.00000000         -2.69      0.00      0.00
   0.00000000  -0.00001830  -0.00000002          0.00     -2.69     -0.00
   0.00000000  -0.00000002  -0.00004697          0.00     -0.00     -6.91

     BFGS Geometry Optimization

     number of scf cycles    =   1
     number of bfgs steps    =   0

     energy   new            =   -1260.8629965930 Ry

     new trust radius        =       0.0939666150 bohr
     new conv_thr            =       0.0000099958 Ry

ATOMIC_POSITIONS (crystal)
La1      0.166666667   0.166666667   0.383173129    0   0   0
La1      0.666666667   0.166666667   0.383173129    0   0   0
La1      0.166666667   0.666666667   0.383173129    0   0   0
La1      0.666666667   0.666666667   0.383173129    0   0   0
La1      0.833333333   0.333333333   0.500000000    0   0   0
La1      0.333333333   0.333333333   0.500000000    0   0   0
La1      0.833333333   0.833333333   0.500000000    0   0   0
La1      0.333333333   0.833333333   0.500000000    0   0   0
La1     -0.000001509   0.000000662   0.616925518
La1      0.498220582   0.003560726   0.617422321
La1      0.003563209   0.498218761   0.617421811
La1      0.498220275   0.498219755   0.617422163
C1       0.333333150   0.333333424   0.685406240
H1       0.333333079   0.333333471   0.729524654

     Writing output data file calc.save
     Check: negative starting charge=   -0.830989
     NEW-OLD atomic charge density approx. for the potential
     Check: negative starting charge=   -0.831884

[...]

     energy   old            =   -1260.8629965930 Ry
     energy   new            =   -1260.8768007321 Ry

     CASE: energy  _new < energy  _old

[...]

     Threshold (ethr) on eigenvalues was too large:
     Diagonalizing with lowered threshold

     Davidson diagonalization with overlap
     ethr =  6.49E-08,  avg # of iterations =  5.4

[...]

     WARNING: bfgs curvature condition failed, Theta= 0.917
     new trust radius        =       0.0152832891 bohr
     new conv_thr            =       0.0000001000 Ry

[...]

     Threshold (ethr) on eigenvalues was too large:
     Diagonalizing with lowered threshold

     Davidson diagonalization with overlap
     ethr =  9.97E-08,  avg # of iterations =  5.2

[...]

     iteration # 12     ecut=    36.75 Ry     beta=0.30
     Davidson diagonalization with overlap
     c_bands:  1 eigenvalues not converged
     c_bands:  1 eigenvalues not converged
     c_bands:  1 eigenvalues not converged
     ethr =  7.97E-11,  avg # of iterations = 11.6

[...]

     Total force =     0.004547     Total SCF correction =     0.000293

[...]

     number of scf cycles    =  33
     number of bfgs steps    =  32

     energy   old            =   -1260.9437814931 Ry
     energy   new            =   -1260.9438408548 Ry

     CASE: energy  _new < energy  _old

     new trust radius        =       0.0355088935 bohr
     new conv_thr            =       0.0000001000 Ry

ATOMIC_POSITIONS (crystal)
La1      0.166666667   0.166666667   0.383173129    0   0   0
La1      0.666666667   0.166666667   0.383173129    0   0   0
La1      0.166666667   0.666666667   0.383173129    0   0   0
La1      0.666666667   0.666666667   0.383173129    0   0   0
La1      0.833333333   0.333333333   0.500000000    0   0   0
La1      0.333333333   0.333333333   0.500000000    0   0   0
La1      0.833333333   0.833333333   0.500000000    0   0   0
La1      0.333333333   0.833333333   0.500000000    0   0   0
La1      0.000040180  -0.000005560   0.610757420
La1      0.507751759  -0.015547860   0.622869808
La1     -0.015562194   0.507772032   0.622867884
La1      0.507752964   0.507782516   0.622872687
C1       0.333366000   0.333331500   0.649424487
H1       0.333326795   0.333334515   0.692362453

     Writing output data file calc.save
     Check: negative starting charge=   -0.833246
     NEW-OLD atomic charge density approx. for the potential
     Check: negative starting charge=   -0.833131

[...]

     Self-consistent Calculation

[...]

     total energy              =   -1260.94386111 Ry
     Harris-Foulkes estimate   =   -1260.94386113 Ry
     estimated scf accuracy    <       0.00000022 Ry

     iteration # 12     ecut=    36.75 Ry     beta=0.30
     Davidson diagonalization with overlap
     ethr =  1.62E-10,  avg # of iterations =  4.2

[...]

     negative rho (up, down):  5.750E-01 0.000E+00

     Adding external electric field

     Computed dipole along edir(3) :
        Dipole               -0.0242 Ry au,         -0.0616 Debye
        Dipole field         -0.0000 Ry au

        Potential amp.        0.0034 Ry
        Total length         48.0849 bohr

     End of self-consistent calculation

[...]

          k = 0.0446-0.0515 0.0000 ( 31991 PWs)   bands (ev):

[...]

          k =-0.0669-0.0387 0.0000 ( 31970 PWs)   bands (ev):

   -31.3599 -31.3540 -31.3027 -31.2921 -31.2865 -31.0662 -31.0435 -30.9868
   -30.9642 -30.9072 -30.8725 -30.8477 -15.3465 -15.3233 -15.2955 -15.2452
   -15.1940 -15.1940 -15.1405 -15.1249 -15.0716 -15.0056 -14.9878 -14.9482
   -14.9367 -14.9316 -14.9055 -14.8452 -14.8144 -14.8109 -14.7418 -14.6847
   -14.6111 -14.6011 -14.5853 -14.5599 -14.5519 -14.4994 -14.4846 -14.4489
   -14.4112 -14.3916 -14.3164 -14.2978 -14.2951 -14.2664 -14.1895 -14.1301
    -8.3641  -2.1769  -0.3159   0.3663   0.3877   0.4398   0.7894   0.9596
     1.1087   1.1285   1.1634   1.2179   1.2337   1.4728   1.6103   1.6755
     1.7460   1.7749   1.7847   1.9671   2.0265   2.0469   2.1289   2.1361
     2.1758   2.2735   2.3477   2.4407   2.4577   2.5332

     the Fermi energy is     1.9315 ev

!    total energy              =   -1260.94386108 Ry
     Harris-Foulkes estimate   =   -1260.94386117 Ry
     estimated scf accuracy    <       0.00000005 Ry

     The total energy is the sum of the following terms:

     one-electron contribution =   -4801.44386070 Ry
     hartree contribution      =    2414.54223486 Ry
     xc contribution           =    -613.19812289 Ry
     ewald contribution        =    1739.28215895 Ry
     electric field correction =       0.00000087 Ry
     smearing contrib. (-TS)   =      -0.12627217 Ry

     convergence has been achieved in  12 iterations

 BEEF-vdW xc energy contributions
           1 :   -543.251574708139
           2 :    499.816138928109
           3 :   -422.928599072775
           4 :    328.920768917870
           5 :   -235.207910906051
           6 :    155.623569155125
           7 :   -97.7819179458029
           8 :    62.7608072610014
           9 :   -46.5845643923021
          10 :    42.5905284966211
          11 :   -43.7816604283367
          12 :    44.5251655803962
          13 :   -41.3731685166824
          14 :    33.1505753316095
          15 :   -20.6244139763617
          16 :    5.97184555835577
          17 :    7.89805158292324
          18 :   -18.1628468962929
          19 :    22.9271131032656
          20 :   -21.8424382576688
          21 :    16.2477722264604
          22 :   -8.71780610722749
          23 :    2.14428206959076
          24 :    1.30142232865092
          25 :  -0.898850678816871
          26 :   -2.50558597029635
          27 :    7.02252217488342
          28 :   -10.6165879368109
          29 :    11.9544086684020
          30 :   -10.8454368396791
          31 :   -46.2822989391317
          32 :   -33.2415859327414

     Forces acting on atoms (Ry/au):

     negative rho (up, down):  5.750E-01 0.000E+00
     atom    1 type  1   force =    -0.00006924   -0.00004101    0.00555718
     atom    2 type  1   force =     0.00007038   -0.00004017    0.00555492
     atom    3 type  1   force =     0.00000160    0.00008069    0.00555666
     atom    4 type  1   force =    -0.00000202    0.00000074    0.00470828
     atom    5 type  1   force =     0.00000191   -0.00028639   -0.00689697
     atom    6 type  1   force =    -0.00000638    0.00000078   -0.00049645
     atom    7 type  1   force =     0.00025072    0.00014324   -0.00689400
     atom    8 type  1   force =    -0.00024546    0.00014244   -0.00690288
     atom    9 type  1   force =    -0.00003870    0.00000458   -0.00038293
     atom   10 type  1   force =     0.00001989    0.00049187    0.00018169
     atom   11 type  1   force =     0.00047975   -0.00026810    0.00019268
     atom   12 type  1   force =    -0.00037631   -0.00023234    0.00017227
     atom   13 type  2   force =    -0.00008744    0.00000404   -0.00153137
     atom   14 type  3   force =     0.00000130   -0.00000036    0.00118093

     Total force =     0.002176     Total SCF correction =     0.000420
     SCF correction compared to forces is large: reduce conv_thr to get better values

     entering subroutine stress ...

     negative rho (up, down):  5.750E-01 0.000E+00
          total   stress  (Ry/bohr**3)                   (kbar)     P=    0.68
   0.00001460   0.00000002  -0.00000001          2.15      0.00     -0.00
   0.00000002   0.00001460   0.00000000          0.00      2.15      0.00
  -0.00000001   0.00000000  -0.00001535         -0.00      0.00     -2.26

     bfgs converged in  34 scf cycles and  33 bfgs steps
     (criteria: energy <  1.0E+00, force <  1.9E-03)

     End of BFGS Geometry Optimization

     Final energy   =   -1260.9438610835 Ry
Begin final coordinates

ATOMIC_POSITIONS (crystal)
La1      0.166666667   0.166666667   0.383173129    0   0   0
La1      0.666666667   0.166666667   0.383173129    0   0   0
La1      0.166666667   0.666666667   0.383173129    0   0   0
La1      0.666666667   0.666666667   0.383173129    0   0   0
La1      0.833333333   0.333333333   0.500000000    0   0   0
La1      0.333333333   0.333333333   0.500000000    0   0   0
La1      0.833333333   0.833333333   0.500000000    0   0   0
La1      0.333333333   0.833333333   0.500000000    0   0   0
La1      0.000040180  -0.000005560   0.610757420
La1      0.507751759  -0.015547860   0.622869808
La1     -0.015562194   0.507772032   0.622867884
La1      0.507752964   0.507782516   0.622872687
C1       0.333366000   0.333331500   0.649424487
H1       0.333326795   0.333334515   0.692362453
End final coordinates

     Writing output data file calc.save

     General routines

     Parallel routines

   This run was terminated on:   3:48:49  19Apr2018

   JOB DONE.