     Program PWSCF v.5.1rc2 (svn rev. 11289) starts on  3May2018 at  6:56:52

     Current dimensions of program PWSCF are:
     Max number of different atomic species (ntypx) = 10
     Max number of k-points (npk) =  40000
     Max angular momentum in pseudopotentials (lmaxx) =  3
     Presently stress not available with electric field

     IMPORTANT: XC functional enforced from input :
     Exchange-correlation      = BEEF-VDW ( 1  4 27 13 2)
     Any further DFT definition will be discarded
     Please, verify this is what you really want

     Subspace diagonalization in iterative solution of the eigenvalue problem:
     a serial algorithm will be used

     bravais-lattice index     =            0
     lattice parameter (alat)  =       1.8897  a.u.
     unit-cell volume          =    5185.0501 (a.u.)^3
     number of atoms/cell      =           13
     number of atomic types    =            2
     number of electrons       =       161.00
     number of Kohn-Sham states=           90
     kinetic-energy cutoff     =      36.7493  Ry
     charge density cutoff     =     367.4932  Ry
     convergence threshold     =      1.0E-05
     mixing beta               =       0.3000
     number of iterations used =           10  plain     mixing
     Exchange-correlation      = BEEF-VDW ( 1  4 27 13 2)
     nstep                     =           50

     celldm(1)=   1.889726  celldm(2)=   0.000000  celldm(3)=   0.000000
     celldm(4)=   0.000000  celldm(5)=   0.000000  celldm(6)=   0.000000

     crystal axes: (cart. coord. in units of alat)
               a(1) = (   5.972022   0.000000   0.000000 )
               a(2) = (   2.986011   5.171923   0.000000 )
               a(3) = (   0.000000   0.000000  24.876136 )

     reciprocal axes: (cart. coord. in units 2 pi/alat)
               b(1) = (  0.167447 -0.096676  0.000000 )
               b(2) = (  0.000000  0.193352  0.000000 )
               b(3) = (  0.000000  0.000000  0.040199 )

     PseudoPot. # 1 for Ta read from file:
     /u/if/mamunm/psp/gbrv1.5pbe/Ta.UPF
     MD5 check sum: f8bbe9446314a3b8ea5d9f3e3836c939
     Pseudo is Ultrasoft + core correction, Zval = 13.0
     Generated by new atomic code, or converted to UPF format
     Using radial grid of  921 points,  7 beta functions with:
                l(1) =   0
                l(2) =   0
                l(3) =   1
                l(4) =   1
                l(5) =   2
                l(6) =   2
                l(7) =   3
     Q(r) pseudized with  6 coefficients,  rinner =    1.300   1.300   1.300
                                                       1.300   1.300   1.300
                                                       1.300

     PseudoPot. # 2 for N  read from file:
     /u/if/mamunm/psp/gbrv1.5pbe/N.UPF
     MD5 check sum: 95339753478d7afb44899504a8723017
     Pseudo is Ultrasoft + core correction, Zval =  5.0
     Generated by new atomic code, or converted to UPF format
     Using radial grid of  729 points,  4 beta functions with:
                l(1) =   0
                l(2) =   0
                l(3) =   1
                l(4) =   1
     Q(r) pseudized with  8 coefficients,  rinner =    0.900   0.900   0.900

     vdW kernel table read from file vdW_kernel_table
     MD5 check sum: 095c7af220d748ca6e76c0b4c6cfb241

     atomic species   valence    mass     pseudopotential
        Ta1           13.00   180.94788     Ta( 1.00)
        N1             5.00    14.00700     N ( 1.00)

     No symmetry found

   Cartesian axes

     site n.     atom                  positions (alat units)
         1           Ta1 tau(   1) = (   1.4930055   0.8619871  10.0000000  )
         2           Ta1 tau(   2) = (   4.4790165   0.8619871  10.0000000  )
         3           Ta1 tau(   3) = (   2.9860110   3.4479485  10.0000000  )
         4           Ta1 tau(   4) = (   5.9720221   3.4479485  10.0000000  )
         5           Ta1 tau(   5) = (   5.9720221   1.7239743  12.4380678  )
         6           Ta1 tau(   6) = (   2.9860110   1.7239743  12.4380678  )
         7           Ta1 tau(   7) = (   7.4650276   4.3099357  12.4380678  )
         8           Ta1 tau(   8) = (   4.4790165   4.3099357  12.4380678  )
         9           Ta1 tau(   9) = (   0.0000000   0.0000000  14.8761356  )
        10           Ta1 tau(  10) = (   2.9860110   0.0000000  14.8761356  )
        11           Ta1 tau(  11) = (   1.4930055   2.5859614  14.8761356  )
        12           Ta1 tau(  12) = (   4.4790165   2.5859614  14.8761356  )
        13           N1  tau(  13) = (   2.9860110   1.7239743  16.4426356  )

     number of k points=    20  Fermi-Dirac smearing, width (Ry)=  0.0110
                       cart. coord. in units 2pi/alat
        k(    1) = (   0.0000000   0.0000000   0.0000000), wk =   0.0555556
        k(    2) = (   0.0000000   0.0322253   0.0000000), wk =   0.1111111
        k(    3) = (   0.0000000   0.0644506   0.0000000), wk =   0.1111111
        k(    4) = (   0.0000000  -0.0966758   0.0000000), wk =   0.0555556
        k(    5) = (   0.0279079  -0.0161126   0.0000000), wk =   0.1111111
        k(    6) = (   0.0279079   0.0161126   0.0000000), wk =   0.1111111
        k(    7) = (   0.0279079   0.0483379   0.0000000), wk =   0.1111111
        k(    8) = (   0.0279079  -0.1127885   0.0000000), wk =   0.1111111
        k(    9) = (   0.0279079  -0.0805632   0.0000000), wk =   0.1111111
        k(   10) = (   0.0279079  -0.0483379   0.0000000), wk =   0.1111111
        k(   11) = (   0.0558158  -0.0322253   0.0000000), wk =   0.1111111
        k(   12) = (   0.0558158   0.0000000   0.0000000), wk =   0.1111111
        k(   13) = (   0.0558158   0.0322253   0.0000000), wk =   0.1111111
        k(   14) = (   0.0558158  -0.1289011   0.0000000), wk =   0.1111111
        k(   15) = (   0.0558158  -0.0966758   0.0000000), wk =   0.1111111
        k(   16) = (   0.0558158  -0.0644506   0.0000000), wk =   0.1111111
        k(   17) = (  -0.0837237   0.0483379   0.0000000), wk =   0.0555556
        k(   18) = (  -0.0837237   0.0805632   0.0000000), wk =   0.1111111
        k(   19) = (  -0.0837237   0.1127885   0.0000000), wk =   0.1111111
        k(   20) = (  -0.0837237  -0.0483379   0.0000000), wk =   0.0555556

     Largest allocated arrays     est. size (Mb)     dimensions
     Largest temporary arrays     est. size (Mb)     dimensions

     Initial potential from superposition of free atoms
     Check: negative starting charge=   -1.121604

     starting charge  160.98665, renormalised to  161.00000

     negative rho (up, down):  1.122E+00 0.000E+00

     *
     * You are using vdW-DF for exchange-correlation in this calculation.
     * Please cite the following three references that made this development
     * possible:
     *
     *   M. Dion, H. Rydberg, E. Schroder, D. C. Langreth, and
     *   B. I. Lundqvist, Phys. Rev. Lett. 92, 246401 (2004).
     *
     *   T. Thonhauser, V. R. Cooper, S. Li, A. Puzder, P. Hyldgaard, and
     *   D. C. Langreth, Phys. Rev. B 76, 125112 (2007).
     *
     *   G. Roman-Perez and J. M. Soler, Phys. Rev. Lett. 103, 096102 (2009).
     *
     *
     * If you are using vdW-DF2, please also cite:
     *
     *   K. Lee, E. D. Murray, L. Kong, B. I. Lundqvist, and
     *   D. C. Langreth, Phys. Rev. B 82, 081101(R) (2010).
     *
     *
     * If you are calculating the stress with vdW-DF, please also cite:
     *
     *   R. Sabatini, E. Kucukbenli, B. Kolb, T. Thonhauser, and
     *   S. de Gironcoli, J. Phys.: Condens. Matter 24, 424209 (2012).
     *

     Carrying out vdW-DF run using the following parameters:

     Nqs =      20    Nr_points =    1024   r_max =   100.000
     q_mesh =
               0.00001000     0.04494208     0.09755937     0.15916263
               0.23128650     0.31572767     0.41458969     0.53033537
               0.66584808     0.82450364     1.01025438     1.22772762
               1.48234092     1.78043706     2.12944203     2.53805004
               3.01644009     3.57652955     4.23227104     5.00000000

     Gradients computed in reciprocal space

     Adding external electric field

     Computed dipole along edir(3) :
        Dipole               -0.0031 Ry au,         -0.0078 Debye
        Dipole field         -0.0000 Ry au

        Potential amp.        0.0007 Ry
        Total length         45.8339 bohr

     Starting wfc are  160 randomized atomic wfcs

     Self-consistent Calculation

     iteration #  1     ecut=    36.75 Ry     beta=0.30
     Davidson diagonalization with overlap
     ethr =  1.00E-02,  avg # of iterations =  2.0

[...]

     total energy              =   -1736.46708952 Ry
     Harris-Foulkes estimate   =   -1739.08019864 Ry
     estimated scf accuracy    <       5.69879238 Ry

[...]

     End of self-consistent calculation

          k = 0.0000 0.0000 0.0000 ( 19447 PWs)   bands (ev):

   -66.6672 -66.6175 -66.5969 -66.5969 -66.5940 -66.5385 -66.5385 -66.5292
   -66.4784 -66.4311 -66.4311 -66.4209 -33.3605 -33.3605 -33.3407 -33.3026
   -33.2831 -33.2831 -33.2830 -33.2388 -33.2387 -33.2362 -33.0582 -32.9723
   -32.9406 -32.9406 -32.8659 -32.8659 -32.8627 -32.7799 -32.7642 -32.7642
   -32.6918 -32.6859 -32.6859 -32.6352 -32.6352 -32.6287 -32.5897 -32.5794
   -32.5794 -32.5787 -32.5668 -32.5668 -32.5046 -32.5046 -32.4267 -32.4267
   -10.9750  -5.6741  -4.0261  -3.0485  -2.4610  -2.4610  -2.3607  -2.2369
    -2.2369  -2.2214  -1.6428  -1.6428  -1.6403  -1.2472  -1.2472  -1.2129
    -0.4237  -0.4237  -0.1414   0.3427   0.3427   0.5090   1.1185   1.3077
     1.3077   1.5697   1.6823   1.7975   1.9440   1.9441   2.1314   2.1314
     2.2350   2.3708   2.3708   2.4559   2.4903   2.4903   2.5697   2.5697
     2.7233   2.9990

[...]

          k =-0.0837 0.0483 0.0000 ( 19532 PWs)   bands (ev):

[...]

     the Fermi energy is     1.7238 ev

!    total energy              =   -1738.64094167 Ry
     Harris-Foulkes estimate   =   -1738.64094083 Ry
     estimated scf accuracy    <       0.00000062 Ry

     The total energy is the sum of the following terms:

     one-electron contribution =  -11706.41927938 Ry
     hartree contribution      =    5836.22196722 Ry
     xc contribution           =    -528.09933933 Ry
     ewald contribution        =    4659.75836684 Ry
     electric field correction =       0.00020801 Ry
     smearing contrib. (-TS)   =      -0.10286503 Ry

     convergence has been achieved in  17 iterations

 BEEF-vdW xc energy contributions
           1 :   -464.836118950633
           2 :    428.969734319048
           3 :   -366.385646541306
           4 :    291.587977093524
           5 :   -219.092029843969
           6 :    158.966042524270
           7 :   -114.846573362598
           8 :    84.7708393618996
           9 :   -63.9065721062049
          10 :    47.5743941962967
          11 :   -33.1620409763910
          12 :    20.3650029081205
          13 :   -10.1384116857597
          14 :    3.29204996131028
          15 :   0.390654264035561
          16 :   -2.13351110404017
          17 :    3.45841668099774
          18 :   -5.34239732769078
          19 :    7.77373779839621
          20 :   -9.93833610399349
          21 :    10.8727271874337
          22 :   -10.1566117033158
          23 :    8.22214346886483
          24 :   -6.11629078773512
          25 :    4.89202039855968
          26 :   -5.02024037594106
          27 :    6.17465670666184
          28 :   -7.49019132361906
          29 :    8.10500374275796
          30 :   -7.64610922043641
          31 :   -41.6201187654630
          32 :   -30.8692420227549

     Forces acting on atoms (Ry/au):

     negative rho (up, down):  1.177E+00 0.000E+00
     atom    1 type  1   force =     0.00028010    0.00015917    0.00139728
     atom    2 type  1   force =    -0.00028061    0.00015531    0.00139756
     atom    3 type  1   force =    -0.00000408   -0.00031976    0.00138792
     atom    4 type  1   force =     0.00000337    0.00000315    0.00002699
     atom    5 type  1   force =    -0.00000661    0.00187297   -0.00098394
     atom    6 type  1   force =     0.00000759    0.00002322    0.00505078
     atom    7 type  1   force =    -0.00160248   -0.00094281   -0.00101396
     atom    8 type  1   force =     0.00160327   -0.00095109   -0.00100610
     atom    9 type  1   force =    -0.00000604   -0.00000516   -0.03937231
     atom   10 type  1   force =     0.00000639    0.04812441    0.07954235
     atom   11 type  1   force =     0.04168328   -0.02405628    0.07954058
     atom   12 type  1   force =    -0.04168297   -0.02406236    0.07954451
     atom   13 type  2   force =    -0.00000121   -0.00000076   -0.20551167

     Total force =     0.264036     Total SCF correction =     0.001550

     entering subroutine stress ...

     negative rho (up, down):  1.177E+00 0.000E+00
          total   stress  (Ry/bohr**3)                   (kbar)     P=  -38.53
  -0.00030415   0.00000000   0.00000000        -44.74      0.00      0.00
   0.00000000  -0.00030415   0.00000000          0.00    -44.74      0.00
   0.00000000   0.00000000  -0.00017753          0.00      0.00    -26.12

     BFGS Geometry Optimization

     number of scf cycles    =   1
     number of bfgs steps    =   0

     energy   new            =   -1738.6409416688 Ry

     new trust radius        =       0.2055116678 bohr
     new conv_thr            =       0.0000099958 Ry

ATOMIC_POSITIONS (crystal)
Ta1      0.166666667   0.166666667   0.401991699    0   0   0
Ta1      0.666666667   0.166666667   0.401991699    0   0   0
Ta1      0.166666667   0.666666667   0.401991699    0   0   0
Ta1      0.666666667   0.666666667   0.401991699    0   0   0
Ta1      0.833333333   0.333333333   0.500000000    0   0   0
Ta1      0.333333333   0.333333333   0.500000000    0   0   0
Ta1      0.833333333   0.833333333   0.500000000    0   0   0
Ta1      0.333333333   0.833333333   0.500000000    0   0   0
Ta1     -0.000000272  -0.000000528   0.597170755
Ta1      0.497538587   0.004923960   0.599700365
Ta1      0.004924216   0.497538626   0.599700327
Ta1      0.497537495   0.497538004   0.599700411
N1       0.333333265   0.333333256   0.656608557

     Writing output data file calc.save
     Check: negative starting charge=   -1.121604
     NEW-OLD atomic charge density approx. for the potential
     Check: negative starting charge=   -1.124056

[...]

     energy   old            =   -1738.6409416688 Ry
     energy   new            =   -1738.7054034182 Ry

     CASE: energy  _new < energy  _old

     WARNING: bfgs curvature condition failed, Theta= 0.972
     new trust radius        =       0.2260628346 bohr
     new conv_thr            =       0.0000001000 Ry

[...]

     Total force =     0.007514     Total SCF correction =     0.000425

[...]

     number of scf cycles    =  11
     number of bfgs steps    =  10

     energy   old            =   -1738.7908193089 Ry
     energy   new            =   -1738.7909833968 Ry

     CASE: energy  _new < energy  _old

     new trust radius        =       0.0133479164 bohr
     new conv_thr            =       0.0000001000 Ry

ATOMIC_POSITIONS (crystal)
Ta1      0.166666667   0.166666667   0.401991699    0   0   0
Ta1      0.666666667   0.166666667   0.401991699    0   0   0
Ta1      0.166666667   0.666666667   0.401991699    0   0   0
Ta1      0.666666667   0.666666667   0.401991699    0   0   0
Ta1      0.833333333   0.333333333   0.500000000    0   0   0
Ta1      0.333333333   0.333333333   0.500000000    0   0   0
Ta1      0.833333333   0.833333333   0.500000000    0   0   0
Ta1      0.333333333   0.833333333   0.500000000    0   0   0
Ta1      0.000000227  -0.000000221   0.586162433
Ta1      0.501874849  -0.003749566   0.602717279
Ta1     -0.003750509   0.501875237   0.602717245
Ta1      0.501875622   0.501875464   0.602717237
N1       0.333333822   0.333332344   0.642564741

     Writing output data file calc.save
     Check: negative starting charge=   -1.123645
     NEW-OLD atomic charge density approx. for the potential
     Check: negative starting charge=   -1.123135

[...]

     Self-consistent Calculation

[...]

     total energy              =   -1738.79104908 Ry
     Harris-Foulkes estimate   =   -1738.79104905 Ry
     estimated scf accuracy    <       0.00000017 Ry

     iteration #  9     ecut=    36.75 Ry     beta=0.30
     Davidson diagonalization with overlap
     ethr =  1.07E-10,  avg # of iterations =  3.9

[...]

     negative rho (up, down):  1.179E+00 0.000E+00

     Adding external electric field

     Computed dipole along edir(3) :
        Dipole               -0.0551 Ry au,         -0.1400 Debye
        Dipole field         -0.0001 Ry au

        Potential amp.        0.0122 Ry
        Total length         45.8339 bohr

     End of self-consistent calculation

[...]

          k = 0.0558-0.0645 0.0000 ( 19521 PWs)   bands (ev):

[...]

          k =-0.0837-0.0483 0.0000 ( 19532 PWs)   bands (ev):

   -66.3661 -66.3515 -66.3364 -66.2837 -66.2799 -66.2542 -66.2502 -66.2021
   -66.1344 -66.1152 -66.1019 -65.9823 -33.0143 -32.9300 -32.9016 -32.8880
   -32.8756 -32.8735 -32.8448 -32.7985 -32.7880 -32.7868 -32.7421 -32.7379
   -32.7224 -32.7084 -32.6445 -32.6145 -32.6091 -32.5954 -32.5410 -32.5318
   -32.5198 -32.4847 -32.4461 -32.4457 -32.4272 -32.4252 -32.3948 -32.3554
   -32.3449 -32.3214 -32.3162 -32.2325 -32.2115 -32.1628 -32.0910 -32.0705
   -12.3101  -3.8292  -3.5679  -2.9007  -2.3988  -2.2377  -1.9778  -1.6140
    -1.2758  -1.1647  -1.0535  -0.8854  -0.7947  -0.5938  -0.1386  -0.0867
     0.0965   0.1277   0.3000   0.4640   0.4960   0.7000   0.7735   0.9026
     0.9669   1.0740   1.1410   1.2780   1.3738   1.4390   1.4455   1.5321
     1.6470   1.7488   1.9983   2.2647   2.2727   2.2904   2.3958   2.8250
     3.1059   3.2229

     the Fermi energy is     1.9914 ev

!    total energy              =   -1738.79105158 Ry
     Harris-Foulkes estimate   =   -1738.79104895 Ry
     estimated scf accuracy    <       0.00000006 Ry

     The total energy is the sum of the following terms:

     one-electron contribution =  -11783.41902690 Ry
     hartree contribution      =    5876.12010603 Ry
     xc contribution           =    -528.50994035 Ry
     ewald contribution        =    4697.11521222 Ry
     electric field correction =       0.00000735 Ry
     smearing contrib. (-TS)   =      -0.09740993 Ry

     convergence has been achieved in   9 iterations

 BEEF-vdW xc energy contributions
           1 :   -465.248438750125
           2 :    429.467868307789
           3 :   -366.962506221379
           4 :    292.142783575390
           5 :   -219.491093673379
           6 :    159.104757433789
           7 :   -114.689396060547
           8 :    84.3620507342149
           9 :   -63.3536694093580
          10 :    47.0106303865037
          11 :   -32.6980293110553
          12 :    20.0473227010597
          13 :   -9.93711079491698
          14 :    3.12711398444651
          15 :   0.597249374457476
          16 :   -2.41008030347746
          17 :    3.76735825915193
          18 :   -5.60573535435481
          19 :    7.92628634271432
          20 :   -9.97521191677765
          21 :    10.8599368358000
          22 :   -10.1977651355040
          23 :    8.40097385789443
          24 :   -6.44761196747857
          25 :    5.30958648854380
          26 :   -5.40907170420746
          27 :    6.42994657196959
          28 :   -7.57183875099258
          29 :    8.05782180263907
          30 :   -7.57223552899313
          31 :   -41.6438213886688
          32 :   -30.9072405422598

     Forces acting on atoms (Ry/au):

     negative rho (up, down):  1.179E+00 0.000E+00
     atom    1 type  1   force =     0.00154065    0.00088963   -0.00012848
     atom    2 type  1   force =    -0.00154064    0.00088961   -0.00012839
     atom    3 type  1   force =    -0.00000001   -0.00177909   -0.00012847
     atom    4 type  1   force =     0.00000000   -0.00000009    0.00030213
     atom    5 type  1   force =    -0.00000015    0.03042638   -0.00928636
     atom    6 type  1   force =     0.00000014   -0.00000024    0.02960191
     atom    7 type  1   force =    -0.02635036   -0.01521326   -0.00928657
     atom    8 type  1   force =     0.02635034   -0.01521342   -0.00928649
     atom    9 type  1   force =    -0.00000014    0.00000027    0.00155504
     atom   10 type  1   force =     0.00000032   -0.00168000   -0.00166075
     atom   11 type  1   force =    -0.00145125    0.00083877   -0.00165970
     atom   12 type  1   force =     0.00145047    0.00083795   -0.00165946
     atom   13 type  2   force =     0.00000064    0.00000349    0.00176559

     Total force =     0.004716     Total SCF correction =     0.000593
     SCF correction compared to forces is large: reduce conv_thr to get better values

     entering subroutine stress ...

     negative rho (up, down):  1.179E+00 0.000E+00
          total   stress  (Ry/bohr**3)                   (kbar)     P=  -24.76
  -0.00022752  -0.00000000   0.00000000        -33.47     -0.00      0.00
  -0.00000000  -0.00022752   0.00000000         -0.00    -33.47      0.00
   0.00000000   0.00000000  -0.00004989          0.00      0.00     -7.34

     bfgs converged in  12 scf cycles and  11 bfgs steps
     (criteria: energy <  1.0E+00, force <  1.9E-03)

     End of BFGS Geometry Optimization

     Final energy   =   -1738.7910515750 Ry
Begin final coordinates

ATOMIC_POSITIONS (crystal)
Ta1      0.166666667   0.166666667   0.401991699    0   0   0
Ta1      0.666666667   0.166666667   0.401991699    0   0   0
Ta1      0.166666667   0.666666667   0.401991699    0   0   0
Ta1      0.666666667   0.666666667   0.401991699    0   0   0
Ta1      0.833333333   0.333333333   0.500000000    0   0   0
Ta1      0.333333333   0.333333333   0.500000000    0   0   0
Ta1      0.833333333   0.833333333   0.500000000    0   0   0
Ta1      0.333333333   0.833333333   0.500000000    0   0   0
Ta1      0.000000227  -0.000000221   0.586162433
Ta1      0.501874849  -0.003749566   0.602717279
Ta1     -0.003750509   0.501875237   0.602717245
Ta1      0.501875622   0.501875464   0.602717237
N1       0.333333822   0.333332344   0.642564741
End final coordinates

     Writing output data file calc.save

     General routines

     Parallel routines

   This run was terminated on:   8:45:58   3May2018

   JOB DONE.
Job  /afs/slac/g/suncat/bin/suncat-tsmpirun -x LD_LIBRARY_PATH -wdir /scratch/qe657216_rkpXN pw.x -npool 4 -in pw.inp

TID   HOST_NAME   COMMAND_LINE            STATUS            TERMINATION_TIME
00000 suncat0133 pw.x -npool 4 -i  Done                     05/03/2018 08:45:58
00001 suncat0133 pw.x -npool 4 -i  Done                     05/03/2018 08:45:58
00002 suncat0133 pw.x -npool 4 -i  Done                     05/03/2018 08:45:58
00003 suncat0133 pw.x -npool 4 -i  Done                     05/03/2018 08:45:58
00004 suncat0133 pw.x -npool 4 -i  Done                     05/03/2018 08:45:58
00005 suncat0133 pw.x -npool 4 -i  Done                     05/03/2018 08:45:58
00006 suncat0133 pw.x -npool 4 -i  Done                     05/03/2018 08:45:58
00007 suncat0133 pw.x -npool 4 -i  Done                     05/03/2018 08:45:58
00008 suncat0124 pw.x -npool 4 -i  Done                     05/03/2018 08:45:58
00009 suncat0124 pw.x -npool 4 -i  Done                     05/03/2018 08:45:58
00010 suncat0124 pw.x -npool 4 -i  Done                     05/03/2018 08:45:58
00011 suncat0124 pw.x -npool 4 -i  Done                     05/03/2018 08:45:58
00012 suncat0124 pw.x -npool 4 -i  Done                     05/03/2018 08:45:58
00013 suncat0124 pw.x -npool 4 -i  Done                     05/03/2018 08:45:58
00014 suncat0124 pw.x -npool 4 -i  Done                     05/03/2018 08:45:58
00015 suncat0124 pw.x -npool 4 -i  Done                     05/03/2018 08:45:58
00016 suncat0212 pw.x -npool 4 -i  Done                     05/03/2018 08:45:58
00017 suncat0212 pw.x -npool 4 -i  Done                     05/03/2018 08:45:58
00018 suncat0212 pw.x -npool 4 -i  Done                     05/03/2018 08:45:58
00019 suncat0212 pw.x -npool 4 -i  Done                     05/03/2018 08:45:58
00020 suncat0212 pw.x -npool 4 -i  Done                     05/03/2018 08:45:58
00021 suncat0212 pw.x -npool 4 -i  Done                     05/03/2018 08:45:58
00022 suncat0212 pw.x -npool 4 -i  Done                     05/03/2018 08:45:58
00023 suncat0212 pw.x -npool 4 -i  Done                     05/03/2018 08:45:58
00024 suncat0211 pw.x -npool 4 -i  Done                     05/03/2018 08:45:58
00025 suncat0211 pw.x -npool 4 -i  Done                     05/03/2018 08:45:58
00026 suncat0211 pw.x -npool 4 -i  Done                     05/03/2018 08:45:58
00027 suncat0211 pw.x -npool 4 -i  Done                     05/03/2018 08:45:58
00028 suncat0211 pw.x -npool 4 -i  Done                     05/03/2018 08:45:58
00029 suncat0211 pw.x -npool 4 -i  Done                     05/03/2018 08:45:58
00030 suncat0211 pw.x -npool 4 -i  Done                     05/03/2018 08:45:58
00031 suncat0211 pw.x -npool 4 -i  Done                     05/03/2018 08:45:58