     Program PWSCF v.5.1rc2 (svn rev. 11289) starts on  2May2018 at 18:20:27

     Current dimensions of program PWSCF are:
     Max number of different atomic species (ntypx) = 10
     Max number of k-points (npk) =  40000
     Max angular momentum in pseudopotentials (lmaxx) =  3
     Presently stress not available with electric field

     IMPORTANT: XC functional enforced from input :
     Exchange-correlation      = BEEF-VDW ( 1  4 27 13 2)
     Any further DFT definition will be discarded
     Please, verify this is what you really want

     Subspace diagonalization in iterative solution of the eigenvalue problem:
     a serial algorithm will be used

     bravais-lattice index     =            0
     lattice parameter (alat)  =       1.8897  a.u.
     unit-cell volume          =    6082.7792 (a.u.)^3
     number of atoms/cell      =           13
     number of atomic types    =            2
     number of electrons       =       145.00
     number of Kohn-Sham states=           82
     kinetic-energy cutoff     =      36.7493  Ry
     charge density cutoff     =     367.4932  Ry
     convergence threshold     =      1.0E-05
     mixing beta               =       0.3000
     number of iterations used =           10  plain     mixing
     Exchange-correlation      = BEEF-VDW ( 1  4 27 13 2)
     nstep                     =           50

     celldm(1)=   1.889726  celldm(2)=   0.000000  celldm(3)=   0.000000
     celldm(4)=   0.000000  celldm(5)=   0.000000  celldm(6)=   0.000000

     crystal axes: (cart. coord. in units of alat)
               a(1) = (   6.421223   0.000000   0.000000 )
               a(2) = (   3.210611   5.560942   0.000000 )
               a(3) = (   0.000000   0.000000  25.242906 )

     reciprocal axes: (cart. coord. in units 2 pi/alat)
               b(1) = (  0.155734 -0.089913  0.000000 )
               b(2) = (  0.000000  0.179826  0.000000 )
               b(3) = (  0.000000  0.000000  0.039615 )

     PseudoPot. # 1 for Zr read from file:
     /u/if/mamunm/psp/gbrv1.5pbe/Zr.UPF
     MD5 check sum: 5db81b1e868ab7776c4564c113de050b
     Pseudo is Ultrasoft + core correction, Zval = 12.0
     Generated by new atomic code, or converted to UPF format
     Using radial grid of  887 points,  6 beta functions with:
                l(1) =   0
                l(2) =   0
                l(3) =   1
                l(4) =   1
                l(5) =   2
                l(6) =   2
     Q(r) pseudized with  6 coefficients,  rinner =    1.200   1.200   1.200
                                                       1.200   1.200

     PseudoPot. # 2 for H  read from file:
     /u/if/mamunm/psp/gbrv1.5pbe/H.UPF
     MD5 check sum: 761ae9a214b05c3daf00ab9f6b793d6f
     Pseudo is Ultrasoft, Zval =  1.0
     Generated by new atomic code, or converted to UPF format
     Using radial grid of  615 points,  2 beta functions with:
                l(1) =   0
                l(2) =   0
     Q(r) pseudized with  8 coefficients,  rinner =    0.700

     vdW kernel table read from file vdW_kernel_table
     MD5 check sum: 095c7af220d748ca6e76c0b4c6cfb241

     atomic species   valence    mass     pseudopotential
        Zr1           12.00    91.22400     Zr( 1.00)
        H1             1.00     1.00800     H ( 1.00)

     No symmetry found

   Cartesian axes

     site n.     atom                  positions (alat units)
         1           Zr1 tau(   1) = (   1.6053057   0.9268237  10.0000000  )
         2           Zr1 tau(   2) = (   4.8159170   0.9268237  10.0000000  )
         3           Zr1 tau(   3) = (   3.2106113   3.7072946  10.0000000  )
         4           Zr1 tau(   4) = (   6.4212227   3.7072946  10.0000000  )
         5           Zr1 tau(   5) = (   6.4212227   1.8536473  12.6214532  )
         6           Zr1 tau(   6) = (   3.2106113   1.8536473  12.6214532  )
         7           Zr1 tau(   7) = (   8.0265283   4.6341183  12.6214532  )
         8           Zr1 tau(   8) = (   4.8159170   4.6341183  12.6214532  )
         9           Zr1 tau(   9) = (   0.0000000   0.0000000  15.2429064  )
        10           Zr1 tau(  10) = (   3.2106113   0.0000000  15.2429064  )
        11           Zr1 tau(  11) = (   1.6053057   2.7804710  15.2429064  )
        12           Zr1 tau(  12) = (   4.8159170   2.7804710  15.2429064  )
        13           H1  tau(  13) = (   0.0000000   0.0000000  16.9939064  )

     number of k points=    20  Fermi-Dirac smearing, width (Ry)=  0.0110
                       cart. coord. in units 2pi/alat
        k(    1) = (   0.0000000   0.0000000   0.0000000), wk =   0.0555556
        k(    2) = (   0.0000000   0.0299709   0.0000000), wk =   0.1111111
        k(    3) = (   0.0000000   0.0599419   0.0000000), wk =   0.1111111
        k(    4) = (   0.0000000  -0.0899128   0.0000000), wk =   0.0555556
        k(    5) = (   0.0259556  -0.0149855   0.0000000), wk =   0.1111111
        k(    6) = (   0.0259556   0.0149855   0.0000000), wk =   0.1111111
        k(    7) = (   0.0259556   0.0449564   0.0000000), wk =   0.1111111
        k(    8) = (   0.0259556  -0.1048983   0.0000000), wk =   0.1111111
        k(    9) = (   0.0259556  -0.0749274   0.0000000), wk =   0.1111111
        k(   10) = (   0.0259556  -0.0449564   0.0000000), wk =   0.1111111
        k(   11) = (   0.0519112  -0.0299709   0.0000000), wk =   0.1111111
        k(   12) = (   0.0519112   0.0000000   0.0000000), wk =   0.1111111
        k(   13) = (   0.0519112   0.0299709   0.0000000), wk =   0.1111111
        k(   14) = (   0.0519112  -0.1198838   0.0000000), wk =   0.1111111
        k(   15) = (   0.0519112  -0.0899128   0.0000000), wk =   0.1111111
        k(   16) = (   0.0519112  -0.0599419   0.0000000), wk =   0.1111111
        k(   17) = (  -0.0778668   0.0449564   0.0000000), wk =   0.0555556
        k(   18) = (  -0.0778668   0.0749274   0.0000000), wk =   0.1111111
        k(   19) = (  -0.0778668   0.1048983   0.0000000), wk =   0.1111111
        k(   20) = (  -0.0778668  -0.0449564   0.0000000), wk =   0.0555556

     Largest allocated arrays     est. size (Mb)     dimensions
     Largest temporary arrays     est. size (Mb)     dimensions

     Initial potential from superposition of free atoms
     Check: negative starting charge=   -0.729068

     starting charge  144.97420, renormalised to  145.00000

     negative rho (up, down):  7.292E-01 0.000E+00

     *
     * You are using vdW-DF for exchange-correlation in this calculation.
     * Please cite the following three references that made this development
     * possible:
     *
     *   M. Dion, H. Rydberg, E. Schroder, D. C. Langreth, and
     *   B. I. Lundqvist, Phys. Rev. Lett. 92, 246401 (2004).
     *
     *   T. Thonhauser, V. R. Cooper, S. Li, A. Puzder, P. Hyldgaard, and
     *   D. C. Langreth, Phys. Rev. B 76, 125112 (2007).
     *
     *   G. Roman-Perez and J. M. Soler, Phys. Rev. Lett. 103, 096102 (2009).
     *
     *
     * If you are using vdW-DF2, please also cite:
     *
     *   K. Lee, E. D. Murray, L. Kong, B. I. Lundqvist, and
     *   D. C. Langreth, Phys. Rev. B 82, 081101(R) (2010).
     *
     *
     * If you are calculating the stress with vdW-DF, please also cite:
     *
     *   R. Sabatini, E. Kucukbenli, B. Kolb, T. Thonhauser, and
     *   S. de Gironcoli, J. Phys.: Condens. Matter 24, 424209 (2012).
     *

     Carrying out vdW-DF run using the following parameters:

     Nqs =      20    Nr_points =    1024   r_max =   100.000
     q_mesh =
               0.00001000     0.04494208     0.09755937     0.15916263
               0.23128650     0.31572767     0.41458969     0.53033537
               0.66584808     0.82450364     1.01025438     1.22772762
               1.48234092     1.78043706     2.12944203     2.53805004
               3.01644009     3.57652955     4.23227104     5.00000000

     Gradients computed in reciprocal space

     Adding external electric field

     Computed dipole along edir(3) :
        Dipole               -0.0014 Ry au,         -0.0036 Debye
        Dipole field         -0.0000 Ry au

        Potential amp.        0.0003 Ry
        Total length         46.5096 bohr

     Starting wfc are  157 randomized atomic wfcs

     Self-consistent Calculation

     iteration #  1     ecut=    36.75 Ry     beta=0.30
     Davidson diagonalization with overlap
     ethr =  1.00E-02,  avg # of iterations =  2.0

[...]

     total energy              =   -1195.20231534 Ry
     Harris-Foulkes estimate   =   -1198.58182321 Ry
     estimated scf accuracy    <       7.13166131 Ry

[...]

     End of self-consistent calculation

          k = 0.0000 0.0000 0.0000 ( 22923 PWs)   bands (ev):

   -48.0194 -47.9827 -47.9490 -47.9485 -47.9004 -47.8878 -47.8871 -47.6928
   -47.6133 -47.6130 -47.5995 -47.5340 -26.2918 -26.2715 -26.2714 -26.2369
   -26.2161 -26.2160 -26.2075 -26.1287 -26.1286 -26.1108 -26.0110 -25.9320
   -25.9319 -25.8345 -25.7831 -25.7787 -25.7785 -25.7193 -25.7190 -25.7119
   -25.6726 -25.6723 -25.6015 -25.5505 -25.5505 -25.5347 -25.5344 -25.5029
   -25.4530 -25.4528 -25.4207 -25.4046 -25.4045 -25.3874 -25.2745 -25.2745
    -3.7139  -2.6461  -1.7572  -1.5830  -1.2698  -1.2693  -1.2692  -1.1513
    -1.1513  -0.9663  -0.7188  -0.7188  -0.6797  -0.5200  -0.5200  -0.4258
     0.3147   0.3539   0.3540   1.2362   1.4489   1.4792   1.4792   1.6867
     1.8500   1.9781   1.9782   2.0318   2.1908   2.1908   2.4454   2.4454
     2.4487   2.4487

[...]

          k =-0.0779 0.0450 0.0000 ( 22880 PWs)   bands (ev):

[...]

     the Fermi energy is     1.3031 ev

!    total energy              =   -1198.01833817 Ry
     Harris-Foulkes estimate   =   -1198.01834443 Ry
     estimated scf accuracy    <       0.00000538 Ry

     The total energy is the sum of the following terms:

     one-electron contribution =   -8219.99477294 Ry
     hartree contribution      =    4100.20697609 Ry
     xc contribution           =    -221.25678352 Ry
     ewald contribution        =    3143.14564484 Ry
     electric field correction =       0.00003716 Ry
     smearing contrib. (-TS)   =      -0.11943979 Ry

     convergence has been achieved in  19 iterations

 BEEF-vdW xc energy contributions
           1 :   -189.530690961757
           2 :    171.542487548827
           3 :   -141.213394668821
           4 :    107.088540067873
           5 :   -76.9056232690991
           6 :    54.8636586189299
           7 :   -40.9502238575501
           8 :    32.2594691877481
           9 :   -25.2626908491267
          10 :    17.7349594264838
          11 :   -9.48728301247377
          12 :    1.83043843584562
          13 :    3.65181793813724
          14 :   -6.21119072375700
          15 :    6.33686945843652
          16 :   -5.35266891681181
          17 :    4.57802672503504
          18 :   -4.61844509949464
          19 :    5.19488041328640
          20 :   -5.53874055364923
          21 :    5.02623859444344
          22 :   -3.61992935086965
          23 :    1.86459137296421
          24 :  -0.500469785551672
          25 :  -9.791163510442402E-003
          26 :  -0.269877370394681
          27 :   0.853249127467620
          28 :   -1.18336660892453
          29 :   0.985733746481060
          30 :  -0.403221552121209
          31 :   -21.9379977631828
          32 :   -16.3446359677198

     Forces acting on atoms (Ry/au):

     negative rho (up, down):  7.482E-01 0.000E+00
     atom    1 type  1   force =    -0.00006283   -0.00003481    0.01532286
     atom    2 type  1   force =     0.00006646   -0.00005999    0.01534845
     atom    3 type  1   force =    -0.00002297    0.00008548    0.01534067
     atom    4 type  1   force =     0.00002450    0.00001006    0.01680284
     atom    5 type  1   force =     0.00005186    0.00918998   -0.01103009
     atom    6 type  1   force =    -0.00005275   -0.00003782   -0.00039886
     atom    7 type  1   force =    -0.00799743   -0.00460969   -0.01095880
     atom    8 type  1   force =     0.00799020   -0.00454411   -0.01102828
     atom    9 type  1   force =    -0.00001210   -0.00000639   -0.05789415
     atom   10 type  1   force =     0.00001637    0.00280334   -0.01300393
     atom   11 type  1   force =     0.00243260   -0.00138764   -0.01299969
     atom   12 type  1   force =    -0.00243273   -0.00140800   -0.01300610
     atom   13 type  2   force =    -0.00000117   -0.00000041    0.06750507

     Total force =     0.091867     Total SCF correction =     0.006546

     entering subroutine stress ...

     negative rho (up, down):  7.482E-01 0.000E+00
          total   stress  (Ry/bohr**3)                   (kbar)     P=   -9.77
  -0.00007820  -0.00000000  -0.00000000        -11.50     -0.00     -0.00
  -0.00000000  -0.00007820  -0.00000000         -0.00    -11.50     -0.00
  -0.00000000  -0.00000000  -0.00004286         -0.00     -0.00     -6.31

     BFGS Geometry Optimization

     number of scf cycles    =   1
     number of bfgs steps    =   0

     energy   new            =   -1198.0183381686 Ry

     new trust radius        =       0.0675050722 bohr
     new conv_thr            =       0.0000099958 Ry

ATOMIC_POSITIONS (crystal)
Zr1      0.166666667   0.166666667   0.396150897    0   0   0
Zr1      0.666666667   0.166666667   0.396150897    0   0   0
Zr1      0.166666667   0.666666667   0.396150897    0   0   0
Zr1      0.666666667   0.666666667   0.396150897    0   0   0
Zr1      0.833333333   0.333333333   0.500000000    0   0   0
Zr1      0.333333333   0.333333333   0.500000000    0   0   0
Zr1      0.833333333   0.833333333   0.500000000    0   0   0
Zr1      0.333333333   0.833333333   0.500000000    0   0   0
Zr1     -0.000000693  -0.000000608   0.602635444
Zr1      0.499867967   0.000266765   0.603576496
Zr1      0.000266496   0.499867952   0.603576585
Zr1      0.499866509   0.499866015   0.603576451
H1      -0.000000077  -0.000000039   0.674630261

     Writing output data file calc.save
     Check: negative starting charge=   -0.729068
     NEW-OLD atomic charge density approx. for the potential
     Check: negative starting charge=   -0.729090

[...]

     energy   old            =   -1198.0183381686 Ry
     energy   new            =   -1198.0244394356 Ry

     CASE: energy  _new < energy  _old

[...]

     iteration # 11     ecut=    36.75 Ry     beta=0.30
     Davidson diagonalization with overlap
     c_bands:  1 eigenvalues not converged
     ethr =  3.96E-10,  avg # of iterations =  6.2

[...]

     iteration #  1     ecut=    36.75 Ry     beta=0.30
     Davidson diagonalization with overlap
     c_bands:  1 eigenvalues not converged
     ethr =  1.00E-06,  avg # of iterations = 14.0

[...]

     Threshold (ethr) on eigenvalues was too large:
     Diagonalizing with lowered threshold

     Davidson diagonalization with overlap
     ethr =  9.19E-08,  avg # of iterations =  1.0

[...]

     Total force =     0.004573     Total SCF correction =     0.000702
     SCF correction compared to forces is large: reduce conv_thr to get better values

[...]

     Total force =     0.004076     Total SCF correction =     0.000162

[...]

     number of scf cycles    =  14
     number of bfgs steps    =  13

     energy   old            =   -1198.0333257691 Ry
     energy   new            =   -1198.0333970048 Ry

     CASE: energy  _new < energy  _old

     new trust radius        =       0.0346490920 bohr
     new conv_thr            =       0.0000001000 Ry

ATOMIC_POSITIONS (crystal)
Zr1      0.166666667   0.166666667   0.396150897    0   0   0
Zr1      0.666666667   0.166666667   0.396150897    0   0   0
Zr1      0.166666667   0.666666667   0.396150897    0   0   0
Zr1      0.666666667   0.666666667   0.396150897    0   0   0
Zr1      0.833333333   0.333333333   0.500000000    0   0   0
Zr1      0.333333333   0.333333333   0.500000000    0   0   0
Zr1      0.833333333   0.833333333   0.500000000    0   0   0
Zr1      0.333333333   0.833333333   0.500000000    0   0   0
Zr1      0.000003354   0.000000247   0.605801177
Zr1      0.498126862   0.003735517   0.599161402
Zr1      0.003737530   0.498123678   0.599161511
Zr1      0.498135550   0.498132333   0.599157771
H1      -0.000003984   0.000005355   0.681414468

     Writing output data file calc.save
     Check: negative starting charge=   -0.728186
     NEW-OLD atomic charge density approx. for the potential
     Check: negative starting charge=   -0.728861

[...]

     Self-consistent Calculation

[...]

     total energy              =   -1198.03345942 Ry
     Harris-Foulkes estimate   =   -1198.03345952 Ry
     estimated scf accuracy    <       0.00000027 Ry

     iteration # 11     ecut=    36.75 Ry     beta=0.30
     Davidson diagonalization with overlap
     ethr =  1.85E-10,  avg # of iterations =  5.0

[...]

     negative rho (up, down):  7.480E-01 0.000E+00

     Adding external electric field

     Computed dipole along edir(3) :
        Dipole               -0.2441 Ry au,         -0.6205 Debye
        Dipole field         -0.0005 Ry au

        Potential amp.        0.0469 Ry
        Total length         46.5096 bohr

     End of self-consistent calculation

[...]

          k = 0.0519-0.0599 0.0000 ( 22856 PWs)   bands (ev):

[...]

          k =-0.0779-0.0450 0.0000 ( 22880 PWs)   bands (ev):

   -48.0482 -48.0405 -48.0370 -48.0160 -48.0003 -47.9942 -47.9906 -47.8101
   -47.7298 -47.7160 -47.6905 -47.6412 -26.2675 -26.2484 -26.2332 -26.2123
   -26.2067 -26.1870 -26.1479 -26.1341 -26.1129 -26.0823 -26.0669 -26.0301
   -26.0129 -26.0096 -25.9724 -25.9677 -25.9670 -25.9536 -25.8837 -25.8588
   -25.7537 -25.7445 -25.7394 -25.7263 -25.7210 -25.6761 -25.6591 -25.6404
   -25.6404 -25.5942 -25.5685 -25.5559 -25.5286 -25.5082 -25.4387 -25.3979
    -2.4383  -2.3526  -1.6344  -1.4048  -0.9768  -0.7174  -0.7037  -0.6312
    -0.6076  -0.5943  -0.5029   0.1002   0.1165   0.1434   0.2084   0.2170
     0.2860   0.5894   0.6163   0.6275   0.7217   0.7250   0.8267   0.9845
     1.0035   1.0915   1.1414   1.2295   1.2664   1.2979   1.3881   1.4908
     1.5512   1.7590

     the Fermi energy is     1.1890 ev

!    total energy              =   -1198.03345938 Ry
     Harris-Foulkes estimate   =   -1198.03345951 Ry
     estimated scf accuracy    <       0.00000002 Ry

     The total energy is the sum of the following terms:

     one-electron contribution =   -8300.50146532 Ry
     hartree contribution      =    4140.09821582 Ry
     xc contribution           =    -221.32060604 Ry
     ewald contribution        =    3183.80715150 Ry
     electric field correction =       0.00012310 Ry
     smearing contrib. (-TS)   =      -0.11687845 Ry

     convergence has been achieved in  11 iterations

 BEEF-vdW xc energy contributions
           1 :   -189.594999504409
           2 :    171.629376344856
           3 :   -141.325217323133
           4 :    107.198044075462
           5 :   -76.9720547292355
           6 :    54.8636328777448
           7 :   -40.8966846220164
           8 :    32.1957073435237
           9 :   -25.2373607684962
          10 :    17.7739759428309
          11 :   -9.57717614750402
          12 :    1.92224913928436
          13 :    3.61706799989298
          14 :   -6.26652605597235
          15 :    6.46474708407715
          16 :   -5.49167709559765
          17 :    4.66134859742778
          18 :   -4.61908160489128
          19 :    5.14451875351489
          20 :   -5.50564720873956
          21 :    5.06758942170984
          22 :   -3.74227467829203
          23 :    2.01938157057353
          24 :  -0.616539267675364
          25 :   2.057674999622350E-002
          26 :  -0.221738005777411
          27 :   0.782008722910206
          28 :   -1.15545063292126
          29 :    1.03523816132872
          30 :  -0.511413832004052
          31 :   -21.9432585627552
          32 :   -16.3534827282537

     Forces acting on atoms (Ry/au):

     negative rho (up, down):  7.480E-01 0.000E+00
     atom    1 type  1   force =     0.00005550    0.00003206    0.01364013
     atom    2 type  1   force =    -0.00005540    0.00003191    0.01364107
     atom    3 type  1   force =    -0.00000011   -0.00006389    0.01364108
     atom    4 type  1   force =     0.00000007    0.00000015    0.01660492
     atom    5 type  1   force =     0.00000277    0.00231565   -0.01347951
     atom    6 type  1   force =    -0.00000191   -0.00000125   -0.01720770
     atom    7 type  1   force =    -0.00200929   -0.00116037   -0.01346821
     atom    8 type  1   force =     0.00200737   -0.00115581   -0.01347934
     atom    9 type  1   force =    -0.00000177   -0.00000167   -0.00102462
     atom   10 type  1   force =     0.00000406    0.00058367   -0.00027235
     atom   11 type  1   force =     0.00050848   -0.00028783   -0.00027244
     atom   12 type  1   force =    -0.00050872   -0.00029324   -0.00026311
     atom   13 type  2   force =    -0.00000104    0.00000063    0.00194009

     Total force =     0.002461     Total SCF correction =     0.000318
     SCF correction compared to forces is large: reduce conv_thr to get better values

     entering subroutine stress ...

     negative rho (up, down):  7.480E-01 0.000E+00
          total   stress  (Ry/bohr**3)                   (kbar)     P=   -8.24
  -0.00006095   0.00000000   0.00000000         -8.97      0.00      0.00
   0.00000000  -0.00006096   0.00000000          0.00     -8.97      0.00
   0.00000000   0.00000000  -0.00004605          0.00      0.00     -6.77

     bfgs converged in  15 scf cycles and  14 bfgs steps
     (criteria: energy <  1.0E+00, force <  1.9E-03)

     End of BFGS Geometry Optimization

     Final energy   =   -1198.0334593842 Ry
Begin final coordinates

ATOMIC_POSITIONS (crystal)
Zr1      0.166666667   0.166666667   0.396150897    0   0   0
Zr1      0.666666667   0.166666667   0.396150897    0   0   0
Zr1      0.166666667   0.666666667   0.396150897    0   0   0
Zr1      0.666666667   0.666666667   0.396150897    0   0   0
Zr1      0.833333333   0.333333333   0.500000000    0   0   0
Zr1      0.333333333   0.333333333   0.500000000    0   0   0
Zr1      0.833333333   0.833333333   0.500000000    0   0   0
Zr1      0.333333333   0.833333333   0.500000000    0   0   0
Zr1      0.000003354   0.000000247   0.605801177
Zr1      0.498126862   0.003735517   0.599161402
Zr1      0.003737530   0.498123678   0.599161511
Zr1      0.498135550   0.498132333   0.599157771
H1      -0.000003984   0.000005355   0.681414468
End final coordinates

     Writing output data file calc.save

     General routines

     Parallel routines

   This run was terminated on:  20: 5:44   2May2018

   JOB DONE.
Job  /afs/slac/g/suncat/bin/suncat-tsmpirun -x LD_LIBRARY_PATH -wdir /scratch/qe836424_FmVPl pw.x -npool 4 -in pw.inp

TID   HOST_NAME   COMMAND_LINE            STATUS            TERMINATION_TIME
00000 suncat0076 pw.x -npool 4 -i  Done                     05/02/2018 20:05:44
00001 suncat0076 pw.x -npool 4 -i  Done                     05/02/2018 20:05:44
00002 suncat0076 pw.x -npool 4 -i  Done                     05/02/2018 20:05:44
00003 suncat0076 pw.x -npool 4 -i  Done                     05/02/2018 20:05:44
00004 suncat0076 pw.x -npool 4 -i  Done                     05/02/2018 20:05:44
00005 suncat0076 pw.x -npool 4 -i  Done                     05/02/2018 20:05:44
00006 suncat0076 pw.x -npool 4 -i  Done                     05/02/2018 20:05:44
00007 suncat0076 pw.x -npool 4 -i  Done                     05/02/2018 20:05:44
00008 suncat0073 pw.x -npool 4 -i  Done                     05/02/2018 20:05:44
00009 suncat0073 pw.x -npool 4 -i  Done                     05/02/2018 20:05:44
00010 suncat0073 pw.x -npool 4 -i  Done                     05/02/2018 20:05:44
00011 suncat0073 pw.x -npool 4 -i  Done                     05/02/2018 20:05:44
00012 suncat0073 pw.x -npool 4 -i  Done                     05/02/2018 20:05:44
00013 suncat0073 pw.x -npool 4 -i  Done                     05/02/2018 20:05:44
00014 suncat0073 pw.x -npool 4 -i  Done                     05/02/2018 20:05:44
00015 suncat0073 pw.x -npool 4 -i  Done                     05/02/2018 20:05:44
00016 suncat0071 pw.x -npool 4 -i  Done                     05/02/2018 20:05:44
00017 suncat0071 pw.x -npool 4 -i  Done                     05/02/2018 20:05:44
00018 suncat0071 pw.x -npool 4 -i  Done                     05/02/2018 20:05:44
00019 suncat0071 pw.x -npool 4 -i  Done                     05/02/2018 20:05:44
00020 suncat0071 pw.x -npool 4 -i  Done                     05/02/2018 20:05:44
00021 suncat0071 pw.x -npool 4 -i  Done                     05/02/2018 20:05:44
00022 suncat0071 pw.x -npool 4 -i  Done                     05/02/2018 20:05:44
00023 suncat0071 pw.x -npool 4 -i  Done                     05/02/2018 20:05:44
00024 suncat0068 pw.x -npool 4 -i  Done                     05/02/2018 20:05:44
00025 suncat0068 pw.x -npool 4 -i  Done                     05/02/2018 20:05:44
00026 suncat0068 pw.x -npool 4 -i  Done                     05/02/2018 20:05:44
00027 suncat0068 pw.x -npool 4 -i  Done                     05/02/2018 20:05:44
00028 suncat0068 pw.x -npool 4 -i  Done                     05/02/2018 20:05:44
00029 suncat0068 pw.x -npool 4 -i  Done                     05/02/2018 20:05:44
00030 suncat0068 pw.x -npool 4 -i  Done                     05/02/2018 20:05:44
00031 suncat0068 pw.x -npool 4 -i  Done                     05/02/2018 20:05:44