     Program PWSCF v.5.1rc2 (svn rev. 11289) starts on  3May2018 at  7:43: 1

     Current dimensions of program PWSCF are:
     Max number of different atomic species (ntypx) = 10
     Max number of k-points (npk) =  40000
     Max angular momentum in pseudopotentials (lmaxx) =  3
     Presently stress not available with electric field

     IMPORTANT: XC functional enforced from input :
     Exchange-correlation      = BEEF-VDW ( 1  4 27 13 2)
     Any further DFT definition will be discarded
     Please, verify this is what you really want

     Subspace diagonalization in iterative solution of the eigenvalue problem:
     a serial algorithm will be used

     bravais-lattice index     =            0
     lattice parameter (alat)  =       1.8897  a.u.
     unit-cell volume          =    4569.9960 (a.u.)^3
     number of atoms/cell      =           13
     number of atomic types    =            2
     number of electrons       =       196.00
     number of Kohn-Sham states=          108
     kinetic-energy cutoff     =      36.7493  Ry
     charge density cutoff     =     367.4932  Ry
     convergence threshold     =      1.0E-05
     mixing beta               =       0.3000
     number of iterations used =           10  plain     mixing
     Exchange-correlation      = BEEF-VDW ( 1  4 27 13 2)
     nstep                     =           50

     celldm(1)=   1.889726  celldm(2)=   0.000000  celldm(3)=   0.000000
     celldm(4)=   0.000000  celldm(5)=   0.000000  celldm(6)=   0.000000

     crystal axes: (cart. coord. in units of alat)
               a(1) = (   5.637663   0.000000   0.000000 )
               a(2) = (   2.818831   4.882359   0.000000 )
               a(3) = (   0.000000   0.000000  24.603132 )

     reciprocal axes: (cart. coord. in units 2 pi/alat)
               b(1) = (  0.177378 -0.102410  0.000000 )
               b(2) = (  0.000000  0.204819  0.000000 )
               b(3) = (  0.000000  0.000000  0.040645 )

     PseudoPot. # 1 for Pd read from file:
     /u/if/mamunm/psp/gbrv1.5pbe/Pd.UPF
     MD5 check sum: 2d733d2bc2cbfd217af676df1668a4bc
     Pseudo is Ultrasoft + core correction, Zval = 16.0
     Generated by new atomic code, or converted to UPF format
     Using radial grid of  887 points,  6 beta functions with:
                l(1) =   0
                l(2) =   0
                l(3) =   1
                l(4) =   1
                l(5) =   2
                l(6) =   2
     Q(r) pseudized with  8 coefficients,  rinner =    1.130   1.130   1.130
                                                       1.130   1.130

     PseudoPot. # 2 for C  read from file:
     /u/if/mamunm/psp/gbrv1.5pbe/C.UPF
     MD5 check sum: d1aef80898a10debaa0f26306b886e00
     Pseudo is Ultrasoft + core correction, Zval =  4.0
     Generated by new atomic code, or converted to UPF format
     Using radial grid of  721 points,  4 beta functions with:
                l(1) =   0
                l(2) =   0
                l(3) =   1
                l(4) =   1
     Q(r) pseudized with  8 coefficients,  rinner =    1.100   1.100   1.100

     vdW kernel table read from file vdW_kernel_table
     MD5 check sum: 095c7af220d748ca6e76c0b4c6cfb241

     atomic species   valence    mass     pseudopotential
        Pd1           16.00   106.42000     Pd( 1.00)
        C1             4.00    12.01100     C ( 1.00)

     No symmetry found

   Cartesian axes

     site n.     atom                  positions (alat units)
         1           Pd1 tau(   1) = (   1.4094157   0.8137265  10.0000000  )
         2           Pd1 tau(   2) = (   4.2282471   0.8137265  10.0000000  )
         3           Pd1 tau(   3) = (   2.8188314   3.2549061  10.0000000  )
         4           Pd1 tau(   4) = (   5.6376627   3.2549061  10.0000000  )
         5           Pd1 tau(   5) = (   5.6376627   1.6274531  12.3015662  )
         6           Pd1 tau(   6) = (   2.8188314   1.6274531  12.3015662  )
         7           Pd1 tau(   7) = (   7.0470784   4.0686326  12.3015662  )
         8           Pd1 tau(   8) = (   4.2282471   4.0686326  12.3015662  )
         9           Pd1 tau(   9) = (   0.0000000   0.0000000  14.6031324  )
        10           Pd1 tau(  10) = (   2.8188314   0.0000000  14.6031324  )
        11           Pd1 tau(  11) = (   1.4094157   2.4411796  14.6031324  )
        12           Pd1 tau(  12) = (   4.2282471   2.4411796  14.6031324  )
        13           C1  tau(  13) = (   1.4094157   0.8137265  16.0006324  )

     number of k points=    20  Fermi-Dirac smearing, width (Ry)=  0.0110
                       cart. coord. in units 2pi/alat
        k(    1) = (   0.0000000   0.0000000   0.0000000), wk =   0.0555556
        k(    2) = (   0.0000000   0.0341365   0.0000000), wk =   0.1111111
        k(    3) = (   0.0000000   0.0682730   0.0000000), wk =   0.1111111
        k(    4) = (   0.0000000  -0.1024095   0.0000000), wk =   0.0555556
        k(    5) = (   0.0295631  -0.0170683   0.0000000), wk =   0.1111111
        k(    6) = (   0.0295631   0.0170683   0.0000000), wk =   0.1111111
        k(    7) = (   0.0295631   0.0512048   0.0000000), wk =   0.1111111
        k(    8) = (   0.0295631  -0.1194778   0.0000000), wk =   0.1111111
        k(    9) = (   0.0295631  -0.0853413   0.0000000), wk =   0.1111111
        k(   10) = (   0.0295631  -0.0512048   0.0000000), wk =   0.1111111
        k(   11) = (   0.0591262  -0.0341365   0.0000000), wk =   0.1111111
        k(   12) = (   0.0591262  -0.0000000   0.0000000), wk =   0.1111111
        k(   13) = (   0.0591262   0.0341365   0.0000000), wk =   0.1111111
        k(   14) = (   0.0591262  -0.1365460   0.0000000), wk =   0.1111111
        k(   15) = (   0.0591262  -0.1024095   0.0000000), wk =   0.1111111
        k(   16) = (   0.0591262  -0.0682730   0.0000000), wk =   0.1111111
        k(   17) = (  -0.0886892   0.0512048   0.0000000), wk =   0.0555556
        k(   18) = (  -0.0886892   0.0853413   0.0000000), wk =   0.1111111
        k(   19) = (  -0.0886892   0.1194778   0.0000000), wk =   0.1111111
        k(   20) = (  -0.0886892  -0.0512048   0.0000000), wk =   0.0555556

     Largest allocated arrays     est. size (Mb)     dimensions
     Largest temporary arrays     est. size (Mb)     dimensions

     Initial potential from superposition of free atoms
     Check: negative starting charge=   -0.904052

     starting charge  189.99988, renormalised to  196.00000

     negative rho (up, down):  9.326E-01 0.000E+00

     *
     * You are using vdW-DF for exchange-correlation in this calculation.
     * Please cite the following three references that made this development
     * possible:
     *
     *   M. Dion, H. Rydberg, E. Schroder, D. C. Langreth, and
     *   B. I. Lundqvist, Phys. Rev. Lett. 92, 246401 (2004).
     *
     *   T. Thonhauser, V. R. Cooper, S. Li, A. Puzder, P. Hyldgaard, and
     *   D. C. Langreth, Phys. Rev. B 76, 125112 (2007).
     *
     *   G. Roman-Perez and J. M. Soler, Phys. Rev. Lett. 103, 096102 (2009).
     *
     *
     * If you are using vdW-DF2, please also cite:
     *
     *   K. Lee, E. D. Murray, L. Kong, B. I. Lundqvist, and
     *   D. C. Langreth, Phys. Rev. B 82, 081101(R) (2010).
     *
     *
     * If you are calculating the stress with vdW-DF, please also cite:
     *
     *   R. Sabatini, E. Kucukbenli, B. Kolb, T. Thonhauser, and
     *   S. de Gironcoli, J. Phys.: Condens. Matter 24, 424209 (2012).
     *

     Carrying out vdW-DF run using the following parameters:

     Nqs =      20    Nr_points =    1024   r_max =   100.000
     q_mesh =
               0.00001000     0.04494208     0.09755937     0.15916263
               0.23128650     0.31572767     0.41458969     0.53033537
               0.66584808     0.82450364     1.01025438     1.22772762
               1.48234092     1.78043706     2.12944203     2.53805004
               3.01644009     3.57652955     4.23227104     5.00000000

     Gradients computed in reciprocal space

     Adding external electric field

     Computed dipole along edir(3) :
        Dipole               -0.8827 Ry au,         -2.2436 Debye
        Dipole field         -0.0024 Ry au

        Potential amp.        0.2201 Ry
        Total length         45.3309 bohr

     Starting wfc are  148 randomized atomic wfcs

     Self-consistent Calculation

     iteration #  1     ecut=    36.75 Ry     beta=0.30
     Davidson diagonalization with overlap
     ethr =  1.00E-02,  avg # of iterations =  4.5

[...]

     total energy              =   -2385.91968142 Ry
     Harris-Foulkes estimate   =   -2412.78639202 Ry
     estimated scf accuracy    <      57.35263445 Ry

[...]

     End of self-consistent calculation

          k = 0.0000 0.0000 0.0000 ( 17231 PWs)   bands (ev):

   -49.6734 -49.5390 -49.5390 -49.2940 -49.2940 -49.2359 -49.1961 -49.1580
   -49.1580 -49.1248 -49.0946 -49.0945 -49.0050 -48.9931 -48.9930 -48.9593
   -48.9532 -48.9346 -48.9345 -48.8800 -48.8800 -48.8722 -48.8721 -48.8613
   -48.7122 -48.7122 -48.7000 -48.6496 -48.6496 -48.6465 -48.6465 -48.5833
   -48.5426 -48.5293 -48.5293 -48.5149  -9.2929  -4.9070  -3.9227  -3.8521
    -3.8521  -3.7380  -3.6657  -3.5725  -3.5725  -3.5107  -3.3848  -3.3848
    -3.3741  -3.2110  -3.2110  -3.1782  -2.6278  -2.6278  -2.2834  -1.9944
    -1.9944  -1.9296  -1.9296  -1.9049  -1.7957  -1.6877  -1.6877  -1.4952
    -1.4952  -1.4665  -1.3678  -1.3678  -1.1900  -1.1899  -1.1767  -0.7269
    -0.7269  -0.6905  -0.5498  -0.3890  -0.3890  -0.3708  -0.1897  -0.1897
    -0.0724  -0.0723   0.2968   0.2969   0.3344   0.4148   0.4148   0.4933
     0.5116   0.5183   0.5183   0.6727   0.6727   0.7818   0.7838   0.7838
     0.9769   0.9769   0.9845   1.2451   1.6114   1.7882   1.7882   2.9256
     3.3637   3.3638   3.5898   4.4216

[...]

          k =-0.0887 0.0512 0.0000 ( 17240 PWs)   bands (ev):

[...]

     the Fermi energy is     0.7532 ev

!    total energy              =   -2408.81704639 Ry
     Harris-Foulkes estimate   =   -2408.81704589 Ry
     estimated scf accuracy    <       0.00000251 Ry

     The total energy is the sum of the following terms:

     one-electron contribution =  -20520.03508966 Ry
     hartree contribution      =   10308.86315355 Ry
     xc contribution           =    -393.51490037 Ry
     ewald contribution        =    8195.97201710 Ry
     electric field correction =       0.00011293 Ry
     smearing contrib. (-TS)   =      -0.10233994 Ry

     convergence has been achieved in  19 iterations

 BEEF-vdW xc energy contributions
           1 :   -342.556078127777
           2 :    313.042774958339
           3 :   -262.688978030182
           4 :    205.021637896609
           5 :   -153.144489403505
           6 :    115.425354879399
           7 :   -93.6801240949042
           8 :    84.1641859464152
           9 :   -80.5135458621219
          10 :    77.0526959583644
          11 :   -70.9741696321556
          12 :    62.6458596162215
          13 :   -54.3259242292127
          14 :    48.2804147823225
          15 :   -45.3978783030455
          16 :    44.8982610775785
          17 :   -45.0471815115384
          18 :    44.2736590480353
          19 :   -41.9906110781808
          20 :    38.7077590552591
          21 :   -35.5036370856285
          22 :    33.2711396916741
          23 :   -32.2113659297041
          24 :    31.8256351409668
          25 :   -31.3303148515393
          26 :    30.1805567821330
          27 :   -28.3719472058427
          28 :    26.3648514495378
          29 :   -24.7268867190523
          30 :    23.7492027180415
          31 :   -33.4602888471477
          32 :   -24.7332590949608

     Forces acting on atoms (Ry/au):

     negative rho (up, down):  9.421E-01 0.000E+00
     atom    1 type  1   force =     0.00000032    0.00000076    0.00083461
     atom    2 type  1   force =    -0.00000088    0.00139019   -0.00276164
     atom    3 type  1   force =     0.00120687   -0.00069271   -0.00275458
     atom    4 type  1   force =    -0.00120614   -0.00069240   -0.00275517
     atom    5 type  1   force =    -0.00380284    0.00219624   -0.00697638
     atom    6 type  1   force =     0.00380309    0.00219503   -0.00697467
     atom    7 type  1   force =    -0.00000159    0.00000126   -0.00202222
     atom    8 type  1   force =     0.00000170   -0.00439693   -0.00695005
     atom    9 type  1   force =     0.03537694    0.02042038    0.05537037
     atom   10 type  1   force =    -0.03537715    0.02042086    0.05536845
     atom   11 type  1   force =     0.00000052   -0.04084157    0.05536554
     atom   12 type  1   force =    -0.00000075   -0.00000030    0.00030503
     atom   13 type  2   force =    -0.00000008   -0.00000082   -0.13604929

     Total force =     0.180863     Total SCF correction =     0.001815

     entering subroutine stress ...

     negative rho (up, down):  9.421E-01 0.000E+00
          total   stress  (Ry/bohr**3)                   (kbar)     P=  -13.47
  -0.00010878  -0.00000000  -0.00000000        -16.00     -0.00     -0.00
  -0.00000000  -0.00010877  -0.00000000         -0.00    -16.00     -0.00
  -0.00000000  -0.00000000  -0.00005722         -0.00     -0.00     -8.42

     BFGS Geometry Optimization

     number of scf cycles    =   1
     number of bfgs steps    =   0

     energy   new            =   -2408.8170463864 Ry

     new trust radius        =       0.1360492902 bohr
     new conv_thr            =       0.0000099958 Ry

ATOMIC_POSITIONS (crystal)
Pd1      0.166666667   0.166666667   0.406452311    0   0   0
Pd1      0.666666667   0.166666667   0.406452311    0   0   0
Pd1      0.166666667   0.666666667   0.406452311    0   0   0
Pd1      0.666666667   0.666666667   0.406452311    0   0   0
Pd1      0.833333333   0.333333333   0.500000000    0   0   0
Pd1      0.333333333   0.333333333   0.500000000    0   0   0
Pd1      0.833333333   0.833333333   0.500000000    0   0   0
Pd1      0.333333333   0.833333333   0.500000000    0   0   0
Pd1      0.002214006   0.002213275   0.594738624
Pd1      0.495572673   0.002213327   0.594738583
Pd1      0.002213367   0.495573364   0.594738520
Pd1      0.499999945   0.499999967   0.593554250
C1       0.166666704   0.166666577   0.647423179

     Writing output data file calc.save
     Check: negative starting charge=   -0.904052
     NEW-OLD atomic charge density approx. for the potential
     Check: negative starting charge=   -0.906260

[...]

     energy   old            =   -2408.8170463864 Ry
     energy   new            =   -2408.8461907934 Ry

     CASE: energy  _new < energy  _old

[...]

     WARNING: bfgs curvature condition failed, Theta= 0.991
     new trust radius        =       0.0120006958 bohr
     new conv_thr            =       0.0000001000 Ry

[...]

     number of scf cycles    =  12
     number of bfgs steps    =  11

     energy   old            =   -2408.8843786854 Ry
     energy   new            =   -2408.8845247702 Ry

     CASE: energy  _new < energy  _old

     new trust radius        =       0.0326004958 bohr
     new conv_thr            =       0.0000001000 Ry

ATOMIC_POSITIONS (crystal)
Pd1      0.166666667   0.166666667   0.406452311    0   0   0
Pd1      0.666666667   0.166666667   0.406452311    0   0   0
Pd1      0.166666667   0.666666667   0.406452311    0   0   0
Pd1      0.666666667   0.666666667   0.406452311    0   0   0
Pd1      0.833333333   0.333333333   0.500000000    0   0   0
Pd1      0.333333333   0.333333333   0.500000000    0   0   0
Pd1      0.833333333   0.833333333   0.500000000    0   0   0
Pd1      0.333333333   0.833333333   0.500000000    0   0   0
Pd1     -0.002583950  -0.002590354   0.597246459
Pd1      0.505174386  -0.002590889   0.597246388
Pd1     -0.002587829   0.505174554   0.597246397
Pd1      0.499998295   0.500004156   0.592452903
C1       0.166666686   0.166667069   0.634595096

     Writing output data file calc.save
     Check: negative starting charge=   -0.906215
     NEW-OLD atomic charge density approx. for the potential
     Check: negative starting charge=   -0.905566

[...]

     Self-consistent Calculation

[...]

     total energy              =   -2408.88460793 Ry
     Harris-Foulkes estimate   =   -2408.88460796 Ry
     estimated scf accuracy    <       0.00000015 Ry

     iteration # 12     ecut=    36.75 Ry     beta=0.30
     Davidson diagonalization with overlap
     ethr =  7.42E-11,  avg # of iterations =  1.2

[...]

     negative rho (up, down):  9.448E-01 0.000E+00

     Adding external electric field

     Computed dipole along edir(3) :
        Dipole               -0.0810 Ry au,         -0.2060 Debye
        Dipole field         -0.0002 Ry au

        Potential amp.        0.0202 Ry
        Total length         45.3309 bohr

     End of self-consistent calculation

[...]

          k = 0.0591-0.0683 0.0000 ( 17183 PWs)   bands (ev):

[...]

          k =-0.0887-0.0512 0.0000 ( 17240 PWs)   bands (ev):

   -50.0105 -49.9501 -49.8939 -49.3844 -49.3650 -49.3306 -49.2786 -49.2596
   -49.2358 -48.9077 -48.9042 -48.8412 -48.8347 -48.8293 -48.8228 -48.8204
   -48.7903 -48.7884 -48.7773 -48.7421 -48.7304 -48.6793 -48.6636 -48.6285
   -48.5933 -48.5912 -48.5796 -48.5247 -48.5120 -48.4845 -48.4765 -48.4319
   -48.3821 -48.3708 -48.3657 -48.3616 -10.3846  -4.8157  -4.1290  -3.7588
    -3.4733  -3.3655  -3.0840  -2.9736  -2.9330  -2.7592  -2.7104  -2.6918
    -2.6157  -2.5203  -2.4928  -2.4766  -2.4123  -2.3385  -2.2665  -2.1795
    -1.9973  -1.9617  -1.9316  -1.8596  -1.8073  -1.7494  -1.7074  -1.6555
    -1.5844  -1.4434  -1.4044  -1.2599  -1.2283  -1.1641  -1.0313  -1.0073
    -0.9684  -0.9268  -0.9016  -0.8954  -0.8235  -0.7111  -0.7050  -0.6592
    -0.5357  -0.5111  -0.4855  -0.4809  -0.3768  -0.2694  -0.2428  -0.1294
    -0.1030   0.0503   0.0820   0.1912   0.1993   0.3229   0.4056   0.6023
     0.6499   0.7185   0.8431   0.8700   1.2418   1.9864   2.1624   2.9230
     3.4590   3.6093   3.9021   4.3846

     the Fermi energy is     0.9033 ev

!    total energy              =   -2408.88460790 Ry
     Harris-Foulkes estimate   =   -2408.88460815 Ry
     estimated scf accuracy    <       0.00000004 Ry

     The total energy is the sum of the following terms:

     one-electron contribution =  -20447.67911574 Ry
     hartree contribution      =   10273.01861705 Ry
     xc contribution           =    -393.76383718 Ry
     ewald contribution        =    8159.63442046 Ry
     electric field correction =       0.00001806 Ry
     smearing contrib. (-TS)   =      -0.09471054 Ry

     convergence has been achieved in  12 iterations

 BEEF-vdW xc energy contributions
           1 :   -342.808566905173
           2 :    313.355773814151
           3 :   -263.072964387000
           4 :    205.434884610498
           5 :   -153.518337015433
           6 :    115.689457348730
           7 :   -93.7852307287575
           8 :    84.1017354355128
           9 :   -80.3257046402624
          10 :    76.8248186002378
          11 :   -70.8059473577543
          12 :    62.6105971757208
          13 :   -54.4373177662318
          14 :    48.4829646608340
          15 :   -45.5878755794531
          16 :    44.9707161378619
          17 :   -44.9474013210915
          18 :    44.0262612749110
          19 :   -41.6900496391823
          20 :    38.4727719629865
          21 :   -35.4177355322502
          22 :    33.3412600144509
          23 :   -32.3677091608756
          24 :    31.9626677869610
          25 :   -31.3646429279410
          26 :    30.0931704922168
          27 :   -28.2126847956264
          28 :    26.2191833827924
          29 :   -24.6660924551060
          30 :    23.7928454955069
          31 :   -33.4755163639064
          32 :   -24.7611093498558

     Forces acting on atoms (Ry/au):

     negative rho (up, down):  9.448E-01 0.000E+00
     atom    1 type  1   force =     0.00000001   -0.00000451    0.00103956
     atom    2 type  1   force =    -0.00000001   -0.00005473   -0.00311786
     atom    3 type  1   force =    -0.00004386    0.00002925   -0.00312343
     atom    4 type  1   force =     0.00004385    0.00002928   -0.00312361
     atom    5 type  1   force =    -0.00065913    0.00038692   -0.00244292
     atom    6 type  1   force =     0.00065918    0.00038690   -0.00244247
     atom    7 type  1   force =    -0.00000008   -0.00000698    0.01495831
     atom    8 type  1   force =     0.00000004   -0.00076648   -0.00245294
     atom    9 type  1   force =    -0.00045397   -0.00025629   -0.00074479
     atom   10 type  1   force =     0.00045415   -0.00025483   -0.00074471
     atom   11 type  1   force =     0.00000140    0.00051934   -0.00074257
     atom   12 type  1   force =    -0.00000132   -0.00000666    0.00141105
     atom   13 type  2   force =    -0.00000025   -0.00000122    0.00152638

     Total force =     0.002607     Total SCF correction =     0.000160

     entering subroutine stress ...

     negative rho (up, down):  9.448E-01 0.000E+00
          total   stress  (Ry/bohr**3)                   (kbar)     P=   -4.53
  -0.00004261  -0.00000000  -0.00000000         -6.27     -0.00     -0.00
  -0.00000000  -0.00004261  -0.00000000         -0.00     -6.27     -0.00
  -0.00000000  -0.00000000  -0.00000715         -0.00     -0.00     -1.05

     bfgs converged in  13 scf cycles and  12 bfgs steps
     (criteria: energy <  1.0E+00, force <  1.9E-03)

     End of BFGS Geometry Optimization

     Final energy   =   -2408.8846078960 Ry
Begin final coordinates

ATOMIC_POSITIONS (crystal)
Pd1      0.166666667   0.166666667   0.406452311    0   0   0
Pd1      0.666666667   0.166666667   0.406452311    0   0   0
Pd1      0.166666667   0.666666667   0.406452311    0   0   0
Pd1      0.666666667   0.666666667   0.406452311    0   0   0
Pd1      0.833333333   0.333333333   0.500000000    0   0   0
Pd1      0.333333333   0.333333333   0.500000000    0   0   0
Pd1      0.833333333   0.833333333   0.500000000    0   0   0
Pd1      0.333333333   0.833333333   0.500000000    0   0   0
Pd1     -0.002583950  -0.002590354   0.597246459
Pd1      0.505174386  -0.002590889   0.597246388
Pd1     -0.002587829   0.505174554   0.597246397
Pd1      0.499998295   0.500004156   0.592452903
C1       0.166666686   0.166667069   0.634595096
End final coordinates

     Writing output data file calc.save

     General routines

     Parallel routines

   This run was terminated on:   9: 3:39   3May2018

   JOB DONE.
Job  /afs/slac/g/suncat/bin/suncat-tsmpirun -x LD_LIBRARY_PATH -wdir /scratch/qe671672_f51Bb pw.x -npool 4 -in pw.inp

TID   HOST_NAME   COMMAND_LINE            STATUS            TERMINATION_TIME
00000 suncat0176 pw.x -npool 4 -i  Done                     05/03/2018 09:03:39
00001 suncat0176 pw.x -npool 4 -i  Done                     05/03/2018 09:03:39
00002 suncat0176 pw.x -npool 4 -i  Done                     05/03/2018 09:03:39
00003 suncat0176 pw.x -npool 4 -i  Done                     05/03/2018 09:03:39
00004 suncat0176 pw.x -npool 4 -i  Done                     05/03/2018 09:03:39
00005 suncat0176 pw.x -npool 4 -i  Done                     05/03/2018 09:03:39
00006 suncat0176 pw.x -npool 4 -i  Done                     05/03/2018 09:03:39
00007 suncat0176 pw.x -npool 4 -i  Done                     05/03/2018 09:03:39
00008 suncat0172 pw.x -npool 4 -i  Done                     05/03/2018 09:03:39
00009 suncat0172 pw.x -npool 4 -i  Done                     05/03/2018 09:03:39
00010 suncat0172 pw.x -npool 4 -i  Done                     05/03/2018 09:03:39
00011 suncat0172 pw.x -npool 4 -i  Done                     05/03/2018 09:03:39
00012 suncat0172 pw.x -npool 4 -i  Done                     05/03/2018 09:03:39
00013 suncat0172 pw.x -npool 4 -i  Done                     05/03/2018 09:03:39
00014 suncat0172 pw.x -npool 4 -i  Done                     05/03/2018 09:03:39
00015 suncat0172 pw.x -npool 4 -i  Done                     05/03/2018 09:03:39
00016 suncat0150 pw.x -npool 4 -i  Done                     05/03/2018 09:03:39
00017 suncat0150 pw.x -npool 4 -i  Done                     05/03/2018 09:03:39
00018 suncat0150 pw.x -npool 4 -i  Done                     05/03/2018 09:03:39
00019 suncat0150 pw.x -npool 4 -i  Done                     05/03/2018 09:03:39
00020 suncat0150 pw.x -npool 4 -i  Done                     05/03/2018 09:03:39
00021 suncat0150 pw.x -npool 4 -i  Done                     05/03/2018 09:03:39
00022 suncat0150 pw.x -npool 4 -i  Done                     05/03/2018 09:03:39
00023 suncat0150 pw.x -npool 4 -i  Done                     05/03/2018 09:03:39
00024 suncat0141 pw.x -npool 4 -i  Done                     05/03/2018 09:03:39
00025 suncat0141 pw.x -npool 4 -i  Done                     05/03/2018 09:03:39
00026 suncat0141 pw.x -npool 4 -i  Done                     05/03/2018 09:03:39
00027 suncat0141 pw.x -npool 4 -i  Done                     05/03/2018 09:03:39
00028 suncat0141 pw.x -npool 4 -i  Done                     05/03/2018 09:03:39
00029 suncat0141 pw.x -npool 4 -i  Done                     05/03/2018 09:03:39
00030 suncat0141 pw.x -npool 4 -i  Done                     05/03/2018 09:03:39
00031 suncat0141 pw.x -npool 4 -i  Done                     05/03/2018 09:03:39