     Program PWSCF v.5.1rc2 (svn rev. 11289) starts on 16Jan2018 at  8:38:41

     Current dimensions of program PWSCF are:
     Max number of different atomic species (ntypx) = 10
     Max number of k-points (npk) =  40000
     Max angular momentum in pseudopotentials (lmaxx) =  3
     Presently stress not available with electric field

     IMPORTANT: XC functional enforced from input :
     Exchange-correlation      = BEEF-VDW ( 1  4 27 13 2)
     Any further DFT definition will be discarded
     Please, verify this is what you really want

     Subspace diagonalization in iterative solution of the eigenvalue problem:
     a serial algorithm will be used

     bravais-lattice index     =            0
     lattice parameter (alat)  =       1.8897  a.u.
     unit-cell volume          =    4228.3700 (a.u.)^3
     number of atoms/cell      =           13
     number of atomic types    =            2
     number of electrons       =       193.00
     number of Kohn-Sham states=          106
     kinetic-energy cutoff     =      36.7493  Ry
     charge density cutoff     =     367.4932  Ry
     convergence threshold     =      1.0E-05
     mixing beta               =       0.3000
     number of iterations used =           10  plain     mixing
     Exchange-correlation      = BEEF-VDW ( 1  4 27 13 2)
     nstep                     =           50

     celldm(1)=   1.889726  celldm(2)=   0.000000  celldm(3)=   0.000000
     celldm(4)=   0.000000  celldm(5)=   0.000000  celldm(6)=   0.000000

     crystal axes: (cart. coord. in units of alat)
               a(1) = (   5.440665   0.000000   0.000000 )
               a(2) = (   2.720332   4.711754   0.000000 )
               a(3) = (   0.000000   0.000000  24.442284 )

     reciprocal axes: (cart. coord. in units 2 pi/alat)
               b(1) = (  0.183801 -0.106118  0.000000 )
               b(2) = (  0.000000  0.212235  0.000000 )
               b(3) = (  0.000000  0.000000  0.040913 )

     PseudoPot. # 1 for Os read from file:
     /afs/slac.stanford.edu/u/if/mamunm/psp/gbrv1.5pbe/Os.UPF
     MD5 check sum: a3fb40a04f0c37c25c34bbc47164c9a8
     Pseudo is Ultrasoft + core correction, Zval = 16.0
     Generated by new atomic code, or converted to UPF format
     Using radial grid of  983 points,  8 beta functions with:
                l(1) =   0
                l(2) =   0
                l(3) =   1
                l(4) =   1
                l(5) =   2
                l(6) =   2
                l(7) =   3
                l(8) =   3
     Q(r) pseudized with  8 coefficients,  rinner =    1.150   1.150   1.150
                                                       1.150   1.150   1.150
                                                       1.150

     PseudoPot. # 2 for H  read from file:
     /afs/slac.stanford.edu/u/if/mamunm/psp/gbrv1.5pbe/H.UPF
     MD5 check sum: 761ae9a214b05c3daf00ab9f6b793d6f
     Pseudo is Ultrasoft, Zval =  1.0
     Generated by new atomic code, or converted to UPF format
     Using radial grid of  615 points,  2 beta functions with:
                l(1) =   0
                l(2) =   0
     Q(r) pseudized with  8 coefficients,  rinner =    0.700

     vdW kernel table read from file vdW_kernel_table
     MD5 check sum: 095c7af220d748ca6e76c0b4c6cfb241

     atomic species   valence    mass     pseudopotential
        Os1           16.00   190.23000     Os( 1.00)
        H1             1.00     1.00800     H ( 1.00)

     No symmetry found

   Cartesian axes

     site n.     atom                  positions (alat units)
         1           Os1 tau(   1) = (   1.3601662   0.7852923  10.0000000  )
         2           Os1 tau(   2) = (   4.0804987   0.7852923  10.0000000  )
         3           Os1 tau(   3) = (   2.7203325   3.1411694  10.0000000  )
         4           Os1 tau(   4) = (   5.4406649   3.1411694  10.0000000  )
         5           Os1 tau(   5) = (   5.4406649   1.5705847  12.2211422  )
         6           Os1 tau(   6) = (   2.7203325   1.5705847  12.2211422  )
         7           Os1 tau(   7) = (   6.8008312   3.9264617  12.2211422  )
         8           Os1 tau(   8) = (   4.0804987   3.9264617  12.2211422  )
         9           Os1 tau(   9) = (   0.0000000   0.0000000  14.4422843  )
        10           Os1 tau(  10) = (   2.7203325   0.0000000  14.4422843  )
        11           Os1 tau(  11) = (   1.3601662   2.3558770  14.4422843  )
        12           Os1 tau(  12) = (   4.0804987   2.3558770  14.4422843  )
        13           H1  tau(  13) = (   0.0000000   0.0000000  16.1922843  )

     number of k points=    20  Fermi-Dirac smearing, width (Ry)=  0.0110
                       cart. coord. in units 2pi/alat
        k(    1) = (   0.0000000   0.0000000   0.0000000), wk =   0.0555556
        k(    2) = (   0.0000000   0.0353725   0.0000000), wk =   0.1111111
        k(    3) = (   0.0000000   0.0707451   0.0000000), wk =   0.1111111
        k(    4) = (   0.0000000  -0.1061176   0.0000000), wk =   0.0555556
        k(    5) = (   0.0306335  -0.0176863   0.0000000), wk =   0.1111111
        k(    6) = (   0.0306335   0.0176863   0.0000000), wk =   0.1111111
        k(    7) = (   0.0306335   0.0530588   0.0000000), wk =   0.1111111
        k(    8) = (   0.0306335  -0.1238039   0.0000000), wk =   0.1111111
        k(    9) = (   0.0306335  -0.0884313   0.0000000), wk =   0.1111111
        k(   10) = (   0.0306335  -0.0530588   0.0000000), wk =   0.1111111
        k(   11) = (   0.0612670  -0.0353725   0.0000000), wk =   0.1111111
        k(   12) = (   0.0612670   0.0000000   0.0000000), wk =   0.1111111
        k(   13) = (   0.0612670   0.0353725   0.0000000), wk =   0.1111111
        k(   14) = (   0.0612670  -0.1414901   0.0000000), wk =   0.1111111
        k(   15) = (   0.0612670  -0.1061176   0.0000000), wk =   0.1111111
        k(   16) = (   0.0612670  -0.0707451   0.0000000), wk =   0.1111111
        k(   17) = (  -0.0919005   0.0530588   0.0000000), wk =   0.0555556
        k(   18) = (  -0.0919005   0.0884313   0.0000000), wk =   0.1111111
        k(   19) = (  -0.0919005   0.1238039   0.0000000), wk =   0.1111111
        k(   20) = (  -0.0919005  -0.0530588   0.0000000), wk =   0.0555556

     Largest allocated arrays     est. size (Mb)     dimensions
     Largest temporary arrays     est. size (Mb)     dimensions

     Initial potential from superposition of free atoms
     Check: negative starting charge=   -1.495746

     starting charge  186.99955, renormalised to  193.00000

     negative rho (up, down):  1.544E+00 0.000E+00

     *
     * You are using vdW-DF for exchange-correlation in this calculation.
     * Please cite the following three references that made this development
     * possible:
     *
     *   M. Dion, H. Rydberg, E. Schroder, D. C. Langreth, and
     *   B. I. Lundqvist, Phys. Rev. Lett. 92, 246401 (2004).
     *
     *   T. Thonhauser, V. R. Cooper, S. Li, A. Puzder, P. Hyldgaard, and
     *   D. C. Langreth, Phys. Rev. B 76, 125112 (2007).
     *
     *   G. Roman-Perez and J. M. Soler, Phys. Rev. Lett. 103, 096102 (2009).
     *
     *
     * If you are using vdW-DF2, please also cite:
     *
     *   K. Lee, E. D. Murray, L. Kong, B. I. Lundqvist, and
     *   D. C. Langreth, Phys. Rev. B 82, 081101(R) (2010).
     *
     *
     * If you are calculating the stress with vdW-DF, please also cite:
     *
     *   R. Sabatini, E. Kucukbenli, B. Kolb, T. Thonhauser, and
     *   S. de Gironcoli, J. Phys.: Condens. Matter 24, 424209 (2012).
     *

     Carrying out vdW-DF run using the following parameters:

     Nqs =      20    Nr_points =    1024   r_max =   100.000
     q_mesh =
               0.00001000     0.04494208     0.09755937     0.15916263
               0.23128650     0.31572767     0.41458969     0.53033537
               0.66584808     0.82450364     1.01025438     1.22772762
               1.48234092     1.78043706     2.12944203     2.53805004
               3.01644009     3.57652955     4.23227104     5.00000000

     Gradients computed in reciprocal space

     Adding external electric field

     Computed dipole along edir(3) :
        Dipole               -0.2407 Ry au,         -0.6119 Debye
        Dipole field         -0.0007 Ry au

        Potential amp.        0.0644 Ry
        Total length         45.0345 bohr

     Starting wfc are  157 randomized atomic wfcs

     Self-consistent Calculation

     iteration #  1     ecut=    36.75 Ry     beta=0.30
     Davidson diagonalization with overlap
     ethr =  1.00E-02,  avg # of iterations =  2.0

[...]

     total energy              =   -2397.88562025 Ry
     Harris-Foulkes estimate   =   -2399.22431690 Ry
     estimated scf accuracy    <       3.16297363 Ry

[...]

     End of self-consistent calculation

          k = 0.0000 0.0000 0.0000 ( 15845 PWs)   bands (ev):

   -84.1070 -84.0493 -84.0211 -84.0209 -83.6310 -83.6085 -83.5765 -83.5541
   -83.5541 -83.5500 -83.5497 -83.5368 -43.7721 -43.7720 -43.7375 -43.5922
   -43.4826 -43.4611 -43.4609 -43.2282 -43.2281 -43.2226 -43.1625 -43.1618
   -43.1617 -43.0858 -43.0722 -43.0722 -42.9675 -42.9675 -42.9244 -42.8332
   -42.8179 -42.8178 -42.7501 -42.7499 -42.7435 -42.7166 -42.6667 -42.6666
   -42.6582 -42.6459 -42.6459 -42.6448 -42.4829 -42.4829 -42.4727 -42.4727
    -6.7087  -4.7148  -4.2727  -3.9400  -3.9363  -3.9362  -3.6358  -3.5996
    -3.5996  -3.0122  -3.0041  -3.0041  -2.7246  -2.7124  -2.7123  -1.1921
    -1.1644  -1.1643  -0.9991  -0.3676  -0.3676  -0.3467  -0.1072   0.1071
     0.1071   0.3763   0.6334   0.6334   0.6466   0.6466   0.6491   0.9668
     0.9668   0.9916   0.9916   1.4149   2.4876   2.5266   2.5266   2.6907
     2.6907   2.6932   2.7553   2.9714   2.9714   3.6683   3.6972   3.6972
     4.2183   4.2184   4.3796   4.3997   4.3997   4.6001   4.6001   4.6089
     4.8325   4.8325

[...]

          k =-0.0919 0.0531 0.0000 ( 15968 PWs)   bands (ev):

[...]

     the Fermi energy is     2.9750 ev

!    total energy              =   -2398.48372914 Ry
     Harris-Foulkes estimate   =   -2398.48373740 Ry
     estimated scf accuracy    <       0.00000921 Ry

     The total energy is the sum of the following terms:

     one-electron contribution =  -21520.53587678 Ry
     hartree contribution      =   10742.37364010 Ry
     xc contribution           =    -465.00514622 Ry
     ewald contribution        =    8844.75077927 Ry
     electric field correction =       0.00000053 Ry
     smearing contrib. (-TS)   =      -0.06712604 Ry

     convergence has been achieved in  14 iterations

 BEEF-vdW xc energy contributions
           1 :   -407.434237885132
           2 :    377.631225904462
           3 :   -324.960955422637
           4 :    260.838863644195
           5 :   -197.610959771842
           6 :    145.178687841117
           7 :   -108.778102513258
           8 :    88.4286633444898
           9 :   -80.0406187561985
          10 :    77.5932483652337
          11 :   -75.5005066705414
          12 :    70.3220713155814
          13 :   -61.3591530271195
          14 :    50.1482612753331
          15 :   -39.2650930722164
          16 :    31.0030345873374
          17 :   -26.4403208780791
[...]

[...]

   This run was terminated on:   8:47: 4  16Jan2018

[...]

   This run was terminated on:   8:59:49  16Jan2018

[...]

     Program PWSCF v.5.1rc2 (svn rev. 11289) starts on 16Jan2018 at  8:59:54

[...]

     Total force =     0.069498     Total SCF correction =     0.006000

[...]

   This run was terminated on:   9: 4:24  16Jan2018

[...]

     Program PWSCF v.5.1rc2 (svn rev. 11289) starts on 16Jan2018 at  9: 4:30

[...]

   This run was terminated on:   9: 8:51  16Jan2018

[...]

     Program PWSCF v.5.1rc2 (svn rev. 11289) starts on 16Jan2018 at  9: 8:56

     Current dimensions of program PWSCF are:
     Max number of different atomic species (ntypx) = 10
     Max number of k-points (npk) =  40000
     Max angular momentum in pseudopotentials (lmaxx) =  3
     Presently stress not available with electric field

     IMPORTANT: XC functional enforced from input :
     Exchange-correlation      = BEEF-VDW ( 1  4 27 13 2)
     Any further DFT definition will be discarded
     Please, verify this is what you really want

     Subspace diagonalization in iterative solution of the eigenvalue problem:
     a serial algorithm will be used

     bravais-lattice index     =            0
     lattice parameter (alat)  =       1.8897  a.u.
     unit-cell volume          =    4228.3700 (a.u.)^3
     number of atoms/cell      =           13
     number of atomic types    =            2
     number of electrons       =       193.00
     number of Kohn-Sham states=          106
     kinetic-energy cutoff     =      36.7493  Ry
     charge density cutoff     =     367.4932  Ry
     convergence threshold     =      1.0E-05
     mixing beta               =       0.3000
     number of iterations used =           10  plain     mixing
     Exchange-correlation      = BEEF-VDW ( 1  4 27 13 2)
     nstep                     =           50

     celldm(1)=   1.889726  celldm(2)=   0.000000  celldm(3)=   0.000000
     celldm(4)=   0.000000  celldm(5)=   0.000000  celldm(6)=   0.000000

     crystal axes: (cart. coord. in units of alat)
               a(1) = (   5.440665   0.000000   0.000000 )
               a(2) = (   2.720332   4.711754   0.000000 )
               a(3) = (   0.000000   0.000000  24.442284 )

     reciprocal axes: (cart. coord. in units 2 pi/alat)
               b(1) = (  0.183801 -0.106118  0.000000 )
               b(2) = (  0.000000  0.212235  0.000000 )
               b(3) = (  0.000000  0.000000  0.040913 )

     PseudoPot. # 1 for Os read from file:
     /afs/slac.stanford.edu/u/if/mamunm/psp/gbrv1.5pbe/Os.UPF
     MD5 check sum: a3fb40a04f0c37c25c34bbc47164c9a8
     Pseudo is Ultrasoft + core correction, Zval = 16.0
     Generated by new atomic code, or converted to UPF format
     Using radial grid of  983 points,  8 beta functions with:
                l(1) =   0
                l(2) =   0
                l(3) =   1
                l(4) =   1
                l(5) =   2
                l(6) =   2
                l(7) =   3
                l(8) =   3
     Q(r) pseudized with  8 coefficients,  rinner =    1.150   1.150   1.150
                                                       1.150   1.150   1.150
                                                       1.150

     PseudoPot. # 2 for H  read from file:
     /afs/slac.stanford.edu/u/if/mamunm/psp/gbrv1.5pbe/H.UPF
     MD5 check sum: 761ae9a214b05c3daf00ab9f6b793d6f
     Pseudo is Ultrasoft, Zval =  1.0
     Generated by new atomic code, or converted to UPF format
     Using radial grid of  615 points,  2 beta functions with:
                l(1) =   0
                l(2) =   0
     Q(r) pseudized with  8 coefficients,  rinner =    0.700

     vdW kernel table read from file vdW_kernel_table
     MD5 check sum: 095c7af220d748ca6e76c0b4c6cfb241

     atomic species   valence    mass     pseudopotential
        Os1           16.00   190.23000     Os( 1.00)
        H1             1.00     1.00800     H ( 1.00)

     No symmetry found

   Cartesian axes

     site n.     atom                  positions (alat units)
         1           Os1 tau(   1) = (   1.3601662   0.7852923  10.0000000  )
         2           Os1 tau(   2) = (   4.0804987   0.7852923  10.0000000  )
         3           Os1 tau(   3) = (   2.7203325   3.1411694  10.0000000  )
         4           Os1 tau(   4) = (   5.4406649   3.1411694  10.0000000  )
         5           Os1 tau(   5) = (   5.4406649   1.5705847  12.2211422  )
         6           Os1 tau(   6) = (   2.7203325   1.5705847  12.2211422  )
         7           Os1 tau(   7) = (   6.8008312   3.9264617  12.2211422  )
         8           Os1 tau(   8) = (   4.0804987   3.9264617  12.2211422  )
         9           Os1 tau(   9) = (   2.7203333   4.7117382  14.4315042  )
        10           Os1 tau(  10) = (   5.4406577   4.7108772  14.3481638  )
        11           Os1 tau(  11) = (   6.8001836   2.3562558  14.3480518  )
        12           Os1 tau(  12) = (   4.0811505   2.3562661  14.3480461  )
        13           H1  tau(  13) = (   5.4406584   0.0000112  16.0895744  )

     number of k points=    20  Fermi-Dirac smearing, width (Ry)=  0.0110
                       cart. coord. in units 2pi/alat
        k(    1) = (   0.0000000   0.0000000   0.0000000), wk =   0.0555556
        k(    2) = (   0.0000000   0.0353725   0.0000000), wk =   0.1111111
        k(    3) = (   0.0000000   0.0707451   0.0000000), wk =   0.1111111
        k(    4) = (   0.0000000  -0.1061176   0.0000000), wk =   0.0555556
        k(    5) = (   0.0306335  -0.0176863   0.0000000), wk =   0.1111111
        k(    6) = (   0.0306335   0.0176863   0.0000000), wk =   0.1111111
        k(    7) = (   0.0306335   0.0530588   0.0000000), wk =   0.1111111
        k(    8) = (   0.0306335  -0.1238039   0.0000000), wk =   0.1111111
        k(    9) = (   0.0306335  -0.0884313   0.0000000), wk =   0.1111111
        k(   10) = (   0.0306335  -0.0530588   0.0000000), wk =   0.1111111
        k(   11) = (   0.0612670  -0.0353725   0.0000000), wk =   0.1111111
        k(   12) = (   0.0612670   0.0000000   0.0000000), wk =   0.1111111
        k(   13) = (   0.0612670   0.0353725   0.0000000), wk =   0.1111111
        k(   14) = (   0.0612670  -0.1414901   0.0000000), wk =   0.1111111
        k(   15) = (   0.0612670  -0.1061176   0.0000000), wk =   0.1111111
        k(   16) = (   0.0612670  -0.0707451   0.0000000), wk =   0.1111111
        k(   17) = (  -0.0919005   0.0530588   0.0000000), wk =   0.0555556
        k(   18) = (  -0.0919005   0.0884313   0.0000000), wk =   0.1111111
        k(   19) = (  -0.0919005   0.1238039   0.0000000), wk =   0.1111111
        k(   20) = (  -0.0919005  -0.0530588   0.0000000), wk =   0.0555556

     Largest allocated arrays     est. size (Mb)     dimensions
     Largest temporary arrays     est. size (Mb)     dimensions

     Initial potential from superposition of free atoms
     Check: negative starting charge=   -1.499546

     starting charge  186.99955, renormalised to  193.00000

[...]

     *
     * You are using vdW-DF for exchange-correlation in this calculation.
     * Please cite the following three references that made this development
     * possible:
     *
     *   M. Dion, H. Rydberg, E. Schroder, D. C. Langreth, and
     *   B. I. Lundqvist, Phys. Rev. Lett. 92, 246401 (2004).
     *
     *   T. Thonhauser, V. R. Cooper, S. Li, A. Puzder, P. Hyldgaard, and
     *   D. C. Langreth, Phys. Rev. B 76, 125112 (2007).
     *
     *   G. Roman-Perez and J. M. Soler, Phys. Rev. Lett. 103, 096102 (2009).
     *
     *
     * If you are using vdW-DF2, please also cite:
     *
     *   K. Lee, E. D. Murray, L. Kong, B. I. Lundqvist, and
     *   D. C. Langreth, Phys. Rev. B 82, 081101(R) (2010).
     *
     *
     * If you are calculating the stress with vdW-DF, please also cite:
     *
     *   R. Sabatini, E. Kucukbenli, B. Kolb, T. Thonhauser, and
     *   S. de Gironcoli, J. Phys.: Condens. Matter 24, 424209 (2012).
     *

     Carrying out vdW-DF run using the following parameters:

     Nqs =      20    Nr_points =    1024   r_max =   100.000
     q_mesh =
               0.00001000     0.04494208     0.09755937     0.15916263
               0.23128650     0.31572767     0.41458969     0.53033537
               0.66584808     0.82450364     1.01025438     1.22772762
               1.48234092     1.78043706     2.12944203     2.53805004
               3.01644009     3.57652955     4.23227104     5.00000000

     Gradients computed in reciprocal space

[...]

     Starting wfc are  157 randomized atomic wfcs

     Self-consistent Calculation

[...]

     total energy              =   -2398.50092231 Ry
     Harris-Foulkes estimate   =   -2398.50092488 Ry
     estimated scf accuracy    <       0.00002215 Ry

     iteration # 14     ecut=    36.75 Ry     beta=0.30
     Davidson diagonalization with overlap
     ethr =  1.15E-08,  avg # of iterations =  1.6

[...]

     negative rho (up, down):  1.521E+00 0.000E+00

     Adding external electric field

     Computed dipole along edir(3) :
        Dipole               -0.0020 Ry au,         -0.0050 Debye
        Dipole field         -0.0000 Ry au

        Potential amp.        0.0005 Ry
        Total length         45.0345 bohr

     End of self-consistent calculation

[...]

          k = 0.0613-0.0707 0.0000 ( 15922 PWs)   bands (ev):

[...]

          k =-0.0919-0.0531 0.0000 ( 15968 PWs)   bands (ev):

   -84.1345 -84.0691 -84.0503 -84.0378 -83.6259 -83.6134 -83.5969 -83.5948
   -83.5410 -83.5232 -83.5116 -83.5091 -43.6909 -43.6423 -43.5930 -43.5287
   -43.4876 -43.4582 -43.4561 -43.4211 -43.3636 -43.3469 -43.1257 -43.0923
   -43.0905 -43.0679 -42.9872 -42.9835 -42.8986 -42.8854 -42.8673 -42.8544
   -42.8461 -42.8363 -42.8237 -42.8215 -42.7969 -42.7764 -42.7500 -42.7448
   -42.7309 -42.7205 -42.7060 -42.6867 -42.6100 -42.5695 -42.5515 -42.5265
    -4.8294  -4.8180  -3.2643  -3.2361  -2.9055  -2.8624  -2.7920  -2.7661
    -2.7622  -2.6799  -2.1802  -2.1347  -1.7483  -1.7061  -1.5853  -1.5159
    -1.4188  -1.2182  -1.1954  -1.1616  -0.6263  -0.6170  -0.3615  -0.0961
    -0.0156   0.2334   0.2839   0.3128   0.3174   0.3504   0.4109   0.5784
     0.6747   0.7087   0.7651   0.8041   0.8664   0.8974   0.9260   1.0090
     1.2063   1.8220   1.8762   2.0266   2.1952   2.2626   2.4088   2.5614
     2.6765   2.9036   2.9461   3.0945   3.1333   3.2494   3.4249   3.4734
     3.7390   3.7772

     the Fermi energy is     2.9795 ev

!    total energy              =   -2398.50091963 Ry
     Harris-Foulkes estimate   =   -2398.50092337 Ry
     estimated scf accuracy    <       0.00000424 Ry

     The total energy is the sum of the following terms:

     one-electron contribution =  -21751.11514488 Ry
     hartree contribution      =   10857.58731360 Ry
     xc contribution           =    -465.24913725 Ry
     ewald contribution        =    8960.34012857 Ry
     electric field correction =       0.00000001 Ry
     smearing contrib. (-TS)   =      -0.06407968 Ry

     convergence has been achieved in  14 iterations

 BEEF-vdW xc energy contributions
           1 :   -407.678953942800
           2 :    377.951996881522
           3 :   -325.390967423918
           4 :    261.345089225726
           5 :   -198.102852781869
           6 :    145.547674649883
           7 :   -108.948977899756
           8 :    88.3981330542951
           9 :   -79.8834796865705
          10 :    77.4317874789750
          11 :   -75.4514965386725
          12 :    70.4451094524088
          13 :   -61.6300672819256
          14 :    50.4711801132802
          15 :   -39.5172601513596
          16 :    31.0916481542768
          17 :   -26.3448657451814
          18 :    24.9557145909823
          19 :   -25.4842196042830
          20 :    26.1223735067986
          21 :   -25.4772454474472
          22 :    23.0594763825352
          23 :   -19.3240944150431
          24 :    15.3109438235996
          25 :   -12.0940050566028
          26 :    10.2973842196914
          27 :   -9.87859720136458
          28 :    10.2361702827383
          29 :   -10.5541592533909
          30 :    10.1992098453595
          31 :   -38.6184362861442
          32 :   -29.5080676615087

     Forces acting on atoms (Ry/au):

     negative rho (up, down):  1.521E+00 0.000E+00
     atom    1 type  1   force =     0.00295084    0.00170399    0.02241663
     atom    2 type  1   force =    -0.00294994    0.00170737    0.02243436
     atom    3 type  1   force =     0.00000718   -0.00343375    0.02238812
     atom    4 type  1   force =    -0.00000581    0.00000188    0.02741476
     atom    5 type  1   force =    -0.00006793    0.00461059   -0.02222444
     atom    6 type  1   force =     0.00008581   -0.00018332   -0.02855343
     atom    7 type  1   force =    -0.00412002   -0.00218287   -0.02213377
     atom    8 type  1   force =     0.00412192   -0.00225893   -0.02207021
     atom    9 type  1   force =     0.00000398    0.00000052   -0.00030551
     atom   10 type  1   force =    -0.00000903   -0.00026727    0.00004338
     atom   11 type  1   force =    -0.00027780    0.00014923    0.00009875
     atom   12 type  1   force =     0.00026312    0.00014875    0.00009149
     atom   13 type  2   force =    -0.00000231    0.00000381    0.00039987

     Total force =     0.068158     Total SCF correction =     0.012825
     SCF correction compared to forces is large: reduce conv_thr to get better values

     entering subroutine stress ...

     negative rho (up, down):  1.521E+00 0.000E+00
          total   stress  (Ry/bohr**3)                   (kbar)     P=  -22.38
  -0.00017184   0.00000002   0.00000000        -25.28      0.00      0.00
   0.00000002  -0.00017180   0.00000002          0.00    -25.27      0.00
   0.00000000   0.00000002  -0.00011278          0.00      0.00    -16.59

 !ASE

     Writing output data file calc.save

     General routines

     Parallel routines

   This run was terminated on:   9:13: 9  16Jan2018

   JOB DONE.
Job  /afs/slac/g/suncat/bin/suncat-tsmpirun -x LD_LIBRARY_PATH -wdir /scratch/qe842464_nf1Jx pw.x -in pw.inp

TID   HOST_NAME   COMMAND_LINE            STATUS            TERMINATION_TIME
00000 suncat2041 pw.x -in pw.inp   Done                     01/16/2018 09:13:09
00001 suncat2041 pw.x -in pw.inp   Done                     01/16/2018 09:13:09
00002 suncat2041 pw.x -in pw.inp   Done                     01/16/2018 09:13:09
00003 suncat2041 pw.x -in pw.inp   Done                     01/16/2018 09:13:09
00004 suncat2041 pw.x -in pw.inp   Done                     01/16/2018 09:13:09
00005 suncat2041 pw.x -in pw.inp   Done                     01/16/2018 09:13:09
00006 suncat2041 pw.x -in pw.inp   Done                     01/16/2018 09:13:09
00007 suncat2041 pw.x -in pw.inp   Done                     01/16/2018 09:13:09
00008 suncat2041 pw.x -in pw.inp   Done                     01/16/2018 09:13:09
00009 suncat2041 pw.x -in pw.inp   Done                     01/16/2018 09:13:09
00010 suncat2041 pw.x -in pw.inp   Done                     01/16/2018 09:13:09
00011 suncat2041 pw.x -in pw.inp   Done                     01/16/2018 09:13:09
00012 suncat2041 pw.x -in pw.inp   Done                     01/16/2018 09:13:09
00013 suncat2041 pw.x -in pw.inp   Done                     01/16/2018 09:13:09
00014 suncat2041 pw.x -in pw.inp   Done                     01/16/2018 09:13:09
00015 suncat2041 pw.x -in pw.inp   Done                     01/16/2018 09:13:09
00016 suncat2040 pw.x -in pw.inp   Done                     01/16/2018 09:13:09
00017 suncat2040 pw.x -in pw.inp   Done                     01/16/2018 09:13:09
00018 suncat2040 pw.x -in pw.inp   Done                     01/16/2018 09:13:09
00019 suncat2040 pw.x -in pw.inp   Done                     01/16/2018 09:13:09
00020 suncat2040 pw.x -in pw.inp   Done                     01/16/2018 09:13:09
00021 suncat2040 pw.x -in pw.inp   Done                     01/16/2018 09:13:09
00022 suncat2040 pw.x -in pw.inp   Done                     01/16/2018 09:13:09
00023 suncat2040 pw.x -in pw.inp   Done                     01/16/2018 09:13:09
00024 suncat2040 pw.x -in pw.inp   Done                     01/16/2018 09:13:09
00025 suncat2040 pw.x -in pw.inp   Done                     01/16/2018 09:13:09
00026 suncat2040 pw.x -in pw.inp   Done                     01/16/2018 09:13:09
00027 suncat2040 pw.x -in pw.inp   Done                     01/16/2018 09:13:09
00028 suncat2040 pw.x -in pw.inp   Done                     01/16/2018 09:13:09
00029 suncat2040 pw.x -in pw.inp   Done                     01/16/2018 09:13:09
00030 suncat2040 pw.x -in pw.inp   Done                     01/16/2018 09:13:09
00031 suncat2040 pw.x -in pw.inp   Done                     01/16/2018 09:13:09