     Program PWSCF v.5.1rc2 (svn rev. 11289) starts on 17Jan2018 at  0: 3:21

     Current dimensions of program PWSCF are:
     Max number of different atomic species (ntypx) = 10
     Max number of k-points (npk) =  40000
     Max angular momentum in pseudopotentials (lmaxx) =  3
     Presently stress not available with electric field

     IMPORTANT: XC functional enforced from input :
     Exchange-correlation      = BEEF-VDW ( 1  4 27 13 2)
     Any further DFT definition will be discarded
     Please, verify this is what you really want

     Subspace diagonalization in iterative solution of the eigenvalue problem:
     a serial algorithm will be used

     bravais-lattice index     =            0
     lattice parameter (alat)  =       1.8897  a.u.
     unit-cell volume          =    6501.5726 (a.u.)^3
     number of atoms/cell      =           13
     number of atomic types    =            2
     number of electrons       =       162.00
     number of Kohn-Sham states=           91
     kinetic-energy cutoff     =      36.7493  Ry
     charge density cutoff     =     367.4932  Ry
     convergence threshold     =      1.0E-05
     mixing beta               =       0.3000
     number of iterations used =           10  plain     mixing
     Exchange-correlation      = BEEF-VDW ( 1  4 27 13 2)
     nstep                     =           50

     celldm(1)=   1.889726  celldm(2)=   0.000000  celldm(3)=   0.000000
     celldm(4)=   0.000000  celldm(5)=   0.000000  celldm(6)=   0.000000

     crystal axes: (cart. coord. in units of alat)
               a(1) = (   6.617606   0.000000   0.000000 )
               a(2) = (   3.308803   5.731015   0.000000 )
               a(3) = (   0.000000   0.000000  25.403253 )

     reciprocal axes: (cart. coord. in units 2 pi/alat)
               b(1) = (  0.151112 -0.087245  0.000000 )
               b(2) = (  0.000000  0.174489  0.000000 )
               b(3) = (  0.000000  0.000000  0.039365 )

     PseudoPot. # 1 for In read from file:
     /afs/slac.stanford.edu/u/if/mamunm/psp/gbrv1.5pbe/In.UPF
     MD5 check sum: 90777abd96fbb83f2e67db2a40c566b9
     Pseudo is Ultrasoft + core correction, Zval = 13.0
     Generated by new atomic code, or converted to UPF format
     Using radial grid of  889 points,  6 beta functions with:
                l(1) =   0
                l(2) =   0
                l(3) =   1
                l(4) =   1
                l(5) =   2
                l(6) =   2
     Q(r) pseudized with  6 coefficients,  rinner =    1.400   1.400   1.400
                                                       1.400   1.400

     PseudoPot. # 2 for O  read from file:
     /afs/slac.stanford.edu/u/if/mamunm/psp/gbrv1.5pbe/O.UPF
     MD5 check sum: 734c27235a0248c51dbae37a1fbe46ec
     Pseudo is Ultrasoft + core correction, Zval =  6.0
     Generated by new atomic code, or converted to UPF format
     Using radial grid of  737 points,  5 beta functions with:
                l(1) =   0
                l(2) =   0
                l(3) =   1
                l(4) =   1
                l(5) =   2
     Q(r) pseudized with  8 coefficients,  rinner =    0.900   0.900   0.900
                                                       0.900   0.900

     vdW kernel table read from file vdW_kernel_table
     MD5 check sum: 095c7af220d748ca6e76c0b4c6cfb241

     atomic species   valence    mass     pseudopotential
        In1           13.00   114.81800     In( 1.00)
        O1             6.00    15.99900     O ( 1.00)

     No symmetry found

   Cartesian axes

     site n.     atom                  positions (alat units)
         1           In1 tau(   1) = (   1.6544016   0.9551692  10.0000000  )
         2           In1 tau(   2) = (   4.9632047   0.9551692  10.0000000  )
         3           In1 tau(   3) = (   3.3088031   3.8206768  10.0000000  )
         4           In1 tau(   4) = (   6.6176063   3.8206768  10.0000000  )
         5           In1 tau(   5) = (   6.6176063   1.9103384  12.7016265  )
         6           In1 tau(   6) = (   3.3088031   1.9103384  12.7016265  )
         7           In1 tau(   7) = (   8.2720078   4.7758460  12.7016265  )
         8           In1 tau(   8) = (   4.9632047   4.7758460  12.7016265  )
         9           In1 tau(   9) = (   0.0000000   0.0000000  15.4032529  )
        10           In1 tau(  10) = (   3.3088031   0.0000000  15.4032529  )
        11           In1 tau(  11) = (   1.6544016   2.8655076  15.4032529  )
        12           In1 tau(  12) = (   4.9632047   2.8655076  15.4032529  )
        13           O1  tau(  13) = (   3.3088031   1.9103384  17.4832529  )

     number of k points=    20  Fermi-Dirac smearing, width (Ry)=  0.0110
                       cart. coord. in units 2pi/alat
        k(    1) = (   0.0000000   0.0000000   0.0000000), wk =   0.0555556
        k(    2) = (   0.0000000   0.0290815   0.0000000), wk =   0.1111111
        k(    3) = (   0.0000000   0.0581631   0.0000000), wk =   0.1111111
        k(    4) = (   0.0000000  -0.0872446   0.0000000), wk =   0.0555556
        k(    5) = (   0.0251853  -0.0145408   0.0000000), wk =   0.1111111
        k(    6) = (   0.0251853   0.0145408   0.0000000), wk =   0.1111111
        k(    7) = (   0.0251853   0.0436223   0.0000000), wk =   0.1111111
        k(    8) = (   0.0251853  -0.1017853   0.0000000), wk =   0.1111111
        k(    9) = (   0.0251853  -0.0727038   0.0000000), wk =   0.1111111
        k(   10) = (   0.0251853  -0.0436223   0.0000000), wk =   0.1111111
        k(   11) = (   0.0503707  -0.0290815   0.0000000), wk =   0.1111111
        k(   12) = (   0.0503707   0.0000000   0.0000000), wk =   0.1111111
        k(   13) = (   0.0503707   0.0290815   0.0000000), wk =   0.1111111
        k(   14) = (   0.0503707  -0.1163261   0.0000000), wk =   0.1111111
        k(   15) = (   0.0503707  -0.0872446   0.0000000), wk =   0.1111111
        k(   16) = (   0.0503707  -0.0581631   0.0000000), wk =   0.1111111
        k(   17) = (  -0.0755560   0.0436223   0.0000000), wk =   0.0555556
        k(   18) = (  -0.0755560   0.0727038   0.0000000), wk =   0.1111111
        k(   19) = (  -0.0755560   0.1017853   0.0000000), wk =   0.1111111
        k(   20) = (  -0.0755560  -0.0436223   0.0000000), wk =   0.0555556

     Largest allocated arrays     est. size (Mb)     dimensions
     Largest temporary arrays     est. size (Mb)     dimensions

     Initial potential from superposition of free atoms
     Check: negative starting charge=   -0.000407

     starting charge  143.99999, renormalised to  162.00000

     negative rho (up, down):  4.581E-04 0.000E+00

     *
     * You are using vdW-DF for exchange-correlation in this calculation.
     * Please cite the following three references that made this development
     * possible:
     *
     *   M. Dion, H. Rydberg, E. Schroder, D. C. Langreth, and
     *   B. I. Lundqvist, Phys. Rev. Lett. 92, 246401 (2004).
     *
     *   T. Thonhauser, V. R. Cooper, S. Li, A. Puzder, P. Hyldgaard, and
     *   D. C. Langreth, Phys. Rev. B 76, 125112 (2007).
     *
     *   G. Roman-Perez and J. M. Soler, Phys. Rev. Lett. 103, 096102 (2009).
     *
     *
     * If you are using vdW-DF2, please also cite:
     *
     *   K. Lee, E. D. Murray, L. Kong, B. I. Lundqvist, and
     *   D. C. Langreth, Phys. Rev. B 82, 081101(R) (2010).
     *
     *
     * If you are calculating the stress with vdW-DF, please also cite:
     *
     *   R. Sabatini, E. Kucukbenli, B. Kolb, T. Thonhauser, and
     *   S. de Gironcoli, J. Phys.: Condens. Matter 24, 424209 (2012).
     *

     Carrying out vdW-DF run using the following parameters:

     Nqs =      20    Nr_points =    1024   r_max =   100.000
     q_mesh =
               0.00001000     0.04494208     0.09755937     0.15916263
               0.23128650     0.31572767     0.41458969     0.53033537
               0.66584808     0.82450364     1.01025438     1.22772762
               1.48234092     1.78043706     2.12944203     2.53805004
               3.01644009     3.57652955     4.23227104     5.00000000

     Gradients computed in reciprocal space

     Adding external electric field

     Computed dipole along edir(3) :
        Dipole               -6.7770 Ry au,        -17.2253 Debye
        Dipole field         -0.0131 Ry au

        Potential amp.        1.2262 Ry
        Total length         46.8051 bohr

     Starting wfc are  112 randomized atomic wfcs

     Self-consistent Calculation

     iteration #  1     ecut=    36.75 Ry     beta=0.30
     Davidson diagonalization with overlap
     ethr =  1.00E-02,  avg # of iterations =  8.2

[...]

     total energy              =   -1124.04038873 Ry
     Harris-Foulkes estimate   =   -1638.74235159 Ry
     estimated scf accuracy    <    1100.79854235 Ry

[...]

     End of self-consistent calculation

          k = 0.0000 0.0000 0.0000 ( 24345 PWs)   bands (ev):

   -15.7040 -15.4334 -15.4334 -15.4330 -15.3429 -15.3429 -15.3314 -15.3223
   -15.3223 -15.3216 -15.3163 -15.2734 -15.2712 -15.2712 -15.2664 -15.2557
   -15.2557 -15.2367 -15.2367 -15.2299 -15.2114 -15.2114 -15.2017 -15.2017
   -15.1948 -15.1785 -15.1742 -15.1742 -15.1489 -15.1489 -15.0869 -15.0796
   -15.0796 -15.0478 -15.0478 -15.0350 -15.0162 -15.0048 -15.0048 -14.9942
   -14.9942 -14.9698 -14.9698 -14.9552 -14.9552 -14.9477 -14.9322 -14.9322
   -14.9318 -14.9287 -14.9130 -14.9130 -14.8992 -14.8992 -14.8891 -14.8760
   -14.8743 -14.8743 -14.8349 -14.8349 -14.8262  -9.4403  -8.0017  -5.8587
    -4.6096  -4.6044  -4.6044  -4.3165  -4.3111  -4.3111  -3.0787  -3.0787
    -3.0367  -2.8459  -2.7906  -2.7906  -2.3340  -1.5141  -1.5141  -1.3958
    -1.1267  -0.9008  -0.9008  -0.3726  -0.3726  -0.0117   0.9873   2.4822
     2.4822   2.5476   2.7931

[...]

          k =-0.0756 0.0436 0.0000 ( 24448 PWs)   bands (ev):

[...]

     the Fermi energy is    -0.2543 ev

!    total energy              =   -1649.69524510 Ry
     Harris-Foulkes estimate   =   -1649.69529178 Ry
     estimated scf accuracy    <       0.00000110 Ry

     The total energy is the sum of the following terms:

     one-electron contribution =   -9395.96748847 Ry
     hartree contribution      =    4776.59378280 Ry
     xc contribution           =    -476.87812018 Ry
     ewald contribution        =    3446.59887974 Ry
     electric field correction =       0.00178323 Ry
     smearing contrib. (-TS)   =      -0.04408223 Ry

     convergence has been achieved in  30 iterations

 BEEF-vdW xc energy contributions
           1 :   -417.567521703604
           2 :    381.315456322034
           3 :   -320.254770655407
           4 :    251.697069841804
           5 :   -191.300725118861
           6 :    147.431081617023
           7 :   -119.669826982437
           8 :    101.526819692824
           9 :   -85.3808459427122
          10 :    66.7793836268307
          11 :   -45.9927923796848
          12 :    26.5340045557095
          13 :   -12.1124016597826
          14 :    4.12701192119403
          15 :   -1.09088830877539
          16 :  -6.797110444949794E-002
          17 :    1.99624839954106
          18 :   -5.55744559501017
          19 :    9.82314377658059
[...]

[...]

   This run was terminated on:   0:37: 5  17Jan2018

[...]

   This run was terminated on:   0:49: 3  17Jan2018

[...]

     Program PWSCF v.5.1rc2 (svn rev. 11289) starts on 17Jan2018 at  0:49: 8

[...]

     Total force =     0.035602     Total SCF correction =     0.002781

[...]

   This run was terminated on:   1:53:51  17Jan2018

[...]

     Program PWSCF v.5.1rc2 (svn rev. 11289) starts on 17Jan2018 at  1:53:59

     Current dimensions of program PWSCF are:
     Max number of different atomic species (ntypx) = 10
     Max number of k-points (npk) =  40000
     Max angular momentum in pseudopotentials (lmaxx) =  3
     Presently stress not available with electric field

     IMPORTANT: XC functional enforced from input :
     Exchange-correlation      = BEEF-VDW ( 1  4 27 13 2)
     Any further DFT definition will be discarded
     Please, verify this is what you really want

     Subspace diagonalization in iterative solution of the eigenvalue problem:
     a serial algorithm will be used

     bravais-lattice index     =            0
     lattice parameter (alat)  =       1.8897  a.u.
     unit-cell volume          =    6501.5726 (a.u.)^3
     number of atoms/cell      =           13
     number of atomic types    =            2
     number of electrons       =       162.00
     number of Kohn-Sham states=           91
     kinetic-energy cutoff     =      36.7493  Ry
     charge density cutoff     =     367.4932  Ry
     convergence threshold     =      1.0E-05
     mixing beta               =       0.3000
     number of iterations used =           10  plain     mixing
     Exchange-correlation      = BEEF-VDW ( 1  4 27 13 2)
     nstep                     =           50

     celldm(1)=   1.889726  celldm(2)=   0.000000  celldm(3)=   0.000000
     celldm(4)=   0.000000  celldm(5)=   0.000000  celldm(6)=   0.000000

     crystal axes: (cart. coord. in units of alat)
               a(1) = (   6.617606   0.000000   0.000000 )
               a(2) = (   3.308803   5.731015   0.000000 )
               a(3) = (   0.000000   0.000000  25.403253 )

     reciprocal axes: (cart. coord. in units 2 pi/alat)
               b(1) = (  0.151112 -0.087245  0.000000 )
               b(2) = (  0.000000  0.174489  0.000000 )
               b(3) = (  0.000000  0.000000  0.039365 )

     PseudoPot. # 1 for In read from file:
     /afs/slac.stanford.edu/u/if/mamunm/psp/gbrv1.5pbe/In.UPF
     MD5 check sum: 90777abd96fbb83f2e67db2a40c566b9
     Pseudo is Ultrasoft + core correction, Zval = 13.0
     Generated by new atomic code, or converted to UPF format
     Using radial grid of  889 points,  6 beta functions with:
                l(1) =   0
                l(2) =   0
                l(3) =   1
                l(4) =   1
                l(5) =   2
                l(6) =   2
     Q(r) pseudized with  6 coefficients,  rinner =    1.400   1.400   1.400
                                                       1.400   1.400

     PseudoPot. # 2 for O  read from file:
     /afs/slac.stanford.edu/u/if/mamunm/psp/gbrv1.5pbe/O.UPF
     MD5 check sum: 734c27235a0248c51dbae37a1fbe46ec
     Pseudo is Ultrasoft + core correction, Zval =  6.0
     Generated by new atomic code, or converted to UPF format
     Using radial grid of  737 points,  5 beta functions with:
                l(1) =   0
                l(2) =   0
                l(3) =   1
                l(4) =   1
                l(5) =   2
     Q(r) pseudized with  8 coefficients,  rinner =    0.900   0.900   0.900
                                                       0.900   0.900

     vdW kernel table read from file vdW_kernel_table
     MD5 check sum: 095c7af220d748ca6e76c0b4c6cfb241

     atomic species   valence    mass     pseudopotential
        In1           13.00   114.81800     In( 1.00)
        O1             6.00    15.99900     O ( 1.00)

     No symmetry found

   Cartesian axes

     site n.     atom                  positions (alat units)
         1           In1 tau(   1) = (   1.6544016   0.9551692  10.0000000  )
         2           In1 tau(   2) = (   4.9632047   0.9551692  10.0000000  )
         3           In1 tau(   3) = (   3.3088031   3.8206768  10.0000000  )
         4           In1 tau(   4) = (   6.6176063   3.8206768  10.0000000  )
         5           In1 tau(   5) = (   6.6176063   1.9103384  12.7016265  )
         6           In1 tau(   6) = (   3.3088031   1.9103384  12.7016265  )
         7           In1 tau(   7) = (   8.2720078   4.7758460  12.7016265  )
         8           In1 tau(   8) = (   4.9632047   4.7758460  12.7016265  )
         9           In1 tau(   9) = (   6.6176019   0.0000218  15.4758493  )
        10           In1 tau(  10) = (   6.6176001   5.6715912  15.7507849  )
        11           In1 tau(  11) = (   8.2205305   2.8952128  15.7508146  )
        12           In1 tau(  12) = (   5.0146807   2.8952406  15.7508254  )
        13           O1  tau(  13) = (   3.3087807   1.9103549  16.6718318  )

     number of k points=    20  Fermi-Dirac smearing, width (Ry)=  0.0110
                       cart. coord. in units 2pi/alat
        k(    1) = (   0.0000000   0.0000000   0.0000000), wk =   0.0555556
        k(    2) = (   0.0000000   0.0290815   0.0000000), wk =   0.1111111
        k(    3) = (   0.0000000   0.0581631   0.0000000), wk =   0.1111111
        k(    4) = (   0.0000000  -0.0872446   0.0000000), wk =   0.0555556
        k(    5) = (   0.0251853  -0.0145408   0.0000000), wk =   0.1111111
        k(    6) = (   0.0251853   0.0145408   0.0000000), wk =   0.1111111
        k(    7) = (   0.0251853   0.0436223   0.0000000), wk =   0.1111111
        k(    8) = (   0.0251853  -0.1017853   0.0000000), wk =   0.1111111
        k(    9) = (   0.0251853  -0.0727038   0.0000000), wk =   0.1111111
        k(   10) = (   0.0251853  -0.0436223   0.0000000), wk =   0.1111111
        k(   11) = (   0.0503707  -0.0290815   0.0000000), wk =   0.1111111
        k(   12) = (   0.0503707   0.0000000   0.0000000), wk =   0.1111111
        k(   13) = (   0.0503707   0.0290815   0.0000000), wk =   0.1111111
        k(   14) = (   0.0503707  -0.1163261   0.0000000), wk =   0.1111111
        k(   15) = (   0.0503707  -0.0872446   0.0000000), wk =   0.1111111
        k(   16) = (   0.0503707  -0.0581631   0.0000000), wk =   0.1111111
        k(   17) = (  -0.0755560   0.0436223   0.0000000), wk =   0.0555556
        k(   18) = (  -0.0755560   0.0727038   0.0000000), wk =   0.1111111
        k(   19) = (  -0.0755560   0.1017853   0.0000000), wk =   0.1111111
        k(   20) = (  -0.0755560  -0.0436223   0.0000000), wk =   0.0555556

     Largest allocated arrays     est. size (Mb)     dimensions
     Largest temporary arrays     est. size (Mb)     dimensions

     Initial potential from superposition of free atoms
     Check: negative starting charge=   -0.000411

     starting charge  143.99999, renormalised to  162.00000

[...]

     *
     * You are using vdW-DF for exchange-correlation in this calculation.
     * Please cite the following three references that made this development
     * possible:
     *
     *   M. Dion, H. Rydberg, E. Schroder, D. C. Langreth, and
     *   B. I. Lundqvist, Phys. Rev. Lett. 92, 246401 (2004).
     *
     *   T. Thonhauser, V. R. Cooper, S. Li, A. Puzder, P. Hyldgaard, and
     *   D. C. Langreth, Phys. Rev. B 76, 125112 (2007).
     *
     *   G. Roman-Perez and J. M. Soler, Phys. Rev. Lett. 103, 096102 (2009).
     *
     *
     * If you are using vdW-DF2, please also cite:
     *
     *   K. Lee, E. D. Murray, L. Kong, B. I. Lundqvist, and
     *   D. C. Langreth, Phys. Rev. B 82, 081101(R) (2010).
     *
     *
     * If you are calculating the stress with vdW-DF, please also cite:
     *
     *   R. Sabatini, E. Kucukbenli, B. Kolb, T. Thonhauser, and
     *   S. de Gironcoli, J. Phys.: Condens. Matter 24, 424209 (2012).
     *

     Carrying out vdW-DF run using the following parameters:

     Nqs =      20    Nr_points =    1024   r_max =   100.000
     q_mesh =
               0.00001000     0.04494208     0.09755937     0.15916263
               0.23128650     0.31572767     0.41458969     0.53033537
               0.66584808     0.82450364     1.01025438     1.22772762
               1.48234092     1.78043706     2.12944203     2.53805004
               3.01644009     3.57652955     4.23227104     5.00000000

     Gradients computed in reciprocal space

[...]

     Starting wfc are  112 randomized atomic wfcs

     Self-consistent Calculation

[...]

     iteration #  4     ecut=    36.75 Ry     beta=0.30
     Davidson diagonalization with overlap
     c_bands:  1 eigenvalues not converged
     c_bands:  1 eigenvalues not converged
     ethr =  1.00E-02,  avg # of iterations = 18.9

[...]

     total energy              =   -1649.86405222 Ry
     Harris-Foulkes estimate   =   -1649.86393232 Ry
     estimated scf accuracy    <       0.00023370 Ry

     iteration # 24     ecut=    36.75 Ry     beta=0.30
     Davidson diagonalization with overlap
     ethr =  3.42E-08,  avg # of iterations =  4.3

[...]

     negative rho (up, down):  1.210E-03 0.000E+00

     Adding external electric field

     Computed dipole along edir(3) :
        Dipole               -0.1759 Ry au,         -0.4470 Debye
        Dipole field         -0.0003 Ry au

        Potential amp.        0.0318 Ry
        Total length         46.8051 bohr

     End of self-consistent calculation

[...]

          k = 0.0504-0.0582 0.0000 ( 24479 PWs)   bands (ev):

[...]

          k =-0.0756-0.0436 0.0000 ( 24448 PWs)   bands (ev):

   -17.8268 -14.5436 -14.5398 -14.4940 -14.4890 -14.4848 -14.4796 -14.4727
   -14.4711 -14.4553 -14.4430 -14.4426 -14.4278 -14.4207 -14.4198 -14.4132
   -14.4100 -14.4018 -14.3940 -14.3828 -14.3695 -14.3679 -14.3638 -14.3596
   -14.3569 -14.3524 -14.3456 -14.3269 -14.3263 -14.3141 -14.3081 -14.3034
   -14.3001 -14.2973 -14.2891 -14.2851 -14.2785 -14.2664 -14.2590 -14.2569
   -14.2492 -14.2466 -14.2463 -14.2421 -14.2367 -14.2361 -14.2328 -14.2295
   -14.2197 -14.2183 -14.2153 -14.1927 -14.1911 -14.1725 -14.1695 -14.1626
   -14.1523 -14.1304 -14.1267 -14.0710 -13.6881  -7.2584  -7.1475  -6.1841
    -5.6148  -4.9459  -4.7128  -4.5000  -4.3671  -4.0108  -3.4765  -2.8607
    -2.6064  -2.1407  -1.1550  -0.9564  -0.2902  -0.1729   0.2322   0.3253
     0.6865   0.9498   1.5417   1.6018   2.0099   2.0471   2.2588   2.5701
     2.5771   2.9167   3.0690

     the Fermi energy is     0.5751 ev

!    total energy              =   -1649.86406833 Ry
     Harris-Foulkes estimate   =   -1649.86406211 Ry
     estimated scf accuracy    <       0.00000310 Ry

     The total energy is the sum of the following terms:

     one-electron contribution =   -9236.12988979 Ry
     hartree contribution      =    4700.41862545 Ry
     xc contribution           =    -477.13212085 Ry
     ewald contribution        =    3363.01761240 Ry
     electric field correction =       0.00005977 Ry
     smearing contrib. (-TS)   =      -0.03835532 Ry

     convergence has been achieved in  24 iterations

 BEEF-vdW xc energy contributions
           1 :   -417.828214394627
           2 :    381.607008857227
           3 :   -320.507016084977
           4 :    251.796606280453
           5 :   -191.196902599048
           6 :    147.164561053314
           7 :   -119.335134682950
           8 :    101.220380542536
           9 :   -85.1658338831666
          10 :    66.6738091848159
          11 :   -45.9740053090212
          12 :    26.5559569369656
          13 :   -12.1329656121673
          14 :    4.12845705274935
          15 :   -1.07841801171622
          16 :  -7.841552474639002E-002
          17 :    1.98841056556608
          18 :   -5.52704635207124
          19 :    9.78706780355958
          20 :   -13.1385970877192
          21 :    14.4829884912344
          22 :   -13.8838903558748
          23 :    12.3159225252105
          24 :   -10.8945597991926
          25 :    10.2047389091978
          26 :   -10.1376062822919
          27 :    10.2045221601835
          28 :   -9.98645968502706
          29 :    9.37563794911927
          30 :   -8.51324097908810
          31 :   -38.0271731140874
          32 :   -27.5445553192116

     Forces acting on atoms (Ry/au):

     negative rho (up, down):  1.210E-03 0.000E+00
     atom    1 type  1   force =     0.00068429    0.00039454   -0.01292234
     atom    2 type  1   force =    -0.00068375    0.00039929   -0.01291823
     atom    3 type  1   force =    -0.00000068   -0.00079179   -0.01292499
     atom    4 type  1   force =    -0.00000032   -0.00000076   -0.01202203
     atom    5 type  1   force =     0.00000007    0.00084728    0.01273278
     atom    6 type  1   force =     0.00000148   -0.00000025    0.01467348
     atom    7 type  1   force =    -0.00073386   -0.00042234    0.01273519
     atom    8 type  1   force =     0.00073393   -0.00042523    0.01273547
     atom    9 type  1   force =     0.00000028   -0.00000282   -0.00120205
     atom   10 type  1   force =    -0.00000013   -0.00114372   -0.00061446
     atom   11 type  1   force =    -0.00099415    0.00057597   -0.00061491
     atom   12 type  1   force =     0.00098732    0.00057264   -0.00061259
     atom   13 type  2   force =     0.00000552   -0.00000280    0.00095471

     Total force =     0.036861     Total SCF correction =     0.011526
     SCF correction compared to forces is large: reduce conv_thr to get better values

     entering subroutine stress ...

     negative rho (up, down):  1.210E-03 0.000E+00
          total   stress  (Ry/bohr**3)                   (kbar)     P=    7.32
   0.00005944  -0.00000000   0.00000000          8.74     -0.00      0.00
  -0.00000000   0.00005944  -0.00000000         -0.00      8.74     -0.00
   0.00000000  -0.00000000   0.00003045          0.00     -0.00      4.48

 !ASE

     Writing output data file calc.save

     General routines

     Parallel routines

   This run was terminated on:   2: 4:23  17Jan2018

   JOB DONE.
Job  /afs/slac/g/suncat/bin/suncat-tsmpirun -x LD_LIBRARY_PATH -wdir /scratch/qe842449_wy7Z5 pw.x -in pw.inp

TID   HOST_NAME   COMMAND_LINE            STATUS            TERMINATION_TIME
00000 suncat2070 pw.x -in pw.inp   Done                     01/17/2018 02:04:23
00001 suncat2070 pw.x -in pw.inp   Done                     01/17/2018 02:04:23
00002 suncat2070 pw.x -in pw.inp   Done                     01/17/2018 02:04:23
00003 suncat2070 pw.x -in pw.inp   Done                     01/17/2018 02:04:23
00004 suncat2070 pw.x -in pw.inp   Done                     01/17/2018 02:04:23
00005 suncat2070 pw.x -in pw.inp   Done                     01/17/2018 02:04:23
00006 suncat2070 pw.x -in pw.inp   Done                     01/17/2018 02:04:23
00007 suncat2070 pw.x -in pw.inp   Done                     01/17/2018 02:04:23
00008 suncat2070 pw.x -in pw.inp   Done                     01/17/2018 02:04:23
00009 suncat2070 pw.x -in pw.inp   Done                     01/17/2018 02:04:23
00010 suncat2070 pw.x -in pw.inp   Done                     01/17/2018 02:04:23
00011 suncat2070 pw.x -in pw.inp   Done                     01/17/2018 02:04:23
00012 suncat2070 pw.x -in pw.inp   Done                     01/17/2018 02:04:23
00013 suncat2070 pw.x -in pw.inp   Done                     01/17/2018 02:04:23
00014 suncat2070 pw.x -in pw.inp   Done                     01/17/2018 02:04:23
00015 suncat2070 pw.x -in pw.inp   Done                     01/17/2018 02:04:23
00016 suncat2062 pw.x -in pw.inp   Done                     01/17/2018 02:04:23
00017 suncat2062 pw.x -in pw.inp   Done                     01/17/2018 02:04:23
00018 suncat2062 pw.x -in pw.inp   Done                     01/17/2018 02:04:23
00019 suncat2062 pw.x -in pw.inp   Done                     01/17/2018 02:04:23
00020 suncat2062 pw.x -in pw.inp   Done                     01/17/2018 02:04:23
00021 suncat2062 pw.x -in pw.inp   Done                     01/17/2018 02:04:23
00022 suncat2062 pw.x -in pw.inp   Done                     01/17/2018 02:04:23
00023 suncat2062 pw.x -in pw.inp   Done                     01/17/2018 02:04:23
00024 suncat2062 pw.x -in pw.inp   Done                     01/17/2018 02:04:23
00025 suncat2062 pw.x -in pw.inp   Done                     01/17/2018 02:04:23
00026 suncat2062 pw.x -in pw.inp   Done                     01/17/2018 02:04:23
00027 suncat2062 pw.x -in pw.inp   Done                     01/17/2018 02:04:23
00028 suncat2062 pw.x -in pw.inp   Done                     01/17/2018 02:04:23
00029 suncat2062 pw.x -in pw.inp   Done                     01/17/2018 02:04:23
00030 suncat2062 pw.x -in pw.inp   Done                     01/17/2018 02:04:23
00031 suncat2062 pw.x -in pw.inp   Done                     01/17/2018 02:04:23