     Program PWSCF v.5.1rc2 (svn rev. 11289) starts on 23Apr2018 at  4:24: 7

     Current dimensions of program PWSCF are:
     Max number of different atomic species (ntypx) = 10
     Max number of k-points (npk) =  40000
     Max angular momentum in pseudopotentials (lmaxx) =  3
     Presently stress not available with electric field

     IMPORTANT: XC functional enforced from input :
     Exchange-correlation      = BEEF-VDW ( 1  4 27 13 2)
     Any further DFT definition will be discarded
     Please, verify this is what you really want

     Subspace diagonalization in iterative solution of the eigenvalue problem:
     a serial algorithm will be used

     bravais-lattice index     =            0
     lattice parameter (alat)  =       1.8897  a.u.
     unit-cell volume          =    6741.9070 (a.u.)^3
     number of atoms/cell      =           14
     number of atomic types    =            3
     number of electrons       =       174.00
     number of Kohn-Sham states=           97
     kinetic-energy cutoff     =      36.7493  Ry
     charge density cutoff     =     367.4932  Ry
     convergence threshold     =      1.0E-05
     mixing beta               =       0.3000
     number of iterations used =           10  plain     mixing
     Exchange-correlation      = BEEF-VDW ( 1  4 27 13 2)
     nstep                     =           50

     celldm(1)=   1.889726  celldm(2)=   0.000000  celldm(3)=   0.000000
     celldm(4)=   0.000000  celldm(5)=   0.000000  celldm(6)=   0.000000

     crystal axes: (cart. coord. in units of alat)
               a(1) = (   6.726993   0.000000   0.000000 )
               a(2) = (   3.363497   5.825747   0.000000 )
               a(3) = (   0.000000   0.000000  25.492567 )

     reciprocal axes: (cart. coord. in units 2 pi/alat)
               b(1) = (  0.148655 -0.085826  0.000000 )
               b(2) = (  0.000000  0.171652  0.000000 )
               b(3) = (  0.000000  0.000000  0.039227 )

     PseudoPot. # 1 for Sn read from file:
     /u/if/mamunm/psp/gbrv1.5pbe/Sn.UPF
     MD5 check sum: 469debedee59599fedebd795477fea03
     Pseudo is Ultrasoft + core correction, Zval = 14.0
     Generated by new atomic code, or converted to UPF format
     Using radial grid of  891 points,  6 beta functions with:
                l(1) =   0
                l(2) =   0
                l(3) =   1
                l(4) =   1
                l(5) =   2
                l(6) =   2
     Q(r) pseudized with  8 coefficients,  rinner =    1.350   1.350   1.350
                                                       1.350   1.350

     PseudoPot. # 2 for N  read from file:
     /u/if/mamunm/psp/gbrv1.5pbe/N.UPF
     MD5 check sum: 95339753478d7afb44899504a8723017
     Pseudo is Ultrasoft + core correction, Zval =  5.0
     Generated by new atomic code, or converted to UPF format
     Using radial grid of  729 points,  4 beta functions with:
                l(1) =   0
                l(2) =   0
                l(3) =   1
                l(4) =   1
     Q(r) pseudized with  8 coefficients,  rinner =    0.900   0.900   0.900

     PseudoPot. # 3 for H  read from file:
     /u/if/mamunm/psp/gbrv1.5pbe/H.UPF
     MD5 check sum: 761ae9a214b05c3daf00ab9f6b793d6f
     Pseudo is Ultrasoft, Zval =  1.0
     Generated by new atomic code, or converted to UPF format
     Using radial grid of  615 points,  2 beta functions with:
                l(1) =   0
                l(2) =   0
     Q(r) pseudized with  8 coefficients,  rinner =    0.700

     vdW kernel table read from file vdW_kernel_table
     MD5 check sum: 095c7af220d748ca6e76c0b4c6cfb241

     atomic species   valence    mass     pseudopotential
        Sn1           14.00   118.71000     Sn( 1.00)
        N1             5.00    14.00700     N ( 1.00)
        H1             1.00     1.00800     H ( 1.00)

     No symmetry found

   Cartesian axes

     site n.     atom                  positions (alat units)
         1           Sn1 tau(   1) = (   1.6817483   0.9709578  10.0000000  )
         2           Sn1 tau(   2) = (   5.0452448   0.9709578  10.0000000  )
         3           Sn1 tau(   3) = (   3.3634965   3.8838312  10.0000000  )
         4           Sn1 tau(   4) = (   6.7269931   3.8838312  10.0000000  )
         5           Sn1 tau(   5) = (   6.7269931   1.9419156  12.7462834  )
         6           Sn1 tau(   6) = (   3.3634965   1.9419156  12.7462834  )
         7           Sn1 tau(   7) = (   8.4087413   4.8547891  12.7462834  )
         8           Sn1 tau(   8) = (   5.0452448   4.8547891  12.7462834  )
         9           Sn1 tau(   9) = (   0.0000000   0.0000000  15.4925668  )
        10           Sn1 tau(  10) = (   3.3634965   0.0000000  15.4925668  )
        11           Sn1 tau(  11) = (   1.6817483   2.9128734  15.4925668  )
        12           Sn1 tau(  12) = (   5.0452448   2.9128734  15.4925668  )
        13           N1  tau(  13) = (   3.3634965   1.9419156  16.8575668  )
        14           H1  tau(  14) = (   3.3634965   1.9419156  17.9075668  )

     number of k points=    20  Fermi-Dirac smearing, width (Ry)=  0.0110
                       cart. coord. in units 2pi/alat
        k(    1) = (   0.0000000   0.0000000   0.0000000), wk =   0.0555556
        k(    2) = (   0.0000000   0.0286086   0.0000000), wk =   0.1111111
        k(    3) = (   0.0000000   0.0572173   0.0000000), wk =   0.1111111
        k(    4) = (   0.0000000  -0.0858259   0.0000000), wk =   0.0555556
        k(    5) = (   0.0247758  -0.0143043   0.0000000), wk =   0.1111111
        k(    6) = (   0.0247758   0.0143043   0.0000000), wk =   0.1111111
        k(    7) = (   0.0247758   0.0429130   0.0000000), wk =   0.1111111
        k(    8) = (   0.0247758  -0.1001302   0.0000000), wk =   0.1111111
        k(    9) = (   0.0247758  -0.0715216   0.0000000), wk =   0.1111111
        k(   10) = (   0.0247758  -0.0429130   0.0000000), wk =   0.1111111
        k(   11) = (   0.0495516  -0.0286086   0.0000000), wk =   0.1111111
        k(   12) = (   0.0495516   0.0000000   0.0000000), wk =   0.1111111
        k(   13) = (   0.0495516   0.0286086   0.0000000), wk =   0.1111111
        k(   14) = (   0.0495516  -0.1144345   0.0000000), wk =   0.1111111
        k(   15) = (   0.0495516  -0.0858259   0.0000000), wk =   0.1111111
        k(   16) = (   0.0495516  -0.0572173   0.0000000), wk =   0.1111111
        k(   17) = (  -0.0743274   0.0429130   0.0000000), wk =   0.0555556
        k(   18) = (  -0.0743274   0.0715216   0.0000000), wk =   0.1111111
        k(   19) = (  -0.0743274   0.1001302   0.0000000), wk =   0.1111111
        k(   20) = (  -0.0743274  -0.0429130   0.0000000), wk =   0.0555556

     Largest allocated arrays     est. size (Mb)     dimensions
     Largest temporary arrays     est. size (Mb)     dimensions

     Initial potential from superposition of free atoms
     Check: negative starting charge=   -0.001395

     starting charge  161.99944, renormalised to  174.00000

     negative rho (up, down):  1.498E-03 0.000E+00

     *
     * You are using vdW-DF for exchange-correlation in this calculation.
     * Please cite the following three references that made this development
     * possible:
     *
     *   M. Dion, H. Rydberg, E. Schroder, D. C. Langreth, and
     *   B. I. Lundqvist, Phys. Rev. Lett. 92, 246401 (2004).
     *
     *   T. Thonhauser, V. R. Cooper, S. Li, A. Puzder, P. Hyldgaard, and
     *   D. C. Langreth, Phys. Rev. B 76, 125112 (2007).
     *
     *   G. Roman-Perez and J. M. Soler, Phys. Rev. Lett. 103, 096102 (2009).
     *
     *
     * If you are using vdW-DF2, please also cite:
     *
     *   K. Lee, E. D. Murray, L. Kong, B. I. Lundqvist, and
     *   D. C. Langreth, Phys. Rev. B 82, 081101(R) (2010).
     *
     *
     * If you are calculating the stress with vdW-DF, please also cite:
     *
     *   R. Sabatini, E. Kucukbenli, B. Kolb, T. Thonhauser, and
     *   S. de Gironcoli, J. Phys.: Condens. Matter 24, 424209 (2012).
     *

     Carrying out vdW-DF run using the following parameters:

     Nqs =      20    Nr_points =    1024   r_max =   100.000
     q_mesh =
               0.00001000     0.04494208     0.09755937     0.15916263
               0.23128650     0.31572767     0.41458969     0.53033537
               0.66584808     0.82450364     1.01025438     1.22772762
               1.48234092     1.78043706     2.12944203     2.53805004
               3.01644009     3.57652955     4.23227104     5.00000000

     Gradients computed in reciprocal space

     Adding external electric field

     Computed dipole along edir(3) :
        Dipole               -3.6000 Ry au,         -9.1502 Debye
        Dipole field         -0.0067 Ry au

        Potential amp.        0.6303 Ry
        Total length         46.9696 bohr

     Starting wfc are  113 randomized atomic wfcs

     Self-consistent Calculation

     iteration #  1     ecut=    36.75 Ry     beta=0.30
     Davidson diagonalization with overlap
     ethr =  1.00E-02,  avg # of iterations =  8.7

[...]

     total energy              =   -1900.72201354 Ry
     Harris-Foulkes estimate   =   -1954.01291787 Ry
     estimated scf accuracy    <     113.26229039 Ry

[...]

     End of self-consistent calculation

          k = 0.0000 0.0000 0.0000 ( 25377 PWs)   bands (ev):

   -21.2037 -21.1927 -21.1927 -21.1803 -21.1698 -21.1698 -21.1617 -21.1466
   -21.1466 -21.1434 -21.1367 -21.1316 -21.1276 -21.1276 -21.1258 -21.1255
   -21.1254 -21.1110 -21.1110 -21.1100 -21.1084 -21.1084 -21.1055 -21.1055
   -21.1036 -21.0977 -21.0977 -21.0927 -21.0812 -21.0812 -21.0737 -21.0616
   -21.0616 -21.0464 -21.0464 -21.0359 -21.0359 -21.0119 -21.0111 -21.0111
   -21.0073 -21.0047 -21.0047 -20.9917 -20.9844 -20.9760 -20.9760 -20.9711
   -20.9710 -20.9674 -20.9674 -20.9641 -20.9575 -20.9558 -20.9557 -20.9478
   -20.9478 -20.9376 -20.9376 -20.9355 -14.0602  -9.8496  -8.6143  -6.9596
    -5.9723  -5.8460  -5.8460  -5.4886  -5.4886  -5.4199  -4.6934  -4.6419
    -4.6419  -4.3604  -3.0984  -3.0984  -2.7459  -2.3750  -2.3750  -2.3398
    -1.8197  -1.6895  -1.6895  -0.3165  -0.3165  -0.2387   0.6487   1.8594
     1.8594   1.9353   2.5050   2.5050   2.8551   3.1680   3.4209   3.5159
     3.5159

[...]

          k =-0.0743 0.0429 0.0000 ( 25386 PWs)   bands (ev):

[...]

     the Fermi energy is     0.9009 ev

!    total energy              =   -1949.78306408 Ry
     Harris-Foulkes estimate   =   -1949.78305925 Ry
     estimated scf accuracy    <       0.00000601 Ry

     The total energy is the sum of the following terms:

     one-electron contribution =  -10680.58353221 Ry
     hartree contribution      =    5406.56021688 Ry
     xc contribution           =    -540.19009997 Ry
     ewald contribution        =    3864.47484183 Ry
     electric field correction =       0.00002000 Ry
     smearing contrib. (-TS)   =      -0.04451061 Ry

     convergence has been achieved in  15 iterations

 BEEF-vdW xc energy contributions
           1 :   -474.509751215793
           2 :    434.233505181463
           3 :   -365.946185900712
           4 :    288.656893820929
           5 :   -220.370703807843
           6 :    171.780864610456
           7 :   -143.903676246809
           8 :    130.144895280963
           9 :   -121.258024306859
          10 :    110.416107408489
          11 :   -95.9112382991675
          12 :    80.5328702032816
          13 :   -68.5926108527660
          14 :    62.6865376550574
          15 :   -62.1020149703766
          16 :    63.5294869111314
          17 :   -63.3142563177809
          18 :    59.6659886116402
          19 :   -53.4764239274254
          20 :    47.3997817906521
          21 :   -43.9568654921890
          22 :    43.9324141269652
          23 :   -46.0288832611940
          24 :    47.8604532500356
          25 :   -47.5338521688680
          26 :    44.7664734043508
          27 :   -40.8887336383247
          28 :    37.8375252084217
          29 :   -36.8724953804985
          30 :    37.8461005644222
          31 :   -41.6743561769438
          32 :   -30.3174308244518

     Forces acting on atoms (Ry/au):

     negative rho (up, down):  7.137E-04 0.000E+00
     atom    1 type  1   force =     0.00042316    0.00025091    0.00340615
     atom    2 type  1   force =    -0.00041868    0.00023613    0.00340709
     atom    3 type  1   force =     0.00000251   -0.00047949    0.00338223
     atom    4 type  1   force =    -0.00001342   -0.00000842    0.00128945
     atom    5 type  1   force =     0.00000655   -0.00208717   -0.01328527
     atom    6 type  1   force =    -0.00000441    0.00000084    0.00263778
     atom    7 type  1   force =     0.00179215    0.00104185   -0.01328207
     atom    8 type  1   force =    -0.00179508    0.00104521   -0.01328388
     atom    9 type  1   force =     0.00000546   -0.00000895   -0.00697059
     atom   10 type  1   force =    -0.00000814    0.02072754    0.02761300
     atom   11 type  1   force =     0.01796431   -0.01036356    0.02760343
     atom   12 type  1   force =    -0.01795675   -0.01035713    0.02760805
     atom   13 type  2   force =     0.00000099    0.00000144   -0.01584985
     atom   14 type  3   force =     0.00000134    0.00000079   -0.03427551

     Total force =     0.071068     Total SCF correction =     0.001872

     entering subroutine stress ...

     negative rho (up, down):  7.137E-04 0.000E+00
          total   stress  (Ry/bohr**3)                   (kbar)     P=    3.01
   0.00003185  -0.00000000   0.00000000          4.69     -0.00      0.00
  -0.00000000   0.00003185   0.00000000         -0.00      4.69      0.00
   0.00000000   0.00000000  -0.00000230          0.00      0.00     -0.34

     BFGS Geometry Optimization

     number of scf cycles    =   1
     number of bfgs steps    =   0

     energy   new            =   -1949.7830640848 Ry

     new trust radius        =       0.0345269340 bohr
     new conv_thr            =       0.0000099958 Ry

ATOMIC_POSITIONS (crystal)
Sn1      0.166666667   0.166666667   0.392271209    0   0   0
Sn1      0.666666667   0.166666667   0.392271209    0   0   0
Sn1      0.166666667   0.666666667   0.392271209    0   0   0
Sn1      0.666666667   0.666666667   0.392271209    0   0   0
Sn1      0.833333333   0.333333333   0.500000000    0   0   0
Sn1      0.333333333   0.333333333   0.500000000    0   0   0
Sn1      0.833333333   0.833333333   0.500000000    0   0   0
Sn1      0.333333333   0.833333333   0.500000000    0   0   0
Sn1      0.000000836  -0.000000813   0.607584095
Sn1      0.499057975   0.001882770   0.608301985
Sn1      0.001883841   0.499058634   0.608301786
Sn1      0.499057828   0.499059218   0.608301882
N1       0.333333345   0.333333464   0.660944799
H1       0.333333403   0.333333405   0.701750794

     Writing output data file calc.save
     Check: negative starting charge=   -0.001395
     NEW-OLD atomic charge density approx. for the potential
     Check: negative starting charge=   -0.001391

[...]

     energy   old            =   -1949.7830640848 Ry
     energy   new            =   -1949.7878103813 Ry

     CASE: energy  _new < energy  _old

     WARNING: bfgs curvature condition failed, Theta= 0.918
     new trust radius        =       0.0517904010 bohr
     new conv_thr            =       0.0000001000 Ry

[...]

     iteration #  1     ecut=    36.75 Ry     beta=0.30
     Davidson diagonalization with overlap
     c_bands:  1 eigenvalues not converged
     ethr =  1.00E-06,  avg # of iterations = 12.3

[...]

     iteration #  1     ecut=    36.75 Ry     beta=0.30
     Davidson diagonalization with overlap
     c_bands:  1 eigenvalues not converged
     ethr =  1.00E-06,  avg # of iterations =  8.2

[...]

     Total force =     0.008184     Total SCF correction =     0.001002
     SCF correction compared to forces is large: reduce conv_thr to get better values

[...]

     WARNING: bfgs curvature condition failed, Theta= 0.767
     new trust radius        =       0.0138747052 bohr
     new conv_thr            =       0.0000001000 Ry

[...]

     Threshold (ethr) on eigenvalues was too large:
     Diagonalizing with lowered threshold

     Davidson diagonalization with overlap
     ethr =  9.58E-08,  avg # of iterations =  1.8

[...]

     Total force =     0.005097     Total SCF correction =     0.000374

[...]

     number of scf cycles    =  26
     number of bfgs steps    =  25

     energy   old            =   -1949.8075535355 Ry
     energy   new            =   -1949.8076456929 Ry

     CASE: energy  _new < energy  _old

     new trust radius        =       0.0360026711 bohr
     new conv_thr            =       0.0000001000 Ry

ATOMIC_POSITIONS (crystal)
Sn1      0.166666667   0.166666667   0.392271209    0   0   0
Sn1      0.666666667   0.166666667   0.392271209    0   0   0
Sn1      0.166666667   0.666666667   0.392271209    0   0   0
Sn1      0.666666667   0.666666667   0.392271209    0   0   0
Sn1      0.833333333   0.333333333   0.500000000    0   0   0
Sn1      0.333333333   0.333333333   0.500000000    0   0   0
Sn1      0.833333333   0.833333333   0.500000000    0   0   0
Sn1      0.333333333   0.833333333   0.500000000    0   0   0
Sn1     -0.000008933   0.000009732   0.604320073
Sn1      0.497474654   0.005087264   0.622422775
Sn1      0.005085823   0.497440557   0.622423131
Sn1      0.497441169   0.497481070   0.622424701
N1       0.333342883   0.333324562   0.669240006
H1       0.333334413   0.333330051   0.709454440

     Writing output data file calc.save
     Check: negative starting charge=   -0.001351
     NEW-OLD atomic charge density approx. for the potential
     Check: negative starting charge=   -0.001356

[...]

     Self-consistent Calculation

[...]

     total energy              =   -1949.80772939 Ry
     Harris-Foulkes estimate   =   -1949.80772928 Ry
     estimated scf accuracy    <       0.00000033 Ry

     iteration #  8     ecut=    36.75 Ry     beta=0.30
     Davidson diagonalization with overlap
     ethr =  1.89E-10,  avg # of iterations =  3.5

[...]

     negative rho (up, down):  7.068E-04 0.000E+00

     Adding external electric field

     Computed dipole along edir(3) :
        Dipole                0.2044 Ry au,          0.5195 Debye
        Dipole field          0.0004 Ry au

        Potential amp.       -0.0358 Ry
        Total length         46.9696 bohr

     End of self-consistent calculation

[...]

          k = 0.0496-0.0572 0.0000 ( 25368 PWs)   bands (ev):

[...]

          k =-0.0743-0.0429 0.0000 ( 25386 PWs)   bands (ev):

   -21.1249 -21.0774 -21.0523 -21.0493 -21.0426 -21.0362 -21.0302 -21.0226
   -21.0222 -21.0195 -21.0147 -21.0106 -21.0087 -21.0080 -21.0078 -21.0006
   -21.0000 -20.9986 -20.9969 -20.9962 -20.9938 -20.9892 -20.9841 -20.9823
   -20.9807 -20.9781 -20.9777 -20.9714 -20.9695 -20.9646 -20.9624 -20.9582
   -20.9516 -20.9512 -20.9433 -20.9398 -20.9319 -20.9314 -20.9247 -20.9198
   -20.9187 -20.9141 -20.9050 -20.8979 -20.8917 -20.8902 -20.8860 -20.8805
   -20.8763 -20.8719 -20.8711 -20.8668 -20.8630 -20.8612 -20.8601 -20.8582
   -20.8536 -20.8404 -20.8306 -20.8238 -14.8018  -8.5044  -8.3812  -7.6327
    -7.3692  -6.4547  -6.2575  -6.0854  -5.9833  -5.6641  -5.3601  -4.3421
    -4.2577  -3.5626  -2.5137  -1.7419  -1.2193  -1.0804  -1.0006  -0.9028
    -0.7390  -0.4780  -0.0096   0.2104   0.6199   0.7033   1.0370   1.3383
     1.4091   1.5524   1.6615   1.7484   2.1634   2.2412   2.3340   2.4509
     2.7867

     the Fermi energy is     1.0069 ev

!    total energy              =   -1949.80772940 Ry
     Harris-Foulkes estimate   =   -1949.80772979 Ry
     estimated scf accuracy    <       0.00000004 Ry

     The total energy is the sum of the following terms:

     one-electron contribution =  -10294.88301682 Ry
     hartree contribution      =    5214.13518575 Ry
     xc contribution           =    -540.14220790 Ry
     ewald contribution        =    3671.12542893 Ry
     electric field correction =       0.00007786 Ry
     smearing contrib. (-TS)   =      -0.04319721 Ry

     convergence has been achieved in   8 iterations

 BEEF-vdW xc energy contributions
           1 :   -474.454963786919
           2 :    434.096467735864
           3 :   -365.683649644563
           4 :    288.292071317589
           5 :   -219.987545858666
           6 :    171.480896121280
           7 :   -143.751302697652
           8 :    130.135602489646
           9 :   -121.327271142423
          10 :    110.479902608304
          11 :   -95.9120756119083
          12 :    80.4652017663235
          13 :   -68.4968145803529
          14 :    62.6183412857600
          15 :   -62.0969882659158
          16 :    63.5845833870193
          17 :   -63.3953781141644
          18 :    59.7320041928161
          19 :   -53.5033958565383
          20 :    47.3920511455930
          21 :   -43.9397651150617
          22 :    43.9326304654912
          23 :   -46.0563140453343
          24 :    47.9027496278478
          25 :   -47.5657266573907
          26 :    44.7669199501080
          27 :   -40.8550800091811
          28 :    37.7885664980902
          29 :   -36.8385022994346
          30 :    37.8514755176051
          31 :   -41.6657307130783
          32 :   -30.2820250207065

     Forces acting on atoms (Ry/au):

     negative rho (up, down):  7.068E-04 0.000E+00
     atom    1 type  1   force =     0.00046335    0.00026726    0.00105873
     atom    2 type  1   force =    -0.00046323    0.00026682    0.00105912
     atom    3 type  1   force =    -0.00000013   -0.00053437    0.00105878
     atom    4 type  1   force =    -0.00000011    0.00000033   -0.00043864
     atom    5 type  1   force =    -0.00000067    0.00519901   -0.00546677
     atom    6 type  1   force =     0.00000004    0.00000059    0.01076851
     atom    7 type  1   force =    -0.00450117   -0.00259934   -0.00546613
     atom    8 type  1   force =     0.00450123   -0.00259946   -0.00546548
     atom    9 type  1   force =     0.00000128   -0.00000264    0.00138485
     atom   10 type  1   force =    -0.00000076    0.00027069    0.00025502
     atom   11 type  1   force =     0.00024559   -0.00013933    0.00025827
     atom   12 type  1   force =    -0.00024212   -0.00013980    0.00025643
     atom   13 type  2   force =    -0.00000467    0.00001302    0.00057392
     atom   14 type  3   force =     0.00000138   -0.00000276    0.00016338

     Total force =     0.001644     Total SCF correction =     0.000869
     SCF correction compared to forces is large: reduce conv_thr to get better values

     entering subroutine stress ...

     negative rho (up, down):  7.068E-04 0.000E+00
          total   stress  (Ry/bohr**3)                   (kbar)     P=   -0.74
   0.00000131   0.00000000  -0.00000000          0.19      0.00     -0.00
   0.00000000   0.00000131   0.00000000          0.00      0.19      0.00
  -0.00000000   0.00000000  -0.00001771         -0.00      0.00     -2.61

     bfgs converged in  27 scf cycles and  26 bfgs steps
     (criteria: energy <  1.0E+00, force <  1.9E-03)

     End of BFGS Geometry Optimization

     Final energy   =   -1949.8077293975 Ry
Begin final coordinates

ATOMIC_POSITIONS (crystal)
Sn1      0.166666667   0.166666667   0.392271209    0   0   0
Sn1      0.666666667   0.166666667   0.392271209    0   0   0
Sn1      0.166666667   0.666666667   0.392271209    0   0   0
Sn1      0.666666667   0.666666667   0.392271209    0   0   0
Sn1      0.833333333   0.333333333   0.500000000    0   0   0
Sn1      0.333333333   0.333333333   0.500000000    0   0   0
Sn1      0.833333333   0.833333333   0.500000000    0   0   0
Sn1      0.333333333   0.833333333   0.500000000    0   0   0
Sn1     -0.000008933   0.000009732   0.604320073
Sn1      0.497474654   0.005087264   0.622422775
Sn1      0.005085823   0.497440557   0.622423131
Sn1      0.497441169   0.497481070   0.622424701
N1       0.333342883   0.333324562   0.669240006
H1       0.333334413   0.333330051   0.709454440
End final coordinates

     Writing output data file calc.save

     General routines

     Parallel routines

   This run was terminated on:   8: 6:28  23Apr2018

   JOB DONE.
Job  /afs/slac/g/suncat/bin/suncat-tsmpirun -x LD_LIBRARY_PATH -wdir /scratch/qe395102_pLyX1 pw.x -npool 4 -in pw.inp

TID   HOST_NAME   COMMAND_LINE            STATUS            TERMINATION_TIME
00000 suncat0150 pw.x -npool 4 -i  Done                     04/23/2018 08:06:28
00001 suncat0150 pw.x -npool 4 -i  Done                     04/23/2018 08:06:28
00002 suncat0150 pw.x -npool 4 -i  Done                     04/23/2018 08:06:28
00003 suncat0150 pw.x -npool 4 -i  Done                     04/23/2018 08:06:28
00004 suncat0150 pw.x -npool 4 -i  Done                     04/23/2018 08:06:28
00005 suncat0150 pw.x -npool 4 -i  Done                     04/23/2018 08:06:28
00006 suncat0150 pw.x -npool 4 -i  Done                     04/23/2018 08:06:28
00007 suncat0150 pw.x -npool 4 -i  Done                     04/23/2018 08:06:28
00008 suncat0145 pw.x -npool 4 -i  Done                     04/23/2018 08:06:28
00009 suncat0145 pw.x -npool 4 -i  Done                     04/23/2018 08:06:28
00010 suncat0145 pw.x -npool 4 -i  Done                     04/23/2018 08:06:28
00011 suncat0145 pw.x -npool 4 -i  Done                     04/23/2018 08:06:28
00012 suncat0145 pw.x -npool 4 -i  Done                     04/23/2018 08:06:28
00013 suncat0145 pw.x -npool 4 -i  Done                     04/23/2018 08:06:28
00014 suncat0145 pw.x -npool 4 -i  Done                     04/23/2018 08:06:28
00015 suncat0145 pw.x -npool 4 -i  Done                     04/23/2018 08:06:28
00016 suncat0138 pw.x -npool 4 -i  Done                     04/23/2018 08:06:28
00017 suncat0138 pw.x -npool 4 -i  Done                     04/23/2018 08:06:28
00018 suncat0138 pw.x -npool 4 -i  Done                     04/23/2018 08:06:28
00019 suncat0138 pw.x -npool 4 -i  Done                     04/23/2018 08:06:28
00020 suncat0138 pw.x -npool 4 -i  Done                     04/23/2018 08:06:28
00021 suncat0138 pw.x -npool 4 -i  Done                     04/23/2018 08:06:28
00022 suncat0138 pw.x -npool 4 -i  Done                     04/23/2018 08:06:28
00023 suncat0138 pw.x -npool 4 -i  Done                     04/23/2018 08:06:28
00024 suncat0273 pw.x -npool 4 -i  Done                     04/23/2018 08:06:28
00025 suncat0273 pw.x -npool 4 -i  Done                     04/23/2018 08:06:28
00026 suncat0273 pw.x -npool 4 -i  Done                     04/23/2018 08:06:28
00027 suncat0273 pw.x -npool 4 -i  Done                     04/23/2018 08:06:28
00028 suncat0273 pw.x -npool 4 -i  Done                     04/23/2018 08:06:28
00029 suncat0273 pw.x -npool 4 -i  Done                     04/23/2018 08:06:28
00030 suncat0273 pw.x -npool 4 -i  Done                     04/23/2018 08:06:28
00031 suncat0273 pw.x -npool 4 -i  Done                     04/23/2018 08:06:28