     Program PWSCF v.5.1rc2 (svn rev. 11289) starts on 23Apr2018 at 12:32:25

     Current dimensions of program PWSCF are:
     Max number of different atomic species (ntypx) = 10
     Max number of k-points (npk) =  40000
     Max angular momentum in pseudopotentials (lmaxx) =  3
     Presently stress not available with electric field

     IMPORTANT: XC functional enforced from input :
     Exchange-correlation      = BEEF-VDW ( 1  4 27 13 2)
     Any further DFT definition will be discarded
     Please, verify this is what you really want

     Subspace diagonalization in iterative solution of the eigenvalue problem:
     a serial algorithm will be used

     bravais-lattice index     =            0
     lattice parameter (alat)  =       1.8897  a.u.
     unit-cell volume          =    4301.6107 (a.u.)^3
     number of atoms/cell      =           14
     number of atomic types    =            3
     number of electrons       =       187.00
     number of Kohn-Sham states=          103
     kinetic-energy cutoff     =      36.7493  Ry
     charge density cutoff     =     367.4932  Ry
     convergence threshold     =      1.0E-05
     mixing beta               =       0.3000
     number of iterations used =           10  plain     mixing
     Exchange-correlation      = BEEF-VDW ( 1  4 27 13 2)
     nstep                     =           50

     celldm(1)=   1.889726  celldm(2)=   0.000000  celldm(3)=   0.000000
     celldm(4)=   0.000000  celldm(5)=   0.000000  celldm(6)=   0.000000

     crystal axes: (cart. coord. in units of alat)
               a(1) = (   5.483647   0.000000   0.000000 )
               a(2) = (   2.741823   4.748977   0.000000 )
               a(3) = (   0.000000   0.000000  24.477379 )

     reciprocal axes: (cart. coord. in units 2 pi/alat)
               b(1) = (  0.182360 -0.105286  0.000000 )
               b(2) = (  0.000000  0.210572  0.000000 )
               b(3) = (  0.000000  0.000000  0.040854 )

     PseudoPot. # 1 for Tc read from file:
     /u/if/mamunm/psp/gbrv1.5pbe/Tc.UPF
     MD5 check sum: 9eb49e5b028550b2339a02317eb7b844
     Pseudo is Ultrasoft + core correction, Zval = 15.0
     Generated by new atomic code, or converted to UPF format
     Using radial grid of  965 points,  6 beta functions with:
                l(1) =   0
                l(2) =   0
                l(3) =   1
                l(4) =   1
                l(5) =   2
                l(6) =   2
     Q(r) pseudized with  8 coefficients,  rinner =    1.300   1.300   1.300
                                                       1.300   1.300

     PseudoPot. # 2 for O  read from file:
     /u/if/mamunm/psp/gbrv1.5pbe/O.UPF
     MD5 check sum: 734c27235a0248c51dbae37a1fbe46ec
     Pseudo is Ultrasoft + core correction, Zval =  6.0
     Generated by new atomic code, or converted to UPF format
     Using radial grid of  737 points,  5 beta functions with:
                l(1) =   0
                l(2) =   0
                l(3) =   1
                l(4) =   1
                l(5) =   2
     Q(r) pseudized with  8 coefficients,  rinner =    0.900   0.900   0.900
                                                       0.900   0.900

     PseudoPot. # 3 for H  read from file:
     /u/if/mamunm/psp/gbrv1.5pbe/H.UPF
     MD5 check sum: 761ae9a214b05c3daf00ab9f6b793d6f
     Pseudo is Ultrasoft, Zval =  1.0
     Generated by new atomic code, or converted to UPF format
     Using radial grid of  615 points,  2 beta functions with:
                l(1) =   0
                l(2) =   0
     Q(r) pseudized with  8 coefficients,  rinner =    0.700

     vdW kernel table read from file vdW_kernel_table
     MD5 check sum: 095c7af220d748ca6e76c0b4c6cfb241

     atomic species   valence    mass     pseudopotential
        Tc1           15.00    97.90721     Tc( 1.00)
        O1             6.00    15.99900     O ( 1.00)
        H1             1.00     1.00800     H ( 1.00)

     No symmetry found

   Cartesian axes

     site n.     atom                  positions (alat units)
         1           Tc1 tau(   1) = (   1.3709117   0.7914962  10.0000000  )
         2           Tc1 tau(   2) = (   4.1127351   0.7914962  10.0000000  )
         3           Tc1 tau(   3) = (   2.7418234   3.1659850  10.0000000  )
         4           Tc1 tau(   4) = (   5.4836469   3.1659850  10.0000000  )
         5           Tc1 tau(   5) = (   5.4836469   1.5829925  12.2386895  )
         6           Tc1 tau(   6) = (   2.7418234   1.5829925  12.2386895  )
         7           Tc1 tau(   7) = (   6.8545586   3.9574812  12.2386895  )
         8           Tc1 tau(   8) = (   4.1127351   3.9574812  12.2386895  )
         9           Tc1 tau(   9) = (   0.0000000   0.0000000  14.4773789  )
        10           Tc1 tau(  10) = (   2.7418234   0.0000000  14.4773789  )
        11           Tc1 tau(  11) = (   1.3709117   2.3744887  14.4773789  )
        12           Tc1 tau(  12) = (   4.1127351   2.3744887  14.4773789  )
        13           O1  tau(  13) = (   0.0000000   0.0000000  16.2878789  )
        14           H1  tau(  14) = (   0.0000000   0.0000000  17.2378789  )

     number of k points=    20  Fermi-Dirac smearing, width (Ry)=  0.0110
                       cart. coord. in units 2pi/alat
        k(    1) = (   0.0000000   0.0000000   0.0000000), wk =   0.0555556
        k(    2) = (   0.0000000   0.0350953   0.0000000), wk =   0.1111111
        k(    3) = (   0.0000000   0.0701905   0.0000000), wk =   0.1111111
        k(    4) = (   0.0000000  -0.1052858   0.0000000), wk =   0.0555556
        k(    5) = (   0.0303934  -0.0175476   0.0000000), wk =   0.1111111
        k(    6) = (   0.0303934   0.0175476   0.0000000), wk =   0.1111111
        k(    7) = (   0.0303934   0.0526429   0.0000000), wk =   0.1111111
        k(    8) = (   0.0303934  -0.1228335   0.0000000), wk =   0.1111111
        k(    9) = (   0.0303934  -0.0877382   0.0000000), wk =   0.1111111
        k(   10) = (   0.0303934  -0.0526429   0.0000000), wk =   0.1111111
        k(   11) = (   0.0607868  -0.0350953   0.0000000), wk =   0.1111111
        k(   12) = (   0.0607868   0.0000000   0.0000000), wk =   0.1111111
        k(   13) = (   0.0607868   0.0350953   0.0000000), wk =   0.1111111
        k(   14) = (   0.0607868  -0.1403811   0.0000000), wk =   0.1111111
        k(   15) = (   0.0607868  -0.1052858   0.0000000), wk =   0.1111111
        k(   16) = (   0.0607868  -0.0701905   0.0000000), wk =   0.1111111
        k(   17) = (  -0.0911802   0.0526429   0.0000000), wk =   0.0555556
        k(   18) = (  -0.0911802   0.0877382   0.0000000), wk =   0.1111111
        k(   19) = (  -0.0911802   0.1228335   0.0000000), wk =   0.1111111
        k(   20) = (  -0.0911802  -0.0526429   0.0000000), wk =   0.0555556

     Largest allocated arrays     est. size (Mb)     dimensions
     Largest temporary arrays     est. size (Mb)     dimensions

     Check: negative/imaginary core charge=   -0.000022    0.000000

     Initial potential from superposition of free atoms
     Check: negative starting charge=   -1.504963

     starting charge  174.99966, renormalised to  187.00000

     negative rho (up, down):  1.608E+00 0.000E+00

     *
     * You are using vdW-DF for exchange-correlation in this calculation.
     * Please cite the following three references that made this development
     * possible:
     *
     *   M. Dion, H. Rydberg, E. Schroder, D. C. Langreth, and
     *   B. I. Lundqvist, Phys. Rev. Lett. 92, 246401 (2004).
     *
     *   T. Thonhauser, V. R. Cooper, S. Li, A. Puzder, P. Hyldgaard, and
     *   D. C. Langreth, Phys. Rev. B 76, 125112 (2007).
     *
     *   G. Roman-Perez and J. M. Soler, Phys. Rev. Lett. 103, 096102 (2009).
     *
     *
     * If you are using vdW-DF2, please also cite:
     *
     *   K. Lee, E. D. Murray, L. Kong, B. I. Lundqvist, and
     *   D. C. Langreth, Phys. Rev. B 82, 081101(R) (2010).
     *
     *
     * If you are calculating the stress with vdW-DF, please also cite:
     *
     *   R. Sabatini, E. Kucukbenli, B. Kolb, T. Thonhauser, and
     *   S. de Gironcoli, J. Phys.: Condens. Matter 24, 424209 (2012).
     *

     Carrying out vdW-DF run using the following parameters:

     Nqs =      20    Nr_points =    1024   r_max =   100.000
     q_mesh =
               0.00001000     0.04494208     0.09755937     0.15916263
               0.23128650     0.31572767     0.41458969     0.53033537
               0.66584808     0.82450364     1.01025438     1.22772762
               1.48234092     1.78043706     2.12944203     2.53805004
               3.01644009     3.57652955     4.23227104     5.00000000

     Gradients computed in reciprocal space

     Adding external electric field

     Computed dipole along edir(3) :
        Dipole               -3.7960 Ry au,         -9.6485 Debye
        Dipole field         -0.0111 Ry au

        Potential amp.        1.0002 Ry
        Total length         45.0992 bohr

     Starting wfc are  161 randomized atomic wfcs

     Self-consistent Calculation

     iteration #  1     ecut=    36.75 Ry     beta=0.30
     Davidson diagonalization with overlap
     ethr =  1.00E-02,  avg # of iterations =  7.8

[...]

     total energy              =   -1805.24115327 Ry
     Harris-Foulkes estimate   =   -2129.02458857 Ry
     estimated scf accuracy    <     680.99735043 Ry

[...]

     End of self-consistent calculation

          k = 0.0000 0.0000 0.0000 ( 16073 PWs)   bands (ev):

   -64.4504 -64.1160 -63.9821 -63.9602 -63.9600 -63.8733 -63.7808 -63.7552
   -63.7466 -63.7455 -63.6911 -63.6893 -36.9298 -36.5871 -36.5869 -36.5182
   -36.5181 -36.5070 -36.3830 -36.3017 -36.2959 -36.2955 -36.2140 -35.9280
   -35.9279 -35.8953 -35.8546 -35.8259 -35.8255 -35.8255 -35.7649 -35.7641
   -35.7139 -35.6940 -35.6937 -35.6225 -35.6216 -35.5886 -35.5885 -35.5756
   -35.5448 -35.5380 -35.5376 -35.5058 -35.3626 -35.3619 -35.3390 -35.3389
   -17.5223  -6.2275  -3.3171  -2.3185  -2.3183  -2.0665  -2.0195  -1.9278
    -1.8399  -1.8398  -1.6185  -1.6184  -1.5350  -1.4048  -1.2029  -1.2028
    -1.1006  -1.1004  -1.0839   0.1109   0.4625   0.4627   0.9309   1.0735
     1.0737   1.1979   1.4583   1.4735   1.4735   1.7628   1.7628   1.8843
     1.8849   1.8850   2.0122   2.0122   2.4376   2.4382   2.5620   3.2487
     3.4579   3.4581   3.5283   3.5863   3.8209   3.8211   3.8921   3.8921
     4.1118   4.3418   4.3418   4.8859   4.8864   5.1177   5.1761

[...]

          k =-0.0912 0.0526 0.0000 ( 16164 PWs)   bands (ev):

[...]

     the Fermi energy is     3.1660 ev

!    total energy              =   -2137.09898984 Ry
     Harris-Foulkes estimate   =   -2137.09899986 Ry
     estimated scf accuracy    <       0.00000535 Ry

     The total energy is the sum of the following terms:

     one-electron contribution =  -19130.86278423 Ry
     hartree contribution      =    9571.29165862 Ry
     xc contribution           =    -405.40568850 Ry
     ewald contribution        =    7827.97097914 Ry
     electric field correction =       0.00056601 Ry
     smearing contrib. (-TS)   =      -0.09372087 Ry

     convergence has been achieved in  30 iterations

 BEEF-vdW xc energy contributions
           1 :   -355.034527455049
           2 :    326.104143770471
           3 :   -274.818241055279
           4 :    211.635849537442
           5 :   -147.545574766378
           6 :    91.0671358312366
           7 :   -46.6740033896490
           8 :    14.7462426345678
           9 :    7.13338792321957
          10 :   -22.3210971782354
          11 :    33.4331136959137
          12 :   -41.4897766016172
          13 :    45.9966160274193
          14 :   -45.7621447381597
          15 :    39.9407050448833
          16 :   -28.8387628458175
          17 :    14.1526299855421
          18 :    1.40608492082436
          19 :   -14.9236818184307
          20 :    24.1555808980352
          21 :   -28.1081800716998
          22 :    27.1104924501035
          23 :   -22.4240047265748
          24 :    15.6154486284101
          25 :   -8.00451170013133
          26 :   0.398665218244730
          27 :    6.83032776521338
          28 :   -13.4565353691332
          29 :    19.1098652240603
          30 :   -23.1686967640481
          31 :   -33.8827604902721
          32 :   -24.8024990095441

     Forces acting on atoms (Ry/au):

     negative rho (up, down):  1.589E+00 0.000E+00
     atom    1 type  1   force =     0.00130389    0.00074534    0.02823261
     atom    2 type  1   force =    -0.00129672    0.00074164    0.02826165
     atom    3 type  1   force =     0.00000824   -0.00149128    0.02822930
     atom    4 type  1   force =    -0.00001116    0.00000954    0.03044977
     atom    5 type  1   force =     0.00004357    0.00180234    0.00139269
     atom    6 type  1   force =    -0.00004370   -0.00003546   -0.01266940
     atom    7 type  1   force =    -0.00160060   -0.00092522    0.00151075
     atom    8 type  1   force =     0.00159171   -0.00083639    0.00136661
     atom    9 type  1   force =     0.00000678   -0.00000289   -0.08363392
     atom   10 type  1   force =     0.00000291   -0.00747168   -0.04931185
     atom   11 type  1   force =    -0.00646284    0.00373665   -0.04926299
     atom   12 type  1   force =     0.00645806    0.00373606   -0.04924039
     atom   13 type  2   force =    -0.00000140   -0.00000689    0.08407092
     atom   14 type  3   force =     0.00000127   -0.00000177    0.04060425

     Total force =     0.152189     Total SCF correction =     0.007576

     entering subroutine stress ...

     negative rho (up, down):  1.589E+00 0.000E+00
          total   stress  (Ry/bohr**3)                   (kbar)     P=  -25.13
  -0.00020093  -0.00000004   0.00000003        -29.56     -0.01      0.00
  -0.00000004  -0.00020085   0.00000000         -0.01    -29.55      0.00
   0.00000003   0.00000000  -0.00011079          0.00      0.00    -16.30

     BFGS Geometry Optimization

     number of scf cycles    =   1
     number of bfgs steps    =   0

     energy   new            =   -2137.0989898418 Ry

     new trust radius        =       0.0840709234 bohr
     new conv_thr            =       0.0000099958 Ry

ATOMIC_POSITIONS (crystal)
Tc1      0.166666667   0.166666667   0.408540475    0   0   0
Tc1      0.666666667   0.166666667   0.408540475    0   0   0
Tc1      0.166666667   0.666666667   0.408540475    0   0   0
Tc1      0.666666667   0.666666667   0.408540475    0   0   0
Tc1      0.833333333   0.333333333   0.500000000    0   0   0
Tc1      0.333333333   0.333333333   0.500000000    0   0   0
Tc1      0.833333333   0.833333333   0.500000000    0   0   0
Tc1      0.333333333   0.833333333   0.500000000    0   0   0
Tc1      0.000000815  -0.000000322   0.589651441
Tc1      0.500416564  -0.000832567   0.590393451
Tc1     -0.000831858   0.500416374   0.590394507
Tc1      0.500415055   0.500416308   0.590394996
O1       0.000000249  -0.000000768   0.667243310
H1       0.000000222  -0.000000198   0.705114948

     Writing output data file calc.save
     Check: negative starting charge=   -1.504963
     NEW-OLD atomic charge density approx. for the potential

     Check: negative/imaginary core charge=   -0.000022    0.000000
     Check: negative starting charge=   -1.512628

[...]

     energy   old            =   -2137.0989898418 Ry
     energy   new            =   -2137.1134392770 Ry

     CASE: energy  _new < energy  _old

[...]

     iteration #  1     ecut=    36.75 Ry     beta=0.30
     Davidson diagonalization with overlap
     c_bands:  1 eigenvalues not converged
     ethr =  1.00E-06,  avg # of iterations = 12.9

[...]

     iteration #  1     ecut=    36.75 Ry     beta=0.30
     Davidson diagonalization with overlap
     c_bands:  1 eigenvalues not converged
     ethr =  1.00E-06,  avg # of iterations = 11.4

[...]

     Total force =     0.009319     Total SCF correction =     0.001747
     SCF correction compared to forces is large: reduce conv_thr to get better values

[...]

     Total force =     0.004584     Total SCF correction =     0.000168

[...]

     Threshold (ethr) on eigenvalues was too large:
     Diagonalizing with lowered threshold

     Davidson diagonalization with overlap
     ethr =  6.29E-08,  avg # of iterations =  1.9

[...]

     number of scf cycles    =  17
     number of bfgs steps    =  16

     energy   old            =   -2137.1426074167 Ry
     energy   new            =   -2137.1426241037 Ry

     CASE: energy  _new < energy  _old

     new trust radius        =       0.0108190274 bohr
     new conv_thr            =       0.0000001000 Ry

ATOMIC_POSITIONS (crystal)
Tc1      0.166666667   0.166666667   0.408540475    0   0   0
Tc1      0.666666667   0.166666667   0.408540475    0   0   0
Tc1      0.166666667   0.666666667   0.408540475    0   0   0
Tc1      0.666666667   0.666666667   0.408540475    0   0   0
Tc1      0.833333333   0.333333333   0.500000000    0   0   0
Tc1      0.333333333   0.333333333   0.500000000    0   0   0
Tc1      0.833333333   0.833333333   0.500000000    0   0   0
Tc1      0.333333333   0.833333333   0.500000000    0   0   0
Tc1     -0.000000957   0.000001960   0.604380973
Tc1      0.502228671  -0.004459292   0.585660061
Tc1     -0.004456200   0.502228437   0.585660616
Tc1      0.502228261   0.502227981   0.585660456
O1       0.000001576  -0.000011755   0.681548792
H1       0.000000723   0.000007745   0.721041176

     Writing output data file calc.save
     Check: negative starting charge=   -1.505565
     NEW-OLD atomic charge density approx. for the potential

     Check: negative/imaginary core charge=   -0.000022    0.000000
     Check: negative starting charge=   -1.505626

[...]

     Self-consistent Calculation

[...]

     total energy              =   -2137.14263222 Ry
     Harris-Foulkes estimate   =   -2137.14263284 Ry
     estimated scf accuracy    <       0.00000054 Ry

     iteration # 12     ecut=    36.75 Ry     beta=0.30
     Davidson diagonalization with overlap
     ethr =  2.87E-10,  avg # of iterations =  2.0

[...]

     negative rho (up, down):  1.589E+00 0.000E+00

     Adding external electric field

     Computed dipole along edir(3) :
        Dipole                0.4216 Ry au,          1.0716 Debye
        Dipole field          0.0012 Ry au

        Potential amp.       -0.1111 Ry
        Total length         45.0992 bohr

     End of self-consistent calculation

[...]

          k = 0.0608-0.0702 0.0000 ( 16203 PWs)   bands (ev):

[...]

          k =-0.0912-0.0526 0.0000 ( 16164 PWs)   bands (ev):

   -64.4651 -64.1467 -64.1322 -64.0689 -64.0407 -63.8775 -63.8662 -63.8521
   -63.8275 -63.8134 -63.8020 -63.7740 -36.8119 -36.5306 -36.5122 -36.4561
   -36.4491 -36.3830 -36.3623 -36.2993 -36.2923 -36.2411 -36.2200 -36.1797
   -36.1322 -36.1029 -35.9862 -35.9132 -35.8774 -35.8658 -35.8524 -35.8466
   -35.8428 -35.8158 -35.8114 -35.8015 -35.7836 -35.7508 -35.7458 -35.7433
   -35.6844 -35.6825 -35.6364 -35.6037 -35.5726 -35.5161 -35.4879 -35.4760
   -17.0950  -5.6935  -1.8709  -1.8561  -1.4217  -1.4194  -1.3047  -1.2150
    -1.0930  -1.0656  -0.9322  -0.7194  -0.6478  -0.6108  -0.4835  -0.4240
    -0.2864  -0.2012  -0.1815   0.0363   0.2798   0.3215   0.3911   0.5697
     0.6298   0.7471   0.9061   1.1562   1.1851   1.2979   1.5464   1.6101
     1.6101   1.6622   1.7387   1.8055   1.8688   1.9034   1.9232   2.0227
     2.0418   2.1333   2.5463   2.8482   2.8891   2.9794   3.0882   3.1306
     3.2341   3.4444   3.5033   3.5847   3.6177   3.7386   3.7889

     the Fermi energy is     3.0914 ev

!    total energy              =   -2137.14263220 Ry
     Harris-Foulkes estimate   =   -2137.14262926 Ry
     estimated scf accuracy    <       0.00000005 Ry

     The total energy is the sum of the following terms:

     one-electron contribution =  -19026.80468633 Ry
     hartree contribution      =    9518.81157120 Ry
     xc contribution           =    -405.40630926 Ry
     ewald contribution        =    7776.34766719 Ry
     electric field correction =       0.00051928 Ry
     smearing contrib. (-TS)   =      -0.09139429 Ry

     convergence has been achieved in  12 iterations

 BEEF-vdW xc energy contributions
           1 :   -355.031857358116
           2 :    326.077397490253
           3 :   -274.784034341385
           4 :    211.623262599273
           5 :   -147.555843489909
           6 :    91.0745333456065
           7 :   -46.6439537552464
           8 :    14.6535827804789
           9 :    7.29088832218798
          10 :   -22.5176087886459
          11 :    33.6217021114001
          12 :   -41.6197156739212
          13 :    46.0403507126512
          14 :   -45.7367895624474
          15 :    39.9052479567544
          16 :   -28.8667576066789
          17 :    14.2907149093560
          18 :    1.17240621992499
          19 :   -14.6737705356236
          20 :    24.0001375088626
          21 :   -28.1302122126545
          22 :    27.3139561480212
          23 :   -22.7214975979296
          24 :    15.8671651259333
          25 :   -8.08546156630780
          26 :   0.260634348262840
          27 :    7.13217492545334
          28 :   -13.7896698631842
          29 :    19.3284112622855
          30 :   -23.1817485324630
          31 :   -33.8823595452890
          32 :   -24.7960522330441

     Forces acting on atoms (Ry/au):

     negative rho (up, down):  1.589E+00 0.000E+00
     atom    1 type  1   force =     0.00317372    0.00183249    0.02444734
     atom    2 type  1   force =    -0.00317381    0.00183275    0.02444926
     atom    3 type  1   force =    -0.00000029   -0.00366562    0.02444815
     atom    4 type  1   force =     0.00000034   -0.00000040    0.02584027
     atom    5 type  1   force =    -0.00000555    0.00387083   -0.01862150
     atom    6 type  1   force =     0.00000605   -0.00000126   -0.04301578
     atom    7 type  1   force =    -0.00335282   -0.00193158   -0.01862673
     atom    8 type  1   force =     0.00335293   -0.00193825   -0.01861894
     atom    9 type  1   force =     0.00000065    0.00000004    0.00021974
     atom   10 type  1   force =     0.00000101    0.00002086   -0.00010348
     atom   11 type  1   force =     0.00001321   -0.00000905   -0.00011560
     atom   12 type  1   force =    -0.00001589   -0.00001139   -0.00010679
     atom   13 type  2   force =    -0.00000142   -0.00000277   -0.00086502
     atom   14 type  3   force =     0.00000189    0.00000336    0.00066909

     Total force =     0.001132     Total SCF correction =     0.001445
     SCF correction compared to forces is large: reduce conv_thr to get better values

     entering subroutine stress ...

     negative rho (up, down):  1.589E+00 0.000E+00
          total   stress  (Ry/bohr**3)                   (kbar)     P=  -27.21
  -0.00022026   0.00000000   0.00000000        -32.40      0.00      0.00
   0.00000000  -0.00022026   0.00000000          0.00    -32.40      0.00
   0.00000000   0.00000000  -0.00011443          0.00      0.00    -16.83

     bfgs converged in  18 scf cycles and  17 bfgs steps
     (criteria: energy <  1.0E+00, force <  1.9E-03)

     End of BFGS Geometry Optimization

     Final energy   =   -2137.1426322000 Ry
Begin final coordinates

ATOMIC_POSITIONS (crystal)
Tc1      0.166666667   0.166666667   0.408540475    0   0   0
Tc1      0.666666667   0.166666667   0.408540475    0   0   0
Tc1      0.166666667   0.666666667   0.408540475    0   0   0
Tc1      0.666666667   0.666666667   0.408540475    0   0   0
Tc1      0.833333333   0.333333333   0.500000000    0   0   0
Tc1      0.333333333   0.333333333   0.500000000    0   0   0
Tc1      0.833333333   0.833333333   0.500000000    0   0   0
Tc1      0.333333333   0.833333333   0.500000000    0   0   0
Tc1     -0.000000957   0.000001960   0.604380973
Tc1      0.502228671  -0.004459292   0.585660061
Tc1     -0.004456200   0.502228437   0.585660616
Tc1      0.502228261   0.502227981   0.585660456
O1       0.000001576  -0.000011755   0.681548792
H1       0.000000723   0.000007745   0.721041176
End final coordinates

     Writing output data file calc.save

     General routines

     Parallel routines

   This run was terminated on:  14:28:19  23Apr2018

   JOB DONE.
Job  /afs/slac/g/suncat/bin/suncat-tsmpirun -x LD_LIBRARY_PATH -wdir /scratch/qe313787_LgLq4 pw.x -npool 3 -in pw.inp

TID   HOST_NAME   COMMAND_LINE            STATUS            TERMINATION_TIME
00000 suncat1049 pw.x -npool 3 -i  Done                     04/23/2018 14:28:19
00001 suncat1049 pw.x -npool 3 -i  Done                     04/23/2018 14:28:19
00002 suncat1049 pw.x -npool 3 -i  Done                     04/23/2018 14:28:19
00003 suncat1049 pw.x -npool 3 -i  Done                     04/23/2018 14:28:19
00004 suncat1049 pw.x -npool 3 -i  Done                     04/23/2018 14:28:19
00005 suncat1049 pw.x -npool 3 -i  Done                     04/23/2018 14:28:19
00006 suncat1049 pw.x -npool 3 -i  Done                     04/23/2018 14:28:19
00007 suncat1049 pw.x -npool 3 -i  Done                     04/23/2018 14:28:19
00008 suncat1049 pw.x -npool 3 -i  Done                     04/23/2018 14:28:19
00009 suncat1049 pw.x -npool 3 -i  Done                     04/23/2018 14:28:19
00010 suncat1049 pw.x -npool 3 -i  Done                     04/23/2018 14:28:19
00011 suncat1049 pw.x -npool 3 -i  Done                     04/23/2018 14:28:19
00012 suncat1040 pw.x -npool 3 -i  Done                     04/23/2018 14:28:19
00013 suncat1040 pw.x -npool 3 -i  Done                     04/23/2018 14:28:19
00014 suncat1040 pw.x -npool 3 -i  Done                     04/23/2018 14:28:19
00015 suncat1040 pw.x -npool 3 -i  Done                     04/23/2018 14:28:19
00016 suncat1040 pw.x -npool 3 -i  Done                     04/23/2018 14:28:19
00017 suncat1040 pw.x -npool 3 -i  Done                     04/23/2018 14:28:19
00018 suncat1040 pw.x -npool 3 -i  Done                     04/23/2018 14:28:19
00019 suncat1040 pw.x -npool 3 -i  Done                     04/23/2018 14:28:19
00020 suncat1040 pw.x -npool 3 -i  Done                     04/23/2018 14:28:19
00021 suncat1040 pw.x -npool 3 -i  Done                     04/23/2018 14:28:19
00022 suncat1040 pw.x -npool 3 -i  Done                     04/23/2018 14:28:19
00023 suncat1040 pw.x -npool 3 -i  Done                     04/23/2018 14:28:19
00024 suncat1028 pw.x -npool 3 -i  Done                     04/23/2018 14:28:19
00025 suncat1028 pw.x -npool 3 -i  Done                     04/23/2018 14:28:19
00026 suncat1028 pw.x -npool 3 -i  Done                     04/23/2018 14:28:19
00027 suncat1028 pw.x -npool 3 -i  Done                     04/23/2018 14:28:19
00028 suncat1028 pw.x -npool 3 -i  Done                     04/23/2018 14:28:19
00029 suncat1028 pw.x -npool 3 -i  Done                     04/23/2018 14:28:19
00030 suncat1028 pw.x -npool 3 -i  Done                     04/23/2018 14:28:19
00031 suncat1028 pw.x -npool 3 -i  Done                     04/23/2018 14:28:19
00032 suncat1028 pw.x -npool 3 -i  Done                     04/23/2018 14:28:19
00033 suncat1028 pw.x -npool 3 -i  Done                     04/23/2018 14:28:19
00034 suncat1028 pw.x -npool 3 -i  Done                     04/23/2018 14:28:19
00035 suncat1028 pw.x -npool 3 -i  Done                     04/23/2018 14:28:19