     Program PWSCF v.5.1rc2 (svn rev. 11289) starts on 20Jan2018 at 16:23:46

     Current dimensions of program PWSCF are:
     Max number of different atomic species (ntypx) = 10
     Max number of k-points (npk) =  40000
     Max angular momentum in pseudopotentials (lmaxx) =  3
     Presently stress not available with electric field

     IMPORTANT: XC functional enforced from input :
     Exchange-correlation      = BEEF-VDW ( 1  4 27 13 2)
     Any further DFT definition will be discarded
     Please, verify this is what you really want

     Subspace diagonalization in iterative solution of the eigenvalue problem:
     a serial algorithm will be used

     bravais-lattice index     =            0
     lattice parameter (alat)  =       1.8897  a.u.
     unit-cell volume          =    4198.3539 (a.u.)^3
     number of atoms/cell      =           13
     number of atomic types    =            2
     number of electrons       =       196.00
     number of Kohn-Sham states=          108
     kinetic-energy cutoff     =      36.7493  Ry
     charge density cutoff     =     367.4932  Ry
     convergence threshold     =      1.0E-05
     mixing beta               =       0.3000
     number of iterations used =           10  plain     mixing
     Exchange-correlation      = BEEF-VDW ( 1  4 27 13 2)
     nstep                     =           50

     celldm(1)=   1.889726  celldm(2)=   0.000000  celldm(3)=   0.000000
     celldm(4)=   0.000000  celldm(5)=   0.000000  celldm(6)=   0.000000

     crystal axes: (cart. coord. in units of alat)
               a(1) = (   5.422927   0.000000   0.000000 )
               a(2) = (   2.711463   4.696392   0.000000 )
               a(3) = (   0.000000   0.000000  24.427801 )

     reciprocal axes: (cart. coord. in units 2 pi/alat)
               b(1) = (  0.184402 -0.106465  0.000000 )
               b(2) = (  0.000000  0.212929  0.000000 )
               b(3) = (  0.000000  0.000000  0.040937 )

     PseudoPot. # 1 for Ru read from file:
     /afs/slac.stanford.edu/u/if/mamunm/psp/gbrv1.5pbe/Ru.UPF
     MD5 check sum: 7158a806dd851261a58e6920c40ebe78
     Pseudo is Ultrasoft + core correction, Zval = 16.0
     Generated by new atomic code, or converted to UPF format
     Using radial grid of  967 points,  6 beta functions with:
                l(1) =   0
                l(2) =   0
                l(3) =   1
                l(4) =   1
                l(5) =   2
                l(6) =   2
     Q(r) pseudized with  8 coefficients,  rinner =    1.300   1.300   1.300
                                                       1.300   1.300

     PseudoPot. # 2 for C  read from file:
     /afs/slac.stanford.edu/u/if/mamunm/psp/gbrv1.5pbe/C.UPF
     MD5 check sum: d1aef80898a10debaa0f26306b886e00
     Pseudo is Ultrasoft + core correction, Zval =  4.0
     Generated by new atomic code, or converted to UPF format
     Using radial grid of  721 points,  4 beta functions with:
                l(1) =   0
                l(2) =   0
                l(3) =   1
                l(4) =   1
     Q(r) pseudized with  8 coefficients,  rinner =    1.100   1.100   1.100

     vdW kernel table read from file vdW_kernel_table
     MD5 check sum: 095c7af220d748ca6e76c0b4c6cfb241

     atomic species   valence    mass     pseudopotential
        Ru1           16.00   101.07000     Ru( 1.00)
        C1             4.00    12.01100     C ( 1.00)

     No symmetry found

   Cartesian axes

     site n.     atom                  positions (alat units)
         1           Ru1 tau(   1) = (   1.3557316   0.7827320  10.0000000  )
         2           Ru1 tau(   2) = (   4.0671949   0.7827320  10.0000000  )
         3           Ru1 tau(   3) = (   2.7114633   3.1309281  10.0000000  )
         4           Ru1 tau(   4) = (   5.4229265   3.1309281  10.0000000  )
         5           Ru1 tau(   5) = (   5.4229265   1.5654640  12.2139005  )
         6           Ru1 tau(   6) = (   2.7114633   1.5654640  12.2139005  )
         7           Ru1 tau(   7) = (   6.7786581   3.9136601  12.2139005  )
         8           Ru1 tau(   8) = (   4.0671949   3.9136601  12.2139005  )
         9           Ru1 tau(   9) = (   5.3477660   0.1279667  14.3811605  )
        10           Ru1 tau(  10) = (   2.7861737   0.1278527  14.3815965  )
        11           Ru1 tau(  11) = (   6.7786609   2.4316239  14.2965855  )
        12           Ru1 tau(  12) = (   4.0672519   2.4085105  14.4322775  )
        13           C1  tau(  13) = (   4.0675506   4.0203430  15.4190778  )

     number of k points=    20  Fermi-Dirac smearing, width (Ry)=  0.0110
                       cart. coord. in units 2pi/alat
        k(    1) = (   0.0000000   0.0000000   0.0000000), wk =   0.0555556
        k(    2) = (   0.0000000   0.0354882   0.0000000), wk =   0.1111111
        k(    3) = (   0.0000000   0.0709765   0.0000000), wk =   0.1111111
        k(    4) = (   0.0000000  -0.1064647   0.0000000), wk =   0.0555556
        k(    5) = (   0.0307337  -0.0177441   0.0000000), wk =   0.1111111
        k(    6) = (   0.0307337   0.0177441   0.0000000), wk =   0.1111111
        k(    7) = (   0.0307337   0.0532324   0.0000000), wk =   0.1111111
        k(    8) = (   0.0307337  -0.1242088   0.0000000), wk =   0.1111111
        k(    9) = (   0.0307337  -0.0887206   0.0000000), wk =   0.1111111
        k(   10) = (   0.0307337  -0.0532324   0.0000000), wk =   0.1111111
        k(   11) = (   0.0614674  -0.0354882   0.0000000), wk =   0.1111111
        k(   12) = (   0.0614674   0.0000000   0.0000000), wk =   0.1111111
        k(   13) = (   0.0614674   0.0354882   0.0000000), wk =   0.1111111
        k(   14) = (   0.0614674  -0.1419529   0.0000000), wk =   0.1111111
        k(   15) = (   0.0614674  -0.1064647   0.0000000), wk =   0.1111111
        k(   16) = (   0.0614674  -0.0709765   0.0000000), wk =   0.1111111
        k(   17) = (  -0.0922011   0.0532324   0.0000000), wk =   0.0555556
        k(   18) = (  -0.0922011   0.0887206   0.0000000), wk =   0.1111111
        k(   19) = (  -0.0922011   0.1242088   0.0000000), wk =   0.1111111
        k(   20) = (  -0.0922011  -0.0532324   0.0000000), wk =   0.0555556

     Largest allocated arrays     est. size (Mb)     dimensions
     Largest temporary arrays     est. size (Mb)     dimensions

     Initial potential from superposition of free atoms
     Check: negative starting charge=   -0.882096

     starting charge  183.99977, renormalised to  196.00000

     negative rho (up, down):  9.396E-01 0.000E+00

     *
     * You are using vdW-DF for exchange-correlation in this calculation.
     * Please cite the following three references that made this development
     * possible:
     *
     *   M. Dion, H. Rydberg, E. Schroder, D. C. Langreth, and
     *   B. I. Lundqvist, Phys. Rev. Lett. 92, 246401 (2004).
     *
     *   T. Thonhauser, V. R. Cooper, S. Li, A. Puzder, P. Hyldgaard, and
     *   D. C. Langreth, Phys. Rev. B 76, 125112 (2007).
     *
     *   G. Roman-Perez and J. M. Soler, Phys. Rev. Lett. 103, 096102 (2009).
     *
     *
     * If you are using vdW-DF2, please also cite:
     *
     *   K. Lee, E. D. Murray, L. Kong, B. I. Lundqvist, and
     *   D. C. Langreth, Phys. Rev. B 82, 081101(R) (2010).
     *
     *
     * If you are calculating the stress with vdW-DF, please also cite:
     *
     *   R. Sabatini, E. Kucukbenli, B. Kolb, T. Thonhauser, and
     *   S. de Gironcoli, J. Phys.: Condens. Matter 24, 424209 (2012).
     *

     Carrying out vdW-DF run using the following parameters:

     Nqs =      20    Nr_points =    1024   r_max =   100.000
     q_mesh =
               0.00001000     0.04494208     0.09755937     0.15916263
               0.23128650     0.31572767     0.41458969     0.53033537
               0.66584808     0.82450364     1.01025438     1.22772762
               1.48234092     1.78043706     2.12944203     2.53805004
               3.01644009     3.57652955     4.23227104     5.00000000

     Gradients computed in reciprocal space

     Adding external electric field

     Computed dipole along edir(3) :
        Dipole               -1.5889 Ry au,         -4.0385 Debye
        Dipole field         -0.0048 Ry au

        Potential amp.        0.4281 Ry
        Total length         45.0078 bohr

     Starting wfc are  160 randomized atomic wfcs

     Self-consistent Calculation

     iteration #  1     ecut=    36.75 Ry     beta=0.30
     Davidson diagonalization with overlap
     ethr =  1.00E-02,  avg # of iterations =  4.2

[...]

     total energy              =   -2289.30533603 Ry
     Harris-Foulkes estimate   =   -2356.73443474 Ry
     estimated scf accuracy    <     141.59138427 Ry

[...]

     End of self-consistent calculation

          k = 0.0000 0.0000 0.0000 ( 15761 PWs)   bands (ev):

   -70.9958 -70.8990 -70.8790 -70.8691 -70.7551 -70.6666 -70.6639 -70.4889
   -70.4593 -70.4028 -70.3946 -70.3647 -41.3587 -41.2824 -41.2817 -41.2620
   -41.1430 -41.1084 -41.0830 -40.9240 -40.8400 -40.8270 -40.7281 -40.7249
   -40.7140 -40.6721 -40.6485 -40.6430 -40.6203 -40.5920 -40.5889 -40.5300
   -40.5209 -40.4447 -40.4424 -40.4016 -40.3846 -40.3205 -40.3087 -40.3044
   -40.2491 -40.2092 -40.2089 -40.2068 -40.1996 -40.1976 -40.0431 -40.0403
    -8.7847  -4.3981  -3.3923  -3.3420  -3.3368  -3.2593  -3.2562  -3.1324
    -3.0720  -2.9536  -2.8944  -2.8445  -2.6700  -2.3534  -2.3379  -2.2548
    -1.5745  -1.5600  -0.9329  -0.8129  -0.7983  -0.6805  -0.5374  -0.4859
    -0.2210  -0.1383  -0.1071   0.1937   0.2252   0.2484   0.3836   0.4327
     0.4544   0.6937   0.8004   0.9805   1.2120   1.2659   1.7974   1.8723
     1.8782   1.9594   2.0832   2.1336   2.4484   2.5206   2.7753   2.9285
     3.0109   3.1793   3.1851   3.2475   3.3439   3.3941   3.4654   3.6001
     3.7477   3.7827   3.8541   4.0071

[...]

          k =-0.0922 0.0532 0.0000 ( 15808 PWs)   bands (ev):

[...]

     the Fermi energy is     2.3436 ev

!    total energy              =   -2352.78528786 Ry
     Harris-Foulkes estimate   =   -2352.78529438 Ry
     estimated scf accuracy    <       0.00000390 Ry

     The total energy is the sum of the following terms:

     one-electron contribution =  -22537.14214199 Ry
     hartree contribution      =   11268.90859913 Ry
     xc contribution           =    -325.71757552 Ry
     ewald contribution        =    9241.25025977 Ry
     electric field correction =       0.00003102 Ry
     smearing contrib. (-TS)   =      -0.08446026 Ry

     convergence has been achieved in  23 iterations

 BEEF-vdW xc energy contributions
           1 :   -282.508272679367
           2 :    259.568753034387
           3 :   -219.762998497463
           4 :    172.819167540461
           5 :   -128.701907759514
           6 :    94.6103745130376
           7 :   -73.3238925126351
           8 :    63.2775833755859
           9 :   -60.0880863185257
          10 :    58.7551603773015
          11 :   -55.6157462135409
          12 :    49.3602550635295
          13 :   -40.9057239735454
          14 :    32.4075401006746
          15 :   -25.9785206705524
          16 :    22.6890530238331
          17 :   -22.2068323224142
          18 :    23.1228599163933
[...]
00031 suncat0272 pw.x -in pw.inp   Done                     01/20/2018 16:40:44

[...]

     Total force =     0.086659     Total SCF correction =     0.007819

[...]

   This run was terminated on:  18: 4:41  20Jan2018

[...]

     Program PWSCF v.5.1rc2 (svn rev. 11289) starts on 20Jan2018 at 18: 4:47

[...]

     Program PWSCF v.5.1rc2 (svn rev. 11289) starts on 20Jan2018 at 18:36:33

[...]

     Total force =     0.076965     Total SCF correction =     0.003016

[...]

   This run was terminated on:  18:54: 3  20Jan2018

[...]

     Program PWSCF v.5.1rc2 (svn rev. 11289) starts on 20Jan2018 at 18:54: 8

     Current dimensions of program PWSCF are:
     Max number of different atomic species (ntypx) = 10
     Max number of k-points (npk) =  40000
     Max angular momentum in pseudopotentials (lmaxx) =  3
     Presently stress not available with electric field

     IMPORTANT: XC functional enforced from input :
     Exchange-correlation      = BEEF-VDW ( 1  4 27 13 2)
     Any further DFT definition will be discarded
     Please, verify this is what you really want

     Subspace diagonalization in iterative solution of the eigenvalue problem:
     a serial algorithm will be used

     bravais-lattice index     =            0
     lattice parameter (alat)  =       1.8897  a.u.
     unit-cell volume          =    4198.3539 (a.u.)^3
     number of atoms/cell      =           13
     number of atomic types    =            2
     number of electrons       =       196.00
     number of Kohn-Sham states=          108
     kinetic-energy cutoff     =      36.7493  Ry
     charge density cutoff     =     367.4932  Ry
     convergence threshold     =      1.0E-05
     mixing beta               =       0.3000
     number of iterations used =           10  plain     mixing
     Exchange-correlation      = BEEF-VDW ( 1  4 27 13 2)
     nstep                     =           50

     celldm(1)=   1.889726  celldm(2)=   0.000000  celldm(3)=   0.000000
     celldm(4)=   0.000000  celldm(5)=   0.000000  celldm(6)=   0.000000

     crystal axes: (cart. coord. in units of alat)
               a(1) = (   5.422927   0.000000   0.000000 )
               a(2) = (   2.711463   4.696392   0.000000 )
               a(3) = (   0.000000   0.000000  24.427801 )

     reciprocal axes: (cart. coord. in units 2 pi/alat)
               b(1) = (  0.184402 -0.106465  0.000000 )
               b(2) = (  0.000000  0.212929  0.000000 )
               b(3) = (  0.000000  0.000000  0.040937 )

     PseudoPot. # 1 for Ru read from file:
     /afs/slac.stanford.edu/u/if/mamunm/psp/gbrv1.5pbe/Ru.UPF
     MD5 check sum: 7158a806dd851261a58e6920c40ebe78
     Pseudo is Ultrasoft + core correction, Zval = 16.0
     Generated by new atomic code, or converted to UPF format
     Using radial grid of  967 points,  6 beta functions with:
                l(1) =   0
                l(2) =   0
                l(3) =   1
                l(4) =   1
                l(5) =   2
                l(6) =   2
     Q(r) pseudized with  8 coefficients,  rinner =    1.300   1.300   1.300
                                                       1.300   1.300

     PseudoPot. # 2 for C  read from file:
     /afs/slac.stanford.edu/u/if/mamunm/psp/gbrv1.5pbe/C.UPF
     MD5 check sum: d1aef80898a10debaa0f26306b886e00
     Pseudo is Ultrasoft + core correction, Zval =  4.0
     Generated by new atomic code, or converted to UPF format
     Using radial grid of  721 points,  4 beta functions with:
                l(1) =   0
                l(2) =   0
                l(3) =   1
                l(4) =   1
     Q(r) pseudized with  8 coefficients,  rinner =    1.100   1.100   1.100

     vdW kernel table read from file vdW_kernel_table
     MD5 check sum: 095c7af220d748ca6e76c0b4c6cfb241

     atomic species   valence    mass     pseudopotential
        Ru1           16.00   101.07000     Ru( 1.00)
        C1             4.00    12.01100     C ( 1.00)

     No symmetry found

   Cartesian axes

     site n.     atom                  positions (alat units)
         1           Ru1 tau(   1) = (   1.3557316   0.7827320  10.0000000  )
         2           Ru1 tau(   2) = (   4.0671949   0.7827320  10.0000000  )
         3           Ru1 tau(   3) = (   2.7114633   3.1309281  10.0000000  )
         4           Ru1 tau(   4) = (   5.4229265   3.1309281  10.0000000  )
         5           Ru1 tau(   5) = (   5.4229265   1.5654640  12.2139005  )
         6           Ru1 tau(   6) = (   2.7114633   1.5654640  12.2139005  )
         7           Ru1 tau(   7) = (   6.7786581   3.9136601  12.2139005  )
         8           Ru1 tau(   8) = (   4.0671949   3.9136601  12.2139005  )
         9           Ru1 tau(   9) = (   5.3656115   0.0338975  14.3788867  )
        10           Ru1 tau(  10) = (   2.7687658   0.0339689  14.3788219  )
        11           Ru1 tau(  11) = (   6.7787031   2.3491788  14.2839172  )
        12           Ru1 tau(  12) = (   4.0671490   2.2833348  14.3788918  )
        13           C1  tau(  13) = (   4.0671708   3.9149246  15.3993954  )

     number of k points=    20  Fermi-Dirac smearing, width (Ry)=  0.0110
                       cart. coord. in units 2pi/alat
        k(    1) = (   0.0000000   0.0000000   0.0000000), wk =   0.0555556
        k(    2) = (   0.0000000   0.0354882   0.0000000), wk =   0.1111111
        k(    3) = (   0.0000000   0.0709765   0.0000000), wk =   0.1111111
        k(    4) = (   0.0000000  -0.1064647   0.0000000), wk =   0.0555556
        k(    5) = (   0.0307337  -0.0177441   0.0000000), wk =   0.1111111
        k(    6) = (   0.0307337   0.0177441   0.0000000), wk =   0.1111111
        k(    7) = (   0.0307337   0.0532324   0.0000000), wk =   0.1111111
        k(    8) = (   0.0307337  -0.1242088   0.0000000), wk =   0.1111111
        k(    9) = (   0.0307337  -0.0887206   0.0000000), wk =   0.1111111
        k(   10) = (   0.0307337  -0.0532324   0.0000000), wk =   0.1111111
        k(   11) = (   0.0614674  -0.0354882   0.0000000), wk =   0.1111111
        k(   12) = (   0.0614674   0.0000000   0.0000000), wk =   0.1111111
        k(   13) = (   0.0614674   0.0354882   0.0000000), wk =   0.1111111
        k(   14) = (   0.0614674  -0.1419529   0.0000000), wk =   0.1111111
        k(   15) = (   0.0614674  -0.1064647   0.0000000), wk =   0.1111111
        k(   16) = (   0.0614674  -0.0709765   0.0000000), wk =   0.1111111
        k(   17) = (  -0.0922011   0.0532324   0.0000000), wk =   0.0555556
        k(   18) = (  -0.0922011   0.0887206   0.0000000), wk =   0.1111111
        k(   19) = (  -0.0922011   0.1242088   0.0000000), wk =   0.1111111
        k(   20) = (  -0.0922011  -0.0532324   0.0000000), wk =   0.0555556

     Largest allocated arrays     est. size (Mb)     dimensions
     Largest temporary arrays     est. size (Mb)     dimensions

     Initial potential from superposition of free atoms
     Check: negative starting charge=   -0.882046

     starting charge  183.99977, renormalised to  196.00000

[...]

     *
     * You are using vdW-DF for exchange-correlation in this calculation.
     * Please cite the following three references that made this development
     * possible:
     *
     *   M. Dion, H. Rydberg, E. Schroder, D. C. Langreth, and
     *   B. I. Lundqvist, Phys. Rev. Lett. 92, 246401 (2004).
     *
     *   T. Thonhauser, V. R. Cooper, S. Li, A. Puzder, P. Hyldgaard, and
     *   D. C. Langreth, Phys. Rev. B 76, 125112 (2007).
     *
     *   G. Roman-Perez and J. M. Soler, Phys. Rev. Lett. 103, 096102 (2009).
     *
     *
     * If you are using vdW-DF2, please also cite:
     *
     *   K. Lee, E. D. Murray, L. Kong, B. I. Lundqvist, and
     *   D. C. Langreth, Phys. Rev. B 82, 081101(R) (2010).
     *
     *
     * If you are calculating the stress with vdW-DF, please also cite:
     *
     *   R. Sabatini, E. Kucukbenli, B. Kolb, T. Thonhauser, and
     *   S. de Gironcoli, J. Phys.: Condens. Matter 24, 424209 (2012).
     *

     Carrying out vdW-DF run using the following parameters:

     Nqs =      20    Nr_points =    1024   r_max =   100.000
     q_mesh =
               0.00001000     0.04494208     0.09755937     0.15916263
               0.23128650     0.31572767     0.41458969     0.53033537
               0.66584808     0.82450364     1.01025438     1.22772762
               1.48234092     1.78043706     2.12944203     2.53805004
               3.01644009     3.57652955     4.23227104     5.00000000

     Gradients computed in reciprocal space

[...]

     Starting wfc are  160 randomized atomic wfcs

     Self-consistent Calculation

[...]

     total energy              =   -2352.79100094 Ry
     Harris-Foulkes estimate   =   -2352.79100362 Ry
     estimated scf accuracy    <       0.00003029 Ry

     iteration # 24     ecut=    36.75 Ry     beta=0.30
     Davidson diagonalization with overlap
     ethr =  1.14E-08,  avg # of iterations =  1.1

[...]

     negative rho (up, down):  9.200E-01 0.000E+00

     Adding external electric field

     Computed dipole along edir(3) :
        Dipole               -0.0946 Ry au,         -0.2404 Debye
        Dipole field         -0.0003 Ry au

        Potential amp.        0.0255 Ry
        Total length         45.0078 bohr

     End of self-consistent calculation

[...]

          k = 0.0615-0.0710 0.0000 ( 15803 PWs)   bands (ev):

[...]

          k =-0.0922-0.0532 0.0000 ( 15808 PWs)   bands (ev):

   -70.9466 -70.9403 -70.8899 -70.8838 -70.7359 -70.6933 -70.6724 -70.4665
   -70.4391 -70.4260 -70.3903 -70.3640 -41.2156 -41.1566 -41.1514 -41.0982
   -41.0506 -41.0360 -40.9517 -40.9382 -40.9252 -40.8961 -40.8485 -40.8071
   -40.7136 -40.6818 -40.6295 -40.6265 -40.6113 -40.5633 -40.5427 -40.5418
   -40.5115 -40.4900 -40.4138 -40.3991 -40.3885 -40.3776 -40.3704 -40.3328
   -40.3185 -40.3008 -40.2971 -40.2766 -40.2484 -40.2368 -40.1277 -40.1068
    -8.4783  -3.4575  -2.9750  -2.7670  -2.5472  -2.4353  -2.3651  -2.3283
    -2.2296  -2.0012  -1.9601  -1.8910  -1.8303  -1.7408  -1.7250  -1.4851
    -1.4593  -1.4283  -1.1706  -1.0188  -0.8809  -0.7780  -0.7489  -0.5111
    -0.3720  -0.3158  -0.1692  -0.1176   0.0233   0.1037   0.3007   0.4106
     0.4387   0.4536   0.5001   0.5216   0.6203   0.6204   0.6833   0.7260
     0.7970   0.9596   1.2907   1.3184   1.4107   1.4696   1.6942   1.7965
     1.8644   1.9046   1.9164   2.1560   2.2442   2.4367   2.5107   2.5234
     2.6349   2.7225   3.1343   3.2559

     the Fermi energy is     2.3472 ev

!    total energy              =   -2352.79100003 Ry
     Harris-Foulkes estimate   =   -2352.79100702 Ry
     estimated scf accuracy    <       0.00000202 Ry

     The total energy is the sum of the following terms:

     one-electron contribution =  -22595.99698778 Ry
     hartree contribution      =   11298.26019660 Ry
     xc contribution           =    -325.75037089 Ry
     ewald contribution        =    9270.77953405 Ry
     electric field correction =       0.00002677 Ry
     smearing contrib. (-TS)   =      -0.08339877 Ry

     convergence has been achieved in  24 iterations

 BEEF-vdW xc energy contributions
           1 :   -282.542731371009
           2 :    259.620326843510
           3 :   -219.837956233471
           4 :    172.908208187000
           5 :   -128.784153683494
           6 :    94.6640762800465
           7 :   -73.3382284067030
           8 :    63.2592475626925
           9 :   -60.0587775121144
          10 :    58.7410508353525
          11 :   -55.6341679796806
          12 :    49.4105717566323
          13 :   -40.9692762757069
          14 :    32.4569339755860
          15 :   -25.9916388003517
          16 :    22.6606602052742
          17 :   -22.1517317700475
          18 :    23.0688057540056
          19 :   -23.6951584170375
          20 :    22.8053518764395
          21 :   -20.1527986367659
          22 :    16.4478870762669
          23 :   -12.8955667363584
          24 :    10.5558643273402
          25 :   -9.84433464663113
          26 :    10.3931938254285
          27 :   -11.3035529528464
          28 :    11.6298235729068
          29 :   -10.8402266665061
          30 :    9.03232199659936
          31 :   -29.3965923003801
          32 :   -22.3557404376280

     Forces acting on atoms (Ry/au):

     negative rho (up, down):  9.200E-01 0.000E+00
     atom    1 type  1   force =     0.00000647   -0.00570858    0.02923824
     atom    2 type  1   force =    -0.00001708    0.00003582    0.01306744
     atom    3 type  1   force =     0.00497462    0.00287907    0.02920450
     atom    4 type  1   force =    -0.00498170    0.00288826    0.02918523
     atom    5 type  1   force =     0.00979323    0.00561147   -0.02204487
     atom    6 type  1   force =    -0.00978451    0.00564381   -0.02208730
     atom    7 type  1   force =     0.00001871   -0.01107443   -0.02200953
     atom    8 type  1   force =    -0.00002481    0.00016162   -0.03601396
     atom    9 type  1   force =     0.00003305   -0.00004287    0.00037579
     atom   10 type  1   force =    -0.00003130   -0.00007966    0.00035592
     atom   11 type  1   force =    -0.00001943   -0.00017686    0.00038492
     atom   12 type  1   force =     0.00002607   -0.00014422    0.00031622
     atom   13 type  2   force =     0.00000668    0.00000658    0.00002741

     Total force =     0.077218     Total SCF correction =     0.009530
     SCF correction compared to forces is large: reduce conv_thr to get better values

     entering subroutine stress ...

     negative rho (up, down):  9.200E-01 0.000E+00
          total   stress  (Ry/bohr**3)                   (kbar)     P=  -14.02
  -0.00009043   0.00000001  -0.00000000        -13.30      0.00     -0.00
   0.00000001  -0.00009018  -0.00000049          0.00    -13.27     -0.07
  -0.00000000  -0.00000049  -0.00010523         -0.00     -0.07    -15.48

 !ASE

     Writing output data file calc.save

     General routines

     Parallel routines

   This run was terminated on:  19:11:31  20Jan2018

   JOB DONE.
Job  /afs/slac/g/suncat/bin/suncat-tsmpirun -x LD_LIBRARY_PATH -wdir /scratch/qe869931_7Poum pw.x -in pw.inp

TID   HOST_NAME   COMMAND_LINE            STATUS            TERMINATION_TIME
00000 suncat0096 pw.x -in pw.inp   Done                     01/20/2018 19:11:31
00001 suncat0096 pw.x -in pw.inp   Done                     01/20/2018 19:11:31
00002 suncat0096 pw.x -in pw.inp   Done                     01/20/2018 19:11:31
00003 suncat0096 pw.x -in pw.inp   Done                     01/20/2018 19:11:31
00004 suncat0096 pw.x -in pw.inp   Done                     01/20/2018 19:11:31
00005 suncat0096 pw.x -in pw.inp   Done                     01/20/2018 19:11:31
00006 suncat0096 pw.x -in pw.inp   Done                     01/20/2018 19:11:31
00007 suncat0096 pw.x -in pw.inp   Done                     01/20/2018 19:11:31
00008 suncat0283 pw.x -in pw.inp   Done                     01/20/2018 19:11:31
00009 suncat0283 pw.x -in pw.inp   Done                     01/20/2018 19:11:31
00010 suncat0283 pw.x -in pw.inp   Done                     01/20/2018 19:11:31
00011 suncat0283 pw.x -in pw.inp   Done                     01/20/2018 19:11:31
00012 suncat0283 pw.x -in pw.inp   Done                     01/20/2018 19:11:31
00013 suncat0283 pw.x -in pw.inp   Done                     01/20/2018 19:11:31
00014 suncat0283 pw.x -in pw.inp   Done                     01/20/2018 19:11:31
00015 suncat0283 pw.x -in pw.inp   Done                     01/20/2018 19:11:31
00016 suncat0282 pw.x -in pw.inp   Done                     01/20/2018 19:11:31
00017 suncat0282 pw.x -in pw.inp   Done                     01/20/2018 19:11:31
00018 suncat0282 pw.x -in pw.inp   Done                     01/20/2018 19:11:31
00019 suncat0282 pw.x -in pw.inp   Done                     01/20/2018 19:11:31
00020 suncat0282 pw.x -in pw.inp   Done                     01/20/2018 19:11:31
00021 suncat0282 pw.x -in pw.inp   Done                     01/20/2018 19:11:31
00022 suncat0282 pw.x -in pw.inp   Done                     01/20/2018 19:11:31
00023 suncat0282 pw.x -in pw.inp   Done                     01/20/2018 19:11:31
00024 suncat0272 pw.x -in pw.inp   Done                     01/20/2018 19:11:31
00025 suncat0272 pw.x -in pw.inp   Done                     01/20/2018 19:11:31
00026 suncat0272 pw.x -in pw.inp   Done                     01/20/2018 19:11:31
00027 suncat0272 pw.x -in pw.inp   Done                     01/20/2018 19:11:31
00028 suncat0272 pw.x -in pw.inp   Done                     01/20/2018 19:11:31
00029 suncat0272 pw.x -in pw.inp   Done                     01/20/2018 19:11:31
00030 suncat0272 pw.x -in pw.inp   Done                     01/20/2018 19:11:31
00031 suncat0272 pw.x -in pw.inp   Done                     01/20/2018 19:11:31