     Program PWSCF v.5.1rc2 (svn rev. ) starts on 18Apr2018 at 20:18: 7

     Current dimensions of program PWSCF are:
     Max number of different atomic species (ntypx) = 10
     Max number of k-points (npk) =  40000
     Max angular momentum in pseudopotentials (lmaxx) =  3
     Presently stress not available with electric field

     IMPORTANT: XC functional enforced from input :
     Exchange-correlation      = BEEF-VDW ( 1  4 27 13 2)
     Any further DFT definition will be discarded
     Please, verify this is what you really want

     Subspace diagonalization in iterative solution of the eigenvalue problem:
     a serial algorithm will be used

     bravais-lattice index     =            0
     lattice parameter (alat)  =       1.8897  a.u.
     unit-cell volume          =    6501.5726 (a.u.)^3
     number of atoms/cell      =           14
     number of atomic types    =            3
     number of electrons       =       162.00
     number of Kohn-Sham states=           91
     kinetic-energy cutoff     =      36.7493  Ry
     charge density cutoff     =     367.4932  Ry
     convergence threshold     =      1.0E-05
     mixing beta               =       0.3000
     number of iterations used =           10  plain     mixing
     Exchange-correlation      = BEEF-VDW ( 1  4 27 13 2)
     nstep                     =           50

     celldm(1)=   1.889726  celldm(2)=   0.000000  celldm(3)=   0.000000
     celldm(4)=   0.000000  celldm(5)=   0.000000  celldm(6)=   0.000000

     crystal axes: (cart. coord. in units of alat)
               a(1) = (   6.617606   0.000000   0.000000 )
               a(2) = (   3.308803   5.731015   0.000000 )
               a(3) = (   0.000000   0.000000  25.403253 )

     reciprocal axes: (cart. coord. in units 2 pi/alat)
               b(1) = (  0.151112 -0.087245  0.000000 )
               b(2) = (  0.000000  0.174489  0.000000 )
               b(3) = (  0.000000  0.000000  0.039365 )

     PseudoPot. # 1 for In read from file:
     /home/mamunm/src/pseudo/gbrv1.5pbe/In.UPF
     MD5 check sum: 90777abd96fbb83f2e67db2a40c566b9
     Pseudo is Ultrasoft + core correction, Zval = 13.0
     Generated by new atomic code, or converted to UPF format
     Using radial grid of  889 points,  6 beta functions with:
                l(1) =   0
                l(2) =   0
                l(3) =   1
                l(4) =   1
                l(5) =   2
                l(6) =   2
     Q(r) pseudized with  6 coefficients,  rinner =    1.400   1.400   1.400
                                                       1.400   1.400

     PseudoPot. # 2 for N  read from file:
     /home/mamunm/src/pseudo/gbrv1.5pbe/N.UPF
     MD5 check sum: 95339753478d7afb44899504a8723017
     Pseudo is Ultrasoft + core correction, Zval =  5.0
     Generated by new atomic code, or converted to UPF format
     Using radial grid of  729 points,  4 beta functions with:
                l(1) =   0
                l(2) =   0
                l(3) =   1
                l(4) =   1
     Q(r) pseudized with  8 coefficients,  rinner =    0.900   0.900   0.900

     PseudoPot. # 3 for H  read from file:
     /home/mamunm/src/pseudo/gbrv1.5pbe/H.UPF
     MD5 check sum: 761ae9a214b05c3daf00ab9f6b793d6f
     Pseudo is Ultrasoft, Zval =  1.0
     Generated by new atomic code, or converted to UPF format
     Using radial grid of  615 points,  2 beta functions with:
                l(1) =   0
                l(2) =   0
     Q(r) pseudized with  8 coefficients,  rinner =    0.700

     vdW kernel table read from file vdW_kernel_table
     MD5 check sum: 095c7af220d748ca6e76c0b4c6cfb241

     atomic species   valence    mass     pseudopotential
        In1           13.00   114.81800     In( 1.00)
        N1             5.00    14.00700     N ( 1.00)
        H1             1.00     1.00800     H ( 1.00)

     No symmetry found

   Cartesian axes

     site n.     atom                  positions (alat units)
         1           In1 tau(   1) = (   1.6544016   0.9551692  10.0000000  )
         2           In1 tau(   2) = (   4.9632047   0.9551692  10.0000000  )
         3           In1 tau(   3) = (   3.3088031   3.8206768  10.0000000  )
         4           In1 tau(   4) = (   6.6176063   3.8206768  10.0000000  )
         5           In1 tau(   5) = (   6.6176063   1.9103384  12.7016265  )
         6           In1 tau(   6) = (   3.3088031   1.9103384  12.7016265  )
         7           In1 tau(   7) = (   8.2720078   4.7758460  12.7016265  )
         8           In1 tau(   8) = (   4.9632047   4.7758460  12.7016265  )
         9           In1 tau(   9) = (   0.0000000   0.0000000  15.4032529  )
        10           In1 tau(  10) = (   3.3088031   0.0000000  15.4032529  )
        11           In1 tau(  11) = (   1.6544016   2.8655076  15.4032529  )
        12           In1 tau(  12) = (   4.9632047   2.8655076  15.4032529  )
        13           N1  tau(  13) = (   1.6544016   0.9551692  16.7877529  )
        14           H1  tau(  14) = (   1.6544016   0.9551692  17.8377529  )

     number of k points=    20  Fermi-Dirac smearing, width (Ry)=  0.0110
                       cart. coord. in units 2pi/alat
        k(    1) = (   0.0000000   0.0000000   0.0000000), wk =   0.0555556
        k(    2) = (   0.0000000   0.0290815   0.0000000), wk =   0.1111111
        k(    3) = (   0.0000000   0.0581631   0.0000000), wk =   0.1111111
        k(    4) = (   0.0000000  -0.0872446   0.0000000), wk =   0.0555556
        k(    5) = (   0.0251853  -0.0145408   0.0000000), wk =   0.1111111
        k(    6) = (   0.0251853   0.0145408   0.0000000), wk =   0.1111111
        k(    7) = (   0.0251853   0.0436223   0.0000000), wk =   0.1111111
        k(    8) = (   0.0251853  -0.1017853   0.0000000), wk =   0.1111111
        k(    9) = (   0.0251853  -0.0727038   0.0000000), wk =   0.1111111
        k(   10) = (   0.0251853  -0.0436223   0.0000000), wk =   0.1111111
        k(   11) = (   0.0503707  -0.0290815   0.0000000), wk =   0.1111111
        k(   12) = (   0.0503707   0.0000000   0.0000000), wk =   0.1111111
        k(   13) = (   0.0503707   0.0290815   0.0000000), wk =   0.1111111
        k(   14) = (   0.0503707  -0.1163261   0.0000000), wk =   0.1111111
        k(   15) = (   0.0503707  -0.0872446   0.0000000), wk =   0.1111111
        k(   16) = (   0.0503707  -0.0581631   0.0000000), wk =   0.1111111
        k(   17) = (  -0.0755560   0.0436223   0.0000000), wk =   0.0555556
        k(   18) = (  -0.0755560   0.0727038   0.0000000), wk =   0.1111111
        k(   19) = (  -0.0755560   0.1017853   0.0000000), wk =   0.1111111
        k(   20) = (  -0.0755560  -0.0436223   0.0000000), wk =   0.0555556

     Largest allocated arrays     est. size (Mb)     dimensions
     Largest temporary arrays     est. size (Mb)     dimensions

     Initial potential from superposition of free atoms
     Check: negative starting charge=   -0.000168

     starting charge  143.99998, renormalised to  162.00000

     negative rho (up, down):  1.892E-04 0.000E+00

     *
     * You are using vdW-DF for exchange-correlation in this calculation.
     * Please cite the following three references that made this development
     * possible:
     *
     *   M. Dion, H. Rydberg, E. Schroder, D. C. Langreth, and
     *   B. I. Lundqvist, Phys. Rev. Lett. 92, 246401 (2004).
     *
     *   T. Thonhauser, V. R. Cooper, S. Li, A. Puzder, P. Hyldgaard, and
     *   D. C. Langreth, Phys. Rev. B 76, 125112 (2007).
     *
     *   G. Roman-Perez and J. M. Soler, Phys. Rev. Lett. 103, 096102 (2009).
     *
     *
     * If you are using vdW-DF2, please also cite:
     *
     *   K. Lee, E. D. Murray, L. Kong, B. I. Lundqvist, and
     *   D. C. Langreth, Phys. Rev. B 82, 081101(R) (2010).
     *
     *
     * If you are calculating the stress with vdW-DF, please also cite:
     *
     *   R. Sabatini, E. Kucukbenli, B. Kolb, T. Thonhauser, and
     *   S. de Gironcoli, J. Phys.: Condens. Matter 24, 424209 (2012).
     *

     Carrying out vdW-DF run using the following parameters:

     Nqs =      20    Nr_points =    1024   r_max =   100.000
     q_mesh =
               0.00001000     0.04494208     0.09755937     0.15916263
               0.23128650     0.31572767     0.41458969     0.53033537
               0.66584808     0.82450364     1.01025438     1.22772762
               1.48234092     1.78043706     2.12944203     2.53805004
               3.01644009     3.57652955     4.23227104     5.00000000

     Gradients computed in reciprocal space

     Adding external electric field

     Computed dipole along edir(3) :
        Dipole               -6.0391 Ry au,        -15.3499 Debye
        Dipole field         -0.0117 Ry au

        Potential amp.        1.0927 Ry
        Total length         46.8051 bohr

     Starting wfc are  113 randomized atomic wfcs

     Self-consistent Calculation

     iteration #  1     ecut=    36.75 Ry     beta=0.30
     Davidson diagonalization with overlap
     ethr =  1.00E-02,  avg # of iterations =  8.1

[...]

     total energy              =   -1161.96662091 Ry
     Harris-Foulkes estimate   =   -1630.14122813 Ry
     estimated scf accuracy    <     999.67042035 Ry

[...]

     End of self-consistent calculation

          k = 0.0000 0.0000 0.0000 ( 24345 PWs)   bands (ev):

   -14.8773 -14.5034 -14.5034 -14.4920 -14.4134 -14.4134 -14.4046 -14.3909
   -14.3909 -14.3873 -14.3860 -14.3597 -14.3597 -14.3403 -14.3272 -14.3228
   -14.3228 -14.3084 -14.3015 -14.3015 -14.2821 -14.2821 -14.2707 -14.2707
   -14.2674 -14.2606 -14.2580 -14.2580 -14.2262 -14.2262 -14.1485 -14.1485
   -14.1209 -14.1189 -14.1189 -14.1107 -14.0792 -14.0792 -14.0736 -14.0736
   -14.0696 -14.0319 -14.0319 -14.0287 -14.0287 -14.0249 -14.0097 -14.0097
   -14.0026 -14.0026 -14.0023 -13.9951 -13.9677 -13.9660 -13.9660 -13.9635
   -13.9635 -13.9147 -13.9147 -13.9132 -13.3281  -8.5180  -7.1925  -5.4971
    -4.3621  -3.8491  -3.8491  -3.6639  -3.4983  -3.4983  -3.2582  -2.5834
    -2.5834  -2.0066  -2.0066  -1.9965  -1.6517  -1.0826  -1.0480  -1.0480
    -0.1705  -0.1705  -0.1134   0.9992   0.9992   1.1338   1.8301   3.3395
     3.3824   3.3824   3.4673

[...]

          k =-0.0756 0.0436 0.0000 ( 24448 PWs)   bands (ev):

[...]

     the Fermi energy is     0.6949 ev

!    total energy              =   -1638.78455818 Ry
     Harris-Foulkes estimate   =   -1638.78455838 Ry
     estimated scf accuracy    <       0.00000376 Ry

     The total energy is the sum of the following terms:

     one-electron contribution =   -9501.73963806 Ry
     hartree contribution      =    4833.32140353 Ry
     xc contribution           =    -475.88002189 Ry
     ewald contribution        =    3505.55133277 Ry
     electric field correction =       0.00000215 Ry
     smearing contrib. (-TS)   =      -0.03763669 Ry

     convergence has been achieved in  22 iterations

 BEEF-vdW xc energy contributions
           1 :   -416.727163958147
           2 :    380.763787875042
           3 :   -320.065609150405
           4 :    251.716798913297
           5 :   -191.295497796930
           6 :    147.242993880124
           7 :   -119.288546644496
           8 :    101.059634889698
           9 :   -84.9630361841759
          10 :    66.4893491988801
          11 :   -45.8199449789399
          12 :    26.4090338645829
          13 :   -11.9728541874289
          14 :    3.96632001714460
          15 :  -0.950669158222979
          16 :  -0.147270466728571
          17 :    2.01355127456134
          18 :   -5.54985409002433
          19 :    9.83625968146066
          20 :   -13.2051300446512
          21 :    14.5300392094838
          22 :   -13.8822187282735
          23 :    12.2748258771931
          24 :   -10.8609712256400
          25 :    10.2263573436219
          26 :   -10.2181304284069
          27 :    10.2904576734271
          28 :   -10.0012454984729
          29 :    9.27759363713932
          30 :   -8.33300163177734
          31 :   -37.9824059822492
          32 :   -27.5655772594068

     Forces acting on atoms (Ry/au):

     negative rho (up, down):  1.322E-03 0.000E+00
     atom    1 type  1   force =     0.00000037   -0.00000052   -0.00896723
     atom    2 type  1   force =     0.00000045    0.00010485   -0.00981852
     atom    3 type  1   force =     0.00008942   -0.00005392   -0.00981883
     atom    4 type  1   force =    -0.00008962   -0.00005196   -0.00981808
     atom    5 type  1   force =    -0.00053974    0.00031349    0.00412087
     atom    6 type  1   force =     0.00053979    0.00031190    0.00412190
     atom    7 type  1   force =    -0.00000129   -0.00000050   -0.00527870
     atom    8 type  1   force =     0.00000163   -0.00062390    0.00412074
     atom    9 type  1   force =     0.00004153    0.00002390    0.02914628
     atom   10 type  1   force =    -0.00004192    0.00002446    0.02914465
     atom   11 type  1   force =     0.00000032   -0.00004803    0.02914611
     atom   12 type  1   force =    -0.00000160   -0.00000005    0.00495425
     atom   13 type  2   force =     0.00000032    0.00000006   -0.02801077
     atom   14 type  3   force =     0.00000035    0.00000021   -0.03304267

     Total force =     0.066704     Total SCF correction =     0.002981

     entering subroutine stress ...

     negative rho (up, down):  1.322E-03 0.000E+00
          total   stress  (Ry/bohr**3)                   (kbar)     P=    6.24
   0.00005491  -0.00000000   0.00000000          8.08     -0.00      0.00
  -0.00000000   0.00005491  -0.00000000         -0.00      8.08     -0.00
   0.00000000  -0.00000000   0.00001742          0.00     -0.00      2.56

     BFGS Geometry Optimization

     number of scf cycles    =   1
     number of bfgs steps    =   0

     energy   new            =   -1638.7845581835 Ry

     new trust radius        =       0.0330426660 bohr
     new conv_thr            =       0.0000099958 Ry

ATOMIC_POSITIONS (crystal)
In1      0.166666667   0.166666667   0.393650374    0   0   0
In1      0.666666667   0.166666667   0.393650374    0   0   0
In1      0.166666667   0.666666667   0.393650374    0   0   0
In1      0.666666667   0.666666667   0.393650374    0   0   0
In1      0.833333333   0.333333333   0.500000000    0   0   0
In1      0.333333333   0.333333333   0.500000000    0   0   0
In1      0.833333333   0.833333333   0.500000000    0   0   0
In1      0.333333333   0.833333333   0.500000000    0   0   0
In1      0.000002218   0.000002207   0.606956775
In1      0.499995518   0.000002259   0.606956741
In1      0.000002243   0.499995565   0.606956771
In1      0.499999874   0.499999995   0.606452829
N1       0.166666689   0.166666672   0.660267026
H1       0.166666685   0.166666686   0.701495495

     Writing output data file calc.save
     Check: negative starting charge=   -0.000168
     NEW-OLD atomic charge density approx. for the potential
     Check: negative starting charge=   -0.000171

[...]

     energy   old            =   -1638.7845581835 Ry
     energy   new            =   -1638.7888064470 Ry

     CASE: energy  _new < energy  _old

     WARNING: bfgs curvature condition failed, Theta= 0.868
     new trust radius        =       0.0363469326 bohr
     new conv_thr            =       0.0000001000 Ry

[...]

     Total force =     0.006076     Total SCF correction =     0.000283

[...]

     number of scf cycles    =   9
     number of bfgs steps    =   8

     energy   old            =   -1638.8116836417 Ry
     energy   new            =   -1638.8120632321 Ry

     CASE: energy  _new < energy  _old

     new trust radius        =       0.0106366243 bohr
     new conv_thr            =       0.0000001000 Ry

ATOMIC_POSITIONS (crystal)
In1      0.166666667   0.166666667   0.393650374    0   0   0
In1      0.666666667   0.166666667   0.393650374    0   0   0
In1      0.166666667   0.666666667   0.393650374    0   0   0
In1      0.666666667   0.666666667   0.393650374    0   0   0
In1      0.833333333   0.333333333   0.500000000    0   0   0
In1      0.333333333   0.333333333   0.500000000    0   0   0
In1      0.833333333   0.833333333   0.500000000    0   0   0
In1      0.333333333   0.833333333   0.500000000    0   0   0
In1     -0.008249619  -0.008249490   0.614063582
In1      0.516498933  -0.008249477   0.614063408
In1     -0.008249652   0.516499157   0.614063557
In1      0.499999549   0.499999992   0.607409970
N1       0.166666722   0.166666696   0.652977483
H1       0.166666846   0.166666735   0.693467648

     Writing output data file calc.save
     Check: negative starting charge=   -0.000178
     NEW-OLD atomic charge density approx. for the potential
     Check: negative starting charge=   -0.000178

[...]

     Self-consistent Calculation

[...]

     total energy              =   -1638.81213831 Ry
     Harris-Foulkes estimate   =   -1638.81213783 Ry
     estimated scf accuracy    <       0.00000054 Ry

     iteration #  7     ecut=    36.75 Ry     beta=0.30
     Davidson diagonalization with overlap
     ethr =  3.34E-10,  avg # of iterations =  2.6

[...]

     negative rho (up, down):  1.322E-03 0.000E+00

     Adding external electric field

     Computed dipole along edir(3) :
        Dipole                0.1521 Ry au,          0.3866 Debye
        Dipole field          0.0003 Ry au

        Potential amp.       -0.0275 Ry
        Total length         46.8051 bohr

     End of self-consistent calculation

[...]

          k = 0.0504-0.0582 0.0000 ( 24479 PWs)   bands (ev):

[...]

          k =-0.0756-0.0436 0.0000 ( 24448 PWs)   bands (ev):

   -15.3896 -14.2303 -14.2164 -14.1813 -14.1746 -14.1657 -14.1628 -14.1553
   -14.1553 -14.1433 -14.1280 -14.1262 -14.1250 -14.1047 -14.0982 -14.0952
   -14.0944 -14.0908 -14.0790 -14.0773 -14.0661 -14.0549 -14.0422 -14.0402
   -14.0381 -14.0332 -14.0205 -14.0196 -14.0076 -14.0056 -13.9980 -13.9946
   -13.9935 -13.9765 -13.9693 -13.9577 -13.9545 -13.9515 -13.9441 -13.9397
   -13.9347 -13.9292 -13.9269 -13.9230 -13.9162 -13.9128 -13.9091 -13.9053
   -13.9032 -13.9024 -13.8964 -13.8744 -13.8659 -13.8502 -13.8459 -13.8310
   -13.8249 -13.8044 -13.7971 -13.7806 -13.2166  -7.0204  -6.9832  -6.1442
    -5.9073  -4.8843  -4.6208  -4.2958  -4.1035  -3.8900  -3.5561  -2.2374
    -2.1573  -2.1309  -0.8653  -0.4052   0.0085   0.2281   0.5386   0.6077
     0.9224   1.2074   1.8394   2.0398   2.1003   2.3422   2.6611   2.8471
     2.9923   3.2975   3.3424

     the Fermi energy is     0.8857 ev

!    total energy              =   -1638.81213839 Ry
     Harris-Foulkes estimate   =   -1638.81213846 Ry
     estimated scf accuracy    <       0.00000004 Ry

     The total energy is the sum of the following terms:

     one-electron contribution =   -9357.66186649 Ry
     hartree contribution      =    4762.04425026 Ry
     xc contribution           =    -475.92909699 Ry
     ewald contribution        =    3432.77111372 Ry
     electric field correction =       0.00004473 Ry
     smearing contrib. (-TS)   =      -0.03658361 Ry

     convergence has been achieved in   7 iterations

 BEEF-vdW xc energy contributions
           1 :   -416.773590202848
           2 :    380.791185011397
           3 :   -320.052134191563
           4 :    251.657316804419
           5 :   -191.211009312788
           6 :    147.162997290306
           7 :   -119.228108603059
           8 :    101.011981852138
           9 :   -84.9111499252853
          10 :    66.4238913499159
          11 :   -45.7478336705873
          12 :    26.3477547265650
          13 :   -11.9376102447172
          14 :    3.96074875951388
          15 :  -0.968286017829826
          16 :  -0.114256749511298
          17 :    1.96912123447493
          18 :   -5.49796261004195
          19 :    9.78761714529605
          20 :   -13.1781872100010
          21 :    14.5419194061083
          22 :   -13.9345693520074
          23 :    12.3461972336424
          24 :   -10.9144557686186
          25 :    10.2305357978613
          26 :   -10.1677487714448
          27 :    10.2111169934118
          28 :   -9.93367180671930
          29 :    9.25136465655623
          30 :   -8.34761696387420
          31 :   -37.9833011959875
          32 :   -27.5583802690520

     Forces acting on atoms (Ry/au):

     negative rho (up, down):  1.322E-03 0.000E+00
     atom    1 type  1   force =     0.00000001    0.00000000   -0.00882644
     atom    2 type  1   force =    -0.00000000   -0.00092730   -0.00966641
     atom    3 type  1   force =    -0.00080307    0.00046365   -0.00966640
     atom    4 type  1   force =     0.00080306    0.00046365   -0.00966641
     atom    5 type  1   force =     0.00210025   -0.00121258    0.01306959
     atom    6 type  1   force =    -0.00210028   -0.00121254    0.01306947
     atom    7 type  1   force =     0.00000006   -0.00000003    0.00440290
     atom    8 type  1   force =    -0.00000005    0.00242516    0.01306952
     atom    9 type  1   force =    -0.00018105   -0.00010442   -0.00109823
     atom   10 type  1   force =     0.00018099   -0.00010459   -0.00109812
     atom   11 type  1   force =    -0.00000017    0.00020903   -0.00109824
     atom   12 type  1   force =     0.00000026    0.00000000   -0.00172173
     atom   13 type  2   force =    -0.00000003    0.00000001    0.00010530
     atom   14 type  3   force =     0.00000003   -0.00000005   -0.00087482

     Total force =     0.002737     Total SCF correction =     0.000283
     SCF correction compared to forces is large: reduce conv_thr to get better values

     entering subroutine stress ...

     negative rho (up, down):  1.322E-03 0.000E+00
          total   stress  (Ry/bohr**3)                   (kbar)     P=    6.86
   0.00006135   0.00000000   0.00000000          9.02      0.00      0.00
   0.00000000   0.00006135  -0.00000000          0.00      9.02     -0.00
   0.00000000  -0.00000000   0.00001716          0.00     -0.00      2.53

     bfgs converged in  10 scf cycles and   9 bfgs steps
     (criteria: energy <  1.0E+00, force <  1.9E-03)

     End of BFGS Geometry Optimization

     Final energy   =   -1638.8121383859 Ry
Begin final coordinates

ATOMIC_POSITIONS (crystal)
In1      0.166666667   0.166666667   0.393650374    0   0   0
In1      0.666666667   0.166666667   0.393650374    0   0   0
In1      0.166666667   0.666666667   0.393650374    0   0   0
In1      0.666666667   0.666666667   0.393650374    0   0   0
In1      0.833333333   0.333333333   0.500000000    0   0   0
In1      0.333333333   0.333333333   0.500000000    0   0   0
In1      0.833333333   0.833333333   0.500000000    0   0   0
In1      0.333333333   0.833333333   0.500000000    0   0   0
In1     -0.008249619  -0.008249490   0.614063582
In1      0.516498933  -0.008249477   0.614063408
In1     -0.008249652   0.516499157   0.614063557
In1      0.499999549   0.499999992   0.607409970
N1       0.166666722   0.166666696   0.652977483
H1       0.166666846   0.166666735   0.693467648
End final coordinates

     Writing output data file calc.save

     General routines

     Parallel routines

   This run was terminated on:  21: 5: 8  18Apr2018

   JOB DONE.