     Program PWSCF v.5.1rc2 starts on 27Apr2018 at 11:20:54

     Current dimensions of program PWSCF are:
     Max number of different atomic species (ntypx) = 10
     Max number of k-points (npk) =  40000
     Max angular momentum in pseudopotentials (lmaxx) =  3
     Presently stress not available with electric field

     IMPORTANT: XC functional enforced from input :
     Exchange-correlation      = BEEF-VDW ( 1  4 27 13 2)
     Any further DFT definition will be discarded
     Please, verify this is what you really want

     bravais-lattice index     =            0
     lattice parameter (alat)  =       1.8897  a.u.
     unit-cell volume          =    5182.3421 (a.u.)^3
     number of atoms/cell      =           14
     number of atomic types    =            3
     number of electrons       =       162.00
     number of Kohn-Sham states=           91
     kinetic-energy cutoff     =      36.7493  Ry
     charge density cutoff     =     367.4932  Ry
     convergence threshold     =      1.0E-05
     mixing beta               =       0.3000
     number of iterations used =           10  plain     mixing
     Exchange-correlation      = BEEF-VDW ( 1  4 27 13 2)
     nstep                     =           50

     celldm(1)=   1.889726  celldm(2)=   0.000000  celldm(3)=   0.000000
     celldm(4)=   0.000000  celldm(5)=   0.000000  celldm(6)=   0.000000

     crystal axes: (cart. coord. in units of alat)
               a(1) = (   5.970602   0.000000   0.000000 )
               a(2) = (   2.985301   5.170693   0.000000 )
               a(3) = (   0.000000   0.000000  24.874976 )

     reciprocal axes: (cart. coord. in units 2 pi/alat)
               b(1) = (  0.167487 -0.096699  0.000000 )
               b(2) = (  0.000000  0.193398  0.000000 )
               b(3) = (  0.000000  0.000000  0.040201 )

     PseudoPot. # 1 for Nb read from file:
     /home/users/mamunm/src/pseudo/gbrv1.5pbe/Nb.UPF
     MD5 check sum: 573aab8a2fa660278ed4a62cd769473f
     Pseudo is Ultrasoft + core correction, Zval = 13.0
     Generated by new atomic code, or converted to UPF format
     Using radial grid of  887 points,  6 beta functions with:
                l(1) =   0
                l(2) =   0
                l(3) =   1
                l(4) =   1
                l(5) =   2
                l(6) =   2
     Q(r) pseudized with  6 coefficients,  rinner =    1.000   1.000   1.000
                                                       1.000   1.000

     PseudoPot. # 2 for N  read from file:
     /home/users/mamunm/src/pseudo/gbrv1.5pbe/N.UPF
     MD5 check sum: 95339753478d7afb44899504a8723017
     Pseudo is Ultrasoft + core correction, Zval =  5.0
     Generated by new atomic code, or converted to UPF format
     Using radial grid of  729 points,  4 beta functions with:
                l(1) =   0
                l(2) =   0
                l(3) =   1
                l(4) =   1
     Q(r) pseudized with  8 coefficients,  rinner =    0.900   0.900   0.900

     PseudoPot. # 3 for H  read from file:
     /home/users/mamunm/src/pseudo/gbrv1.5pbe/H.UPF
     MD5 check sum: 761ae9a214b05c3daf00ab9f6b793d6f
     Pseudo is Ultrasoft, Zval =  1.0
     Generated by new atomic code, or converted to UPF format
     Using radial grid of  615 points,  2 beta functions with:
                l(1) =   0
                l(2) =   0
     Q(r) pseudized with  8 coefficients,  rinner =    0.700

     vdW kernel table read from file vdW_kernel_table
     MD5 check sum: 095c7af220d748ca6e76c0b4c6cfb241

     atomic species   valence    mass     pseudopotential
        Nb1           13.00    92.90637     Nb( 1.00)
        N1             5.00    14.00700     N ( 1.00)
        H1             1.00     1.00800     H ( 1.00)

     No symmetry found

   Cartesian axes

     site n.     atom                  positions (alat units)
         1           Nb1 tau(   1) = (   1.4926504   0.8617821  10.0000000  )
         2           Nb1 tau(   2) = (   4.4779512   0.8617821  10.0000000  )
         3           Nb1 tau(   3) = (   2.9853008   3.4471284  10.0000000  )
         4           Nb1 tau(   4) = (   5.9706016   3.4471284  10.0000000  )
         5           Nb1 tau(   5) = (   5.9706016   1.7235642  12.4374879  )
         6           Nb1 tau(   6) = (   2.9853008   1.7235642  12.4374879  )
         7           Nb1 tau(   7) = (   7.4632520   4.3089105  12.4374879  )
         8           Nb1 tau(   8) = (   4.4779512   4.3089105  12.4374879  )
         9           Nb1 tau(   9) = (   0.0000000   0.0000000  14.8749758  )
        10           Nb1 tau(  10) = (   2.9853008   0.0000000  14.8749758  )
        11           Nb1 tau(  11) = (   1.4926504   2.5853463  14.8749758  )
        12           Nb1 tau(  12) = (   4.4779512   2.5853463  14.8749758  )
        13           N1  tau(  13) = (   1.4926504   0.8617821  16.4024758  )
        14           H1  tau(  14) = (   1.4926504   0.8617821  17.4524758  )

     number of k points=    20  Fermi-Dirac smearing, width (Ry)=  0.0110
                       cart. coord. in units 2pi/alat
        k(    1) = (   0.0000000   0.0000000   0.0000000), wk =   0.0555556
        k(    2) = (   0.0000000   0.0322329   0.0000000), wk =   0.1111111
        k(    3) = (   0.0000000   0.0644659   0.0000000), wk =   0.1111111
        k(    4) = (   0.0000000  -0.0966988   0.0000000), wk =   0.0555556
        k(    5) = (   0.0279146  -0.0161165   0.0000000), wk =   0.1111111
        k(    6) = (   0.0279146   0.0161165   0.0000000), wk =   0.1111111
        k(    7) = (   0.0279146   0.0483494   0.0000000), wk =   0.1111111
        k(    8) = (   0.0279146  -0.1128153   0.0000000), wk =   0.1111111
        k(    9) = (   0.0279146  -0.0805824   0.0000000), wk =   0.1111111
        k(   10) = (   0.0279146  -0.0483494   0.0000000), wk =   0.1111111
        k(   11) = (   0.0558291  -0.0322329   0.0000000), wk =   0.1111111
        k(   12) = (   0.0558291   0.0000000   0.0000000), wk =   0.1111111
        k(   13) = (   0.0558291   0.0322329   0.0000000), wk =   0.1111111
        k(   14) = (   0.0558291  -0.1289318   0.0000000), wk =   0.1111111
        k(   15) = (   0.0558291  -0.0966988   0.0000000), wk =   0.1111111
        k(   16) = (   0.0558291  -0.0644659   0.0000000), wk =   0.1111111
        k(   17) = (  -0.0837437   0.0483494   0.0000000), wk =   0.0555556
        k(   18) = (  -0.0837437   0.0805824   0.0000000), wk =   0.1111111
        k(   19) = (  -0.0837437   0.1128153   0.0000000), wk =   0.1111111
        k(   20) = (  -0.0837437  -0.0483494   0.0000000), wk =   0.0555556

     Largest allocated arrays     est. size (Mb)     dimensions
     Largest temporary arrays     est. size (Mb)     dimensions

     Initial potential from superposition of free atoms
     Check: negative starting charge=   -0.004973

     starting charge  161.96718, renormalised to  162.00000

     negative rho (up, down):  4.974E-03 0.000E+00

     *
     * You are using vdW-DF for exchange-correlation in this calculation.
     * Please cite the following three references that made this development
     * possible:
     *
     *   M. Dion, H. Rydberg, E. Schroder, D. C. Langreth, and
     *   B. I. Lundqvist, Phys. Rev. Lett. 92, 246401 (2004).
     *
     *   T. Thonhauser, V. R. Cooper, S. Li, A. Puzder, P. Hyldgaard, and
     *   D. C. Langreth, Phys. Rev. B 76, 125112 (2007).
     *
     *   G. Roman-Perez and J. M. Soler, Phys. Rev. Lett. 103, 096102 (2009).
     *
     *
     * If you are using vdW-DF2, please also cite:
     *
     *   K. Lee, E. D. Murray, L. Kong, B. I. Lundqvist, and
     *   D. C. Langreth, Phys. Rev. B 82, 081101(R) (2010).
     *
     *
     * If you are calculating the stress with vdW-DF, please also cite:
     *
     *   R. Sabatini, E. Kucukbenli, B. Kolb, T. Thonhauser, and
     *   S. de Gironcoli, J. Phys.: Condens. Matter 24, 424209 (2012).
     *

     Carrying out vdW-DF run using the following parameters:

     Nqs =      20    Nr_points =    1024   r_max =   100.000
     q_mesh =
               0.00001000     0.04494208     0.09755937     0.15916263
               0.23128650     0.31572767     0.41458969     0.53033537
               0.66584808     0.82450364     1.01025438     1.22772762
               1.48234092     1.78043706     2.12944203     2.53805004
               3.01644009     3.57652955     4.23227104     5.00000000

     Gradients computed in reciprocal space

     Adding external electric field

     Computed dipole along edir(3) :
        Dipole               -0.0093 Ry au,         -0.0237 Debye
        Dipole field         -0.0000 Ry au

        Potential amp.        0.0021 Ry
        Total length         45.8317 bohr

     Starting wfc are  161 randomized atomic wfcs

     Self-consistent Calculation

     iteration #  1     ecut=    36.75 Ry     beta=0.30
     Davidson diagonalization with overlap
     ethr =  1.00E-02,  avg # of iterations =  2.0

[...]

     total energy              =   -1441.73069111 Ry
     Harris-Foulkes estimate   =   -1444.48406441 Ry
     estimated scf accuracy    <       6.14599674 Ry

[...]

     End of self-consistent calculation

          k = 0.0000 0.0000 0.0000 ( 19435 PWs)   bands (ev):

   -52.9878 -52.8826 -52.8541 -52.8541 -52.8523 -52.7710 -52.7436 -52.7435
   -52.7409 -52.6811 -52.6811 -52.6637 -29.4165 -29.3982 -29.3982 -29.3190
   -29.3184 -29.3017 -29.3016 -29.2475 -29.2456 -29.2456 -28.9953 -28.8866
   -28.8729 -28.8729 -28.7861 -28.7860 -28.7821 -28.7094 -28.7094 -28.7093
   -28.5999 -28.5999 -28.5982 -28.5624 -28.5624 -28.5541 -28.4974 -28.4889
   -28.4889 -28.4742 -28.4732 -28.4732 -28.3827 -28.3827 -28.3046 -28.3046
   -12.7074  -4.4740  -3.1335  -1.8446  -1.5599  -1.5599  -1.4481  -1.3239
    -1.1396  -1.1396  -0.8825  -0.8031  -0.8031  -0.6314  -0.6314  -0.5757
    -0.1394  -0.1289  -0.1289   0.8121   0.8121   1.1280   1.5572   1.6754
     1.6754   1.7074   1.9545   2.3346   2.3346   2.3927   2.5601   2.5601
     2.6220   2.6220   2.6706   2.6902   2.6923   2.6923   2.8347   2.8347
     3.2611   3.5854   3.5854

[...]

          k =-0.0837 0.0483 0.0000 ( 19524 PWs)   bands (ev):

[...]

     the Fermi energy is     2.2467 ev

!    total energy              =   -1443.79169135 Ry
     Harris-Foulkes estimate   =   -1443.79169345 Ry
     estimated scf accuracy    <       0.00000309 Ry

     The total energy is the sum of the following terms:

     one-electron contribution =  -11776.42429074 Ry
     hartree contribution      =    5884.22042368 Ry
     xc contribution           =    -234.46442686 Ry
     ewald contribution        =    4682.99192351 Ry
     electric field correction =       0.00008571 Ry
     smearing contrib. (-TS)   =      -0.11540664 Ry

     convergence has been achieved in  18 iterations

 BEEF-vdW xc energy contributions
           1 :   -200.968884876644
           2 :    182.599382971629
           3 :   -151.338052554347
           4 :    115.605149610600
           5 :   -83.4390504863375
           6 :    59.8351146604987
           7 :   -45.7141448881521
           8 :    38.6143698082577
           9 :   -34.5448387117068
          10 :    29.9955820519545
          11 :   -23.2541540445740
          12 :    14.6197985853057
          13 :   -5.69060363805951
          14 :   -1.76867360181959
          15 :    6.77669383077736
          16 :   -9.50553852055774
          17 :    10.9861697174600
          18 :   -12.4135119019543
          19 :    14.4622331752238
          20 :   -16.9770913419104
          21 :    19.1543965396073
          22 :   -20.0688931800089
          23 :    19.2196482231907
          24 :   -16.8005581490554
          25 :    13.5773067441314
          26 :   -10.4839271455922
          27 :    8.17863560162149
          28 :   -6.79683750279247
          29 :    5.99987005954156
          30 :   -5.25779141733486
          31 :   -23.2326686603826
          32 :   -17.5210313441168

     Forces acting on atoms (Ry/au):

     negative rho (up, down):  4.764E-03 0.000E+00
     atom    1 type  1   force =     0.00000064    0.00000163   -0.00717795
     atom    2 type  1   force =     0.00000002    0.00258271   -0.00388984
     atom    3 type  1   force =     0.00223717   -0.00129144   -0.00389764
     atom    4 type  1   force =    -0.00223662   -0.00129107   -0.00390049
     atom    5 type  1   force =     0.00110256   -0.00063380    0.00289826
     atom    6 type  1   force =    -0.00110345   -0.00063379    0.00289642
     atom    7 type  1   force =    -0.00000049   -0.00000160   -0.00591768
     atom    8 type  1   force =     0.00000009    0.00126914    0.00289839
     atom    9 type  1   force =     0.00297377    0.00171621    0.05952464
     atom   10 type  1   force =    -0.00297446    0.00171692    0.05952848
     atom   11 type  1   force =     0.00000052   -0.00343508    0.05953060
     atom   12 type  1   force =    -0.00000064   -0.00000002   -0.02861223
     atom   13 type  2   force =     0.00000056    0.00000003   -0.08869392
     atom   14 type  3   force =     0.00000032    0.00000016   -0.04518704

     Total force =     0.146264     Total SCF correction =     0.006564

     entering subroutine stress ...

     negative rho (up, down):  4.764E-03 0.000E+00
          total   stress  (Ry/bohr**3)                   (kbar)     P=  -24.22
  -0.00021696   0.00000000   0.00000000        -31.92      0.00      0.00
   0.00000000  -0.00021696  -0.00000000          0.00    -31.92     -0.00
   0.00000000  -0.00000000  -0.00005998          0.00     -0.00     -8.82

     BFGS Geometry Optimization

     number of scf cycles    =   1
     number of bfgs steps    =   0

     energy   new            =   -1443.7916913480 Ry

     new trust radius        =       0.0886939203 bohr
     new conv_thr            =       0.0000099958 Ry

ATOMIC_POSITIONS (crystal)
Nb1      0.166666667   0.166666667   0.402010442    0   0   0
Nb1      0.666666667   0.166666667   0.402010442    0   0   0
Nb1      0.166666667   0.666666667   0.402010442    0   0   0
Nb1      0.666666667   0.666666667   0.402010442    0   0   0
Nb1      0.833333333   0.333333333   0.500000000    0   0   0
Nb1      0.333333333   0.333333333   0.500000000    0   0   0
Nb1      0.833333333   0.833333333   0.500000000    0   0   0
Nb1      0.333333333   0.833333333   0.500000000    0   0   0
Nb1      0.000175747   0.000175639   0.599255854
Nb1      0.499648515   0.000175713   0.599255936
Nb1      0.000175822   0.499648448   0.599255981
Nb1      0.499999944   0.499999998   0.597380876
N1       0.166666715   0.166666670   0.657509825
H1       0.166666687   0.166666683   0.700646464

     Writing output data file calc.save
     Check: negative starting charge=   -0.004973
     NEW-OLD atomic charge density approx. for the potential
     Check: negative starting charge=   -0.004961

[...]

     energy   old            =   -1443.7916913480 Ry
     energy   new            =   -1443.8102320785 Ry

     CASE: energy  _new < energy  _old

[...]

     Total force =     0.004606     Total SCF correction =     0.000280

[...]

     number of scf cycles    =  11
     number of bfgs steps    =  10

     energy   old            =   -1443.8510270678 Ry
     energy   new            =   -1443.8512188044 Ry

     CASE: energy  _new < energy  _old

     new trust radius        =       0.0070864773 bohr
     new conv_thr            =       0.0000001000 Ry

ATOMIC_POSITIONS (crystal)
Nb1      0.166666667   0.166666667   0.402010442    0   0   0
Nb1      0.666666667   0.166666667   0.402010442    0   0   0
Nb1      0.166666667   0.666666667   0.402010442    0   0   0
Nb1      0.666666667   0.666666667   0.402010442    0   0   0
Nb1      0.833333333   0.333333333   0.500000000    0   0   0
Nb1      0.333333333   0.333333333   0.500000000    0   0   0
Nb1      0.833333333   0.833333333   0.500000000    0   0   0
Nb1      0.333333333   0.833333333   0.500000000    0   0   0
Nb1     -0.002403398  -0.002404353   0.601371100
Nb1      0.504807417  -0.002403548   0.601370732
Nb1     -0.002402596   0.504806506   0.601370735
Nb1      0.500000906   0.500000930   0.584841410
N1       0.166666419   0.166665751   0.649954059
H1       0.166666408   0.166666101   0.691260694

     Writing output data file calc.save
     Check: negative starting charge=   -0.005055
     NEW-OLD atomic charge density approx. for the potential
     Check: negative starting charge=   -0.005056

[...]

     Self-consistent Calculation

[...]

     Threshold (ethr) on eigenvalues was too large:
     Diagonalizing with lowered threshold

     Davidson diagonalization with overlap
     ethr =  2.30E-08,  avg # of iterations =  4.0

[...]

     total energy              =   -1443.85124607 Ry
     Harris-Foulkes estimate   =   -1443.85124609 Ry
     estimated scf accuracy    <       0.00000010 Ry

     iteration # 10     ecut=    36.75 Ry     beta=0.30
     Davidson diagonalization with overlap
     ethr =  6.26E-11,  avg # of iterations =  3.2

[...]

     negative rho (up, down):  4.748E-03 0.000E+00

     Adding external electric field

     Computed dipole along edir(3) :
        Dipole                0.2639 Ry au,          0.6709 Debye
        Dipole field          0.0006 Ry au

        Potential amp.       -0.0587 Ry
        Total length         45.8317 bohr

     End of self-consistent calculation

[...]

          k = 0.0558-0.0645 0.0000 ( 19505 PWs)   bands (ev):

[...]

          k =-0.0837-0.0483 0.0000 ( 19524 PWs)   bands (ev):

   -52.8223 -52.7914 -52.7543 -52.7193 -52.7177 -52.6492 -52.6459 -52.6303
   -52.6070 -52.5634 -52.5489 -52.4502 -29.1756 -29.1579 -29.1012 -29.0914
   -29.0492 -29.0389 -29.0101 -28.9545 -28.9433 -28.9243 -28.9002 -28.8600
   -28.8416 -28.8026 -28.7663 -28.7314 -28.7269 -28.6950 -28.6663 -28.6607
   -28.6115 -28.5872 -28.5706 -28.5596 -28.5368 -28.4922 -28.4920 -28.4632
   -28.4048 -28.4016 -28.3948 -28.3229 -28.2787 -28.2759 -28.1913 -28.1526
   -13.4536  -4.8872  -2.2229  -1.7412  -1.5635  -1.3726  -0.6288  -0.4590
    -0.3069  -0.2717  -0.1644  -0.1294  -0.1010   0.2891   0.3630   0.5194
     0.5367   0.5794   0.6770   0.7858   0.9792   1.1617   1.2322   1.2708
     1.3107   1.3885   1.5533   1.7679   1.7884   1.8662   1.9828   1.9874
     2.0290   2.1043   2.1962   2.4470   2.4943   2.5120   2.6873   2.9364
     3.0969   3.0990   3.5187

     the Fermi energy is     2.3348 ev

!    total energy              =   -1443.85124600 Ry
     Harris-Foulkes estimate   =   -1443.85124543 Ry
     estimated scf accuracy    <       0.00000009 Ry

     The total energy is the sum of the following terms:

     one-electron contribution =  -11863.48145338 Ry
     hartree contribution      =    5928.22860596 Ry
     xc contribution           =    -234.71784972 Ry
     ewald contribution        =    4726.23034328 Ry
     electric field correction =       0.00016892 Ry
     smearing contrib. (-TS)   =      -0.11106107 Ry

     convergence has been achieved in  10 iterations

 BEEF-vdW xc energy contributions
           1 :   -201.223511712595
           2 :    182.916872953183
           3 :   -151.725987667765
           4 :    116.007256863497
           5 :   -83.7645485792453
           6 :    60.0003755900564
           7 :   -45.6816941742477
           8 :    38.4130593680856
           9 :   -34.2605201643866
          10 :    29.7341169305699
          11 :   -23.0946171204652
          12 :    14.5817341872580
          13 :   -5.73166106029183
          14 :   -1.72413690265111
          15 :    6.79370710675875
          16 :   -9.60607954085239
          17 :    11.1446700139036
          18 :   -12.5772436570172
          19 :    14.5814868124305
          20 :   -17.0293711084905
          21 :    19.1535337312792
          22 :   -20.0577643401439
          23 :    19.2500330178766
          24 :   -16.9083491159785
          25 :    13.7626989944426
          26 :   -10.7073571846572
          27 :    8.37721679384438
          28 :   -6.91382758919349
          29 :    6.01328594594369
          30 :   -5.19258638903526
          31 :   -23.2485014219464
          32 :   -17.5501052217358

     Forces acting on atoms (Ry/au):

     negative rho (up, down):  4.748E-03 0.000E+00
     atom    1 type  1   force =     0.00000044    0.00000054    0.00049247
     atom    2 type  1   force =    -0.00000015    0.00112074   -0.00268390
     atom    3 type  1   force =     0.00097035   -0.00056056   -0.00268395
     atom    4 type  1   force =    -0.00097012   -0.00056029   -0.00268385
     atom    5 type  1   force =     0.02532327   -0.01461930   -0.00578750
     atom    6 type  1   force =    -0.02532243   -0.01461968   -0.00578538
     atom    7 type  1   force =    -0.00000033   -0.00000043    0.02720328
     atom    8 type  1   force =     0.00000057    0.02924042   -0.00578839
     atom    9 type  1   force =    -0.00024671   -0.00014205   -0.00046222
     atom   10 type  1   force =     0.00024477   -0.00014183   -0.00046106
     atom   11 type  1   force =    -0.00000077    0.00028249   -0.00046152
     atom   12 type  1   force =    -0.00000123   -0.00000149    0.00163009
     atom   13 type  2   force =     0.00000182    0.00000118   -0.00124096
     atom   14 type  3   force =     0.00000052    0.00000025   -0.00128711

     Total force =     0.002595     Total SCF correction =     0.000588
     SCF correction compared to forces is large: reduce conv_thr to get better values

     entering subroutine stress ...

     negative rho (up, down):  4.748E-03 0.000E+00
          total   stress  (Ry/bohr**3)                   (kbar)     P=  -14.50
  -0.00014821   0.00000000   0.00000000        -21.80      0.00      0.00
   0.00000000  -0.00014821   0.00000000          0.00    -21.80      0.00
   0.00000000   0.00000000   0.00000073          0.00      0.00      0.11

     bfgs converged in  12 scf cycles and  11 bfgs steps
     (criteria: energy <  1.0E+00, force <  1.9E-03)

     End of BFGS Geometry Optimization

     Final energy   =   -1443.8512460020 Ry
Begin final coordinates

ATOMIC_POSITIONS (crystal)
Nb1      0.166666667   0.166666667   0.402010442    0   0   0
Nb1      0.666666667   0.166666667   0.402010442    0   0   0
Nb1      0.166666667   0.666666667   0.402010442    0   0   0
Nb1      0.666666667   0.666666667   0.402010442    0   0   0
Nb1      0.833333333   0.333333333   0.500000000    0   0   0
Nb1      0.333333333   0.333333333   0.500000000    0   0   0
Nb1      0.833333333   0.833333333   0.500000000    0   0   0
Nb1      0.333333333   0.833333333   0.500000000    0   0   0
Nb1     -0.002403398  -0.002404353   0.601371100
Nb1      0.504807417  -0.002403548   0.601370732
Nb1     -0.002402596   0.504806506   0.601370735
Nb1      0.500000906   0.500000930   0.584841410
N1       0.166666419   0.166665751   0.649954059
H1       0.166666408   0.166666101   0.691260694
End final coordinates

     Writing output data file calc.save

     General routines

     Parallel routines

   This run was terminated on:  11:58:11  27Apr2018

   JOB DONE.