     Program PWSCF v.5.1rc2 (svn rev. 11289) starts on 24Apr2018 at 10:53:22

     Current dimensions of program PWSCF are:
     Max number of different atomic species (ntypx) = 10
     Max number of k-points (npk) =  40000
     Max angular momentum in pseudopotentials (lmaxx) =  3
     Presently stress not available with electric field

     IMPORTANT: XC functional enforced from input :
     Exchange-correlation      = BEEF-VDW ( 1  4 27 13 2)
     Any further DFT definition will be discarded
     Please, verify this is what you really want

     Subspace diagonalization in iterative solution of the eigenvalue problem:
     a serial algorithm will be used

     bravais-lattice index     =            0
     lattice parameter (alat)  =       1.8897  a.u.
     unit-cell volume          =    4158.3597 (a.u.)^3
     number of atoms/cell      =           14
     number of atomic types    =            3
     number of electrons       =       162.00
     number of Kohn-Sham states=           91
     kinetic-energy cutoff     =      36.7493  Ry
     charge density cutoff     =     367.4932  Ry
     convergence threshold     =      1.0E-05
     mixing beta               =       0.3000
     number of iterations used =           10  plain     mixing
     Exchange-correlation      = BEEF-VDW ( 1  4 27 13 2)
     nstep                     =           50

     celldm(1)=   1.889726  celldm(2)=   0.000000  celldm(3)=   0.000000
     celldm(4)=   0.000000  celldm(5)=   0.000000  celldm(6)=   0.000000

     crystal axes: (cart. coord. in units of alat)
               a(1) = (   5.399178   0.000000   0.000000 )
               a(2) = (   2.699589   4.675825   0.000000 )
               a(3) = (   0.000000   0.000000  24.408411 )

     reciprocal axes: (cart. coord. in units 2 pi/alat)
               b(1) = (  0.185213 -0.106933  0.000000 )
               b(2) = (  0.000000  0.213866  0.000000 )
               b(3) = (  0.000000  0.000000  0.040969 )

     PseudoPot. # 1 for V  read from file:
     /u/if/mamunm/psp/gbrv1.5pbe/V.UPF
     MD5 check sum: 22b79981416ebb76fdaf5b1b8640f6fb
     Pseudo is Ultrasoft + core correction, Zval = 13.0
     Generated by new atomic code, or converted to UPF format
     Using radial grid of  853 points,  6 beta functions with:
                l(1) =   0
                l(2) =   0
                l(3) =   1
                l(4) =   1
                l(5) =   2
                l(6) =   2
     Q(r) pseudized with  8 coefficients,  rinner =    1.100   1.100   1.100
                                                       1.100   1.100

     PseudoPot. # 2 for N  read from file:
     /u/if/mamunm/psp/gbrv1.5pbe/N.UPF
     MD5 check sum: 95339753478d7afb44899504a8723017
     Pseudo is Ultrasoft + core correction, Zval =  5.0
     Generated by new atomic code, or converted to UPF format
     Using radial grid of  729 points,  4 beta functions with:
                l(1) =   0
                l(2) =   0
                l(3) =   1
                l(4) =   1
     Q(r) pseudized with  8 coefficients,  rinner =    0.900   0.900   0.900

     PseudoPot. # 3 for H  read from file:
     /u/if/mamunm/psp/gbrv1.5pbe/H.UPF
     MD5 check sum: 761ae9a214b05c3daf00ab9f6b793d6f
     Pseudo is Ultrasoft, Zval =  1.0
     Generated by new atomic code, or converted to UPF format
     Using radial grid of  615 points,  2 beta functions with:
                l(1) =   0
                l(2) =   0
     Q(r) pseudized with  8 coefficients,  rinner =    0.700

     vdW kernel table read from file vdW_kernel_table
     MD5 check sum: 095c7af220d748ca6e76c0b4c6cfb241

     atomic species   valence    mass     pseudopotential
        V1            13.00    50.94150     V ( 1.00)
        N1             5.00    14.00700     N ( 1.00)
        H1             1.00     1.00800     H ( 1.00)

     No symmetry found

   Cartesian axes

     site n.     atom                  positions (alat units)
         1           V1  tau(   1) = (   1.3497945   0.7793042  10.0000000  )
         2           V1  tau(   2) = (   4.0493836   0.7793042  10.0000000  )
         3           V1  tau(   3) = (   2.6995891   3.1172170  10.0000000  )
         4           V1  tau(   4) = (   5.3991782   3.1172170  10.0000000  )
         5           V1  tau(   5) = (   5.3991782   1.5586085  12.2042053  )
         6           V1  tau(   6) = (   2.6995891   1.5586085  12.2042053  )
         7           V1  tau(   7) = (   6.7489727   3.8965212  12.2042053  )
         8           V1  tau(   8) = (   4.0493836   3.8965212  12.2042053  )
         9           V1  tau(   9) = (   0.0000000   0.0000000  14.4084105  )
        10           V1  tau(  10) = (   2.6995891   0.0000000  14.4084105  )
        11           V1  tau(  11) = (   1.3497945   2.3379127  14.4084105  )
        12           V1  tau(  12) = (   4.0493836   2.3379127  14.4084105  )
        13           N1  tau(  13) = (   1.3497945   0.7793042  15.8644105  )
        14           H1  tau(  14) = (   1.3497945   0.7793042  16.9144105  )

     number of k points=    20  Fermi-Dirac smearing, width (Ry)=  0.0110
                       cart. coord. in units 2pi/alat
        k(    1) = (   0.0000000   0.0000000   0.0000000), wk =   0.0555556
        k(    2) = (   0.0000000   0.0356443   0.0000000), wk =   0.1111111
        k(    3) = (   0.0000000   0.0712887   0.0000000), wk =   0.1111111
        k(    4) = (   0.0000000  -0.1069330   0.0000000), wk =   0.0555556
        k(    5) = (   0.0308689  -0.0178222   0.0000000), wk =   0.1111111
        k(    6) = (   0.0308689   0.0178222   0.0000000), wk =   0.1111111
        k(    7) = (   0.0308689   0.0534665   0.0000000), wk =   0.1111111
        k(    8) = (   0.0308689  -0.1247552   0.0000000), wk =   0.1111111
        k(    9) = (   0.0308689  -0.0891108   0.0000000), wk =   0.1111111
        k(   10) = (   0.0308689  -0.0534665   0.0000000), wk =   0.1111111
        k(   11) = (   0.0617378  -0.0356443   0.0000000), wk =   0.1111111
        k(   12) = (   0.0617378   0.0000000   0.0000000), wk =   0.1111111
        k(   13) = (   0.0617378   0.0356443   0.0000000), wk =   0.1111111
        k(   14) = (   0.0617378  -0.1425773   0.0000000), wk =   0.1111111
        k(   15) = (   0.0617378  -0.1069330   0.0000000), wk =   0.1111111
        k(   16) = (   0.0617378  -0.0712887   0.0000000), wk =   0.1111111
        k(   17) = (  -0.0926067   0.0534665   0.0000000), wk =   0.0555556
        k(   18) = (  -0.0926067   0.0891108   0.0000000), wk =   0.1111111
        k(   19) = (  -0.0926067   0.1247552   0.0000000), wk =   0.1111111
        k(   20) = (  -0.0926067  -0.0534665   0.0000000), wk =   0.0555556

     Largest allocated arrays     est. size (Mb)     dimensions
     Largest temporary arrays     est. size (Mb)     dimensions

     Check: negative/imaginary core charge=   -0.000001    0.000000

     Initial potential from superposition of free atoms
     Check: negative starting charge=   -0.011565

     starting charge  161.98525, renormalised to  162.00000

     negative rho (up, down):  1.157E-02 0.000E+00

     *
     * You are using vdW-DF for exchange-correlation in this calculation.
     * Please cite the following three references that made this development
     * possible:
     *
     *   M. Dion, H. Rydberg, E. Schroder, D. C. Langreth, and
     *   B. I. Lundqvist, Phys. Rev. Lett. 92, 246401 (2004).
     *
     *   T. Thonhauser, V. R. Cooper, S. Li, A. Puzder, P. Hyldgaard, and
     *   D. C. Langreth, Phys. Rev. B 76, 125112 (2007).
     *
     *   G. Roman-Perez and J. M. Soler, Phys. Rev. Lett. 103, 096102 (2009).
     *
     *
     * If you are using vdW-DF2, please also cite:
     *
     *   K. Lee, E. D. Murray, L. Kong, B. I. Lundqvist, and
     *   D. C. Langreth, Phys. Rev. B 82, 081101(R) (2010).
     *
     *
     * If you are calculating the stress with vdW-DF, please also cite:
     *
     *   R. Sabatini, E. Kucukbenli, B. Kolb, T. Thonhauser, and
     *   S. de Gironcoli, J. Phys.: Condens. Matter 24, 424209 (2012).
     *

     Carrying out vdW-DF run using the following parameters:

     Nqs =      20    Nr_points =    1024   r_max =   100.000
     q_mesh =
               0.00001000     0.04494208     0.09755937     0.15916263
               0.23128650     0.31572767     0.41458969     0.53033537
               0.66584808     0.82450364     1.01025438     1.22772762
               1.48234092     1.78043706     2.12944203     2.53805004
               3.01644009     3.57652955     4.23227104     5.00000000

     Gradients computed in reciprocal space

     Adding external electric field

     Computed dipole along edir(3) :
        Dipole               -0.0038 Ry au,         -0.0097 Debye
        Dipole field         -0.0000 Ry au

        Potential amp.        0.0010 Ry
        Total length         44.9721 bohr

     Starting wfc are  125 randomized atomic wfcs

     Self-consistent Calculation

     iteration #  1     ecut=    36.75 Ry     beta=0.30
     Davidson diagonalization with overlap
     ethr =  1.00E-02,  avg # of iterations =  2.4

[...]

     total energy              =   -1765.43615437 Ry
     Harris-Foulkes estimate   =   -1771.32154764 Ry
     estimated scf accuracy    <      12.18163718 Ry

[...]

     End of self-consistent calculation

          k = 0.0000 0.0000 0.0000 ( 15569 PWs)   bands (ev):

   -62.9144 -62.8319 -62.7918 -62.7915 -62.7910 -62.7544 -62.7265 -62.7262
   -62.7151 -62.6718 -62.6716 -62.6715 -36.9922 -36.9800 -36.9800 -36.9491
   -36.9362 -36.9285 -36.9284 -36.8372 -36.8358 -36.8357 -36.6919 -36.6291
   -36.6200 -36.6197 -36.5507 -36.5505 -36.5467 -36.4978 -36.4977 -36.4933
   -36.4233 -36.4232 -36.4147 -36.4104 -36.4090 -36.4089 -36.3713 -36.3398
   -36.3398 -36.3246 -36.3245 -36.3209 -36.2766 -36.2766 -36.1997 -36.1997
   -13.6502  -5.4976  -4.4444  -2.8463  -2.0959  -2.0959  -1.9142  -1.6275
    -1.5409  -1.5409  -1.2560  -1.1925  -1.1924  -0.8891  -0.8891  -0.8659
    -0.6024  -0.5908  -0.5908   0.1828   0.1828   0.3708   0.8835   1.0702
     1.0745   1.0745   1.2706   1.4262   1.5672   1.5672   1.6410   1.6411
     1.7016   1.7399   1.7399   1.8203   1.8417   1.8417   1.8986   1.8986
     2.1633   2.4388   2.4389

[...]

          k =-0.0926 0.0535 0.0000 ( 15660 PWs)   bands (ev):

[...]

     the Fermi energy is     1.4360 ev

!    total energy              =   -1770.52614819 Ry
     Harris-Foulkes estimate   =   -1770.52614340 Ry
     estimated scf accuracy    <       0.00000240 Ry

     The total energy is the sum of the following terms:

     one-electron contribution =  -15379.38567166 Ry
     hartree contribution      =    7681.04102123 Ry
     xc contribution           =    -250.49385265 Ry
     ewald contribution        =    6178.45281347 Ry
     electric field correction =       0.00016118 Ry
     smearing contrib. (-TS)   =      -0.14061976 Ry

     convergence has been achieved in  30 iterations

 BEEF-vdW xc energy contributions
           1 :   -215.761570284292
           2 :    193.535251059770
           3 :   -156.852993245077
           4 :    117.261872663179
           5 :   -84.7889728559757
           6 :    64.1801918794170
           7 :   -54.2755207199851
           8 :    50.2484413423789
           9 :   -47.0255614247411
          10 :    41.8785807760960
          11 :   -35.0468114450659
          12 :    28.5422861012394
          13 :   -24.2634103030732
          14 :    22.6647024065267
          15 :   -22.6505025978437
          16 :    22.5061783228628
          17 :   -21.0974053467295
          18 :    18.5129659525770
          19 :   -15.8059000310485
          20 :    14.1195484674851
          21 :   -13.8631779879873
          22 :    14.4880569673724
          23 :   -14.9516407553971
          24 :    14.4742461369386
          25 :   -13.0388134498089
          26 :    11.3184162341638
          27 :   -10.1432962921103
          28 :    9.91594368665781
          29 :   -10.3761454501290
          30 :    10.8399370461019
          31 :   -22.4540649911183
          32 :   -16.1793132314322

     Forces acting on atoms (Ry/au):

     negative rho (up, down):  1.561E-02 0.000E+00
     atom    1 type  1   force =     0.00000588    0.00001353   -0.00108162
     atom    2 type  1   force =    -0.00000475    0.00140063    0.00030915
     atom    3 type  1   force =     0.00119706   -0.00070886    0.00029822
     atom    4 type  1   force =    -0.00119997   -0.00070330    0.00029995
     atom    5 type  1   force =     0.00018749   -0.00010385    0.00192887
     atom    6 type  1   force =    -0.00018270   -0.00009293    0.00190122
     atom    7 type  1   force =     0.00000720   -0.00000854   -0.00394059
     atom    8 type  1   force =    -0.00001305    0.00020692    0.00189949
     atom    9 type  1   force =    -0.00040637   -0.00022881    0.05338533
     atom   10 type  1   force =     0.00040741   -0.00021707    0.05335296
     atom   11 type  1   force =     0.00001235    0.00045498    0.05337281
     atom   12 type  1   force =    -0.00000600   -0.00001095   -0.02700946
     atom   13 type  2   force =    -0.00000323   -0.00000295   -0.08741737
     atom   14 type  3   force =    -0.00000133    0.00000120   -0.04729896

     Total force =     0.138399     Total SCF correction =     0.002714

     entering subroutine stress ...

     negative rho (up, down):  1.561E-02 0.000E+00
          total   stress  (Ry/bohr**3)                   (kbar)     P=  -23.72
  -0.00018138   0.00000001   0.00000001        -26.68      0.00      0.00
   0.00000001  -0.00018139   0.00000002          0.00    -26.68      0.00
   0.00000001   0.00000002  -0.00012104          0.00      0.00    -17.81

     BFGS Geometry Optimization

     number of scf cycles    =   1
     number of bfgs steps    =   0

     energy   new            =   -1770.5261481912 Ry

     new trust radius        =       0.0874173683 bohr
     new conv_thr            =       0.0000099958 Ry

ATOMIC_POSITIONS (crystal)
V1       0.166666667   0.166666667   0.409694847    0   0   0
V1       0.666666667   0.166666667   0.409694847    0   0   0
V1       0.166666667   0.666666667   0.409694847    0   0   0
V1       0.666666667   0.666666667   0.409694847    0   0   0
V1       0.833333333   0.333333333   0.500000000    0   0   0
V1       0.333333333   0.333333333   0.500000000    0   0   0
V1       0.833333333   0.833333333   0.500000000    0   0   0
V1       0.333333333   0.833333333   0.500000000    0   0   0
V1      -0.000026881  -0.000025896   0.591462554
V1       0.500052214  -0.000024567   0.591461852
V1      -0.000024535   0.500051491   0.591462282
V1       0.500000032   0.499998761   0.589719585
N1       0.166666517   0.166666333   0.648061504
H1       0.166666468   0.166666803   0.691949235

     Writing output data file calc.save
     Check: negative starting charge=   -0.011565
     NEW-OLD atomic charge density approx. for the potential

     Check: negative/imaginary core charge=   -0.000001    0.000000
     Check: negative starting charge=   -0.011500

[...]

     energy   old            =   -1770.5261481912 Ry
     energy   new            =   -1770.5426000264 Ry

     CASE: energy  _new < energy  _old

[...]

     Total force =     0.006333     Total SCF correction =     0.000376

[...]

     number of scf cycles    =  11
     number of bfgs steps    =  10

     energy   old            =   -1770.5834843676 Ry
     energy   new            =   -1770.5837793511 Ry

     CASE: energy  _new < energy  _old

     new trust radius        =       0.0104527392 bohr
     new conv_thr            =       0.0000001000 Ry

ATOMIC_POSITIONS (crystal)
V1       0.166666667   0.166666667   0.409694847    0   0   0
V1       0.666666667   0.166666667   0.409694847    0   0   0
V1       0.166666667   0.666666667   0.409694847    0   0   0
V1       0.666666667   0.666666667   0.409694847    0   0   0
V1       0.833333333   0.333333333   0.500000000    0   0   0
V1       0.333333333   0.333333333   0.500000000    0   0   0
V1       0.833333333   0.833333333   0.500000000    0   0   0
V1       0.333333333   0.833333333   0.500000000    0   0   0
V1      -0.004098549  -0.004099099   0.593148599
V1       0.508197764  -0.004099829   0.593149168
V1      -0.004098837   0.508197491   0.593149095
V1       0.500000218   0.500001509   0.574279935
N1       0.166667692   0.166666723   0.640833622
H1       0.166667100   0.166666587   0.682877005

     Writing output data file calc.save
     Check: negative starting charge=   -0.011369
     NEW-OLD atomic charge density approx. for the potential

     Check: negative/imaginary core charge=   -0.000001    0.000000
     Check: negative starting charge=   -0.011414

[...]

     Self-consistent Calculation

[...]

     total energy              =   -1770.58383495 Ry
     Harris-Foulkes estimate   =   -1770.58383501 Ry
     estimated scf accuracy    <       0.00000035 Ry

     iteration # 18     ecut=    36.75 Ry     beta=0.30
     Davidson diagonalization with overlap
     ethr =  1.02E-10,  avg # of iterations =  2.0

[...]

     negative rho (up, down):  1.629E-02 0.000E+00

     Adding external electric field

     Computed dipole along edir(3) :
        Dipole                0.2805 Ry au,          0.7129 Debye
        Dipole field          0.0008 Ry au

        Potential amp.       -0.0762 Ry
        Total length         44.9721 bohr

     End of self-consistent calculation

[...]

          k = 0.0617-0.0713 0.0000 ( 15642 PWs)   bands (ev):

[...]

          k =-0.0926-0.0535 0.0000 ( 15660 PWs)   bands (ev):

   -62.7897 -62.7569 -62.7270 -62.6872 -62.6747 -62.6321 -62.6238 -62.6034
   -62.6018 -62.5835 -62.5701 -62.3729 -36.8272 -36.8091 -36.7610 -36.7595
   -36.7247 -36.7151 -36.6746 -36.6497 -36.6327 -36.6218 -36.6158 -36.5908
   -36.5864 -36.5360 -36.5327 -36.4758 -36.4633 -36.4630 -36.4243 -36.4124
   -36.4120 -36.3990 -36.3885 -36.3749 -36.3430 -36.3378 -36.3194 -36.3044
   -36.2864 -36.2548 -36.2463 -36.1807 -36.1738 -36.0664 -36.0165 -35.9419
   -14.3146  -5.7499  -3.1857  -2.7575  -2.4906  -2.4318  -1.4196  -1.2467
    -0.8933  -0.8545  -0.7938  -0.7884  -0.6901  -0.3518  -0.2070  -0.0813
     0.0099   0.0204   0.1504   0.2141   0.4139   0.4849   0.6175   0.6498
     0.6705   0.6906   0.7998   0.9212   1.0120   1.0927   1.1336   1.1491
     1.2405   1.3697   1.4038   1.6678   1.6862   1.6988   1.8581   1.9334
     2.1332   2.3012   2.5065

     the Fermi energy is     1.5073 ev

!    total energy              =   -1770.58383489 Ry
     Harris-Foulkes estimate   =   -1770.58383365 Ry
     estimated scf accuracy    <       0.00000008 Ry

     The total energy is the sum of the following terms:

     one-electron contribution =  -15533.75790907 Ry
     hartree contribution      =    7758.73391387 Ry
     xc contribution           =    -250.77751984 Ry
     ewald contribution        =    6255.34924447 Ry
     electric field correction =       0.00023775 Ry
     smearing contrib. (-TS)   =      -0.13180207 Ry

     convergence has been achieved in  18 iterations

 BEEF-vdW xc energy contributions
           1 :   -216.049780813089
           2 :    193.896202230990
           3 :   -157.279024094925
           4 :    117.657327284524
           5 :   -85.0292607191748
           6 :    64.1906558900296
           7 :   -54.0813073680662
           8 :    49.9621469120762
           9 :   -46.7817725084853
          10 :    41.7568279628960
          11 :   -35.0294183916775
          12 :    28.5343123253394
          13 :   -24.1620627509543
          14 :    22.4326253472143
          15 :   -22.3438748361994
          16 :    22.2376418075585
          17 :   -20.9592751296952
          18 :    18.5143162689238
          19 :   -15.8660270091643
          20 :    14.1198640593997
          21 :   -13.7209459723504
          22 :    14.2040779077418
          23 :   -14.6053523910175
          24 :    14.1748161892266
          25 :   -12.8642235177170
          26 :    11.2759998238458
          27 :   -10.1723263590295
          28 :    9.92952947716267
          29 :   -10.3168988857823
          30 :    10.7141868590155
          31 :   -22.4719910918380
          32 :   -16.2087072460865

     Forces acting on atoms (Ry/au):

     negative rho (up, down):  1.629E-02 0.000E+00
     atom    1 type  1   force =     0.00000138    0.00000248    0.00484282
     atom    2 type  1   force =    -0.00000009    0.00149191    0.00058804
     atom    3 type  1   force =     0.00129021   -0.00074504    0.00058628
     atom    4 type  1   force =    -0.00128895   -0.00074400    0.00058874
     atom    5 type  1   force =     0.02468059   -0.01424434   -0.00915231
     atom    6 type  1   force =    -0.02468050   -0.01424626   -0.00915139
     atom    7 type  1   force =    -0.00000071   -0.00000073    0.02416342
     atom    8 type  1   force =     0.00000194    0.02849619   -0.00915747
     atom    9 type  1   force =    -0.00022081   -0.00012729   -0.00056493
     atom   10 type  1   force =     0.00021955   -0.00012587   -0.00056464
     atom   11 type  1   force =     0.00000039    0.00024461   -0.00056095
     atom   12 type  1   force =    -0.00000073   -0.00000302    0.00087781
     atom   13 type  2   force =    -0.00000224    0.00000013   -0.00109905
     atom   14 type  3   force =    -0.00000003    0.00000122   -0.00139637

     Total force =     0.002252     Total SCF correction =     0.000570
     SCF correction compared to forces is large: reduce conv_thr to get better values

     entering subroutine stress ...

     negative rho (up, down):  1.629E-02 0.000E+00
          total   stress  (Ry/bohr**3)                   (kbar)     P=  -10.91
  -0.00010167   0.00000000   0.00000000        -14.96      0.00      0.00
   0.00000000  -0.00010168   0.00000001          0.00    -14.96      0.00
   0.00000000   0.00000001  -0.00001924          0.00      0.00     -2.83

     bfgs converged in  12 scf cycles and  11 bfgs steps
     (criteria: energy <  1.0E+00, force <  1.9E-03)

     End of BFGS Geometry Optimization

     Final energy   =   -1770.5838348879 Ry
Begin final coordinates

ATOMIC_POSITIONS (crystal)
V1       0.166666667   0.166666667   0.409694847    0   0   0
V1       0.666666667   0.166666667   0.409694847    0   0   0
V1       0.166666667   0.666666667   0.409694847    0   0   0
V1       0.666666667   0.666666667   0.409694847    0   0   0
V1       0.833333333   0.333333333   0.500000000    0   0   0
V1       0.333333333   0.333333333   0.500000000    0   0   0
V1       0.833333333   0.833333333   0.500000000    0   0   0
V1       0.333333333   0.833333333   0.500000000    0   0   0
V1      -0.004098549  -0.004099099   0.593148599
V1       0.508197764  -0.004099829   0.593149168
V1      -0.004098837   0.508197491   0.593149095
V1       0.500000218   0.500001509   0.574279935
N1       0.166667692   0.166666723   0.640833622
H1       0.166667100   0.166666587   0.682877005
End final coordinates

     Writing output data file calc.save

     General routines

     Parallel routines

   This run was terminated on:  12:26:29  24Apr2018

   JOB DONE.
Job  /afs/slac/g/suncat/bin/suncat-tsmpirun -x LD_LIBRARY_PATH -wdir /scratch/qe742409_Hi28Q pw.x -npool 4 -in pw.inp

TID   HOST_NAME   COMMAND_LINE            STATUS            TERMINATION_TIME
00000 suncat0028 pw.x -npool 4 -i  Done                     04/24/2018 12:26:29
00001 suncat0028 pw.x -npool 4 -i  Done                     04/24/2018 12:26:29
00002 suncat0028 pw.x -npool 4 -i  Done                     04/24/2018 12:26:29
00003 suncat0028 pw.x -npool 4 -i  Done                     04/24/2018 12:26:29
00004 suncat0028 pw.x -npool 4 -i  Done                     04/24/2018 12:26:29
00005 suncat0028 pw.x -npool 4 -i  Done                     04/24/2018 12:26:29
00006 suncat0028 pw.x -npool 4 -i  Done                     04/24/2018 12:26:29
00007 suncat0028 pw.x -npool 4 -i  Done                     04/24/2018 12:26:29
00008 suncat0124 pw.x -npool 4 -i  Done                     04/24/2018 12:26:29
00009 suncat0124 pw.x -npool 4 -i  Done                     04/24/2018 12:26:29
00010 suncat0124 pw.x -npool 4 -i  Done                     04/24/2018 12:26:29
00011 suncat0124 pw.x -npool 4 -i  Done                     04/24/2018 12:26:29
00012 suncat0124 pw.x -npool 4 -i  Done                     04/24/2018 12:26:29
00013 suncat0124 pw.x -npool 4 -i  Done                     04/24/2018 12:26:29
00014 suncat0124 pw.x -npool 4 -i  Done                     04/24/2018 12:26:29
00015 suncat0124 pw.x -npool 4 -i  Done                     04/24/2018 12:26:29
00016 suncat0105 pw.x -npool 4 -i  Done                     04/24/2018 12:26:29
00017 suncat0105 pw.x -npool 4 -i  Done                     04/24/2018 12:26:29
00018 suncat0105 pw.x -npool 4 -i  Done                     04/24/2018 12:26:29
00019 suncat0105 pw.x -npool 4 -i  Done                     04/24/2018 12:26:29
00020 suncat0105 pw.x -npool 4 -i  Done                     04/24/2018 12:26:29
00021 suncat0105 pw.x -npool 4 -i  Done                     04/24/2018 12:26:29
00022 suncat0105 pw.x -npool 4 -i  Done                     04/24/2018 12:26:29
00023 suncat0105 pw.x -npool 4 -i  Done                     04/24/2018 12:26:29
00024 suncat0235 pw.x -npool 4 -i  Done                     04/24/2018 12:26:29
00025 suncat0235 pw.x -npool 4 -i  Done                     04/24/2018 12:26:29
00026 suncat0235 pw.x -npool 4 -i  Done                     04/24/2018 12:26:29
00027 suncat0235 pw.x -npool 4 -i  Done                     04/24/2018 12:26:29
00028 suncat0235 pw.x -npool 4 -i  Done                     04/24/2018 12:26:29
00029 suncat0235 pw.x -npool 4 -i  Done                     04/24/2018 12:26:29
00030 suncat0235 pw.x -npool 4 -i  Done                     04/24/2018 12:26:29
00031 suncat0235 pw.x -npool 4 -i  Done                     04/24/2018 12:26:29