     Program PWSCF v.5.1rc2 (svn rev. 11289) starts on 14Jan2018 at 10:54:23

     Current dimensions of program PWSCF are:
     Max number of different atomic species (ntypx) = 10
     Max number of k-points (npk) =  40000
     Max angular momentum in pseudopotentials (lmaxx) =  3
     Presently stress not available with electric field

     IMPORTANT: XC functional enforced from input :
     Exchange-correlation      = BEEF-VDW ( 1  4 27 13 2)
     Any further DFT definition will be discarded
     Please, verify this is what you really want

     Subspace diagonalization in iterative solution of the eigenvalue problem:
     a serial algorithm will be used

     bravais-lattice index     =            0
     lattice parameter (alat)  =       1.8897  a.u.
     unit-cell volume          =    4299.0717 (a.u.)^3
     number of atoms/cell      =           13
     number of atomic types    =            2
     number of electrons       =       186.00
     number of Kohn-Sham states=          103
     kinetic-energy cutoff     =      36.7493  Ry
     charge density cutoff     =     367.4932  Ry
     convergence threshold     =      1.0E-05
     mixing beta               =       0.3000
     number of iterations used =           10  plain     mixing
     Exchange-correlation      = BEEF-VDW ( 1  4 27 13 2)
     nstep                     =           50

     celldm(1)=   1.889726  celldm(2)=   0.000000  celldm(3)=   0.000000
     celldm(4)=   0.000000  celldm(5)=   0.000000  celldm(6)=   0.000000

     crystal axes: (cart. coord. in units of alat)
               a(1) = (   5.482164   0.000000   0.000000 )
               a(2) = (   2.741082   4.747693   0.000000 )
               a(3) = (   0.000000   0.000000  24.476168 )

     reciprocal axes: (cart. coord. in units 2 pi/alat)
               b(1) = (  0.182410 -0.105314  0.000000 )
               b(2) = (  0.000000  0.210629  0.000000 )
               b(3) = (  0.000000  0.000000  0.040856 )

     PseudoPot. # 1 for Ir read from file:
     /afs/slac.stanford.edu/u/if/mamunm/psp/gbrv1.5pbe/Ir.UPF
     MD5 check sum: 8836f839c3459d2b385c504ce6d91f2c
     Pseudo is Ultrasoft + core correction, Zval = 15.0
     Generated by new atomic code, or converted to UPF format
     Using radial grid of  983 points,  7 beta functions with:
                l(1) =   0
                l(2) =   0
                l(3) =   1
                l(4) =   1
                l(5) =   1
                l(6) =   2
                l(7) =   2
     Q(r) pseudized with  8 coefficients,  rinner =    1.400   1.400   1.400
                                                       1.400   1.400

     PseudoPot. # 2 for O  read from file:
     /afs/slac.stanford.edu/u/if/mamunm/psp/gbrv1.5pbe/O.UPF
     MD5 check sum: 734c27235a0248c51dbae37a1fbe46ec
     Pseudo is Ultrasoft + core correction, Zval =  6.0
     Generated by new atomic code, or converted to UPF format
     Using radial grid of  737 points,  5 beta functions with:
                l(1) =   0
                l(2) =   0
                l(3) =   1
                l(4) =   1
                l(5) =   2
     Q(r) pseudized with  8 coefficients,  rinner =    0.900   0.900   0.900
                                                       0.900   0.900

     vdW kernel table read from file vdW_kernel_table
     MD5 check sum: 095c7af220d748ca6e76c0b4c6cfb241

     atomic species   valence    mass     pseudopotential
        Ir1           15.00   192.21700     Ir( 1.00)
        O1             6.00    15.99900     O ( 1.00)

     No symmetry found

   Cartesian axes

     site n.     atom                  positions (alat units)
         1           Ir1 tau(   1) = (   1.3705410   0.7912822  10.0000000  )
         2           Ir1 tau(   2) = (   4.1116229   0.7912822  10.0000000  )
         3           Ir1 tau(   3) = (   2.7410819   3.1651288  10.0000000  )
         4           Ir1 tau(   4) = (   5.4821639   3.1651288  10.0000000  )
         5           Ir1 tau(   5) = (   5.4821639   1.5825644  12.2380840  )
         6           Ir1 tau(   6) = (   2.7410819   1.5825644  12.2380840  )
         7           Ir1 tau(   7) = (   6.8527049   3.9564110  12.2380840  )
         8           Ir1 tau(   8) = (   4.1116229   3.9564110  12.2380840  )
         9           Ir1 tau(   9) = (   0.0000000   0.0000000  14.4761681  )
        10           Ir1 tau(  10) = (   2.7410819   0.0000000  14.4761681  )
        11           Ir1 tau(  11) = (   1.3705410   2.3738466  14.4761681  )
        12           Ir1 tau(  12) = (   4.1116229   2.3738466  14.4761681  )
        13           O1  tau(  13) = (   1.3705410   0.7912822  16.5461681  )

     number of k points=    20  Fermi-Dirac smearing, width (Ry)=  0.0110
                       cart. coord. in units 2pi/alat
        k(    1) = (   0.0000000   0.0000000   0.0000000), wk =   0.0555556
        k(    2) = (   0.0000000   0.0351048   0.0000000), wk =   0.1111111
        k(    3) = (   0.0000000   0.0702095   0.0000000), wk =   0.1111111
        k(    4) = (   0.0000000  -0.1053143   0.0000000), wk =   0.0555556
        k(    5) = (   0.0304016  -0.0175524   0.0000000), wk =   0.1111111
        k(    6) = (   0.0304016   0.0175524   0.0000000), wk =   0.1111111
        k(    7) = (   0.0304016   0.0526572   0.0000000), wk =   0.1111111
        k(    8) = (   0.0304016  -0.1228667   0.0000000), wk =   0.1111111
        k(    9) = (   0.0304016  -0.0877619   0.0000000), wk =   0.1111111
        k(   10) = (   0.0304016  -0.0526572   0.0000000), wk =   0.1111111
        k(   11) = (   0.0608032  -0.0351048   0.0000000), wk =   0.1111111
        k(   12) = (   0.0608032   0.0000000   0.0000000), wk =   0.1111111
        k(   13) = (   0.0608032   0.0351048   0.0000000), wk =   0.1111111
        k(   14) = (   0.0608032  -0.1404191   0.0000000), wk =   0.1111111
        k(   15) = (   0.0608032  -0.1053143   0.0000000), wk =   0.1111111
        k(   16) = (   0.0608032  -0.0702095   0.0000000), wk =   0.1111111
        k(   17) = (  -0.0912049   0.0526572   0.0000000), wk =   0.0555556
        k(   18) = (  -0.0912049   0.0877619   0.0000000), wk =   0.1111111
        k(   19) = (  -0.0912049   0.1228667   0.0000000), wk =   0.1111111
        k(   20) = (  -0.0912049  -0.0526572   0.0000000), wk =   0.0555556

     Largest allocated arrays     est. size (Mb)     dimensions
     Largest temporary arrays     est. size (Mb)     dimensions

     Initial potential from superposition of free atoms
     Check: negative starting charge=   -4.361945

     starting charge  179.99962, renormalised to  186.00000

     negative rho (up, down):  4.507E+00 0.000E+00

     *
     * You are using vdW-DF for exchange-correlation in this calculation.
     * Please cite the following three references that made this development
     * possible:
     *
     *   M. Dion, H. Rydberg, E. Schroder, D. C. Langreth, and
     *   B. I. Lundqvist, Phys. Rev. Lett. 92, 246401 (2004).
     *
     *   T. Thonhauser, V. R. Cooper, S. Li, A. Puzder, P. Hyldgaard, and
     *   D. C. Langreth, Phys. Rev. B 76, 125112 (2007).
     *
     *   G. Roman-Perez and J. M. Soler, Phys. Rev. Lett. 103, 096102 (2009).
     *
     *
     * If you are using vdW-DF2, please also cite:
     *
     *   K. Lee, E. D. Murray, L. Kong, B. I. Lundqvist, and
     *   D. C. Langreth, Phys. Rev. B 82, 081101(R) (2010).
     *
     *
     * If you are calculating the stress with vdW-DF, please also cite:
     *
     *   R. Sabatini, E. Kucukbenli, B. Kolb, T. Thonhauser, and
     *   S. de Gironcoli, J. Phys.: Condens. Matter 24, 424209 (2012).
     *

     Carrying out vdW-DF run using the following parameters:

     Nqs =      20    Nr_points =    1024   r_max =   100.000
     q_mesh =
               0.00001000     0.04494208     0.09755937     0.15916263
               0.23128650     0.31572767     0.41458969     0.53033537
               0.66584808     0.82450364     1.01025438     1.22772762
               1.48234092     1.78043706     2.12944203     2.53805004
               3.01644009     3.57652955     4.23227104     5.00000000

     Gradients computed in reciprocal space

     Adding external electric field

     Computed dipole along edir(3) :
        Dipole               -1.6283 Ry au,         -4.1387 Debye
        Dipole field         -0.0048 Ry au

        Potential amp.        0.4293 Ry
        Total length         45.0969 bohr

     Starting wfc are  148 randomized atomic wfcs

     Self-consistent Calculation

     iteration #  1     ecut=    36.75 Ry     beta=0.30
     Davidson diagonalization with overlap
     ethr =  1.00E-02,  avg # of iterations =  2.9

[...]

     total energy              =   -2196.45645992 Ry
     Harris-Foulkes estimate   =   -2234.88306151 Ry
     estimated scf accuracy    <      80.81068376 Ry

     iteration #  2     ecut=    36.75 Ry     beta=0.30
     Davidson diagonalization with overlap
     c_bands:  1 eigenvalues not converged
     ethr =  1.00E-02,  avg # of iterations = 15.9

[...]

     End of self-consistent calculation

          k = 0.0000 0.0000 0.0000 ( 16073 PWs)   bands (ev):

   -48.3277 -48.3276 -48.3147 -48.1933 -48.1109 -48.1108 -48.1063 -47.9326
   -47.8993 -47.8992 -47.8956 -47.8286 -47.8285 -47.7765 -47.7765 -47.7330
   -47.7328 -47.7158 -47.5712 -47.5710 -47.5692 -47.5004 -47.4570 -47.4567
   -47.3687 -47.3663 -47.3661 -47.3630 -47.3222 -47.3038 -47.3035 -47.2934
   -47.2934 -47.2894 -47.2351 -47.2350 -14.2027  -7.6974  -5.7786  -5.4415
    -5.1323  -5.1318  -5.1318  -4.8361  -4.8361  -4.8325  -4.3541  -4.3318
    -4.3318  -4.0572  -4.0415  -4.0415  -2.6211  -2.5688  -2.5688  -2.0146
    -2.0146  -2.0079  -1.8257  -1.6781  -1.6781  -1.4725  -1.2314  -1.2314
    -1.1831  -1.1720  -1.1719  -0.9141  -0.9141  -0.7049  -0.7049  -0.6444
    -0.1045   0.2175   0.2175   0.6714   0.7274   0.7275   0.7731   0.7731
     0.9063   1.0497   1.0497   1.5169   1.5169   1.5398   2.1952   2.1996
     2.1997   2.2138   2.3515   2.3515   2.4200   2.4200   2.7231   2.7407
     2.7408   2.8314   3.1748   3.2127   3.2128   3.2623   3.2623

[...]

          k =-0.0912 0.0527 0.0000 ( 16164 PWs)   bands (ev):

[...]

     the Fermi energy is     1.7953 ev

!    total energy              =   -2232.14428707 Ry
     Harris-Foulkes estimate   =   -2232.14425997 Ry
     estimated scf accuracy    <       0.00000364 Ry

     The total energy is the sum of the following terms:

     one-electron contribution =  -18791.68762875 Ry
     hartree contribution      =    9425.08732908 Ry
     xc contribution           =    -630.77940855 Ry
     ewald contribution        =    7765.33101528 Ry
     electric field correction =       0.00078518 Ry
     smearing contrib. (-TS)   =      -0.09637930 Ry

     convergence has been achieved in  20 iterations

 BEEF-vdW xc energy contributions
           1 :   -558.473091964370
           2 :    519.137798824704
           3 :   -448.999389902744
           4 :    362.030658650686
           5 :   -273.388924233241
           6 :    195.549034554975
           7 :   -135.739116095026
           8 :    95.2052939705279
           9 :   -70.3130121349575
          10 :    54.8887514708197
[...]

[...]

   This run was terminated on:  12:39: 8  14Jan2018

[...]

   This run was terminated on:  12:55:38  14Jan2018

[...]

     Program PWSCF v.5.1rc2 (svn rev. 11289) starts on 14Jan2018 at 12:55:44

     Current dimensions of program PWSCF are:
     Max number of different atomic species (ntypx) = 10
     Max number of k-points (npk) =  40000
     Max angular momentum in pseudopotentials (lmaxx) =  3
     Presently stress not available with electric field

     IMPORTANT: XC functional enforced from input :
     Exchange-correlation      = BEEF-VDW ( 1  4 27 13 2)
     Any further DFT definition will be discarded
     Please, verify this is what you really want

     Subspace diagonalization in iterative solution of the eigenvalue problem:
     a serial algorithm will be used

     bravais-lattice index     =            0
     lattice parameter (alat)  =       1.8897  a.u.
     unit-cell volume          =    4299.0717 (a.u.)^3
     number of atoms/cell      =           13
     number of atomic types    =            2
     number of electrons       =       186.00
     number of Kohn-Sham states=          103
     kinetic-energy cutoff     =      36.7493  Ry
     charge density cutoff     =     367.4932  Ry
     convergence threshold     =      1.0E-05
     mixing beta               =       0.3000
     number of iterations used =           10  plain     mixing
     Exchange-correlation      = BEEF-VDW ( 1  4 27 13 2)
     nstep                     =           50

     celldm(1)=   1.889726  celldm(2)=   0.000000  celldm(3)=   0.000000
     celldm(4)=   0.000000  celldm(5)=   0.000000  celldm(6)=   0.000000

     crystal axes: (cart. coord. in units of alat)
               a(1) = (   5.482164   0.000000   0.000000 )
               a(2) = (   2.741082   4.747693   0.000000 )
               a(3) = (   0.000000   0.000000  24.476168 )

     reciprocal axes: (cart. coord. in units 2 pi/alat)
               b(1) = (  0.182410 -0.105314  0.000000 )
               b(2) = (  0.000000  0.210629  0.000000 )
               b(3) = (  0.000000  0.000000  0.040856 )

     PseudoPot. # 1 for Ir read from file:
     /afs/slac.stanford.edu/u/if/mamunm/psp/gbrv1.5pbe/Ir.UPF
     MD5 check sum: 8836f839c3459d2b385c504ce6d91f2c
     Pseudo is Ultrasoft + core correction, Zval = 15.0
     Generated by new atomic code, or converted to UPF format
     Using radial grid of  983 points,  7 beta functions with:
                l(1) =   0
                l(2) =   0
                l(3) =   1
                l(4) =   1
                l(5) =   1
                l(6) =   2
                l(7) =   2
     Q(r) pseudized with  8 coefficients,  rinner =    1.400   1.400   1.400
                                                       1.400   1.400

     PseudoPot. # 2 for O  read from file:
     /afs/slac.stanford.edu/u/if/mamunm/psp/gbrv1.5pbe/O.UPF
     MD5 check sum: 734c27235a0248c51dbae37a1fbe46ec
     Pseudo is Ultrasoft + core correction, Zval =  6.0
     Generated by new atomic code, or converted to UPF format
     Using radial grid of  737 points,  5 beta functions with:
                l(1) =   0
                l(2) =   0
                l(3) =   1
                l(4) =   1
                l(5) =   2
     Q(r) pseudized with  8 coefficients,  rinner =    0.900   0.900   0.900
                                                       0.900   0.900

     vdW kernel table read from file vdW_kernel_table
     MD5 check sum: 095c7af220d748ca6e76c0b4c6cfb241

     atomic species   valence    mass     pseudopotential
        Ir1           15.00   192.21700     Ir( 1.00)
        O1             6.00    15.99900     O ( 1.00)

     No symmetry found

   Cartesian axes

     site n.     atom                  positions (alat units)
         1           Ir1 tau(   1) = (   1.3705410   0.7912822  10.0000000  )
         2           Ir1 tau(   2) = (   4.1116229   0.7912822  10.0000000  )
         3           Ir1 tau(   3) = (   2.7410819   3.1651288  10.0000000  )
         4           Ir1 tau(   4) = (   5.4821639   3.1651288  10.0000000  )
         5           Ir1 tau(   5) = (   5.4821639   1.5825644  12.2380840  )
         6           Ir1 tau(   6) = (   2.7410819   1.5825644  12.2380840  )
         7           Ir1 tau(   7) = (   6.8527049   3.9564110  12.2380840  )
         8           Ir1 tau(   8) = (   4.1116229   3.9564110  12.2380840  )
         9           Ir1 tau(   9) = (   8.1955294   4.7318024  14.4701639  )
        10           Ir1 tau(  10) = (   5.5099376   4.7317187  14.4701546  )
        11           Ir1 tau(  11) = (   6.8526679   2.4057964  14.4701720  )
        12           Ir1 tau(  12) = (   4.1116836   2.3737543  14.4144137  )
        13           O1  tau(  13) = (   1.3704313   0.7912016  15.7863529  )

     number of k points=    20  Fermi-Dirac smearing, width (Ry)=  0.0110
                       cart. coord. in units 2pi/alat
        k(    1) = (   0.0000000   0.0000000   0.0000000), wk =   0.0555556
        k(    2) = (   0.0000000   0.0351048   0.0000000), wk =   0.1111111
        k(    3) = (   0.0000000   0.0702095   0.0000000), wk =   0.1111111
        k(    4) = (   0.0000000  -0.1053143   0.0000000), wk =   0.0555556
        k(    5) = (   0.0304016  -0.0175524   0.0000000), wk =   0.1111111
        k(    6) = (   0.0304016   0.0175524   0.0000000), wk =   0.1111111
        k(    7) = (   0.0304016   0.0526572   0.0000000), wk =   0.1111111
        k(    8) = (   0.0304016  -0.1228667   0.0000000), wk =   0.1111111
        k(    9) = (   0.0304016  -0.0877619   0.0000000), wk =   0.1111111
        k(   10) = (   0.0304016  -0.0526572   0.0000000), wk =   0.1111111
        k(   11) = (   0.0608032  -0.0351048   0.0000000), wk =   0.1111111
        k(   12) = (   0.0608032   0.0000000   0.0000000), wk =   0.1111111
        k(   13) = (   0.0608032   0.0351048   0.0000000), wk =   0.1111111
        k(   14) = (   0.0608032  -0.1404191   0.0000000), wk =   0.1111111
        k(   15) = (   0.0608032  -0.1053143   0.0000000), wk =   0.1111111
        k(   16) = (   0.0608032  -0.0702095   0.0000000), wk =   0.1111111
        k(   17) = (  -0.0912049   0.0526572   0.0000000), wk =   0.0555556
        k(   18) = (  -0.0912049   0.0877619   0.0000000), wk =   0.1111111
        k(   19) = (  -0.0912049   0.1228667   0.0000000), wk =   0.1111111
        k(   20) = (  -0.0912049  -0.0526572   0.0000000), wk =   0.0555556

     Largest allocated arrays     est. size (Mb)     dimensions
     Largest temporary arrays     est. size (Mb)     dimensions

     Initial potential from superposition of free atoms
     Check: negative starting charge=   -4.367155

     starting charge  179.99962, renormalised to  186.00000

[...]

     *
     * You are using vdW-DF for exchange-correlation in this calculation.
     * Please cite the following three references that made this development
     * possible:
     *
     *   M. Dion, H. Rydberg, E. Schroder, D. C. Langreth, and
     *   B. I. Lundqvist, Phys. Rev. Lett. 92, 246401 (2004).
     *
     *   T. Thonhauser, V. R. Cooper, S. Li, A. Puzder, P. Hyldgaard, and
     *   D. C. Langreth, Phys. Rev. B 76, 125112 (2007).
     *
     *   G. Roman-Perez and J. M. Soler, Phys. Rev. Lett. 103, 096102 (2009).
     *
     *
     * If you are using vdW-DF2, please also cite:
     *
     *   K. Lee, E. D. Murray, L. Kong, B. I. Lundqvist, and
     *   D. C. Langreth, Phys. Rev. B 82, 081101(R) (2010).
     *
     *
     * If you are calculating the stress with vdW-DF, please also cite:
     *
     *   R. Sabatini, E. Kucukbenli, B. Kolb, T. Thonhauser, and
     *   S. de Gironcoli, J. Phys.: Condens. Matter 24, 424209 (2012).
     *

     Carrying out vdW-DF run using the following parameters:

     Nqs =      20    Nr_points =    1024   r_max =   100.000
     q_mesh =
               0.00001000     0.04494208     0.09755937     0.15916263
               0.23128650     0.31572767     0.41458969     0.53033537
               0.66584808     0.82450364     1.01025438     1.22772762
               1.48234092     1.78043706     2.12944203     2.53805004
               3.01644009     3.57652955     4.23227104     5.00000000

     Gradients computed in reciprocal space

[...]

     Starting wfc are  148 randomized atomic wfcs

     Self-consistent Calculation

[...]

     iteration #  2     ecut=    36.75 Ry     beta=0.30
     Davidson diagonalization with overlap
     c_bands:  1 eigenvalues not converged
     c_bands:  1 eigenvalues not converged
     c_bands:  1 eigenvalues not converged
     ethr =  1.00E-02,  avg # of iterations = 18.9

[...]

     total energy              =   -2232.29444769 Ry
     Harris-Foulkes estimate   =   -2232.29445863 Ry
     estimated scf accuracy    <       0.00008489 Ry

     iteration # 19     ecut=    36.75 Ry     beta=0.30
     Davidson diagonalization with overlap
     ethr =  2.99E-08,  avg # of iterations =  1.5

[...]

     negative rho (up, down):  3.884E+00 0.000E+00

     Adding external electric field

     Computed dipole along edir(3) :
        Dipole               -0.0799 Ry au,         -0.2032 Debye
        Dipole field         -0.0002 Ry au

        Potential amp.        0.0211 Ry
        Total length         45.0969 bohr

     End of self-consistent calculation

[...]

          k = 0.0608-0.0702 0.0000 ( 16191 PWs)   bands (ev):

[...]

          k =-0.0912-0.0527 0.0000 ( 16164 PWs)   bands (ev):

   -47.6719 -47.6547 -47.6034 -47.5876 -47.5703 -47.5410 -47.5093 -47.4950
   -47.4807 -47.4653 -47.3788 -47.2905 -47.2811 -47.2672 -47.2661 -47.2529
   -47.1709 -47.1321 -47.1081 -47.0887 -47.0794 -47.0690 -47.0361 -46.9372
   -46.9347 -46.9048 -46.8991 -46.8794 -46.8023 -46.7864 -46.7678 -46.7593
   -46.7563 -46.7499 -46.7463 -46.7282 -16.7688  -5.4295  -5.3054  -4.3406
    -3.9500  -3.7357  -3.7262  -3.5649  -3.4542  -3.4467  -3.4061  -3.2788
    -3.1507  -2.8391  -2.7167  -2.6724  -2.5651  -2.3974  -2.3489  -2.2322
    -2.0173  -2.0019  -1.9957  -1.9648  -1.6303  -1.5889  -1.2171  -1.1344
    -0.9028  -0.8710  -0.7969  -0.6380  -0.5615  -0.4740  -0.4226  -0.3904
    -0.3865  -0.3088  -0.2589  -0.2356  -0.1997   0.2098   0.2250   0.4811
     0.5038   0.7367   0.8044   0.8135   1.0081   1.0591   1.1156   1.1866
     1.3963   1.4835   1.7276   1.7690   1.9135   2.0211   2.0625   2.2198
     2.2393   2.7297   2.8283   3.0470   3.3166   3.4849   3.6002

     the Fermi energy is     2.3529 ev

!    total energy              =   -2232.29444137 Ry
     Harris-Foulkes estimate   =   -2232.29446671 Ry
     estimated scf accuracy    <       0.00000991 Ry

     The total energy is the sum of the following terms:

     one-electron contribution =  -19124.30788112 Ry
     hartree contribution      =    9594.00948089 Ry
     xc contribution           =    -631.22536802 Ry
     ewald contribution        =    7929.32510013 Ry
     electric field correction =       0.00001868 Ry
     smearing contrib. (-TS)   =      -0.09579193 Ry

     convergence has been achieved in  19 iterations

 BEEF-vdW xc energy contributions
           1 :   -558.944761341766
           2 :    519.801656929264
           3 :   -449.867611899479
           4 :    362.926307208248
           5 :   -274.066897695696
           6 :    195.832583341161
           7 :   -135.604806715331
           8 :    94.7882420963884
           9 :   -69.8392465779551
          10 :    54.5718750468473
          11 :   -42.8036268100368
          12 :    30.3938190642335
          13 :   -16.1075556920207
          14 :    1.24869772118484
          15 :    11.5724278179717
          16 :   -19.9413602571069
          17 :    22.7944096012643
          18 :   -20.8358464509786
          19 :    16.1653780741060
          20 :   -11.3762157184426
          21 :    8.54441366342667
          22 :   -8.52015304430847
          23 :    10.7722261252085
          24 :   -13.7991716944612
          25 :    15.8849013548804
          26 :   -15.8621344482796
          27 :    13.5706232530902
          28 :   -9.84719175996452
          29 :    6.09140900537921
          30 :   -3.62453409524528
          31 :   -48.0200515838592
          32 :   -35.9723818845350

     Forces acting on atoms (Ry/au):

     negative rho (up, down):  3.884E+00 0.000E+00
     atom    1 type  1   force =    -0.00000360    0.00001008    0.01468382
     atom    2 type  1   force =    -0.00000190    0.00437549    0.01614800
     atom    3 type  1   force =     0.00378680   -0.00219804    0.01615880
     atom    4 type  1   force =    -0.00379124   -0.00219968    0.01615294
     atom    5 type  1   force =    -0.00208584    0.00121531   -0.02284943
     atom    6 type  1   force =     0.00210511    0.00120664   -0.02281917
     atom    7 type  1   force =    -0.00000194   -0.00002458    0.00645389
     atom    8 type  1   force =     0.00000107   -0.00241978   -0.02281436
     atom    9 type  1   force =     0.00012061   -0.00000454   -0.00007135
     atom   10 type  1   force =    -0.00017162    0.00006221   -0.00009238
     atom   11 type  1   force =     0.00003500   -0.00013393   -0.00009103
     atom   12 type  1   force =    -0.00004347    0.00005523    0.00017312
     atom   13 type  2   force =     0.00005102    0.00005559   -0.00103284

     Total force =     0.051765     Total SCF correction =     0.028533
     SCF correction compared to forces is large: reduce conv_thr to get better values

     entering subroutine stress ...

     negative rho (up, down):  3.884E+00 0.000E+00
          total   stress  (Ry/bohr**3)                   (kbar)     P=  -26.55
  -0.00021706  -0.00000001   0.00000000        -31.93     -0.00      0.00
  -0.00000001  -0.00021703  -0.00000002         -0.00    -31.93     -0.00
   0.00000000  -0.00000002  -0.00010731          0.00     -0.00    -15.79

 !ASE

     Writing output data file calc.save

     General routines

     Parallel routines

   This run was terminated on:  13:12: 8  14Jan2018

   JOB DONE.
Job  /afs/slac/g/suncat/bin/suncat-tsmpirun -x LD_LIBRARY_PATH -wdir /scratch/qe842452_tFYHd pw.x -in pw.inp

TID   HOST_NAME   COMMAND_LINE            STATUS            TERMINATION_TIME
00000 suncat0253 pw.x -in pw.inp   Done                     01/14/2018 13:12:08
00001 suncat0253 pw.x -in pw.inp   Done                     01/14/2018 13:12:08
00002 suncat0253 pw.x -in pw.inp   Done                     01/14/2018 13:12:08
00003 suncat0253 pw.x -in pw.inp   Done                     01/14/2018 13:12:08
00004 suncat0253 pw.x -in pw.inp   Done                     01/14/2018 13:12:08
00005 suncat0253 pw.x -in pw.inp   Done                     01/14/2018 13:12:08
00006 suncat0253 pw.x -in pw.inp   Done                     01/14/2018 13:12:08
00007 suncat0253 pw.x -in pw.inp   Done                     01/14/2018 13:12:08
00008 suncat0249 pw.x -in pw.inp   Done                     01/14/2018 13:12:08
00009 suncat0249 pw.x -in pw.inp   Done                     01/14/2018 13:12:08
00010 suncat0249 pw.x -in pw.inp   Done                     01/14/2018 13:12:08
00011 suncat0249 pw.x -in pw.inp   Done                     01/14/2018 13:12:08
00012 suncat0249 pw.x -in pw.inp   Done                     01/14/2018 13:12:08
00013 suncat0249 pw.x -in pw.inp   Done                     01/14/2018 13:12:08
00014 suncat0249 pw.x -in pw.inp   Done                     01/14/2018 13:12:08
00015 suncat0249 pw.x -in pw.inp   Done                     01/14/2018 13:12:08
00016 suncat0248 pw.x -in pw.inp   Done                     01/14/2018 13:12:08
00017 suncat0248 pw.x -in pw.inp   Done                     01/14/2018 13:12:08
00018 suncat0248 pw.x -in pw.inp   Done                     01/14/2018 13:12:08
00019 suncat0248 pw.x -in pw.inp   Done                     01/14/2018 13:12:08
00020 suncat0248 pw.x -in pw.inp   Done                     01/14/2018 13:12:08
00021 suncat0248 pw.x -in pw.inp   Done                     01/14/2018 13:12:08
00022 suncat0248 pw.x -in pw.inp   Done                     01/14/2018 13:12:08
00023 suncat0248 pw.x -in pw.inp   Done                     01/14/2018 13:12:08
00024 suncat0247 pw.x -in pw.inp   Done                     01/14/2018 13:12:08
00025 suncat0247 pw.x -in pw.inp   Done                     01/14/2018 13:12:08
00026 suncat0247 pw.x -in pw.inp   Done                     01/14/2018 13:12:08
00027 suncat0247 pw.x -in pw.inp   Done                     01/14/2018 13:12:08
00028 suncat0247 pw.x -in pw.inp   Done                     01/14/2018 13:12:08
00029 suncat0247 pw.x -in pw.inp   Done                     01/14/2018 13:12:08
00030 suncat0247 pw.x -in pw.inp   Done                     01/14/2018 13:12:08
00031 suncat0247 pw.x -in pw.inp   Done                     01/14/2018 13:12:08