     Program PWSCF v.5.1rc2 (svn rev. 11289) starts on  3May2018 at  3:18:39

     Current dimensions of program PWSCF are:
     Max number of different atomic species (ntypx) = 10
     Max number of k-points (npk) =  40000
     Max angular momentum in pseudopotentials (lmaxx) =  3
     Presently stress not available with electric field

     IMPORTANT: XC functional enforced from input :
     Exchange-correlation      = BEEF-VDW ( 1  4 27 13 2)
     Any further DFT definition will be discarded
     Please, verify this is what you really want

     Subspace diagonalization in iterative solution of the eigenvalue problem:
     a serial algorithm will be used

     bravais-lattice index     =            0
     lattice parameter (alat)  =       1.8897  a.u.
     unit-cell volume          =    4704.3541 (a.u.)^3
     number of atoms/cell      =           13
     number of atomic types    =            2
     number of electrons       =       172.00
     number of Kohn-Sham states=           96
     kinetic-energy cutoff     =      36.7493  Ry
     charge density cutoff     =     367.4932  Ry
     convergence threshold     =      1.0E-05
     mixing beta               =       0.3000
     number of iterations used =           10  plain     mixing
     Exchange-correlation      = BEEF-VDW ( 1  4 27 13 2)
     nstep                     =           50

     celldm(1)=   1.889726  celldm(2)=   0.000000  celldm(3)=   0.000000
     celldm(4)=   0.000000  celldm(5)=   0.000000  celldm(6)=   0.000000

     crystal axes: (cart. coord. in units of alat)
               a(1) = (   5.712816   0.000000   0.000000 )
               a(2) = (   2.856408   4.947444   0.000000 )
               a(3) = (   0.000000   0.000000  24.664495 )

     reciprocal axes: (cart. coord. in units 2 pi/alat)
               b(1) = (  0.175045 -0.101062  0.000000 )
               b(2) = (  0.000000  0.202125  0.000000 )
               b(3) = (  0.000000  0.000000  0.040544 )

     PseudoPot. # 1 for W  read from file:
     /u/if/mamunm/psp/gbrv1.5pbe/W.UPF
     MD5 check sum: 9c083fa34c2a2ea0f02f1f893e16e1c8
     Pseudo is Ultrasoft + core correction, Zval = 14.0
     Generated by new atomic code, or converted to UPF format
     Using radial grid of  923 points,  8 beta functions with:
                l(1) =   0
                l(2) =   0
                l(3) =   0
                l(4) =   1
                l(5) =   1
                l(6) =   2
                l(7) =   2
                l(8) =   3
     Q(r) pseudized with  6 coefficients,  rinner =    1.350   1.350   1.350
                                                       1.350   1.350   1.350
                                                       1.350

     PseudoPot. # 2 for C  read from file:
     /u/if/mamunm/psp/gbrv1.5pbe/C.UPF
     MD5 check sum: d1aef80898a10debaa0f26306b886e00
     Pseudo is Ultrasoft + core correction, Zval =  4.0
     Generated by new atomic code, or converted to UPF format
     Using radial grid of  721 points,  4 beta functions with:
                l(1) =   0
                l(2) =   0
                l(3) =   1
                l(4) =   1
     Q(r) pseudized with  8 coefficients,  rinner =    1.100   1.100   1.100

     vdW kernel table read from file vdW_kernel_table
     MD5 check sum: 095c7af220d748ca6e76c0b4c6cfb241

     atomic species   valence    mass     pseudopotential
        W1            14.00   183.84000     W ( 1.00)
        C1             4.00    12.01100     C ( 1.00)

     No symmetry found

   Cartesian axes

     site n.     atom                  positions (alat units)
         1           W1  tau(   1) = (   1.4282041   0.8245740  10.0000000  )
         2           W1  tau(   2) = (   4.2846123   0.8245740  10.0000000  )
         3           W1  tau(   3) = (   2.8564082   3.2982961  10.0000000  )
         4           W1  tau(   4) = (   5.7128165   3.2982961  10.0000000  )
         5           W1  tau(   5) = (   5.7128165   1.6491481  12.3322476  )
         6           W1  tau(   6) = (   2.8564082   1.6491481  12.3322476  )
         7           W1  tau(   7) = (   7.1410206   4.1228701  12.3322476  )
         8           W1  tau(   8) = (   4.2846123   4.1228701  12.3322476  )
         9           W1  tau(   9) = (   0.0000000   0.0000000  14.6644951  )
        10           W1  tau(  10) = (   2.8564082   0.0000000  14.6644951  )
        11           W1  tau(  11) = (   1.4282041   2.4737221  14.6644951  )
        12           W1  tau(  12) = (   4.2846123   2.4737221  14.6644951  )
        13           C1  tau(  13) = (   2.8564082   1.6491481  16.2114951  )

     number of k points=    20  Fermi-Dirac smearing, width (Ry)=  0.0110
                       cart. coord. in units 2pi/alat
        k(    1) = (   0.0000000   0.0000000   0.0000000), wk =   0.0555556
        k(    2) = (   0.0000000   0.0336874   0.0000000), wk =   0.1111111
        k(    3) = (   0.0000000   0.0673749   0.0000000), wk =   0.1111111
        k(    4) = (   0.0000000  -0.1010623   0.0000000), wk =   0.0555556
        k(    5) = (   0.0291742  -0.0168437   0.0000000), wk =   0.1111111
        k(    6) = (   0.0291742   0.0168437   0.0000000), wk =   0.1111111
        k(    7) = (   0.0291742   0.0505311   0.0000000), wk =   0.1111111
        k(    8) = (   0.0291742  -0.1179060   0.0000000), wk =   0.1111111
        k(    9) = (   0.0291742  -0.0842186   0.0000000), wk =   0.1111111
        k(   10) = (   0.0291742  -0.0505311   0.0000000), wk =   0.1111111
        k(   11) = (   0.0583483  -0.0336874   0.0000000), wk =   0.1111111
        k(   12) = (   0.0583483  -0.0000000   0.0000000), wk =   0.1111111
        k(   13) = (   0.0583483   0.0336874   0.0000000), wk =   0.1111111
        k(   14) = (   0.0583483  -0.1347497   0.0000000), wk =   0.1111111
        k(   15) = (   0.0583483  -0.1010623   0.0000000), wk =   0.1111111
        k(   16) = (   0.0583483  -0.0673749   0.0000000), wk =   0.1111111
        k(   17) = (  -0.0875225   0.0505311   0.0000000), wk =   0.0555556
        k(   18) = (  -0.0875225   0.0842186   0.0000000), wk =   0.1111111
        k(   19) = (  -0.0875225   0.1179060   0.0000000), wk =   0.1111111
        k(   20) = (  -0.0875225  -0.0505311   0.0000000), wk =   0.0555556

     Largest allocated arrays     est. size (Mb)     dimensions
     Largest temporary arrays     est. size (Mb)     dimensions

     Initial potential from superposition of free atoms
     Check: negative starting charge=   -0.760314

     starting charge  170.79588, renormalised to  172.00000

     negative rho (up, down):  7.657E-01 0.000E+00

     *
     * You are using vdW-DF for exchange-correlation in this calculation.
     * Please cite the following three references that made this development
     * possible:
     *
     *   M. Dion, H. Rydberg, E. Schroder, D. C. Langreth, and
     *   B. I. Lundqvist, Phys. Rev. Lett. 92, 246401 (2004).
     *
     *   T. Thonhauser, V. R. Cooper, S. Li, A. Puzder, P. Hyldgaard, and
     *   D. C. Langreth, Phys. Rev. B 76, 125112 (2007).
     *
     *   G. Roman-Perez and J. M. Soler, Phys. Rev. Lett. 103, 096102 (2009).
     *
     *
     * If you are using vdW-DF2, please also cite:
     *
     *   K. Lee, E. D. Murray, L. Kong, B. I. Lundqvist, and
     *   D. C. Langreth, Phys. Rev. B 82, 081101(R) (2010).
     *
     *
     * If you are calculating the stress with vdW-DF, please also cite:
     *
     *   R. Sabatini, E. Kucukbenli, B. Kolb, T. Thonhauser, and
     *   S. de Gironcoli, J. Phys.: Condens. Matter 24, 424209 (2012).
     *

     Carrying out vdW-DF run using the following parameters:

     Nqs =      20    Nr_points =    1024   r_max =   100.000
     q_mesh =
               0.00001000     0.04494208     0.09755937     0.15916263
               0.23128650     0.31572767     0.41458969     0.53033537
               0.66584808     0.82450364     1.01025438     1.22772762
               1.48234092     1.78043706     2.12944203     2.53805004
               3.01644009     3.57652955     4.23227104     5.00000000

     Gradients computed in reciprocal space

     Adding external electric field

     Computed dipole along edir(3) :
        Dipole               -0.2064 Ry au,         -0.5247 Debye
        Dipole field         -0.0006 Ry au

        Potential amp.        0.0501 Ry
        Total length         45.4439 bohr

     Starting wfc are  160 randomized atomic wfcs

     Self-consistent Calculation

     iteration #  1     ecut=    36.75 Ry     beta=0.30
     Davidson diagonalization with overlap
     ethr =  1.00E-02,  avg # of iterations =  2.0

[...]

     total energy              =   -1935.29067096 Ry
     Harris-Foulkes estimate   =   -1936.59134073 Ry
     estimated scf accuracy    <       2.95355026 Ry

[...]

     End of self-consistent calculation

          k = 0.0000 0.0000 0.0000 ( 17753 PWs)   bands (ev):

   -72.0781 -72.0178 -71.9979 -71.9702 -71.9701 -71.9603 -71.9388 -71.9387
   -71.9222 -71.9098 -71.9098 -71.9060 -36.6161 -36.6095 -36.6095 -36.5488
   -36.5408 -36.5408 -36.5169 -36.4194 -36.4194 -36.4135 -36.2161 -36.1245
   -36.0821 -36.0821 -36.0474 -36.0460 -36.0460 -35.9447 -35.9393 -35.9392
   -35.8391 -35.8391 -35.8385 -35.8262 -35.8262 -35.8259 -35.7692 -35.7272
   -35.7272 -35.7271 -35.7058 -35.7058 -35.6332 -35.6332 -35.5523 -35.5523
    -7.6236  -5.7820  -3.9598  -3.3054  -2.8715  -2.8715  -2.8061  -2.6903
    -2.6903  -2.4997  -1.9486  -1.9486  -1.9110  -1.7929  -1.7929  -1.7123
    -0.5047  -0.5047  -0.2449   0.5010   0.5207   0.5207   0.9413   0.9991
     0.9991   1.1721   1.6090   1.6090   1.6377   1.8740   1.8740   1.9700
     1.9700   2.0190   2.1444   2.1501   2.1502   2.5042   2.5042   2.5318
     3.2172   3.2172   3.5650   3.6071   3.8501   3.9787   3.9788   4.1289

[...]

          k =-0.0875 0.0505 0.0000 ( 17668 PWs)   bands (ev):

[...]

     the Fermi energy is     2.1939 ev

!    total energy              =   -1936.22915971 Ry
     Harris-Foulkes estimate   =   -1936.22915400 Ry
     estimated scf accuracy    <       0.00000198 Ry

     The total energy is the sum of the following terms:

     one-electron contribution =  -14927.10151432 Ry
     hartree contribution      =    7446.88402605 Ry
     xc contribution           =    -513.78870878 Ry
     ewald contribution        =    6057.87247447 Ry
     electric field correction =       0.00012093 Ry
     smearing contrib. (-TS)   =      -0.09555806 Ry

     convergence has been achieved in  14 iterations

 BEEF-vdW xc energy contributions
           1 :   -452.006642787559
           2 :    418.242844084569
           3 :   -358.756272150737
           4 :    286.559799218056
           5 :   -215.222464183394
           6 :    154.931271479289
           7 :   -110.306977938531
           8 :    80.4930753899574
           9 :   -61.1016805602292
          10 :    46.9242027703268
          11 :   -34.1847486860551
          12 :    21.5327782326968
          13 :   -9.68026703672547
          14 :   0.199476922137080
          15 :    5.75321539395048
          16 :   -8.17518749600771
          17 :    8.19000980026254
          18 :   -7.42351895384496
          19 :    7.19935209116801
          20 :   -7.98878883487106
          21 :    9.36355925947390
          22 :   -10.4179616938108
          23 :    10.3874803186293
          24 :   -9.11590820690833
          25 :    7.13617538737083
          26 :   -5.35411613612592
          27 :    4.53696727439495
          28 :   -4.90095300583158
          29 :    6.01941794709120
          30 :   -7.08474230438929
          31 :   -41.0075368948384
          32 :   -30.7398639014091

     Forces acting on atoms (Ry/au):

     negative rho (up, down):  7.925E-01 0.000E+00
     atom    1 type  1   force =    -0.00234097   -0.00135918   -0.00150352
     atom    2 type  1   force =     0.00234123   -0.00135456   -0.00151005
     atom    3 type  1   force =     0.00000291    0.00270961   -0.00149995
     atom    4 type  1   force =    -0.00000396    0.00000442   -0.00727637
     atom    5 type  1   force =    -0.00000385   -0.00074477   -0.00481300
     atom    6 type  1   force =     0.00000247    0.00000086    0.01303519
     atom    7 type  1   force =     0.00064455    0.00037598   -0.00481314
     atom    8 type  1   force =    -0.00064294    0.00036846   -0.00481115
     atom    9 type  1   force =     0.00000354   -0.00000602   -0.03819089
     atom   10 type  1   force =    -0.00000398    0.01722841    0.07920389
     atom   11 type  1   force =     0.01492687   -0.00861472    0.07921245
     atom   12 type  1   force =    -0.01492536   -0.00860829    0.07920539
     atom   13 type  2   force =    -0.00000052   -0.00000020   -0.18623884

     Total force =     0.236338     Total SCF correction =     0.003942

     entering subroutine stress ...

     negative rho (up, down):  7.925E-01 0.000E+00
          total   stress  (Ry/bohr**3)                   (kbar)     P=  -51.34
  -0.00043724  -0.00000000   0.00000000        -64.32     -0.00      0.00
  -0.00000000  -0.00043724  -0.00000000         -0.00    -64.32     -0.00
   0.00000000  -0.00000000  -0.00017244          0.00     -0.00    -25.37

     BFGS Geometry Optimization

     number of scf cycles    =   1
     number of bfgs steps    =   0

     energy   new            =   -1936.2291597147 Ry

     new trust radius        =       0.1862388393 bohr
     new conv_thr            =       0.0000099958 Ry

ATOMIC_POSITIONS (crystal)
W1       0.166666667   0.166666667   0.405441099    0   0   0
W1       0.666666667   0.166666667   0.405441099    0   0   0
W1       0.166666667   0.666666667   0.405441099    0   0   0
W1       0.666666667   0.666666667   0.405441099    0   0   0
W1       0.833333333   0.333333333   0.500000000    0   0   0
W1       0.333333333   0.333333333   0.500000000    0   0   0
W1       0.833333333   0.833333333   0.500000000    0   0   0
W1       0.333333333   0.833333333   0.500000000    0   0   0
W1       0.000000650  -0.000000644   0.593739515
W1       0.499078259   0.001842745   0.596258222
W1       0.001843388   0.499078572   0.596258406
W1       0.499077836   0.499079260   0.596258254
C1       0.333333296   0.333333312   0.653284881

     Writing output data file calc.save
     Check: negative starting charge=   -0.760314
     NEW-OLD atomic charge density approx. for the potential
     Check: negative starting charge=   -0.760716

[...]

     energy   old            =   -1936.2291597147 Ry
     energy   new            =   -1936.2799105809 Ry

     CASE: energy  _new < energy  _old

[...]

     Total force =     0.004413     Total SCF correction =     0.000186

[...]

     number of scf cycles    =   9
     number of bfgs steps    =   8

     energy   old            =   -1936.3409036638 Ry
     energy   new            =   -1936.3410400436 Ry

     CASE: energy  _new < energy  _old

     new trust radius        =       0.0041416538 bohr
     new conv_thr            =       0.0000001000 Ry

ATOMIC_POSITIONS (crystal)
W1       0.166666667   0.166666667   0.405441099    0   0   0
W1       0.666666667   0.166666667   0.405441099    0   0   0
W1       0.166666667   0.666666667   0.405441099    0   0   0
W1       0.666666667   0.666666667   0.405441099    0   0   0
W1       0.833333333   0.333333333   0.500000000    0   0   0
W1       0.333333333   0.333333333   0.500000000    0   0   0
W1       0.833333333   0.833333333   0.500000000    0   0   0
W1       0.333333333   0.833333333   0.500000000    0   0   0
W1      -0.000000055   0.000000015   0.584498935
W1       0.502268020  -0.004536042   0.598844616
W1      -0.004536132   0.502268032   0.598844648
W1       0.502268007   0.502268044   0.598844625
C1       0.333333385   0.333333307   0.643439892

     Writing output data file calc.save
     Check: negative starting charge=   -0.760717
     NEW-OLD atomic charge density approx. for the potential
     Check: negative starting charge=   -0.760472

[...]

     Self-consistent Calculation

[...]

     Threshold (ethr) on eigenvalues was too large:
     Diagonalizing with lowered threshold

     Davidson diagonalization with overlap
     ethr =  2.19E-08,  avg # of iterations =  3.2

[...]

     total energy              =   -1936.34105536 Ry
     Harris-Foulkes estimate   =   -1936.34105535 Ry
     estimated scf accuracy    <       0.00000022 Ry

     iteration #  8     ecut=    36.75 Ry     beta=0.30
     Davidson diagonalization with overlap
     ethr =  1.28E-10,  avg # of iterations =  3.0

[...]

     negative rho (up, down):  7.935E-01 0.000E+00

     Adding external electric field

     Computed dipole along edir(3) :
        Dipole               -0.1143 Ry au,         -0.2906 Debye
        Dipole field         -0.0003 Ry au

        Potential amp.        0.0278 Ry
        Total length         45.4439 bohr

     End of self-consistent calculation

[...]

          k = 0.0583-0.0674 0.0000 ( 17692 PWs)   bands (ev):

[...]

          k =-0.0875-0.0505 0.0000 ( 17668 PWs)   bands (ev):

   -71.9361 -71.8833 -71.8690 -71.8475 -71.8391 -71.8238 -71.8117 -71.7943
   -71.7934 -71.7810 -71.7730 -71.7552 -36.3962 -36.3418 -36.3148 -36.2973
   -36.2946 -36.2707 -36.2025 -36.1556 -36.1433 -36.1236 -36.1000 -36.0666
   -36.0008 -35.9898 -35.9265 -35.9204 -35.9124 -35.9086 -35.9084 -35.8706
   -35.8500 -35.8213 -35.8185 -35.8138 -35.7831 -35.7708 -35.7258 -35.7093
   -35.7073 -35.6577 -35.6324 -35.5969 -35.5555 -35.5189 -35.5051 -35.4907
    -8.1063  -4.0213  -3.8284  -2.6973  -2.2867  -1.9442  -1.7179  -1.6832
    -1.6148  -1.5445  -1.4453  -1.1855  -0.8681  -0.7665  -0.6400  -0.5502
    -0.3883  -0.3450  -0.2226  -0.0006   0.1266   0.3128   0.3830   0.4034
     0.6185   0.7520   0.8912   1.0733   1.1359   1.1748   1.2247   1.2387
     1.3451   1.4323   1.6383   1.8251   1.8699   1.8957   2.0840   2.3817
     2.5946   2.8887   3.0036   3.0530   3.4119   3.4772   3.5424   3.6893

     the Fermi energy is     2.3302 ev

!    total energy              =   -1936.34105536 Ry
     Harris-Foulkes estimate   =   -1936.34105572 Ry
     estimated scf accuracy    <       0.00000006 Ry

     The total energy is the sum of the following terms:

     one-electron contribution =  -14960.19185002 Ry
     hartree contribution      =    7464.10921989 Ry
     xc contribution           =    -514.12495969 Ry
     ewald contribution        =    6073.95131878 Ry
     electric field correction =       0.00003491 Ry
     smearing contrib. (-TS)   =      -0.08481923 Ry

     convergence has been achieved in   8 iterations

 BEEF-vdW xc energy contributions
           1 :   -452.335031051015
           2 :    418.621512350839
           3 :   -359.190444774902
           4 :    287.006669455227
           5 :   -215.613796498228
           6 :    155.196531662750
           7 :   -110.392936823048
           8 :    80.3804411413950
           9 :   -60.8166559246993
          10 :    46.5367639799169
          11 :   -33.7873711123315
          12 :    21.2039824563632
          13 :   -9.44974921695768
          14 :   3.453405257209852E-002
          15 :    5.93008083008147
          16 :   -8.44224350554623
          17 :    8.57701356530754
          18 :   -7.88639653545056
          19 :    7.63444634219309
          20 :   -8.27987770268157
          21 :    9.43893626471595
          22 :   -10.2890558701704
          23 :    10.1476769226347
          24 :   -8.89791791144262
          25 :    7.04848149098154
          26 :   -5.42942522058479
          27 :    4.71978391144256
          28 :   -5.08040731210730
          29 :    6.08991874544654
          30 :   -7.00322648894189
          31 :   -41.0272688336223
          32 :   -30.7697443107602

     Forces acting on atoms (Ry/au):

     negative rho (up, down):  7.935E-01 0.000E+00
     atom    1 type  1   force =    -0.00254215   -0.00146771   -0.00281559
     atom    2 type  1   force =     0.00254215   -0.00146771   -0.00281561
     atom    3 type  1   force =     0.00000001    0.00293544   -0.00281559
     atom    4 type  1   force =     0.00000000   -0.00000000   -0.00103000
     atom    5 type  1   force =     0.00000004    0.02126822   -0.01571529
     atom    6 type  1   force =    -0.00000002    0.00000003    0.05771497
     atom    7 type  1   force =    -0.01841879   -0.01063416   -0.01571532
     atom    8 type  1   force =     0.01841878   -0.01063411   -0.01571534
     atom    9 type  1   force =     0.00000004   -0.00000003    0.00031231
     atom   10 type  1   force =    -0.00000006   -0.00014753   -0.00028650
     atom   11 type  1   force =    -0.00012759    0.00007371   -0.00028667
     atom   12 type  1   force =     0.00012773    0.00007380   -0.00028658
     atom   13 type  2   force =    -0.00000014    0.00000007   -0.00054479

     Total force =     0.000840     Total SCF correction =     0.000797
     SCF correction compared to forces is large: reduce conv_thr to get better values

     entering subroutine stress ...

     negative rho (up, down):  7.935E-01 0.000E+00
          total   stress  (Ry/bohr**3)                   (kbar)     P=  -37.85
  -0.00034868   0.00000000  -0.00000000        -51.29      0.00     -0.00
   0.00000000  -0.00034868   0.00000000          0.00    -51.29      0.00
  -0.00000000   0.00000000  -0.00007445         -0.00      0.00    -10.95

     bfgs converged in  10 scf cycles and   9 bfgs steps
     (criteria: energy <  1.0E+00, force <  1.9E-03)

     End of BFGS Geometry Optimization

     Final energy   =   -1936.3410553607 Ry
Begin final coordinates

ATOMIC_POSITIONS (crystal)
W1       0.166666667   0.166666667   0.405441099    0   0   0
W1       0.666666667   0.166666667   0.405441099    0   0   0
W1       0.166666667   0.666666667   0.405441099    0   0   0
W1       0.666666667   0.666666667   0.405441099    0   0   0
W1       0.833333333   0.333333333   0.500000000    0   0   0
W1       0.333333333   0.333333333   0.500000000    0   0   0
W1       0.833333333   0.833333333   0.500000000    0   0   0
W1       0.333333333   0.833333333   0.500000000    0   0   0
W1      -0.000000055   0.000000015   0.584498935
W1       0.502268020  -0.004536042   0.598844616
W1      -0.004536132   0.502268032   0.598844648
W1       0.502268007   0.502268044   0.598844625
C1       0.333333385   0.333333307   0.643439892
End final coordinates

     Writing output data file calc.save

     General routines

     Parallel routines

   This run was terminated on:   4:53:29   3May2018

   JOB DONE.
Job  /afs/slac/g/suncat/bin/suncat-tsmpirun -x LD_LIBRARY_PATH -wdir /scratch/qe605883_G6H0a pw.x -npool 4 -in pw.inp

TID   HOST_NAME   COMMAND_LINE            STATUS            TERMINATION_TIME
00000 suncat0145 pw.x -npool 4 -i  Done                     05/03/2018 04:53:29
00001 suncat0145 pw.x -npool 4 -i  Done                     05/03/2018 04:53:29
00002 suncat0145 pw.x -npool 4 -i  Done                     05/03/2018 04:53:29
00003 suncat0145 pw.x -npool 4 -i  Done                     05/03/2018 04:53:29
00004 suncat0145 pw.x -npool 4 -i  Done                     05/03/2018 04:53:29
00005 suncat0145 pw.x -npool 4 -i  Done                     05/03/2018 04:53:29
00006 suncat0145 pw.x -npool 4 -i  Done                     05/03/2018 04:53:29
00007 suncat0145 pw.x -npool 4 -i  Done                     05/03/2018 04:53:29
00008 suncat0143 pw.x -npool 4 -i  Done                     05/03/2018 04:53:29
00009 suncat0143 pw.x -npool 4 -i  Done                     05/03/2018 04:53:29
00010 suncat0143 pw.x -npool 4 -i  Done                     05/03/2018 04:53:29
00011 suncat0143 pw.x -npool 4 -i  Done                     05/03/2018 04:53:29
00012 suncat0143 pw.x -npool 4 -i  Done                     05/03/2018 04:53:29
00013 suncat0143 pw.x -npool 4 -i  Done                     05/03/2018 04:53:29
00014 suncat0143 pw.x -npool 4 -i  Done                     05/03/2018 04:53:29
00015 suncat0143 pw.x -npool 4 -i  Done                     05/03/2018 04:53:29
00016 suncat0100 pw.x -npool 4 -i  Done                     05/03/2018 04:53:29
00017 suncat0100 pw.x -npool 4 -i  Done                     05/03/2018 04:53:29
00018 suncat0100 pw.x -npool 4 -i  Done                     05/03/2018 04:53:29
00019 suncat0100 pw.x -npool 4 -i  Done                     05/03/2018 04:53:29
00020 suncat0100 pw.x -npool 4 -i  Done                     05/03/2018 04:53:29
00021 suncat0100 pw.x -npool 4 -i  Done                     05/03/2018 04:53:29
00022 suncat0100 pw.x -npool 4 -i  Done                     05/03/2018 04:53:29
00023 suncat0100 pw.x -npool 4 -i  Done                     05/03/2018 04:53:29
00024 suncat0266 pw.x -npool 4 -i  Done                     05/03/2018 04:53:29
00025 suncat0266 pw.x -npool 4 -i  Done                     05/03/2018 04:53:29
00026 suncat0266 pw.x -npool 4 -i  Done                     05/03/2018 04:53:29
00027 suncat0266 pw.x -npool 4 -i  Done                     05/03/2018 04:53:29
00028 suncat0266 pw.x -npool 4 -i  Done                     05/03/2018 04:53:29
00029 suncat0266 pw.x -npool 4 -i  Done                     05/03/2018 04:53:29
00030 suncat0266 pw.x -npool 4 -i  Done                     05/03/2018 04:53:29
00031 suncat0266 pw.x -npool 4 -i  Done                     05/03/2018 04:53:29