     Program PWSCF v.5.1rc2 (svn rev. 11289) starts on 21Apr2018 at 22:48:32

     Current dimensions of program PWSCF are:
     Max number of different atomic species (ntypx) = 10
     Max number of k-points (npk) =  40000
     Max angular momentum in pseudopotentials (lmaxx) =  3
     Presently stress not available with electric field

     IMPORTANT: XC functional enforced from input :
     Exchange-correlation      = BEEF-VDW ( 1  4 27 13 2)
     Any further DFT definition will be discarded
     Please, verify this is what you really want

     Subspace diagonalization in iterative solution of the eigenvalue problem:
     a serial algorithm will be used

     bravais-lattice index     =            0
     lattice parameter (alat)  =       1.8897  a.u.
     unit-cell volume          =    4569.9960 (a.u.)^3
     number of atoms/cell      =           14
     number of atomic types    =            3
     number of electrons       =       199.00
     number of Kohn-Sham states=          109
     kinetic-energy cutoff     =      36.7493  Ry
     charge density cutoff     =     367.4932  Ry
     convergence threshold     =      1.0E-05
     mixing beta               =       0.3000
     number of iterations used =           10  plain     mixing
     Exchange-correlation      = BEEF-VDW ( 1  4 27 13 2)
     nstep                     =           50

     celldm(1)=   1.889726  celldm(2)=   0.000000  celldm(3)=   0.000000
     celldm(4)=   0.000000  celldm(5)=   0.000000  celldm(6)=   0.000000

     crystal axes: (cart. coord. in units of alat)
               a(1) = (   5.637663   0.000000   0.000000 )
               a(2) = (   2.818831   4.882359   0.000000 )
               a(3) = (   0.000000   0.000000  24.603132 )

     reciprocal axes: (cart. coord. in units 2 pi/alat)
               b(1) = (  0.177378 -0.102410  0.000000 )
               b(2) = (  0.000000  0.204819  0.000000 )
               b(3) = (  0.000000  0.000000  0.040645 )

     PseudoPot. # 1 for Pd read from file:
     /u/if/mamunm/psp/gbrv1.5pbe/Pd.UPF
     MD5 check sum: 2d733d2bc2cbfd217af676df1668a4bc
     Pseudo is Ultrasoft + core correction, Zval = 16.0
     Generated by new atomic code, or converted to UPF format
     Using radial grid of  887 points,  6 beta functions with:
                l(1) =   0
                l(2) =   0
                l(3) =   1
                l(4) =   1
                l(5) =   2
                l(6) =   2
     Q(r) pseudized with  8 coefficients,  rinner =    1.130   1.130   1.130
                                                       1.130   1.130

     PseudoPot. # 2 for S  read from file:
     /u/if/mamunm/psp/gbrv1.5pbe/S.UPF
     MD5 check sum: 88d86576ff6df21479756cfb9bdac1df
     Pseudo is Ultrasoft + core correction, Zval =  6.0
     Generated by new atomic code, or converted to UPF format
     Using radial grid of  907 points,  6 beta functions with:
                l(1) =   0
                l(2) =   0
                l(3) =   1
                l(4) =   1
                l(5) =   2
                l(6) =   2
     Q(r) pseudized with  8 coefficients,  rinner =    1.300   1.300   1.300
                                                       1.300   1.300

     PseudoPot. # 3 for H  read from file:
     /u/if/mamunm/psp/gbrv1.5pbe/H.UPF
     MD5 check sum: 761ae9a214b05c3daf00ab9f6b793d6f
     Pseudo is Ultrasoft, Zval =  1.0
     Generated by new atomic code, or converted to UPF format
     Using radial grid of  615 points,  2 beta functions with:
                l(1) =   0
                l(2) =   0
     Q(r) pseudized with  8 coefficients,  rinner =    0.700

     vdW kernel table read from file vdW_kernel_table
     MD5 check sum: 095c7af220d748ca6e76c0b4c6cfb241

     atomic species   valence    mass     pseudopotential
        Pd1           16.00   106.42000     Pd( 1.00)
        S1             6.00    32.06000     S ( 1.00)
        H1             1.00     1.00800     H ( 1.00)

     No symmetry found

   Cartesian axes

     site n.     atom                  positions (alat units)
         1           Pd1 tau(   1) = (   1.4094157   0.8137265  10.0000000  )
         2           Pd1 tau(   2) = (   4.2282471   0.8137265  10.0000000  )
         3           Pd1 tau(   3) = (   2.8188314   3.2549061  10.0000000  )
         4           Pd1 tau(   4) = (   5.6376627   3.2549061  10.0000000  )
         5           Pd1 tau(   5) = (   5.6376627   1.6274531  12.3015662  )
         6           Pd1 tau(   6) = (   2.8188314   1.6274531  12.3015662  )
         7           Pd1 tau(   7) = (   7.0470784   4.0686326  12.3015662  )
         8           Pd1 tau(   8) = (   4.2282471   4.0686326  12.3015662  )
         9           Pd1 tau(   9) = (   0.0000000   0.0000000  14.6031324  )
        10           Pd1 tau(  10) = (   2.8188314   0.0000000  14.6031324  )
        11           Pd1 tau(  11) = (   1.4094157   2.4411796  14.6031324  )
        12           Pd1 tau(  12) = (   4.2282471   2.4411796  14.6031324  )
        13           S1  tau(  13) = (   2.8188314   1.6274531  16.1891324  )
        14           H1  tau(  14) = (   2.8188314   1.6274531  17.4391324  )

     number of k points=    20  Fermi-Dirac smearing, width (Ry)=  0.0110
                       cart. coord. in units 2pi/alat
        k(    1) = (   0.0000000   0.0000000   0.0000000), wk =   0.0555556
        k(    2) = (   0.0000000   0.0341365   0.0000000), wk =   0.1111111
        k(    3) = (   0.0000000   0.0682730   0.0000000), wk =   0.1111111
        k(    4) = (   0.0000000  -0.1024095   0.0000000), wk =   0.0555556
        k(    5) = (   0.0295631  -0.0170683   0.0000000), wk =   0.1111111
        k(    6) = (   0.0295631   0.0170683   0.0000000), wk =   0.1111111
        k(    7) = (   0.0295631   0.0512048   0.0000000), wk =   0.1111111
        k(    8) = (   0.0295631  -0.1194778   0.0000000), wk =   0.1111111
        k(    9) = (   0.0295631  -0.0853413   0.0000000), wk =   0.1111111
        k(   10) = (   0.0295631  -0.0512048   0.0000000), wk =   0.1111111
        k(   11) = (   0.0591262  -0.0341365   0.0000000), wk =   0.1111111
        k(   12) = (   0.0591262  -0.0000000   0.0000000), wk =   0.1111111
        k(   13) = (   0.0591262   0.0341365   0.0000000), wk =   0.1111111
        k(   14) = (   0.0591262  -0.1365460   0.0000000), wk =   0.1111111
        k(   15) = (   0.0591262  -0.1024095   0.0000000), wk =   0.1111111
        k(   16) = (   0.0591262  -0.0682730   0.0000000), wk =   0.1111111
        k(   17) = (  -0.0886892   0.0512048   0.0000000), wk =   0.0555556
        k(   18) = (  -0.0886892   0.0853413   0.0000000), wk =   0.1111111
        k(   19) = (  -0.0886892   0.1194778   0.0000000), wk =   0.1111111
        k(   20) = (  -0.0886892  -0.0512048   0.0000000), wk =   0.0555556

     Largest allocated arrays     est. size (Mb)     dimensions
     Largest temporary arrays     est. size (Mb)     dimensions

     Initial potential from superposition of free atoms
     Check: negative starting charge=   -0.903876

     starting charge  192.99987, renormalised to  199.00000

     negative rho (up, down):  9.320E-01 0.000E+00

     *
     * You are using vdW-DF for exchange-correlation in this calculation.
     * Please cite the following three references that made this development
     * possible:
     *
     *   M. Dion, H. Rydberg, E. Schroder, D. C. Langreth, and
     *   B. I. Lundqvist, Phys. Rev. Lett. 92, 246401 (2004).
     *
     *   T. Thonhauser, V. R. Cooper, S. Li, A. Puzder, P. Hyldgaard, and
     *   D. C. Langreth, Phys. Rev. B 76, 125112 (2007).
     *
     *   G. Roman-Perez and J. M. Soler, Phys. Rev. Lett. 103, 096102 (2009).
     *
     *
     * If you are using vdW-DF2, please also cite:
     *
     *   K. Lee, E. D. Murray, L. Kong, B. I. Lundqvist, and
     *   D. C. Langreth, Phys. Rev. B 82, 081101(R) (2010).
     *
     *
     * If you are calculating the stress with vdW-DF, please also cite:
     *
     *   R. Sabatini, E. Kucukbenli, B. Kolb, T. Thonhauser, and
     *   S. de Gironcoli, J. Phys.: Condens. Matter 24, 424209 (2012).
     *

     Carrying out vdW-DF run using the following parameters:

     Nqs =      20    Nr_points =    1024   r_max =   100.000
     q_mesh =
               0.00001000     0.04494208     0.09755937     0.15916263
               0.23128650     0.31572767     0.41458969     0.53033537
               0.66584808     0.82450364     1.01025438     1.22772762
               1.48234092     1.78043706     2.12944203     2.53805004
               3.01644009     3.57652955     4.23227104     5.00000000

     Gradients computed in reciprocal space

     Adding external electric field

     Computed dipole along edir(3) :
        Dipole               -1.6718 Ry au,         -4.2493 Debye
        Dipole field         -0.0046 Ry au

        Potential amp.        0.4168 Ry
        Total length         45.3309 bohr

     Starting wfc are  149 randomized atomic wfcs

     Self-consistent Calculation

     iteration #  1     ecut=    36.75 Ry     beta=0.30
     Davidson diagonalization with overlap
     ethr =  1.00E-02,  avg # of iterations =  4.5

[...]

     total energy              =   -2361.05855327 Ry
     Harris-Foulkes estimate   =   -2425.17225925 Ry
     estimated scf accuracy    <     135.19381182 Ry

[...]

     End of self-consistent calculation

          k = 0.0000 0.0000 0.0000 ( 17231 PWs)   bands (ev):

   -48.6897 -48.5726 -48.5722 -48.3658 -48.3655 -48.3290 -48.2946 -48.2800
   -48.2792 -48.2590 -48.1954 -48.1953 -48.1900 -48.1710 -48.1700 -48.1170
   -48.0979 -48.0966 -48.0896 -48.0376 -48.0372 -48.0179 -48.0169 -47.9949
   -47.8529 -47.8525 -47.8313 -47.7849 -47.7846 -47.7823 -47.7823 -47.7419
   -47.6841 -47.6704 -47.6684 -47.6203 -13.3003  -6.7166  -4.0287  -3.5803
    -3.5802  -2.9864  -2.8211  -2.8209  -2.8188  -2.7097  -2.7033  -2.5707
    -2.5703  -2.4505  -2.3138  -2.3132  -2.1947  -2.1947  -2.1806  -1.3124
    -1.3120  -1.1731  -1.1199  -1.0330  -1.0329  -0.8606  -0.7953  -0.7953
    -0.7666  -0.7665  -0.6354  -0.5003  -0.5001  -0.4882  -0.4882  -0.2228
     0.1075   0.1079   0.1466   0.3055   0.4622   0.4627   0.5877   0.5880
     0.7314   0.7317   0.8899   0.8901   0.9024   1.2544   1.2684   1.2688
     1.3742   1.3745   1.3794   1.3955   1.5325   1.5327   1.6116   1.6668
     1.6670   1.7861   1.7863   1.8453   1.8461   1.8518   2.2384   3.2277
     3.8239   3.8240   4.2276   4.7171   5.1159

[...]

          k =-0.0887 0.0512 0.0000 ( 17240 PWs)   bands (ev):

[...]

     the Fermi energy is     1.6183 ev

!    total energy              =   -2423.05206463 Ry
     Harris-Foulkes estimate   =   -2423.05206192 Ry
     estimated scf accuracy    <       0.00000973 Ry

     The total energy is the sum of the following terms:

     one-electron contribution =  -20712.97179587 Ry
     hartree contribution      =   10411.51574962 Ry
     xc contribution           =    -399.91991081 Ry
     ewald contribution        =    8278.43678330 Ry
     electric field correction =       0.00026025 Ry
     smearing contrib. (-TS)   =      -0.11315111 Ry

     convergence has been achieved in  20 iterations

 BEEF-vdW xc energy contributions
           1 :   -347.992303443449
           2 :    317.779990565909
           3 :   -266.233875729577
           4 :    207.180908967140
           5 :   -154.020592631476
           6 :    115.351349419393
           7 :   -93.0990743638601
           8 :    83.4818390597267
           9 :   -79.9803355086389
          10 :    76.7218886073207
          11 :   -70.7466856061965
          12 :    62.3696193497697
          13 :   -53.8977245400724
          14 :    47.7037745547813
          15 :   -44.7740513301432
          16 :    44.3650779778669
          17 :   -44.7066390983864
          18 :    44.1469630621395
          19 :   -42.0186812306083
          20 :    38.7904194724301
          21 :   -35.5527342683898
          22 :    33.2490562426398
          23 :   -32.1375910403445
          24 :    31.7528981475837
          25 :   -31.3077044397461
          26 :    30.2253273953141
          27 :   -28.4632182385493
          28 :    26.4580203267886
          29 :   -24.7773183575795
          30 :    23.7322692977921
          31 :   -34.0920979165190
          32 :   -25.1567682945739

     Forces acting on atoms (Ry/au):

     negative rho (up, down):  9.424E-01 0.000E+00
     atom    1 type  1   force =    -0.00020935   -0.00003288   -0.00160537
     atom    2 type  1   force =     0.00020280   -0.00000834   -0.00162744
     atom    3 type  1   force =     0.00001914    0.00012866   -0.00169264
     atom    4 type  1   force =    -0.00003090   -0.00010284    0.00250175
     atom    5 type  1   force =     0.00000154    0.00272184    0.00316464
     atom    6 type  1   force =    -0.00001387   -0.00008519   -0.01787058
     atom    7 type  1   force =    -0.00242934   -0.00132633    0.00322175
     atom    8 type  1   force =     0.00242112   -0.00131543    0.00322800
     atom    9 type  1   force =     0.00001662    0.00013252   -0.00432946
     atom   10 type  1   force =    -0.00002981   -0.03305639   -0.00668796
     atom   11 type  1   force =    -0.02871347    0.01642553   -0.00675994
     atom   12 type  1   force =     0.02875661    0.01650275   -0.00684443
     atom   13 type  2   force =     0.00001060    0.00001510   -0.10242245
     atom   14 type  3   force =    -0.00000169    0.00000099    0.13772412

     Total force =     0.181385     Total SCF correction =     0.004363

     entering subroutine stress ...

     negative rho (up, down):  9.424E-01 0.000E+00
          total   stress  (Ry/bohr**3)                   (kbar)     P=    1.80
  -0.00002627   0.00000001  -0.00000001         -3.86      0.00     -0.00
   0.00000001  -0.00002637  -0.00000002          0.00     -3.88     -0.00
  -0.00000001  -0.00000002   0.00008938         -0.00     -0.00     13.15

     BFGS Geometry Optimization

     number of scf cycles    =   1
     number of bfgs steps    =   0

     energy   new            =   -2423.0520646263 Ry

     new trust radius        =       0.1377241223 bohr
     new conv_thr            =       0.0000099958 Ry

ATOMIC_POSITIONS (crystal)
Pd1      0.166666667   0.166666667   0.406452311    0   0   0
Pd1      0.666666667   0.166666667   0.406452311    0   0   0
Pd1      0.166666667   0.666666667   0.406452311    0   0   0
Pd1      0.666666667   0.666666667   0.406452311    0   0   0
Pd1      0.833333333   0.333333333   0.500000000    0   0   0
Pd1      0.333333333   0.333333333   0.500000000    0   0   0
Pd1      0.833333333   0.833333333   0.500000000    0   0   0
Pd1      0.333333333   0.833333333   0.500000000    0   0   0
Pd1     -0.000005621   0.000014363   0.593454569
Pd1      0.501788620  -0.003582835   0.593403841
Pd1     -0.003585324   0.501780290   0.593402293
Pd1      0.501804899   0.501788660   0.593400476
S1       0.333333510   0.333334970   0.655808069
H1       0.333333120   0.333333441   0.711779808

     Writing output data file calc.save
     Check: negative starting charge=   -0.903876
     NEW-OLD atomic charge density approx. for the potential
     Check: negative starting charge=   -0.902982

[...]

     Total force =     0.067442     Total SCF correction =     0.012946
     SCF correction compared to forces is large: reduce conv_thr to get better values

[...]

     energy   old            =   -2423.0520646263 Ry
     energy   new            =   -2423.0653180658 Ry

     CASE: energy  _new < energy  _old

[...]

     Threshold (ethr) on eigenvalues was too large:
     Diagonalizing with lowered threshold

     Davidson diagonalization with overlap
     ethr =  4.93E-08,  avg # of iterations =  1.0

[...]

     number of scf cycles    =  10
     number of bfgs steps    =   9

     energy   old            =   -2423.0715377001 Ry
     energy   new            =   -2423.0716417210 Ry

     CASE: energy  _new < energy  _old

     new trust radius        =       0.0105525211 bohr
     new conv_thr            =       0.0000001000 Ry

ATOMIC_POSITIONS (crystal)
Pd1      0.166666667   0.166666667   0.406452311    0   0   0
Pd1      0.666666667   0.166666667   0.406452311    0   0   0
Pd1      0.166666667   0.666666667   0.406452311    0   0   0
Pd1      0.666666667   0.666666667   0.406452311    0   0   0
Pd1      0.833333333   0.333333333   0.500000000    0   0   0
Pd1      0.333333333   0.333333333   0.500000000    0   0   0
Pd1      0.833333333   0.833333333   0.500000000    0   0   0
Pd1      0.333333333   0.833333333   0.500000000    0   0   0
Pd1      0.000003454  -0.000006779   0.591965926
Pd1      0.503332124  -0.006662662   0.594206777
Pd1     -0.006667980   0.503340653   0.594207520
Pd1      0.503329116   0.503339097   0.594207810
S1       0.333335402   0.333334897   0.661724940
H1       0.333333053   0.333331986   0.717456971

     Writing output data file calc.save
     Check: negative starting charge=   -0.907176
     NEW-OLD atomic charge density approx. for the potential
     Check: negative starting charge=   -0.907791

[...]

     Self-consistent Calculation

[...]

     total energy              =   -2423.07170373 Ry
     Harris-Foulkes estimate   =   -2423.07170374 Ry
     estimated scf accuracy    <       0.00000026 Ry

     iteration # 11     ecut=    36.75 Ry     beta=0.30
     Davidson diagonalization with overlap
     ethr =  5.04E-11,  avg # of iterations =  1.0

[...]

     negative rho (up, down):  9.461E-01 0.000E+00

     Adding external electric field

     Computed dipole along edir(3) :
        Dipole                0.2656 Ry au,          0.6750 Debye
        Dipole field          0.0007 Ry au

        Potential amp.       -0.0662 Ry
        Total length         45.3309 bohr

     End of self-consistent calculation

[...]

          k = 0.0591-0.0683 0.0000 ( 17183 PWs)   bands (ev):

[...]

          k =-0.0887-0.0512 0.0000 ( 17240 PWs)   bands (ev):

   -48.5871 -48.5374 -48.5028 -48.3498 -48.3381 -48.3296 -48.3097 -48.2990
   -48.2721 -48.2679 -48.2567 -48.2514 -48.2416 -48.2348 -48.2285 -48.2264
   -48.1847 -48.1603 -48.1527 -48.1176 -48.1068 -48.0514 -48.0233 -47.9975
   -47.9554 -47.9492 -47.9415 -47.9021 -47.8891 -47.8866 -47.8712 -47.8061
   -47.7457 -47.7396 -47.7348 -47.7258 -12.6231  -5.8732  -3.4174  -2.9294
    -2.8127  -2.6368  -2.3340  -2.3332  -2.1809  -2.1754  -2.1093  -2.0284
    -1.9663  -1.8912  -1.8517  -1.8096  -1.7707  -1.6632  -1.5977  -1.5974
    -1.3100  -1.2673  -1.2638  -1.1990  -1.1324  -1.0551  -0.9921  -0.9523
    -0.7562  -0.7464  -0.6603  -0.5720  -0.5397  -0.5292  -0.4346  -0.4105
    -0.3963  -0.3366  -0.2663  -0.2487  -0.2383  -0.1893  -0.1164   0.0236
     0.1095   0.1136   0.1396   0.2254   0.3053   0.3384   0.3809   0.4553
     0.5238   0.5426   0.6197   0.6903   0.7411   0.8600   0.9215   1.1018
     1.2961   1.3116   1.3630   1.4708   1.5890   1.7086   1.9336   2.1645
     3.9173   4.0577   4.2731   4.4200   4.9416

     the Fermi energy is     1.5551 ev

!    total energy              =   -2423.07170372 Ry
     Harris-Foulkes estimate   =   -2423.07170171 Ry
     estimated scf accuracy    <       0.00000004 Ry

     The total energy is the sum of the following terms:

     one-electron contribution =  -20659.20120760 Ry
     hartree contribution      =   10384.42958849 Ry
     xc contribution           =    -399.78077707 Ry
     ewald contribution        =    8251.59620511 Ry
     electric field correction =       0.00019393 Ry
     smearing contrib. (-TS)   =      -0.11570658 Ry

     convergence has been achieved in  11 iterations

 BEEF-vdW xc energy contributions
           1 :   -347.854114978899
           2 :    317.604130320524
           3 :   -266.012919908812
           4 :    206.943685505359
           5 :   -153.814904872313
           6 :    115.217736349505
           7 :   -93.0499412670664
           8 :    83.4964968029557
           9 :   -80.0176585164672
          10 :    76.7431400861914
          11 :   -70.7357233505240
          12 :    62.3397174021161
          13 :   -53.8815626005810
          14 :    47.7327214847604
          15 :   -44.8591470066125
          16 :    44.4902548206425
          17 :   -44.8364110083619
          18 :    44.2434396256781
          19 :   -42.0589602489144
          20 :    38.7759595944930
          21 :   -35.5068968834663
          22 :    33.2047318996981
          23 :   -32.1213618382831
          24 :    31.7734127291869
          25 :   -31.3534092602013
          26 :    30.2720432587333
          27 :   -28.4871003170394
          28 :    26.4472011698778
          29 :   -24.7367806786681
          30 :    23.6800718372351
          31 :   -34.0828577102714
          32 :   -25.1380953396114

     Forces acting on atoms (Ry/au):

     negative rho (up, down):  9.461E-01 0.000E+00
     atom    1 type  1   force =    -0.00027009   -0.00016128   -0.00136485
     atom    2 type  1   force =     0.00027026   -0.00015690   -0.00136740
     atom    3 type  1   force =     0.00000374    0.00031476   -0.00136478
     atom    4 type  1   force =    -0.00000381    0.00000303    0.00270877
     atom    5 type  1   force =     0.00000113    0.00419974    0.00182654
     atom    6 type  1   force =    -0.00000158    0.00000177   -0.00978463
     atom    7 type  1   force =    -0.00363757   -0.00210084    0.00182182
     atom    8 type  1   force =     0.00363833   -0.00209973    0.00182272
     atom    9 type  1   force =     0.00000537    0.00001398    0.00138227
     atom   10 type  1   force =    -0.00000618   -0.00107119    0.00187572
     atom   11 type  1   force =    -0.00093306    0.00052482    0.00188043
     atom   12 type  1   force =     0.00093555    0.00053518    0.00187293
     atom   13 type  2   force =    -0.00000232   -0.00000275   -0.00035917
     atom   14 type  3   force =     0.00000023   -0.00000058   -0.00095036

     Total force =     0.004118     Total SCF correction =     0.000374

     entering subroutine stress ...

     negative rho (up, down):  9.461E-01 0.000E+00
          total   stress  (Ry/bohr**3)                   (kbar)     P=   -4.63
  -0.00004192   0.00000000  -0.00000001         -6.17      0.00     -0.00
   0.00000000  -0.00004192   0.00000000          0.00     -6.17      0.00
  -0.00000001   0.00000000  -0.00001055         -0.00      0.00     -1.55

     bfgs converged in  11 scf cycles and  10 bfgs steps
     (criteria: energy <  1.0E+00, force <  1.9E-03)

     End of BFGS Geometry Optimization

     Final energy   =   -2423.0717037186 Ry
Begin final coordinates

ATOMIC_POSITIONS (crystal)
Pd1      0.166666667   0.166666667   0.406452311    0   0   0
Pd1      0.666666667   0.166666667   0.406452311    0   0   0
Pd1      0.166666667   0.666666667   0.406452311    0   0   0
Pd1      0.666666667   0.666666667   0.406452311    0   0   0
Pd1      0.833333333   0.333333333   0.500000000    0   0   0
Pd1      0.333333333   0.333333333   0.500000000    0   0   0
Pd1      0.833333333   0.833333333   0.500000000    0   0   0
Pd1      0.333333333   0.833333333   0.500000000    0   0   0
Pd1      0.000003454  -0.000006779   0.591965926
Pd1      0.503332124  -0.006662662   0.594206777
Pd1     -0.006667980   0.503340653   0.594207520
Pd1      0.503329116   0.503339097   0.594207810
S1       0.333335402   0.333334897   0.661724940
H1       0.333333053   0.333331986   0.717456971
End final coordinates

     Writing output data file calc.save

     General routines

     Parallel routines

   This run was terminated on:   0: 0:49  22Apr2018

   JOB DONE.
Job  /afs/slac/g/suncat/bin/suncat-tsmpirun -x LD_LIBRARY_PATH -wdir /scratch/qe500979_PaTlG pw.x -npool 4 -in pw.inp

TID   HOST_NAME   COMMAND_LINE            STATUS            TERMINATION_TIME
00000 suncat0165 pw.x -npool 4 -i  Done                     04/22/2018 00:00:49
00001 suncat0165 pw.x -npool 4 -i  Done                     04/22/2018 00:00:49
00002 suncat0165 pw.x -npool 4 -i  Done                     04/22/2018 00:00:49
00003 suncat0165 pw.x -npool 4 -i  Done                     04/22/2018 00:00:49
00004 suncat0165 pw.x -npool 4 -i  Done                     04/22/2018 00:00:49
00005 suncat0165 pw.x -npool 4 -i  Done                     04/22/2018 00:00:49
00006 suncat0165 pw.x -npool 4 -i  Done                     04/22/2018 00:00:49
00007 suncat0165 pw.x -npool 4 -i  Done                     04/22/2018 00:00:49
00008 suncat0262 pw.x -npool 4 -i  Done                     04/22/2018 00:00:49
00009 suncat0262 pw.x -npool 4 -i  Done                     04/22/2018 00:00:49
00010 suncat0262 pw.x -npool 4 -i  Done                     04/22/2018 00:00:49
00011 suncat0262 pw.x -npool 4 -i  Done                     04/22/2018 00:00:49
00012 suncat0262 pw.x -npool 4 -i  Done                     04/22/2018 00:00:49
00013 suncat0262 pw.x -npool 4 -i  Done                     04/22/2018 00:00:49
00014 suncat0262 pw.x -npool 4 -i  Done                     04/22/2018 00:00:49
00015 suncat0262 pw.x -npool 4 -i  Done                     04/22/2018 00:00:49
00016 suncat0212 pw.x -npool 4 -i  Done                     04/22/2018 00:00:49
00017 suncat0212 pw.x -npool 4 -i  Done                     04/22/2018 00:00:49
00018 suncat0212 pw.x -npool 4 -i  Done                     04/22/2018 00:00:49
00019 suncat0212 pw.x -npool 4 -i  Done                     04/22/2018 00:00:49
00020 suncat0212 pw.x -npool 4 -i  Done                     04/22/2018 00:00:49
00021 suncat0212 pw.x -npool 4 -i  Done                     04/22/2018 00:00:49
00022 suncat0212 pw.x -npool 4 -i  Done                     04/22/2018 00:00:49
00023 suncat0212 pw.x -npool 4 -i  Done                     04/22/2018 00:00:49
00024 suncat0206 pw.x -npool 4 -i  Done                     04/22/2018 00:00:49
00025 suncat0206 pw.x -npool 4 -i  Done                     04/22/2018 00:00:49
00026 suncat0206 pw.x -npool 4 -i  Done                     04/22/2018 00:00:49
00027 suncat0206 pw.x -npool 4 -i  Done                     04/22/2018 00:00:49
00028 suncat0206 pw.x -npool 4 -i  Done                     04/22/2018 00:00:49
00029 suncat0206 pw.x -npool 4 -i  Done                     04/22/2018 00:00:49
00030 suncat0206 pw.x -npool 4 -i  Done                     04/22/2018 00:00:49
00031 suncat0206 pw.x -npool 4 -i  Done                     04/22/2018 00:00:49