     Program PWSCF v.5.1rc2 (svn rev. 11289) starts on 30Jan2018 at 13:34:56

     Current dimensions of program PWSCF are:
     Max number of different atomic species (ntypx) = 10
     Max number of k-points (npk) =  40000
     Max angular momentum in pseudopotentials (lmaxx) =  3
     Presently stress not available with electric field

     IMPORTANT: XC functional enforced from input :
     Exchange-correlation      = BEEF-VDW ( 1  4 27 13 2)
     Any further DFT definition will be discarded
     Please, verify this is what you really want

     Subspace diagonalization in iterative solution of the eigenvalue problem:
     a serial algorithm will be used

     bravais-lattice index     =            0
     lattice parameter (alat)  =       1.8897  a.u.
     unit-cell volume          =    6117.3319 (a.u.)^3
     number of atoms/cell      =           13
     number of atomic types    =            2
     number of electrons       =       150.00
     number of Kohn-Sham states=           85
     kinetic-energy cutoff     =      36.7493  Ry
     charge density cutoff     =     367.4932  Ry
     convergence threshold     =      1.0E-05
     mixing beta               =       0.3000
     number of iterations used =           10  plain     mixing
     Exchange-correlation      = BEEF-VDW ( 1  4 27 13 2)
     nstep                     =           50

     celldm(1)=   1.889726  celldm(2)=   0.000000  celldm(3)=   0.000000
     celldm(4)=   0.000000  celldm(5)=   0.000000  celldm(6)=   0.000000

     crystal axes: (cart. coord. in units of alat)
               a(1) = (   6.437717   0.000000   0.000000 )
               a(2) = (   3.218859   5.575227   0.000000 )
               a(3) = (   0.000000   0.000000  25.256374 )

     reciprocal axes: (cart. coord. in units 2 pi/alat)
               b(1) = (  0.155335 -0.089682  0.000000 )
               b(2) = (  0.000000  0.179365  0.000000 )
               b(3) = (  0.000000  0.000000  0.039594 )

     PseudoPot. # 1 for Hg read from file:
     /afs/slac.stanford.edu/u/if/mamunm/psp/gbrv1.5pbe/Hg.UPF
     MD5 check sum: 8f42caffe07f7fd9c0a564347f8c5498
     Pseudo is Ultrasoft + core correction, Zval = 12.0
     Generated by new atomic code, or converted to UPF format
     Using radial grid of  985 points,  6 beta functions with:
                l(1) =   0
                l(2) =   0
                l(3) =   1
                l(4) =   1
                l(5) =   2
                l(6) =   2
     Q(r) pseudized with  8 coefficients,  rinner =    2.000   2.000   2.000
                                                       2.000   2.000

     PseudoPot. # 2 for S  read from file:
     /afs/slac.stanford.edu/u/if/mamunm/psp/gbrv1.5pbe/S.UPF
     MD5 check sum: 88d86576ff6df21479756cfb9bdac1df
     Pseudo is Ultrasoft + core correction, Zval =  6.0
     Generated by new atomic code, or converted to UPF format
     Using radial grid of  907 points,  6 beta functions with:
                l(1) =   0
                l(2) =   0
                l(3) =   1
                l(4) =   1
                l(5) =   2
                l(6) =   2
     Q(r) pseudized with  8 coefficients,  rinner =    1.300   1.300   1.300
                                                       1.300   1.300

     vdW kernel table read from file vdW_kernel_table
     MD5 check sum: 095c7af220d748ca6e76c0b4c6cfb241

     atomic species   valence    mass     pseudopotential
        Hg1           12.00   200.59200     Hg( 1.00)
        S1             6.00    32.06000     S ( 1.00)

     No symmetry found

   Cartesian axes

     site n.     atom                  positions (alat units)
         1           Hg1 tau(   1) = (   1.6094293   0.9292045  10.0000000  )
         2           Hg1 tau(   2) = (   4.8282880   0.9292045  10.0000000  )
         3           Hg1 tau(   3) = (   3.2188587   3.7168178  10.0000000  )
         4           Hg1 tau(   4) = (   6.4377173   3.7168178  10.0000000  )
         5           Hg1 tau(   5) = (   6.4377173   1.8584089  12.6281871  )
         6           Hg1 tau(   6) = (   3.2188587   1.8584089  12.6281871  )
         7           Hg1 tau(   7) = (   8.0471466   4.6460223  12.6281871  )
         8           Hg1 tau(   8) = (   4.8282880   4.6460223  12.6281871  )
         9           Hg1 tau(   9) = (   9.5190396   5.4959394  15.8004562  )
        10           Hg1 tau(  10) = (   6.5752534   5.4965602  15.8003607  )
        11           Hg1 tau(  11) = (   8.0476800   2.9454760  15.7992643  )
        12           Hg1 tau(  12) = (   4.8289904   2.7879334  15.4232639  )
        13           S1  tau(  13) = (   1.6084459   0.9287992  17.4396660  )

     number of k points=    20  Fermi-Dirac smearing, width (Ry)=  0.0110
                       cart. coord. in units 2pi/alat
        k(    1) = (   0.0000000   0.0000000   0.0000000), wk =   0.0555556
        k(    2) = (   0.0000000   0.0298942   0.0000000), wk =   0.1111111
        k(    3) = (   0.0000000   0.0597883   0.0000000), wk =   0.1111111
        k(    4) = (   0.0000000  -0.0896825   0.0000000), wk =   0.0555556
        k(    5) = (   0.0258891  -0.0149471   0.0000000), wk =   0.1111111
        k(    6) = (   0.0258891   0.0149471   0.0000000), wk =   0.1111111
        k(    7) = (   0.0258891   0.0448412   0.0000000), wk =   0.1111111
        k(    8) = (   0.0258891  -0.1046295   0.0000000), wk =   0.1111111
        k(    9) = (   0.0258891  -0.0747354   0.0000000), wk =   0.1111111
        k(   10) = (   0.0258891  -0.0448412   0.0000000), wk =   0.1111111
        k(   11) = (   0.0517782  -0.0298942   0.0000000), wk =   0.1111111
        k(   12) = (   0.0517782   0.0000000   0.0000000), wk =   0.1111111
        k(   13) = (   0.0517782   0.0298942   0.0000000), wk =   0.1111111
        k(   14) = (   0.0517782  -0.1195766   0.0000000), wk =   0.1111111
        k(   15) = (   0.0517782  -0.0896825   0.0000000), wk =   0.1111111
        k(   16) = (   0.0517782  -0.0597883   0.0000000), wk =   0.1111111
        k(   17) = (  -0.0776673   0.0448412   0.0000000), wk =   0.0555556
        k(   18) = (  -0.0776673   0.0747354   0.0000000), wk =   0.1111111
        k(   19) = (  -0.0776673   0.1046295   0.0000000), wk =   0.1111111
        k(   20) = (  -0.0776673  -0.0448412   0.0000000), wk =   0.0555556

     Largest allocated arrays     est. size (Mb)     dimensions
     Largest temporary arrays     est. size (Mb)     dimensions

     Initial potential from superposition of free atoms

     starting charge  149.99926, renormalised to  150.00000

     negative rho (up, down):  8.586E-05 0.000E+00

     *
     * You are using vdW-DF for exchange-correlation in this calculation.
     * Please cite the following three references that made this development
     * possible:
     *
     *   M. Dion, H. Rydberg, E. Schroder, D. C. Langreth, and
     *   B. I. Lundqvist, Phys. Rev. Lett. 92, 246401 (2004).
     *
     *   T. Thonhauser, V. R. Cooper, S. Li, A. Puzder, P. Hyldgaard, and
     *   D. C. Langreth, Phys. Rev. B 76, 125112 (2007).
     *
     *   G. Roman-Perez and J. M. Soler, Phys. Rev. Lett. 103, 096102 (2009).
     *
     *
     * If you are using vdW-DF2, please also cite:
     *
     *   K. Lee, E. D. Murray, L. Kong, B. I. Lundqvist, and
     *   D. C. Langreth, Phys. Rev. B 82, 081101(R) (2010).
     *
     *
     * If you are calculating the stress with vdW-DF, please also cite:
     *
     *   R. Sabatini, E. Kucukbenli, B. Kolb, T. Thonhauser, and
     *   S. de Gironcoli, J. Phys.: Condens. Matter 24, 424209 (2012).
     *

     Carrying out vdW-DF run using the following parameters:

     Nqs =      20    Nr_points =    1024   r_max =   100.000
     q_mesh =
               0.00001000     0.04494208     0.09755937     0.15916263
               0.23128650     0.31572767     0.41458969     0.53033537
               0.66584808     0.82450364     1.01025438     1.22772762
               1.48234092     1.78043706     2.12944203     2.53805004
               3.01644009     3.57652955     4.23227104     5.00000000

     Gradients computed in reciprocal space

     Adding external electric field

     Computed dipole along edir(3) :
        Dipole                0.0001 Ry au,          0.0002 Debye
        Dipole field          0.0000 Ry au

        Potential amp.       -0.0000 Ry
        Total length         46.5344 bohr

     Starting wfc are  112 randomized atomic wfcs

     Self-consistent Calculation

     iteration #  1     ecut=    36.75 Ry     beta=0.30
     Davidson diagonalization with overlap
     ethr =  1.00E-02,  avg # of iterations =  4.5

     Threshold (ethr) on eigenvalues was too large:
     Diagonalizing with lowered threshold

     Davidson diagonalization with overlap
     ethr =  5.15E-04,  avg # of iterations =  4.5

[...]

     total energy              =   -1333.35669546 Ry
     Harris-Foulkes estimate   =   -1333.69126405 Ry
     estimated scf accuracy    <       0.72832960 Ry

[...]

     End of self-consistent calculation

          k = 0.0000 0.0000 0.0000 ( 23031 PWs)   bands (ev):

   -12.2565  -7.7390  -7.6814  -7.4857  -7.4841  -7.4230  -7.3561  -7.3405
    -7.3140  -7.3140  -7.2000  -7.1850  -7.1850  -7.1286  -7.1286  -7.1072
    -6.8758  -6.8757  -6.8539  -6.7354  -6.7346  -6.6596  -6.6595  -6.6555
    -6.6014  -6.5637  -6.5636  -6.4608  -6.4603  -6.4382  -6.4379  -6.3682
    -6.2820  -6.2814  -6.2039  -6.1836  -6.1827  -6.1023  -6.1017  -6.0932
    -5.9705  -5.9705  -5.8493  -5.8251  -5.8250  -5.7149  -5.7126  -5.7120
    -5.6993  -5.6993  -5.6556  -5.6329  -5.6329  -5.6220  -5.6219  -5.6098
    -5.5755  -5.4989  -5.4585  -5.4585  -5.3521  -5.3521  -5.3420  -3.6329
    -2.5087  -2.5062  -1.9915  -1.4970  -1.3551  -1.3550  -1.2146  -0.8892
    -0.8887  -0.4097  -0.1416  -0.1396   0.2020   0.7649   0.7656   0.9181
     1.4634   1.4638   1.7221   2.3310   2.3313

[...]

          k =-0.0777 0.0448 0.0000 ( 23032 PWs)   bands (ev):

[...]

     the Fermi energy is     0.3872 ev

!    total energy              =   -1333.59625549 Ry
     Harris-Foulkes estimate   =   -1333.59626020 Ry
     estimated scf accuracy    <       0.00000683 Ry

     The total energy is the sum of the following terms:

     one-electron contribution =   -7748.40100095 Ry
     hartree contribution      =    3967.88787919 Ry
     xc contribution           =    -494.06430809 Ry
     ewald contribution        =    2941.00748743 Ry
     electric field correction =       0.00015849 Ry
     smearing contrib. (-TS)   =      -0.02647158 Ry

     convergence has been achieved in   9 iterations

 BEEF-vdW xc energy contributions
           1 :   -432.772930494814
           2 :    397.542058965383
           3 :   -336.595410758010
           4 :    264.778388313086
           5 :   -196.664454673439
           6 :    142.110681488106
           7 :   -104.351125373802
           8 :    80.8595051356982
           9 :   -66.1226245422903
          10 :    54.7907368962403
          11 :   -43.7766685852075
          12 :    32.6300210535730
          13 :   -22.4994827818242
          14 :    14.6306989892013
          15 :   -9.34815084886719
          16 :    5.94474123025014
[...]

[...]

     Program PWSCF v.5.1rc2 (svn rev. 11289) starts on 30Jan2018 at 14:24: 7

[...]

   This run was terminated on:  14:32: 5  30Jan2018

[...]

     Program PWSCF v.5.1rc2 (svn rev. 11289) starts on 30Jan2018 at 21: 7:30

[...]

     Program PWSCF v.5.1rc2 (svn rev. 11289) starts on 30Jan2018 at 21:37: 5

[...]

   This run was terminated on:  21:45: 5  30Jan2018

[...]

   This run was terminated on:  21:54:57  30Jan2018

[...]

     Program PWSCF v.5.1rc2 (svn rev. 11289) starts on 30Jan2018 at 21:56:47

     Current dimensions of program PWSCF are:
     Max number of different atomic species (ntypx) = 10
     Max number of k-points (npk) =  40000
     Max angular momentum in pseudopotentials (lmaxx) =  3
     Presently stress not available with electric field

     IMPORTANT: XC functional enforced from input :
     Exchange-correlation      = BEEF-VDW ( 1  4 27 13 2)
     Any further DFT definition will be discarded
     Please, verify this is what you really want

     Subspace diagonalization in iterative solution of the eigenvalue problem:
     a serial algorithm will be used

     bravais-lattice index     =            0
     lattice parameter (alat)  =       1.8897  a.u.
     unit-cell volume          =    6117.3319 (a.u.)^3
     number of atoms/cell      =           13
     number of atomic types    =            2
     number of electrons       =       150.00
     number of Kohn-Sham states=           85
     kinetic-energy cutoff     =      36.7493  Ry
     charge density cutoff     =     367.4932  Ry
     convergence threshold     =      1.0E-05
     mixing beta               =       0.3000
     number of iterations used =           10  plain     mixing
     Exchange-correlation      = BEEF-VDW ( 1  4 27 13 2)
     nstep                     =           50

     celldm(1)=   1.889726  celldm(2)=   0.000000  celldm(3)=   0.000000
     celldm(4)=   0.000000  celldm(5)=   0.000000  celldm(6)=   0.000000

     crystal axes: (cart. coord. in units of alat)
               a(1) = (   6.437717   0.000000   0.000000 )
               a(2) = (   3.218859   5.575227   0.000000 )
               a(3) = (   0.000000   0.000000  25.256374 )

     reciprocal axes: (cart. coord. in units 2 pi/alat)
               b(1) = (  0.155335 -0.089682  0.000000 )
               b(2) = (  0.000000  0.179365  0.000000 )
               b(3) = (  0.000000  0.000000  0.039594 )

     PseudoPot. # 1 for Hg read from file:
     /afs/slac.stanford.edu/u/if/mamunm/psp/gbrv1.5pbe/Hg.UPF
     MD5 check sum: 8f42caffe07f7fd9c0a564347f8c5498
     Pseudo is Ultrasoft + core correction, Zval = 12.0
     Generated by new atomic code, or converted to UPF format
     Using radial grid of  985 points,  6 beta functions with:
                l(1) =   0
                l(2) =   0
                l(3) =   1
                l(4) =   1
                l(5) =   2
                l(6) =   2
     Q(r) pseudized with  8 coefficients,  rinner =    2.000   2.000   2.000
                                                       2.000   2.000

     PseudoPot. # 2 for S  read from file:
     /afs/slac.stanford.edu/u/if/mamunm/psp/gbrv1.5pbe/S.UPF
     MD5 check sum: 88d86576ff6df21479756cfb9bdac1df
     Pseudo is Ultrasoft + core correction, Zval =  6.0
     Generated by new atomic code, or converted to UPF format
     Using radial grid of  907 points,  6 beta functions with:
                l(1) =   0
                l(2) =   0
                l(3) =   1
                l(4) =   1
                l(5) =   2
                l(6) =   2
     Q(r) pseudized with  8 coefficients,  rinner =    1.300   1.300   1.300
                                                       1.300   1.300

     vdW kernel table read from file vdW_kernel_table
     MD5 check sum: 095c7af220d748ca6e76c0b4c6cfb241

     atomic species   valence    mass     pseudopotential
        Hg1           12.00   200.59200     Hg( 1.00)
        S1             6.00    32.06000     S ( 1.00)

     No symmetry found

   Cartesian axes

     site n.     atom                  positions (alat units)
         1           Hg1 tau(   1) = (   1.6094293   0.9292045  10.0000000  )
         2           Hg1 tau(   2) = (   4.8282880   0.9292045  10.0000000  )
         3           Hg1 tau(   3) = (   3.2188587   3.7168178  10.0000000  )
         4           Hg1 tau(   4) = (   6.4377173   3.7168178  10.0000000  )
         5           Hg1 tau(   5) = (   6.4377173   1.8584089  12.6281871  )
         6           Hg1 tau(   6) = (   3.2188587   1.8584089  12.6281871  )
         7           Hg1 tau(   7) = (   8.0471466   4.6460223  12.6281871  )
         8           Hg1 tau(   8) = (   4.8282880   4.6460223  12.6281871  )
         9           Hg1 tau(   9) = (   9.5175605   5.4950694  15.7996757  )
        10           Hg1 tau(  10) = (   6.5767061   5.4957401  15.7995727  )
        11           Hg1 tau(  11) = (   8.0477107   2.9471806  15.7984191  )
        12           Hg1 tau(  12) = (   4.8289889   2.7879552  15.4222689  )
        13           S1  tau(  13) = (   1.6084394   0.9287608  17.4413279  )

     number of k points=    20  Fermi-Dirac smearing, width (Ry)=  0.0110
                       cart. coord. in units 2pi/alat
        k(    1) = (   0.0000000   0.0000000   0.0000000), wk =   0.0555556
        k(    2) = (   0.0000000   0.0298942   0.0000000), wk =   0.1111111
        k(    3) = (   0.0000000   0.0597883   0.0000000), wk =   0.1111111
        k(    4) = (   0.0000000  -0.0896825   0.0000000), wk =   0.0555556
        k(    5) = (   0.0258891  -0.0149471   0.0000000), wk =   0.1111111
        k(    6) = (   0.0258891   0.0149471   0.0000000), wk =   0.1111111
        k(    7) = (   0.0258891   0.0448412   0.0000000), wk =   0.1111111
        k(    8) = (   0.0258891  -0.1046295   0.0000000), wk =   0.1111111
        k(    9) = (   0.0258891  -0.0747354   0.0000000), wk =   0.1111111
        k(   10) = (   0.0258891  -0.0448412   0.0000000), wk =   0.1111111
        k(   11) = (   0.0517782  -0.0298942   0.0000000), wk =   0.1111111
        k(   12) = (   0.0517782   0.0000000   0.0000000), wk =   0.1111111
        k(   13) = (   0.0517782   0.0298942   0.0000000), wk =   0.1111111
        k(   14) = (   0.0517782  -0.1195766   0.0000000), wk =   0.1111111
        k(   15) = (   0.0517782  -0.0896825   0.0000000), wk =   0.1111111
        k(   16) = (   0.0517782  -0.0597883   0.0000000), wk =   0.1111111
        k(   17) = (  -0.0776673   0.0448412   0.0000000), wk =   0.0555556
        k(   18) = (  -0.0776673   0.0747354   0.0000000), wk =   0.1111111
        k(   19) = (  -0.0776673   0.1046295   0.0000000), wk =   0.1111111
        k(   20) = (  -0.0776673  -0.0448412   0.0000000), wk =   0.0555556

     Largest allocated arrays     est. size (Mb)     dimensions
     Largest temporary arrays     est. size (Mb)     dimensions

     Initial potential from superposition of free atoms

     starting charge  149.99926, renormalised to  150.00000

[...]

     *
     * You are using vdW-DF for exchange-correlation in this calculation.
     * Please cite the following three references that made this development
     * possible:
     *
     *   M. Dion, H. Rydberg, E. Schroder, D. C. Langreth, and
     *   B. I. Lundqvist, Phys. Rev. Lett. 92, 246401 (2004).
     *
     *   T. Thonhauser, V. R. Cooper, S. Li, A. Puzder, P. Hyldgaard, and
     *   D. C. Langreth, Phys. Rev. B 76, 125112 (2007).
     *
     *   G. Roman-Perez and J. M. Soler, Phys. Rev. Lett. 103, 096102 (2009).
     *
     *
     * If you are using vdW-DF2, please also cite:
     *
     *   K. Lee, E. D. Murray, L. Kong, B. I. Lundqvist, and
     *   D. C. Langreth, Phys. Rev. B 82, 081101(R) (2010).
     *
     *
     * If you are calculating the stress with vdW-DF, please also cite:
     *
     *   R. Sabatini, E. Kucukbenli, B. Kolb, T. Thonhauser, and
     *   S. de Gironcoli, J. Phys.: Condens. Matter 24, 424209 (2012).
     *

     Carrying out vdW-DF run using the following parameters:

     Nqs =      20    Nr_points =    1024   r_max =   100.000
     q_mesh =
               0.00001000     0.04494208     0.09755937     0.15916263
               0.23128650     0.31572767     0.41458969     0.53033537
               0.66584808     0.82450364     1.01025438     1.22772762
               1.48234092     1.78043706     2.12944203     2.53805004
               3.01644009     3.57652955     4.23227104     5.00000000

     Gradients computed in reciprocal space

[...]

     Starting wfc are  112 randomized atomic wfcs

     Self-consistent Calculation

[...]

     Threshold (ethr) on eigenvalues was too large:
     Diagonalizing with lowered threshold

     Davidson diagonalization with overlap
     ethr =  5.19E-04,  avg # of iterations =  4.5

[...]

     total energy              =   -1333.59625661 Ry
     Harris-Foulkes estimate   =   -1333.59626710 Ry
     estimated scf accuracy    <       0.00006878 Ry

     iteration #  9     ecut=    36.75 Ry     beta=0.30
     Davidson diagonalization with overlap
     ethr =  4.59E-08,  avg # of iterations =  2.2

[...]

     negative rho (up, down):  9.134E-05 0.000E+00

     Adding external electric field

     Computed dipole along edir(3) :
        Dipole               -0.2796 Ry au,         -0.7107 Debye
        Dipole field         -0.0006 Ry au

        Potential amp.        0.0535 Ry
        Total length         46.5344 bohr

     End of self-consistent calculation

[...]

          k = 0.0518-0.0598 0.0000 ( 23014 PWs)   bands (ev):

[...]

          k =-0.0777-0.0448 0.0000 ( 23032 PWs)   bands (ev):

   -12.2086  -7.5178  -7.1796  -7.1472  -7.1172  -7.0855  -7.0750  -7.0170
    -6.9849  -6.9680  -6.9489  -6.9285  -6.8923  -6.8533  -6.8223  -6.8029
    -6.7759  -6.7283  -6.7196  -6.7149  -6.6628  -6.5949  -6.5894  -6.5603
    -6.5176  -6.5130  -6.4891  -6.4820  -6.4578  -6.4221  -6.3883  -6.3616
    -6.2841  -6.2788  -6.2729  -6.2563  -6.2457  -6.2290  -6.1914  -6.1639
    -6.1217  -6.1095  -6.1012  -6.0972  -6.0818  -6.0584  -6.0342  -6.0091
    -6.0051  -5.9834  -5.9631  -5.8769  -5.8675  -5.8391  -5.8248  -5.7687
    -5.7053  -5.6959  -5.6501  -5.6251  -5.5911  -5.5044  -5.4875  -4.8723
    -4.3428  -3.0981  -3.0056  -2.7381  -2.6498  -2.4410  -1.9692  -1.2765
    -0.7047  -0.4363   0.4830   0.7159   1.9248   1.9845   2.8768   2.9825
     3.2116   3.4024   3.8230   3.9506   4.0730

     the Fermi energy is     0.3849 ev

!    total energy              =   -1333.59626196 Ry
     Harris-Foulkes estimate   =   -1333.59626714 Ry
     estimated scf accuracy    <       0.00000685 Ry

     The total energy is the sum of the following terms:

     one-electron contribution =   -7748.96808017 Ry
     hartree contribution      =    3968.16296746 Ry
     xc contribution           =    -494.06339816 Ry
     ewald contribution        =    2941.29856192 Ry
     electric field correction =       0.00016061 Ry
     smearing contrib. (-TS)   =      -0.02647361 Ry

     convergence has been achieved in   9 iterations

 BEEF-vdW xc energy contributions
           1 :   -432.772020770119
           2 :    397.540863155337
           3 :   -336.593806688333
           4 :    264.776392433475
           5 :   -196.662163842308
           6 :    142.108306132389
           7 :   -104.349031614307
           8 :    80.8581629083237
           9 :   -66.1224265995731
          10 :    54.7917770043546
          11 :   -43.7786218414155
          12 :    32.6322330879175
          13 :   -22.5012448523606
          14 :    14.6315708779253
          15 :   -9.34815295417741
          16 :    5.94429303061850
          17 :   -3.28515946728328
          18 :   0.574977887282785
          19 :    2.22727145915837
          20 :   -4.55286226425142
          21 :    5.75972580813857
          22 :   -5.66978252231627
          23 :    4.75733756761633
          24 :   -3.89520996201156
          25 :    3.84637424332902
          26 :   -4.82986013812717
          27 :    6.41669663370851
          28 :   -7.80008528674091
          29 :    8.26416545938628
          30 :   -7.57728708360548
          31 :   -40.4756945601455
          32 :   -29.6452819150448

     Forces acting on atoms (Ry/au):

     negative rho (up, down):  9.134E-05 0.000E+00
     atom    1 type  1   force =    -0.00000105    0.00000147   -0.02057052
     atom    2 type  1   force =     0.00000143    0.00030698   -0.02202727
     atom    3 type  1   force =     0.00026202   -0.00015113   -0.02203164
     atom    4 type  1   force =    -0.00026253   -0.00015118   -0.02201808
     atom    5 type  1   force =     0.00257465   -0.00148942    0.02291169
     atom    6 type  1   force =    -0.00257510   -0.00149142    0.02292804
     atom    7 type  1   force =     0.00000224    0.00000305    0.01972948
     atom    8 type  1   force =     0.00000475    0.00298073    0.02291990
     atom    9 type  1   force =    -0.00076969   -0.00045474   -0.00049459
     atom   10 type  1   force =     0.00074156   -0.00040963   -0.00050565
     atom   11 type  1   force =     0.00002996    0.00087294   -0.00056175
     atom   12 type  1   force =     0.00000155    0.00002005   -0.00107943
     atom   13 type  2   force =    -0.00000980   -0.00003770    0.00079983

     Total force =     0.062254     Total SCF correction =     0.013891
     SCF correction compared to forces is large: reduce conv_thr to get better values

     entering subroutine stress ...

     negative rho (up, down):  9.134E-05 0.000E+00
          total   stress  (Ry/bohr**3)                   (kbar)     P=   17.05
   0.00013680  -0.00000006   0.00000001         20.12     -0.01      0.00
  -0.00000006   0.00013688  -0.00000001         -0.01     20.14     -0.00
   0.00000001  -0.00000001   0.00007410          0.00     -0.00     10.90

 !ASE

     Writing output data file calc.save

     General routines

     Parallel routines

   This run was terminated on:  22: 4:46  30Jan2018

   JOB DONE.
Job  /afs/slac/g/suncat/bin/suncat-tsmpirun -x LD_LIBRARY_PATH -wdir /scratch/qe704196_jPk5n pw.x -in pw.inp

TID   HOST_NAME   COMMAND_LINE            STATUS            TERMINATION_TIME
00000 suncat0141 pw.x -in pw.inp   Done                     01/30/2018 22:04:46
00001 suncat0141 pw.x -in pw.inp   Done                     01/30/2018 22:04:46
00002 suncat0141 pw.x -in pw.inp   Done                     01/30/2018 22:04:46
00003 suncat0141 pw.x -in pw.inp   Done                     01/30/2018 22:04:46
00004 suncat0141 pw.x -in pw.inp   Done                     01/30/2018 22:04:46
00005 suncat0141 pw.x -in pw.inp   Done                     01/30/2018 22:04:46
00006 suncat0141 pw.x -in pw.inp   Done                     01/30/2018 22:04:46
00007 suncat0141 pw.x -in pw.inp   Done                     01/30/2018 22:04:46
00008 suncat0121 pw.x -in pw.inp   Done                     01/30/2018 22:04:46
00009 suncat0121 pw.x -in pw.inp   Done                     01/30/2018 22:04:46
00010 suncat0121 pw.x -in pw.inp   Done                     01/30/2018 22:04:46
00011 suncat0121 pw.x -in pw.inp   Done                     01/30/2018 22:04:46
00012 suncat0121 pw.x -in pw.inp   Done                     01/30/2018 22:04:46
00013 suncat0121 pw.x -in pw.inp   Done                     01/30/2018 22:04:46
00014 suncat0121 pw.x -in pw.inp   Done                     01/30/2018 22:04:46
00015 suncat0121 pw.x -in pw.inp   Done                     01/30/2018 22:04:46
00016 suncat0117 pw.x -in pw.inp   Done                     01/30/2018 22:04:46
00017 suncat0117 pw.x -in pw.inp   Done                     01/30/2018 22:04:46
00018 suncat0117 pw.x -in pw.inp   Done                     01/30/2018 22:04:46
00019 suncat0117 pw.x -in pw.inp   Done                     01/30/2018 22:04:46
00020 suncat0117 pw.x -in pw.inp   Done                     01/30/2018 22:04:46
00021 suncat0117 pw.x -in pw.inp   Done                     01/30/2018 22:04:46
00022 suncat0117 pw.x -in pw.inp   Done                     01/30/2018 22:04:46
00023 suncat0117 pw.x -in pw.inp   Done                     01/30/2018 22:04:46
00024 suncat0251 pw.x -in pw.inp   Done                     01/30/2018 22:04:46
00025 suncat0251 pw.x -in pw.inp   Done                     01/30/2018 22:04:46
00026 suncat0251 pw.x -in pw.inp   Done                     01/30/2018 22:04:46
00027 suncat0251 pw.x -in pw.inp   Done                     01/30/2018 22:04:46
00028 suncat0251 pw.x -in pw.inp   Done                     01/30/2018 22:04:46
00029 suncat0251 pw.x -in pw.inp   Done                     01/30/2018 22:04:46
00030 suncat0251 pw.x -in pw.inp   Done                     01/30/2018 22:04:46
00031 suncat0251 pw.x -in pw.inp   Done                     01/30/2018 22:04:46