     Program PWSCF v.5.1rc2 (svn rev. 11289) starts on  3May2018 at  1:10:47

     Current dimensions of program PWSCF are:
     Max number of different atomic species (ntypx) = 10
     Max number of k-points (npk) =  40000
     Max angular momentum in pseudopotentials (lmaxx) =  3
     Presently stress not available with electric field

     IMPORTANT: XC functional enforced from input :
     Exchange-correlation      = BEEF-VDW ( 1  4 27 13 2)
     Any further DFT definition will be discarded
     Please, verify this is what you really want

     Subspace diagonalization in iterative solution of the eigenvalue problem:
     a serial algorithm will be used

     bravais-lattice index     =            0
     lattice parameter (alat)  =       1.8897  a.u.
     unit-cell volume          =    7725.1200 (a.u.)^3
     number of atoms/cell      =           13
     number of atomic types    =            2
     number of electrons       =       138.00
     number of Kohn-Sham states=           79
     kinetic-energy cutoff     =      36.7493  Ry
     charge density cutoff     =     367.4932  Ry
     convergence threshold     =      1.0E-05
     mixing beta               =       0.3000
     number of iterations used =           10  plain     mixing
     Exchange-correlation      = BEEF-VDW ( 1  4 27 13 2)
     nstep                     =           50

     celldm(1)=   1.889726  celldm(2)=   0.000000  celldm(3)=   0.000000
     celldm(4)=   0.000000  celldm(5)=   0.000000  celldm(6)=   0.000000

     crystal axes: (cart. coord. in units of alat)
               a(1) = (   7.152277   0.000000   0.000000 )
               a(2) = (   3.576139   6.194054   0.000000 )
               a(3) = (   0.000000   0.000000  25.839810 )

     reciprocal axes: (cart. coord. in units 2 pi/alat)
               b(1) = (  0.139816 -0.080723  0.000000 )
               b(2) = (  0.000000  0.161445  0.000000 )
               b(3) = (  0.000000  0.000000  0.038700 )

     PseudoPot. # 1 for Y  read from file:
     /u/if/mamunm/psp/gbrv1.5pbe/Y.UPF
     MD5 check sum: d034151ed7554c50b6e82763ed42c788
     Pseudo is Ultrasoft + core correction, Zval = 11.0
     Generated by new atomic code, or converted to UPF format
     Using radial grid of  885 points,  6 beta functions with:
                l(1) =   0
                l(2) =   0
                l(3) =   1
                l(4) =   1
                l(5) =   2
                l(6) =   2
     Q(r) pseudized with  8 coefficients,  rinner =    1.200   1.200   1.200
                                                       1.200   1.200

     PseudoPot. # 2 for S  read from file:
     /u/if/mamunm/psp/gbrv1.5pbe/S.UPF
     MD5 check sum: 88d86576ff6df21479756cfb9bdac1df
     Pseudo is Ultrasoft + core correction, Zval =  6.0
     Generated by new atomic code, or converted to UPF format
     Using radial grid of  907 points,  6 beta functions with:
                l(1) =   0
                l(2) =   0
                l(3) =   1
                l(4) =   1
                l(5) =   2
                l(6) =   2
     Q(r) pseudized with  8 coefficients,  rinner =    1.300   1.300   1.300
                                                       1.300   1.300

     vdW kernel table read from file vdW_kernel_table
     MD5 check sum: 095c7af220d748ca6e76c0b4c6cfb241

     atomic species   valence    mass     pseudopotential
        Y1            11.00    88.90584     Y ( 1.00)
        S1             6.00    32.06000     S ( 1.00)

     No symmetry found

   Cartesian axes

     site n.     atom                  positions (alat units)
         1           Y1  tau(   1) = (   1.7880693   1.0323423  10.0000000  )
         2           Y1  tau(   2) = (   5.3642080   1.0323423  10.0000000  )
         3           Y1  tau(   3) = (   3.5761386   4.1293692  10.0000000  )
         4           Y1  tau(   4) = (   7.1522773   4.1293692  10.0000000  )
         5           Y1  tau(   5) = (   7.1522773   2.0646846  12.9199050  )
         6           Y1  tau(   6) = (   3.5761386   2.0646846  12.9199050  )
         7           Y1  tau(   7) = (   8.9403466   5.1617115  12.9199050  )
         8           Y1  tau(   8) = (   5.3642080   5.1617115  12.9199050  )
         9           Y1  tau(   9) = (   0.0000000   0.0000000  15.8398100  )
        10           Y1  tau(  10) = (   3.5761386   0.0000000  15.8398100  )
        11           Y1  tau(  11) = (   1.7880693   3.0970269  15.8398100  )
        12           Y1  tau(  12) = (   5.3642080   3.0970269  15.8398100  )
        13           S1  tau(  13) = (   1.7880693   1.0323423  17.7573100  )

     number of k points=    20  Fermi-Dirac smearing, width (Ry)=  0.0110
                       cart. coord. in units 2pi/alat
        k(    1) = (   0.0000000   0.0000000   0.0000000), wk =   0.0555556
        k(    2) = (   0.0000000   0.0269075   0.0000000), wk =   0.1111111
        k(    3) = (   0.0000000   0.0538151   0.0000000), wk =   0.1111111
        k(    4) = (   0.0000000  -0.0807226   0.0000000), wk =   0.0555556
        k(    5) = (   0.0233026  -0.0134538   0.0000000), wk =   0.1111111
        k(    6) = (   0.0233026   0.0134538   0.0000000), wk =   0.1111111
        k(    7) = (   0.0233026   0.0403613   0.0000000), wk =   0.1111111
        k(    8) = (   0.0233026  -0.0941763   0.0000000), wk =   0.1111111
        k(    9) = (   0.0233026  -0.0672688   0.0000000), wk =   0.1111111
        k(   10) = (   0.0233026  -0.0403613   0.0000000), wk =   0.1111111
        k(   11) = (   0.0466052  -0.0269075   0.0000000), wk =   0.1111111
        k(   12) = (   0.0466052   0.0000000   0.0000000), wk =   0.1111111
        k(   13) = (   0.0466052   0.0269075   0.0000000), wk =   0.1111111
        k(   14) = (   0.0466052  -0.1076301   0.0000000), wk =   0.1111111
        k(   15) = (   0.0466052  -0.0807226   0.0000000), wk =   0.1111111
        k(   16) = (   0.0466052  -0.0538151   0.0000000), wk =   0.1111111
        k(   17) = (  -0.0699078   0.0403613   0.0000000), wk =   0.0555556
        k(   18) = (  -0.0699078   0.0672688   0.0000000), wk =   0.1111111
        k(   19) = (  -0.0699078   0.0941763   0.0000000), wk =   0.1111111
        k(   20) = (  -0.0699078  -0.0403613   0.0000000), wk =   0.0555556

     Largest allocated arrays     est. size (Mb)     dimensions
     Largest temporary arrays     est. size (Mb)     dimensions

     Initial potential from superposition of free atoms
     Check: negative starting charge=   -0.000547

     starting charge  137.94633, renormalised to  138.00000

     negative rho (up, down):  5.476E-04 0.000E+00

     *
     * You are using vdW-DF for exchange-correlation in this calculation.
     * Please cite the following three references that made this development
     * possible:
     *
     *   M. Dion, H. Rydberg, E. Schroder, D. C. Langreth, and
     *   B. I. Lundqvist, Phys. Rev. Lett. 92, 246401 (2004).
     *
     *   T. Thonhauser, V. R. Cooper, S. Li, A. Puzder, P. Hyldgaard, and
     *   D. C. Langreth, Phys. Rev. B 76, 125112 (2007).
     *
     *   G. Roman-Perez and J. M. Soler, Phys. Rev. Lett. 103, 096102 (2009).
     *
     *
     * If you are using vdW-DF2, please also cite:
     *
     *   K. Lee, E. D. Murray, L. Kong, B. I. Lundqvist, and
     *   D. C. Langreth, Phys. Rev. B 82, 081101(R) (2010).
     *
     *
     * If you are calculating the stress with vdW-DF, please also cite:
     *
     *   R. Sabatini, E. Kucukbenli, B. Kolb, T. Thonhauser, and
     *   S. de Gironcoli, J. Phys.: Condens. Matter 24, 424209 (2012).
     *

     Carrying out vdW-DF run using the following parameters:

     Nqs =      20    Nr_points =    1024   r_max =   100.000
     q_mesh =
               0.00001000     0.04494208     0.09755937     0.15916263
               0.23128650     0.31572767     0.41458969     0.53033537
               0.66584808     0.82450364     1.01025438     1.22772762
               1.48234092     1.78043706     2.12944203     2.53805004
               3.01644009     3.57652955     4.23227104     5.00000000

     Gradients computed in reciprocal space

     Adding external electric field

     Computed dipole along edir(3) :
        Dipole               -0.0210 Ry au,         -0.0534 Debye
        Dipole field         -0.0000 Ry au

        Potential amp.        0.0033 Ry
        Total length         47.6094 bohr

     Starting wfc are  160 randomized atomic wfcs

     Self-consistent Calculation

     iteration #  1     ecut=    36.75 Ry     beta=0.30
     Davidson diagonalization with overlap
     ethr =  1.00E-02,  avg # of iterations =  2.0

[...]

     total energy              =   -1147.16940081 Ry
     Harris-Foulkes estimate   =   -1149.27105675 Ry
     estimated scf accuracy    <       4.54194127 Ry

[...]

     End of self-consistent calculation

          k = 0.0000 0.0000 0.0000 ( 28997 PWs)   bands (ev):

   -42.5733 -42.4891 -42.4468 -42.4467 -42.4453 -42.3456 -42.3145 -42.3145
   -41.9304 -41.8897 -41.8872 -41.8871 -22.6366 -22.5976 -22.5976 -22.5962
   -22.5822 -22.5822 -22.5232 -22.4767 -22.4519 -22.4519 -22.4484 -22.3641
   -22.3234 -22.3234 -22.2702 -22.2702 -22.2685 -22.2249 -22.2249 -22.1705
   -22.1705 -22.1637 -22.0612 -22.0612 -22.0498 -22.0364 -22.0364 -21.8366
   -21.8155 -21.8093 -21.8092 -21.7510 -21.7510 -21.7488 -21.6532 -21.6531
   -11.0402  -3.4190  -2.5723  -1.9129  -1.9128  -1.8214  -1.3092  -0.7304
    -0.7304  -0.6653  -0.6022  -0.5645  -0.5645  -0.1396  -0.1396  -0.1126
     0.1845   0.1845   0.2889   0.6668   0.6668   0.8790   1.0449   1.4520
     1.5592   1.5775   1.5775   1.5938   1.7088   1.7088   2.0454

[...]

          k =-0.0699 0.0404 0.0000 ( 29048 PWs)   bands (ev):

[...]

     the Fermi energy is     0.8575 ev

!    total energy              =   -1148.91564369 Ry
     Harris-Foulkes estimate   =   -1148.91569696 Ry
     estimated scf accuracy    <       0.00000928 Ry

     The total energy is the sum of the following terms:

     one-electron contribution =   -5539.97304175 Ry
     hartree contribution      =    2763.44900342 Ry
     xc contribution           =    -347.69494482 Ry
     ewald contribution        =    1975.42681135 Ry
     electric field correction =       0.00022630 Ry
     smearing contrib. (-TS)   =      -0.12369819 Ry

     convergence has been achieved in  15 iterations

 BEEF-vdW xc energy contributions
           1 :   -303.088392481764
           2 :    272.017065028567
           3 :   -218.542908501329
           4 :    155.821322129128
           5 :   -96.0966503361009
           6 :    47.0880439184199
           7 :   -11.4239469655545
           8 :   -11.6097250266662
           9 :    23.7996999557269
          10 :   -26.7127810105014
          11 :    21.7603823223295
          12 :   -10.9862379377139
          13 :   -2.42897373806920
          14 :    14.5827041856511
          15 :   -22.0634356508250
          16 :    23.2017303338198
          17 :   -18.5468459486427
          18 :    10.3010186178112
          19 :   -1.15029322666481
          20 :   -6.76177250486535
          21 :    12.2307585352945
          22 :   -14.8160876566350
          23 :    14.5057934997104
          24 :   -11.5806040954912
          25 :    6.71066033231318
          26 :   -1.04311201476207
          27 :   -3.97762571873403
          28 :    7.07968909193892
          29 :   -7.67604064757660
          30 :    6.08599351162349
          31 :   -29.1652238732265
          32 :   -19.9374348112042

     Forces acting on atoms (Ry/au):

     negative rho (up, down):  2.054E-05 0.000E+00
     atom    1 type  1   force =    -0.00000579   -0.00002486    0.00370454
     atom    2 type  1   force =     0.00000324   -0.00060101    0.00481835
     atom    3 type  1   force =    -0.00049107    0.00030836    0.00480789
     atom    4 type  1   force =     0.00049828    0.00029723    0.00481407
     atom    5 type  1   force =    -0.00289150    0.00165987    0.00069786
     atom    6 type  1   force =     0.00289203    0.00164040    0.00070764
     atom    7 type  1   force =    -0.00000238    0.00002308   -0.01277723
     atom    8 type  1   force =     0.00000848   -0.00328890    0.00067217
     atom    9 type  1   force =     0.02286630    0.01321067    0.01837248
     atom   10 type  1   force =    -0.02287753    0.01322891    0.01836974
     atom   11 type  1   force =     0.00002080   -0.02642817    0.01836981
     atom   12 type  1   force =    -0.00001893   -0.00002092   -0.01031708
     atom   13 type  2   force =    -0.00000192   -0.00000465   -0.05224023

     Total force =     0.077085     Total SCF correction =     0.002381

     entering subroutine stress ...

     negative rho (up, down):  2.054E-05 0.000E+00
          total   stress  (Ry/bohr**3)                   (kbar)     P=   -3.52
  -0.00001259   0.00000000  -0.00000000         -1.85      0.00     -0.00
   0.00000000  -0.00001258  -0.00000000          0.00     -1.85     -0.00
  -0.00000000  -0.00000000  -0.00004659         -0.00     -0.00     -6.85

     BFGS Geometry Optimization

     number of scf cycles    =   1
     number of bfgs steps    =   0

     energy   new            =   -1148.9156436899 Ry

     new trust radius        =       0.0522402340 bohr
     new conv_thr            =       0.0000099958 Ry

ATOMIC_POSITIONS (crystal)
Y1       0.166666667   0.166666667   0.386999750    0   0   0
Y1       0.666666667   0.166666667   0.386999750    0   0   0
Y1       0.166666667   0.666666667   0.386999750    0   0   0
Y1       0.666666667   0.666666667   0.386999750    0   0   0
Y1       0.833333333   0.333333333   0.500000000    0   0   0
Y1       0.333333333   0.333333333   0.500000000    0   0   0
Y1       0.833333333   0.833333333   0.500000000    0   0   0
Y1       0.333333333   0.833333333   0.500000000    0   0   0
Y1       0.001127500   0.001128629   0.613376502
Y1       0.497742261   0.001130187   0.613376446
Y1       0.001130459   0.497742159   0.613376448
Y1       0.499999493   0.499998212   0.612788965
S1       0.166666723   0.166666269   0.686137617

     Writing output data file calc.save
     Check: negative starting charge=   -0.000547
     NEW-OLD atomic charge density approx. for the potential
     Check: negative starting charge=   -0.000549

[...]

     energy   old            =   -1148.9156436899 Ry
     energy   new            =   -1148.9209571775 Ry

     CASE: energy  _new < energy  _old

[...]

     Threshold (ethr) on eigenvalues was too large:
     Diagonalizing with lowered threshold

     Davidson diagonalization with overlap
     ethr =  2.61E-08,  avg # of iterations = 10.4

[...]

     WARNING: bfgs curvature condition failed, Theta= 0.877
     new trust radius        =       0.0158207118 bohr
     new conv_thr            =       0.0000001000 Ry

[...]

     Threshold (ethr) on eigenvalues was too large:
     Diagonalizing with lowered threshold

     Davidson diagonalization with overlap
     ethr =  4.91E-08,  avg # of iterations = 10.2

[...]

     number of scf cycles    =  10
     number of bfgs steps    =   9

     energy   old            =   -1148.9299584686 Ry
     energy   new            =   -1148.9302851709 Ry

     CASE: energy  _new < energy  _old

     new trust radius        =       0.0620300302 bohr
     new conv_thr            =       0.0000001000 Ry

ATOMIC_POSITIONS (crystal)
Y1       0.166666667   0.166666667   0.386999750    0   0   0
Y1       0.666666667   0.166666667   0.386999750    0   0   0
Y1       0.166666667   0.666666667   0.386999750    0   0   0
Y1       0.666666667   0.666666667   0.386999750    0   0   0
Y1       0.833333333   0.333333333   0.500000000    0   0   0
Y1       0.333333333   0.333333333   0.500000000    0   0   0
Y1       0.833333333   0.833333333   0.500000000    0   0   0
Y1       0.333333333   0.833333333   0.500000000    0   0   0
Y1       0.002496663   0.002496618   0.614369151
Y1       0.495005145   0.002496676   0.614369029
Y1       0.002497103   0.495006741   0.614369112
Y1       0.499999550   0.499999050   0.607242068
S1       0.166667093   0.166665967   0.680802406

     Writing output data file calc.save
     Check: negative starting charge=   -0.000559
     NEW-OLD atomic charge density approx. for the potential
     Check: negative starting charge=   -0.000558

[...]

     Self-consistent Calculation

[...]

     total energy              =   -1148.92726093 Ry
     Harris-Foulkes estimate   =   -1148.92726083 Ry
     estimated scf accuracy    <       0.00000013 Ry

     iteration # 10     ecut=    36.75 Ry     beta=0.30
     Davidson diagonalization with overlap
     ethr =  9.73E-11,  avg # of iterations =  7.2

[...]

     negative rho (up, down):  2.105E-05 0.000E+00

     Adding external electric field

     Computed dipole along edir(3) :
        Dipole               -0.2863 Ry au,         -0.7277 Debye
        Dipole field         -0.0005 Ry au

        Potential amp.        0.0443 Ry
        Total length         47.6094 bohr

     End of self-consistent calculation

[...]

          k = 0.0466-0.0538 0.0000 ( 29098 PWs)   bands (ev):

[...]

          k =-0.0699-0.0404 0.0000 ( 29048 PWs)   bands (ev):

   -42.3861 -42.3768 -42.3603 -42.3553 -42.3349 -42.2203 -42.2065 -42.1968
   -41.8588 -41.7958 -41.7837 -41.7746 -22.4308 -22.4277 -22.4250 -22.4012
   -22.3913 -22.3616 -22.3556 -22.3455 -22.3120 -22.3034 -22.2987 -22.2700
   -22.2636 -22.2630 -22.2309 -22.2280 -22.2090 -22.1860 -22.1353 -22.1305
   -22.1301 -22.1185 -22.0369 -21.9806 -21.8991 -21.8616 -21.8018 -21.7707
   -21.7490 -21.7264 -21.7200 -21.7065 -21.6996 -21.6955 -21.6214 -21.5885
   -11.4066  -2.6032  -2.3379  -2.2721  -1.9905  -1.9252  -1.1472  -0.9891
    -0.4330  -0.4124  -0.2104  -0.1237   0.0250   0.0308   0.6531   0.6869
     0.7192   0.7481   0.7934   0.8218   0.9631   1.0084   1.0566   1.0879
     1.1067   1.1838   1.2642   1.3286   1.3999   1.4695   1.4946

     the Fermi energy is     0.9460 ev

!    total energy              =   -1148.92726099 Ry
     Harris-Foulkes estimate   =   -1148.92726113 Ry
     estimated scf accuracy    <       0.00000004 Ry

     The total energy is the sum of the following terms:

     one-electron contribution =   -5573.65289776 Ry
     hartree contribution      =    2780.70656185 Ry
     xc contribution           =    -347.80660162 Ry
     ewald contribution        =    1991.94957618 Ry
     electric field correction =       0.00013332 Ry
     smearing contrib. (-TS)   =      -0.12403297 Ry

     convergence has been achieved in  10 iterations

 BEEF-vdW xc energy contributions
           1 :   -303.110373487067
           2 :    272.076933947103
           3 :   -218.637975770242
           4 :    155.910759879864
           5 :   -96.1350495114514
           6 :    47.0545409064618
           7 :   -11.3275333120175
           8 :   -11.7433345625795
           9 :    23.9439702047338
          10 :   -26.8516709437806
          11 :    21.8938260117773
          12 :   -11.1264605051974
          13 :   -2.27110314837057
          14 :    14.4117612294944
          15 :   -21.8999094137625
          16 :    23.0669258328419
          17 :   -18.4464677389335
          18 :    10.2219579142728
          19 :   -1.07082364562882
          20 :   -6.85869128269348
          21 :    12.3496848622430
          22 :   -14.9491742308214
          23 :    14.6390961768774
          24 :   -11.7032344856622
          25 :    6.82104759844856
          26 :   -1.14713100002479
          27 :   -3.87465865965714
          28 :    6.97840001205236
          29 :   -7.57977804483289
          30 :    5.99278390385234
          31 :   -29.1683282275604
          32 :   -19.9486205148523

     Forces acting on atoms (Ry/au):

     negative rho (up, down):  2.105E-05 0.000E+00
     atom    1 type  1   force =     0.00000051    0.00000048    0.00425810
     atom    2 type  1   force =    -0.00000050   -0.00152732    0.00474333
     atom    3 type  1   force =    -0.00132274    0.00076322    0.00474330
     atom    4 type  1   force =     0.00132259    0.00076425    0.00474351
     atom    5 type  1   force =    -0.00115005    0.00066417   -0.00180473
     atom    6 type  1   force =     0.00115026    0.00066370   -0.00180552
     atom    7 type  1   force =     0.00000025    0.00000000   -0.00874502
     atom    8 type  1   force =    -0.00000026   -0.00132849   -0.00180520
     atom    9 type  1   force =     0.00134438    0.00077663   -0.00148290
     atom   10 type  1   force =    -0.00134332    0.00077578   -0.00148339
     atom   11 type  1   force =    -0.00000141   -0.00155377   -0.00148272
     atom   12 type  1   force =     0.00000090    0.00000028   -0.00101214
     atom   13 type  2   force =    -0.00000060    0.00000105    0.00113338

     Total force =     0.004017     Total SCF correction =     0.000218

     entering subroutine stress ...

     negative rho (up, down):  2.105E-05 0.000E+00
          total   stress  (Ry/bohr**3)                   (kbar)     P=   -0.54
   0.00000337   0.00000000  -0.00000000          0.50      0.00     -0.00
   0.00000000   0.00000337   0.00000000          0.00      0.50      0.00
  -0.00000000   0.00000000  -0.00001781         -0.00      0.00     -2.62

     bfgs converged in  11 scf cycles and  10 bfgs steps
     (criteria: energy <  1.0E+00, force <  1.9E-03)

     End of BFGS Geometry Optimization

     Final energy   =   -1148.9272609901 Ry
Begin final coordinates

ATOMIC_POSITIONS (crystal)
Y1       0.166666667   0.166666667   0.386999750    0   0   0
Y1       0.666666667   0.166666667   0.386999750    0   0   0
Y1       0.166666667   0.666666667   0.386999750    0   0   0
Y1       0.666666667   0.666666667   0.386999750    0   0   0
Y1       0.833333333   0.333333333   0.500000000    0   0   0
Y1       0.333333333   0.333333333   0.500000000    0   0   0
Y1       0.833333333   0.833333333   0.500000000    0   0   0
Y1       0.333333333   0.833333333   0.500000000    0   0   0
Y1       0.002496663   0.002496618   0.614369151
Y1       0.495005145   0.002496676   0.614369029
Y1       0.002497103   0.495006741   0.614369112
Y1       0.499999550   0.499999050   0.607242068
S1       0.166667093   0.166665967   0.680802406
End final coordinates

     Writing output data file calc.save

     General routines

     Parallel routines

   This run was terminated on:   3: 3: 4   3May2018

   JOB DONE.
Job  /afs/slac/g/suncat/bin/suncat-tsmpirun -x LD_LIBRARY_PATH -wdir /scratch/qe579791_U4rPl pw.x -npool 4 -in pw.inp

TID   HOST_NAME   COMMAND_LINE            STATUS            TERMINATION_TIME
00000 suncat0035 pw.x -npool 4 -i  Done                     05/03/2018 03:03:04
00001 suncat0035 pw.x -npool 4 -i  Done                     05/03/2018 03:03:04
00002 suncat0035 pw.x -npool 4 -i  Done                     05/03/2018 03:03:04
00003 suncat0035 pw.x -npool 4 -i  Done                     05/03/2018 03:03:04
00004 suncat0035 pw.x -npool 4 -i  Done                     05/03/2018 03:03:04
00005 suncat0035 pw.x -npool 4 -i  Done                     05/03/2018 03:03:04
00006 suncat0035 pw.x -npool 4 -i  Done                     05/03/2018 03:03:04
00007 suncat0035 pw.x -npool 4 -i  Done                     05/03/2018 03:03:04
00008 suncat0021 pw.x -npool 4 -i  Done                     05/03/2018 03:03:04
00009 suncat0021 pw.x -npool 4 -i  Done                     05/03/2018 03:03:04
00010 suncat0021 pw.x -npool 4 -i  Done                     05/03/2018 03:03:04
00011 suncat0021 pw.x -npool 4 -i  Done                     05/03/2018 03:03:04
00012 suncat0021 pw.x -npool 4 -i  Done                     05/03/2018 03:03:04
00013 suncat0021 pw.x -npool 4 -i  Done                     05/03/2018 03:03:04
00014 suncat0021 pw.x -npool 4 -i  Done                     05/03/2018 03:03:04
00015 suncat0021 pw.x -npool 4 -i  Done                     05/03/2018 03:03:04
00016 suncat0014 pw.x -npool 4 -i  Done                     05/03/2018 03:03:04
00017 suncat0014 pw.x -npool 4 -i  Done                     05/03/2018 03:03:04
00018 suncat0014 pw.x -npool 4 -i  Done                     05/03/2018 03:03:04
00019 suncat0014 pw.x -npool 4 -i  Done                     05/03/2018 03:03:04
00020 suncat0014 pw.x -npool 4 -i  Done                     05/03/2018 03:03:04
00021 suncat0014 pw.x -npool 4 -i  Done                     05/03/2018 03:03:04
00022 suncat0014 pw.x -npool 4 -i  Done                     05/03/2018 03:03:04
00023 suncat0014 pw.x -npool 4 -i  Done                     05/03/2018 03:03:04
00024 suncat0196 pw.x -npool 4 -i  Done                     05/03/2018 03:03:04
00025 suncat0196 pw.x -npool 4 -i  Done                     05/03/2018 03:03:04
00026 suncat0196 pw.x -npool 4 -i  Done                     05/03/2018 03:03:04
00027 suncat0196 pw.x -npool 4 -i  Done                     05/03/2018 03:03:04
00028 suncat0196 pw.x -npool 4 -i  Done                     05/03/2018 03:03:04
00029 suncat0196 pw.x -npool 4 -i  Done                     05/03/2018 03:03:04
00030 suncat0196 pw.x -npool 4 -i  Done                     05/03/2018 03:03:04
00031 suncat0196 pw.x -npool 4 -i  Done                     05/03/2018 03:03:04