     Program PWSCF v.5.1rc2 (svn rev. 11289) starts on 24Apr2018 at 17:42:20

     Current dimensions of program PWSCF are:
     Max number of different atomic species (ntypx) = 10
     Max number of k-points (npk) =  40000
     Max angular momentum in pseudopotentials (lmaxx) =  3
     Presently stress not available with electric field

     IMPORTANT: XC functional enforced from input :
     Exchange-correlation      = BEEF-VDW ( 1  4 27 13 2)
     Any further DFT definition will be discarded
     Please, verify this is what you really want

     Subspace diagonalization in iterative solution of the eigenvalue problem:
     a serial algorithm will be used

     bravais-lattice index     =            0
     lattice parameter (alat)  =       1.8897  a.u.
     unit-cell volume          =    4704.3541 (a.u.)^3
     number of atoms/cell      =           14
     number of atomic types    =            3
     number of electrons       =       175.00
     number of Kohn-Sham states=           97
     kinetic-energy cutoff     =      36.7493  Ry
     charge density cutoff     =     367.4932  Ry
     convergence threshold     =      1.0E-05
     mixing beta               =       0.3000
     number of iterations used =           10  plain     mixing
     Exchange-correlation      = BEEF-VDW ( 1  4 27 13 2)
     nstep                     =           50

     celldm(1)=   1.889726  celldm(2)=   0.000000  celldm(3)=   0.000000
     celldm(4)=   0.000000  celldm(5)=   0.000000  celldm(6)=   0.000000

     crystal axes: (cart. coord. in units of alat)
               a(1) = (   5.712816   0.000000   0.000000 )
               a(2) = (   2.856408   4.947444   0.000000 )
               a(3) = (   0.000000   0.000000  24.664495 )

     reciprocal axes: (cart. coord. in units 2 pi/alat)
               b(1) = (  0.175045 -0.101062  0.000000 )
               b(2) = (  0.000000  0.202125  0.000000 )
               b(3) = (  0.000000  0.000000  0.040544 )

     PseudoPot. # 1 for W  read from file:
     /u/if/mamunm/psp/gbrv1.5pbe/W.UPF
     MD5 check sum: 9c083fa34c2a2ea0f02f1f893e16e1c8
     Pseudo is Ultrasoft + core correction, Zval = 14.0
     Generated by new atomic code, or converted to UPF format
     Using radial grid of  923 points,  8 beta functions with:
                l(1) =   0
                l(2) =   0
                l(3) =   0
                l(4) =   1
                l(5) =   1
                l(6) =   2
                l(7) =   2
                l(8) =   3
     Q(r) pseudized with  6 coefficients,  rinner =    1.350   1.350   1.350
                                                       1.350   1.350   1.350
                                                       1.350

     PseudoPot. # 2 for S  read from file:
     /u/if/mamunm/psp/gbrv1.5pbe/S.UPF
     MD5 check sum: 88d86576ff6df21479756cfb9bdac1df
     Pseudo is Ultrasoft + core correction, Zval =  6.0
     Generated by new atomic code, or converted to UPF format
     Using radial grid of  907 points,  6 beta functions with:
                l(1) =   0
                l(2) =   0
                l(3) =   1
                l(4) =   1
                l(5) =   2
                l(6) =   2
     Q(r) pseudized with  8 coefficients,  rinner =    1.300   1.300   1.300
                                                       1.300   1.300

     PseudoPot. # 3 for H  read from file:
     /u/if/mamunm/psp/gbrv1.5pbe/H.UPF
     MD5 check sum: 761ae9a214b05c3daf00ab9f6b793d6f
     Pseudo is Ultrasoft, Zval =  1.0
     Generated by new atomic code, or converted to UPF format
     Using radial grid of  615 points,  2 beta functions with:
                l(1) =   0
                l(2) =   0
     Q(r) pseudized with  8 coefficients,  rinner =    0.700

     vdW kernel table read from file vdW_kernel_table
     MD5 check sum: 095c7af220d748ca6e76c0b4c6cfb241

     atomic species   valence    mass     pseudopotential
        W1            14.00   183.84000     W ( 1.00)
        S1             6.00    32.06000     S ( 1.00)
        H1             1.00     1.00800     H ( 1.00)

     No symmetry found

   Cartesian axes

     site n.     atom                  positions (alat units)
         1           W1  tau(   1) = (   1.4282041   0.8245740  10.0000000  )
         2           W1  tau(   2) = (   4.2846123   0.8245740  10.0000000  )
         3           W1  tau(   3) = (   2.8564082   3.2982961  10.0000000  )
         4           W1  tau(   4) = (   5.7128165   3.2982961  10.0000000  )
         5           W1  tau(   5) = (   5.7128165   1.6491481  12.3322476  )
         6           W1  tau(   6) = (   2.8564082   1.6491481  12.3322476  )
         7           W1  tau(   7) = (   7.1410206   4.1228701  12.3322476  )
         8           W1  tau(   8) = (   4.2846123   4.1228701  12.3322476  )
         9           W1  tau(   9) = (   0.0000000   0.0000000  14.6644951  )
        10           W1  tau(  10) = (   2.8564082   0.0000000  14.6644951  )
        11           W1  tau(  11) = (   1.4282041   2.4737221  14.6644951  )
        12           W1  tau(  12) = (   4.2846123   2.4737221  14.6644951  )
        13           S1  tau(  13) = (   2.8564082   1.6491481  16.3999951  )
        14           H1  tau(  14) = (   2.8564082   1.6491481  17.6499951  )

     number of k points=    20  Fermi-Dirac smearing, width (Ry)=  0.0110
                       cart. coord. in units 2pi/alat
        k(    1) = (   0.0000000   0.0000000   0.0000000), wk =   0.0555556
        k(    2) = (   0.0000000   0.0336874   0.0000000), wk =   0.1111111
        k(    3) = (   0.0000000   0.0673749   0.0000000), wk =   0.1111111
        k(    4) = (   0.0000000  -0.1010623   0.0000000), wk =   0.0555556
        k(    5) = (   0.0291742  -0.0168437   0.0000000), wk =   0.1111111
        k(    6) = (   0.0291742   0.0168437   0.0000000), wk =   0.1111111
        k(    7) = (   0.0291742   0.0505311   0.0000000), wk =   0.1111111
        k(    8) = (   0.0291742  -0.1179060   0.0000000), wk =   0.1111111
        k(    9) = (   0.0291742  -0.0842186   0.0000000), wk =   0.1111111
        k(   10) = (   0.0291742  -0.0505311   0.0000000), wk =   0.1111111
        k(   11) = (   0.0583483  -0.0336874   0.0000000), wk =   0.1111111
        k(   12) = (   0.0583483  -0.0000000   0.0000000), wk =   0.1111111
        k(   13) = (   0.0583483   0.0336874   0.0000000), wk =   0.1111111
        k(   14) = (   0.0583483  -0.1347497   0.0000000), wk =   0.1111111
        k(   15) = (   0.0583483  -0.1010623   0.0000000), wk =   0.1111111
        k(   16) = (   0.0583483  -0.0673749   0.0000000), wk =   0.1111111
        k(   17) = (  -0.0875225   0.0505311   0.0000000), wk =   0.0555556
        k(   18) = (  -0.0875225   0.0842186   0.0000000), wk =   0.1111111
        k(   19) = (  -0.0875225   0.1179060   0.0000000), wk =   0.1111111
        k(   20) = (  -0.0875225  -0.0505311   0.0000000), wk =   0.0555556

     Largest allocated arrays     est. size (Mb)     dimensions
     Largest temporary arrays     est. size (Mb)     dimensions

     Initial potential from superposition of free atoms
     Check: negative starting charge=   -0.760177

     starting charge  173.79588, renormalised to  175.00000

     negative rho (up, down):  7.654E-01 0.000E+00

     *
     * You are using vdW-DF for exchange-correlation in this calculation.
     * Please cite the following three references that made this development
     * possible:
     *
     *   M. Dion, H. Rydberg, E. Schroder, D. C. Langreth, and
     *   B. I. Lundqvist, Phys. Rev. Lett. 92, 246401 (2004).
     *
     *   T. Thonhauser, V. R. Cooper, S. Li, A. Puzder, P. Hyldgaard, and
     *   D. C. Langreth, Phys. Rev. B 76, 125112 (2007).
     *
     *   G. Roman-Perez and J. M. Soler, Phys. Rev. Lett. 103, 096102 (2009).
     *
     *
     * If you are using vdW-DF2, please also cite:
     *
     *   K. Lee, E. D. Murray, L. Kong, B. I. Lundqvist, and
     *   D. C. Langreth, Phys. Rev. B 82, 081101(R) (2010).
     *
     *
     * If you are calculating the stress with vdW-DF, please also cite:
     *
     *   R. Sabatini, E. Kucukbenli, B. Kolb, T. Thonhauser, and
     *   S. de Gironcoli, J. Phys.: Condens. Matter 24, 424209 (2012).
     *

     Carrying out vdW-DF run using the following parameters:

     Nqs =      20    Nr_points =    1024   r_max =   100.000
     q_mesh =
               0.00001000     0.04494208     0.09755937     0.15916263
               0.23128650     0.31572767     0.41458969     0.53033537
               0.66584808     0.82450364     1.01025438     1.22772762
               1.48234092     1.78043706     2.12944203     2.53805004
               3.01644009     3.57652955     4.23227104     5.00000000

     Gradients computed in reciprocal space

     Adding external electric field

     Computed dipole along edir(3) :
        Dipole               -0.3888 Ry au,         -0.9882 Debye
        Dipole field         -0.0010 Ry au

        Potential amp.        0.0944 Ry
        Total length         45.4439 bohr

     Starting wfc are  161 randomized atomic wfcs

     Self-consistent Calculation

     iteration #  1     ecut=    36.75 Ry     beta=0.30
     Davidson diagonalization with overlap
     ethr =  1.00E-02,  avg # of iterations =  2.0

[...]

     total energy              =   -1946.36769126 Ry
     Harris-Foulkes estimate   =   -1950.77539625 Ry
     estimated scf accuracy    <       9.29822556 Ry

[...]

     End of self-consistent calculation

          k = 0.0000 0.0000 0.0000 ( 17753 PWs)   bands (ev):

   -71.0204 -70.9771 -70.9518 -70.9381 -70.9374 -70.9280 -70.9015 -70.9012
   -70.9002 -70.8843 -70.8842 -70.8664 -35.6201 -35.5559 -35.5558 -35.5512
   -35.4908 -35.4906 -35.4904 -35.4077 -35.3914 -35.3911 -35.1946 -35.0954
   -35.0929 -35.0923 -35.0274 -35.0198 -35.0195 -34.9020 -34.9019 -34.8847
   -34.8207 -34.8206 -34.8037 -34.7891 -34.7889 -34.7671 -34.7412 -34.7025
   -34.7023 -34.6946 -34.6585 -34.6584 -34.5933 -34.5932 -34.5302 -34.5302
   -12.2132  -5.8712  -4.6928  -2.9154  -2.3635  -2.3635  -2.2567  -1.7699
    -1.7263  -1.7263  -1.3961  -1.2226  -1.2225  -0.8717  -0.7745  -0.7745
    -0.6058  -0.4168  -0.4167   0.7933   0.7935   0.9382   1.6058   1.9318
     1.9318   2.0621   2.1904   2.6283   2.6283   2.6669   2.8523   2.8523
     2.9947   2.9948   3.0456   3.0583   3.1248   3.1248   3.2323   3.2324
     3.7159   3.9251   3.9253   4.5073   4.8342   4.8344   4.8400   4.9309
     4.9310

[...]

          k =-0.0875 0.0505 0.0000 ( 17668 PWs)   bands (ev):

[...]

     the Fermi energy is     3.2079 ev

!    total energy              =   -1950.44643210 Ry
     Harris-Foulkes estimate   =   -1950.44641049 Ry
     estimated scf accuracy    <       0.00000573 Ry

     The total energy is the sum of the following terms:

     one-electron contribution =  -15074.06844918 Ry
     hartree contribution      =    7526.69248970 Ry
     xc contribution           =    -520.14067242 Ry
     ewald contribution        =    6117.16647497 Ry
     electric field correction =       0.00048922 Ry
     smearing contrib. (-TS)   =      -0.09676437 Ry

     convergence has been achieved in  18 iterations

 BEEF-vdW xc energy contributions
           1 :   -457.394086352589
           2 :    422.943338299610
           3 :   -362.290112158356
           4 :    288.733109601278
           5 :   -216.115898450695
           6 :    154.852531355244
           7 :   -109.691509500019
           8 :    79.7610533270289
           9 :   -60.5260733825652
          10 :    46.5718492813304
          11 :   -33.9553551601778
          12 :    21.2654445782342
          13 :   -9.26563899836844
          14 :  -0.358309588532279
          15 :    6.35012451824417
          16 :   -8.67809269468535
          17 :    8.51302980338323
          18 :   -7.56358810841976
          19 :    7.21903426739442
          20 :   -7.96803792881553
          21 :    9.35670274525597
          22 :   -10.4392800011013
          23 :    10.4236797594474
          24 :   -9.14749580689158
          25 :    7.15015254469142
          26 :   -5.34446914105706
          27 :    4.50161461863684
          28 :   -4.84294591588093
          29 :    5.95187947064574
          30 :   -7.03221066182255
          31 :   -41.6372401565893
          32 :   -31.1657044901956

     Forces acting on atoms (Ry/au):

     negative rho (up, down):  7.929E-01 0.000E+00
     atom    1 type  1   force =    -0.00210161   -0.00122252   -0.00354912
     atom    2 type  1   force =     0.00209958   -0.00122889   -0.00350410
     atom    3 type  1   force =    -0.00000082    0.00243163   -0.00354025
     atom    4 type  1   force =    -0.00000500    0.00001571   -0.00343203
     atom    5 type  1   force =     0.00002053   -0.00306658   -0.00704635
     atom    6 type  1   force =    -0.00001545   -0.00000220    0.00833488
     atom    7 type  1   force =     0.00266159    0.00151809   -0.00704617
     atom    8 type  1   force =    -0.00265526    0.00154395   -0.00705107
     atom    9 type  1   force =    -0.00001689    0.00000243   -0.03094172
     atom   10 type  1   force =     0.00000212   -0.06167988    0.01157186
     atom   11 type  1   force =    -0.05340434    0.03084550    0.01160096
     atom   12 type  1   force =     0.05342360    0.03083864    0.01156321
     atom   13 type  2   force =    -0.00001090    0.00000355   -0.11833339
     atom   14 type  3   force =     0.00000286    0.00000056    0.14137330

     Total force =     0.216245     Total SCF correction =     0.008304

     entering subroutine stress ...

     negative rho (up, down):  7.929E-01 0.000E+00
          total   stress  (Ry/bohr**3)                   (kbar)     P=  -36.14
  -0.00038939   0.00000003  -0.00000004        -57.28      0.01     -0.01
   0.00000003  -0.00038939   0.00000000          0.01    -57.28      0.00
  -0.00000004   0.00000000   0.00004178         -0.01      0.00      6.15

     BFGS Geometry Optimization

     number of scf cycles    =   1
     number of bfgs steps    =   0

     energy   new            =   -1950.4464320962 Ry

     new trust radius        =       0.1413732984 bohr
     new conv_thr            =       0.0000099958 Ry

ATOMIC_POSITIONS (crystal)
W1       0.166666667   0.166666667   0.405441099    0   0   0
W1       0.666666667   0.166666667   0.405441099    0   0   0
W1       0.166666667   0.666666667   0.405441099    0   0   0
W1       0.666666667   0.666666667   0.405441099    0   0   0
W1       0.833333333   0.333333333   0.500000000    0   0   0
W1       0.333333333   0.333333333   0.500000000    0   0   0
W1       0.833333333   0.833333333   0.500000000    0   0   0
W1       0.333333333   0.833333333   0.500000000    0   0   0
W1      -0.000001695   0.000000260   0.593895046
W1       0.503298827  -0.006597262   0.594807175
W1      -0.006596448   0.503299226   0.594807800
W1       0.503299373   0.503298492   0.594806990
S1       0.333332134   0.333333714   0.662384359
H1       0.333333568   0.333333394   0.718636508

     Writing output data file calc.save
     Check: negative starting charge=   -0.760177
     NEW-OLD atomic charge density approx. for the potential
     Check: negative starting charge=   -0.760826

[...]

     energy   old            =   -1950.4464320962 Ry
     energy   new            =   -1950.4696330468 Ry

     CASE: energy  _new < energy  _old

[...]

     Total force =     0.007477     Total SCF correction =     0.000895
     SCF correction compared to forces is large: reduce conv_thr to get better values

[...]

     Total force =     0.004549     Total SCF correction =     0.000153

[...]

     number of scf cycles    =  11
     number of bfgs steps    =  10

     energy   old            =   -1950.4852907721 Ry
     energy   new            =   -1950.4853440299 Ry

     CASE: energy  _new < energy  _old

     new trust radius        =       0.0078099727 bohr
     new conv_thr            =       0.0000001000 Ry

ATOMIC_POSITIONS (crystal)
W1       0.166666667   0.166666667   0.405441099    0   0   0
W1       0.666666667   0.166666667   0.405441099    0   0   0
W1       0.166666667   0.666666667   0.405441099    0   0   0
W1       0.666666667   0.666666667   0.405441099    0   0   0
W1       0.833333333   0.333333333   0.500000000    0   0   0
W1       0.333333333   0.333333333   0.500000000    0   0   0
W1       0.833333333   0.833333333   0.500000000    0   0   0
W1       0.333333333   0.833333333   0.500000000    0   0   0
W1      -0.000002036   0.000001160   0.586854643
W1       0.509256847  -0.018515593   0.597539948
W1      -0.018516749   0.509258834   0.597540020
W1       0.509257245   0.509258991   0.597539926
S1       0.333332501   0.333334031   0.665689861
H1       0.333333951   0.333333478   0.721532589

     Writing output data file calc.save
     Check: negative starting charge=   -0.758131
     NEW-OLD atomic charge density approx. for the potential
     Check: negative starting charge=   -0.758154

[...]

     Self-consistent Calculation

[...]

     Threshold (ethr) on eigenvalues was too large:
     Diagonalizing with lowered threshold

     Davidson diagonalization with overlap
     ethr =  4.94E-09,  avg # of iterations =  5.0

[...]

     total energy              =   -1950.48536427 Ry
     Harris-Foulkes estimate   =   -1950.48536370 Ry
     estimated scf accuracy    <       0.00000026 Ry

     iteration #  8     ecut=    36.75 Ry     beta=0.30
     Davidson diagonalization with overlap
     ethr =  1.46E-10,  avg # of iterations =  2.9

[...]

     negative rho (up, down):  7.913E-01 0.000E+00

     Adding external electric field

     Computed dipole along edir(3) :
        Dipole                0.3997 Ry au,          1.0160 Debye
        Dipole field          0.0011 Ry au

        Potential amp.       -0.0970 Ry
        Total length         45.4439 bohr

     End of self-consistent calculation

[...]

          k = 0.0583-0.0674 0.0000 ( 17692 PWs)   bands (ev):

[...]

          k =-0.0875-0.0505 0.0000 ( 17668 PWs)   bands (ev):

   -71.0564 -71.0425 -71.0018 -70.9894 -70.9556 -70.9473 -70.9292 -70.9168
   -70.9123 -70.8923 -70.8749 -70.8745 -35.5444 -35.4670 -35.4535 -35.4252
   -35.4157 -35.4041 -35.3172 -35.2799 -35.2709 -35.2540 -35.2251 -35.2135
   -35.2114 -35.0934 -35.0646 -35.0482 -35.0301 -35.0125 -34.9946 -34.9728
   -34.9524 -34.9397 -34.9276 -34.9058 -34.9051 -34.8876 -34.8361 -34.8115
   -34.8057 -34.7634 -34.7235 -34.7229 -34.6772 -34.6552 -34.6428 -34.6094
   -11.7978  -4.9888  -3.2538  -2.9310  -2.1977  -1.8251  -1.4099  -1.1248
    -0.8514  -0.7598  -0.6866  -0.5550  -0.5301  -0.3765   0.1758   0.2611
     0.3804   0.4837   0.5253   0.6035   0.9435   1.0057   1.1451   1.1603
     1.2215   1.3838   1.6710   1.7511   1.8437   1.8997   2.0740   2.1085
     2.1275   2.1565   2.2879   2.5022   2.7009   2.7348   2.7876   2.9517
     2.9804   3.3969   3.6511   3.7184   3.8962   4.2468   4.3701   4.4037
     4.5538

     the Fermi energy is     3.1972 ev

!    total energy              =   -1950.48536424 Ry
     Harris-Foulkes estimate   =   -1950.48536437 Ry
     estimated scf accuracy    <       0.00000007 Ry

     The total energy is the sum of the following terms:

     one-electron contribution =  -15042.31635302 Ry
     hartree contribution      =    7510.64726616 Ry
     xc contribution           =    -520.07632150 Ry
     ewald contribution        =    6101.35272085 Ry
     electric field correction =       0.00042684 Ry
     smearing contrib. (-TS)   =      -0.09310357 Ry

     convergence has been achieved in   8 iterations

 BEEF-vdW xc energy contributions
           1 :   -457.336769878157
           2 :    422.876404312034
           3 :   -362.206200286765
           4 :    288.626311972165
           5 :   -215.982305791890
           6 :    154.691240164903
           7 :   -109.504534587378
           8 :    79.5533874446084
           9 :   -60.3068333689463
          10 :    46.3559781927425
          11 :   -33.7630859055428
          12 :    21.1167735907405
          13 :   -9.17036709510324
          14 :  -0.409788817876631
          15 :    6.38735516286528
          16 :   -8.73848848620821
          17 :    8.62208825801810
          18 :   -7.71855386713338
          19 :    7.38654272209573
          20 :   -8.09972476915340
          21 :    9.41599538663371
          22 :   -10.4243041576401
          23 :    10.3718697670076
          24 :   -9.11742942120327
          25 :    7.18969870285082
          26 :   -5.46259857680974
          27 :    4.66032171967566
          28 :   -4.97578563391511
          29 :    6.00013625932655
          30 :   -6.97874931660073
          31 :   -41.6330763791853
          32 :   -31.1563293097826

     Forces acting on atoms (Ry/au):

     negative rho (up, down):  7.913E-01 0.000E+00
     atom    1 type  1   force =    -0.00275142   -0.00158869   -0.00448885
     atom    2 type  1   force =     0.00275160   -0.00158869   -0.00448892
     atom    3 type  1   force =     0.00000016    0.00317711   -0.00448881
     atom    4 type  1   force =    -0.00000003   -0.00000005    0.00377875
     atom    5 type  1   force =     0.00000036    0.00995970   -0.01489505
     atom    6 type  1   force =    -0.00000022   -0.00000002    0.04826560
     atom    7 type  1   force =    -0.00862526   -0.00498010   -0.01489506
     atom    8 type  1   force =     0.00862548   -0.00497983   -0.01489484
     atom    9 type  1   force =     0.00000019    0.00000019    0.00167638
     atom   10 type  1   force =    -0.00000022   -0.00018405    0.00105529
     atom   11 type  1   force =    -0.00016015    0.00009222    0.00105476
     atom   12 type  1   force =     0.00015918    0.00009227    0.00105556
     atom   13 type  2   force =     0.00000049   -0.00000011    0.00129121
     atom   14 type  3   force =    -0.00000015    0.00000006   -0.00002600

     Total force =     0.002814     Total SCF correction =     0.000425
     SCF correction compared to forces is large: reduce conv_thr to get better values

     entering subroutine stress ...

     negative rho (up, down):  7.913E-01 0.000E+00
          total   stress  (Ry/bohr**3)                   (kbar)     P=  -38.92
  -0.00036398  -0.00000000  -0.00000000        -53.54     -0.00     -0.00
  -0.00000000  -0.00036399   0.00000000         -0.00    -53.54      0.00
  -0.00000000   0.00000000  -0.00006585         -0.00      0.00     -9.69

     bfgs converged in  12 scf cycles and  11 bfgs steps
     (criteria: energy <  1.0E+00, force <  1.9E-03)

     End of BFGS Geometry Optimization

     Final energy   =   -1950.4853642384 Ry
Begin final coordinates

ATOMIC_POSITIONS (crystal)
W1       0.166666667   0.166666667   0.405441099    0   0   0
W1       0.666666667   0.166666667   0.405441099    0   0   0
W1       0.166666667   0.666666667   0.405441099    0   0   0
W1       0.666666667   0.666666667   0.405441099    0   0   0
W1       0.833333333   0.333333333   0.500000000    0   0   0
W1       0.333333333   0.333333333   0.500000000    0   0   0
W1       0.833333333   0.833333333   0.500000000    0   0   0
W1       0.333333333   0.833333333   0.500000000    0   0   0
W1      -0.000002036   0.000001160   0.586854643
W1       0.509256847  -0.018515593   0.597539948
W1      -0.018516749   0.509258834   0.597540020
W1       0.509257245   0.509258991   0.597539926
S1       0.333332501   0.333334031   0.665689861
H1       0.333333951   0.333333478   0.721532589
End final coordinates

     Writing output data file calc.save

     General routines

     Parallel routines

   This run was terminated on:  19:28:30  24Apr2018

   JOB DONE.
Job  /afs/slac/g/suncat/bin/suncat-tsmpirun -x LD_LIBRARY_PATH -wdir /scratch/qe66673_1T09I pw.x -npool 4 -in pw.inp

TID   HOST_NAME   COMMAND_LINE            STATUS            TERMINATION_TIME
00000 suncat0032 pw.x -npool 4 -i  Done                     04/24/2018 19:28:30
00001 suncat0032 pw.x -npool 4 -i  Done                     04/24/2018 19:28:30
00002 suncat0032 pw.x -npool 4 -i  Done                     04/24/2018 19:28:30
00003 suncat0032 pw.x -npool 4 -i  Done                     04/24/2018 19:28:30
00004 suncat0032 pw.x -npool 4 -i  Done                     04/24/2018 19:28:30
00005 suncat0032 pw.x -npool 4 -i  Done                     04/24/2018 19:28:30
00006 suncat0032 pw.x -npool 4 -i  Done                     04/24/2018 19:28:30
00007 suncat0032 pw.x -npool 4 -i  Done                     04/24/2018 19:28:30
00008 suncat0023 pw.x -npool 4 -i  Done                     04/24/2018 19:28:30
00009 suncat0023 pw.x -npool 4 -i  Done                     04/24/2018 19:28:30
00010 suncat0023 pw.x -npool 4 -i  Done                     04/24/2018 19:28:30
00011 suncat0023 pw.x -npool 4 -i  Done                     04/24/2018 19:28:30
00012 suncat0023 pw.x -npool 4 -i  Done                     04/24/2018 19:28:30
00013 suncat0023 pw.x -npool 4 -i  Done                     04/24/2018 19:28:30
00014 suncat0023 pw.x -npool 4 -i  Done                     04/24/2018 19:28:30
00015 suncat0023 pw.x -npool 4 -i  Done                     04/24/2018 19:28:30
00016 suncat0022 pw.x -npool 4 -i  Done                     04/24/2018 19:28:30
00017 suncat0022 pw.x -npool 4 -i  Done                     04/24/2018 19:28:30
00018 suncat0022 pw.x -npool 4 -i  Done                     04/24/2018 19:28:30
00019 suncat0022 pw.x -npool 4 -i  Done                     04/24/2018 19:28:30
00020 suncat0022 pw.x -npool 4 -i  Done                     04/24/2018 19:28:30
00021 suncat0022 pw.x -npool 4 -i  Done                     04/24/2018 19:28:30
00022 suncat0022 pw.x -npool 4 -i  Done                     04/24/2018 19:28:30
00023 suncat0022 pw.x -npool 4 -i  Done                     04/24/2018 19:28:30
00024 suncat0015 pw.x -npool 4 -i  Done                     04/24/2018 19:28:30
00025 suncat0015 pw.x -npool 4 -i  Done                     04/24/2018 19:28:30
00026 suncat0015 pw.x -npool 4 -i  Done                     04/24/2018 19:28:30
00027 suncat0015 pw.x -npool 4 -i  Done                     04/24/2018 19:28:30
00028 suncat0015 pw.x -npool 4 -i  Done                     04/24/2018 19:28:30
00029 suncat0015 pw.x -npool 4 -i  Done                     04/24/2018 19:28:30
00030 suncat0015 pw.x -npool 4 -i  Done                     04/24/2018 19:28:30
00031 suncat0015 pw.x -npool 4 -i  Done                     04/24/2018 19:28:30