     Program PWSCF v.5.1rc2 (svn rev. 11289) starts on  2May2018 at 20: 7: 7

     Current dimensions of program PWSCF are:
     Max number of different atomic species (ntypx) = 10
     Max number of k-points (npk) =  40000
     Max angular momentum in pseudopotentials (lmaxx) =  3
     Presently stress not available with electric field

     IMPORTANT: XC functional enforced from input :
     Exchange-correlation      = BEEF-VDW ( 1  4 27 13 2)
     Any further DFT definition will be discarded
     Please, verify this is what you really want

     Subspace diagonalization in iterative solution of the eigenvalue problem:
     a serial algorithm will be used

     bravais-lattice index     =            0
     lattice parameter (alat)  =       1.8897  a.u.
     unit-cell volume          =    6082.7792 (a.u.)^3
     number of atoms/cell      =           13
     number of atomic types    =            2
     number of electrons       =       150.00
     number of Kohn-Sham states=           85
     kinetic-energy cutoff     =      36.7493  Ry
     charge density cutoff     =     367.4932  Ry
     convergence threshold     =      1.0E-05
     mixing beta               =       0.3000
     number of iterations used =           10  plain     mixing
     Exchange-correlation      = BEEF-VDW ( 1  4 27 13 2)
     nstep                     =           50

     celldm(1)=   1.889726  celldm(2)=   0.000000  celldm(3)=   0.000000
     celldm(4)=   0.000000  celldm(5)=   0.000000  celldm(6)=   0.000000

     crystal axes: (cart. coord. in units of alat)
               a(1) = (   6.421223   0.000000   0.000000 )
               a(2) = (   3.210611   5.560942   0.000000 )
               a(3) = (   0.000000   0.000000  25.242906 )

     reciprocal axes: (cart. coord. in units 2 pi/alat)
               b(1) = (  0.155734 -0.089913  0.000000 )
               b(2) = (  0.000000  0.179826  0.000000 )
               b(3) = (  0.000000  0.000000  0.039615 )

     PseudoPot. # 1 for Zr read from file:
     /u/if/mamunm/psp/gbrv1.5pbe/Zr.UPF
     MD5 check sum: 5db81b1e868ab7776c4564c113de050b
     Pseudo is Ultrasoft + core correction, Zval = 12.0
     Generated by new atomic code, or converted to UPF format
     Using radial grid of  887 points,  6 beta functions with:
                l(1) =   0
                l(2) =   0
                l(3) =   1
                l(4) =   1
                l(5) =   2
                l(6) =   2
     Q(r) pseudized with  6 coefficients,  rinner =    1.200   1.200   1.200
                                                       1.200   1.200

     PseudoPot. # 2 for O  read from file:
     /u/if/mamunm/psp/gbrv1.5pbe/O.UPF
     MD5 check sum: 734c27235a0248c51dbae37a1fbe46ec
     Pseudo is Ultrasoft + core correction, Zval =  6.0
     Generated by new atomic code, or converted to UPF format
     Using radial grid of  737 points,  5 beta functions with:
                l(1) =   0
                l(2) =   0
                l(3) =   1
                l(4) =   1
                l(5) =   2
     Q(r) pseudized with  8 coefficients,  rinner =    0.900   0.900   0.900
                                                       0.900   0.900

     vdW kernel table read from file vdW_kernel_table
     MD5 check sum: 095c7af220d748ca6e76c0b4c6cfb241

     atomic species   valence    mass     pseudopotential
        Zr1           12.00    91.22400     Zr( 1.00)
        O1             6.00    15.99900     O ( 1.00)

     No symmetry found

   Cartesian axes

     site n.     atom                  positions (alat units)
         1           Zr1 tau(   1) = (   1.6053057   0.9268237  10.0000000  )
         2           Zr1 tau(   2) = (   4.8159170   0.9268237  10.0000000  )
         3           Zr1 tau(   3) = (   3.2106113   3.7072946  10.0000000  )
         4           Zr1 tau(   4) = (   6.4212227   3.7072946  10.0000000  )
         5           Zr1 tau(   5) = (   6.4212227   1.8536473  12.6214532  )
         6           Zr1 tau(   6) = (   3.2106113   1.8536473  12.6214532  )
         7           Zr1 tau(   7) = (   8.0265283   4.6341183  12.6214532  )
         8           Zr1 tau(   8) = (   4.8159170   4.6341183  12.6214532  )
         9           Zr1 tau(   9) = (   0.0000000   0.0000000  15.2429064  )
        10           Zr1 tau(  10) = (   3.2106113   0.0000000  15.2429064  )
        11           Zr1 tau(  11) = (   1.6053057   2.7804710  15.2429064  )
        12           Zr1 tau(  12) = (   4.8159170   2.7804710  15.2429064  )
        13           O1  tau(  13) = (   3.2106113   1.8536473  16.8094064  )

     number of k points=    20  Fermi-Dirac smearing, width (Ry)=  0.0110
                       cart. coord. in units 2pi/alat
        k(    1) = (   0.0000000   0.0000000   0.0000000), wk =   0.0555556
        k(    2) = (   0.0000000   0.0299709   0.0000000), wk =   0.1111111
        k(    3) = (   0.0000000   0.0599419   0.0000000), wk =   0.1111111
        k(    4) = (   0.0000000  -0.0899128   0.0000000), wk =   0.0555556
        k(    5) = (   0.0259556  -0.0149855   0.0000000), wk =   0.1111111
        k(    6) = (   0.0259556   0.0149855   0.0000000), wk =   0.1111111
        k(    7) = (   0.0259556   0.0449564   0.0000000), wk =   0.1111111
        k(    8) = (   0.0259556  -0.1048983   0.0000000), wk =   0.1111111
        k(    9) = (   0.0259556  -0.0749274   0.0000000), wk =   0.1111111
        k(   10) = (   0.0259556  -0.0449564   0.0000000), wk =   0.1111111
        k(   11) = (   0.0519112  -0.0299709   0.0000000), wk =   0.1111111
        k(   12) = (   0.0519112   0.0000000   0.0000000), wk =   0.1111111
        k(   13) = (   0.0519112   0.0299709   0.0000000), wk =   0.1111111
        k(   14) = (   0.0519112  -0.1198838   0.0000000), wk =   0.1111111
        k(   15) = (   0.0519112  -0.0899128   0.0000000), wk =   0.1111111
        k(   16) = (   0.0519112  -0.0599419   0.0000000), wk =   0.1111111
        k(   17) = (  -0.0778668   0.0449564   0.0000000), wk =   0.0555556
        k(   18) = (  -0.0778668   0.0749274   0.0000000), wk =   0.1111111
        k(   19) = (  -0.0778668   0.1048983   0.0000000), wk =   0.1111111
        k(   20) = (  -0.0778668  -0.0449564   0.0000000), wk =   0.0555556

     Largest allocated arrays     est. size (Mb)     dimensions
     Largest temporary arrays     est. size (Mb)     dimensions

     Initial potential from superposition of free atoms
     Check: negative starting charge=   -0.729315

     starting charge  149.97421, renormalised to  150.00000

     negative rho (up, down):  7.294E-01 0.000E+00

     *
     * You are using vdW-DF for exchange-correlation in this calculation.
     * Please cite the following three references that made this development
     * possible:
     *
     *   M. Dion, H. Rydberg, E. Schroder, D. C. Langreth, and
     *   B. I. Lundqvist, Phys. Rev. Lett. 92, 246401 (2004).
     *
     *   T. Thonhauser, V. R. Cooper, S. Li, A. Puzder, P. Hyldgaard, and
     *   D. C. Langreth, Phys. Rev. B 76, 125112 (2007).
     *
     *   G. Roman-Perez and J. M. Soler, Phys. Rev. Lett. 103, 096102 (2009).
     *
     *
     * If you are using vdW-DF2, please also cite:
     *
     *   K. Lee, E. D. Murray, L. Kong, B. I. Lundqvist, and
     *   D. C. Langreth, Phys. Rev. B 82, 081101(R) (2010).
     *
     *
     * If you are calculating the stress with vdW-DF, please also cite:
     *
     *   R. Sabatini, E. Kucukbenli, B. Kolb, T. Thonhauser, and
     *   S. de Gironcoli, J. Phys.: Condens. Matter 24, 424209 (2012).
     *

     Carrying out vdW-DF run using the following parameters:

     Nqs =      20    Nr_points =    1024   r_max =   100.000
     q_mesh =
               0.00001000     0.04494208     0.09755937     0.15916263
               0.23128650     0.31572767     0.41458969     0.53033537
               0.66584808     0.82450364     1.01025438     1.22772762
               1.48234092     1.78043706     2.12944203     2.53805004
               3.01644009     3.57652955     4.23227104     5.00000000

     Gradients computed in reciprocal space

     Adding external electric field

     Computed dipole along edir(3) :
        Dipole               -0.0082 Ry au,         -0.0207 Debye
        Dipole field         -0.0000 Ry au

        Potential amp.        0.0016 Ry
        Total length         46.5096 bohr

     Starting wfc are  160 randomized atomic wfcs

     Self-consistent Calculation

     iteration #  1     ecut=    36.75 Ry     beta=0.30
     Davidson diagonalization with overlap
     ethr =  1.00E-02,  avg # of iterations =  2.0

[...]

     total energy              =   -1226.72155696 Ry
     Harris-Foulkes estimate   =   -1230.24123245 Ry
     estimated scf accuracy    <       7.45962455 Ry

[...]

     End of self-consistent calculation

          k = 0.0000 0.0000 0.0000 ( 22923 PWs)   bands (ev):

   -48.0722 -47.9890 -47.9889 -47.9881 -47.9636 -47.8986 -47.8983 -47.8981
   -47.6614 -47.5836 -47.5831 -47.5667 -26.3488 -26.3428 -26.3427 -26.2552
   -26.2551 -26.2546 -26.2291 -26.1297 -26.1197 -26.1196 -26.0402 -25.9478
   -25.9348 -25.9346 -25.8206 -25.7855 -25.7854 -25.7699 -25.7681 -25.7679
   -25.7226 -25.7216 -25.7215 -25.6305 -25.6305 -25.5577 -25.5577 -25.5043
   -25.5040 -25.4980 -25.4772 -25.4079 -25.3937 -25.3934 -25.2468 -25.2468
   -15.6180  -3.6553  -2.6084  -1.9861  -1.9468  -1.9468  -1.6299  -1.2814
    -1.2814  -1.1915  -1.0066  -0.9870  -0.9870  -0.6006  -0.6006  -0.5148
    -0.4776  -0.4776  -0.1455   0.4322   0.4322   0.5894   1.2144   1.4906
     1.4906   1.6457   1.7710   1.8799   2.0613   2.0614   2.1890   2.2109
     2.2110   2.2621   2.4250   2.4251   2.4579

[...]

          k =-0.0779 0.0450 0.0000 ( 22880 PWs)   bands (ev):

[...]

     the Fermi energy is     1.2868 ev

!    total energy              =   -1229.58426433 Ry
     Harris-Foulkes estimate   =   -1229.58427077 Ry
     estimated scf accuracy    <       0.00000491 Ry

     The total energy is the sum of the following terms:

     one-electron contribution =   -8520.29347700 Ry
     hartree contribution      =    4253.16094489 Ry
     xc contribution           =    -227.99783700 Ry
     ewald contribution        =    3265.66290720 Ry
     electric field correction =       0.00009968 Ry
     smearing contrib. (-TS)   =      -0.11690208 Ry

     convergence has been achieved in  16 iterations

 BEEF-vdW xc energy contributions
           1 :   -195.250781393458
           2 :    176.479921481926
           3 :   -144.924207378594
           4 :    109.547503281238
           5 :   -78.3611760209879
           6 :    55.6460863967703
           7 :   -41.3506764008795
           8 :    32.4866462717575
           9 :   -25.4438405612885
          10 :    17.9283489669612
          11 :   -9.69911029596375
          12 :    2.03645522470214
          13 :    3.48598213495183
          14 :   -6.11663822916867
          15 :    6.33079020183700
          16 :   -5.43024139703681
          17 :    4.71233707792410
          18 :   -4.76947312017325
          19 :    5.32230885307578
          20 :   -5.61543402556305
          21 :    5.04774432513958
          22 :   -3.60473971227475
          23 :    1.84358274166874
          24 :  -0.500965841002710
          25 :   2.331501000716685E-002
          26 :  -0.328209969551153
          27 :   0.917800099528023
          28 :   -1.23467600461476
          29 :    1.01476692842186
          30 :  -0.415882526828767
          31 :   -22.5930757691311
          32 :   -16.7736428348097

     Forces acting on atoms (Ry/au):

     negative rho (up, down):  7.496E-01 0.000E+00
     atom    1 type  1   force =     0.00007570    0.00008754    0.01414486
     atom    2 type  1   force =    -0.00007425    0.00007221    0.01414165
     atom    3 type  1   force =    -0.00001180   -0.00011493    0.01413257
     atom    4 type  1   force =     0.00001287   -0.00003394    0.01473121
     atom    5 type  1   force =     0.00001945    0.00156505   -0.00385759
     atom    6 type  1   force =    -0.00002329    0.00003028   -0.00427062
     atom    7 type  1   force =    -0.00132770   -0.00080965   -0.00385090
     atom    8 type  1   force =     0.00132599   -0.00078793   -0.00386017
     atom    9 type  1   force =    -0.00001093    0.00002746   -0.03515887
     atom   10 type  1   force =     0.00001224    0.05256635    0.04779395
     atom   11 type  1   force =     0.04550547   -0.02629495    0.04774912
     atom   12 type  1   force =    -0.04550405   -0.02630787    0.04776998
     atom   13 type  2   force =     0.00000029    0.00000038   -0.14946519

     Total force =     0.196749     Total SCF correction =     0.005694

     entering subroutine stress ...

     negative rho (up, down):  7.496E-01 0.000E+00
          total   stress  (Ry/bohr**3)                   (kbar)     P=  -16.94
  -0.00009728   0.00000000   0.00000000        -14.31      0.00      0.00
   0.00000000  -0.00009729   0.00000000          0.00    -14.31      0.00
   0.00000000   0.00000000  -0.00015095          0.00      0.00    -22.20

     BFGS Geometry Optimization

     number of scf cycles    =   1
     number of bfgs steps    =   0

     energy   new            =   -1229.5842643318 Ry

     new trust radius        =       0.1494651878 bohr
     new conv_thr            =       0.0000099958 Ry

ATOMIC_POSITIONS (crystal)
Zr1      0.166666667   0.166666667   0.396150897    0   0   0
Zr1      0.666666667   0.166666667   0.396150897    0   0   0
Zr1      0.166666667   0.666666667   0.396150897    0   0   0
Zr1      0.666666667   0.666666667   0.396150897    0   0   0
Zr1      0.833333333   0.333333333   0.500000000    0   0   0
Zr1      0.333333333   0.333333333   0.500000000    0   0   0
Zr1      0.833333333   0.833333333   0.500000000    0   0   0
Zr1      0.333333333   0.833333333   0.500000000    0   0   0
Zr1     -0.000002207   0.000002613   0.603112053
Zr1      0.497499911   0.005002195   0.604851027
Zr1      0.005001245   0.497497782   0.604850087
Zr1      0.497501705   0.497496553   0.604850524
O1       0.333333339   0.333333370   0.662772842

     Writing output data file calc.save
     Check: negative starting charge=   -0.729315
     NEW-OLD atomic charge density approx. for the potential
     Check: negative starting charge=   -0.728661

[...]

     energy   old            =   -1229.5842643318 Ry
     energy   new            =   -1229.6205344561 Ry

     CASE: energy  _new < energy  _old

     WARNING: bfgs curvature condition failed, Theta= 0.928
     new trust radius        =       0.2241977818 bohr
     new conv_thr            =       0.0000001000 Ry

[...]

     iteration #  1     ecut=    36.75 Ry     beta=0.30
     Davidson diagonalization with overlap
     c_bands:  2 eigenvalues not converged
     ethr =  1.00E-06,  avg # of iterations = 13.1

[...]

     WARNING: bfgs curvature condition failed, Theta= 0.899
     new trust radius        =       0.0456832287 bohr
     new conv_thr            =       0.0000001000 Ry

[...]

     number of scf cycles    =  13
     number of bfgs steps    =  12

     energy   old            =   -1229.6878636920 Ry
     energy   new            =   -1229.6882512879 Ry

     CASE: energy  _new < energy  _old

     new trust radius        =       0.0577227859 bohr
     new conv_thr            =       0.0000001000 Ry

ATOMIC_POSITIONS (crystal)
Zr1      0.166666667   0.166666667   0.396150897    0   0   0
Zr1      0.666666667   0.166666667   0.396150897    0   0   0
Zr1      0.166666667   0.666666667   0.396150897    0   0   0
Zr1      0.666666667   0.666666667   0.396150897    0   0   0
Zr1      0.833333333   0.333333333   0.500000000    0   0   0
Zr1      0.333333333   0.333333333   0.500000000    0   0   0
Zr1      0.833333333   0.833333333   0.500000000    0   0   0
Zr1      0.333333333   0.833333333   0.500000000    0   0   0
Zr1      0.000000660  -0.000000632   0.594237057
Zr1      0.502441414  -0.004882666   0.607052969
Zr1     -0.004882610   0.502440645   0.607052236
Zr1      0.502442050   0.502440562   0.607052415
O1       0.333334090   0.333332216   0.643575222

     Writing output data file calc.save
     Check: negative starting charge=   -0.729871
     NEW-OLD atomic charge density approx. for the potential
     Check: negative starting charge=   -0.729000

[...]

     Self-consistent Calculation

[...]

     total energy              =   -1229.68858541 Ry
     Harris-Foulkes estimate   =   -1229.68858533 Ry
     estimated scf accuracy    <       0.00000037 Ry

     iteration # 11     ecut=    36.75 Ry     beta=0.30
     Davidson diagonalization with overlap
     ethr =  2.45E-10,  avg # of iterations =  3.8

[...]

     negative rho (up, down):  7.502E-01 0.000E+00

     Adding external electric field

     Computed dipole along edir(3) :
        Dipole                0.0557 Ry au,          0.1416 Debye
        Dipole field          0.0001 Ry au

        Potential amp.       -0.0107 Ry
        Total length         46.5096 bohr

     End of self-consistent calculation

[...]

          k = 0.0519-0.0599 0.0000 ( 22856 PWs)   bands (ev):

[...]

          k =-0.0779-0.0450 0.0000 ( 22880 PWs)   bands (ev):

   -47.8028 -47.7793 -47.7536 -47.6854 -47.6843 -47.6402 -47.6393 -47.4148
   -47.3980 -47.3149 -47.2918 -47.2813 -26.2494 -25.9118 -25.8931 -25.8870
   -25.8757 -25.8400 -25.8327 -25.8039 -25.7914 -25.7759 -25.7470 -25.7420
   -25.7276 -25.6904 -25.6805 -25.6548 -25.6472 -25.6076 -25.5863 -25.5183
   -25.4688 -25.4618 -25.3839 -25.3789 -25.3635 -25.3411 -25.3348 -25.2911
   -25.2757 -25.2307 -25.2247 -25.1437 -25.1390 -25.0775 -25.0709 -25.0170
   -17.2645  -4.0119  -3.7744  -3.4627  -1.9291  -1.8420  -0.9765  -0.7815
    -0.2946  -0.2677  -0.2077  -0.2024  -0.1431   0.0207   0.4548   0.5061
     0.5537   0.5770   0.6877   0.7994   0.9183   1.0353   1.0758   1.1828
     1.2068   1.2165   1.3418   1.3943   1.5378   1.5510   1.6124   1.6954
     1.7339   1.8543   2.0438   2.2465   2.2650

     the Fermi energy is     1.5538 ev

!    total energy              =   -1229.68858551 Ry
     Harris-Foulkes estimate   =   -1229.68858556 Ry
     estimated scf accuracy    <       0.00000003 Ry

     The total energy is the sum of the following terms:

     one-electron contribution =   -8635.97871522 Ry
     hartree contribution      =    4311.88974278 Ry
     xc contribution           =    -228.27578460 Ry
     ewald contribution        =    3322.78976347 Ry
     electric field correction =       0.00000641 Ry
     smearing contrib. (-TS)   =      -0.11359835 Ry

     convergence has been achieved in  11 iterations

 BEEF-vdW xc energy contributions
           1 :   -195.540447150433
           2 :    176.863955503964
           3 :   -145.384962690421
           4 :    109.965514883364
           5 :   -78.6050578724664
           6 :    55.6532472086266
           7 :   -41.1563180805078
           8 :    32.1961160117424
           9 :   -25.1746979457769
          10 :    17.7600328756114
          11 :   -9.65204936470917
          12 :    2.08029409839924
          13 :    3.40803027438409
          14 :   -6.06195159381059
          15 :    6.33843803680060
          16 :   -5.50963172953516
          17 :    4.84144399236152
          18 :   -4.90889351454084
          19 :    5.44060374013242
          20 :   -5.70695973623049
          21 :    5.12959895374155
          22 :   -3.69821988547326
          23 :    1.95611896889062
          24 :  -0.620196976482418
          25 :   0.124111889828924
          26 :  -0.386714374238522
          27 :   0.926938751181524
          28 :   -1.21319315921980
          29 :    1.00017507846798
          30 :  -0.442541605115082
          31 :   -22.6099789688442
          32 :   -16.8079014772030

     Forces acting on atoms (Ry/au):

     negative rho (up, down):  7.502E-01 0.000E+00
     atom    1 type  1   force =    -0.00041353   -0.00023878    0.01571381
     atom    2 type  1   force =     0.00041354   -0.00023879    0.01571378
     atom    3 type  1   force =    -0.00000001    0.00047751    0.01571394
     atom    4 type  1   force =     0.00000001    0.00000001    0.01178674
     atom    5 type  1   force =    -0.00000007    0.01446847   -0.01207633
     atom    6 type  1   force =    -0.00000006    0.00000017   -0.01922350
     atom    7 type  1   force =    -0.01253038   -0.00723414   -0.01207531
     atom    8 type  1   force =     0.01253053   -0.00723430   -0.01207515
     atom    9 type  1   force =    -0.00000030    0.00000012    0.00184494
     atom   10 type  1   force =     0.00000003   -0.00132345   -0.00158843
     atom   11 type  1   force =    -0.00114305    0.00066036   -0.00158645
     atom   12 type  1   force =     0.00114373    0.00066072   -0.00158693
     atom   13 type  2   force =    -0.00000043    0.00000212   -0.00056112

     Total force =     0.004064     Total SCF correction =     0.000272

     entering subroutine stress ...

     negative rho (up, down):  7.502E-01 0.000E+00
          total   stress  (Ry/bohr**3)                   (kbar)     P=   -7.37
  -0.00004897   0.00000000  -0.00000000         -7.20      0.00     -0.00
   0.00000000  -0.00004897   0.00000000          0.00     -7.20      0.00
  -0.00000000   0.00000000  -0.00005229         -0.00      0.00     -7.69

     bfgs converged in  14 scf cycles and  13 bfgs steps
     (criteria: energy <  1.0E+00, force <  1.9E-03)

     End of BFGS Geometry Optimization

     Final energy   =   -1229.6885855117 Ry
Begin final coordinates

ATOMIC_POSITIONS (crystal)
Zr1      0.166666667   0.166666667   0.396150897    0   0   0
Zr1      0.666666667   0.166666667   0.396150897    0   0   0
Zr1      0.166666667   0.666666667   0.396150897    0   0   0
Zr1      0.666666667   0.666666667   0.396150897    0   0   0
Zr1      0.833333333   0.333333333   0.500000000    0   0   0
Zr1      0.333333333   0.333333333   0.500000000    0   0   0
Zr1      0.833333333   0.833333333   0.500000000    0   0   0
Zr1      0.333333333   0.833333333   0.500000000    0   0   0
Zr1      0.000000660  -0.000000632   0.594237057
Zr1      0.502441414  -0.004882666   0.607052969
Zr1     -0.004882610   0.502440645   0.607052236
Zr1      0.502442050   0.502440562   0.607052415
O1       0.333334090   0.333332216   0.643575222
End final coordinates

     Writing output data file calc.save

     General routines

     Parallel routines

   This run was terminated on:  22:15:58   2May2018

   JOB DONE.
Job  /afs/slac/g/suncat/bin/suncat-tsmpirun -x LD_LIBRARY_PATH -wdir /scratch/qe10238_esw8r pw.x -npool 4 -in pw.inp

TID   HOST_NAME   COMMAND_LINE            STATUS            TERMINATION_TIME
00000 suncat0047 pw.x -npool 4 -i  Done                     05/02/2018 22:15:58
00001 suncat0047 pw.x -npool 4 -i  Done                     05/02/2018 22:15:58
00002 suncat0047 pw.x -npool 4 -i  Done                     05/02/2018 22:15:58
00003 suncat0047 pw.x -npool 4 -i  Done                     05/02/2018 22:15:58
00004 suncat0047 pw.x -npool 4 -i  Done                     05/02/2018 22:15:58
00005 suncat0047 pw.x -npool 4 -i  Done                     05/02/2018 22:15:58
00006 suncat0047 pw.x -npool 4 -i  Done                     05/02/2018 22:15:58
00007 suncat0047 pw.x -npool 4 -i  Done                     05/02/2018 22:15:58
00008 suncat0178 pw.x -npool 4 -i  Done                     05/02/2018 22:15:58
00009 suncat0178 pw.x -npool 4 -i  Done                     05/02/2018 22:15:58
00010 suncat0178 pw.x -npool 4 -i  Done                     05/02/2018 22:15:58
00011 suncat0178 pw.x -npool 4 -i  Done                     05/02/2018 22:15:58
00012 suncat0178 pw.x -npool 4 -i  Done                     05/02/2018 22:15:58
00013 suncat0178 pw.x -npool 4 -i  Done                     05/02/2018 22:15:58
00014 suncat0178 pw.x -npool 4 -i  Done                     05/02/2018 22:15:58
00015 suncat0178 pw.x -npool 4 -i  Done                     05/02/2018 22:15:58
00016 suncat0273 pw.x -npool 4 -i  Done                     05/02/2018 22:15:58
00017 suncat0273 pw.x -npool 4 -i  Done                     05/02/2018 22:15:58
00018 suncat0273 pw.x -npool 4 -i  Done                     05/02/2018 22:15:58
00019 suncat0273 pw.x -npool 4 -i  Done                     05/02/2018 22:15:58
00020 suncat0273 pw.x -npool 4 -i  Done                     05/02/2018 22:15:58
00021 suncat0273 pw.x -npool 4 -i  Done                     05/02/2018 22:15:58
00022 suncat0273 pw.x -npool 4 -i  Done                     05/02/2018 22:15:58
00023 suncat0273 pw.x -npool 4 -i  Done                     05/02/2018 22:15:58
00024 suncat0272 pw.x -npool 4 -i  Done                     05/02/2018 22:15:58
00025 suncat0272 pw.x -npool 4 -i  Done                     05/02/2018 22:15:58
00026 suncat0272 pw.x -npool 4 -i  Done                     05/02/2018 22:15:58
00027 suncat0272 pw.x -npool 4 -i  Done                     05/02/2018 22:15:58
00028 suncat0272 pw.x -npool 4 -i  Done                     05/02/2018 22:15:58
00029 suncat0272 pw.x -npool 4 -i  Done                     05/02/2018 22:15:58
00030 suncat0272 pw.x -npool 4 -i  Done                     05/02/2018 22:15:58
00031 suncat0272 pw.x -npool 4 -i  Done                     05/02/2018 22:15:58