     Program PWSCF v.5.1rc2 (svn rev. 11289) starts on  3May2018 at 12:20:35

     Current dimensions of program PWSCF are:
     Max number of different atomic species (ntypx) = 10
     Max number of k-points (npk) =  40000
     Max angular momentum in pseudopotentials (lmaxx) =  3
     Presently stress not available with electric field

     IMPORTANT: XC functional enforced from input :
     Exchange-correlation      = BEEF-VDW ( 1  4 27 13 2)
     Any further DFT definition will be discarded
     Please, verify this is what you really want

     Subspace diagonalization in iterative solution of the eigenvalue problem:
     a serial algorithm will be used

     bravais-lattice index     =            0
     lattice parameter (alat)  =       1.8897  a.u.
     unit-cell volume          =    8507.0471 (a.u.)^3
     number of atoms/cell      =           13
     number of atomic types    =            2
     number of electrons       =       138.00
     number of Kohn-Sham states=           79
     kinetic-energy cutoff     =      36.7493  Ry
     charge density cutoff     =     367.4932  Ry
     convergence threshold     =      1.0E-05
     mixing beta               =       0.3000
     number of iterations used =           10  plain     mixing
     Exchange-correlation      = BEEF-VDW ( 1  4 27 13 2)
     nstep                     =           50

     celldm(1)=   1.889726  celldm(2)=   0.000000  celldm(3)=   0.000000
     celldm(4)=   0.000000  celldm(5)=   0.000000  celldm(6)=   0.000000

     crystal axes: (cart. coord. in units of alat)
               a(1) = (   7.468327   0.000000   0.000000 )
               a(2) = (   3.734164   6.467761   0.000000 )
               a(3) = (   0.000000   0.000000  26.097863 )

     reciprocal axes: (cart. coord. in units 2 pi/alat)
               b(1) = (  0.133899 -0.077307  0.000000 )
               b(2) = (  0.000000  0.154613  0.000000 )
               b(3) = (  0.000000  0.000000  0.038317 )

     PseudoPot. # 1 for La read from file:
     /u/if/mamunm/psp/gbrv1.5pbe/La.UPF
     MD5 check sum: 5937b0c7494ba0601a847275249473aa
     Pseudo is Ultrasoft + core correction, Zval = 11.0
     Generated by new atomic code, or converted to UPF format
     Using radial grid of  995 points,  8 beta functions with:
                l(1) =   0
                l(2) =   0
                l(3) =   1
                l(4) =   1
                l(5) =   2
                l(6) =   2
                l(7) =   3
                l(8) =   3
     Q(r) pseudized with  8 coefficients,  rinner =    1.700   1.700   1.700
                                                       1.700   1.700   1.700
                                                       1.700

     PseudoPot. # 2 for S  read from file:
     /u/if/mamunm/psp/gbrv1.5pbe/S.UPF
     MD5 check sum: 88d86576ff6df21479756cfb9bdac1df
     Pseudo is Ultrasoft + core correction, Zval =  6.0
     Generated by new atomic code, or converted to UPF format
     Using radial grid of  907 points,  6 beta functions with:
                l(1) =   0
                l(2) =   0
                l(3) =   1
                l(4) =   1
                l(5) =   2
                l(6) =   2
     Q(r) pseudized with  8 coefficients,  rinner =    1.300   1.300   1.300
                                                       1.300   1.300

     vdW kernel table read from file vdW_kernel_table
     MD5 check sum: 095c7af220d748ca6e76c0b4c6cfb241

     atomic species   valence    mass     pseudopotential
        La1           11.00   138.90547     La( 1.00)
        S1             6.00    32.06000     S ( 1.00)

     No symmetry found

   Cartesian axes

     site n.     atom                  positions (alat units)
         1           La1 tau(   1) = (   1.8670818   1.0779602  10.0000000  )
         2           La1 tau(   2) = (   5.6012453   1.0779602  10.0000000  )
         3           La1 tau(   3) = (   3.7341635   4.3118406  10.0000000  )
         4           La1 tau(   4) = (   7.4683270   4.3118406  10.0000000  )
         5           La1 tau(   5) = (   7.4683270   2.1559203  13.0489317  )
         6           La1 tau(   6) = (   3.7341635   2.1559203  13.0489317  )
         7           La1 tau(   7) = (   9.3354088   5.3898008  13.0489317  )
         8           La1 tau(   8) = (   5.6012453   5.3898008  13.0489317  )
         9           La1 tau(   9) = (   0.0000000   0.0000000  16.0978635  )
        10           La1 tau(  10) = (   3.7341635   0.0000000  16.0978635  )
        11           La1 tau(  11) = (   1.8670818   3.2338805  16.0978635  )
        12           La1 tau(  12) = (   5.6012453   3.2338805  16.0978635  )
        13           S1  tau(  13) = (   3.7341635   2.1559203  18.1258635  )

     number of k points=    20  Fermi-Dirac smearing, width (Ry)=  0.0110
                       cart. coord. in units 2pi/alat
        k(    1) = (   0.0000000   0.0000000   0.0000000), wk =   0.0555556
        k(    2) = (   0.0000000   0.0257688   0.0000000), wk =   0.1111111
        k(    3) = (   0.0000000   0.0515377   0.0000000), wk =   0.1111111
        k(    4) = (   0.0000000  -0.0773065   0.0000000), wk =   0.0555556
        k(    5) = (   0.0223165  -0.0128844   0.0000000), wk =   0.1111111
        k(    6) = (   0.0223165   0.0128844   0.0000000), wk =   0.1111111
        k(    7) = (   0.0223165   0.0386533   0.0000000), wk =   0.1111111
        k(    8) = (   0.0223165  -0.0901909   0.0000000), wk =   0.1111111
        k(    9) = (   0.0223165  -0.0644221   0.0000000), wk =   0.1111111
        k(   10) = (   0.0223165  -0.0386533   0.0000000), wk =   0.1111111
        k(   11) = (   0.0446329  -0.0257688   0.0000000), wk =   0.1111111
        k(   12) = (   0.0446329   0.0000000   0.0000000), wk =   0.1111111
        k(   13) = (   0.0446329   0.0257688   0.0000000), wk =   0.1111111
        k(   14) = (   0.0446329  -0.1030753   0.0000000), wk =   0.1111111
        k(   15) = (   0.0446329  -0.0773065   0.0000000), wk =   0.1111111
        k(   16) = (   0.0446329  -0.0515377   0.0000000), wk =   0.1111111
        k(   17) = (  -0.0669494   0.0386533   0.0000000), wk =   0.0555556
        k(   18) = (  -0.0669494   0.0644221   0.0000000), wk =   0.1111111
        k(   19) = (  -0.0669494   0.0901909   0.0000000), wk =   0.1111111
        k(   20) = (  -0.0669494  -0.0386533   0.0000000), wk =   0.0555556

     Largest allocated arrays     est. size (Mb)     dimensions
     Largest temporary arrays     est. size (Mb)     dimensions

     Initial potential from superposition of free atoms
     Check: negative starting charge=   -0.831032

     starting charge  137.61514, renormalised to  138.00000

     negative rho (up, down):  8.334E-01 0.000E+00

     *
     * You are using vdW-DF for exchange-correlation in this calculation.
     * Please cite the following three references that made this development
     * possible:
     *
     *   M. Dion, H. Rydberg, E. Schroder, D. C. Langreth, and
     *   B. I. Lundqvist, Phys. Rev. Lett. 92, 246401 (2004).
     *
     *   T. Thonhauser, V. R. Cooper, S. Li, A. Puzder, P. Hyldgaard, and
     *   D. C. Langreth, Phys. Rev. B 76, 125112 (2007).
     *
     *   G. Roman-Perez and J. M. Soler, Phys. Rev. Lett. 103, 096102 (2009).
     *
     *
     * If you are using vdW-DF2, please also cite:
     *
     *   K. Lee, E. D. Murray, L. Kong, B. I. Lundqvist, and
     *   D. C. Langreth, Phys. Rev. B 82, 081101(R) (2010).
     *
     *
     * If you are calculating the stress with vdW-DF, please also cite:
     *
     *   R. Sabatini, E. Kucukbenli, B. Kolb, T. Thonhauser, and
     *   S. de Gironcoli, J. Phys.: Condens. Matter 24, 424209 (2012).
     *

     Carrying out vdW-DF run using the following parameters:

     Nqs =      20    Nr_points =    1024   r_max =   100.000
     q_mesh =
               0.00001000     0.04494208     0.09755937     0.15916263
               0.23128650     0.31572767     0.41458969     0.53033537
               0.66584808     0.82450364     1.01025438     1.22772762
               1.48234092     1.78043706     2.12944203     2.53805004
               3.01644009     3.57652955     4.23227104     5.00000000

     Gradients computed in reciprocal space

     Adding external electric field

     Computed dipole along edir(3) :
        Dipole               -0.1606 Ry au,         -0.4083 Debye
        Dipole field         -0.0002 Ry au

        Potential amp.        0.0228 Ry
        Total length         48.0849 bohr

     Starting wfc are  244 randomized atomic wfcs

     Self-consistent Calculation

     iteration #  1     ecut=    36.75 Ry     beta=0.30
     Davidson diagonalization with overlap
     ethr =  1.00E-02,  avg # of iterations =  2.0

[...]

     total energy              =   -1270.22379183 Ry
     Harris-Foulkes estimate   =   -1273.50945032 Ry
     estimated scf accuracy    <       6.87758493 Ry

[...]

     iteration # 13     ecut=    36.75 Ry     beta=0.30
     Davidson diagonalization with overlap
     c_bands:  1 eigenvalues not converged
     ethr =  8.92E-06,  avg # of iterations =  9.3

[...]

     End of self-consistent calculation

          k = 0.0000 0.0000 0.0000 ( 31997 PWs)   bands (ev):

   -31.7481 -31.7116 -31.5807 -31.5794 -31.5792 -31.5373 -31.4520 -31.4519
   -31.2394 -31.1191 -31.1181 -31.1178 -15.8152 -15.8152 -15.8006 -15.7462
   -15.7461 -15.7163 -15.6703 -15.5703 -15.5382 -15.5380 -15.3843 -15.2353
   -15.1571 -15.1570 -15.0454 -14.9796 -14.9795 -14.9722 -14.9721 -14.9697
   -14.9373 -14.9372 -14.8784 -14.7162 -14.7162 -14.6419 -14.6418 -14.6319
   -14.6194 -14.6192 -14.5934 -14.5170 -14.5151 -14.5150 -14.2892 -14.2892
    -9.8355  -1.2247  -0.9026  -0.7811  -0.7811  -0.3468  -0.0419  -0.0047
    -0.0047   0.2011   0.2983   0.3909   0.3909   0.6061   0.6061   0.6157
     0.6241   0.6242   0.9212   1.5037   1.5038   1.6406   1.8430   2.2247
     2.2247   2.3862   2.4990   2.6390   2.7655   2.8597   2.8636

[...]

          k =-0.0669 0.0387 0.0000 ( 31970 PWs)   bands (ev):

[...]

     the Fermi energy is     1.6499 ev

!    total energy              =   -1272.79916401 Ry
     Harris-Foulkes estimate   =   -1272.79918227 Ry
     estimated scf accuracy    <       0.00000527 Ry

     The total energy is the sum of the following terms:

     one-electron contribution =   -4776.24565674 Ry
     hartree contribution      =    2400.87222924 Ry
     xc contribution           =    -617.38286600 Ry
     ewald contribution        =    1720.08054304 Ry
     electric field correction =       0.00044261 Ry
     smearing contrib. (-TS)   =      -0.12385616 Ry

     convergence has been achieved in  20 iterations

 BEEF-vdW xc energy contributions
           1 :   -546.784770338749
           2 :    502.767825382233
           3 :   -424.933664607946
           4 :    329.891425941427
           5 :   -235.291974910625
           6 :    155.135032411428
           7 :   -97.1056166538151
           8 :    62.2338406487743
           9 :   -46.3842608454943
          10 :    42.6837883505575
          11 :   -43.9734207510645
          12 :    44.5851545957564
          13 :   -41.1692786085141
          14 :    32.7142321404777
          15 :   -20.1166768967714
          16 :    5.58032273068068
          17 :    8.06396367023740
          18 :   -18.1177111469037
          19 :    22.7777212355080
          20 :   -21.7070580550778
          21 :    16.1800389692963
          22 :   -8.68127149737620
          23 :    2.04912532362755
          24 :    1.52837222476933
          25 :   -1.25952860911502
          26 :   -2.08503855718004
          27 :    6.64945484579539
          28 :   -10.3757416742317
          29 :    11.8730725113345
          30 :   -10.8939040736991
          31 :   -46.6735010139992
          32 :   -33.4709986610349

     Forces acting on atoms (Ry/au):

     negative rho (up, down):  5.846E-01 0.000E+00
     atom    1 type  1   force =    -0.00079671   -0.00046639    0.00377865
     atom    2 type  1   force =     0.00079558   -0.00047636    0.00381434
     atom    3 type  1   force =    -0.00000473    0.00092969    0.00379328
     atom    4 type  1   force =     0.00001095    0.00001154    0.00527742
     atom    5 type  1   force =    -0.00000868    0.00014128   -0.00563830
     atom    6 type  1   force =     0.00001138   -0.00000457   -0.00860219
     atom    7 type  1   force =    -0.00012435   -0.00006015   -0.00564916
     atom    8 type  1   force =     0.00012238   -0.00007736   -0.00565253
     atom    9 type  1   force =    -0.00002646   -0.00000026   -0.00027820
     atom   10 type  1   force =     0.00002337    0.02663685    0.01812997
     atom   11 type  1   force =     0.02307223   -0.01330983    0.01812563
     atom   12 type  1   force =    -0.02307436   -0.01333181    0.01814603
     atom   13 type  2   force =    -0.00000060    0.00000736   -0.04524496

     Total force =     0.071853     Total SCF correction =     0.001955

     entering subroutine stress ...

     negative rho (up, down):  5.846E-01 0.000E+00
          total   stress  (Ry/bohr**3)                   (kbar)     P=   -1.50
  -0.00000219   0.00000000   0.00000000         -0.32      0.00      0.00
   0.00000000  -0.00000219   0.00000000          0.00     -0.32      0.00
   0.00000000   0.00000000  -0.00002619          0.00      0.00     -3.85

     BFGS Geometry Optimization

     number of scf cycles    =   1
     number of bfgs steps    =   0

     energy   new            =   -1272.7991640115 Ry

     new trust radius        =       0.0452449591 bohr
     new conv_thr            =       0.0000099958 Ry

ATOMIC_POSITIONS (crystal)
La1      0.166666667   0.166666667   0.383173129    0   0   0
La1      0.666666667   0.166666667   0.383173129    0   0   0
La1      0.166666667   0.666666667   0.383173129    0   0   0
La1      0.666666667   0.666666667   0.383173129    0   0   0
La1      0.833333333   0.333333333   0.500000000    0   0   0
La1      0.333333333   0.333333333   0.500000000    0   0   0
La1      0.833333333   0.833333333   0.500000000    0   0   0
La1      0.333333333   0.833333333   0.500000000    0   0   0
La1     -0.000001864  -0.000000021   0.616821230
La1      0.498911974   0.002179365   0.617194486
La1      0.002179300   0.498911020   0.617194398
La1      0.498910428   0.498909222   0.617194812
S1       0.333332990   0.333333935   0.693616966

     Writing output data file calc.save
     Check: negative starting charge=   -0.831032
     NEW-OLD atomic charge density approx. for the potential
     Check: negative starting charge=   -0.831382

[...]

     energy   old            =   -1272.7991640115 Ry
     energy   new            =   -1272.8038668917 Ry

     CASE: energy  _new < energy  _old

     WARNING: bfgs curvature condition failed, Theta= 0.984
     new trust radius        =       0.0678674386 bohr
     new conv_thr            =       0.0000001000 Ry

[...]

     Threshold (ethr) on eigenvalues was too large:
     Diagonalizing with lowered threshold

     Davidson diagonalization with overlap
     ethr =  3.17E-08,  avg # of iterations =  8.3

[...]

     Total force =     0.004875     Total SCF correction =     0.000501
     SCF correction compared to forces is large: reduce conv_thr to get better values

[...]

     CASE: energy  _new > energy  _old

[...]

     iteration #  4     ecut=    36.75 Ry     beta=0.30
     Davidson diagonalization with overlap
     c_bands:  1 eigenvalues not converged
     ethr =  2.99E-09,  avg # of iterations = 12.1

[...]

     WARNING: bfgs curvature condition failed, Theta= 0.389
     new trust radius        =       0.0018272300 bohr
     new conv_thr            =       0.0000001000 Ry

[...]

     Total force =     0.004113     Total SCF correction =     0.000494
     SCF correction compared to forces is large: reduce conv_thr to get better values

[...]

     number of scf cycles    =  18
     number of bfgs steps    =  16

     energy   old            =   -1272.8123369212 Ry
     energy   new            =   -1272.8123746045 Ry

     CASE: energy  _new < energy  _old

     new trust radius        =       0.0092503519 bohr
     new conv_thr            =       0.0000001000 Ry

ATOMIC_POSITIONS (crystal)
La1      0.166666667   0.166666667   0.383173129    0   0   0
La1      0.666666667   0.166666667   0.383173129    0   0   0
La1      0.166666667   0.666666667   0.383173129    0   0   0
La1      0.666666667   0.666666667   0.383173129    0   0   0
La1      0.833333333   0.333333333   0.500000000    0   0   0
La1      0.333333333   0.333333333   0.500000000    0   0   0
La1      0.833333333   0.833333333   0.500000000    0   0   0
La1      0.333333333   0.833333333   0.500000000    0   0   0
La1     -0.000004212   0.000006485   0.616074180
La1      0.494356912   0.011298585   0.618876437
La1      0.011306700   0.494354656   0.618871997
La1      0.494349409   0.494352025   0.618873177
S1       0.333332594   0.333331843   0.691165564

     Writing output data file calc.save
     Check: negative starting charge=   -0.833253
     NEW-OLD atomic charge density approx. for the potential
     Check: negative starting charge=   -0.833390

[...]

     Self-consistent Calculation

[...]

     Threshold (ethr) on eigenvalues was too large:
     Diagonalizing with lowered threshold

     Davidson diagonalization with overlap
     ethr =  3.92E-08,  avg # of iterations =  9.8

[...]

     total energy              =   -1272.81242572 Ry
     Harris-Foulkes estimate   =   -1272.81242578 Ry
     estimated scf accuracy    <       0.00000031 Ry

     iteration #  9     ecut=    36.75 Ry     beta=0.30
     Davidson diagonalization with overlap
     ethr =  1.13E-10,  avg # of iterations =  5.5

[...]

     negative rho (up, down):  5.863E-01 0.000E+00

     Adding external electric field

     Computed dipole along edir(3) :
        Dipole               -0.4092 Ry au,         -1.0402 Debye
        Dipole field         -0.0006 Ry au

        Potential amp.        0.0581 Ry
        Total length         48.0849 bohr

     End of self-consistent calculation

[...]

          k = 0.0446-0.0515 0.0000 ( 31991 PWs)   bands (ev):

[...]

          k =-0.0669-0.0387 0.0000 ( 31970 PWs)   bands (ev):

   -31.6006 -31.5421 -31.5418 -31.4754 -31.4751 -31.4147 -31.3579 -31.3326
   -31.0992 -31.0907 -31.0379 -31.0263 -15.5634 -15.5192 -15.4847 -15.4645
   -15.4418 -15.3938 -15.3328 -15.2958 -15.2812 -15.2424 -15.2047 -15.1837
   -15.1597 -15.1486 -15.1444 -15.1195 -15.0638 -15.0447 -14.9924 -14.9373
   -14.8461 -14.8109 -14.7425 -14.7404 -14.7101 -14.6943 -14.6793 -14.6425
   -14.6303 -14.6142 -14.5144 -14.5115 -14.4915 -14.4715 -14.3215 -14.3143
   -10.0127  -1.2007  -1.0214  -0.9792   0.1639   0.2373   0.5929   0.7003
     0.9010   0.9485   0.9876   1.0131   1.0452   1.2052   1.3931   1.4319
     1.5534   1.5800   1.6056   1.7324   1.8503   1.8907   1.9454   1.9473
     2.0242   2.0497   2.1429   2.1931   2.2672   2.3171   2.3567

     the Fermi energy is     1.7525 ev

!    total energy              =   -1272.81242574 Ry
     Harris-Foulkes estimate   =   -1272.81242597 Ry
     estimated scf accuracy    <       0.00000002 Ry

     The total energy is the sum of the following terms:

     one-electron contribution =   -4769.01772967 Ry
     hartree contribution      =    2397.63707481 Ry
     xc contribution           =    -617.44372436 Ry
     ewald contribution        =    1716.13552179 Ry
     electric field correction =       0.00024740 Ry
     smearing contrib. (-TS)   =      -0.12381572 Ry

     convergence has been achieved in   9 iterations

 BEEF-vdW xc energy contributions
           1 :   -546.848277275870
           2 :    502.858769800408
           3 :   -425.058694152590
           4 :    330.034865802407
           5 :   -235.426619591457
           6 :    155.232831028421
           7 :   -97.1450345477874
           8 :    62.2059981226005
           9 :   -46.2979746560436
          10 :    42.5654141457422
          11 :   -43.8585865238915
          12 :    44.5049040033462
          13 :   -41.1368151152491
          14 :    32.7190761143532
          15 :   -20.1309636177575
          16 :    5.57535648657222
          17 :    8.10087065031973
          18 :   -18.1776706238313
          19 :    22.8394514103911
          20 :   -21.7535020442956
          21 :    16.2103989796021
          22 :   -8.71061897994593
          23 :    2.09642795774460
          24 :    1.45586215657067
          25 :   -1.17508103375690
          26 :   -2.15265567092342
          27 :    6.67280970721549
          28 :   -10.3463070279606
          29 :    11.8075840977115
          30 :   -10.8260320360725
          31 :   -46.6778878524126
          32 :   -33.4826222587769

     Forces acting on atoms (Ry/au):

     negative rho (up, down):  5.863E-01 0.000E+00
     atom    1 type  1   force =    -0.00056761   -0.00032736    0.00410057
     atom    2 type  1   force =     0.00056770   -0.00032740    0.00410111
     atom    3 type  1   force =    -0.00000031    0.00065537    0.00410113
     atom    4 type  1   force =     0.00000036   -0.00000036    0.00499257
     atom    5 type  1   force =    -0.00000079   -0.00029532   -0.00425381
     atom    6 type  1   force =     0.00000156   -0.00000142   -0.00796034
     atom    7 type  1   force =     0.00025633    0.00014911   -0.00425311
     atom    8 type  1   force =    -0.00025605    0.00014804   -0.00425104
     atom    9 type  1   force =     0.00000311   -0.00000058   -0.00193730
     atom   10 type  1   force =    -0.00000233    0.00074289    0.00166374
     atom   11 type  1   force =     0.00063999   -0.00037307    0.00167006
     atom   12 type  1   force =    -0.00064421   -0.00037243    0.00167114
     atom   13 type  2   force =     0.00000227    0.00000253    0.00035529

     Total force =     0.003726     Total SCF correction =     0.000348

     entering subroutine stress ...

     negative rho (up, down):  5.863E-01 0.000E+00
          total   stress  (Ry/bohr**3)                   (kbar)     P=    0.42
   0.00000911  -0.00000000  -0.00000000          1.34     -0.00     -0.00
  -0.00000000   0.00000911   0.00000000         -0.00      1.34      0.00
  -0.00000000   0.00000000  -0.00000975         -0.00      0.00     -1.43

     bfgs converged in  19 scf cycles and  17 bfgs steps
     (criteria: energy <  1.0E+00, force <  1.9E-03)

     End of BFGS Geometry Optimization

     Final energy   =   -1272.8124257423 Ry
Begin final coordinates

ATOMIC_POSITIONS (crystal)
La1      0.166666667   0.166666667   0.383173129    0   0   0
La1      0.666666667   0.166666667   0.383173129    0   0   0
La1      0.166666667   0.666666667   0.383173129    0   0   0
La1      0.666666667   0.666666667   0.383173129    0   0   0
La1      0.833333333   0.333333333   0.500000000    0   0   0
La1      0.333333333   0.333333333   0.500000000    0   0   0
La1      0.833333333   0.833333333   0.500000000    0   0   0
La1      0.333333333   0.833333333   0.500000000    0   0   0
La1     -0.000004212   0.000006485   0.616074180
La1      0.494356912   0.011298585   0.618876437
La1      0.011306700   0.494354656   0.618871997
La1      0.494349409   0.494352025   0.618873177
S1       0.333332594   0.333331843   0.691165564
End final coordinates

     Writing output data file calc.save

     General routines

     Parallel routines

   This run was terminated on:  18:38:49   3May2018

   JOB DONE.
Job  /afs/slac/g/suncat/bin/suncat-tsmpirun -x LD_LIBRARY_PATH -wdir /scratch/qe763268_AXZx9 pw.x -npool 4 -in pw.inp

TID   HOST_NAME   COMMAND_LINE            STATUS            TERMINATION_TIME
00000 suncat0198 pw.x -npool 4 -i  Done                     05/03/2018 18:38:49
00001 suncat0198 pw.x -npool 4 -i  Done                     05/03/2018 18:38:49
00002 suncat0198 pw.x -npool 4 -i  Done                     05/03/2018 18:38:49
00003 suncat0198 pw.x -npool 4 -i  Done                     05/03/2018 18:38:49
00004 suncat0198 pw.x -npool 4 -i  Done                     05/03/2018 18:38:49
00005 suncat0198 pw.x -npool 4 -i  Done                     05/03/2018 18:38:49
00006 suncat0198 pw.x -npool 4 -i  Done                     05/03/2018 18:38:49
00007 suncat0198 pw.x -npool 4 -i  Done                     05/03/2018 18:38:49
00008 suncat0192 pw.x -npool 4 -i  Done                     05/03/2018 18:38:49
00009 suncat0192 pw.x -npool 4 -i  Done                     05/03/2018 18:38:49
00010 suncat0192 pw.x -npool 4 -i  Done                     05/03/2018 18:38:49
00011 suncat0192 pw.x -npool 4 -i  Done                     05/03/2018 18:38:49
00012 suncat0192 pw.x -npool 4 -i  Done                     05/03/2018 18:38:49
00013 suncat0192 pw.x -npool 4 -i  Done                     05/03/2018 18:38:49
00014 suncat0192 pw.x -npool 4 -i  Done                     05/03/2018 18:38:49
00015 suncat0192 pw.x -npool 4 -i  Done                     05/03/2018 18:38:49
00016 suncat0138 pw.x -npool 4 -i  Done                     05/03/2018 18:38:49
00017 suncat0138 pw.x -npool 4 -i  Done                     05/03/2018 18:38:49
00018 suncat0138 pw.x -npool 4 -i  Done                     05/03/2018 18:38:49
00019 suncat0138 pw.x -npool 4 -i  Done                     05/03/2018 18:38:49
00020 suncat0138 pw.x -npool 4 -i  Done                     05/03/2018 18:38:49
00021 suncat0138 pw.x -npool 4 -i  Done                     05/03/2018 18:38:49
00022 suncat0138 pw.x -npool 4 -i  Done                     05/03/2018 18:38:49
00023 suncat0138 pw.x -npool 4 -i  Done                     05/03/2018 18:38:49
00024 suncat0134 pw.x -npool 4 -i  Done                     05/03/2018 18:38:49
00025 suncat0134 pw.x -npool 4 -i  Done                     05/03/2018 18:38:49
00026 suncat0134 pw.x -npool 4 -i  Done                     05/03/2018 18:38:49
00027 suncat0134 pw.x -npool 4 -i  Done                     05/03/2018 18:38:49
00028 suncat0134 pw.x -npool 4 -i  Done                     05/03/2018 18:38:49
00029 suncat0134 pw.x -npool 4 -i  Done                     05/03/2018 18:38:49
00030 suncat0134 pw.x -npool 4 -i  Done                     05/03/2018 18:38:49
00031 suncat0134 pw.x -npool 4 -i  Done                     05/03/2018 18:38:49