     Program PWSCF v.5.1rc2 (svn rev. 11289) starts on 20Jan2018 at  9:30:44

     Current dimensions of program PWSCF are:
     Max number of different atomic species (ntypx) = 10
     Max number of k-points (npk) =  40000
     Max angular momentum in pseudopotentials (lmaxx) =  3
     Presently stress not available with electric field

     IMPORTANT: XC functional enforced from input :
     Exchange-correlation      = BEEF-VDW ( 1  4 27 13 2)
     Any further DFT definition will be discarded
     Please, verify this is what you really want

     Subspace diagonalization in iterative solution of the eigenvalue problem:
     a serial algorithm will be used

     bravais-lattice index     =            0
     lattice parameter (alat)  =       1.8897  a.u.
     unit-cell volume          =    6501.5726 (a.u.)^3
     number of atoms/cell      =           13
     number of atomic types    =            2
     number of electrons       =       162.00
     number of Kohn-Sham states=           91
     kinetic-energy cutoff     =      36.7493  Ry
     charge density cutoff     =     367.4932  Ry
     convergence threshold     =      1.0E-05
     mixing beta               =       0.3000
     number of iterations used =           10  plain     mixing
     Exchange-correlation      = BEEF-VDW ( 1  4 27 13 2)
     nstep                     =           50

     celldm(1)=   1.889726  celldm(2)=   0.000000  celldm(3)=   0.000000
     celldm(4)=   0.000000  celldm(5)=   0.000000  celldm(6)=   0.000000

     crystal axes: (cart. coord. in units of alat)
               a(1) = (   6.617606   0.000000   0.000000 )
               a(2) = (   3.308803   5.731015   0.000000 )
               a(3) = (   0.000000   0.000000  25.403253 )

     reciprocal axes: (cart. coord. in units 2 pi/alat)
               b(1) = (  0.151112 -0.087245  0.000000 )
               b(2) = (  0.000000  0.174489  0.000000 )
               b(3) = (  0.000000  0.000000  0.039365 )

     PseudoPot. # 1 for In read from file:
     /afs/slac.stanford.edu/u/if/mamunm/psp/gbrv1.5pbe/In.UPF
     MD5 check sum: 90777abd96fbb83f2e67db2a40c566b9
     Pseudo is Ultrasoft + core correction, Zval = 13.0
     Generated by new atomic code, or converted to UPF format
     Using radial grid of  889 points,  6 beta functions with:
                l(1) =   0
                l(2) =   0
                l(3) =   1
                l(4) =   1
                l(5) =   2
                l(6) =   2
     Q(r) pseudized with  6 coefficients,  rinner =    1.400   1.400   1.400
                                                       1.400   1.400

     PseudoPot. # 2 for S  read from file:
     /afs/slac.stanford.edu/u/if/mamunm/psp/gbrv1.5pbe/S.UPF
     MD5 check sum: 88d86576ff6df21479756cfb9bdac1df
     Pseudo is Ultrasoft + core correction, Zval =  6.0
     Generated by new atomic code, or converted to UPF format
     Using radial grid of  907 points,  6 beta functions with:
                l(1) =   0
                l(2) =   0
                l(3) =   1
                l(4) =   1
                l(5) =   2
                l(6) =   2
     Q(r) pseudized with  8 coefficients,  rinner =    1.300   1.300   1.300
                                                       1.300   1.300

     vdW kernel table read from file vdW_kernel_table
     MD5 check sum: 095c7af220d748ca6e76c0b4c6cfb241

     atomic species   valence    mass     pseudopotential
        In1           13.00   114.81800     In( 1.00)
        S1             6.00    32.06000     S ( 1.00)

     No symmetry found

   Cartesian axes

     site n.     atom                  positions (alat units)
         1           In1 tau(   1) = (   1.6544016   0.9551692  10.0000000  )
         2           In1 tau(   2) = (   4.9632047   0.9551692  10.0000000  )
         3           In1 tau(   3) = (   3.3088031   3.8206768  10.0000000  )
         4           In1 tau(   4) = (   6.6176063   3.8206768  10.0000000  )
         5           In1 tau(   5) = (   6.6176063   1.9103384  12.7016265  )
         6           In1 tau(   6) = (   3.3088031   1.9103384  12.7016265  )
         7           In1 tau(   7) = (   8.2720078   4.7758460  12.7016265  )
         8           In1 tau(   8) = (   4.9632047   4.7758460  12.7016265  )
         9           In1 tau(   9) = (   0.0000000   0.0000000  15.4032529  )
        10           In1 tau(  10) = (   3.3088031   0.0000000  15.4032529  )
        11           In1 tau(  11) = (   1.6544016   2.8655076  15.4032529  )
        12           In1 tau(  12) = (   4.9632047   2.8655076  15.4032529  )
        13           S1  tau(  13) = (   3.3088031   1.9103384  17.8732529  )

     number of k points=    20  Fermi-Dirac smearing, width (Ry)=  0.0110
                       cart. coord. in units 2pi/alat
        k(    1) = (   0.0000000   0.0000000   0.0000000), wk =   0.0555556
        k(    2) = (   0.0000000   0.0290815   0.0000000), wk =   0.1111111
        k(    3) = (   0.0000000   0.0581631   0.0000000), wk =   0.1111111
        k(    4) = (   0.0000000  -0.0872446   0.0000000), wk =   0.0555556
        k(    5) = (   0.0251853  -0.0145408   0.0000000), wk =   0.1111111
        k(    6) = (   0.0251853   0.0145408   0.0000000), wk =   0.1111111
        k(    7) = (   0.0251853   0.0436223   0.0000000), wk =   0.1111111
        k(    8) = (   0.0251853  -0.1017853   0.0000000), wk =   0.1111111
        k(    9) = (   0.0251853  -0.0727038   0.0000000), wk =   0.1111111
        k(   10) = (   0.0251853  -0.0436223   0.0000000), wk =   0.1111111
        k(   11) = (   0.0503707  -0.0290815   0.0000000), wk =   0.1111111
        k(   12) = (   0.0503707   0.0000000   0.0000000), wk =   0.1111111
        k(   13) = (   0.0503707   0.0290815   0.0000000), wk =   0.1111111
        k(   14) = (   0.0503707  -0.1163261   0.0000000), wk =   0.1111111
        k(   15) = (   0.0503707  -0.0872446   0.0000000), wk =   0.1111111
        k(   16) = (   0.0503707  -0.0581631   0.0000000), wk =   0.1111111
        k(   17) = (  -0.0755560   0.0436223   0.0000000), wk =   0.0555556
        k(   18) = (  -0.0755560   0.0727038   0.0000000), wk =   0.1111111
        k(   19) = (  -0.0755560   0.1017853   0.0000000), wk =   0.1111111
        k(   20) = (  -0.0755560  -0.0436223   0.0000000), wk =   0.0555556

     Largest allocated arrays     est. size (Mb)     dimensions
     Largest temporary arrays     est. size (Mb)     dimensions

     Initial potential from superposition of free atoms
     Check: negative starting charge=   -0.000151

     starting charge  143.99996, renormalised to  162.00000

     negative rho (up, down):  1.700E-04 0.000E+00

     *
     * You are using vdW-DF for exchange-correlation in this calculation.
     * Please cite the following three references that made this development
     * possible:
     *
     *   M. Dion, H. Rydberg, E. Schroder, D. C. Langreth, and
     *   B. I. Lundqvist, Phys. Rev. Lett. 92, 246401 (2004).
     *
     *   T. Thonhauser, V. R. Cooper, S. Li, A. Puzder, P. Hyldgaard, and
     *   D. C. Langreth, Phys. Rev. B 76, 125112 (2007).
     *
     *   G. Roman-Perez and J. M. Soler, Phys. Rev. Lett. 103, 096102 (2009).
     *
     *
     * If you are using vdW-DF2, please also cite:
     *
     *   K. Lee, E. D. Murray, L. Kong, B. I. Lundqvist, and
     *   D. C. Langreth, Phys. Rev. B 82, 081101(R) (2010).
     *
     *
     * If you are calculating the stress with vdW-DF, please also cite:
     *
     *   R. Sabatini, E. Kucukbenli, B. Kolb, T. Thonhauser, and
     *   S. de Gironcoli, J. Phys.: Condens. Matter 24, 424209 (2012).
     *

     Carrying out vdW-DF run using the following parameters:

     Nqs =      20    Nr_points =    1024   r_max =   100.000
     q_mesh =
               0.00001000     0.04494208     0.09755937     0.15916263
               0.23128650     0.31572767     0.41458969     0.53033537
               0.66584808     0.82450364     1.01025438     1.22772762
               1.48234092     1.78043706     2.12944203     2.53805004
               3.01644009     3.57652955     4.23227104     5.00000000

     Gradients computed in reciprocal space

     Adding external electric field

     Computed dipole along edir(3) :
        Dipole               -7.3293 Ry au,        -18.6293 Debye
        Dipole field         -0.0142 Ry au

        Potential amp.        1.3261 Ry
        Total length         46.8051 bohr

     Starting wfc are  112 randomized atomic wfcs

     Self-consistent Calculation

     iteration #  1     ecut=    36.75 Ry     beta=0.30
     Davidson diagonalization with overlap
     ethr =  1.00E-02,  avg # of iterations =  8.1

[...]

     total energy              =   -1144.71008410 Ry
     Harris-Foulkes estimate   =   -1631.99121880 Ry
     estimated scf accuracy    <    1042.06772920 Ry

[...]

     iteration #  4     ecut=    36.75 Ry     beta=0.30
     Davidson diagonalization with overlap
     c_bands:  1 eigenvalues not converged
     ethr =  1.00E-02,  avg # of iterations = 17.9

[...]

     End of self-consistent calculation

          k = 0.0000 0.0000 0.0000 ( 24345 PWs)   bands (ev):

   -15.1714 -15.1714 -15.1703 -15.0809 -15.0809 -15.0751 -15.0619 -15.0619
   -15.0605 -15.0563 -15.0214 -15.0185 -15.0185 -15.0109 -14.9913 -14.9913
   -14.9780 -14.9780 -14.9751 -14.9505 -14.9505 -14.9404 -14.9404 -14.9395
   -14.9334 -14.9185 -14.9185 -14.9082 -14.9028 -14.9028 -14.8210 -14.8210
   -14.7911 -14.7911 -14.7803 -14.7565 -14.7480 -14.7480 -14.7359 -14.7359
   -14.7117 -14.7084 -14.7084 -14.6980 -14.6980 -14.6914 -14.6738 -14.6738
   -14.6694 -14.6694 -14.6678 -14.6549 -14.6393 -14.6393 -14.6331 -14.6331
   -14.6269 -14.5955 -14.5926 -14.5926 -10.8525  -9.1699  -7.7419  -5.6264
    -4.3637  -4.3434  -4.3434  -4.0669  -4.0669  -4.0585  -2.8782  -2.8782
    -2.7803  -2.6866  -2.5382  -2.5382  -2.1773  -1.3349  -1.3349  -1.1858
    -0.8728  -0.6599  -0.6599  -0.1118  -0.1118   0.1989   1.3333   2.7192
     2.7193   2.7878   2.9661

[...]

          k =-0.0756 0.0436 0.0000 ( 24448 PWs)   bands (ev):

[...]

     the Fermi energy is     0.0110 ev

!    total energy              =   -1641.68264499 Ry
     Harris-Foulkes estimate   =   -1641.68270247 Ry
     estimated scf accuracy    <       0.00000347 Ry

     The total energy is the sum of the following terms:

     one-electron contribution =   -9300.89017491 Ry
     hartree contribution      =    4729.31831224 Ry
     xc contribution           =    -478.16623753 Ry
     ewald contribution        =    3408.09737385 Ry
     electric field correction =       0.00136262 Ry
     smearing contrib. (-TS)   =      -0.04328126 Ry

     convergence has been achieved in  46 iterations

 BEEF-vdW xc energy contributions
           1 :   -418.629905042730
           2 :    382.283583026835
           3 :   -320.970073981913
           4 :    251.969913304201
           5 :   -191.023288493167
           6 :    146.667645390157
           7 :   -118.645550653957
           8 :    100.524492293404
           9 :   -84.6104054193304
          10 :    66.2969066991758
          11 :   -45.7095942031082
          12 :    26.3005259676128
          13 :   -11.8225210406870
[...]

     Current dimensions of program PWSCF are:
     Max number of different atomic species (ntypx) = 10
     Max number of k-points (npk) =  40000
     Max angular momentum in pseudopotentials (lmaxx) =  3
     Presently stress not available with electric field

     IMPORTANT: XC functional enforced from input :
     Exchange-correlation      = BEEF-VDW ( 1  4 27 13 2)
     Any further DFT definition will be discarded
     Please, verify this is what you really want

     Subspace diagonalization in iterative solution of the eigenvalue problem:
     a serial algorithm will be used

     bravais-lattice index     =            0
     lattice parameter (alat)  =       1.8897  a.u.
     unit-cell volume          =    6501.5726 (a.u.)^3
     number of atoms/cell      =           13
     number of atomic types    =            2
     number of electrons       =       162.00
     number of Kohn-Sham states=           91
     kinetic-energy cutoff     =      36.7493  Ry
     charge density cutoff     =     367.4932  Ry
     convergence threshold     =      1.0E-05
     mixing beta               =       0.3000
     number of iterations used =           10  plain     mixing
     Exchange-correlation      = BEEF-VDW ( 1  4 27 13 2)
     nstep                     =           50

     celldm(1)=   1.889726  celldm(2)=   0.000000  celldm(3)=   0.000000
     celldm(4)=   0.000000  celldm(5)=   0.000000  celldm(6)=   0.000000

     crystal axes: (cart. coord. in units of alat)
               a(1) = (   6.617606   0.000000   0.000000 )
               a(2) = (   3.308803   5.731015   0.000000 )
               a(3) = (   0.000000   0.000000  25.403253 )

     reciprocal axes: (cart. coord. in units 2 pi/alat)
               b(1) = (  0.151112 -0.087245  0.000000 )
               b(2) = (  0.000000  0.174489  0.000000 )
               b(3) = (  0.000000  0.000000  0.039365 )

     PseudoPot. # 1 for In read from file:
     /afs/slac.stanford.edu/u/if/mamunm/psp/gbrv1.5pbe/In.UPF
     MD5 check sum: 90777abd96fbb83f2e67db2a40c566b9
     Pseudo is Ultrasoft + core correction, Zval = 13.0
     Generated by new atomic code, or converted to UPF format
     Using radial grid of  889 points,  6 beta functions with:
                l(1) =   0
                l(2) =   0
                l(3) =   1
                l(4) =   1
                l(5) =   2
                l(6) =   2
     Q(r) pseudized with  6 coefficients,  rinner =    1.400   1.400   1.400
                                                       1.400   1.400

     PseudoPot. # 2 for S  read from file:
     /afs/slac.stanford.edu/u/if/mamunm/psp/gbrv1.5pbe/S.UPF
     MD5 check sum: 88d86576ff6df21479756cfb9bdac1df
     Pseudo is Ultrasoft + core correction, Zval =  6.0
     Generated by new atomic code, or converted to UPF format
     Using radial grid of  907 points,  6 beta functions with:
                l(1) =   0
                l(2) =   0
                l(3) =   1
                l(4) =   1
                l(5) =   2
                l(6) =   2
     Q(r) pseudized with  8 coefficients,  rinner =    1.300   1.300   1.300
                                                       1.300   1.300

     vdW kernel table read from file vdW_kernel_table
     MD5 check sum: 095c7af220d748ca6e76c0b4c6cfb241

     atomic species   valence    mass     pseudopotential
        In1           13.00   114.81800     In( 1.00)
        S1             6.00    32.06000     S ( 1.00)

     No symmetry found

   Cartesian axes

     site n.     atom                  positions (alat units)
         1           In1 tau(   1) = (   1.6544016   0.9551692  10.0000000  )
         2           In1 tau(   2) = (   4.9632047   0.9551692  10.0000000  )
         3           In1 tau(   3) = (   3.3088031   3.8206768  10.0000000  )
         4           In1 tau(   4) = (   6.6176063   3.8206768  10.0000000  )
         5           In1 tau(   5) = (   6.6176063   1.9103384  12.7016265  )
         6           In1 tau(   6) = (   3.3088031   1.9103384  12.7016265  )
         7           In1 tau(   7) = (   8.2720078   4.7758460  12.7016265  )
         8           In1 tau(   8) = (   4.9632047   4.7758460  12.7016265  )
         9           In1 tau(   9) = (   3.3087944   5.7309665  15.4724894  )
        10           In1 tau(  10) = (   6.6176219   5.6603446  15.6413042  )
        11           In1 tau(  11) = (   8.2108675   2.9008877  15.6411829  )
        12           In1 tau(  12) = (   5.0243794   2.9008383  15.6412220  )
        13           S1  tau(  13) = (   3.3087907   1.9103581  17.4007627  )

     number of k points=    20  Fermi-Dirac smearing, width (Ry)=  0.0110
                       cart. coord. in units 2pi/alat
        k(    1) = (   0.0000000   0.0000000   0.0000000), wk =   0.0555556
        k(    2) = (   0.0000000   0.0290815   0.0000000), wk =   0.1111111
        k(    3) = (   0.0000000   0.0581631   0.0000000), wk =   0.1111111
        k(    4) = (   0.0000000  -0.0872446   0.0000000), wk =   0.0555556
        k(    5) = (   0.0251853  -0.0145408   0.0000000), wk =   0.1111111
        k(    6) = (   0.0251853   0.0145408   0.0000000), wk =   0.1111111
        k(    7) = (   0.0251853   0.0436223   0.0000000), wk =   0.1111111
        k(    8) = (   0.0251853  -0.1017853   0.0000000), wk =   0.1111111
        k(    9) = (   0.0251853  -0.0727038   0.0000000), wk =   0.1111111
        k(   10) = (   0.0251853  -0.0436223   0.0000000), wk =   0.1111111
        k(   11) = (   0.0503707  -0.0290815   0.0000000), wk =   0.1111111
        k(   12) = (   0.0503707   0.0000000   0.0000000), wk =   0.1111111
        k(   13) = (   0.0503707   0.0290815   0.0000000), wk =   0.1111111
        k(   14) = (   0.0503707  -0.1163261   0.0000000), wk =   0.1111111
        k(   15) = (   0.0503707  -0.0872446   0.0000000), wk =   0.1111111
        k(   16) = (   0.0503707  -0.0581631   0.0000000), wk =   0.1111111
        k(   17) = (  -0.0755560   0.0436223   0.0000000), wk =   0.0555556
        k(   18) = (  -0.0755560   0.0727038   0.0000000), wk =   0.1111111
        k(   19) = (  -0.0755560   0.1017853   0.0000000), wk =   0.1111111
        k(   20) = (  -0.0755560  -0.0436223   0.0000000), wk =   0.0555556

     Largest allocated arrays     est. size (Mb)     dimensions
     Largest temporary arrays     est. size (Mb)     dimensions

     Initial potential from superposition of free atoms
     Check: negative starting charge=   -0.000166

     starting charge  143.99996, renormalised to  162.00000

[...]

     *
     * You are using vdW-DF for exchange-correlation in this calculation.
     * Please cite the following three references that made this development
     * possible:
     *
     *   M. Dion, H. Rydberg, E. Schroder, D. C. Langreth, and
     *   B. I. Lundqvist, Phys. Rev. Lett. 92, 246401 (2004).
     *
     *   T. Thonhauser, V. R. Cooper, S. Li, A. Puzder, P. Hyldgaard, and
     *   D. C. Langreth, Phys. Rev. B 76, 125112 (2007).
     *
     *   G. Roman-Perez and J. M. Soler, Phys. Rev. Lett. 103, 096102 (2009).
     *
     *
     * If you are using vdW-DF2, please also cite:
     *
     *   K. Lee, E. D. Murray, L. Kong, B. I. Lundqvist, and
     *   D. C. Langreth, Phys. Rev. B 82, 081101(R) (2010).
     *
     *
     * If you are calculating the stress with vdW-DF, please also cite:
     *
     *   R. Sabatini, E. Kucukbenli, B. Kolb, T. Thonhauser, and
     *   S. de Gironcoli, J. Phys.: Condens. Matter 24, 424209 (2012).
     *

     Carrying out vdW-DF run using the following parameters:

     Nqs =      20    Nr_points =    1024   r_max =   100.000
     q_mesh =
               0.00001000     0.04494208     0.09755937     0.15916263
               0.23128650     0.31572767     0.41458969     0.53033537
               0.66584808     0.82450364     1.01025438     1.22772762
               1.48234092     1.78043706     2.12944203     2.53805004
               3.01644009     3.57652955     4.23227104     5.00000000

     Gradients computed in reciprocal space

[...]

     Starting wfc are  112 randomized atomic wfcs

     Self-consistent Calculation

[...]

     iteration #  4     ecut=    36.75 Ry     beta=0.30
     Davidson diagonalization with overlap
     c_bands:  1 eigenvalues not converged
     c_bands:  1 eigenvalues not converged
     c_bands:  4 eigenvalues not converged
     c_bands:  2 eigenvalues not converged
     c_bands:  4 eigenvalues not converged
     c_bands:  3 eigenvalues not converged
     c_bands:  3 eigenvalues not converged
     c_bands:  3 eigenvalues not converged
     c_bands:  1 eigenvalues not converged
     c_bands:  1 eigenvalues not converged
     c_bands:  4 eigenvalues not converged
     c_bands:  2 eigenvalues not converged
     c_bands:  5 eigenvalues not converged
     ethr =  1.00E-02,  avg # of iterations = 20.1

[...]

     total energy              =   -1641.75963137 Ry
     Harris-Foulkes estimate   =   -1641.75960548 Ry
     estimated scf accuracy    <       0.00001743 Ry

     iteration # 23     ecut=    36.75 Ry     beta=0.30
     Davidson diagonalization with overlap
     ethr =  1.08E-08,  avg # of iterations =  3.2

[...]

     negative rho (up, down):  1.091E-03 0.000E+00

     Adding external electric field

     Computed dipole along edir(3) :
        Dipole               -0.4375 Ry au,         -1.1121 Debye
        Dipole field         -0.0008 Ry au

        Potential amp.        0.0792 Ry
        Total length         46.8051 bohr

     End of self-consistent calculation

[...]

          k = 0.0504-0.0582 0.0000 ( 24479 PWs)   bands (ev):

[...]

          k =-0.0756-0.0436 0.0000 ( 24448 PWs)   bands (ev):

   -14.6546 -14.6515 -14.6413 -14.6087 -14.6029 -14.5976 -14.5913 -14.5837
   -14.5818 -14.5714 -14.5587 -14.5514 -14.5491 -14.5354 -14.5277 -14.5230
   -14.5180 -14.5166 -14.5120 -14.5023 -14.4962 -14.4849 -14.4773 -14.4691
   -14.4622 -14.4614 -14.4560 -14.4428 -14.4400 -14.4330 -14.4267 -14.4222
   -14.4110 -14.3991 -14.3979 -14.3946 -14.3890 -14.3803 -14.3753 -14.3727
   -14.3634 -14.3585 -14.3553 -14.3510 -14.3468 -14.3430 -14.3411 -14.3377
   -14.3360 -14.3294 -14.3271 -14.3209 -14.2955 -14.2819 -14.2769 -14.2703
   -14.2551 -14.2493 -14.2296 -14.2232 -11.7143  -7.3945  -7.2994  -6.2387
    -5.8810  -4.8952  -4.8552  -4.4749  -4.2028  -4.0699  -3.7095  -2.5633
    -2.2670  -2.0625  -1.0080  -0.8699  -0.2004  -0.1178   0.1029   0.3241
     0.4911   0.8701   1.4120   1.4657   1.6974   1.9027   2.2646   2.4403
     2.4979   2.8704   2.9343

     the Fermi energy is     0.4804 ev

!    total energy              =   -1641.75963307 Ry
     Harris-Foulkes estimate   =   -1641.75962375 Ry
     estimated scf accuracy    <       0.00000024 Ry

     The total energy is the sum of the following terms:

     one-electron contribution =   -9165.25578726 Ry
     hartree contribution      =    4663.41098996 Ry
     xc contribution           =    -478.29281447 Ry
     ewald contribution        =    3338.41573912 Ry
     electric field correction =       0.00037003 Ry
     smearing contrib. (-TS)   =      -0.03813046 Ry

     convergence has been achieved in  23 iterations

 BEEF-vdW xc energy contributions
           1 :   -418.757895609247
           2 :    382.438319800556
           3 :   -321.134474711516
           4 :    252.101188886073
           5 :   -191.090765640385
           6 :    146.665105376715
           7 :   -118.582612574628
           8 :    100.413354957278
           9 :   -84.4604534105179
          10 :    66.1177696633499
          11 :   -45.5160167958563
          12 :    26.1148370922026
          13 :   -11.6725529519188
          14 :    3.68955144727983
          15 :  -0.752910652606658
          16 :  -0.209515579689196
          17 :    1.90795742669218
          18 :   -5.28847732656232
          19 :    9.47829959063449
          20 :   -12.8373572076143
          21 :    14.2332471921648
          22 :   -13.6983821662952
          23 :    12.1902852372016
          24 :   -10.8151553876983
          25 :    10.1454773473721
          26 :   -10.0580318384294
          27 :    10.0642551982095
          28 :   -9.77494577016125
          29 :    9.13547027718641
          30 :   -8.33118416919615
          31 :   -38.2163447270001
          32 :   -27.6985879196454

     Forces acting on atoms (Ry/au):

     negative rho (up, down):  1.091E-03 0.000E+00
     atom    1 type  1   force =     0.00026466    0.00015097   -0.01129022
     atom    2 type  1   force =    -0.00026390    0.00015416   -0.01129375
     atom    3 type  1   force =     0.00000121   -0.00030434   -0.01128909
     atom    4 type  1   force =    -0.00000015   -0.00000015   -0.00990664
     atom    5 type  1   force =    -0.00000108   -0.00167195    0.00878398
     atom    6 type  1   force =     0.00000141   -0.00000360    0.01724576
     atom    7 type  1   force =     0.00144347    0.00083900    0.00878013
     atom    8 type  1   force =    -0.00144456    0.00083726    0.00878116
     atom    9 type  1   force =     0.00000457    0.00001062   -0.00059425
     atom   10 type  1   force =    -0.00000413    0.00046736    0.00039272
     atom   11 type  1   force =     0.00039616   -0.00024266    0.00039866
     atom   12 type  1   force =    -0.00039704   -0.00023656    0.00039637
     atom   13 type  2   force =    -0.00000062   -0.00000010   -0.00040482

     Total force =     0.031932     Total SCF correction =     0.001330

     entering subroutine stress ...

     negative rho (up, down):  1.091E-03 0.000E+00
          total   stress  (Ry/bohr**3)                   (kbar)     P=    6.89
   0.00005501  -0.00000000  -0.00000000          8.09     -0.00     -0.00
  -0.00000000   0.00005501  -0.00000000         -0.00      8.09     -0.00
  -0.00000000  -0.00000000   0.00003053         -0.00     -0.00      4.49

 !ASE

     Writing output data file calc.save

     General routines

     Parallel routines

   This run was terminated on:  13:30:21  20Jan2018

   JOB DONE.
Job  /afs/slac/g/suncat/bin/suncat-tsmpirun -x LD_LIBRARY_PATH -wdir /scratch/qe505014_9lLMc pw.x -in pw.inp

TID   HOST_NAME   COMMAND_LINE            STATUS            TERMINATION_TIME
00000 suncat0110 pw.x -in pw.inp   Done                     01/20/2018 13:30:21
00001 suncat0110 pw.x -in pw.inp   Done                     01/20/2018 13:30:21
00002 suncat0110 pw.x -in pw.inp   Done                     01/20/2018 13:30:21
00003 suncat0110 pw.x -in pw.inp   Done                     01/20/2018 13:30:21
00004 suncat0110 pw.x -in pw.inp   Done                     01/20/2018 13:30:21
00005 suncat0110 pw.x -in pw.inp   Done                     01/20/2018 13:30:21
00006 suncat0110 pw.x -in pw.inp   Done                     01/20/2018 13:30:21
00007 suncat0110 pw.x -in pw.inp   Done                     01/20/2018 13:30:21
00008 suncat0109 pw.x -in pw.inp   Done                     01/20/2018 13:30:21
00009 suncat0109 pw.x -in pw.inp   Done                     01/20/2018 13:30:21
00010 suncat0109 pw.x -in pw.inp   Done                     01/20/2018 13:30:21
00011 suncat0109 pw.x -in pw.inp   Done                     01/20/2018 13:30:21
00012 suncat0109 pw.x -in pw.inp   Done                     01/20/2018 13:30:21
00013 suncat0109 pw.x -in pw.inp   Done                     01/20/2018 13:30:21
00014 suncat0109 pw.x -in pw.inp   Done                     01/20/2018 13:30:21
00015 suncat0109 pw.x -in pw.inp   Done                     01/20/2018 13:30:21
00016 suncat0238 pw.x -in pw.inp   Done                     01/20/2018 13:30:21
00017 suncat0238 pw.x -in pw.inp   Done                     01/20/2018 13:30:21
00018 suncat0238 pw.x -in pw.inp   Done                     01/20/2018 13:30:21
00019 suncat0238 pw.x -in pw.inp   Done                     01/20/2018 13:30:21
00020 suncat0238 pw.x -in pw.inp   Done                     01/20/2018 13:30:21
00021 suncat0238 pw.x -in pw.inp   Done                     01/20/2018 13:30:21
00022 suncat0238 pw.x -in pw.inp   Done                     01/20/2018 13:30:21
00023 suncat0238 pw.x -in pw.inp   Done                     01/20/2018 13:30:21
00024 suncat0212 pw.x -in pw.inp   Done                     01/20/2018 13:30:21
00025 suncat0212 pw.x -in pw.inp   Done                     01/20/2018 13:30:21
00026 suncat0212 pw.x -in pw.inp   Done                     01/20/2018 13:30:21
00027 suncat0212 pw.x -in pw.inp   Done                     01/20/2018 13:30:21
00028 suncat0212 pw.x -in pw.inp   Done                     01/20/2018 13:30:21
00029 suncat0212 pw.x -in pw.inp   Done                     01/20/2018 13:30:21
00030 suncat0212 pw.x -in pw.inp   Done                     01/20/2018 13:30:21
00031 suncat0212 pw.x -in pw.inp   Done                     01/20/2018 13:30:21