     Program PWSCF v.5.1rc2 (svn rev. ) starts on 18Apr2018 at 23: 9:50

     Current dimensions of program PWSCF are:
     Max number of different atomic species (ntypx) = 10
     Max number of k-points (npk) =  40000
     Max angular momentum in pseudopotentials (lmaxx) =  3
     Presently stress not available with electric field

     IMPORTANT: XC functional enforced from input :
     Exchange-correlation      = BEEF-VDW ( 1  4 27 13 2)
     Any further DFT definition will be discarded
     Please, verify this is what you really want

     Subspace diagonalization in iterative solution of the eigenvalue problem:
     a serial algorithm will be used

     bravais-lattice index     =            0
     lattice parameter (alat)  =       1.8897  a.u.
     unit-cell volume          =    8507.0471 (a.u.)^3
     number of atoms/cell      =           16
     number of atomic types    =            3
     number of electrons       =       139.00
     number of Kohn-Sham states=           79
     kinetic-energy cutoff     =      36.7493  Ry
     charge density cutoff     =     367.4932  Ry
     convergence threshold     =      1.0E-05
     mixing beta               =       0.3000
     number of iterations used =           10  plain     mixing
     Exchange-correlation      = BEEF-VDW ( 1  4 27 13 2)
     nstep                     =           50

     celldm(1)=   1.889726  celldm(2)=   0.000000  celldm(3)=   0.000000
     celldm(4)=   0.000000  celldm(5)=   0.000000  celldm(6)=   0.000000

     crystal axes: (cart. coord. in units of alat)
               a(1) = (   7.468327   0.000000   0.000000 )
               a(2) = (   3.734164   6.467761   0.000000 )
               a(3) = (   0.000000   0.000000  26.097863 )

     reciprocal axes: (cart. coord. in units 2 pi/alat)
               b(1) = (  0.133899 -0.077307  0.000000 )
               b(2) = (  0.000000  0.154613  0.000000 )
               b(3) = (  0.000000  0.000000  0.038317 )

     PseudoPot. # 1 for La read from file:
     /home/mamunm/src/pseudo/gbrv1.5pbe/La.UPF
     MD5 check sum: 5937b0c7494ba0601a847275249473aa
     Pseudo is Ultrasoft + core correction, Zval = 11.0
     Generated by new atomic code, or converted to UPF format
     Using radial grid of  995 points,  8 beta functions with:
                l(1) =   0
                l(2) =   0
                l(3) =   1
                l(4) =   1
                l(5) =   2
                l(6) =   2
                l(7) =   3
                l(8) =   3
     Q(r) pseudized with  8 coefficients,  rinner =    1.700   1.700   1.700
                                                       1.700   1.700   1.700
                                                       1.700

     PseudoPot. # 2 for C  read from file:
     /home/mamunm/src/pseudo/gbrv1.5pbe/C.UPF
     MD5 check sum: d1aef80898a10debaa0f26306b886e00
     Pseudo is Ultrasoft + core correction, Zval =  4.0
     Generated by new atomic code, or converted to UPF format
     Using radial grid of  721 points,  4 beta functions with:
                l(1) =   0
                l(2) =   0
                l(3) =   1
                l(4) =   1
     Q(r) pseudized with  8 coefficients,  rinner =    1.100   1.100   1.100

     PseudoPot. # 3 for H  read from file:
     /home/mamunm/src/pseudo/gbrv1.5pbe/H.UPF
     MD5 check sum: 761ae9a214b05c3daf00ab9f6b793d6f
     Pseudo is Ultrasoft, Zval =  1.0
     Generated by new atomic code, or converted to UPF format
     Using radial grid of  615 points,  2 beta functions with:
                l(1) =   0
                l(2) =   0
     Q(r) pseudized with  8 coefficients,  rinner =    0.700

     vdW kernel table read from file vdW_kernel_table
     MD5 check sum: 095c7af220d748ca6e76c0b4c6cfb241

     atomic species   valence    mass     pseudopotential
        La1           11.00   138.90547     La( 1.00)
        C1             4.00    12.01100     C ( 1.00)
        H1             1.00     1.00800     H ( 1.00)

     No symmetry found

   Cartesian axes

     site n.     atom                  positions (alat units)
         1           La1 tau(   1) = (   1.8670818   1.0779602  10.0000000  )
         2           La1 tau(   2) = (   5.6012453   1.0779602  10.0000000  )
         3           La1 tau(   3) = (   3.7341635   4.3118406  10.0000000  )
         4           La1 tau(   4) = (   7.4683270   4.3118406  10.0000000  )
         5           La1 tau(   5) = (   7.4683270   2.1559203  13.0489317  )
         6           La1 tau(   6) = (   3.7341635   2.1559203  13.0489317  )
         7           La1 tau(   7) = (   9.3354088   5.3898008  13.0489317  )
         8           La1 tau(   8) = (   5.6012453   5.3898008  13.0489317  )
         9           La1 tau(   9) = (   0.0000000   0.0000000  16.0978635  )
        10           La1 tau(  10) = (   3.7341635   0.0000000  16.0978635  )
        11           La1 tau(  11) = (   1.8670818   3.2338805  16.0978635  )
        12           La1 tau(  12) = (   5.6012453   3.2338805  16.0978635  )
        13           C1  tau(  13) = (   1.8670818   1.0779602  17.9373635  )
        14           H1  tau(  14) = (   2.9570818   1.0779602  18.5673635  )
        15           H1  tau(  15) = (   1.4170818   1.9674602  18.5673635  )
        16           H1  tau(  16) = (   1.4170818   0.1884602  18.5673635  )

     number of k points=    20  Fermi-Dirac smearing, width (Ry)=  0.0110
                       cart. coord. in units 2pi/alat
        k(    1) = (   0.0000000   0.0000000   0.0000000), wk =   0.0555556
        k(    2) = (   0.0000000   0.0257688   0.0000000), wk =   0.1111111
        k(    3) = (   0.0000000   0.0515377   0.0000000), wk =   0.1111111
        k(    4) = (   0.0000000  -0.0773065   0.0000000), wk =   0.0555556
        k(    5) = (   0.0223165  -0.0128844   0.0000000), wk =   0.1111111
        k(    6) = (   0.0223165   0.0128844   0.0000000), wk =   0.1111111
        k(    7) = (   0.0223165   0.0386533   0.0000000), wk =   0.1111111
        k(    8) = (   0.0223165  -0.0901909   0.0000000), wk =   0.1111111
        k(    9) = (   0.0223165  -0.0644221   0.0000000), wk =   0.1111111
        k(   10) = (   0.0223165  -0.0386533   0.0000000), wk =   0.1111111
        k(   11) = (   0.0446329  -0.0257688   0.0000000), wk =   0.1111111
        k(   12) = (   0.0446329   0.0000000   0.0000000), wk =   0.1111111
        k(   13) = (   0.0446329   0.0257688   0.0000000), wk =   0.1111111
        k(   14) = (   0.0446329  -0.1030753   0.0000000), wk =   0.1111111
        k(   15) = (   0.0446329  -0.0773065   0.0000000), wk =   0.1111111
        k(   16) = (   0.0446329  -0.0515377   0.0000000), wk =   0.1111111
        k(   17) = (  -0.0669494   0.0386533   0.0000000), wk =   0.0555556
        k(   18) = (  -0.0669494   0.0644221   0.0000000), wk =   0.1111111
        k(   19) = (  -0.0669494   0.0901909   0.0000000), wk =   0.1111111
        k(   20) = (  -0.0669494  -0.0386533   0.0000000), wk =   0.0555556

     Largest allocated arrays     est. size (Mb)     dimensions
     Largest temporary arrays     est. size (Mb)     dimensions

     Initial potential from superposition of free atoms
     Check: negative starting charge=   -0.830898

     starting charge  138.61511, renormalised to  139.00000

     negative rho (up, down):  8.332E-01 0.000E+00

     *
     * You are using vdW-DF for exchange-correlation in this calculation.
     * Please cite the following three references that made this development
     * possible:
     *
     *   M. Dion, H. Rydberg, E. Schroder, D. C. Langreth, and
     *   B. I. Lundqvist, Phys. Rev. Lett. 92, 246401 (2004).
     *
     *   T. Thonhauser, V. R. Cooper, S. Li, A. Puzder, P. Hyldgaard, and
     *   D. C. Langreth, Phys. Rev. B 76, 125112 (2007).
     *
     *   G. Roman-Perez and J. M. Soler, Phys. Rev. Lett. 103, 096102 (2009).
     *
     *
     * If you are using vdW-DF2, please also cite:
     *
     *   K. Lee, E. D. Murray, L. Kong, B. I. Lundqvist, and
     *   D. C. Langreth, Phys. Rev. B 82, 081101(R) (2010).
     *
     *
     * If you are calculating the stress with vdW-DF, please also cite:
     *
     *   R. Sabatini, E. Kucukbenli, B. Kolb, T. Thonhauser, and
     *   S. de Gironcoli, J. Phys.: Condens. Matter 24, 424209 (2012).
     *

     Carrying out vdW-DF run using the following parameters:

     Nqs =      20    Nr_points =    1024   r_max =   100.000
     q_mesh =
               0.00001000     0.04494208     0.09755937     0.15916263
               0.23128650     0.31572767     0.41458969     0.53033537
               0.66584808     0.82450364     1.01025438     1.22772762
               1.48234092     1.78043706     2.12944203     2.53805004
               3.01644009     3.57652955     4.23227104     5.00000000

     Gradients computed in reciprocal space

     Adding external electric field

     Computed dipole along edir(3) :
        Dipole               -0.1888 Ry au,         -0.4799 Debye
        Dipole field         -0.0003 Ry au

        Potential amp.        0.0268 Ry
        Total length         48.0849 bohr

     Starting wfc are  247 randomized atomic wfcs

     Self-consistent Calculation

     iteration #  1     ecut=    36.75 Ry     beta=0.30
     Davidson diagonalization with overlap
     ethr =  1.00E-02,  avg # of iterations =  2.0

[...]

     total energy              =   -1260.45761673 Ry
     Harris-Foulkes estimate   =   -1264.40181610 Ry
     estimated scf accuracy    <       8.30548266 Ry

[...]

     iteration #  9     ecut=    36.75 Ry     beta=0.30
     Davidson diagonalization with overlap
     c_bands:  1 eigenvalues not converged
     c_bands:  1 eigenvalues not converged
     c_bands:  1 eigenvalues not converged
     c_bands:  1 eigenvalues not converged
     c_bands:  1 eigenvalues not converged
     ethr =  7.88E-06,  avg # of iterations = 14.8

[...]

     End of self-consistent calculation

          k = 0.0000 0.0000 0.0000 ( 31997 PWs)   bands (ev):

   -31.3261 -31.3154 -31.1976 -31.1927 -31.1924 -31.1889 -31.1785 -31.1729
   -30.8593 -30.7377 -30.7374 -30.7371 -15.4726 -15.4285 -15.4278 -15.3854
   -15.3594 -15.3586 -15.2861 -15.1801 -15.1752 -15.1741 -15.0126 -14.8385
   -14.8291 -14.8251 -14.6490 -14.6480 -14.6460 -14.5928 -14.5915 -14.5863
   -14.5671 -14.5656 -14.5576 -14.3298 -14.3297 -14.3194 -14.3191 -14.2536
   -14.2421 -14.2417 -14.2228 -14.1384 -14.1383 -14.1381 -13.9099 -13.9099
   -11.1700  -4.3225  -3.8917  -1.8588  -0.7048   0.0000   0.3496   0.3856
     0.4053   0.4093   0.6622   0.6629   0.7675   0.8785   0.8813   0.9604
     1.0198   1.0226   1.2651   1.7440   1.7547   2.1927   2.2863   2.4446
     2.5462   2.5608   2.6559   2.9033   3.1336   3.2204   3.2341

[...]

          k =-0.0669 0.0387 0.0000 ( 31970 PWs)   bands (ev):

[...]

     the Fermi energy is     2.0350 ev

!    total energy              =   -1263.43070327 Ry
     Harris-Foulkes estimate   =   -1263.43070814 Ry
     estimated scf accuracy    <       0.00000379 Ry

     The total energy is the sum of the following terms:

     one-electron contribution =   -4797.57654349 Ry
     hartree contribution      =    2412.96936150 Ry
     xc contribution           =    -614.44401209 Ry
     ewald contribution        =    1735.74303427 Ry
     electric field correction =       0.00000030 Ry
     smearing contrib. (-TS)   =      -0.12254375 Ry

     convergence has been achieved in  18 iterations

 BEEF-vdW xc energy contributions
           1 :   -544.194940363314
           2 :    500.472620298294
           3 :   -423.201604634883
           4 :    328.906321419392
           5 :   -235.087795877037
           6 :    155.579855854845
           7 :   -97.9447659631101
           8 :    63.1730148354734
           9 :   -47.1902341176306
          10 :    43.2573440929865
          11 :   -44.3530320388609
          12 :    44.8845485819627
          13 :   -41.4945718338550
          14 :    33.1091911633471
          15 :   -20.5532348247514
          16 :    5.98257291032314
          17 :    7.77769595143536
          18 :   -17.9906352789397
          19 :    22.7910562083191
          20 :   -21.7922776249159
          21 :    16.2579937877348
          22 :   -8.70365585174454
          23 :    2.01946773172949
          24 :    1.56320062926295
          25 :   -1.24070120479723
          26 :   -2.19043504883166
          27 :    6.82342573567075
          28 :   -10.5518617530386
          29 :    11.9670713214662
          30 :   -10.8467299714202
          31 :   -46.4635567934480
          32 :   -33.3425539847412

     Forces acting on atoms (Ry/au):

     negative rho (up, down):  5.856E-01 0.000E+00
     atom    1 type  1   force =     0.00001322   -0.00000995    0.00280943
     atom    2 type  1   force =    -0.00005266   -0.00200365    0.00455305
     atom    3 type  1   force =    -0.00169144    0.00105436    0.00456024
     atom    4 type  1   force =     0.00178206    0.00095506    0.00453968
     atom    5 type  1   force =    -0.00222555    0.00128622   -0.00070670
     atom    6 type  1   force =     0.00217014    0.00140697   -0.00083334
     atom    7 type  1   force =    -0.00003448   -0.00007138   -0.00494504
     atom    8 type  1   force =    -0.00012739   -0.00265353   -0.00077703
     atom    9 type  1   force =     0.00717434    0.00400542   -0.00105636
     atom   10 type  1   force =    -0.00749865    0.00476452   -0.00000193
     atom   11 type  1   force =    -0.00005706   -0.00901129   -0.00083918
     atom   12 type  1   force =     0.00024008   -0.00015153   -0.00769952
     atom   13 type  2   force =     0.04764922    0.00048989    0.15153908
     atom   14 type  3   force =    -0.07629705   -0.00019194   -0.06442644
     atom   15 type  3   force =     0.01493531   -0.04183947   -0.04293613
     atom   16 type  3   force =     0.01401989    0.04197029   -0.04377981

     Total force =     0.207816     Total SCF correction =     0.003362

     entering subroutine stress ...

     negative rho (up, down):  5.856E-01 0.000E+00
          total   stress  (Ry/bohr**3)                   (kbar)     P=   -4.05
  -0.00002504   0.00000033  -0.00000640         -3.68      0.05     -0.94
   0.00000033  -0.00002037   0.00000018          0.05     -3.00      0.03
  -0.00000640   0.00000018  -0.00003719         -0.94      0.03     -5.47

     BFGS Geometry Optimization

     number of scf cycles    =   1
     number of bfgs steps    =   0

     energy   new            =   -1263.4307032672 Ry

     new trust radius        =       0.1588545919 bohr
     new conv_thr            =       0.0000099958 Ry

ATOMIC_POSITIONS (crystal)
La1      0.166666667   0.166666667   0.383173129    0   0   0
La1      0.666666667   0.166666667   0.383173129    0   0   0
La1      0.166666667   0.666666667   0.383173129    0   0   0
La1      0.666666667   0.666666667   0.383173129    0   0   0
La1      0.833333333   0.333333333   0.500000000    0   0   0
La1      0.333333333   0.333333333   0.500000000    0   0   0
La1      0.833333333   0.833333333   0.500000000    0   0   0
La1      0.333333333   0.833333333   0.500000000    0   0   0
La1      0.000344489   0.000327715   0.616805452
La1      0.499273763   0.000389822   0.616826832
La1      0.000364599   0.499262717   0.616809855
La1      0.500023210   0.499987603   0.616670751
C1       0.170022868   0.166706748   0.690384273
H1       0.307218089   0.166650962   0.710145123
H1       0.040417934   0.300771733   0.710580874
H1       0.174452786   0.032572303   0.710563767

     Writing output data file calc.save
     Check: negative starting charge=   -0.830898
     NEW-OLD atomic charge density approx. for the potential
     Check: negative starting charge=   -0.830817

[...]

     energy   old            =   -1263.4307032672 Ry
     energy   new            =   -1263.4601625068 Ry

     CASE: energy  _new < energy  _old

[...]

     Threshold (ethr) on eigenvalues was too large:
     Diagonalizing with lowered threshold

     Davidson diagonalization with overlap
     ethr =  9.68E-08,  avg # of iterations =  7.5

[...]

     iteration #  6     ecut=    36.75 Ry     beta=0.30
     Davidson diagonalization with overlap
     c_bands:  1 eigenvalues not converged
     c_bands:  1 eigenvalues not converged
     c_bands:  1 eigenvalues not converged
     ethr =  2.89E-09,  avg # of iterations = 11.7

[...]

     Total force =     0.004504     Total SCF correction =     0.000305

[...]

     number of scf cycles    =  14
     number of bfgs steps    =  13

     energy   old            =   -1263.4658681677 Ry
     energy   new            =   -1263.4659222218 Ry

     CASE: energy  _new < energy  _old

     new trust radius        =       0.0115097014 bohr
     new conv_thr            =       0.0000001000 Ry

ATOMIC_POSITIONS (crystal)
La1      0.166666667   0.166666667   0.383173129    0   0   0
La1      0.666666667   0.166666667   0.383173129    0   0   0
La1      0.166666667   0.666666667   0.383173129    0   0   0
La1      0.666666667   0.666666667   0.383173129    0   0   0
La1      0.833333333   0.333333333   0.500000000    0   0   0
La1      0.333333333   0.333333333   0.500000000    0   0   0
La1      0.833333333   0.833333333   0.500000000    0   0   0
La1      0.333333333   0.833333333   0.500000000    0   0   0
La1      0.005397630   0.005681505   0.617144618
La1      0.492357957   0.003614750   0.616480295
La1      0.005798253   0.490641206   0.616764109
La1      0.500669935   0.499813571   0.611774875
C1       0.171053616   0.167010119   0.692460714
H1       0.305534215   0.168657909   0.709697972
H1       0.036956846   0.300288300   0.710572532
H1       0.174334888   0.031162874   0.710249931

     Writing output data file calc.save
     Check: negative starting charge=   -0.832695
     NEW-OLD atomic charge density approx. for the potential
     Check: negative starting charge=   -0.832496

[...]

     Self-consistent Calculation

[...]

     Threshold (ethr) on eigenvalues was too large:
     Diagonalizing with lowered threshold

     Davidson diagonalization with overlap
     ethr =  7.06E-08,  avg # of iterations =  8.8

[...]

     total energy              =   -1263.46595570 Ry
     Harris-Foulkes estimate   =   -1263.46595575 Ry
     estimated scf accuracy    <       0.00000047 Ry

     iteration # 11     ecut=    36.75 Ry     beta=0.30
     Davidson diagonalization with overlap
     ethr =  2.01E-10,  avg # of iterations =  4.4

[...]

     negative rho (up, down):  5.850E-01 0.000E+00

     Adding external electric field

     Computed dipole along edir(3) :
        Dipole                0.0175 Ry au,          0.0444 Debye
        Dipole field          0.0000 Ry au

        Potential amp.       -0.0025 Ry
        Total length         48.0849 bohr

     End of self-consistent calculation

[...]

          k = 0.0446-0.0515 0.0000 ( 31991 PWs)   bands (ev):

[...]

          k =-0.0669-0.0387 0.0000 ( 31970 PWs)   bands (ev):

   -31.2928 -31.2776 -31.2741 -31.2599 -31.2122 -31.2104 -31.2077 -31.1548
   -30.8256 -30.7887 -30.7428 -30.7281 -15.3065 -15.2586 -15.2244 -15.1869
   -15.1837 -15.1553 -15.0745 -15.0655 -15.0402 -15.0095 -14.9751 -14.9341
   -14.9260 -14.8941 -14.8908 -14.8293 -14.8167 -14.8059 -14.8055 -14.7605
   -14.5771 -14.5348 -14.4898 -14.4774 -14.4665 -14.4388 -14.4216 -14.3850
   -14.3449 -14.3313 -14.2525 -14.2052 -14.1902 -14.1667 -14.0401 -14.0155
   -11.6179  -4.7696  -4.7507  -1.1685   0.4308   0.4642   0.8483   0.9060
     1.1717   1.1799   1.2390   1.2438   1.2617   1.3726   1.6335   1.6719
     1.7999   1.8153   1.8498   1.8580   2.0888   2.1231   2.1719   2.1980
     2.2234   2.2479   2.2790   2.4658   2.5118   2.5284   2.5583

     the Fermi energy is     2.0197 ev

!    total energy              =   -1263.46595567 Ry
     Harris-Foulkes estimate   =   -1263.46595574 Ry
     estimated scf accuracy    <       0.00000006 Ry

     The total energy is the sum of the following terms:

     one-electron contribution =   -4812.61534680 Ry
     hartree contribution      =    2420.45781534 Ry
     xc contribution           =    -614.64326077 Ry
     ewald contribution        =    1743.45714281 Ry
     electric field correction =       0.00000045 Ry
     smearing contrib. (-TS)   =      -0.12230670 Ry

     convergence has been achieved in  11 iterations

 BEEF-vdW xc energy contributions
           1 :   -544.374016981743
           2 :    500.640570871446
           3 :   -423.359633305208
           4 :    329.056750407159
           5 :   -235.219974928216
           6 :    155.676813185533
           7 :   -98.0002147637388
           8 :    63.1985627535373
           9 :   -47.2086431439222
          10 :    43.2890177695920
          11 :   -44.4044322494371
          12 :    44.9454550003114
          13 :   -41.5466831015353
          14 :    33.1400194064113
          15 :   -20.5642031488087
          16 :    5.98684882751490
          17 :    7.76409505731340
          18 :   -17.9600242685201
          19 :    22.7509994763896
          20 :   -21.7620403353357
          21 :    16.2562610682294
          22 :   -8.73571201639265
          23 :    2.07237020039997
          24 :    1.51384081312722
          25 :   -1.21636796869234
          26 :   -2.18407757899513
          27 :    6.79960262930547
          28 :   -10.5337746415348
          29 :    11.9728119007157
          30 :   -10.8780326579123
          31 :   -46.4751844237942
          32 :   -33.3532408458643

     Forces acting on atoms (Ry/au):

     negative rho (up, down):  5.850E-01 0.000E+00
     atom    1 type  1   force =     0.00000827    0.00000017    0.00244737
     atom    2 type  1   force =    -0.00004847   -0.00169227    0.00452894
     atom    3 type  1   force =    -0.00140370    0.00089197    0.00448574
     atom    4 type  1   force =     0.00153149    0.00080629    0.00457246
     atom    5 type  1   force =    -0.00041546    0.00026112   -0.00505223
     atom    6 type  1   force =     0.00054310    0.00020013   -0.00535312
     atom    7 type  1   force =     0.00019683    0.00001343   -0.00227860
     atom    8 type  1   force =    -0.00014241   -0.00055127   -0.00514778
     atom    9 type  1   force =    -0.00005271   -0.00010920    0.00020953
     atom   10 type  1   force =    -0.00003926    0.00019396    0.00049976
     atom   11 type  1   force =     0.00021479   -0.00002536    0.00036787
     atom   12 type  1   force =     0.00013663    0.00005016    0.00026426
     atom   13 type  2   force =     0.00147011   -0.00004273    0.00156071
     atom   14 type  3   force =    -0.00076390    0.00053157   -0.00081434
     atom   15 type  3   force =    -0.00105190   -0.00034049   -0.00016912
     atom   16 type  3   force =    -0.00018342   -0.00018749   -0.00012144

     Total force =     0.002843     Total SCF correction =     0.000585
     SCF correction compared to forces is large: reduce conv_thr to get better values

     entering subroutine stress ...

     negative rho (up, down):  5.850E-01 0.000E+00
          total   stress  (Ry/bohr**3)                   (kbar)     P=   -0.89
  -0.00000378  -0.00000013  -0.00000068         -0.56     -0.02     -0.10
  -0.00000013  -0.00000376   0.00000002         -0.02     -0.55      0.00
  -0.00000068   0.00000002  -0.00001063         -0.10      0.00     -1.56

     bfgs converged in  15 scf cycles and  14 bfgs steps
     (criteria: energy <  1.0E+00, force <  1.9E-03)

     End of BFGS Geometry Optimization

     Final energy   =   -1263.4659556740 Ry
Begin final coordinates

ATOMIC_POSITIONS (crystal)
La1      0.166666667   0.166666667   0.383173129    0   0   0
La1      0.666666667   0.166666667   0.383173129    0   0   0
La1      0.166666667   0.666666667   0.383173129    0   0   0
La1      0.666666667   0.666666667   0.383173129    0   0   0
La1      0.833333333   0.333333333   0.500000000    0   0   0
La1      0.333333333   0.333333333   0.500000000    0   0   0
La1      0.833333333   0.833333333   0.500000000    0   0   0
La1      0.333333333   0.833333333   0.500000000    0   0   0
La1      0.005397630   0.005681505   0.617144618
La1      0.492357957   0.003614750   0.616480295
La1      0.005798253   0.490641206   0.616764109
La1      0.500669935   0.499813571   0.611774875
C1       0.171053616   0.167010119   0.692460714
H1       0.305534215   0.168657909   0.709697972
H1       0.036956846   0.300288300   0.710572532
H1       0.174334888   0.031162874   0.710249931
End final coordinates

     Writing output data file calc.save

     General routines

     Parallel routines

   This run was terminated on:   1:41:46  19Apr2018

   JOB DONE.