     Program PWSCF v.5.1rc2 starts on  9May2018 at  7:48:47

     Current dimensions of program PWSCF are:
     Max number of different atomic species (ntypx) = 10
     Max number of k-points (npk) =  40000
     Max angular momentum in pseudopotentials (lmaxx) =  3
     Presently stress not available with electric field

     IMPORTANT: XC functional enforced from input :
     Exchange-correlation      = BEEF-VDW ( 1  4 27 13 2)
     Any further DFT definition will be discarded
     Please, verify this is what you really want

     Generating pointlists ...
     new r_m :   0.4125 (alat units)  0.7795 (a.u.) for type    1
     new r_m :   0.4125 (alat units)  0.7795 (a.u.) for type    2
     new r_m :   0.4125 (alat units)  0.7795 (a.u.) for type    3

     bravais-lattice index     =            0
     lattice parameter (alat)  =       1.8897  a.u.
     unit-cell volume          =    3747.1846 (a.u.)^3
     number of atoms/cell      =           14
     number of atomic types    =            3
     number of electrons       =       185.00
     number of Kohn-Sham states=          102
     kinetic-energy cutoff     =      36.7493  Ry
     charge density cutoff     =     367.4932  Ry
     convergence threshold     =      1.0E-05
     mixing beta               =       0.3000
     number of iterations used =           10  plain     mixing
     Exchange-correlation      = BEEF-VDW ( 1  4 27 13 2)
     nstep                     =           50

     celldm(1)=   1.889726  celldm(2)=   0.000000  celldm(3)=   0.000000
     celldm(4)=   0.000000  celldm(5)=   0.000000  celldm(6)=   0.000000

     crystal axes: (cart. coord. in units of alat)
               a(1) = (   5.147050   0.000000   0.000000 )
               a(2) = (   2.573525   4.457476   0.000000 )
               a(3) = (   0.000000   0.000000  24.202549 )

     reciprocal axes: (cart. coord. in units 2 pi/alat)
               b(1) = (  0.194286 -0.112171 -0.000000 )
               b(2) = (  0.000000  0.224342  0.000000 )
               b(3) = (  0.000000  0.000000  0.041318 )

     PseudoPot. # 1 for Mn read from file:
     /home/users/winther/src/pseudo/Mn.UPF
     MD5 check sum: 82ef2b46521d7a7d9e736dc3972e4928
     Pseudo is Ultrasoft + core correction, Zval = 15.0
     Generated by new atomic code, or converted to UPF format
     Using radial grid of  859 points,  6 beta functions with:
                l(1) =   0
                l(2) =   0
                l(3) =   1
                l(4) =   1
                l(5) =   2
                l(6) =   2
     Q(r) pseudized with  8 coefficients,  rinner =    0.950   0.950   0.950
                                                       0.950   0.950

     PseudoPot. # 2 for C  read from file:
     /home/users/winther/src/pseudo/C.UPF
     MD5 check sum: d1aef80898a10debaa0f26306b886e00
     Pseudo is Ultrasoft + core correction, Zval =  4.0
     Generated by new atomic code, or converted to UPF format
     Using radial grid of  721 points,  4 beta functions with:
                l(1) =   0
                l(2) =   0
                l(3) =   1
                l(4) =   1
     Q(r) pseudized with  8 coefficients,  rinner =    1.100   1.100   1.100

     PseudoPot. # 3 for H  read from file:
     /home/users/winther/src/pseudo/H.UPF
     MD5 check sum: 761ae9a214b05c3daf00ab9f6b793d6f
     Pseudo is Ultrasoft, Zval =  1.0
     Generated by new atomic code, or converted to UPF format
     Using radial grid of  615 points,  2 beta functions with:
                l(1) =   0
                l(2) =   0
     Q(r) pseudized with  8 coefficients,  rinner =    0.700

     vdW kernel table read from file vdW_kernel_table
     MD5 check sum: 095c7af220d748ca6e76c0b4c6cfb241

     atomic species   valence    mass     pseudopotential
        Mn1           15.00    54.93804     Mn( 1.00)
        C1             4.00    12.01100     C ( 1.00)
        H1             1.00     1.00800     H ( 1.00)

     Starting magnetic structure
     atomic species   magnetization
        Mn1          0.193
        C1           0.000
        H1           0.000

     No symmetry found

   Cartesian axes

     site n.     atom                  positions (alat units)
         1           Mn1 tau(   1) = (   0.0000000   0.0000000  10.0000000  )
         2           Mn1 tau(   2) = (   1.2867625   2.2287380  10.0000000  )
         3           Mn1 tau(   3) = (   2.5735249   0.0000000  10.0000000  )
         4           Mn1 tau(   4) = (   3.8602874   2.2287380  10.0000000  )
         5           Mn1 tau(   5) = (   5.1470499   2.9716506  12.1012743  )
         6           Mn1 tau(   6) = (   3.8602874   0.7429127  12.1012743  )
         7           Mn1 tau(   7) = (   2.5735249   2.9716506  12.1012743  )
         8           Mn1 tau(   8) = (   1.2867625   0.7429127  12.1012743  )
         9           Mn1 tau(   9) = (   2.5729805   1.4859362  14.2013976  )
        10           Mn1 tau(  10) = (   3.8606631   3.7139626  14.2022569  )
        11           Mn1 tau(  11) = (   5.1464482   1.4876776  14.2025351  )
        12           Mn1 tau(  12) = (   6.4327546   3.7153858  14.2013278  )
        13           C1  tau(  13) = (   5.1472587   2.9696910  15.6026944  )
        14           H1  tau(  14) = (   3.8604843   2.2294764  14.8356087  )

     number of k points=    40  Fermi-Dirac smearing, width (Ry)=  0.0110
                       cart. coord. in units 2pi/alat
        k(    1) = (   0.0000000   0.0000000   0.0000000), wk =   0.0277778
        k(    2) = (   0.0000000   0.0373904   0.0000000), wk =   0.0555556
        k(    3) = (   0.0000000   0.0747807   0.0000000), wk =   0.0555556
        k(    4) = (   0.0000000  -0.1121711   0.0000000), wk =   0.0277778
        k(    5) = (   0.0323810  -0.0186952  -0.0000000), wk =   0.0555556
        k(    6) = (   0.0323810   0.0186952  -0.0000000), wk =   0.0555556
        k(    7) = (   0.0323810   0.0560856  -0.0000000), wk =   0.0555556
        k(    8) = (   0.0323810  -0.1308663  -0.0000000), wk =   0.0555556
        k(    9) = (   0.0323810  -0.0934759  -0.0000000), wk =   0.0555556
        k(   10) = (   0.0323810  -0.0560856  -0.0000000), wk =   0.0555556
        k(   11) = (   0.0647620  -0.0373904  -0.0000000), wk =   0.0555556
        k(   12) = (   0.0647620  -0.0000000  -0.0000000), wk =   0.0555556
        k(   13) = (   0.0647620   0.0373904  -0.0000000), wk =   0.0555556
        k(   14) = (   0.0647620  -0.1495615  -0.0000000), wk =   0.0555556
        k(   15) = (   0.0647620  -0.1121711  -0.0000000), wk =   0.0555556
        k(   16) = (   0.0647620  -0.0747807  -0.0000000), wk =   0.0555556
        k(   17) = (  -0.0971430   0.0560856   0.0000000), wk =   0.0277778
        k(   18) = (  -0.0971430   0.0934759   0.0000000), wk =   0.0555556
        k(   19) = (  -0.0971430   0.1308663   0.0000000), wk =   0.0555556
        k(   20) = (  -0.0971430  -0.0560856   0.0000000), wk =   0.0277778
        k(   21) = (   0.0000000   0.0000000   0.0000000), wk =   0.0277778
        k(   22) = (   0.0000000   0.0373904   0.0000000), wk =   0.0555556
        k(   23) = (   0.0000000   0.0747807   0.0000000), wk =   0.0555556
        k(   24) = (   0.0000000  -0.1121711   0.0000000), wk =   0.0277778
        k(   25) = (   0.0323810  -0.0186952  -0.0000000), wk =   0.0555556
        k(   26) = (   0.0323810   0.0186952  -0.0000000), wk =   0.0555556
        k(   27) = (   0.0323810   0.0560856  -0.0000000), wk =   0.0555556
        k(   28) = (   0.0323810  -0.1308663  -0.0000000), wk =   0.0555556
        k(   29) = (   0.0323810  -0.0934759  -0.0000000), wk =   0.0555556
        k(   30) = (   0.0323810  -0.0560856  -0.0000000), wk =   0.0555556
        k(   31) = (   0.0647620  -0.0373904  -0.0000000), wk =   0.0555556
        k(   32) = (   0.0647620  -0.0000000  -0.0000000), wk =   0.0555556
        k(   33) = (   0.0647620   0.0373904  -0.0000000), wk =   0.0555556
        k(   34) = (   0.0647620  -0.1495615  -0.0000000), wk =   0.0555556
        k(   35) = (   0.0647620  -0.1121711  -0.0000000), wk =   0.0555556
        k(   36) = (   0.0647620  -0.0747807  -0.0000000), wk =   0.0555556
        k(   37) = (  -0.0971430   0.0560856   0.0000000), wk =   0.0277778
        k(   38) = (  -0.0971430   0.0934759   0.0000000), wk =   0.0555556
        k(   39) = (  -0.0971430   0.1308663   0.0000000), wk =   0.0555556
        k(   40) = (  -0.0971430  -0.0560856   0.0000000), wk =   0.0277778

     Largest allocated arrays     est. size (Mb)     dimensions
     Largest temporary arrays     est. size (Mb)     dimensions

     Check: negative/imaginary core charge=   -0.000010    0.000000

     Initial potential from superposition of free atoms
     Check: negative starting charge=(component1):   -0.001647
     Check: negative starting charge=(component2):   -0.001099

     starting charge  178.99893, renormalised to  185.00000

     negative rho (up, down):  1.702E-03 1.136E-03

     *
     * You are using vdW-DF for exchange-correlation in this calculation.
     * Please cite the following three references that made this development
     * possible:
     *
     *   M. Dion, H. Rydberg, E. Schroder, D. C. Langreth, and
     *   B. I. Lundqvist, Phys. Rev. Lett. 92, 246401 (2004).
     *
     *   T. Thonhauser, V. R. Cooper, S. Li, A. Puzder, P. Hyldgaard, and
     *   D. C. Langreth, Phys. Rev. B 76, 125112 (2007).
     *
     *   G. Roman-Perez and J. M. Soler, Phys. Rev. Lett. 103, 096102 (2009).
     *
     *
     * If you are using vdW-DF2, please also cite:
     *
     *   K. Lee, E. D. Murray, L. Kong, B. I. Lundqvist, and
     *   D. C. Langreth, Phys. Rev. B 82, 081101(R) (2010).
     *
     *
     * If you are calculating the stress with vdW-DF, please also cite:
     *
     *   R. Sabatini, E. Kucukbenli, B. Kolb, T. Thonhauser, and
     *   S. de Gironcoli, J. Phys.: Condens. Matter 24, 424209 (2012).
     *

     Carrying out vdW-DF run using the following parameters:

     Nqs =      20    Nr_points =    1024   r_max =   100.000
     q_mesh =
               0.00001000     0.04494208     0.09755937     0.15916263
               0.23128650     0.31572767     0.41458969     0.53033537
               0.66584808     0.82450364     1.01025438     1.22772762
               1.48234092     1.78043706     2.12944203     2.53805004
               3.01644009     3.57652955     4.23227104     5.00000000

     Gradients computed in reciprocal space

     Adding external electric field

     Computed dipole along edir(3) :
        Dipole               -1.0603 Ry au,         -2.6950 Debye
        Dipole field         -0.0036 Ry au

        Potential amp.        0.3171 Ry
        Total length         44.5928 bohr

[...]

     Starting wfc are  161 randomized atomic wfcs

     Self-consistent Calculation

     iteration #  1     ecut=    36.75 Ry     beta=0.30
     Davidson diagonalization with overlap
     ethr =  1.00E-02,  avg # of iterations =  2.0

[...]

     Magnetic moment per site:
     atom:    1    charge:    6.1067    magn:    1.0647    constr:    0.0000
     atom:    2    charge:    6.1070    magn:    1.0638    constr:    0.0000
[...]
     atom:   13    charge:    0.6669    magn:   -0.0090    constr:    0.0000
     atom:   14    charge:    0.3558    magn:    0.0033    constr:    0.0000

     total energy              =   -2517.58305213 Ry
     Harris-Foulkes estimate   =   -2560.37043293 Ry
     estimated scf accuracy    <      90.00665423 Ry

     total magnetization       =    18.00 Bohr mag/cell
     absolute magnetization    =    18.65 Bohr mag/cell

[...]

     iteration # 64     ecut=    36.75 Ry     beta=0.30
     Davidson diagonalization with overlap
     c_bands:  1 eigenvalues not converged
     ethr =  7.12E-06,  avg # of iterations =  7.1

[...]

     End of self-consistent calculation

 ------ SPIN UP ------------

          k = 0.0000 0.0000 0.0000 ( 14177 PWs)   bands (ev):

   -79.7402 -79.5450 -79.4846 -79.4833 -79.4810 -79.3035 -79.1596 -79.1290
   -77.2634 -77.2060 -77.1820 -77.1698 -48.6299 -48.4387 -48.4053 -48.4032
   -48.3518 -48.3476 -48.3452 -48.3377 -48.3364 -48.3345 -48.1533 -48.0835
   -48.0472 -48.0457 -48.0441 -48.0091 -47.9883 -47.9550 -47.9543 -47.9046
   -47.9033 -47.7185 -47.6751 -47.6663 -46.2258 -46.2123 -46.1978 -45.9503
   -45.9105 -45.9082 -45.8987 -45.8912 -45.8804 -45.8667 -45.8001 -45.7969
    -9.7517  -6.2458  -5.7697  -4.3601  -3.3634  -3.1889  -3.0688  -3.0388
    -3.0317  -2.9349  -2.9048  -2.8852  -2.8462  -2.3617  -2.2513  -2.1612
    -2.1293  -2.0987  -1.9782  -1.3901  -1.2865  -1.2321  -0.7968  -0.7348
    -0.7288  -0.6939  -0.6509  -0.6479  -0.5899  -0.5181  -0.3958  -0.3767
    -0.2794  -0.2534  -0.1306  -0.1207   0.0056   0.0750   0.0877   0.1069
     0.3654   0.4152   0.4801   0.6147   0.8359   1.0177   1.0771   1.2719
     1.2999   1.4043   1.4398   1.4408   1.4412   1.4924

[...]

          k =-0.0971 0.0561 0.0000 ( 14098 PWs)   bands (ev):

[...]

 ------ SPIN DOWN ----------

[...]

     the Fermi energy is     0.8767 ev

!    total energy              =   -2557.90039581 Ry
     Harris-Foulkes estimate   =   -2557.90038251 Ry
     estimated scf accuracy    <       0.00000831 Ry

     The total energy is the sum of the following terms:

     one-electron contribution =  -23044.72514820 Ry
     hartree contribution      =   11518.38113522 Ry
     xc contribution           =    -334.76130370 Ry
     ewald contribution        =    9303.31302777 Ry
     electric field correction =       0.00034244 Ry
     smearing contrib. (-TS)   =      -0.10844933 Ry

[...]

     convergence has been achieved in 131 iterations

 BEEF-vdW xc energy contributions
           1 :   -291.859569376928
           2 :    263.774349547630
           3 :   -216.757154245422
           4 :    164.585962778832
           5 :   -119.572591578592
           6 :    88.1656419865936
           7 :   -70.0191512685502
           8 :    60.2328095987685
           9 :   -53.0012516770902
          10 :    44.5999298842873
          11 :   -34.4325959668911
          12 :    24.1327738247851
          13 :   -15.7518037828389
          14 :    10.3047231053163
          15 :   -7.39844010361890
          16 :    5.81218856414046
          17 :   -4.38480814630560
          18 :    2.58987652328335
          19 :  -0.569275252133366
          20 :   -1.21844863905250
          21 :    2.39858866918939
          22 :   -2.88424477339635
          23 :    2.84748631985838
          24 :   -2.58174544478680
          25 :    2.37524385212600
          26 :   -2.43008319710594
          27 :    2.80336270509116
          28 :   -3.37848100173966
          29 :    3.90616545660907
          30 :   -4.13283133074447
          31 :   -26.9644454858014
          32 :   -19.2020519345174

     Forces acting on atoms (Ry/au):

     negative rho (up, down):  2.030E-03 1.787E-03
     atom    1 type  1   force =     0.00026047    0.00009438    0.01266539
     atom    2 type  1   force =     0.00087088   -0.00108110    0.01280312
     atom    3 type  1   force =    -0.00053314    0.00126714    0.01259874
     atom    4 type  1   force =    -0.00062998   -0.00031588    0.01266906
     atom    5 type  1   force =    -0.00077754   -0.00057274    0.00752498
     atom    6 type  1   force =     0.00219605   -0.00096418   -0.00300630
     atom    7 type  1   force =     0.00015124    0.00239974   -0.00301717
     atom    8 type  1   force =    -0.00282690   -0.00154030   -0.00303503
     atom    9 type  1   force =    -0.04561119   -0.02613521   -0.03185681
     atom   10 type  1   force =     0.01115331    0.03372360    0.02021206
     atom   11 type  1   force =     0.03472566   -0.00697811    0.02048784
     atom   12 type  1   force =    -0.01643859   -0.00978445    0.03652903
     atom   13 type  2   force =     0.03158874    0.01799565   -0.13921474
     atom   14 type  3   force =    -0.01412902   -0.00810855    0.04463983

     Total force =     0.178280     Total SCF correction =     0.005295

     entering subroutine stress ...

     negative rho (up, down):  2.030E-03 1.787E-03
          total   stress  (Ry/bohr**3)                   (kbar)     P=  -20.68
  -0.00009496   0.00002129   0.00001909        -13.97      3.13      2.81
   0.00002129  -0.00011965   0.00001091          3.13    -17.60      1.60
   0.00001909   0.00001091  -0.00020712          2.81      1.60    -30.47

     BFGS Geometry Optimization

     number of scf cycles    =   1
     number of bfgs steps    =   0

     energy   new            =   -2557.9003958091 Ry

     new trust radius        =       0.1438834082 bohr
     new conv_thr            =       0.0000099958 Ry

ATOMIC_POSITIONS (crystal)
Mn1     -0.000000000   0.000000000   0.413179627    0   0   0
Mn1     -0.000000000   0.500000000   0.413179627    0   0   0
Mn1      0.500000000   0.000000000   0.413179627    0   0   0
Mn1      0.500000000   0.500000000   0.413179627    0   0   0
Mn1      0.666666667   0.666666667   0.500000000    0   0   0
Mn1      0.666666667   0.166666667   0.500000000    0   0   0
Mn1      0.166666667   0.666666667   0.500000000    0   0   0
Mn1      0.166666667   0.166666667   0.500000000    0   0   0
Mn1      0.330077102   0.330255530   0.586076283
Mn1      0.332618614   0.837202142   0.587250248
Mn1      0.836993074   0.332920458   0.587267773
Mn1      0.831926278   0.832356287   0.587568620
C1       0.669106565   0.668363416   0.641627682
H1       0.498984094   0.499203048   0.613953155

     Writing output data file calc.save
     Check: negative starting charge=(component1):   -0.002745
     NEW-OLD atomic charge density approx. for the potential

     Check: negative/imaginary core charge=   -0.000010    0.000000
     Check: negative starting charge=(component1):   -0.002766

[...]

     energy   old            =   -2557.9003958091 Ry
     energy   new            =   -2557.9289263977 Ry

     CASE: energy  _new < energy  _old

[...]

     Threshold (ethr) on eigenvalues was too large:
     Diagonalizing with lowered threshold

     Davidson diagonalization with overlap
     c_bands:  1 eigenvalues not converged
     ethr =  9.48E-08,  avg # of iterations =  1.7

[...]

     Total force =     0.007995     Total SCF correction =     0.001018
     SCF correction compared to forces is large: reduce conv_thr to get better values

[...]

     Total force =     0.004549     Total SCF correction =     0.001069
     SCF correction compared to forces is large: reduce conv_thr to get better values

[...]

     number of scf cycles    =  27
     number of bfgs steps    =  26

     energy   old            =   -2557.9975474594 Ry
     energy   new            =   -2557.9975749634 Ry

     CASE: energy  _new < energy  _old

     new trust radius        =       0.0128690617 bohr
     new conv_thr            =       0.0000001000 Ry

ATOMIC_POSITIONS (crystal)
Mn1     -0.000000000   0.000000000   0.413179627    0   0   0
Mn1     -0.000000000   0.500000000   0.413179627    0   0   0
Mn1      0.500000000   0.000000000   0.413179627    0   0   0
Mn1      0.500000000   0.500000000   0.413179627    0   0   0
Mn1      0.666666667   0.666666667   0.500000000    0   0   0
Mn1      0.666666667   0.166666667   0.500000000    0   0   0
Mn1      0.166666667   0.666666667   0.500000000    0   0   0
Mn1      0.166666667   0.166666667   0.500000000    0   0   0
Mn1      0.334106164   0.335006793   0.584098180
Mn1      0.345260642   0.838212927   0.587164881
Mn1      0.838366457   0.344223772   0.587047249
Mn1      0.868335607   0.869223698   0.581067271
C1       0.715235529   0.711075127   0.624442508
H1       0.488062985   0.487915586   0.624958276

     Writing output data file calc.save
     Check: negative starting charge=(component1):   -0.002860
     NEW-OLD atomic charge density approx. for the potential

     Check: negative/imaginary core charge=   -0.000010    0.000000
     Check: negative starting charge=(component1):   -0.002860

[...]

     Self-consistent Calculation

[...]

     iteration # 12     ecut=    36.75 Ry     beta=0.30
     Davidson diagonalization with overlap
     c_bands:  1 eigenvalues not converged
     ethr =  5.37E-10,  avg # of iterations =  4.5

[...]

     total energy              =   -2557.99760950 Ry
     Harris-Foulkes estimate   =   -2557.99760953 Ry
     estimated scf accuracy    <       0.00000015 Ry

[...]

     iteration # 17     ecut=    36.75 Ry     beta=0.30
     Davidson diagonalization with overlap
     ethr =  8.13E-11,  avg # of iterations =  5.3

[...]

     negative rho (up, down):  2.077E-03 1.881E-03

[...]

     Adding external electric field

     Computed dipole along edir(3) :
        Dipole               -0.1936 Ry au,         -0.4920 Debye
        Dipole field         -0.0006 Ry au

        Potential amp.        0.0579 Ry
        Total length         44.5928 bohr

     Magnetic moment per site:
     atom:    1    charge:    5.9999    magn:    0.9753    constr:    0.0000
     atom:    2    charge:    6.0002    magn:    0.9847    constr:    0.0000
     atom:    3    charge:    6.0002    magn:    0.9846    constr:    0.0000
     atom:    4    charge:    6.0000    magn:    0.9780    constr:    0.0000
     atom:    5    charge:    5.9913    magn:   -0.8652    constr:    0.0000
     atom:    6    charge:    5.9880    magn:   -0.6856    constr:    0.0000
     atom:    7    charge:    5.9881    magn:   -0.6885    constr:    0.0000
     atom:    8    charge:    5.9892    magn:   -0.8175    constr:    0.0000
     atom:    9    charge:    5.8921    magn:    1.0888    constr:    0.0000
     atom:   10    charge:    5.8337    magn:    0.6545    constr:    0.0000
     atom:   11    charge:    5.8536    magn:    0.6331    constr:    0.0000
     atom:   12    charge:    3.8104    magn:   -0.0787    constr:    0.0000
     atom:   13    charge:    0.3230    magn:   -0.0077    constr:    0.0000
     atom:   14    charge:    0.3169    magn:   -0.0153    constr:    0.0000

     End of self-consistent calculation

 ------ SPIN UP ------------

[...]

 ------ SPIN DOWN ----------

[...]

          k = 0.0648-0.0748-0.0000 ( 14076 PWs)   bands (ev):

[...]

          k =-0.0971-0.0561 0.0000 ( 14098 PWs)   bands (ev):

   -79.4468 -79.3726 -79.1711 -79.1383 -78.3420 -77.3125 -77.2633 -76.6232
   -76.6129 -76.6003 -76.5892 -76.5791 -48.2644 -48.1932 -48.1555 -48.1039
   -48.0485 -48.0139 -47.9505 -47.9331 -47.9225 -47.8427 -47.8130 -47.6852
   -47.2414 -47.0840 -46.9388 -46.3425 -46.1680 -46.0769 -45.9547 -45.9024
   -45.8333 -45.5709 -45.5644 -45.4998 -45.4450 -45.4336 -45.4123 -45.4027
   -45.3452 -45.2976 -45.2856 -45.2828 -45.2824 -45.2758 -45.2683 -45.2559
    -9.3951  -5.4510  -4.3061  -4.0679  -2.9337  -2.6365  -2.6291  -2.5060
    -2.3635  -2.2848  -2.1734  -2.1102  -2.0627  -1.9556  -1.8690  -1.7465
    -1.3870  -1.3590  -1.2304  -1.1568  -1.0656  -1.0159  -0.9854  -0.7847
    -0.5591  -0.3684  -0.2038  -0.1514  -0.0568   0.0209   0.1993   0.2795
     0.3430   0.3885   0.5096   0.6342   0.6415   0.6718   0.6996   0.8430
     0.8491   0.9220   0.9529   1.0516   1.1760   1.3379   1.6955   1.7991
     1.8219   1.8641   1.9215   1.9725   2.1064   2.1905

     the Fermi energy is     1.0374 ev

!    total energy              =   -2557.99760966 Ry
     Harris-Foulkes estimate   =   -2557.99760916 Ry
     estimated scf accuracy    <       0.00000009 Ry

     The total energy is the sum of the following terms:

     one-electron contribution =  -23302.27757049 Ry
     hartree contribution      =   11647.96963604 Ry
     xc contribution           =    -334.88740609 Ry
     ewald contribution        =    9431.30200358 Ry
     electric field correction =       0.00012564 Ry
     smearing contrib. (-TS)   =      -0.10439833 Ry

     total magnetization       =     8.00 Bohr mag/cell
     absolute magnetization    =    24.39 Bohr mag/cell

     convergence has been achieved in  17 iterations

 BEEF-vdW xc energy contributions
           1 :   -291.988253237458
           2 :    264.001570756613
           3 :   -217.076322609616
           4 :    164.882642769707
           5 :   -119.714016632311
           6 :    88.0986664170023
           7 :   -69.8057521475819
           8 :    60.0046514231118
           9 :   -52.8718200043411
          10 :    44.5961636605700
          11 :   -34.4907083232887
          12 :    24.1563506316003
          13 :   -15.6851554278203
          14 :    10.1652871008461
          15 :   -7.25046401336618
          16 :    5.71273541261951
          17 :   -4.34682866687575
          18 :    2.58393547738331
          19 :  -0.555174877783770
          20 :   -1.25777958803411
          21 :    2.44774827904502
          22 :   -2.91708072102671
          23 :    2.85896446784011
          24 :   -2.59890959233155
          25 :    2.43554991405318
          26 :   -2.54630711590238
          27 :    2.94621740274863
          28 :   -3.49191363456487
          29 :    3.94331850929495
          30 :   -4.08611382867809
          31 :   -26.9958054449939
          32 :   -19.2476388548736

     Forces acting on atoms (Ry/au):

     negative rho (up, down):  2.077E-03 1.881E-03
     atom    1 type  1   force =    -0.00055483   -0.00027750    0.01470674
     atom    2 type  1   force =     0.00234995   -0.00153393    0.01268209
     atom    3 type  1   force =    -0.00014048    0.00277365    0.01265588
     atom    4 type  1   force =     0.00054186    0.00030864    0.01493290
     atom    5 type  1   force =     0.00055809    0.00017143   -0.00220844
     atom    6 type  1   force =    -0.00049728    0.00598803   -0.02370086
     atom    7 type  1   force =     0.00498350   -0.00287051   -0.02284795
     atom    8 type  1   force =    -0.00819257   -0.00466000   -0.00478064
     atom    9 type  1   force =    -0.00009895    0.00014170   -0.00006862
     atom   10 type  1   force =     0.00098689   -0.00157387    0.00030695
     atom   11 type  1   force =    -0.00086344    0.00142175    0.00018086
     atom   12 type  1   force =    -0.00053042   -0.00024863    0.00136358
     atom   13 type  2   force =     0.00057024   -0.00017656   -0.00131004
     atom   14 type  3   force =     0.00088745    0.00053579   -0.00191245

     Total force =     0.003923     Total SCF correction =     0.000371

     entering subroutine stress ...

     negative rho (up, down):  2.077E-03 1.881E-03
          total   stress  (Ry/bohr**3)                   (kbar)     P=  -12.02
  -0.00007221   0.00002212  -0.00000047        -10.62      3.25     -0.07
   0.00002212  -0.00009467  -0.00000094          3.25    -13.93     -0.14
  -0.00000047  -0.00000094  -0.00007816         -0.07     -0.14    -11.50

     bfgs converged in  28 scf cycles and  27 bfgs steps
     (criteria: energy <  1.0E+00, force <  1.9E-03)

     End of BFGS Geometry Optimization

     Final energy   =   -2557.9976096626 Ry
Begin final coordinates

ATOMIC_POSITIONS (crystal)
Mn1     -0.000000000   0.000000000   0.413179627    0   0   0
Mn1     -0.000000000   0.500000000   0.413179627    0   0   0
Mn1      0.500000000   0.000000000   0.413179627    0   0   0
Mn1      0.500000000   0.500000000   0.413179627    0   0   0
Mn1      0.666666667   0.666666667   0.500000000    0   0   0
Mn1      0.666666667   0.166666667   0.500000000    0   0   0
Mn1      0.166666667   0.666666667   0.500000000    0   0   0
Mn1      0.166666667   0.166666667   0.500000000    0   0   0
Mn1      0.334106164   0.335006793   0.584098180
Mn1      0.345260642   0.838212927   0.587164881
Mn1      0.838366457   0.344223772   0.587047249
Mn1      0.868335607   0.869223698   0.581067271
C1       0.715235529   0.711075127   0.624442508
H1       0.488062985   0.487915586   0.624958276
End final coordinates

     Writing output data file calc.save

     General routines

     Parallel routines

   This run was terminated on:  13:23:44   9May2018

   JOB DONE.