     Program PWSCF v.5.1rc2 (svn rev. 11289) starts on 18Apr2018 at 21:24:45

     Current dimensions of program PWSCF are:
     Max number of different atomic species (ntypx) = 10
     Max number of k-points (npk) =  40000
     Max angular momentum in pseudopotentials (lmaxx) =  3
     Presently stress not available with electric field

     IMPORTANT: XC functional enforced from input :
     Exchange-correlation      = BEEF-VDW ( 1  4 27 13 2)
     Any further DFT definition will be discarded
     Please, verify this is what you really want

     Subspace diagonalization in iterative solution of the eigenvalue problem:
     a serial algorithm will be used

     bravais-lattice index     =            0
     lattice parameter (alat)  =       1.8897  a.u.
     unit-cell volume          =    8507.0471 (a.u.)^3
     number of atoms/cell      =           14
     number of atomic types    =            3
     number of electrons       =       137.00
     number of Kohn-Sham states=           78
     kinetic-energy cutoff     =      36.7493  Ry
     charge density cutoff     =     367.4932  Ry
     convergence threshold     =      1.0E-05
     mixing beta               =       0.3000
     number of iterations used =           10  plain     mixing
     Exchange-correlation      = BEEF-VDW ( 1  4 27 13 2)
     nstep                     =           50

     celldm(1)=   1.889726  celldm(2)=   0.000000  celldm(3)=   0.000000
     celldm(4)=   0.000000  celldm(5)=   0.000000  celldm(6)=   0.000000

     crystal axes: (cart. coord. in units of alat)
               a(1) = (   7.468327   0.000000   0.000000 )
               a(2) = (   3.734164   6.467761   0.000000 )
               a(3) = (   0.000000   0.000000  26.097863 )

     reciprocal axes: (cart. coord. in units 2 pi/alat)
               b(1) = (  0.133899 -0.077307  0.000000 )
               b(2) = (  0.000000  0.154613  0.000000 )
               b(3) = (  0.000000  0.000000  0.038317 )

     PseudoPot. # 1 for La read from file:
     /u/if/mamunm/psp/gbrv1.5pbe/La.UPF
     MD5 check sum: 5937b0c7494ba0601a847275249473aa
     Pseudo is Ultrasoft + core correction, Zval = 11.0
     Generated by new atomic code, or converted to UPF format
     Using radial grid of  995 points,  8 beta functions with:
                l(1) =   0
                l(2) =   0
                l(3) =   1
                l(4) =   1
                l(5) =   2
                l(6) =   2
                l(7) =   3
                l(8) =   3
     Q(r) pseudized with  8 coefficients,  rinner =    1.700   1.700   1.700
                                                       1.700   1.700   1.700
                                                       1.700

     PseudoPot. # 2 for C  read from file:
     /u/if/mamunm/psp/gbrv1.5pbe/C.UPF
     MD5 check sum: d1aef80898a10debaa0f26306b886e00
     Pseudo is Ultrasoft + core correction, Zval =  4.0
     Generated by new atomic code, or converted to UPF format
     Using radial grid of  721 points,  4 beta functions with:
                l(1) =   0
                l(2) =   0
                l(3) =   1
                l(4) =   1
     Q(r) pseudized with  8 coefficients,  rinner =    1.100   1.100   1.100

     PseudoPot. # 3 for H  read from file:
     /u/if/mamunm/psp/gbrv1.5pbe/H.UPF
     MD5 check sum: 761ae9a214b05c3daf00ab9f6b793d6f
     Pseudo is Ultrasoft, Zval =  1.0
     Generated by new atomic code, or converted to UPF format
     Using radial grid of  615 points,  2 beta functions with:
                l(1) =   0
                l(2) =   0
     Q(r) pseudized with  8 coefficients,  rinner =    0.700

     vdW kernel table read from file vdW_kernel_table
     MD5 check sum: 095c7af220d748ca6e76c0b4c6cfb241

     atomic species   valence    mass     pseudopotential
        La1           11.00   138.90547     La( 1.00)
        C1             4.00    12.01100     C ( 1.00)
        H1             1.00     1.00800     H ( 1.00)

     No symmetry found

   Cartesian axes

     site n.     atom                  positions (alat units)
         1           La1 tau(   1) = (   1.8670818   1.0779602  10.0000000  )
         2           La1 tau(   2) = (   5.6012453   1.0779602  10.0000000  )
         3           La1 tau(   3) = (   3.7341635   4.3118406  10.0000000  )
         4           La1 tau(   4) = (   7.4683270   4.3118406  10.0000000  )
         5           La1 tau(   5) = (   7.4683270   2.1559203  13.0489317  )
         6           La1 tau(   6) = (   3.7341635   2.1559203  13.0489317  )
         7           La1 tau(   7) = (   9.3354088   5.3898008  13.0489317  )
         8           La1 tau(   8) = (   5.6012453   5.3898008  13.0489317  )
         9           La1 tau(   9) = (   0.0000000   0.0000000  16.0978635  )
        10           La1 tau(  10) = (   3.7341635   0.0000000  16.0978635  )
        11           La1 tau(  11) = (   1.8670818   3.2338805  16.0978635  )
        12           La1 tau(  12) = (   5.6012453   3.2338805  16.0978635  )
        13           C1  tau(  13) = (   0.0000000   0.0000000  18.5033635  )
        14           H1  tau(  14) = (   0.0000000   0.0000000  19.6033635  )

     number of k points=    20  Fermi-Dirac smearing, width (Ry)=  0.0110
                       cart. coord. in units 2pi/alat
        k(    1) = (   0.0000000   0.0000000   0.0000000), wk =   0.0555556
        k(    2) = (   0.0000000   0.0257688   0.0000000), wk =   0.1111111
        k(    3) = (   0.0000000   0.0515377   0.0000000), wk =   0.1111111
        k(    4) = (   0.0000000  -0.0773065   0.0000000), wk =   0.0555556
        k(    5) = (   0.0223165  -0.0128844   0.0000000), wk =   0.1111111
        k(    6) = (   0.0223165   0.0128844   0.0000000), wk =   0.1111111
        k(    7) = (   0.0223165   0.0386533   0.0000000), wk =   0.1111111
        k(    8) = (   0.0223165  -0.0901909   0.0000000), wk =   0.1111111
        k(    9) = (   0.0223165  -0.0644221   0.0000000), wk =   0.1111111
        k(   10) = (   0.0223165  -0.0386533   0.0000000), wk =   0.1111111
        k(   11) = (   0.0446329  -0.0257688   0.0000000), wk =   0.1111111
        k(   12) = (   0.0446329   0.0000000   0.0000000), wk =   0.1111111
        k(   13) = (   0.0446329   0.0257688   0.0000000), wk =   0.1111111
        k(   14) = (   0.0446329  -0.1030753   0.0000000), wk =   0.1111111
        k(   15) = (   0.0446329  -0.0773065   0.0000000), wk =   0.1111111
        k(   16) = (   0.0446329  -0.0515377   0.0000000), wk =   0.1111111
        k(   17) = (  -0.0669494   0.0386533   0.0000000), wk =   0.0555556
        k(   18) = (  -0.0669494   0.0644221   0.0000000), wk =   0.1111111
        k(   19) = (  -0.0669494   0.0901909   0.0000000), wk =   0.1111111
        k(   20) = (  -0.0669494  -0.0386533   0.0000000), wk =   0.0555556

     Largest allocated arrays     est. size (Mb)     dimensions
     Largest temporary arrays     est. size (Mb)     dimensions

     Initial potential from superposition of free atoms
     Check: negative starting charge=   -0.830839

     starting charge  136.61513, renormalised to  137.00000

     negative rho (up, down):  8.332E-01 0.000E+00

     *
     * You are using vdW-DF for exchange-correlation in this calculation.
     * Please cite the following three references that made this development
     * possible:
     *
     *   M. Dion, H. Rydberg, E. Schroder, D. C. Langreth, and
     *   B. I. Lundqvist, Phys. Rev. Lett. 92, 246401 (2004).
     *
     *   T. Thonhauser, V. R. Cooper, S. Li, A. Puzder, P. Hyldgaard, and
     *   D. C. Langreth, Phys. Rev. B 76, 125112 (2007).
     *
     *   G. Roman-Perez and J. M. Soler, Phys. Rev. Lett. 103, 096102 (2009).
     *
     *
     * If you are using vdW-DF2, please also cite:
     *
     *   K. Lee, E. D. Murray, L. Kong, B. I. Lundqvist, and
     *   D. C. Langreth, Phys. Rev. B 82, 081101(R) (2010).
     *
     *
     * If you are calculating the stress with vdW-DF, please also cite:
     *
     *   R. Sabatini, E. Kucukbenli, B. Kolb, T. Thonhauser, and
     *   S. de Gironcoli, J. Phys.: Condens. Matter 24, 424209 (2012).
     *

     Carrying out vdW-DF run using the following parameters:

     Nqs =      20    Nr_points =    1024   r_max =   100.000
     q_mesh =
               0.00001000     0.04494208     0.09755937     0.15916263
               0.23128650     0.31572767     0.41458969     0.53033537
               0.66584808     0.82450364     1.01025438     1.22772762
               1.48234092     1.78043706     2.12944203     2.53805004
               3.01644009     3.57652955     4.23227104     5.00000000

     Gradients computed in reciprocal space

     Adding external electric field

     Computed dipole along edir(3) :
        Dipole               -0.1505 Ry au,         -0.3826 Debye
        Dipole field         -0.0002 Ry au

        Potential amp.        0.0214 Ry
        Total length         48.0849 bohr

     Starting wfc are  245 randomized atomic wfcs

     Self-consistent Calculation

     iteration #  1     ecut=    36.75 Ry     beta=0.30
     Davidson diagonalization with overlap
     ethr =  1.00E-02,  avg # of iterations =  2.0

[...]

     total energy              =   -1258.32290986 Ry
     Harris-Foulkes estimate   =   -1261.55540243 Ry
     estimated scf accuracy    <       6.91525024 Ry

[...]

     iteration # 13     ecut=    36.75 Ry     beta=0.30
     Davidson diagonalization with overlap
     c_bands:  1 eigenvalues not converged
     c_bands:  1 eigenvalues not converged
     ethr =  3.31E-06,  avg # of iterations =  8.8

[...]

     End of self-consistent calculation

          k = 0.0000 0.0000 0.0000 ( 31997 PWs)   bands (ev):

   -31.8821 -31.8019 -31.7808 -31.7803 -31.6717 -31.6714 -31.6660 -31.3639
   -31.2473 -31.2471 -31.2158 -30.8800 -15.9609 -15.8892 -15.8891 -15.8601
   -15.7906 -15.7903 -15.7782 -15.6840 -15.6838 -15.6336 -15.4909 -15.3613
   -15.3609 -15.1964 -15.1635 -15.1540 -15.1539 -15.0587 -15.0585 -15.0585
   -15.0125 -15.0121 -14.8460 -14.8059 -14.8059 -14.7642 -14.7639 -14.7104
   -14.6466 -14.6465 -14.6428 -14.4500 -14.4309 -14.4308 -14.3753 -14.3753
    -8.3745  -1.5982  -1.1101  -0.4646  -0.1289  -0.0940  -0.0939  -0.0807
     0.1953   0.1953   0.2274   0.4208   0.4452   0.4453   0.4997   0.4998
     0.5850   0.9998   0.9999   1.2607   1.7575   1.8034   1.8034   2.1117
     2.3359   2.3814   2.3815   2.4288   2.6562   2.7385

[...]

          k =-0.0669 0.0387 0.0000 ( 31970 PWs)   bands (ev):

[...]

     the Fermi energy is     1.5576 ev

!    total energy              =   -1260.78142127 Ry
     Harris-Foulkes estimate   =   -1260.78145586 Ry
     estimated scf accuracy    <       0.00000918 Ry

     The total energy is the sum of the following terms:

     one-electron contribution =   -4690.93193647 Ry
     hartree contribution      =    2357.67011211 Ry
     xc contribution           =    -612.74312716 Ry
     ewald contribution        =    1685.34305204 Ry
     electric field correction =       0.00036443 Ry
     smearing contrib. (-TS)   =      -0.11988622 Ry

     convergence has been achieved in  17 iterations

 BEEF-vdW xc energy contributions
           1 :   -542.800036306703
           2 :    499.259700035749
           3 :   -422.288301503175
           4 :    328.307385771847
           5 :   -234.730236926217
           6 :    155.353866150508
           7 :   -97.7585693661327
           8 :    62.9844702252736
           9 :   -46.9976733564218
          10 :    43.0728516191044
          11 :   -44.1893644801654
          12 :    44.7545390106330
          13 :   -41.4056697882853
          14 :    33.0528605763117
          15 :   -20.5041961090309
          16 :    5.91501682464082
          17 :    7.87154237880452
          18 :   -18.1001798094645
          19 :    22.9024398903454
          20 :   -21.9003559390655
          21 :    16.3694300261117
          22 :   -8.83321116093418
          23 :    2.17959906873909
          24 :    1.37533051420667
          25 :   -1.04788847682460
          26 :   -2.35694697722579
          27 :    6.94485742580457
          28 :   -10.6348504569452
          29 :    12.0387499990766
          30 :   -10.9369029957758
          31 :   -46.2507337346884
          32 :   -33.1880107406382

     Forces acting on atoms (Ry/au):

     negative rho (up, down):  5.877E-01 0.000E+00
     atom    1 type  1   force =    -0.00024325   -0.00011756    0.00431310
     atom    2 type  1   force =     0.00023192   -0.00012532    0.00438491
     atom    3 type  1   force =     0.00000011    0.00026638    0.00427482
     atom    4 type  1   force =     0.00001740   -0.00002809    0.00422746
     atom    5 type  1   force =    -0.00005776    0.00545436   -0.00651275
     atom    6 type  1   force =     0.00007123   -0.00007056   -0.00365557
     atom    7 type  1   force =    -0.00478808   -0.00265140   -0.00645300
     atom    8 type  1   force =     0.00477230   -0.00273052   -0.00646276
     atom    9 type  1   force =    -0.00000709    0.00000499    0.03809797
     atom   10 type  1   force =     0.00000800   -0.00227145    0.01124077
     atom   11 type  1   force =    -0.00196667    0.00113507    0.01125178
     atom   12 type  1   force =     0.00196270    0.00113651    0.01124981
     atom   13 type  2   force =    -0.00000182   -0.00000198   -0.06970761
     atom   14 type  3   force =     0.00000100   -0.00000043    0.00375106

     Total force =     0.081973     Total SCF correction =     0.006976

     entering subroutine stress ...

     negative rho (up, down):  5.877E-01 0.000E+00
          total   stress  (Ry/bohr**3)                   (kbar)     P=   -3.45
  -0.00001296  -0.00000000  -0.00000001         -1.91     -0.00     -0.00
  -0.00000000  -0.00001297   0.00000000         -0.00     -1.91      0.00
  -0.00000001   0.00000000  -0.00004452         -0.00      0.00     -6.55

     BFGS Geometry Optimization

     number of scf cycles    =   1
     number of bfgs steps    =   0

     energy   new            =   -1260.7814212692 Ry

     new trust radius        =       0.0697076090 bohr
     new conv_thr            =       0.0000099958 Ry

ATOMIC_POSITIONS (crystal)
La1      0.166666667   0.166666667   0.383173129    0   0   0
La1      0.666666667   0.166666667   0.383173129    0   0   0
La1      0.166666667   0.666666667   0.383173129    0   0   0
La1      0.666666667   0.666666667   0.383173129    0   0   0
La1      0.833333333   0.333333333   0.500000000    0   0   0
La1      0.333333333   0.333333333   0.500000000    0   0   0
La1      0.833333333   0.833333333   0.500000000    0   0   0
La1      0.333333333   0.833333333   0.500000000    0   0   0
La1     -0.000000706   0.000000409   0.617599370
La1      0.500093490  -0.000185845   0.617054796
La1     -0.000185785   0.500092869   0.617055020
La1      0.500092576   0.500092987   0.617054980
C1      -0.000000048  -0.000000162   0.707585731
H1       0.000000088  -0.000000035   0.751224270

     Writing output data file calc.save
     Check: negative starting charge=   -0.830839
     NEW-OLD atomic charge density approx. for the potential
     Check: negative starting charge=   -0.831177

[...]

     Total force =     0.052287     Total SCF correction =     0.005515
     SCF correction compared to forces is large: reduce conv_thr to get better values

[...]

     energy   old            =   -1260.7814212692 Ry
     energy   new            =   -1260.7858420848 Ry

     CASE: energy  _new < energy  _old

[...]

     Total force =     0.005306     Total SCF correction =     0.000189

[...]

     number of scf cycles    =  23
     number of bfgs steps    =  22

     energy   old            =   -1260.8146105377 Ry
     energy   new            =   -1260.8147019378 Ry

     CASE: energy  _new < energy  _old

     new trust radius        =       0.0164910798 bohr
     new conv_thr            =       0.0000001000 Ry

ATOMIC_POSITIONS (crystal)
La1      0.166666667   0.166666667   0.383173129    0   0   0
La1      0.666666667   0.166666667   0.383173129    0   0   0
La1      0.166666667   0.666666667   0.383173129    0   0   0
La1      0.666666667   0.666666667   0.383173129    0   0   0
La1      0.833333333   0.333333333   0.500000000    0   0   0
La1      0.333333333   0.333333333   0.500000000    0   0   0
La1      0.833333333   0.833333333   0.500000000    0   0   0
La1      0.333333333   0.833333333   0.500000000    0   0   0
La1      0.000003151   0.000004252   0.603581866
La1      0.501151110  -0.002292844   0.625562785
La1     -0.002293666   0.501159264   0.625562681
La1      0.501139461   0.501156117   0.625562885
C1      -0.000001344  -0.000016397   0.687867373
H1       0.000000771  -0.000010609   0.730141901

     Writing output data file calc.save
     Check: negative starting charge=   -0.832328
     NEW-OLD atomic charge density approx. for the potential
     Check: negative starting charge=   -0.832829

[...]

     Self-consistent Calculation

[...]

     iteration #  3     ecut=    36.75 Ry     beta=0.30
     Davidson diagonalization with overlap
     c_bands:  1 eigenvalues not converged
     ethr =  3.35E-07,  avg # of iterations = 13.7

[...]

     total energy              =   -1260.81471653 Ry
     Harris-Foulkes estimate   =   -1260.81471654 Ry
     estimated scf accuracy    <       0.00000058 Ry

     iteration #  9     ecut=    36.75 Ry     beta=0.30
     Davidson diagonalization with overlap
     ethr =  4.27E-10,  avg # of iterations =  4.2

[...]

     negative rho (up, down):  5.824E-01 0.000E+00

     Adding external electric field

     Computed dipole along edir(3) :
        Dipole               -0.1906 Ry au,         -0.4844 Debye
        Dipole field         -0.0003 Ry au

        Potential amp.        0.0271 Ry
        Total length         48.0849 bohr

     End of self-consistent calculation

[...]

          k = 0.0446-0.0515 0.0000 ( 31991 PWs)   bands (ev):

[...]

          k =-0.0669-0.0387 0.0000 ( 31970 PWs)   bands (ev):

   -31.7510 -31.7191 -31.6869 -31.4879 -31.4821 -31.4208 -31.4138 -31.1112
   -31.1040 -31.0463 -31.0374 -30.3037 -15.6232 -15.4594 -15.4560 -15.4389
   -15.4113 -15.3928 -15.3460 -15.3442 -15.3271 -15.2874 -15.2629 -15.2505
   -15.2266 -15.1953 -15.1385 -15.1157 -15.0856 -15.0526 -14.9788 -14.8962
   -14.8765 -14.8207 -14.7113 -14.7087 -14.6857 -14.6797 -14.6706 -14.6150
   -14.5851 -14.5616 -14.5280 -14.3420 -14.3258 -14.0998 -13.9543 -13.8754
    -7.9756  -1.2597   0.1679   0.2711   0.4685   0.6666   0.7001   0.8001
     0.9472   0.9693   1.0614   1.1501   1.2133   1.3195   1.4927   1.5482
     1.6007   1.6467   1.7573   1.7595   1.8795   1.9679   1.9964   2.0228
     2.1010   2.1875   2.2567   2.2844   2.2915   2.4261

     the Fermi energy is     1.8033 ev

!    total energy              =   -1260.81471656 Ry
     Harris-Foulkes estimate   =   -1260.81471641 Ry
     estimated scf accuracy    <       0.00000009 Ry

     The total energy is the sum of the following terms:

     one-electron contribution =   -4687.99523056 Ry
     hartree contribution      =    2357.08970279 Ry
     xc contribution           =    -612.83100156 Ry
     ewald contribution        =    1683.03849101 Ry
     electric field correction =       0.00005365 Ry
     smearing contrib. (-TS)   =      -0.11673189 Ry

     convergence has been achieved in   9 iterations

 BEEF-vdW xc energy contributions
           1 :   -542.883473112928
           2 :    499.351135483826
           3 :   -422.393332929486
           4 :    328.438029489969
           5 :   -234.895705877983
           6 :    155.539097163353
           7 :   -97.9209391051337
           8 :    63.0725953789141
           9 :   -46.9802102530616
          10 :    42.9613521224637
          11 :   -44.0388900608167
          12 :    44.6355500261337
          13 :   -41.3626995720971
          14 :    33.0801592222562
          15 :   -20.5559065286478
          16 :    5.93839098783610
          17 :    7.90360253844801
          18 :   -18.1727493682174
          19 :    22.9684593032933
          20 :   -21.9148858538821
          21 :    16.3238610643574
          22 :   -8.76302395520372
          23 :    2.13993088339555
          24 :    1.34815834647850
          25 :  -0.961223507296495
          26 :   -2.45640435836788
          27 :    7.00023940430026
          28 :   -10.6149424350675
          29 :    11.9574817380914
          30 :   -10.8431011895098
          31 :   -46.2548131097095
          32 :   -33.1960588681106

     Forces acting on atoms (Ry/au):

     negative rho (up, down):  5.824E-01 0.000E+00
     atom    1 type  1   force =    -0.00014401   -0.00008284    0.00499568
     atom    2 type  1   force =     0.00014400   -0.00008221    0.00499413
     atom    3 type  1   force =     0.00000004    0.00016586    0.00499370
     atom    4 type  1   force =     0.00000001   -0.00000021    0.00366531
     atom    5 type  1   force =    -0.00000013    0.01650075   -0.00928278
     atom    6 type  1   force =    -0.00000066   -0.00000009    0.00886777
     atom    7 type  1   force =    -0.01428878   -0.00824973   -0.00928333
     atom    8 type  1   force =     0.01428991   -0.00824969   -0.00928380
     atom    9 type  1   force =    -0.00000262    0.00000280    0.00011587
     atom   10 type  1   force =     0.00000459    0.00013901    0.00009225
     atom   11 type  1   force =     0.00012159   -0.00006500    0.00009246
     atom   12 type  1   force =    -0.00012011   -0.00006967    0.00009480
     atom   13 type  2   force =    -0.00000120   -0.00000624   -0.00064658
     atom   14 type  3   force =    -0.00000264   -0.00000274    0.00058453

     Total force =     0.000926     Total SCF correction =     0.000412
     SCF correction compared to forces is large: reduce conv_thr to get better values

     entering subroutine stress ...

     negative rho (up, down):  5.824E-01 0.000E+00
          total   stress  (Ry/bohr**3)                   (kbar)     P=   -3.13
  -0.00002525  -0.00000000  -0.00000000         -3.71     -0.00     -0.00
  -0.00000000  -0.00002525  -0.00000001         -0.00     -3.71     -0.00
  -0.00000000  -0.00000001  -0.00001323         -0.00     -0.00     -1.95

     bfgs converged in  24 scf cycles and  23 bfgs steps
     (criteria: energy <  1.0E+00, force <  1.9E-03)

     End of BFGS Geometry Optimization

     Final energy   =   -1260.8147165550 Ry
Begin final coordinates

ATOMIC_POSITIONS (crystal)
La1      0.166666667   0.166666667   0.383173129    0   0   0
La1      0.666666667   0.166666667   0.383173129    0   0   0
La1      0.166666667   0.666666667   0.383173129    0   0   0
La1      0.666666667   0.666666667   0.383173129    0   0   0
La1      0.833333333   0.333333333   0.500000000    0   0   0
La1      0.333333333   0.333333333   0.500000000    0   0   0
La1      0.833333333   0.833333333   0.500000000    0   0   0
La1      0.333333333   0.833333333   0.500000000    0   0   0
La1      0.000003151   0.000004252   0.603581866
La1      0.501151110  -0.002292844   0.625562785
La1     -0.002293666   0.501159264   0.625562681
La1      0.501139461   0.501156117   0.625562885
C1      -0.000001344  -0.000016397   0.687867373
H1       0.000000771  -0.000010609   0.730141901
End final coordinates

     Writing output data file calc.save

     General routines

     Parallel routines

   This run was terminated on:   7: 6:10  19Apr2018

   JOB DONE.
Job  /afs/slac/g/suncat/bin/suncat-tsmpirun -x LD_LIBRARY_PATH -wdir /scratch/qe298823_Q4cab pw.x -npool 4 -in pw.inp

TID   HOST_NAME   COMMAND_LINE            STATUS            TERMINATION_TIME
00000 suncat0094 pw.x -npool 4 -i  Done                     04/19/2018 07:06:10
00001 suncat0094 pw.x -npool 4 -i  Done                     04/19/2018 07:06:10
00002 suncat0094 pw.x -npool 4 -i  Done                     04/19/2018 07:06:10
00003 suncat0094 pw.x -npool 4 -i  Done                     04/19/2018 07:06:10
00004 suncat0094 pw.x -npool 4 -i  Done                     04/19/2018 07:06:10
00005 suncat0094 pw.x -npool 4 -i  Done                     04/19/2018 07:06:10
00006 suncat0094 pw.x -npool 4 -i  Done                     04/19/2018 07:06:10
00007 suncat0094 pw.x -npool 4 -i  Done                     04/19/2018 07:06:10
00008 suncat0085 pw.x -npool 4 -i  Done                     04/19/2018 07:06:10
00009 suncat0085 pw.x -npool 4 -i  Done                     04/19/2018 07:06:10
00010 suncat0085 pw.x -npool 4 -i  Done                     04/19/2018 07:06:10
00011 suncat0085 pw.x -npool 4 -i  Done                     04/19/2018 07:06:10
00012 suncat0085 pw.x -npool 4 -i  Done                     04/19/2018 07:06:10
00013 suncat0085 pw.x -npool 4 -i  Done                     04/19/2018 07:06:10
00014 suncat0085 pw.x -npool 4 -i  Done                     04/19/2018 07:06:10
00015 suncat0085 pw.x -npool 4 -i  Done                     04/19/2018 07:06:10
00016 suncat0075 pw.x -npool 4 -i  Done                     04/19/2018 07:06:10
00017 suncat0075 pw.x -npool 4 -i  Done                     04/19/2018 07:06:10
00018 suncat0075 pw.x -npool 4 -i  Done                     04/19/2018 07:06:10
00019 suncat0075 pw.x -npool 4 -i  Done                     04/19/2018 07:06:10
00020 suncat0075 pw.x -npool 4 -i  Done                     04/19/2018 07:06:10
00021 suncat0075 pw.x -npool 4 -i  Done                     04/19/2018 07:06:10
00022 suncat0075 pw.x -npool 4 -i  Done                     04/19/2018 07:06:10
00023 suncat0075 pw.x -npool 4 -i  Done                     04/19/2018 07:06:10
00024 suncat0137 pw.x -npool 4 -i  Done                     04/19/2018 07:06:10
00025 suncat0137 pw.x -npool 4 -i  Done                     04/19/2018 07:06:10
00026 suncat0137 pw.x -npool 4 -i  Done                     04/19/2018 07:06:10
00027 suncat0137 pw.x -npool 4 -i  Done                     04/19/2018 07:06:10
00028 suncat0137 pw.x -npool 4 -i  Done                     04/19/2018 07:06:10
00029 suncat0137 pw.x -npool 4 -i  Done                     04/19/2018 07:06:10
00030 suncat0137 pw.x -npool 4 -i  Done                     04/19/2018 07:06:10
00031 suncat0137 pw.x -npool 4 -i  Done                     04/19/2018 07:06:10