     Program PWSCF v.5.1rc2 (svn rev. 11289) starts on 16Apr2018 at 10: 7: 1

     Current dimensions of program PWSCF are:
     Max number of different atomic species (ntypx) = 10
     Max number of k-points (npk) =  40000
     Max angular momentum in pseudopotentials (lmaxx) =  3
     Presently stress not available with electric field

     IMPORTANT: XC functional enforced from input :
     Exchange-correlation      = BEEF-VDW ( 1  4 27 13 2)
     Any further DFT definition will be discarded
     Please, verify this is what you really want

     Subspace diagonalization in iterative solution of the eigenvalue problem:
     a serial algorithm will be used

     bravais-lattice index     =            0
     lattice parameter (alat)  =       1.8897  a.u.
     unit-cell volume          =    5174.6160 (a.u.)^3
     number of atoms/cell      =           15
     number of atomic types    =            3
     number of electrons       =       234.00
     number of Kohn-Sham states=          127
     kinetic-energy cutoff     =      36.7493  Ry
     charge density cutoff     =     367.4932  Ry
     convergence threshold     =      1.0E-05
     mixing beta               =       0.3000
     number of iterations used =           10  plain     mixing
     Exchange-correlation      = BEEF-VDW ( 1  4 27 13 2)
     nstep                     =           50

     celldm(1)=   1.889726  celldm(2)=   0.000000  celldm(3)=   0.000000
     celldm(4)=   0.000000  celldm(5)=   0.000000  celldm(6)=   0.000000

     crystal axes: (cart. coord. in units of alat)
               a(1) = (   5.966546   0.000000   0.000000 )
               a(2) = (   2.983273   5.167181   0.000000 )
               a(3) = (   0.000000   0.000000  24.871665 )

     reciprocal axes: (cart. coord. in units 2 pi/alat)
               b(1) = (  0.167601 -0.096765  0.000000 )
               b(2) = (  0.000000  0.193529  0.000000 )
               b(3) = (  0.000000  0.000000  0.040206 )

     PseudoPot. # 1 for Ag read from file:
     /u/if/mamunm/psp/gbrv1.5pbe/Ag.UPF
     MD5 check sum: d66d668201baa78d5eb5b04ef7011058
     Pseudo is Ultrasoft + core correction, Zval = 19.0
     Generated by new atomic code, or converted to UPF format
     Using radial grid of  887 points,  6 beta functions with:
                l(1) =   0
                l(2) =   0
                l(3) =   1
                l(4) =   1
                l(5) =   2
                l(6) =   2
     Q(r) pseudized with  6 coefficients,  rinner =    1.300   1.300   1.300
                                                       1.300   1.300

     PseudoPot. # 2 for C  read from file:
     /u/if/mamunm/psp/gbrv1.5pbe/C.UPF
     MD5 check sum: d1aef80898a10debaa0f26306b886e00
     Pseudo is Ultrasoft + core correction, Zval =  4.0
     Generated by new atomic code, or converted to UPF format
     Using radial grid of  721 points,  4 beta functions with:
                l(1) =   0
                l(2) =   0
                l(3) =   1
                l(4) =   1
     Q(r) pseudized with  8 coefficients,  rinner =    1.100   1.100   1.100

     PseudoPot. # 3 for H  read from file:
     /u/if/mamunm/psp/gbrv1.5pbe/H.UPF
     MD5 check sum: 761ae9a214b05c3daf00ab9f6b793d6f
     Pseudo is Ultrasoft, Zval =  1.0
     Generated by new atomic code, or converted to UPF format
     Using radial grid of  615 points,  2 beta functions with:
                l(1) =   0
                l(2) =   0
     Q(r) pseudized with  8 coefficients,  rinner =    0.700

     vdW kernel table read from file vdW_kernel_table
     MD5 check sum: 095c7af220d748ca6e76c0b4c6cfb241

     atomic species   valence    mass     pseudopotential
        Ag1           19.00   107.86820     Ag( 1.00)
        C1             4.00    12.01100     C ( 1.00)
        H1             1.00     1.00800     H ( 1.00)

     No symmetry found

   Cartesian axes

     site n.     atom                  positions (alat units)
         1           Ag1 tau(   1) = (   1.4916366   0.8611968  10.0000000  )
         2           Ag1 tau(   2) = (   4.4749098   0.8611968  10.0000000  )
         3           Ag1 tau(   3) = (   2.9832732   3.4447871  10.0000000  )
         4           Ag1 tau(   4) = (   5.9665464   3.4447871  10.0000000  )
         5           Ag1 tau(   5) = (   5.9665464   1.7223936  12.4358324  )
         6           Ag1 tau(   6) = (   2.9832732   1.7223936  12.4358324  )
         7           Ag1 tau(   7) = (   7.4581830   4.3059839  12.4358324  )
         8           Ag1 tau(   8) = (   4.4749098   4.3059839  12.4358324  )
         9           Ag1 tau(   9) = (   0.0000000   0.0000000  14.8716647  )
        10           Ag1 tau(  10) = (   2.9832732   0.0000000  14.8716647  )
        11           Ag1 tau(  11) = (   1.4916366   2.5835904  14.8716647  )
        12           Ag1 tau(  12) = (   4.4749098   2.5835904  14.8716647  )
        13           C1  tau(  13) = (   1.4916366   0.0000000  16.5291647  )
        14           H1  tau(  14) = (   2.1216366   0.6300000  17.1591647  )
        15           H1  tau(  15) = (   3.8449098   4.5371807  17.1591647  )

     number of k points=    20  Fermi-Dirac smearing, width (Ry)=  0.0110
                       cart. coord. in units 2pi/alat
        k(    1) = (   0.0000000   0.0000000   0.0000000), wk =   0.0555556
        k(    2) = (   0.0000000   0.0322549   0.0000000), wk =   0.1111111
        k(    3) = (   0.0000000   0.0645097   0.0000000), wk =   0.1111111
        k(    4) = (   0.0000000  -0.0967646   0.0000000), wk =   0.0555556
        k(    5) = (   0.0279335  -0.0161274   0.0000000), wk =   0.1111111
        k(    6) = (   0.0279335   0.0161274   0.0000000), wk =   0.1111111
        k(    7) = (   0.0279335   0.0483823   0.0000000), wk =   0.1111111
        k(    8) = (   0.0279335  -0.1128920   0.0000000), wk =   0.1111111
        k(    9) = (   0.0279335  -0.0806371   0.0000000), wk =   0.1111111
        k(   10) = (   0.0279335  -0.0483823   0.0000000), wk =   0.1111111
        k(   11) = (   0.0558670  -0.0322549   0.0000000), wk =   0.1111111
        k(   12) = (   0.0558670   0.0000000   0.0000000), wk =   0.1111111
        k(   13) = (   0.0558670   0.0322549   0.0000000), wk =   0.1111111
        k(   14) = (   0.0558670  -0.1290194   0.0000000), wk =   0.1111111
        k(   15) = (   0.0558670  -0.0967646   0.0000000), wk =   0.1111111
        k(   16) = (   0.0558670  -0.0645097   0.0000000), wk =   0.1111111
        k(   17) = (  -0.0838006   0.0483823   0.0000000), wk =   0.0555556
        k(   18) = (  -0.0838006   0.0806371   0.0000000), wk =   0.1111111
        k(   19) = (  -0.0838006   0.1128920   0.0000000), wk =   0.1111111
        k(   20) = (  -0.0838006  -0.0483823   0.0000000), wk =   0.0555556

     Largest allocated arrays     est. size (Mb)     dimensions
     Largest temporary arrays     est. size (Mb)     dimensions

     Initial potential from superposition of free atoms
     Check: negative starting charge=   -0.001988

     starting charge  227.99937, renormalised to  234.00000

     negative rho (up, down):  2.040E-03 0.000E+00

     *
     * You are using vdW-DF for exchange-correlation in this calculation.
     * Please cite the following three references that made this development
     * possible:
     *
     *   M. Dion, H. Rydberg, E. Schroder, D. C. Langreth, and
     *   B. I. Lundqvist, Phys. Rev. Lett. 92, 246401 (2004).
     *
     *   T. Thonhauser, V. R. Cooper, S. Li, A. Puzder, P. Hyldgaard, and
     *   D. C. Langreth, Phys. Rev. B 76, 125112 (2007).
     *
     *   G. Roman-Perez and J. M. Soler, Phys. Rev. Lett. 103, 096102 (2009).
     *
     *
     * If you are using vdW-DF2, please also cite:
     *
     *   K. Lee, E. D. Murray, L. Kong, B. I. Lundqvist, and
     *   D. C. Langreth, Phys. Rev. B 82, 081101(R) (2010).
     *
     *
     * If you are calculating the stress with vdW-DF, please also cite:
     *
     *   R. Sabatini, E. Kucukbenli, B. Kolb, T. Thonhauser, and
     *   S. de Gironcoli, J. Phys.: Condens. Matter 24, 424209 (2012).
     *

     Carrying out vdW-DF run using the following parameters:

     Nqs =      20    Nr_points =    1024   r_max =   100.000
     q_mesh =
               0.00001000     0.04494208     0.09755937     0.15916263
               0.23128650     0.31572767     0.41458969     0.53033537
               0.66584808     0.82450364     1.01025438     1.22772762
               1.48234092     1.78043706     2.12944203     2.53805004
               3.01644009     3.57652955     4.23227104     5.00000000

     Gradients computed in reciprocal space

     Adding external electric field

     Computed dipole along edir(3) :
        Dipole               -1.2837 Ry au,         -3.2628 Debye
        Dipole field         -0.0031 Ry au

        Potential amp.        0.2857 Ry
        Total length         45.8256 bohr

     Starting wfc are  162 randomized atomic wfcs

     Self-consistent Calculation

     iteration #  1     ecut=    36.75 Ry     beta=0.30
     Davidson diagonalization with overlap
     ethr =  1.00E-02,  avg # of iterations =  5.7

[...]

     total energy              =   -3562.59046207 Ry
     Harris-Foulkes estimate   =   -3577.08075457 Ry
     estimated scf accuracy    <      31.29394492 Ry

[...]

     End of self-consistent calculation

          k = 0.0000 0.0000 0.0000 ( 19435 PWs)   bands (ev):

   -90.6976 -90.6936 -90.6532 -90.6415 -90.6368 -90.6353 -90.4921 -90.4826
   -90.4764 -90.4721 -90.4409 -90.4244 -54.2271 -54.2189 -54.2119 -54.1987
   -54.1902 -54.1653 -54.1627 -54.1575 -54.1536 -54.1453 -54.1370 -54.1341
   -54.1281 -54.1240 -54.1180 -54.1147 -54.1054 -54.0790 -54.0320 -54.0282
   -54.0230 -53.9772 -53.9703 -53.9696 -53.9690 -53.9655 -53.9587 -53.9510
   -53.9467 -53.9459 -53.9445 -53.9352 -53.9266 -53.9197 -53.9150 -53.9000
   -10.5798  -5.1259  -5.0112  -4.6063  -4.4250  -4.4161  -4.4064  -4.3654
    -4.2954  -4.2708  -4.2441  -4.1933  -4.1833  -4.1642  -4.0698  -4.0186
    -4.0085  -3.6631  -3.4615  -3.4361  -3.3560  -3.3411  -3.3133  -3.2631
    -3.2365  -3.2333  -3.1177  -3.0974  -3.0542  -3.0405  -3.0314  -2.9990
    -2.9875  -2.6220  -2.5384  -2.4876  -2.4812  -2.4333  -2.4312  -2.4107
    -2.4004  -2.3936  -2.2416  -2.2138  -2.1622  -2.1504  -2.1069  -1.9477
    -1.9416  -1.9284  -1.8823  -1.8700  -1.8582  -1.8440  -1.7698  -1.7666
    -1.7531  -1.7513  -1.6499  -1.6133  -1.5885  -1.5796  -1.5765  -1.5682
    -0.5182   0.7317   1.0271   1.8444   1.9310   1.9757   2.2420   2.5851
     2.7573   2.8563   3.0229   3.2705   3.9147   4.9400   5.0019

[...]

          k =-0.0838 0.0484 0.0000 ( 19500 PWs)   bands (ev):

[...]

     the Fermi energy is     1.3533 ev

!    total energy              =   -3573.67975754 Ry
     Harris-Foulkes estimate   =   -3573.67975651 Ry
     estimated scf accuracy    <       0.00000182 Ry

     The total energy is the sum of the following terms:

     one-electron contribution =  -26141.34331033 Ry
     hartree contribution      =   13064.36031595 Ry
     xc contribution           =    -366.14361728 Ry
     ewald contribution        =    9869.47116440 Ry
     electric field correction =       0.00000085 Ry
     smearing contrib. (-TS)   =      -0.02431113 Ry

     convergence has been achieved in  15 iterations

 BEEF-vdW xc energy contributions
           1 :   -317.125808263604
           2 :    286.989248084440
           3 :   -236.780301196442
           4 :    181.704582033777
           5 :   -135.506858550677
           6 :    105.541976093911
           7 :   -91.4342735971873
           8 :    87.2972101305563
           9 :   -85.8463609983118
          10 :    82.0727533556925
          11 :   -74.7964490623856
          12 :    65.8252292676490
          13 :   -57.7891379139332
          14 :    52.2056426186912
          15 :   -48.8338722216436
          16 :    46.3480111622298
          17 :   -43.5477603844340
          18 :    40.1583311150703
          19 :   -36.7673626441999
          20 :    34.1308042703122
          21 :   -32.4805965250024
          22 :    31.3480122373379
          23 :   -29.9653266656894
          24 :    27.8780346935051
          25 :   -25.2939021152507
          26 :    22.9261153297190
          27 :   -21.4727168110544
          28 :    21.1221920452926
          29 :   -21.4351247349601
          30 :    21.6633560221887
          31 :   -31.7822553075644
          32 :   -23.1048984228901

     Forces acting on atoms (Ry/au):

     negative rho (up, down):  2.054E-03 0.000E+00
     atom    1 type  1   force =    -0.00050091   -0.00039138    0.00209168
     atom    2 type  1   force =     0.00050877    0.00001743   -0.00122651
     atom    3 type  1   force =     0.00024586    0.00047984   -0.00004062
     atom    4 type  1   force =    -0.00017045   -0.00008245    0.00086882
     atom    5 type  1   force =    -0.00078778   -0.00038631   -0.00174426
     atom    6 type  1   force =     0.00090516    0.00020544    0.00315088
     atom    7 type  1   force =     0.00035637    0.00178507    0.00746950
     atom    8 type  1   force =    -0.00022892   -0.00048222   -0.00561585
     atom    9 type  1   force =    -0.00558854    0.01151726   -0.00038441
     atom   10 type  1   force =     0.00530045   -0.01387828   -0.00008053
     atom   11 type  1   force =    -0.00487182    0.00071639   -0.00066201
     atom   12 type  1   force =     0.00496230   -0.00021010   -0.00162957
     atom   13 type  2   force =    -0.00003279    0.00054185   -0.00920477
     atom   14 type  3   force =    -0.00622037    0.00653234    0.00343905
     atom   15 type  3   force =     0.00612268   -0.00636487    0.00356859

     Total force =     0.026565     Total SCF correction =     0.008764
     SCF correction compared to forces is large: reduce conv_thr to get better values

     entering subroutine stress ...

     negative rho (up, down):  2.054E-03 0.000E+00
          total   stress  (Ry/bohr**3)                   (kbar)     P=   -7.06
  -0.00006243  -0.00000503  -0.00000047         -9.18     -0.74     -0.07
  -0.00000503  -0.00005904  -0.00000056         -0.74     -8.69     -0.08
  -0.00000047  -0.00000056  -0.00002241         -0.07     -0.08     -3.30

     BFGS Geometry Optimization

     number of scf cycles    =   1
     number of bfgs steps    =   0

     energy   new            =   -3573.6797575383 Ry

     new trust radius        =       0.0148562435 bohr
     new conv_thr            =       0.0000099958 Ry

ATOMIC_POSITIONS (crystal)
Ag1      0.166666667   0.166666667   0.402063960    0   0   0
Ag1      0.666666667   0.166666667   0.402063960    0   0   0
Ag1      0.166666667   0.666666667   0.402063960    0   0   0
Ag1      0.666666667   0.666666667   0.402063960    0   0   0
Ag1      0.833333333   0.333333333   0.500000000    0   0   0
Ag1      0.333333333   0.333333333   0.500000000    0   0   0
Ag1      0.833333333   0.833333333   0.500000000    0   0   0
Ag1      0.333333333   0.833333333   0.500000000    0   0   0
Ag1     -0.001085400   0.001179496   0.597927861
Ag1      0.501180747  -0.001421292   0.597934327
Ag1     -0.000468768   0.500073366   0.597921955
Ag1      0.500450868   0.499978483   0.597901369
C1       0.249969346   0.000055491   0.664382298
H1       0.293740863   0.122592338   0.689981341
H1       0.206241898   0.877424812   0.689984097

     Writing output data file calc.save
     Check: negative starting charge=   -0.001988
     NEW-OLD atomic charge density approx. for the potential
     Check: negative starting charge=   -0.001988

[...]

     energy   old            =   -3573.6797575383 Ry
     energy   new            =   -3573.6803955165 Ry

     CASE: energy  _new < energy  _old

     WARNING: bfgs curvature condition failed, Theta= 0.941
     new trust radius        =       0.0222843652 bohr
     new conv_thr            =       0.0000001000 Ry

[...]

     Total force =     0.021600     Total SCF correction =     0.001218

[...]

     Threshold (ethr) on eigenvalues was too large:
     Diagonalizing with lowered threshold

     Davidson diagonalization with overlap
     ethr =  5.69E-08,  avg # of iterations =  1.0

[...]

     Total force =     0.014297     Total SCF correction =     0.000654

[...]

     Threshold (ethr) on eigenvalues was too large:
     Diagonalizing with lowered threshold

     Davidson diagonalization with overlap
     ethr =  6.04E-08,  avg # of iterations =  1.0

[...]

     number of scf cycles    =  27
     number of bfgs steps    =  26

     energy   old            =   -3573.6974866009 Ry
     energy   new            =   -3573.6975462402 Ry

     CASE: energy  _new < energy  _old

     new trust radius        =       0.0220235505 bohr
     new conv_thr            =       0.0000001000 Ry

ATOMIC_POSITIONS (crystal)
Ag1      0.166666667   0.166666667   0.402063960    0   0   0
Ag1      0.666666667   0.166666667   0.402063960    0   0   0
Ag1      0.166666667   0.666666667   0.402063960    0   0   0
Ag1      0.666666667   0.666666667   0.402063960    0   0   0
Ag1      0.833333333   0.333333333   0.500000000    0   0   0
Ag1      0.333333333   0.333333333   0.500000000    0   0   0
Ag1      0.833333333   0.833333333   0.500000000    0   0   0
Ag1      0.333333333   0.833333333   0.500000000    0   0   0
Ag1     -0.001180041  -0.009757958   0.600604873
Ag1      0.510500090  -0.008437635   0.600681296
Ag1      0.001364358   0.496346176   0.595388832
Ag1      0.506254720   0.488059048   0.595089769
C1       0.246944184   0.005404352   0.663376911
H1       0.159438425   0.179423348   0.688271069
H1       0.333046555   0.834591231   0.689227140

     Writing output data file calc.save
     Check: negative starting charge=   -0.002052
     NEW-OLD atomic charge density approx. for the potential
     Check: negative starting charge=   -0.002048

[...]

     Self-consistent Calculation

[...]

     total energy              =   -3573.69758142 Ry
     Harris-Foulkes estimate   =   -3573.69758141 Ry
     estimated scf accuracy    <       0.00000023 Ry

     iteration #  7     ecut=    36.75 Ry     beta=0.30
     Davidson diagonalization with overlap
     ethr =  9.62E-11,  avg # of iterations =  2.0

[...]

     negative rho (up, down):  2.115E-03 0.000E+00

     Adding external electric field

     Computed dipole along edir(3) :
        Dipole               -0.0600 Ry au,         -0.1526 Debye
        Dipole field         -0.0001 Ry au

        Potential amp.        0.0134 Ry
        Total length         45.8256 bohr

     End of self-consistent calculation

[...]

          k = 0.0559-0.0645 0.0000 ( 19479 PWs)   bands (ev):

[...]

          k =-0.0838-0.0484 0.0000 ( 19500 PWs)   bands (ev):

   -90.7470 -90.7459 -90.7435 -90.6965 -90.6932 -90.6879 -90.5447 -90.5442
   -90.5345 -90.5203 -90.5136 -90.4970 -54.2678 -54.2569 -54.2531 -54.2482
   -54.2457 -54.2431 -54.2404 -54.2400 -54.2217 -54.2207 -54.2093 -54.1889
   -54.1874 -54.1770 -54.1721 -54.1686 -54.1398 -54.1286 -54.0720 -54.0632
   -54.0496 -54.0487 -54.0390 -54.0336 -54.0227 -54.0221 -54.0190 -54.0170
   -54.0164 -54.0120 -54.0086 -54.0052 -54.0017 -53.9977 -53.9881 -53.9787
   -10.4409  -4.7336  -4.2465  -4.2127  -4.0975  -4.0692  -4.0388  -4.0183
    -4.0127  -3.9169  -3.8992  -3.8314  -3.8108  -3.7837  -3.7701  -3.7234
    -3.6623  -3.6159  -3.5702  -3.4580  -3.4080  -3.3864  -3.3553  -3.3385
    -3.3114  -3.2709  -3.2375  -3.0951  -3.0623  -3.0157  -3.0036  -2.9518
    -2.9498  -2.9286  -2.8509  -2.7511  -2.7411  -2.7325  -2.7241  -2.6863
    -2.6764  -2.6489  -2.6324  -2.5524  -2.5120  -2.5026  -2.4839  -2.4670
    -2.4442  -2.4247  -2.4030  -2.3745  -2.3546  -2.3443  -2.2468  -2.2229
    -2.1579  -2.1040  -1.9764  -1.9247  -1.9066  -1.8965  -1.7931  -1.7544
    -1.1715  -1.0530   0.5348   0.5739   1.0798   1.1908   2.0349   2.3446
     2.6493   3.2972   4.2735   4.5518   5.0316   5.5969   6.0148

     the Fermi energy is     1.3067 ev

!    total energy              =   -3573.69758144 Ry
     Harris-Foulkes estimate   =   -3573.69758140 Ry
     estimated scf accuracy    <       0.00000004 Ry

     The total energy is the sum of the following terms:

     one-electron contribution =  -26149.73887642 Ry
     hartree contribution      =   13068.17959079 Ry
     xc contribution           =    -366.15655176 Ry
     ewald contribution        =    9874.04372650 Ry
     electric field correction =       0.00000875 Ry
     smearing contrib. (-TS)   =      -0.02547931 Ry

     convergence has been achieved in   7 iterations

 BEEF-vdW xc energy contributions
           1 :   -317.141696972171
           2 :    287.014296276647
           3 :   -236.813139852336
           4 :    181.729024004975
           5 :   -135.501129129843
           6 :    105.496259355563
           7 :   -91.3631663058606
           8 :    87.2356074502033
           9 :   -85.8283717704954
          10 :    82.1080531708429
          11 :   -74.8622363469968
          12 :    65.8799167760056
          13 :   -57.7987748083299
          14 :    52.1652687162102
          15 :   -48.7701664510803
          16 :    46.3024396355749
          17 :   -43.5507733844225
          18 :    40.2112450023051
          19 :   -36.8436150884523
          20 :    34.1947911990080
          21 :   -32.5106123623340
          22 :    31.3475384322513
          23 :   -29.9564843967125
          24 :    27.8840773616220
          25 :   -25.3241898973994
          26 :    22.9730316592029
          27 :   -21.5202079861662
          28 :    21.1579480305301
          29 :   -21.4567460661617
          30 :    21.6746445807253
          31 :   -31.7841578999391
          32 :   -23.1072055736639

     Forces acting on atoms (Ry/au):

     negative rho (up, down):  2.115E-03 0.000E+00
     atom    1 type  1   force =    -0.00000098   -0.00041661    0.00203563
     atom    2 type  1   force =    -0.00000163   -0.00081597   -0.00173923
     atom    3 type  1   force =    -0.00053808    0.00062964   -0.00066265
     atom    4 type  1   force =     0.00053554    0.00063384   -0.00066108
     atom    5 type  1   force =    -0.00053231   -0.00338313   -0.00234734
     atom    6 type  1   force =     0.00049268   -0.00325138   -0.00222444
     atom    7 type  1   force =    -0.00002638    0.00354519    0.00574852
     atom    8 type  1   force =     0.00006133    0.00188411   -0.00207790
     atom    9 type  1   force =    -0.00120588    0.00029648    0.00029088
     atom   10 type  1   force =     0.00085729    0.00002038    0.00044010
     atom   11 type  1   force =     0.00029892    0.00042064   -0.00013127
     atom   12 type  1   force =    -0.00020677   -0.00012532   -0.00012753
     atom   13 type  2   force =     0.00030017    0.00030665    0.00148546
     atom   14 type  3   force =    -0.00000789    0.00023942   -0.00022447
     atom   15 type  3   force =    -0.00002602    0.00001605    0.00019532

     Total force =     0.002335     Total SCF correction =     0.000847
     SCF correction compared to forces is large: reduce conv_thr to get better values

     entering subroutine stress ...

     negative rho (up, down):  2.115E-03 0.000E+00
          total   stress  (Ry/bohr**3)                   (kbar)     P=   -5.68
  -0.00004926   0.00000005   0.00000014         -7.25      0.01      0.02
   0.00000005  -0.00004892   0.00000144          0.01     -7.20      0.21
   0.00000014   0.00000144  -0.00001766          0.02      0.21     -2.60

     bfgs converged in  28 scf cycles and  27 bfgs steps
     (criteria: energy <  1.0E+00, force <  1.9E-03)

     End of BFGS Geometry Optimization

     Final energy   =   -3573.6975814376 Ry
Begin final coordinates

ATOMIC_POSITIONS (crystal)
Ag1      0.166666667   0.166666667   0.402063960    0   0   0
Ag1      0.666666667   0.166666667   0.402063960    0   0   0
Ag1      0.166666667   0.666666667   0.402063960    0   0   0
Ag1      0.666666667   0.666666667   0.402063960    0   0   0
Ag1      0.833333333   0.333333333   0.500000000    0   0   0
Ag1      0.333333333   0.333333333   0.500000000    0   0   0
Ag1      0.833333333   0.833333333   0.500000000    0   0   0
Ag1      0.333333333   0.833333333   0.500000000    0   0   0
Ag1     -0.001180041  -0.009757958   0.600604873
Ag1      0.510500090  -0.008437635   0.600681296
Ag1      0.001364358   0.496346176   0.595388832
Ag1      0.506254720   0.488059048   0.595089769
C1       0.246944184   0.005404352   0.663376911
H1       0.159438425   0.179423348   0.688271069
H1       0.333046555   0.834591231   0.689227140
End final coordinates

     Writing output data file calc.save

     General routines

     Parallel routines

   This run was terminated on:  12:53:51  16Apr2018

   JOB DONE.
Job  /afs/slac/g/suncat/bin/suncat-tsmpirun -x LD_LIBRARY_PATH -wdir /scratch/qe104752_Owbe1 pw.x -npool 4 -in pw.inp

TID   HOST_NAME   COMMAND_LINE            STATUS            TERMINATION_TIME
00000 suncat0028 pw.x -npool 4 -i  Done                     04/16/2018 12:53:51
00001 suncat0028 pw.x -npool 4 -i  Done                     04/16/2018 12:53:51
00002 suncat0028 pw.x -npool 4 -i  Done                     04/16/2018 12:53:51
00003 suncat0028 pw.x -npool 4 -i  Done                     04/16/2018 12:53:51
00004 suncat0028 pw.x -npool 4 -i  Done                     04/16/2018 12:53:51
00005 suncat0028 pw.x -npool 4 -i  Done                     04/16/2018 12:53:51
00006 suncat0028 pw.x -npool 4 -i  Done                     04/16/2018 12:53:51
00007 suncat0028 pw.x -npool 4 -i  Done                     04/16/2018 12:53:51
00008 suncat0026 pw.x -npool 4 -i  Done                     04/16/2018 12:53:51
00009 suncat0026 pw.x -npool 4 -i  Done                     04/16/2018 12:53:51
00010 suncat0026 pw.x -npool 4 -i  Done                     04/16/2018 12:53:51
00011 suncat0026 pw.x -npool 4 -i  Done                     04/16/2018 12:53:51
00012 suncat0026 pw.x -npool 4 -i  Done                     04/16/2018 12:53:51
00013 suncat0026 pw.x -npool 4 -i  Done                     04/16/2018 12:53:51
00014 suncat0026 pw.x -npool 4 -i  Done                     04/16/2018 12:53:51
00015 suncat0026 pw.x -npool 4 -i  Done                     04/16/2018 12:53:51
00016 suncat0144 pw.x -npool 4 -i  Done                     04/16/2018 12:53:51
00017 suncat0144 pw.x -npool 4 -i  Done                     04/16/2018 12:53:51
00018 suncat0144 pw.x -npool 4 -i  Done                     04/16/2018 12:53:51
00019 suncat0144 pw.x -npool 4 -i  Done                     04/16/2018 12:53:51
00020 suncat0144 pw.x -npool 4 -i  Done                     04/16/2018 12:53:51
00021 suncat0144 pw.x -npool 4 -i  Done                     04/16/2018 12:53:51
00022 suncat0144 pw.x -npool 4 -i  Done                     04/16/2018 12:53:51
00023 suncat0144 pw.x -npool 4 -i  Done                     04/16/2018 12:53:51
00024 suncat0133 pw.x -npool 4 -i  Done                     04/16/2018 12:53:51
00025 suncat0133 pw.x -npool 4 -i  Done                     04/16/2018 12:53:51
00026 suncat0133 pw.x -npool 4 -i  Done                     04/16/2018 12:53:51
00027 suncat0133 pw.x -npool 4 -i  Done                     04/16/2018 12:53:51
00028 suncat0133 pw.x -npool 4 -i  Done                     04/16/2018 12:53:51
00029 suncat0133 pw.x -npool 4 -i  Done                     04/16/2018 12:53:51
00030 suncat0133 pw.x -npool 4 -i  Done                     04/16/2018 12:53:51
00031 suncat0133 pw.x -npool 4 -i  Done                     04/16/2018 12:53:51