     Program PWSCF v.5.1rc2 (svn rev. 11289) starts on 23Apr2018 at 13:16:50

     Current dimensions of program PWSCF are:
     Max number of different atomic species (ntypx) = 10
     Max number of k-points (npk) =  40000
     Max angular momentum in pseudopotentials (lmaxx) =  3
     Presently stress not available with electric field

     IMPORTANT: XC functional enforced from input :
     Exchange-correlation      = BEEF-VDW ( 1  4 27 13 2)
     Any further DFT definition will be discarded
     Please, verify this is what you really want

     Subspace diagonalization in iterative solution of the eigenvalue problem:
     a serial algorithm will be used

     bravais-lattice index     =            0
     lattice parameter (alat)  =       1.8897  a.u.
     unit-cell volume          =    4301.6107 (a.u.)^3
     number of atoms/cell      =           14
     number of atomic types    =            3
     number of electrons       =       186.00
     number of Kohn-Sham states=          103
     kinetic-energy cutoff     =      36.7493  Ry
     charge density cutoff     =     367.4932  Ry
     convergence threshold     =      1.0E-05
     mixing beta               =       0.3000
     number of iterations used =           10  plain     mixing
     Exchange-correlation      = BEEF-VDW ( 1  4 27 13 2)
     nstep                     =           50

     celldm(1)=   1.889726  celldm(2)=   0.000000  celldm(3)=   0.000000
     celldm(4)=   0.000000  celldm(5)=   0.000000  celldm(6)=   0.000000

     crystal axes: (cart. coord. in units of alat)
               a(1) = (   5.483647   0.000000   0.000000 )
               a(2) = (   2.741823   4.748977   0.000000 )
               a(3) = (   0.000000   0.000000  24.477379 )

     reciprocal axes: (cart. coord. in units 2 pi/alat)
               b(1) = (  0.182360 -0.105286  0.000000 )
               b(2) = (  0.000000  0.210572  0.000000 )
               b(3) = (  0.000000  0.000000  0.040854 )

     PseudoPot. # 1 for Tc read from file:
     /u/if/mamunm/psp/gbrv1.5pbe/Tc.UPF
     MD5 check sum: 9eb49e5b028550b2339a02317eb7b844
     Pseudo is Ultrasoft + core correction, Zval = 15.0
     Generated by new atomic code, or converted to UPF format
     Using radial grid of  965 points,  6 beta functions with:
                l(1) =   0
                l(2) =   0
                l(3) =   1
                l(4) =   1
                l(5) =   2
                l(6) =   2
     Q(r) pseudized with  8 coefficients,  rinner =    1.300   1.300   1.300
                                                       1.300   1.300

     PseudoPot. # 2 for N  read from file:
     /u/if/mamunm/psp/gbrv1.5pbe/N.UPF
     MD5 check sum: 95339753478d7afb44899504a8723017
     Pseudo is Ultrasoft + core correction, Zval =  5.0
     Generated by new atomic code, or converted to UPF format
     Using radial grid of  729 points,  4 beta functions with:
                l(1) =   0
                l(2) =   0
                l(3) =   1
                l(4) =   1
     Q(r) pseudized with  8 coefficients,  rinner =    0.900   0.900   0.900

     PseudoPot. # 3 for H  read from file:
     /u/if/mamunm/psp/gbrv1.5pbe/H.UPF
     MD5 check sum: 761ae9a214b05c3daf00ab9f6b793d6f
     Pseudo is Ultrasoft, Zval =  1.0
     Generated by new atomic code, or converted to UPF format
     Using radial grid of  615 points,  2 beta functions with:
                l(1) =   0
                l(2) =   0
     Q(r) pseudized with  8 coefficients,  rinner =    0.700

     vdW kernel table read from file vdW_kernel_table
     MD5 check sum: 095c7af220d748ca6e76c0b4c6cfb241

     atomic species   valence    mass     pseudopotential
        Tc1           15.00    97.90721     Tc( 1.00)
        N1             5.00    14.00700     N ( 1.00)
        H1             1.00     1.00800     H ( 1.00)

     No symmetry found

   Cartesian axes

     site n.     atom                  positions (alat units)
         1           Tc1 tau(   1) = (   1.3709117   0.7914962  10.0000000  )
         2           Tc1 tau(   2) = (   4.1127351   0.7914962  10.0000000  )
         3           Tc1 tau(   3) = (   2.7418234   3.1659850  10.0000000  )
         4           Tc1 tau(   4) = (   5.4836469   3.1659850  10.0000000  )
         5           Tc1 tau(   5) = (   5.4836469   1.5829925  12.2386895  )
         6           Tc1 tau(   6) = (   2.7418234   1.5829925  12.2386895  )
         7           Tc1 tau(   7) = (   6.8545586   3.9574812  12.2386895  )
         8           Tc1 tau(   8) = (   4.1127351   3.9574812  12.2386895  )
         9           Tc1 tau(   9) = (   0.0000000   0.0000000  14.4773789  )
        10           Tc1 tau(  10) = (   2.7418234   0.0000000  14.4773789  )
        11           Tc1 tau(  11) = (   1.3709117   2.3744887  14.4773789  )
        12           Tc1 tau(  12) = (   4.1127351   2.3744887  14.4773789  )
        13           N1  tau(  13) = (   0.0000000   0.0000000  16.3303789  )
        14           H1  tau(  14) = (   0.0000000   0.0000000  17.3803789  )

     number of k points=    20  Fermi-Dirac smearing, width (Ry)=  0.0110
                       cart. coord. in units 2pi/alat
        k(    1) = (   0.0000000   0.0000000   0.0000000), wk =   0.0555556
        k(    2) = (   0.0000000   0.0350953   0.0000000), wk =   0.1111111
        k(    3) = (   0.0000000   0.0701905   0.0000000), wk =   0.1111111
        k(    4) = (   0.0000000  -0.1052858   0.0000000), wk =   0.0555556
        k(    5) = (   0.0303934  -0.0175476   0.0000000), wk =   0.1111111
        k(    6) = (   0.0303934   0.0175476   0.0000000), wk =   0.1111111
        k(    7) = (   0.0303934   0.0526429   0.0000000), wk =   0.1111111
        k(    8) = (   0.0303934  -0.1228335   0.0000000), wk =   0.1111111
        k(    9) = (   0.0303934  -0.0877382   0.0000000), wk =   0.1111111
        k(   10) = (   0.0303934  -0.0526429   0.0000000), wk =   0.1111111
        k(   11) = (   0.0607868  -0.0350953   0.0000000), wk =   0.1111111
        k(   12) = (   0.0607868   0.0000000   0.0000000), wk =   0.1111111
        k(   13) = (   0.0607868   0.0350953   0.0000000), wk =   0.1111111
        k(   14) = (   0.0607868  -0.1403811   0.0000000), wk =   0.1111111
        k(   15) = (   0.0607868  -0.1052858   0.0000000), wk =   0.1111111
        k(   16) = (   0.0607868  -0.0701905   0.0000000), wk =   0.1111111
        k(   17) = (  -0.0911802   0.0526429   0.0000000), wk =   0.0555556
        k(   18) = (  -0.0911802   0.0877382   0.0000000), wk =   0.1111111
        k(   19) = (  -0.0911802   0.1228335   0.0000000), wk =   0.1111111
        k(   20) = (  -0.0911802  -0.0526429   0.0000000), wk =   0.0555556

     Largest allocated arrays     est. size (Mb)     dimensions
     Largest temporary arrays     est. size (Mb)     dimensions

     Check: negative/imaginary core charge=   -0.000022    0.000000

     Initial potential from superposition of free atoms
     Check: negative starting charge=   -1.504840

     starting charge  173.99965, renormalised to  186.00000

     negative rho (up, down):  1.609E+00 0.000E+00

     *
     * You are using vdW-DF for exchange-correlation in this calculation.
     * Please cite the following three references that made this development
     * possible:
     *
     *   M. Dion, H. Rydberg, E. Schroder, D. C. Langreth, and
     *   B. I. Lundqvist, Phys. Rev. Lett. 92, 246401 (2004).
     *
     *   T. Thonhauser, V. R. Cooper, S. Li, A. Puzder, P. Hyldgaard, and
     *   D. C. Langreth, Phys. Rev. B 76, 125112 (2007).
     *
     *   G. Roman-Perez and J. M. Soler, Phys. Rev. Lett. 103, 096102 (2009).
     *
     *
     * If you are using vdW-DF2, please also cite:
     *
     *   K. Lee, E. D. Murray, L. Kong, B. I. Lundqvist, and
     *   D. C. Langreth, Phys. Rev. B 82, 081101(R) (2010).
     *
     *
     * If you are calculating the stress with vdW-DF, please also cite:
     *
     *   R. Sabatini, E. Kucukbenli, B. Kolb, T. Thonhauser, and
     *   S. de Gironcoli, J. Phys.: Condens. Matter 24, 424209 (2012).
     *

     Carrying out vdW-DF run using the following parameters:

     Nqs =      20    Nr_points =    1024   r_max =   100.000
     q_mesh =
               0.00001000     0.04494208     0.09755937     0.15916263
               0.23128650     0.31572767     0.41458969     0.53033537
               0.66584808     0.82450364     1.01025438     1.22772762
               1.48234092     1.78043706     2.12944203     2.53805004
               3.01644009     3.57652955     4.23227104     5.00000000

     Gradients computed in reciprocal space

     Adding external electric field

     Computed dipole along edir(3) :
        Dipole               -3.3363 Ry au,         -8.4800 Debye
        Dipole field         -0.0097 Ry au

        Potential amp.        0.8791 Ry
        Total length         45.0992 bohr

     Starting wfc are  161 randomized atomic wfcs

     Self-consistent Calculation

     iteration #  1     ecut=    36.75 Ry     beta=0.30
     Davidson diagonalization with overlap
     ethr =  1.00E-02,  avg # of iterations =  7.5

[...]

     total energy              =   -1882.60833608 Ry
     Harris-Foulkes estimate   =   -2120.48459287 Ry
     estimated scf accuracy    <     499.96504323 Ry

[...]

     End of self-consistent calculation

          k = 0.0000 0.0000 0.0000 ( 16073 PWs)   bands (ev):

   -64.6202 -64.2890 -64.1603 -64.1144 -64.1143 -64.0492 -63.9819 -63.9337
   -63.9213 -63.9209 -63.8923 -63.8921 -37.0235 -36.7665 -36.7664 -36.6961
   -36.6960 -36.6691 -36.5694 -36.4699 -36.4698 -36.4599 -36.4061 -36.0936
   -36.0936 -36.0809 -36.0316 -35.9990 -35.9990 -35.9879 -35.9425 -35.9423
   -35.8905 -35.8897 -35.8896 -35.8005 -35.8004 -35.7557 -35.7557 -35.7518
   -35.7337 -35.7131 -35.7129 -35.6979 -35.5674 -35.5673 -35.5163 -35.5163
   -12.1852  -4.2520  -3.4031  -2.2982  -2.2981  -2.2332  -2.1919  -2.0986
    -1.7971  -1.7971  -1.7375  -1.7375  -1.6805  -1.5579  -1.3095  -1.3095
    -1.2692  -0.7332  -0.7331  -0.0647   0.5333   0.5334   0.7589   1.0270
     1.2568   1.2569   1.3246   1.3246   1.3390   1.5839   1.5839   1.7174
     1.7989   1.7989   1.8297   1.8297   2.2817   2.2818   2.4045   3.1927
     3.2866   3.2867   3.3506   3.4357   3.6732   3.6732   3.8752   3.8753
     4.0677   4.1963   4.1964   4.7226   4.7227   5.0125   5.0126

[...]

          k =-0.0912 0.0526 0.0000 ( 16164 PWs)   bands (ev):

[...]

     the Fermi energy is     2.9836 ev

!    total energy              =   -2124.84375391 Ry
     Harris-Foulkes estimate   =   -2124.84375896 Ry
     estimated scf accuracy    <       0.00000171 Ry

     The total energy is the sum of the following terms:

     one-electron contribution =  -19002.42061983 Ry
     hartree contribution      =    9505.27433318 Ry
     xc contribution           =    -403.17144629 Ry
     ewald contribution        =    7775.56494003 Ry
     electric field correction =       0.00027825 Ry
     smearing contrib. (-TS)   =      -0.09123926 Ry

     convergence has been achieved in  41 iterations

 BEEF-vdW xc energy contributions
           1 :   -353.097375848905
           2 :    324.439777692921
           3 :   -273.586464712191
           4 :    210.848156621579
           5 :   -147.107140724683
           6 :    90.8440801308296
           7 :   -46.5415870184445
           8 :    14.6170642978048
           9 :    7.29976388898706
          10 :   -22.5226949044074
          11 :    33.6454074156783
          12 :   -41.6873220495097
          13 :    46.1610543922868
          14 :   -45.8768305468388
          15 :    39.9902346586131
          16 :   -28.8181208555234
          17 :    14.0754159117985
          18 :    1.51062278510278
          19 :   -15.0208535427644
          20 :    24.2169974213145
          21 :   -28.1212163700012
          22 :    27.0823080205867
          23 :   -22.3763237777023
          24 :    15.5724778003384
          25 :   -7.98141416061810
          26 :   0.398601920056421
          27 :    6.81134066889285
          28 :   -13.4250723335069
          29 :    19.0721592008388
          30 :   -23.1268509516355
          31 :   -33.7218495485317
          32 :   -24.7133483582739

     Forces acting on atoms (Ry/au):

     negative rho (up, down):  1.590E+00 0.000E+00
     atom    1 type  1   force =     0.00065098    0.00037264    0.02773893
     atom    2 type  1   force =    -0.00064735    0.00038213    0.02773778
     atom    3 type  1   force =     0.00000769   -0.00074880    0.02775356
     atom    4 type  1   force =    -0.00000682   -0.00000178    0.03546142
     atom    5 type  1   force =    -0.00004641    0.01536097   -0.00679675
     atom    6 type  1   force =     0.00004382    0.00001171   -0.01009753
     atom    7 type  1   force =    -0.01328972   -0.00765960   -0.00683310
     atom    8 type  1   force =     0.01328424   -0.00772338   -0.00678494
     atom    9 type  1   force =     0.00000176   -0.00000156    0.11796437
     atom   10 type  1   force =    -0.00000200   -0.00586769   -0.04389055
     atom   11 type  1   force =    -0.00508454    0.00293884   -0.04387344
     atom   12 type  1   force =     0.00508525    0.00293697   -0.04385176
     atom   13 type  2   force =     0.00000198    0.00000084   -0.02856150
     atom   14 type  3   force =     0.00000113   -0.00000130   -0.04596649

     Total force =     0.150738     Total SCF correction =     0.001939

     entering subroutine stress ...

     negative rho (up, down):  1.590E+00 0.000E+00
          total   stress  (Ry/bohr**3)                   (kbar)     P=  -34.29
  -0.00019974   0.00000002  -0.00000001        -29.38      0.00     -0.00
   0.00000002  -0.00019976   0.00000001          0.00    -29.39      0.00
  -0.00000001   0.00000001  -0.00029978         -0.00      0.00    -44.10

     BFGS Geometry Optimization

     number of scf cycles    =   1
     number of bfgs steps    =   0

     energy   new            =   -2124.8437539150 Ry

     new trust radius        =       0.1179643697 bohr
     new conv_thr            =       0.0000099958 Ry

ATOMIC_POSITIONS (crystal)
Tc1      0.166666667   0.166666667   0.408540475    0   0   0
Tc1      0.666666667   0.166666667   0.408540475    0   0   0
Tc1      0.166666667   0.666666667   0.408540475    0   0   0
Tc1      0.666666667   0.666666667   0.408540475    0   0   0
Tc1      0.833333333   0.333333333   0.500000000    0   0   0
Tc1      0.333333333   0.333333333   0.500000000    0   0   0
Tc1      0.833333333   0.833333333   0.500000000    0   0   0
Tc1      0.333333333   0.833333333   0.500000000    0   0   0
Tc1      0.000000257  -0.000000174   0.594009801
Tc1      0.500326724  -0.000653835   0.590510654
Tc1     -0.000654400   0.500327474   0.590511024
Tc1      0.500327098   0.500327266   0.590511493
N1       0.000000144   0.000000094   0.666544603
H1       0.000000182  -0.000000145   0.709065074

     Writing output data file calc.save
     Check: negative starting charge=   -1.504840
     NEW-OLD atomic charge density approx. for the potential

     Check: negative/imaginary core charge=   -0.000022    0.000000
     Check: negative starting charge=   -1.513318

[...]

     energy   old            =   -2124.8437539150 Ry
     energy   new            =   -2124.8629987985 Ry

     CASE: energy  _new < energy  _old

[...]

     WARNING: bfgs curvature condition failed, Theta= 0.965
     new trust radius        =       0.0269858796 bohr
     new conv_thr            =       0.0000001000 Ry

[...]

     Total force =     0.017394     Total SCF correction =     0.000868

[...]

     Total force =     0.003697     Total SCF correction =     0.000804
     SCF correction compared to forces is large: reduce conv_thr to get better values

[...]

     number of scf cycles    =  13
     number of bfgs steps    =  12

     energy   old            =   -2124.8992751147 Ry
     energy   new            =   -2124.9006745428 Ry

     CASE: energy  _new < energy  _old

     new trust radius        =       0.0592665353 bohr
     new conv_thr            =       0.0000001000 Ry

ATOMIC_POSITIONS (crystal)
Tc1      0.166666667   0.166666667   0.408540475    0   0   0
Tc1      0.666666667   0.166666667   0.408540475    0   0   0
Tc1      0.166666667   0.666666667   0.408540475    0   0   0
Tc1      0.666666667   0.666666667   0.408540475    0   0   0
Tc1      0.833333333   0.333333333   0.500000000    0   0   0
Tc1      0.333333333   0.333333333   0.500000000    0   0   0
Tc1      0.833333333   0.833333333   0.500000000    0   0   0
Tc1      0.333333333   0.833333333   0.500000000    0   0   0
Tc1      0.000000102   0.000000854   0.608782745
Tc1      0.501553052  -0.003105390   0.586142952
Tc1     -0.003106801   0.501552600   0.586142706
Tc1      0.501555144   0.501552671   0.586141223
N1       0.000000529  -0.000000998   0.679242562
H1       0.000000078  -0.000001005   0.720900025

     Writing output data file calc.save
     Check: negative starting charge=   -1.506985
     NEW-OLD atomic charge density approx. for the potential

     Check: negative/imaginary core charge=   -0.000022    0.000000
     Check: negative starting charge=   -1.505225

[...]

     Self-consistent Calculation

[...]

     total energy              =   -2124.90078926 Ry
     Harris-Foulkes estimate   =   -2124.90078919 Ry
     estimated scf accuracy    <       0.00000017 Ry

     iteration # 15     ecut=    36.75 Ry     beta=0.30
     Davidson diagonalization with overlap
     ethr =  9.25E-11,  avg # of iterations =  4.2

[...]

     negative rho (up, down):  1.591E+00 0.000E+00

     Adding external electric field

     Computed dipole along edir(3) :
        Dipole                0.3763 Ry au,          0.9565 Debye
        Dipole field          0.0011 Ry au

        Potential amp.       -0.0992 Ry
        Total length         45.0992 bohr

     End of self-consistent calculation

[...]

          k = 0.0608-0.0702 0.0000 ( 16203 PWs)   bands (ev):

[...]

          k =-0.0912-0.0526 0.0000 ( 16164 PWs)   bands (ev):

   -64.5878 -64.1530 -64.1403 -64.0676 -64.0638 -63.9038 -63.8944 -63.8788
   -63.8619 -63.8394 -63.8344 -63.7928 -37.1535 -36.5355 -36.5270 -36.4660
   -36.4652 -36.4012 -36.3631 -36.3485 -36.3026 -36.2625 -36.2498 -36.1921
   -36.1604 -36.1074 -36.0018 -35.9340 -35.9078 -35.8897 -35.8814 -35.8741
   -35.8693 -35.8432 -35.8294 -35.8135 -35.8082 -35.7807 -35.7726 -35.7641
   -35.7159 -35.7034 -35.6552 -35.6242 -35.6054 -35.5465 -35.5188 -35.5008
   -12.5648  -4.6347  -1.8868  -1.8414  -1.4000  -1.3025  -1.2784  -1.1158
    -1.0804  -1.0038  -0.9089  -0.7189  -0.6138  -0.5884  -0.4053  -0.2729
    -0.2686  -0.1777  -0.1220   0.1148   0.2816   0.3668   0.4027   0.5376
     0.6418   0.7753   0.9573   1.1707   1.1713   1.2800   1.5262   1.5969
     1.6075   1.6501   1.6998   1.7915   1.8475   1.8749   1.9315   2.0296
     2.0331   2.1385   2.6793   2.8475   2.8632   3.0606   3.0876   3.2462
     3.2502   3.4941   3.4990   3.6153   3.7121   3.7681   4.0644

     the Fermi energy is     3.0615 ev

!    total energy              =   -2124.90078922 Ry
     Harris-Foulkes estimate   =   -2124.90078969 Ry
     estimated scf accuracy    <       0.00000008 Ry

     The total energy is the sum of the following terms:

     one-electron contribution =  -18868.89462385 Ry
     hartree contribution      =    9438.78593404 Ry
     xc contribution           =    -403.28657476 Ry
     ewald contribution        =    7708.58027329 Ry
     electric field correction =       0.00041373 Ry
     smearing contrib. (-TS)   =      -0.08621166 Ry

     convergence has been achieved in  15 iterations

 BEEF-vdW xc energy contributions
           1 :   -353.208538694706
           2 :    324.544071986834
           3 :   -273.699655050218
           4 :    210.982510883125
           5 :   -147.243222964555
           6 :    90.9411727426146
           7 :   -46.5597866572279
           8 :    14.5349013096846
           9 :    7.47677633889327
          10 :   -22.7627607836588
          11 :    33.8990284337195
          12 :   -41.9011011902267
          13 :    46.2983457103257
          14 :   -45.9397849261904
          15 :    40.0249128438154
          16 :   -28.8952419055713
          17 :    14.2513041688445
          18 :    1.23050290837108
          19 :   -14.6953890629320
          20 :    23.9487928382264
          21 :   -28.0048913403602
          22 :    27.1493853385200
          23 :   -22.5705794609740
          24 :    15.7726337014986
          25 :   -8.06147956997773
          26 :   0.292491894434079
          27 :    7.07568922700875
          28 :   -13.7379140348841
          29 :    19.2941258194766
          30 :   -23.1577697929364
          31 :   -33.7269954763555
          32 :   -24.7162306698094

     Forces acting on atoms (Ry/au):

     negative rho (up, down):  1.591E+00 0.000E+00
     atom    1 type  1   force =     0.00054469    0.00032248    0.02523628
     atom    2 type  1   force =    -0.00054418    0.00031892    0.02523929
     atom    3 type  1   force =    -0.00000375   -0.00063465    0.02523397
     atom    4 type  1   force =     0.00000366   -0.00000568    0.03564204
     atom    5 type  1   force =     0.00000456    0.01315403   -0.02461472
     atom    6 type  1   force =    -0.00000366    0.00001326   -0.03910220
     atom    7 type  1   force =    -0.01138476   -0.00658435   -0.02462335
     atom    8 type  1   force =     0.01138373   -0.00658050   -0.02462587
     atom    9 type  1   force =    -0.00000312    0.00000204   -0.00070731
     atom   10 type  1   force =     0.00000433   -0.00056600    0.00054506
     atom   11 type  1   force =    -0.00049274    0.00028207    0.00054292
     atom   12 type  1   force =     0.00049065    0.00027755    0.00055976
     atom   13 type  2   force =     0.00000048    0.00000097    0.00138486
     atom   14 type  3   force =     0.00000010   -0.00000012   -0.00071073

     Total force =     0.002188     Total SCF correction =     0.000841
     SCF correction compared to forces is large: reduce conv_thr to get better values

     entering subroutine stress ...

     negative rho (up, down):  1.591E+00 0.000E+00
          total   stress  (Ry/bohr**3)                   (kbar)     P=  -27.72
  -0.00022081   0.00000000   0.00000000        -32.48      0.00      0.00
   0.00000000  -0.00022081  -0.00000001          0.00    -32.48     -0.00
   0.00000000  -0.00000001  -0.00012360          0.00     -0.00    -18.18

     bfgs converged in  14 scf cycles and  13 bfgs steps
     (criteria: energy <  1.0E+00, force <  1.9E-03)

     End of BFGS Geometry Optimization

     Final energy   =   -2124.9007892157 Ry
Begin final coordinates

ATOMIC_POSITIONS (crystal)
Tc1      0.166666667   0.166666667   0.408540475    0   0   0
Tc1      0.666666667   0.166666667   0.408540475    0   0   0
Tc1      0.166666667   0.666666667   0.408540475    0   0   0
Tc1      0.666666667   0.666666667   0.408540475    0   0   0
Tc1      0.833333333   0.333333333   0.500000000    0   0   0
Tc1      0.333333333   0.333333333   0.500000000    0   0   0
Tc1      0.833333333   0.833333333   0.500000000    0   0   0
Tc1      0.333333333   0.833333333   0.500000000    0   0   0
Tc1      0.000000102   0.000000854   0.608782745
Tc1      0.501553052  -0.003105390   0.586142952
Tc1     -0.003106801   0.501552600   0.586142706
Tc1      0.501555144   0.501552671   0.586141223
N1       0.000000529  -0.000000998   0.679242562
H1       0.000000078  -0.000001005   0.720900025
End final coordinates

     Writing output data file calc.save

     General routines

     Parallel routines

   This run was terminated on:  14:22:21  23Apr2018

   JOB DONE.
Job  /afs/slac/g/suncat/bin/suncat-tsmpirun -x LD_LIBRARY_PATH -wdir /scratch/qe12338_EJSEf pw.x -npool 3 -in pw.inp

TID   HOST_NAME   COMMAND_LINE            STATUS            TERMINATION_TIME
00000 suncat2006 pw.x -npool 3 -i  Done                     04/23/2018 14:22:21
00001 suncat2006 pw.x -npool 3 -i  Done                     04/23/2018 14:22:21
00002 suncat2006 pw.x -npool 3 -i  Done                     04/23/2018 14:22:21
00003 suncat2006 pw.x -npool 3 -i  Done                     04/23/2018 14:22:21
00004 suncat2069 pw.x -npool 3 -i  Done                     04/23/2018 14:22:21
00005 suncat2069 pw.x -npool 3 -i  Done                     04/23/2018 14:22:21
00006 suncat2069 pw.x -npool 3 -i  Done                     04/23/2018 14:22:21
00007 suncat2069 pw.x -npool 3 -i  Done                     04/23/2018 14:22:21
00008 suncat2069 pw.x -npool 3 -i  Done                     04/23/2018 14:22:21
00009 suncat2069 pw.x -npool 3 -i  Done                     04/23/2018 14:22:21
00010 suncat2069 pw.x -npool 3 -i  Done                     04/23/2018 14:22:21
00011 suncat2069 pw.x -npool 3 -i  Done                     04/23/2018 14:22:21
00012 suncat2069 pw.x -npool 3 -i  Done                     04/23/2018 14:22:21
00013 suncat2069 pw.x -npool 3 -i  Done                     04/23/2018 14:22:21
00014 suncat2069 pw.x -npool 3 -i  Done                     04/23/2018 14:22:21
00015 suncat2069 pw.x -npool 3 -i  Done                     04/23/2018 14:22:21
00016 suncat2069 pw.x -npool 3 -i  Done                     04/23/2018 14:22:21
00017 suncat2069 pw.x -npool 3 -i  Done                     04/23/2018 14:22:21
00018 suncat2069 pw.x -npool 3 -i  Done                     04/23/2018 14:22:21
00019 suncat2069 pw.x -npool 3 -i  Done                     04/23/2018 14:22:21
00020 suncat2035 pw.x -npool 3 -i  Done                     04/23/2018 14:22:21
00021 suncat2035 pw.x -npool 3 -i  Done                     04/23/2018 14:22:21
00022 suncat2035 pw.x -npool 3 -i  Done                     04/23/2018 14:22:21
00023 suncat2035 pw.x -npool 3 -i  Done                     04/23/2018 14:22:21
00024 suncat2035 pw.x -npool 3 -i  Done                     04/23/2018 14:22:21
00025 suncat2035 pw.x -npool 3 -i  Done                     04/23/2018 14:22:21
00026 suncat2035 pw.x -npool 3 -i  Done                     04/23/2018 14:22:21
00027 suncat2035 pw.x -npool 3 -i  Done                     04/23/2018 14:22:21
00028 suncat2035 pw.x -npool 3 -i  Done                     04/23/2018 14:22:21
00029 suncat2035 pw.x -npool 3 -i  Done                     04/23/2018 14:22:21
00030 suncat2035 pw.x -npool 3 -i  Done                     04/23/2018 14:22:21
00031 suncat2035 pw.x -npool 3 -i  Done                     04/23/2018 14:22:21
00032 suncat2035 pw.x -npool 3 -i  Done                     04/23/2018 14:22:21
00033 suncat2035 pw.x -npool 3 -i  Done                     04/23/2018 14:22:21
00034 suncat2035 pw.x -npool 3 -i  Done                     04/23/2018 14:22:21
00035 suncat2035 pw.x -npool 3 -i  Done                     04/23/2018 14:22:21