     Program PWSCF v.5.1rc2 starts on 27Apr2018 at 11:22:41

     Current dimensions of program PWSCF are:
     Max number of different atomic species (ntypx) = 10
     Max number of k-points (npk) =  40000
     Max angular momentum in pseudopotentials (lmaxx) =  3
     Presently stress not available with electric field

     IMPORTANT: XC functional enforced from input :
     Exchange-correlation      = BEEF-VDW ( 1  4 27 13 2)
     Any further DFT definition will be discarded
     Please, verify this is what you really want

     bravais-lattice index     =            0
     lattice parameter (alat)  =       1.8897  a.u.
     unit-cell volume          =    6082.7792 (a.u.)^3
     number of atoms/cell      =           14
     number of atomic types    =            3
     number of electrons       =       151.00
     number of Kohn-Sham states=           85
     kinetic-energy cutoff     =      36.7493  Ry
     charge density cutoff     =     367.4932  Ry
     convergence threshold     =      1.0E-05
     mixing beta               =       0.3000
     number of iterations used =           10  plain     mixing
     Exchange-correlation      = BEEF-VDW ( 1  4 27 13 2)
     nstep                     =           50

     celldm(1)=   1.889726  celldm(2)=   0.000000  celldm(3)=   0.000000
     celldm(4)=   0.000000  celldm(5)=   0.000000  celldm(6)=   0.000000

     crystal axes: (cart. coord. in units of alat)
               a(1) = (   6.421223   0.000000   0.000000 )
               a(2) = (   3.210611   5.560942   0.000000 )
               a(3) = (   0.000000   0.000000  25.242906 )

     reciprocal axes: (cart. coord. in units 2 pi/alat)
               b(1) = (  0.155734 -0.089913  0.000000 )
               b(2) = (  0.000000  0.179826  0.000000 )
               b(3) = (  0.000000  0.000000  0.039615 )

     PseudoPot. # 1 for Zr read from file:
     /home/users/mamunm/src/pseudo/gbrv1.5pbe/Zr.UPF
     MD5 check sum: 5db81b1e868ab7776c4564c113de050b
     Pseudo is Ultrasoft + core correction, Zval = 12.0
     Generated by new atomic code, or converted to UPF format
     Using radial grid of  887 points,  6 beta functions with:
                l(1) =   0
                l(2) =   0
                l(3) =   1
                l(4) =   1
                l(5) =   2
                l(6) =   2
     Q(r) pseudized with  6 coefficients,  rinner =    1.200   1.200   1.200
                                                       1.200   1.200

     PseudoPot. # 2 for S  read from file:
     /home/users/mamunm/src/pseudo/gbrv1.5pbe/S.UPF
     MD5 check sum: 88d86576ff6df21479756cfb9bdac1df
     Pseudo is Ultrasoft + core correction, Zval =  6.0
     Generated by new atomic code, or converted to UPF format
     Using radial grid of  907 points,  6 beta functions with:
                l(1) =   0
                l(2) =   0
                l(3) =   1
                l(4) =   1
                l(5) =   2
                l(6) =   2
     Q(r) pseudized with  8 coefficients,  rinner =    1.300   1.300   1.300
                                                       1.300   1.300

     PseudoPot. # 3 for H  read from file:
     /home/users/mamunm/src/pseudo/gbrv1.5pbe/H.UPF
     MD5 check sum: 761ae9a214b05c3daf00ab9f6b793d6f
     Pseudo is Ultrasoft, Zval =  1.0
     Generated by new atomic code, or converted to UPF format
     Using radial grid of  615 points,  2 beta functions with:
                l(1) =   0
                l(2) =   0
     Q(r) pseudized with  8 coefficients,  rinner =    0.700

     vdW kernel table read from file vdW_kernel_table
     MD5 check sum: 095c7af220d748ca6e76c0b4c6cfb241

     atomic species   valence    mass     pseudopotential
        Zr1           12.00    91.22400     Zr( 1.00)
        S1             6.00    32.06000     S ( 1.00)
        H1             1.00     1.00800     H ( 1.00)

     No symmetry found

   Cartesian axes

     site n.     atom                  positions (alat units)
         1           Zr1 tau(   1) = (   1.6053057   0.9268237  10.0000000  )
         2           Zr1 tau(   2) = (   4.8159170   0.9268237  10.0000000  )
         3           Zr1 tau(   3) = (   3.2106113   3.7072946  10.0000000  )
         4           Zr1 tau(   4) = (   6.4212227   3.7072946  10.0000000  )
         5           Zr1 tau(   5) = (   6.4212227   1.8536473  12.6214532  )
         6           Zr1 tau(   6) = (   3.2106113   1.8536473  12.6214532  )
         7           Zr1 tau(   7) = (   8.0265283   4.6341183  12.6214532  )
         8           Zr1 tau(   8) = (   4.8159170   4.6341183  12.6214532  )
         9           Zr1 tau(   9) = (   0.0000000   0.0000000  15.2429064  )
        10           Zr1 tau(  10) = (   3.2106113   0.0000000  15.2429064  )
        11           Zr1 tau(  11) = (   1.6053057   2.7804710  15.2429064  )
        12           Zr1 tau(  12) = (   4.8159170   2.7804710  15.2429064  )
        13           S1  tau(  13) = (   1.6053057   0.9268237  17.0629064  )
        14           H1  tau(  14) = (   1.6053057   0.9268237  18.3129064  )

     number of k points=    20  Fermi-Dirac smearing, width (Ry)=  0.0110
                       cart. coord. in units 2pi/alat
        k(    1) = (   0.0000000   0.0000000   0.0000000), wk =   0.0555556
        k(    2) = (   0.0000000   0.0299709   0.0000000), wk =   0.1111111
        k(    3) = (   0.0000000   0.0599419   0.0000000), wk =   0.1111111
        k(    4) = (   0.0000000  -0.0899128   0.0000000), wk =   0.0555556
        k(    5) = (   0.0259556  -0.0149855   0.0000000), wk =   0.1111111
        k(    6) = (   0.0259556   0.0149855   0.0000000), wk =   0.1111111
        k(    7) = (   0.0259556   0.0449564   0.0000000), wk =   0.1111111
        k(    8) = (   0.0259556  -0.1048983   0.0000000), wk =   0.1111111
        k(    9) = (   0.0259556  -0.0749274   0.0000000), wk =   0.1111111
        k(   10) = (   0.0259556  -0.0449564   0.0000000), wk =   0.1111111
        k(   11) = (   0.0519112  -0.0299709   0.0000000), wk =   0.1111111
        k(   12) = (   0.0519112   0.0000000   0.0000000), wk =   0.1111111
        k(   13) = (   0.0519112   0.0299709   0.0000000), wk =   0.1111111
        k(   14) = (   0.0519112  -0.1198838   0.0000000), wk =   0.1111111
        k(   15) = (   0.0519112  -0.0899128   0.0000000), wk =   0.1111111
        k(   16) = (   0.0519112  -0.0599419   0.0000000), wk =   0.1111111
        k(   17) = (  -0.0778668   0.0449564   0.0000000), wk =   0.0555556
        k(   18) = (  -0.0778668   0.0749274   0.0000000), wk =   0.1111111
        k(   19) = (  -0.0778668   0.1048983   0.0000000), wk =   0.1111111
        k(   20) = (  -0.0778668  -0.0449564   0.0000000), wk =   0.0555556

     Largest allocated arrays     est. size (Mb)     dimensions
     Largest temporary arrays     est. size (Mb)     dimensions

     Initial potential from superposition of free atoms
     Check: negative starting charge=   -0.728973

     starting charge  150.97416, renormalised to  151.00000

     negative rho (up, down):  7.291E-01 0.000E+00

     *
     * You are using vdW-DF for exchange-correlation in this calculation.
     * Please cite the following three references that made this development
     * possible:
     *
     *   M. Dion, H. Rydberg, E. Schroder, D. C. Langreth, and
     *   B. I. Lundqvist, Phys. Rev. Lett. 92, 246401 (2004).
     *
     *   T. Thonhauser, V. R. Cooper, S. Li, A. Puzder, P. Hyldgaard, and
     *   D. C. Langreth, Phys. Rev. B 76, 125112 (2007).
     *
     *   G. Roman-Perez and J. M. Soler, Phys. Rev. Lett. 103, 096102 (2009).
     *
     *
     * If you are using vdW-DF2, please also cite:
     *
     *   K. Lee, E. D. Murray, L. Kong, B. I. Lundqvist, and
     *   D. C. Langreth, Phys. Rev. B 82, 081101(R) (2010).
     *
     *
     * If you are calculating the stress with vdW-DF, please also cite:
     *
     *   R. Sabatini, E. Kucukbenli, B. Kolb, T. Thonhauser, and
     *   S. de Gironcoli, J. Phys.: Condens. Matter 24, 424209 (2012).
     *

     Carrying out vdW-DF run using the following parameters:

     Nqs =      20    Nr_points =    1024   r_max =   100.000
     q_mesh =
               0.00001000     0.04494208     0.09755937     0.15916263
               0.23128650     0.31572767     0.41458969     0.53033537
               0.66584808     0.82450364     1.01025438     1.22772762
               1.48234092     1.78043706     2.12944203     2.53805004
               3.01644009     3.57652955     4.23227104     5.00000000

     Gradients computed in reciprocal space

     Adding external electric field

     Computed dipole along edir(3) :
        Dipole               -0.0101 Ry au,         -0.0256 Debye
        Dipole field         -0.0000 Ry au

        Potential amp.        0.0019 Ry
        Total length         46.5096 bohr

     Starting wfc are  161 randomized atomic wfcs

     Self-consistent Calculation

     iteration #  1     ecut=    36.75 Ry     beta=0.30
     Davidson diagonalization with overlap
     ethr =  1.00E-02,  avg # of iterations =  2.0

[...]

     total energy              =   -1219.61052086 Ry
     Harris-Foulkes estimate   =   -1223.21092142 Ry
     estimated scf accuracy    <       7.53548494 Ry

[...]

     End of self-consistent calculation

          k = 0.0000 0.0000 0.0000 ( 22923 PWs)   bands (ev):

   -47.3370 -47.3248 -47.2363 -47.2362 -47.2329 -47.1956 -47.1372 -47.1371
   -47.0224 -46.9473 -46.9473 -46.9254 -25.6157 -25.6157 -25.6098 -25.5653
   -25.5653 -25.5587 -25.5212 -25.4626 -25.4372 -25.4372 -25.3371 -25.2425
   -25.2046 -25.2045 -25.1075 -25.0822 -25.0821 -25.0611 -25.0611 -25.0599
   -25.0332 -25.0331 -24.9875 -24.8936 -24.8936 -24.8519 -24.8518 -24.8457
   -24.8362 -24.8362 -24.8177 -24.7631 -24.7535 -24.7534 -24.6081 -24.6081
   -13.1502  -6.0527  -2.9156  -2.4356  -2.4356  -1.7349  -1.0150  -0.6131
    -0.5613  -0.5613  -0.4279  -0.4279  -0.3823  -0.0169   0.0299   0.0299
     0.1925   0.1925   0.2062   1.0836   1.0836   1.1817   1.8177   2.0391
     2.0915   2.0915   2.2744   2.4959   2.5982   2.5982   2.6382   2.7847
     2.8482   2.8482   3.0897   3.0899   3.1085

[...]

          k =-0.0779 0.0450 0.0000 ( 22880 PWs)   bands (ev):

[...]

     the Fermi energy is     1.9569 ev

!    total energy              =   -1222.62794714 Ry
     Harris-Foulkes estimate   =   -1222.62797332 Ry
     estimated scf accuracy    <       0.00000476 Ry

     The total energy is the sum of the following terms:

     one-electron contribution =   -8463.90623289 Ry
     hartree contribution      =    4227.02600441 Ry
     xc contribution           =    -230.23401210 Ry
     ewald contribution        =    3244.60389096 Ry
     electric field correction =       0.00015497 Ry
     smearing contrib. (-TS)   =      -0.11775250 Ry

     convergence has been achieved in  17 iterations

 BEEF-vdW xc energy contributions
           1 :   -197.102208507123
           2 :    178.182254008729
           3 :   -146.292533934311
           4 :    110.385791971637
           5 :   -78.5678537768255
           6 :    55.3056634221746
           7 :   -40.6969015452202
           8 :    31.7685058361936
           9 :   -24.8072966502982
          10 :    17.3947177014817
          11 :   -9.22250823936079
          12 :    1.57049861786174
          13 :    3.95444494821649
          14 :   -6.56238961644783
          15 :    6.70074104614088
          16 :   -5.66454442182800
          17 :    4.77282778479889
          18 :   -4.66559309992735
          19 :    5.11791600704493
          20 :   -5.40299446972830
          21 :    4.90102417365176
          22 :   -3.54132869269500
          23 :    1.82282683870045
          24 :  -0.455732867158133
          25 :  -9.786007384809636E-002
          26 :  -0.122294769190262
          27 :   0.663491251549090
          28 :  -0.994957991085073
          29 :   0.849517365374624
          30 :  -0.355993043132742
          31 :   -22.8993463580881
          32 :   -17.0220953581138

     Forces acting on atoms (Ry/au):

     negative rho (up, down):  7.488E-01 0.000E+00
     atom    1 type  1   force =    -0.00000334   -0.00000411    0.01600500
     atom    2 type  1   force =     0.00000408    0.00011871    0.01672548
     atom    3 type  1   force =     0.00010717   -0.00005515    0.01672941
     atom    4 type  1   force =    -0.00010244   -0.00005582    0.01672799
     atom    5 type  1   force =    -0.00365330    0.00211236   -0.00396411
     atom    6 type  1   force =     0.00364961    0.00210822   -0.00395775
     atom    7 type  1   force =    -0.00000268   -0.00000509   -0.01399318
     atom    8 type  1   force =     0.00000398   -0.00421866   -0.00397154
     atom    9 type  1   force =    -0.01975390   -0.01140373   -0.00635896
     atom   10 type  1   force =     0.01975218   -0.01140286   -0.00637193
     atom   11 type  1   force =     0.00000257    0.02280496   -0.00637022
     atom   12 type  1   force =     0.00000241    0.00000419   -0.02520918
     atom   13 type  2   force =    -0.00000599   -0.00000322   -0.12883689
     atom   14 type  3   force =    -0.00000034    0.00000019    0.13284588

     Total force =     0.191219     Total SCF correction =     0.003540

     entering subroutine stress ...

     negative rho (up, down):  7.488E-01 0.000E+00
          total   stress  (Ry/bohr**3)                   (kbar)     P=   -6.27
  -0.00004834  -0.00000002  -0.00000000         -7.11     -0.00     -0.00
  -0.00000002  -0.00004832  -0.00000000         -0.00     -7.11     -0.00
  -0.00000000  -0.00000000  -0.00003116         -0.00     -0.00     -4.58

     BFGS Geometry Optimization

     number of scf cycles    =   1
     number of bfgs steps    =   0

     energy   new            =   -1222.6279471419 Ry

     new trust radius        =       0.1328458780 bohr
     new conv_thr            =       0.0000099958 Ry

ATOMIC_POSITIONS (crystal)
Zr1      0.166666667   0.166666667   0.396150897    0   0   0
Zr1      0.666666667   0.166666667   0.396150897    0   0   0
Zr1      0.166666667   0.666666667   0.396150897    0   0   0
Zr1      0.666666667   0.666666667   0.396150897    0   0   0
Zr1      0.833333333   0.333333333   0.500000000    0   0   0
Zr1      0.333333333   0.333333333   0.500000000    0   0   0
Zr1      0.833333333   0.833333333   0.500000000    0   0   0
Zr1      0.333333333   0.833333333   0.500000000    0   0   0
Zr1     -0.001085345  -0.001085175   0.603715797
Zr1      0.502170336  -0.001085092   0.603715526
Zr1     -0.001084844   0.502170112   0.603715561
Zr1      0.499999999   0.500000398   0.603320633
S1       0.166666326   0.166666361   0.673247706
H1       0.166666630   0.166666684   0.728252330

     Writing output data file calc.save
     Check: negative starting charge=   -0.728973
     NEW-OLD atomic charge density approx. for the potential
     Check: negative starting charge=   -0.729197

[...]

     iteration #  1     ecut=    36.75 Ry     beta=0.30
     Davidson diagonalization with overlap
     c_bands:  1 eigenvalues not converged
     c_bands:  1 eigenvalues not converged
     c_bands:  1 eigenvalues not converged
     c_bands:  1 eigenvalues not converged
     c_bands:  1 eigenvalues not converged
     c_bands:  1 eigenvalues not converged
     ethr =  1.00E-06,  avg # of iterations = 14.2

[...]

     energy   old            =   -1222.6279471419 Ry
     energy   new            =   -1222.6420081075 Ry

     CASE: energy  _new < energy  _old

[...]

     iteration #  1     ecut=    36.75 Ry     beta=0.30
     Davidson diagonalization with overlap
     c_bands:  1 eigenvalues not converged
     c_bands:  1 eigenvalues not converged
     c_bands:  1 eigenvalues not converged
     ethr =  1.00E-06,  avg # of iterations = 15.0

[...]

     Threshold (ethr) on eigenvalues was too large:
     Diagonalizing with lowered threshold

     Davidson diagonalization with overlap
     ethr =  9.00E-08,  avg # of iterations =  2.4

[...]

     WARNING: bfgs curvature condition failed, Theta= 0.994
     new trust radius        =       0.0221424620 bohr
     new conv_thr            =       0.0000001000 Ry

[...]

     Total force =     0.003744     Total SCF correction =     0.000339

[...]

     number of scf cycles    =  11
     number of bfgs steps    =  10

     energy   old            =   -1222.6507803217 Ry
     energy   new            =   -1222.6509310439 Ry

     CASE: energy  _new < energy  _old

     new trust radius        =       0.0036898253 bohr
     new conv_thr            =       0.0000001000 Ry

ATOMIC_POSITIONS (crystal)
Zr1      0.166666667   0.166666667   0.396150897    0   0   0
Zr1      0.666666667   0.166666667   0.396150897    0   0   0
Zr1      0.166666667   0.666666667   0.396150897    0   0   0
Zr1      0.666666667   0.666666667   0.396150897    0   0   0
Zr1      0.833333333   0.333333333   0.500000000    0   0   0
Zr1      0.333333333   0.333333333   0.500000000    0   0   0
Zr1      0.833333333   0.833333333   0.500000000    0   0   0
Zr1      0.333333333   0.833333333   0.500000000    0   0   0
Zr1     -0.006104357  -0.006104922   0.602073336
Zr1      0.512212753  -0.006109037   0.602073196
Zr1     -0.006109100   0.512213636   0.602073501
Zr1      0.499999545   0.500000486   0.596492305
S1       0.166673496   0.166674515   0.673116685
H1       0.166668161   0.166667448   0.727208354

     Writing output data file calc.save
     Check: negative starting charge=   -0.728419
     NEW-OLD atomic charge density approx. for the potential
     Check: negative starting charge=   -0.728369

[...]

     Self-consistent Calculation

[...]

     Threshold (ethr) on eigenvalues was too large:
     Diagonalizing with lowered threshold

     Davidson diagonalization with overlap
     ethr =  3.29E-09,  avg # of iterations =  7.7

[...]

     total energy              =   -1222.65094486 Ry
     Harris-Foulkes estimate   =   -1222.65094483 Ry
     estimated scf accuracy    <       0.00000015 Ry

     iteration #  7     ecut=    36.75 Ry     beta=0.30
     Davidson diagonalization with overlap
     ethr =  1.02E-10,  avg # of iterations =  3.0

[...]

     negative rho (up, down):  7.482E-01 0.000E+00

     Adding external electric field

     Computed dipole along edir(3) :
        Dipole                0.2728 Ry au,          0.6933 Debye
        Dipole field          0.0006 Ry au

        Potential amp.       -0.0524 Ry
        Total length         46.5096 bohr

     End of self-consistent calculation

[...]

          k = 0.0519-0.0599 0.0000 ( 22856 PWs)   bands (ev):

[...]

          k =-0.0779-0.0450 0.0000 ( 22880 PWs)   bands (ev):

   -47.3079 -47.3056 -47.2628 -47.2602 -47.2303 -47.1995 -47.1572 -47.1448
   -46.9787 -46.9664 -46.9401 -46.9024 -25.5105 -25.5090 -25.4721 -25.4674
   -25.4437 -25.4278 -25.3897 -25.3640 -25.3480 -25.3158 -25.3041 -25.2770
   -25.2653 -25.2624 -25.2442 -25.2122 -25.2075 -25.2073 -25.1525 -25.1234
   -25.0116 -25.0033 -25.0021 -24.9975 -24.9457 -24.9128 -24.8978 -24.8964
   -24.8773 -24.8606 -24.8186 -24.8025 -24.7821 -24.7644 -24.6785 -24.6627
   -12.6898  -5.5788  -2.5339  -2.2858  -1.5548  -1.4518  -0.5542  -0.4406
     0.0273   0.0459   0.1279   0.1475   0.1710   0.3277   0.8055   0.8765
     0.9098   0.9228   0.9684   1.0302   1.2859   1.3621   1.4254   1.4258
     1.4968   1.5124   1.6986   1.7458   1.8254   1.8968   1.9651   1.9714
     2.0894   2.1505   2.2681   2.4939   2.6422

     the Fermi energy is     1.9226 ev

!    total energy              =   -1222.65094486 Ry
     Harris-Foulkes estimate   =   -1222.65094483 Ry
     estimated scf accuracy    <       0.00000006 Ry

     The total energy is the sum of the following terms:

     one-electron contribution =   -8561.41371208 Ry
     hartree contribution      =    4275.80336628 Ry
     xc contribution           =    -230.27571593 Ry
     ewald contribution        =    3293.34992951 Ry
     electric field correction =       0.00015371 Ry
     smearing contrib. (-TS)   =      -0.11496634 Ry

     convergence has been achieved in   7 iterations

 BEEF-vdW xc energy contributions
           1 :   -197.149636228730
           2 :    178.259898755901
           3 :   -146.398001252523
           4 :    110.478205968725
           5 :   -78.5949742518587
           6 :    55.2432479399874
           7 :   -40.5706852474492
           8 :    31.6427381351430
           9 :   -24.7473919302512
          10 :    17.4281881203545
          11 :   -9.32188112559658
          12 :    1.66833836015331
          13 :    3.92634517380486
          14 :   -6.63154288843378
          15 :    6.83539479582299
          16 :   -5.79220806929493
          17 :    4.82701644832929
          18 :   -4.63058595430800
          19 :    5.03966250714038
          20 :   -5.35665890749846
          21 :    4.93777663893599
          22 :   -3.65312802943686
          23 :    1.95018089692439
          24 :  -0.531198219246050
          25 :  -0.102904580017878
          26 :  -6.446864929750973E-002
          27 :   0.615550448658524
          28 :   -1.01156987535555
          29 :   0.942408798434798
          30 :  -0.488321981056856
          31 :   -22.9040754387505
          32 :   -17.0308369174268

     Forces acting on atoms (Ry/au):

     negative rho (up, down):  7.482E-01 0.000E+00
     atom    1 type  1   force =     0.00000019   -0.00000006    0.01234190
     atom    2 type  1   force =    -0.00000046    0.00069587    0.01496929
     atom    3 type  1   force =     0.00060259   -0.00034837    0.01496920
     atom    4 type  1   force =    -0.00060288   -0.00034786    0.01496797
     atom    5 type  1   force =     0.00280829   -0.00162290   -0.00978433
     atom    6 type  1   force =    -0.00280903   -0.00162212   -0.00978460
     atom    7 type  1   force =     0.00000145    0.00000140   -0.02280713
     atom    8 type  1   force =    -0.00000114    0.00324361   -0.00978478
     atom    9 type  1   force =    -0.00049236   -0.00028363   -0.00122457
     atom   10 type  1   force =     0.00049554   -0.00028373   -0.00122519
     atom   11 type  1   force =     0.00000151    0.00057074   -0.00122577
     atom   12 type  1   force =     0.00000002   -0.00000053    0.00166211
     atom   13 type  2   force =    -0.00000421   -0.00000258   -0.00133970
     atom   14 type  3   force =     0.00000048    0.00000017   -0.00173439

     Total force =     0.003612     Total SCF correction =     0.000544
     SCF correction compared to forces is large: reduce conv_thr to get better values

     entering subroutine stress ...

     negative rho (up, down):  7.482E-01 0.000E+00
          total   stress  (Ry/bohr**3)                   (kbar)     P=   -5.60
  -0.00003043  -0.00000001  -0.00000000         -4.48     -0.00     -0.00
  -0.00000001  -0.00003042  -0.00000000         -0.00     -4.47     -0.00
  -0.00000000  -0.00000000  -0.00005331         -0.00     -0.00     -7.84

     bfgs converged in  12 scf cycles and  11 bfgs steps
     (criteria: energy <  1.0E+00, force <  1.9E-03)

     End of BFGS Geometry Optimization

     Final energy   =   -1222.6509448583 Ry
Begin final coordinates

ATOMIC_POSITIONS (crystal)
Zr1      0.166666667   0.166666667   0.396150897    0   0   0
Zr1      0.666666667   0.166666667   0.396150897    0   0   0
Zr1      0.166666667   0.666666667   0.396150897    0   0   0
Zr1      0.666666667   0.666666667   0.396150897    0   0   0
Zr1      0.833333333   0.333333333   0.500000000    0   0   0
Zr1      0.333333333   0.333333333   0.500000000    0   0   0
Zr1      0.833333333   0.833333333   0.500000000    0   0   0
Zr1      0.333333333   0.833333333   0.500000000    0   0   0
Zr1     -0.006104357  -0.006104922   0.602073336
Zr1      0.512212753  -0.006109037   0.602073196
Zr1     -0.006109100   0.512213636   0.602073501
Zr1      0.499999545   0.500000486   0.596492305
S1       0.166673496   0.166674515   0.673116685
H1       0.166668161   0.166667448   0.727208354
End final coordinates

     Writing output data file calc.save

     General routines

     Parallel routines

   This run was terminated on:  12: 2:52  27Apr2018

   JOB DONE.