     Program PWSCF v.5.1rc2 (svn rev. 11289) starts on 21Apr2018 at 23: 7:26

     Current dimensions of program PWSCF are:
     Max number of different atomic species (ntypx) = 10
     Max number of k-points (npk) =  40000
     Max angular momentum in pseudopotentials (lmaxx) =  3
     Presently stress not available with electric field

     IMPORTANT: XC functional enforced from input :
     Exchange-correlation      = BEEF-VDW ( 1  4 27 13 2)
     Any further DFT definition will be discarded
     Please, verify this is what you really want

     Subspace diagonalization in iterative solution of the eigenvalue problem:
     a serial algorithm will be used

     bravais-lattice index     =            0
     lattice parameter (alat)  =       1.8897  a.u.
     unit-cell volume          =    4569.9960 (a.u.)^3
     number of atoms/cell      =           15
     number of atomic types    =            3
     number of electrons       =       198.00
     number of Kohn-Sham states=          109
     kinetic-energy cutoff     =      36.7493  Ry
     charge density cutoff     =     367.4932  Ry
     convergence threshold     =      1.0E-05
     mixing beta               =       0.3000
     number of iterations used =           10  plain     mixing
     Exchange-correlation      = BEEF-VDW ( 1  4 27 13 2)
     nstep                     =           50

     celldm(1)=   1.889726  celldm(2)=   0.000000  celldm(3)=   0.000000
     celldm(4)=   0.000000  celldm(5)=   0.000000  celldm(6)=   0.000000

     crystal axes: (cart. coord. in units of alat)
               a(1) = (   5.637663   0.000000   0.000000 )
               a(2) = (   2.818831   4.882359   0.000000 )
               a(3) = (   0.000000   0.000000  24.603132 )

     reciprocal axes: (cart. coord. in units 2 pi/alat)
               b(1) = (  0.177378 -0.102410  0.000000 )
               b(2) = (  0.000000  0.204819  0.000000 )
               b(3) = (  0.000000  0.000000  0.040645 )

     PseudoPot. # 1 for Pd read from file:
     /u/if/mamunm/psp/gbrv1.5pbe/Pd.UPF
     MD5 check sum: 2d733d2bc2cbfd217af676df1668a4bc
     Pseudo is Ultrasoft + core correction, Zval = 16.0
     Generated by new atomic code, or converted to UPF format
     Using radial grid of  887 points,  6 beta functions with:
                l(1) =   0
                l(2) =   0
                l(3) =   1
                l(4) =   1
                l(5) =   2
                l(6) =   2
     Q(r) pseudized with  8 coefficients,  rinner =    1.130   1.130   1.130
                                                       1.130   1.130

     PseudoPot. # 2 for C  read from file:
     /u/if/mamunm/psp/gbrv1.5pbe/C.UPF
     MD5 check sum: d1aef80898a10debaa0f26306b886e00
     Pseudo is Ultrasoft + core correction, Zval =  4.0
     Generated by new atomic code, or converted to UPF format
     Using radial grid of  721 points,  4 beta functions with:
                l(1) =   0
                l(2) =   0
                l(3) =   1
                l(4) =   1
     Q(r) pseudized with  8 coefficients,  rinner =    1.100   1.100   1.100

     PseudoPot. # 3 for H  read from file:
     /u/if/mamunm/psp/gbrv1.5pbe/H.UPF
     MD5 check sum: 761ae9a214b05c3daf00ab9f6b793d6f
     Pseudo is Ultrasoft, Zval =  1.0
     Generated by new atomic code, or converted to UPF format
     Using radial grid of  615 points,  2 beta functions with:
                l(1) =   0
                l(2) =   0
     Q(r) pseudized with  8 coefficients,  rinner =    0.700

     vdW kernel table read from file vdW_kernel_table
     MD5 check sum: 095c7af220d748ca6e76c0b4c6cfb241

     atomic species   valence    mass     pseudopotential
        Pd1           16.00   106.42000     Pd( 1.00)
        C1             4.00    12.01100     C ( 1.00)
        H1             1.00     1.00800     H ( 1.00)

     No symmetry found

   Cartesian axes

     site n.     atom                  positions (alat units)
         1           Pd1 tau(   1) = (   1.4094157   0.8137265  10.0000000  )
         2           Pd1 tau(   2) = (   4.2282471   0.8137265  10.0000000  )
         3           Pd1 tau(   3) = (   2.8188314   3.2549061  10.0000000  )
         4           Pd1 tau(   4) = (   5.6376627   3.2549061  10.0000000  )
         5           Pd1 tau(   5) = (   5.6376627   1.6274531  12.3015662  )
         6           Pd1 tau(   6) = (   2.8188314   1.6274531  12.3015662  )
         7           Pd1 tau(   7) = (   7.0470784   4.0686326  12.3015662  )
         8           Pd1 tau(   8) = (   4.2282471   4.0686326  12.3015662  )
         9           Pd1 tau(   9) = (   0.0000000   0.0000000  14.6031324  )
        10           Pd1 tau(  10) = (   2.8188314   0.0000000  14.6031324  )
        11           Pd1 tau(  11) = (   1.4094157   2.4411796  14.6031324  )
        12           Pd1 tau(  12) = (   4.2282471   2.4411796  14.6031324  )
        13           C1  tau(  13) = (   0.0000000   0.0000000  16.4306324  )
        14           H1  tau(  14) = (   0.6300000   0.6300000  17.0606324  )
        15           H1  tau(  15) = (   7.8264941   4.2523592  17.0606324  )

     number of k points=    20  Fermi-Dirac smearing, width (Ry)=  0.0110
                       cart. coord. in units 2pi/alat
        k(    1) = (   0.0000000   0.0000000   0.0000000), wk =   0.0555556
        k(    2) = (   0.0000000   0.0341365   0.0000000), wk =   0.1111111
        k(    3) = (   0.0000000   0.0682730   0.0000000), wk =   0.1111111
        k(    4) = (   0.0000000  -0.1024095   0.0000000), wk =   0.0555556
        k(    5) = (   0.0295631  -0.0170683   0.0000000), wk =   0.1111111
        k(    6) = (   0.0295631   0.0170683   0.0000000), wk =   0.1111111
        k(    7) = (   0.0295631   0.0512048   0.0000000), wk =   0.1111111
        k(    8) = (   0.0295631  -0.1194778   0.0000000), wk =   0.1111111
        k(    9) = (   0.0295631  -0.0853413   0.0000000), wk =   0.1111111
        k(   10) = (   0.0295631  -0.0512048   0.0000000), wk =   0.1111111
        k(   11) = (   0.0591262  -0.0341365   0.0000000), wk =   0.1111111
        k(   12) = (   0.0591262  -0.0000000   0.0000000), wk =   0.1111111
        k(   13) = (   0.0591262   0.0341365   0.0000000), wk =   0.1111111
        k(   14) = (   0.0591262  -0.1365460   0.0000000), wk =   0.1111111
        k(   15) = (   0.0591262  -0.1024095   0.0000000), wk =   0.1111111
        k(   16) = (   0.0591262  -0.0682730   0.0000000), wk =   0.1111111
        k(   17) = (  -0.0886892   0.0512048   0.0000000), wk =   0.0555556
        k(   18) = (  -0.0886892   0.0853413   0.0000000), wk =   0.1111111
        k(   19) = (  -0.0886892   0.1194778   0.0000000), wk =   0.1111111
        k(   20) = (  -0.0886892  -0.0512048   0.0000000), wk =   0.0555556

     Largest allocated arrays     est. size (Mb)     dimensions
     Largest temporary arrays     est. size (Mb)     dimensions

     Initial potential from superposition of free atoms
     Check: negative starting charge=   -0.903935

     starting charge  191.99986, renormalised to  198.00000

     negative rho (up, down):  9.322E-01 0.000E+00

     *
     * You are using vdW-DF for exchange-correlation in this calculation.
     * Please cite the following three references that made this development
     * possible:
     *
     *   M. Dion, H. Rydberg, E. Schroder, D. C. Langreth, and
     *   B. I. Lundqvist, Phys. Rev. Lett. 92, 246401 (2004).
     *
     *   T. Thonhauser, V. R. Cooper, S. Li, A. Puzder, P. Hyldgaard, and
     *   D. C. Langreth, Phys. Rev. B 76, 125112 (2007).
     *
     *   G. Roman-Perez and J. M. Soler, Phys. Rev. Lett. 103, 096102 (2009).
     *
     *
     * If you are using vdW-DF2, please also cite:
     *
     *   K. Lee, E. D. Murray, L. Kong, B. I. Lundqvist, and
     *   D. C. Langreth, Phys. Rev. B 82, 081101(R) (2010).
     *
     *
     * If you are calculating the stress with vdW-DF, please also cite:
     *
     *   R. Sabatini, E. Kucukbenli, B. Kolb, T. Thonhauser, and
     *   S. de Gironcoli, J. Phys.: Condens. Matter 24, 424209 (2012).
     *

     Carrying out vdW-DF run using the following parameters:

     Nqs =      20    Nr_points =    1024   r_max =   100.000
     q_mesh =
               0.00001000     0.04494208     0.09755937     0.15916263
               0.23128650     0.31572767     0.41458969     0.53033537
               0.66584808     0.82450364     1.01025438     1.22772762
               1.48234092     1.78043706     2.12944203     2.53805004
               3.01644009     3.57652955     4.23227104     5.00000000

     Gradients computed in reciprocal space

     Adding external electric field

     Computed dipole along edir(3) :
        Dipole               -1.5370 Ry au,         -3.9066 Debye
        Dipole field         -0.0042 Ry au

        Potential amp.        0.3832 Ry
        Total length         45.3309 bohr

     Starting wfc are  150 randomized atomic wfcs

     Self-consistent Calculation

     iteration #  1     ecut=    36.75 Ry     beta=0.30
     Davidson diagonalization with overlap
     ethr =  1.00E-02,  avg # of iterations =  4.5

[...]

     total energy              =   -2366.30513233 Ry
     Harris-Foulkes estimate   =   -2414.37494810 Ry
     estimated scf accuracy    <     101.55497450 Ry

[...]

     End of self-consistent calculation

          k = 0.0000 0.0000 0.0000 ( 17231 PWs)   bands (ev):

   -49.9321 -49.3780 -49.1314 -48.4989 -48.4702 -48.4636 -48.4022 -48.3684
   -48.3430 -48.3334 -48.3117 -48.2981 -48.2888 -48.2369 -48.2341 -48.2277
   -48.2161 -48.2120 -48.2032 -48.1504 -48.1394 -48.0670 -48.0548 -48.0454
   -48.0441 -48.0179 -48.0155 -47.9876 -47.9849 -47.9490 -47.9311 -47.9224
   -47.9143 -47.9038 -47.9021 -47.8320 -10.9758  -5.0017  -4.5918  -4.1758
    -3.2284  -3.1917  -3.0388  -2.9904  -2.9794  -2.9601  -2.8664  -2.7946
    -2.7199  -2.6693  -2.5409  -2.5142  -2.4958  -2.4293  -2.1739  -1.6240
    -1.4891  -1.2696  -1.2451  -1.1651  -1.0199  -1.0172  -1.0065  -0.9533
    -0.9411  -0.7972  -0.7730  -0.6974  -0.6968  -0.6794  -0.4618  -0.2706
    -0.0433  -0.0383   0.0026   0.3371   0.3485   0.3550   0.3791   0.4375
     0.5666   0.6380   0.6915   0.7006   1.0487   1.0770   1.1408   1.1453
     1.1589   1.2183   1.2219   1.3136   1.3224   1.3310   1.4103   1.4448
     1.4525   1.6055   1.6372   1.6458   1.6464   1.6902   2.5705   3.4432
     3.7300   3.7892   3.9872   4.9409   4.9757

[...]

          k =-0.0887 0.0512 0.0000 ( 17240 PWs)   bands (ev):

[...]

     the Fermi energy is     1.4173 ev

!    total energy              =   -2411.30885506 Ry
     Harris-Foulkes estimate   =   -2411.30887227 Ry
     estimated scf accuracy    <       0.00000563 Ry

     The total energy is the sum of the following terms:

     one-electron contribution =  -20524.60402730 Ry
     hartree contribution      =   10315.89771091 Ry
     xc contribution           =    -395.30798324 Ry
     ewald contribution        =    8192.82007315 Ry
     electric field correction =       0.00018996 Ry
     smearing contrib. (-TS)   =      -0.11481854 Ry

     convergence has been achieved in  22 iterations

 BEEF-vdW xc energy contributions
           1 :   -344.002679307873
           2 :    314.158234704675
           3 :   -263.345376961974
           4 :    205.300260844737
           5 :   -153.211893767537
           6 :    115.425117019468
           7 :   -93.6868353881597
           8 :    84.1901773515161
           9 :   -80.5415000190179
          10 :    77.0665808854900
          11 :   -70.9733261033028
          12 :    62.6396806267502
          13 :   -54.3200072050506
          14 :    48.2676192173362
          15 :   -45.3579562576640
          16 :    44.8056050238068
          17 :   -44.8840194473641
          18 :    44.0416513951139
          19 :   -41.7135851034208
          20 :    38.4237803445744
          21 :   -35.2505111452143
          22 :    33.0726561871929
          23 :   -32.0708650507490
          24 :    31.7286900257087
          25 :   -31.2533771436940
          26 :    30.1010126294716
          27 :   -28.2760588574486
          28 :    26.2519271544590
          29 :   -24.6091011531198
          30 :    23.6467011942448
          31 :   -33.6704464500286
          32 :   -24.8478864635593

     Forces acting on atoms (Ry/au):

     negative rho (up, down):  9.420E-01 0.000E+00
     atom    1 type  1   force =     0.00029942    0.00011678    0.00000760
     atom    2 type  1   force =     0.00005851   -0.00012264    0.00000817
     atom    3 type  1   force =    -0.00002337   -0.00007832    0.00007293
     atom    4 type  1   force =    -0.00001635    0.00007775   -0.00582472
     atom    5 type  1   force =    -0.00266528   -0.00126514   -0.00001096
     atom    6 type  1   force =     0.00052166    0.00009984   -0.00170662
     atom    7 type  1   force =    -0.00062573    0.00110039   -0.00412330
     atom    8 type  1   force =    -0.00293922    0.00010787    0.00372805
     atom    9 type  1   force =     0.00697950   -0.00015069   -0.03835345
     atom   10 type  1   force =    -0.00053939   -0.00111605   -0.00035480
     atom   11 type  1   force =    -0.00074406    0.00014012   -0.00577822
     atom   12 type  1   force =     0.00114614    0.00102926    0.00482734
     atom   13 type  2   force =    -0.00132455    0.00003280    0.06289882
     atom   14 type  3   force =     0.00718340    0.00713142   -0.00765508
     atom   15 type  3   force =    -0.00731069   -0.00710339   -0.00773578

     Total force =     0.076576     Total SCF correction =     0.007841
     SCF correction compared to forces is large: reduce conv_thr to get better values

     entering subroutine stress ...

     negative rho (up, down):  9.420E-01 0.000E+00
          total   stress  (Ry/bohr**3)                   (kbar)     P=   -6.46
  -0.00007977   0.00000699   0.00000367        -11.73      1.03      0.54
   0.00000699  -0.00007936   0.00000002          1.03    -11.67      0.00
   0.00000367   0.00000002   0.00002741          0.54      0.00      4.03

     BFGS Geometry Optimization

     number of scf cycles    =   1
     number of bfgs steps    =   0

     energy   new            =   -2411.3088550612 Ry

     new trust radius        =       0.0629127741 bohr
     new conv_thr            =       0.0000099958 Ry

ATOMIC_POSITIONS (crystal)
Pd1      0.166666667   0.166666667   0.406452311    0   0   0
Pd1      0.666666667   0.166666667   0.406452311    0   0   0
Pd1      0.166666667   0.666666667   0.406452311    0   0   0
Pd1      0.666666667   0.666666667   0.406452311    0   0   0
Pd1      0.833333333   0.333333333   0.500000000    0   0   0
Pd1      0.333333333   0.333333333   0.500000000    0   0   0
Pd1      0.833333333   0.833333333   0.500000000    0   0   0
Pd1      0.333333333   0.833333333   0.500000000    0   0   0
Pd1      0.000663295  -0.000016333   0.592722763
Pd1      0.500009852  -0.000120963   0.593540058
Pd1     -0.000077434   0.500015187   0.593423408
Pd1      0.500051804   0.500111557   0.593651518
C1      -0.000126106   0.000003555   0.669179710
H1       0.047518243   0.129808923   0.693268695
H1       0.952468291   0.870194114   0.693266959

     Writing output data file calc.save
     Check: negative starting charge=   -0.903935
     NEW-OLD atomic charge density approx. for the potential
     Check: negative starting charge=   -0.904840

[...]

     energy   old            =   -2411.3088550612 Ry
     energy   new            =   -2411.3115075745 Ry

     CASE: energy  _new < energy  _old

[...]

     Total force =     0.016607     Total SCF correction =     0.000962

[...]

     Threshold (ethr) on eigenvalues was too large:
     Diagonalizing with lowered threshold

     Davidson diagonalization with overlap
     ethr =  3.79E-08,  avg # of iterations =  1.0

[...]

     Threshold (ethr) on eigenvalues was too large:
     Diagonalizing with lowered threshold

     Davidson diagonalization with overlap
     ethr =  7.36E-08,  avg # of iterations =  1.0

[...]

     Total force =     0.005149     Total SCF correction =     0.000888
     SCF correction compared to forces is large: reduce conv_thr to get better values

[...]

     number of scf cycles    =  15
     number of bfgs steps    =  14

     energy   old            =   -2411.3136849534 Ry
     energy   new            =   -2411.3137396501 Ry

     CASE: energy  _new < energy  _old

     new trust radius        =       0.0129554114 bohr
     new conv_thr            =       0.0000001000 Ry

ATOMIC_POSITIONS (crystal)
Pd1      0.166666667   0.166666667   0.406452311    0   0   0
Pd1      0.666666667   0.166666667   0.406452311    0   0   0
Pd1      0.166666667   0.666666667   0.406452311    0   0   0
Pd1      0.666666667   0.666666667   0.406452311    0   0   0
Pd1      0.833333333   0.333333333   0.500000000    0   0   0
Pd1      0.333333333   0.333333333   0.500000000    0   0   0
Pd1      0.833333333   0.833333333   0.500000000    0   0   0
Pd1      0.333333333   0.833333333   0.500000000    0   0   0
Pd1      0.012925703  -0.001583726   0.595108147
Pd1      0.508145366  -0.001477348   0.593527591
Pd1      0.006814085   0.499504614   0.592489381
Pd1      0.508896949   0.498650730   0.595342054
C1      -0.004524709   0.003523986   0.671710883
H1       0.044640298   0.135023198   0.696065417
H1       0.945641437   0.868818139   0.694741922

     Writing output data file calc.save
     Check: negative starting charge=   -0.904790
     NEW-OLD atomic charge density approx. for the potential
     Check: negative starting charge=   -0.905535

[...]

     Self-consistent Calculation

[...]

     total energy              =   -2411.31377226 Ry
     Harris-Foulkes estimate   =   -2411.31377208 Ry
     estimated scf accuracy    <       0.00000018 Ry

     iteration # 11     ecut=    36.75 Ry     beta=0.30
     Davidson diagonalization with overlap
     ethr =  9.10E-11,  avg # of iterations =  1.4

[...]

     negative rho (up, down):  9.437E-01 0.000E+00

     Adding external electric field

     Computed dipole along edir(3) :
        Dipole                0.2546 Ry au,          0.6470 Debye
        Dipole field          0.0007 Ry au

        Potential amp.       -0.0635 Ry
        Total length         45.3309 bohr

     End of self-consistent calculation

[...]

          k = 0.0591-0.0683 0.0000 ( 17183 PWs)   bands (ev):

[...]

          k =-0.0887-0.0512 0.0000 ( 17240 PWs)   bands (ev):

   -49.7395 -49.2672 -49.0288 -48.4731 -48.4419 -48.4050 -48.3887 -48.3812
   -48.3792 -48.3690 -48.3676 -48.3605 -48.3389 -48.3028 -48.2751 -48.2300
   -48.2052 -48.1948 -48.1481 -48.1455 -48.1345 -48.1335 -48.1225 -48.1104
   -48.0891 -48.0826 -48.0713 -48.0600 -48.0303 -47.9869 -47.9587 -47.9377
   -47.9326 -47.9281 -47.9076 -47.8557 -10.8376  -5.1364  -4.0424  -2.9822
    -2.9467  -2.7559  -2.5351  -2.4349  -2.3229  -2.3024  -2.1897  -2.1317
    -2.0636  -2.0377  -1.9348  -1.8792  -1.8414  -1.8234  -1.7250  -1.6692
    -1.4325  -1.3472  -1.3255  -1.3116  -1.2602  -1.1883  -1.0867  -0.9727
    -0.9663  -0.8494  -0.7584  -0.6775  -0.6340  -0.5610  -0.5282  -0.5020
    -0.4772  -0.4314  -0.4187  -0.4133  -0.3586  -0.3033  -0.2182  -0.0913
    -0.0433   0.0178   0.0986   0.1073   0.1213   0.2216   0.2919   0.3286
     0.3385   0.3992   0.4685   0.5417   0.6696   0.7263   0.8233   1.1399
     1.1413   1.1511   1.2684   1.3170   1.3937   1.4217   1.8847   2.4258
     3.6601   3.7942   4.0051   4.3692   5.1828

     the Fermi energy is     1.3922 ev

!    total energy              =   -2411.31377226 Ry
     Harris-Foulkes estimate   =   -2411.31377307 Ry
     estimated scf accuracy    <       0.00000001 Ry

     The total energy is the sum of the following terms:

     one-electron contribution =  -20458.11467245 Ry
     hartree contribution      =   10282.61787115 Ry
     xc contribution           =    -395.25003311 Ry
     ewald contribution        =    8159.54888030 Ry
     electric field correction =       0.00017818 Ry
     smearing contrib. (-TS)   =      -0.11599634 Ry

     convergence has been achieved in  11 iterations

 BEEF-vdW xc energy contributions
           1 :   -343.942369307608
           2 :    314.072496099357
           3 :   -263.229744963940
           4 :    205.174912723850
           5 :   -153.109137731628
           6 :    115.371605496324
           7 :   -93.6896179806983
           8 :    84.2329232443820
           9 :   -80.5928451313515
          10 :    77.0962933468270
          11 :   -70.9672682447396
          12 :    62.6054827500867
          13 :   -54.2806116071769
          14 :    48.2468041917861
          15 :   -45.3668652276475
          16 :    44.8383848901304
          17 :   -44.9239225235801
          18 :    44.0724934313313
          19 :   -41.7293731833211
          20 :    38.4306985487781
          21 :   -35.2606272020785
          22 :    33.0940623187876
          23 :   -32.1010257491697
          24 :    31.7558614724286
          25 :   -31.2646103223900
          26 :    30.0911290209947
          27 :   -28.2515753015066
          28 :    26.2270042032927
          29 :   -24.5965147383343
          30 :    23.6496068690840
          31 :   -33.6662616651305
          32 :   -24.8378252355303

     Forces acting on atoms (Ry/au):

     negative rho (up, down):  9.437E-01 0.000E+00
     atom    1 type  1   force =    -0.00004901    0.00002152   -0.00038688
     atom    2 type  1   force =    -0.00003358    0.00000603   -0.00003327
     atom    3 type  1   force =    -0.00005343    0.00000298   -0.00011930
     atom    4 type  1   force =     0.00010559   -0.00012019   -0.00590089
     atom    5 type  1   force =    -0.00336269   -0.00307238    0.00375493
     atom    6 type  1   force =     0.00406455    0.00019485   -0.00087718
     atom    7 type  1   force =     0.00264393    0.00301759   -0.00256894
     atom    8 type  1   force =    -0.00215413   -0.00123467    0.00813955
     atom    9 type  1   force =    -0.00118367   -0.00014357    0.00061631
     atom   10 type  1   force =     0.00175220    0.00038875    0.00011100
     atom   11 type  1   force =     0.00061644    0.00070569   -0.00056091
     atom   12 type  1   force =    -0.00051009   -0.00120676   -0.00084731
     atom   13 type  2   force =    -0.00055877    0.00046570    0.00062281
     atom   14 type  3   force =    -0.00109011   -0.00000119   -0.00096940
     atom   15 type  3   force =    -0.00018723    0.00097565   -0.00098053

     Total force =     0.003695     Total SCF correction =     0.000231

     entering subroutine stress ...

     negative rho (up, down):  9.437E-01 0.000E+00
          total   stress  (Ry/bohr**3)                   (kbar)     P=   -9.24
  -0.00008642   0.00000032  -0.00000289        -12.71      0.05     -0.42
   0.00000032  -0.00008804   0.00000254          0.05    -12.95      0.37
  -0.00000289   0.00000254  -0.00001398         -0.42      0.37     -2.06

     bfgs converged in  16 scf cycles and  15 bfgs steps
     (criteria: energy <  1.0E+00, force <  1.9E-03)

     End of BFGS Geometry Optimization

     Final energy   =   -2411.3137722648 Ry
Begin final coordinates

ATOMIC_POSITIONS (crystal)
Pd1      0.166666667   0.166666667   0.406452311    0   0   0
Pd1      0.666666667   0.166666667   0.406452311    0   0   0
Pd1      0.166666667   0.666666667   0.406452311    0   0   0
Pd1      0.666666667   0.666666667   0.406452311    0   0   0
Pd1      0.833333333   0.333333333   0.500000000    0   0   0
Pd1      0.333333333   0.333333333   0.500000000    0   0   0
Pd1      0.833333333   0.833333333   0.500000000    0   0   0
Pd1      0.333333333   0.833333333   0.500000000    0   0   0
Pd1      0.012925703  -0.001583726   0.595108147
Pd1      0.508145366  -0.001477348   0.593527591
Pd1      0.006814085   0.499504614   0.592489381
Pd1      0.508896949   0.498650730   0.595342054
C1      -0.004524709   0.003523986   0.671710883
H1       0.044640298   0.135023198   0.696065417
H1       0.945641437   0.868818139   0.694741922
End final coordinates

     Writing output data file calc.save

     General routines

     Parallel routines

   This run was terminated on:   0:44:25  22Apr2018

   JOB DONE.
Job  /afs/slac/g/suncat/bin/suncat-tsmpirun -x LD_LIBRARY_PATH -wdir /scratch/qe506828_ZGXVI pw.x -npool 4 -in pw.inp

TID   HOST_NAME   COMMAND_LINE            STATUS            TERMINATION_TIME
00000 suncat0080 pw.x -npool 4 -i  Done                     04/22/2018 00:44:25
00001 suncat0080 pw.x -npool 4 -i  Done                     04/22/2018 00:44:25
00002 suncat0080 pw.x -npool 4 -i  Done                     04/22/2018 00:44:25
00003 suncat0080 pw.x -npool 4 -i  Done                     04/22/2018 00:44:25
00004 suncat0080 pw.x -npool 4 -i  Done                     04/22/2018 00:44:25
00005 suncat0080 pw.x -npool 4 -i  Done                     04/22/2018 00:44:25
00006 suncat0080 pw.x -npool 4 -i  Done                     04/22/2018 00:44:25
00007 suncat0080 pw.x -npool 4 -i  Done                     04/22/2018 00:44:25
00008 suncat0052 pw.x -npool 4 -i  Done                     04/22/2018 00:44:25
00009 suncat0052 pw.x -npool 4 -i  Done                     04/22/2018 00:44:25
00010 suncat0052 pw.x -npool 4 -i  Done                     04/22/2018 00:44:25
00011 suncat0052 pw.x -npool 4 -i  Done                     04/22/2018 00:44:25
00012 suncat0052 pw.x -npool 4 -i  Done                     04/22/2018 00:44:25
00013 suncat0052 pw.x -npool 4 -i  Done                     04/22/2018 00:44:25
00014 suncat0052 pw.x -npool 4 -i  Done                     04/22/2018 00:44:25
00015 suncat0052 pw.x -npool 4 -i  Done                     04/22/2018 00:44:25
00016 suncat0021 pw.x -npool 4 -i  Done                     04/22/2018 00:44:25
00017 suncat0021 pw.x -npool 4 -i  Done                     04/22/2018 00:44:25
00018 suncat0021 pw.x -npool 4 -i  Done                     04/22/2018 00:44:25
00019 suncat0021 pw.x -npool 4 -i  Done                     04/22/2018 00:44:25
00020 suncat0021 pw.x -npool 4 -i  Done                     04/22/2018 00:44:25
00021 suncat0021 pw.x -npool 4 -i  Done                     04/22/2018 00:44:25
00022 suncat0021 pw.x -npool 4 -i  Done                     04/22/2018 00:44:25
00023 suncat0021 pw.x -npool 4 -i  Done                     04/22/2018 00:44:25
00024 suncat0016 pw.x -npool 4 -i  Done                     04/22/2018 00:44:25
00025 suncat0016 pw.x -npool 4 -i  Done                     04/22/2018 00:44:25
00026 suncat0016 pw.x -npool 4 -i  Done                     04/22/2018 00:44:25
00027 suncat0016 pw.x -npool 4 -i  Done                     04/22/2018 00:44:25
00028 suncat0016 pw.x -npool 4 -i  Done                     04/22/2018 00:44:25
00029 suncat0016 pw.x -npool 4 -i  Done                     04/22/2018 00:44:25
00030 suncat0016 pw.x -npool 4 -i  Done                     04/22/2018 00:44:25
00031 suncat0016 pw.x -npool 4 -i  Done                     04/22/2018 00:44:25