     Program PWSCF v.5.1rc2 (svn rev. ) starts on 16Apr2018 at 11:12:34

     Current dimensions of program PWSCF are:
     Max number of different atomic species (ntypx) = 10
     Max number of k-points (npk) =  40000
     Max angular momentum in pseudopotentials (lmaxx) =  3
     Presently stress not available with electric field

     IMPORTANT: XC functional enforced from input :
     Exchange-correlation      = BEEF-VDW ( 1  4 27 13 2)
     Any further DFT definition will be discarded
     Please, verify this is what you really want

     Subspace diagonalization in iterative solution of the eigenvalue problem:
     a serial algorithm will be used

     bravais-lattice index     =            0
     lattice parameter (alat)  =       1.8897  a.u.
     unit-cell volume          =    4650.5773 (a.u.)^3
     number of atoms/cell      =           14
     number of atomic types    =            3
     number of electrons       =        43.00
     number of Kohn-Sham states=           31
     kinetic-energy cutoff     =      36.7493  Ry
     charge density cutoff     =     367.4932  Ry
     convergence threshold     =      1.0E-05
     mixing beta               =       0.3000
     number of iterations used =           10  plain     mixing
     Exchange-correlation      = BEEF-VDW ( 1  4 27 13 2)
     nstep                     =           50

     celldm(1)=   1.889726  celldm(2)=   0.000000  celldm(3)=   0.000000
     celldm(4)=   0.000000  celldm(5)=   0.000000  celldm(6)=   0.000000

     crystal axes: (cart. coord. in units of alat)
               a(1) = (   5.682886   0.000000   0.000000 )
               a(2) = (   2.841443   4.921524   0.000000 )
               a(3) = (   0.000000   0.000000  24.640057 )

     reciprocal axes: (cart. coord. in units 2 pi/alat)
               b(1) = (  0.175967 -0.101595  0.000000 )
               b(2) = (  0.000000  0.203189  0.000000 )
               b(3) = (  0.000000  0.000000  0.040584 )

     PseudoPot. # 1 for Al read from file:
     /home/mamunm/src/pseudo/gbrv1.5pbe/Al.UPF
     MD5 check sum: 0a6289f5291fc8f409219462bc851e1f
     Pseudo is Ultrasoft + core correction, Zval =  3.0
     Generated by new atomic code, or converted to UPF format
     Using radial grid of  893 points,  3 beta functions with:
                l(1) =   0
                l(2) =   1
                l(3) =   2
     Q(r) pseudized with  8 coefficients,  rinner =    0.900   0.900   0.900
                                                       0.900   0.900

     PseudoPot. # 2 for O  read from file:
     /home/mamunm/src/pseudo/gbrv1.5pbe/O.UPF
     MD5 check sum: 734c27235a0248c51dbae37a1fbe46ec
     Pseudo is Ultrasoft + core correction, Zval =  6.0
     Generated by new atomic code, or converted to UPF format
     Using radial grid of  737 points,  5 beta functions with:
                l(1) =   0
                l(2) =   0
                l(3) =   1
                l(4) =   1
                l(5) =   2
     Q(r) pseudized with  8 coefficients,  rinner =    0.900   0.900   0.900
                                                       0.900   0.900

     PseudoPot. # 3 for H  read from file:
     /home/mamunm/src/pseudo/gbrv1.5pbe/H.UPF
     MD5 check sum: 761ae9a214b05c3daf00ab9f6b793d6f
     Pseudo is Ultrasoft, Zval =  1.0
     Generated by new atomic code, or converted to UPF format
     Using radial grid of  615 points,  2 beta functions with:
                l(1) =   0
                l(2) =   0
     Q(r) pseudized with  8 coefficients,  rinner =    0.700

     vdW kernel table read from file vdW_kernel_table
     MD5 check sum: 095c7af220d748ca6e76c0b4c6cfb241

     atomic species   valence    mass     pseudopotential
        Al1            3.00    26.98154     Al( 1.00)
        O1             6.00    15.99900     O ( 1.00)
        H1             1.00     1.00800     H ( 1.00)

     No symmetry found

   Cartesian axes

     site n.     atom                  positions (alat units)
         1           Al1 tau(   1) = (   1.4207216   0.8202540  10.0000000  )
         2           Al1 tau(   2) = (   4.2621647   0.8202540  10.0000000  )
         3           Al1 tau(   3) = (   2.8414431   3.2810159  10.0000000  )
         4           Al1 tau(   4) = (   5.6828862   3.2810159  10.0000000  )
         5           Al1 tau(   5) = (   5.6828862   1.6405079  12.3200286  )
         6           Al1 tau(   6) = (   2.8414431   1.6405079  12.3200286  )
         7           Al1 tau(   7) = (   7.1036078   4.1012699  12.3200286  )
         8           Al1 tau(   8) = (   4.2621647   4.1012699  12.3200286  )
         9           Al1 tau(   9) = (   0.0000000   0.0000000  14.6400572  )
        10           Al1 tau(  10) = (   2.8414431   0.0000000  14.6400572  )
        11           Al1 tau(  11) = (   1.4207216   2.4607619  14.6400572  )
        12           Al1 tau(  12) = (   4.2621647   2.4607619  14.6400572  )
        13           O1  tau(  13) = (   1.4207216   0.0000000  16.0425572  )
        14           H1  tau(  14) = (   1.4207216   0.0000000  16.9925572  )

     number of k points=    20  Fermi-Dirac smearing, width (Ry)=  0.0110
                       cart. coord. in units 2pi/alat
        k(    1) = (   0.0000000   0.0000000   0.0000000), wk =   0.0555556
        k(    2) = (   0.0000000   0.0338648   0.0000000), wk =   0.1111111
        k(    3) = (   0.0000000   0.0677297   0.0000000), wk =   0.1111111
        k(    4) = (   0.0000000  -0.1015945   0.0000000), wk =   0.0555556
        k(    5) = (   0.0293278  -0.0169324   0.0000000), wk =   0.1111111
        k(    6) = (   0.0293278   0.0169324   0.0000000), wk =   0.1111111
        k(    7) = (   0.0293278   0.0507973   0.0000000), wk =   0.1111111
        k(    8) = (   0.0293278  -0.1185270   0.0000000), wk =   0.1111111
        k(    9) = (   0.0293278  -0.0846621   0.0000000), wk =   0.1111111
        k(   10) = (   0.0293278  -0.0507973   0.0000000), wk =   0.1111111
        k(   11) = (   0.0586556  -0.0338648   0.0000000), wk =   0.1111111
        k(   12) = (   0.0586556   0.0000000   0.0000000), wk =   0.1111111
        k(   13) = (   0.0586556   0.0338648   0.0000000), wk =   0.1111111
        k(   14) = (   0.0586556  -0.1354594   0.0000000), wk =   0.1111111
        k(   15) = (   0.0586556  -0.1015945   0.0000000), wk =   0.1111111
        k(   16) = (   0.0586556  -0.0677297   0.0000000), wk =   0.1111111
        k(   17) = (  -0.0879835   0.0507973   0.0000000), wk =   0.0555556
        k(   18) = (  -0.0879835   0.0846621   0.0000000), wk =   0.1111111
        k(   19) = (  -0.0879835   0.1185270   0.0000000), wk =   0.1111111
        k(   20) = (  -0.0879835  -0.0507973   0.0000000), wk =   0.0555556

     Largest allocated arrays     est. size (Mb)     dimensions
     Largest temporary arrays     est. size (Mb)     dimensions

     Initial potential from superposition of free atoms
     Check: negative starting charge=   -0.000274

     starting charge   42.97041, renormalised to   43.00000

     negative rho (up, down):  2.747E-04 0.000E+00

     *
     * You are using vdW-DF for exchange-correlation in this calculation.
     * Please cite the following three references that made this development
     * possible:
     *
     *   M. Dion, H. Rydberg, E. Schroder, D. C. Langreth, and
     *   B. I. Lundqvist, Phys. Rev. Lett. 92, 246401 (2004).
     *
     *   T. Thonhauser, V. R. Cooper, S. Li, A. Puzder, P. Hyldgaard, and
     *   D. C. Langreth, Phys. Rev. B 76, 125112 (2007).
     *
     *   G. Roman-Perez and J. M. Soler, Phys. Rev. Lett. 103, 096102 (2009).
     *
     *
     * If you are using vdW-DF2, please also cite:
     *
     *   K. Lee, E. D. Murray, L. Kong, B. I. Lundqvist, and
     *   D. C. Langreth, Phys. Rev. B 82, 081101(R) (2010).
     *
     *
     * If you are calculating the stress with vdW-DF, please also cite:
     *
     *   R. Sabatini, E. Kucukbenli, B. Kolb, T. Thonhauser, and
     *   S. de Gironcoli, J. Phys.: Condens. Matter 24, 424209 (2012).
     *

     Carrying out vdW-DF run using the following parameters:

     Nqs =      20    Nr_points =    1024   r_max =   100.000
     q_mesh =
               0.00001000     0.04494208     0.09755937     0.15916263
               0.23128650     0.31572767     0.41458969     0.53033537
               0.66584808     0.82450364     1.01025438     1.22772762
               1.48234092     1.78043706     2.12944203     2.53805004
               3.01644009     3.57652955     4.23227104     5.00000000

     Gradients computed in reciprocal space

     Adding external electric field

     Computed dipole along edir(3) :
        Dipole               -0.0351 Ry au,         -0.0891 Debye
        Dipole field         -0.0001 Ry au

        Potential amp.        0.0086 Ry
        Total length         45.3989 bohr

     Starting wfc are   53 randomized atomic wfcs

     Self-consistent Calculation

     iteration #  1     ecut=    36.75 Ry     beta=0.30
     Davidson diagonalization with overlap
     ethr =  1.00E-02,  avg # of iterations =  3.0

[...]

     total energy              =    -115.96893639 Ry
     Harris-Foulkes estimate   =    -116.53981101 Ry
     estimated scf accuracy    <       1.34449672 Ry

[...]

     End of self-consistent calculation

          k = 0.0000 0.0000 0.0000 ( 17579 PWs)   bands (ev):

   -21.7481 -10.9773 -10.1648  -8.6166  -6.5512  -6.1020  -5.8491  -4.8068
    -4.7791  -4.7635  -4.6714  -4.6406  -4.5292  -3.4116  -3.4058  -3.2811
    -2.8571  -2.8248  -2.6334  -2.2960  -0.5694  -0.4191  -0.3695   0.0002
     0.1436   0.1939   0.5507   1.6478   2.4157   2.4508   2.4516

[...]

          k =-0.0880 0.0508 0.0000 ( 17464 PWs)   bands (ev):

[...]

     the Fermi energy is    -0.0592 ev

!    total energy              =    -116.23288763 Ry
     Harris-Foulkes estimate   =    -116.23288466 Ry
     estimated scf accuracy    <       0.00000062 Ry

     The total energy is the sum of the following terms:

     one-electron contribution =    -820.95432838 Ry
     hartree contribution      =     420.50265366 Ry
     xc contribution           =     -61.61352104 Ry
     ewald contribution        =     345.86195481 Ry
     electric field correction =       0.00033690 Ry
     smearing contrib. (-TS)   =      -0.02998359 Ry

     convergence has been achieved in  11 iterations

 BEEF-vdW xc energy contributions
           1 :   -50.7578962099281
           2 :    43.5735861494789
           3 :   -32.5380629685746
           4 :    21.9858519552575
           5 :   -14.6995682727131
           6 :    10.8987339719889
           7 :   -9.04854835171778
           8 :    7.51024868662702
           9 :   -5.70402233242373
          10 :    4.07399706599974
          11 :   -3.22045032455321
          12 :    3.14469822490415
          13 :   -3.24842562263117
          14 :    2.93045866987283
          15 :   -2.11822443698333
          16 :    1.24153512144875
          17 :  -0.751350812263652
          18 :   0.692798319534113
          19 :  -0.726567113890233
          20 :   0.513968411217263
          21 :  -4.664132050284309E-002
          22 :  -0.389417314318152
          23 :   0.530832609523522
          24 :  -0.396127402326968
          25 :   0.244548207191016
          26 :  -0.305807130568240
          27 :   0.561660497287470
          28 :  -0.785816053169498
          29 :   0.780046171120254
          30 :  -0.563047423788547
          31 :   -7.39016011355056
          32 :   -5.34056761903565

     Forces acting on atoms (Ry/au):

     negative rho (up, down):  5.016E-04 0.000E+00
     atom    1 type  1   force =    -0.00000009    0.00258671    0.00269415
     atom    2 type  1   force =    -0.00000015    0.00083530   -0.00063653
     atom    3 type  1   force =    -0.00059705   -0.00108364    0.00067929
     atom    4 type  1   force =     0.00059727   -0.00108350    0.00067942
     atom    5 type  1   force =    -0.00139897   -0.00113361    0.00180594
     atom    6 type  1   force =     0.00139901   -0.00113378    0.00180572
     atom    7 type  1   force =    -0.00000004   -0.00310176   -0.00349008
     atom    8 type  1   force =    -0.00000003   -0.00188604    0.01195322
     atom    9 type  1   force =    -0.01464742   -0.00260494    0.01064516
     atom   10 type  1   force =     0.01464739   -0.00260502    0.01064506
     atom   11 type  1   force =    -0.00000015    0.02852049   -0.01727210
     atom   12 type  1   force =     0.00000007   -0.02256202   -0.01517587
     atom   13 type  2   force =     0.00000021    0.00447369   -0.06390070
     atom   14 type  3   force =    -0.00000005    0.00077809    0.05956734

     Total force =     0.100859     Total SCF correction =     0.000859

     entering subroutine stress ...

     negative rho (up, down):  5.016E-04 0.000E+00
          total   stress  (Ry/bohr**3)                   (kbar)     P=   -4.00
  -0.00006433  -0.00000000  -0.00000000         -9.46     -0.00     -0.00
  -0.00000000  -0.00001960   0.00000774         -0.00     -2.88      1.14
  -0.00000000   0.00000774   0.00000238         -0.00      1.14      0.35

     BFGS Geometry Optimization

     number of scf cycles    =   1
     number of bfgs steps    =   0

     energy   new            =    -116.2328876320 Ry

     new trust radius        =       0.0640571152 bohr
     new conv_thr            =       0.0000099958 Ry

ATOMIC_POSITIONS (crystal)
Al1      0.166666667   0.166666667   0.405843214    0   0   0
Al1      0.666666667   0.166666667   0.405843214    0   0   0
Al1      0.166666667   0.666666667   0.405843214    0   0   0
Al1      0.666666667   0.666666667   0.405843214    0   0   0
Al1      0.833333333   0.333333333   0.500000000    0   0   0
Al1      0.333333333   0.333333333   0.500000000    0   0   0
Al1      0.833333333   0.833333333   0.500000000    0   0   0
Al1      0.333333333   0.833333333   0.500000000    0   0   0
Al1     -0.001223889  -0.000280091   0.594385405
Al1      0.501503980  -0.000280099   0.594385402
Al1     -0.001533319   0.503066610   0.593785845
Al1      0.501212975   0.497574063   0.593830864
O1       0.249759507   0.000481025   0.649703946
H1       0.249958164   0.000083663   0.690910688

     Writing output data file calc.save
     Check: negative starting charge=   -0.000274
     NEW-OLD atomic charge density approx. for the potential
     Check: negative starting charge=   -0.000272

[...]

     energy   old            =    -116.2328876320 Ry
     energy   new            =    -116.2347411650 Ry

     CASE: energy  _new < energy  _old

[...]

     Threshold (ethr) on eigenvalues was too large:
     Diagonalizing with lowered threshold

     Davidson diagonalization with overlap
     ethr =  3.66E-08,  avg # of iterations =  1.8

[...]

     Total force =     0.002974     Total SCF correction =     0.000284

[...]

     number of scf cycles    =  32
     number of bfgs steps    =  31

     energy   old            =    -116.2509335029 Ry
     energy   new            =    -116.2509602806 Ry

     CASE: energy  _new < energy  _old

     new trust radius        =       0.0079167479 bohr
     new conv_thr            =       0.0000001000 Ry

ATOMIC_POSITIONS (crystal)
Al1      0.166666667   0.166666667   0.405843214    0   0   0
Al1      0.666666667   0.166666667   0.405843214    0   0   0
Al1      0.166666667   0.666666667   0.405843214    0   0   0
Al1      0.666666667   0.666666667   0.405843214    0   0   0
Al1      0.833333333   0.333333333   0.500000000    0   0   0
Al1      0.333333333   0.333333333   0.500000000    0   0   0
Al1      0.833333333   0.833333333   0.500000000    0   0   0
Al1      0.333333333   0.833333333   0.500000000    0   0   0
Al1     -0.009451496   0.008972145   0.594978871
Al1      0.500479376   0.008972141   0.594978873
Al1     -0.021144385   0.542288797   0.590768439
Al1      0.504151032   0.491697870   0.589826757
O1       0.212778433   0.074443085   0.647354259
H1       0.262159820  -0.024319612   0.681945566

     Writing output data file calc.save
     Check: negative starting charge=   -0.000273
     NEW-OLD atomic charge density approx. for the potential
     Check: negative starting charge=   -0.000273

[...]

     Self-consistent Calculation

[...]

     Threshold (ethr) on eigenvalues was too large:
     Diagonalizing with lowered threshold

     Davidson diagonalization with overlap
     ethr =  5.72E-08,  avg # of iterations =  1.5

[...]

     total energy              =    -116.25097236 Ry
     Harris-Foulkes estimate   =    -116.25097240 Ry
     estimated scf accuracy    <       0.00000010 Ry

     iteration #  7     ecut=    36.75 Ry     beta=0.30
     Davidson diagonalization with overlap
     ethr =  2.37E-10,  avg # of iterations =  2.5

[...]

     negative rho (up, down):  5.057E-04 0.000E+00

     Adding external electric field

     Computed dipole along edir(3) :
        Dipole                0.2993 Ry au,          0.7606 Debye
        Dipole field          0.0008 Ry au

        Potential amp.       -0.0734 Ry
        Total length         45.3989 bohr

     End of self-consistent calculation

[...]

          k = 0.0587-0.0677 0.0000 ( 17495 PWs)   bands (ev):

[...]

          k =-0.0880-0.0508 0.0000 ( 17464 PWs)   bands (ev):

   -21.9289 -10.2584  -9.4306  -9.0697  -7.9470  -7.2830  -6.8041  -6.3956
    -6.2200  -5.8245  -4.8238  -4.5950  -4.2731  -3.9430  -2.1238  -1.8261
    -1.6704  -1.2214  -0.6406  -0.5733  -0.3455  -0.0191   0.7870   0.9711
     1.3325   1.3425   1.4401   1.6000   1.8205   2.0856   2.4718

     the Fermi energy is    -0.1001 ev

!    total energy              =    -116.25097234 Ry
     Harris-Foulkes estimate   =    -116.25097217 Ry
     estimated scf accuracy    <       0.00000006 Ry

     The total energy is the sum of the following terms:

     one-electron contribution =    -830.73967223 Ry
     hartree contribution      =     425.27325772 Ry
     xc contribution           =     -61.65586675 Ry
     ewald contribution        =     350.89988467 Ry
     electric field correction =       0.00024199 Ry
     smearing contrib. (-TS)   =      -0.02881774 Ry

     convergence has been achieved in   7 iterations

 BEEF-vdW xc energy contributions
           1 :   -50.7997162503506
           2 :    43.6245148685501
           3 :   -32.5906032108044
           4 :    22.0196572044936
           5 :   -14.6997959688262
           6 :    10.8693046203592
           7 :   -9.00883251627887
           8 :    7.47934108184548
           9 :   -5.68697006454276
          10 :    4.06242576337281
          11 :   -3.20608686291448
          12 :    3.13182739203593
          13 :   -3.25207013463935
          14 :    2.96147358050398
          15 :   -2.17003691019437
          16 :    1.29155392648407
          17 :  -0.777092521707559
          18 :   0.691155194846289
          19 :  -0.718800980782859
          20 :   0.527983800761426
          21 :  -9.120876360154284E-002
          22 :  -0.332823300442996
          23 :   0.490538000435741
          24 :  -0.384670264604594
          25 :   0.249529151005532
          26 :  -0.304905507684552
          27 :   0.545779607996380
          28 :  -0.766368458807001
          29 :   0.774288847386167
          30 :  -0.575474384342996
          31 :   -7.39415450427691
          32 :   -5.34497835993886

     Forces acting on atoms (Ry/au):

     negative rho (up, down):  5.057E-04 0.000E+00
     atom    1 type  1   force =     0.00000000    0.00167556    0.00375344
     atom    2 type  1   force =     0.00000000    0.00108146    0.00030098
     atom    3 type  1   force =     0.00101388   -0.00024437    0.00069722
     atom    4 type  1   force =    -0.00101388   -0.00024437    0.00069722
     atom    5 type  1   force =     0.00274986   -0.00380540   -0.00064349
     atom    6 type  1   force =    -0.00274986   -0.00380540   -0.00064351
     atom    7 type  1   force =     0.00000000    0.00490478   -0.01601870
     atom    8 type  1   force =     0.00000001    0.00271512    0.00959465
     atom    9 type  1   force =     0.00045357    0.00005132    0.00073437
     atom   10 type  1   force =    -0.00045361    0.00005132    0.00073437
     atom   11 type  1   force =    -0.00000003   -0.00054299   -0.00052031
     atom   12 type  1   force =     0.00000004    0.00013898    0.00022329
     atom   13 type  2   force =     0.00000004   -0.00109076    0.00189468
     atom   14 type  3   force =    -0.00000002   -0.00088523   -0.00080422

     Total force =     0.002888     Total SCF correction =     0.000297
     SCF correction compared to forces is large: reduce conv_thr to get better values

     entering subroutine stress ...

     negative rho (up, down):  5.057E-04 0.000E+00
          total   stress  (Ry/bohr**3)                   (kbar)     P=   -2.85
  -0.00004934   0.00000000   0.00000000         -7.26      0.00      0.00
   0.00000000  -0.00000476  -0.00000575          0.00     -0.70     -0.85
   0.00000000  -0.00000575  -0.00000396          0.00     -0.85     -0.58

     bfgs converged in  33 scf cycles and  32 bfgs steps
     (criteria: energy <  1.0E+00, force <  1.9E-03)

     End of BFGS Geometry Optimization

     Final energy   =    -116.2509723369 Ry
Begin final coordinates

ATOMIC_POSITIONS (crystal)
Al1      0.166666667   0.166666667   0.405843214    0   0   0
Al1      0.666666667   0.166666667   0.405843214    0   0   0
Al1      0.166666667   0.666666667   0.405843214    0   0   0
Al1      0.666666667   0.666666667   0.405843214    0   0   0
Al1      0.833333333   0.333333333   0.500000000    0   0   0
Al1      0.333333333   0.333333333   0.500000000    0   0   0
Al1      0.833333333   0.833333333   0.500000000    0   0   0
Al1      0.333333333   0.833333333   0.500000000    0   0   0
Al1     -0.009451496   0.008972145   0.594978871
Al1      0.500479376   0.008972141   0.594978873
Al1     -0.021144385   0.542288797   0.590768439
Al1      0.504151032   0.491697870   0.589826757
O1       0.212778433   0.074443085   0.647354259
H1       0.262159820  -0.024319612   0.681945566
End final coordinates

     Writing output data file calc.save

     General routines

     Parallel routines

   This run was terminated on:  11:46:13  16Apr2018

   JOB DONE.