     Program PWSCF v.5.1rc2 (svn rev. 11289) starts on 22Apr2018 at 23: 8:50

     Current dimensions of program PWSCF are:
     Max number of different atomic species (ntypx) = 10
     Max number of k-points (npk) =  40000
     Max angular momentum in pseudopotentials (lmaxx) =  3
     Presently stress not available with electric field

     IMPORTANT: XC functional enforced from input :
     Exchange-correlation      = BEEF-VDW ( 1  4 27 13 2)
     Any further DFT definition will be discarded
     Please, verify this is what you really want

     Subspace diagonalization in iterative solution of the eigenvalue problem:
     a serial algorithm will be used

     bravais-lattice index     =            0
     lattice parameter (alat)  =       1.8897  a.u.
     unit-cell volume          =    6116.8020 (a.u.)^3
     number of atoms/cell      =           15
     number of atomic types    =            3
     number of electrons       =       138.00
     number of Kohn-Sham states=           79
     kinetic-energy cutoff     =      36.7493  Ry
     charge density cutoff     =     367.4932  Ry
     convergence threshold     =      1.0E-05
     mixing beta               =       0.3000
     number of iterations used =           10  plain     mixing
     Exchange-correlation      = BEEF-VDW ( 1  4 27 13 2)
     nstep                     =           50

     celldm(1)=   1.889726  celldm(2)=   0.000000  celldm(3)=   0.000000
     celldm(4)=   0.000000  celldm(5)=   0.000000  celldm(6)=   0.000000

     crystal axes: (cart. coord. in units of alat)
               a(1) = (   6.437465   0.000000   0.000000 )
               a(2) = (   3.218732   5.575008   0.000000 )
               a(3) = (   0.000000   0.000000  25.256168 )

     reciprocal axes: (cart. coord. in units 2 pi/alat)
               b(1) = (  0.155341 -0.089686  0.000000 )
               b(2) = (  0.000000  0.179372  0.000000 )
               b(3) = (  0.000000  0.000000  0.039594 )

     PseudoPot. # 1 for Sc read from file:
     /u/if/mamunm/psp/gbrv1.5pbe/Sc.UPF
     MD5 check sum: db30a2753ba66ef00f23801d899b7e7f
     Pseudo is Ultrasoft + core correction, Zval = 11.0
     Generated by new atomic code, or converted to UPF format
     Using radial grid of  849 points,  6 beta functions with:
                l(1) =   0
                l(2) =   0
                l(3) =   1
                l(4) =   1
                l(5) =   2
                l(6) =   2
     Q(r) pseudized with  6 coefficients,  rinner =    1.200   1.200   1.200
                                                       1.200   1.200

     PseudoPot. # 2 for C  read from file:
     /u/if/mamunm/psp/gbrv1.5pbe/C.UPF
     MD5 check sum: d1aef80898a10debaa0f26306b886e00
     Pseudo is Ultrasoft + core correction, Zval =  4.0
     Generated by new atomic code, or converted to UPF format
     Using radial grid of  721 points,  4 beta functions with:
                l(1) =   0
                l(2) =   0
                l(3) =   1
                l(4) =   1
     Q(r) pseudized with  8 coefficients,  rinner =    1.100   1.100   1.100

     PseudoPot. # 3 for H  read from file:
     /u/if/mamunm/psp/gbrv1.5pbe/H.UPF
     MD5 check sum: 761ae9a214b05c3daf00ab9f6b793d6f
     Pseudo is Ultrasoft, Zval =  1.0
     Generated by new atomic code, or converted to UPF format
     Using radial grid of  615 points,  2 beta functions with:
                l(1) =   0
                l(2) =   0
     Q(r) pseudized with  8 coefficients,  rinner =    0.700

     vdW kernel table read from file vdW_kernel_table
     MD5 check sum: 095c7af220d748ca6e76c0b4c6cfb241

     atomic species   valence    mass     pseudopotential
        Sc1           11.00    44.95591     Sc( 1.00)
        C1             4.00    12.01100     C ( 1.00)
        H1             1.00     1.00800     H ( 1.00)

     No symmetry found

   Cartesian axes

     site n.     atom                  positions (alat units)
         1           Sc1 tau(   1) = (   1.6093662   0.9291680  10.0000000  )
         2           Sc1 tau(   2) = (   4.8280986   0.9291680  10.0000000  )
         3           Sc1 tau(   3) = (   3.2187324   3.7166720  10.0000000  )
         4           Sc1 tau(   4) = (   6.4374648   3.7166720  10.0000000  )
         5           Sc1 tau(   5) = (   6.4374648   1.8583360  12.6280840  )
         6           Sc1 tau(   6) = (   3.2187324   1.8583360  12.6280840  )
         7           Sc1 tau(   7) = (   8.0468310   4.6458400  12.6280840  )
         8           Sc1 tau(   8) = (   4.8280986   4.6458400  12.6280840  )
         9           Sc1 tau(   9) = (   0.0000000   0.0000000  15.2561680  )
        10           Sc1 tau(  10) = (   3.2187324   0.0000000  15.2561680  )
        11           Sc1 tau(  11) = (   1.6093662   2.7875040  15.2561680  )
        12           Sc1 tau(  12) = (   4.8280986   2.7875040  15.2561680  )
        13           C1  tau(  13) = (   1.6093662   0.0000000  17.1011680  )
        14           H1  tau(  14) = (   2.2393662   0.6300000  17.7311680  )
        15           H1  tau(  15) = (   4.1980986   4.9450080  17.7311680  )

     number of k points=    20  Fermi-Dirac smearing, width (Ry)=  0.0110
                       cart. coord. in units 2pi/alat
        k(    1) = (   0.0000000   0.0000000   0.0000000), wk =   0.0555556
        k(    2) = (   0.0000000   0.0298953   0.0000000), wk =   0.1111111
        k(    3) = (   0.0000000   0.0597906   0.0000000), wk =   0.1111111
        k(    4) = (   0.0000000  -0.0896860   0.0000000), wk =   0.0555556
        k(    5) = (   0.0258901  -0.0149477   0.0000000), wk =   0.1111111
        k(    6) = (   0.0258901   0.0149477   0.0000000), wk =   0.1111111
        k(    7) = (   0.0258901   0.0448430   0.0000000), wk =   0.1111111
        k(    8) = (   0.0258901  -0.1046336   0.0000000), wk =   0.1111111
        k(    9) = (   0.0258901  -0.0747383   0.0000000), wk =   0.1111111
        k(   10) = (   0.0258901  -0.0448430   0.0000000), wk =   0.1111111
        k(   11) = (   0.0517802  -0.0298953   0.0000000), wk =   0.1111111
        k(   12) = (   0.0517802   0.0000000   0.0000000), wk =   0.1111111
        k(   13) = (   0.0517802   0.0298953   0.0000000), wk =   0.1111111
        k(   14) = (   0.0517802  -0.1195813   0.0000000), wk =   0.1111111
        k(   15) = (   0.0517802  -0.0896860   0.0000000), wk =   0.1111111
        k(   16) = (   0.0517802  -0.0597906   0.0000000), wk =   0.1111111
        k(   17) = (  -0.0776703   0.0448430   0.0000000), wk =   0.0555556
        k(   18) = (  -0.0776703   0.0747383   0.0000000), wk =   0.1111111
        k(   19) = (  -0.0776703   0.1046336   0.0000000), wk =   0.1111111
        k(   20) = (  -0.0776703  -0.0448430   0.0000000), wk =   0.0555556

     Largest allocated arrays     est. size (Mb)     dimensions
     Largest temporary arrays     est. size (Mb)     dimensions

     Initial potential from superposition of free atoms
     Check: negative starting charge=   -0.000260

     starting charge  137.97111, renormalised to  138.00000

     negative rho (up, down):  2.604E-04 0.000E+00

     *
     * You are using vdW-DF for exchange-correlation in this calculation.
     * Please cite the following three references that made this development
     * possible:
     *
     *   M. Dion, H. Rydberg, E. Schroder, D. C. Langreth, and
     *   B. I. Lundqvist, Phys. Rev. Lett. 92, 246401 (2004).
     *
     *   T. Thonhauser, V. R. Cooper, S. Li, A. Puzder, P. Hyldgaard, and
     *   D. C. Langreth, Phys. Rev. B 76, 125112 (2007).
     *
     *   G. Roman-Perez and J. M. Soler, Phys. Rev. Lett. 103, 096102 (2009).
     *
     *
     * If you are using vdW-DF2, please also cite:
     *
     *   K. Lee, E. D. Murray, L. Kong, B. I. Lundqvist, and
     *   D. C. Langreth, Phys. Rev. B 82, 081101(R) (2010).
     *
     *
     * If you are calculating the stress with vdW-DF, please also cite:
     *
     *   R. Sabatini, E. Kucukbenli, B. Kolb, T. Thonhauser, and
     *   S. de Gironcoli, J. Phys.: Condens. Matter 24, 424209 (2012).
     *

     Carrying out vdW-DF run using the following parameters:

     Nqs =      20    Nr_points =    1024   r_max =   100.000
     q_mesh =
               0.00001000     0.04494208     0.09755937     0.15916263
               0.23128650     0.31572767     0.41458969     0.53033537
               0.66584808     0.82450364     1.01025438     1.22772762
               1.48234092     1.78043706     2.12944203     2.53805004
               3.01644009     3.57652955     4.23227104     5.00000000

     Gradients computed in reciprocal space

     Adding external electric field

     Computed dipole along edir(3) :
        Dipole               -0.0106 Ry au,         -0.0269 Debye
        Dipole field         -0.0000 Ry au

        Potential amp.        0.0020 Ry
        Total length         46.5341 bohr

     Starting wfc are  162 randomized atomic wfcs

     Self-consistent Calculation

     iteration #  1     ecut=    36.75 Ry     beta=0.30
     Davidson diagonalization with overlap
     ethr =  1.00E-02,  avg # of iterations =  2.0

[...]

     total energy              =   -1149.11426101 Ry
     Harris-Foulkes estimate   =   -1152.33188371 Ry
     estimated scf accuracy    <       6.93102995 Ry

[...]

     End of self-consistent calculation

          k = 0.0000 0.0000 0.0000 ( 23031 PWs)   bands (ev):

   -49.5301 -49.4912 -49.4647 -49.4214 -49.4180 -49.4162 -49.2800 -49.2581
   -49.0117 -48.9716 -48.9666 -48.9602 -28.2372 -28.2020 -28.1908 -28.1815
   -28.1768 -28.1756 -28.1693 -28.1421 -28.1247 -28.0890 -28.0847 -28.0836
   -27.9534 -27.9416 -27.9192 -27.9176 -27.9160 -27.9117 -27.8554 -27.8392
   -27.8388 -27.8025 -27.7818 -27.7351 -27.7314 -27.7267 -27.6700 -27.5700
   -27.5551 -27.5486 -27.5390 -27.4995 -27.4928 -27.4906 -27.4188 -27.4168
   -11.1607  -5.4031  -4.2795  -3.3107  -2.3179  -1.6366  -1.1267  -1.0073
    -0.9839  -0.9458  -0.8796  -0.8249  -0.7573  -0.5850  -0.4345  -0.1753
    -0.0806  -0.0649  -0.0130   0.1882   0.2587   0.3823   0.5770   0.9339
     1.0576   1.0944   1.1111   1.1254   1.1801   1.5441   1.5972

[...]

          k =-0.0777 0.0448 0.0000 ( 23032 PWs)   bands (ev):

[...]

     the Fermi energy is     0.4851 ev

!    total energy              =   -1151.64793187 Ry
     Harris-Foulkes estimate   =   -1151.64793202 Ry
     estimated scf accuracy    <       0.00000133 Ry

     The total energy is the sum of the following terms:

     one-electron contribution =   -7325.87271078 Ry
     hartree contribution      =    3647.05808828 Ry
     xc contribution           =    -171.58621837 Ry
     ewald contribution        =    2698.88373269 Ry
     electric field correction =       0.00002830 Ry
     smearing contrib. (-TS)   =      -0.13085199 Ry

     convergence has been achieved in  19 iterations

 BEEF-vdW xc energy contributions
           1 :   -145.329755151997
           2 :    127.807587643902
           3 :   -100.550496170302
           4 :    74.1179481460110
           5 :   -55.8611524256243
           6 :    47.0090046918186
           7 :   -43.9965216305037
           8 :    42.1955712624484
           9 :   -39.0661132496423
          10 :    34.8800880271189
          11 :   -31.2830155588793
          12 :    29.3426232262379
          13 :   -28.6616136693684
          14 :    27.9681881686952
          15 :   -26.3741130880653
          16 :    24.1018519134072
          17 :   -22.1245488751220
          18 :    21.1784060550880
          19 :   -21.1034482374798
          20 :    21.0617002850471
          21 :   -20.3374958186701
          22 :    18.9433753535889
          23 :   -17.5219032098877
          24 :    16.7101679753403
          25 :   -16.5823957459261
          26 :    16.6463320624729
          27 :   -16.3363696105702
          28 :    15.5182228083303
          29 :   -14.5589631668254
          30 :    13.9424068324670
          31 :   -17.2440811352905
          32 :   -12.3486812872091

     Forces acting on atoms (Ry/au):

     negative rho (up, down):  2.021E-04 0.000E+00
     atom    1 type  1   force =     0.00010966   -0.00019690    0.00146650
     atom    2 type  1   force =    -0.00013365   -0.00065773    0.00168310
     atom    3 type  1   force =    -0.00044825    0.00032336    0.00210350
     atom    4 type  1   force =     0.00036362    0.00049990    0.00204296
     atom    5 type  1   force =     0.00067842    0.00308132    0.00402062
     atom    6 type  1   force =     0.00017921    0.00225406    0.00341016
     atom    7 type  1   force =     0.00076321   -0.00323518   -0.00425585
     atom    8 type  1   force =     0.00009479   -0.00270326   -0.00711258
     atom    9 type  1   force =     0.03939282    0.00192682    0.03566735
     atom   10 type  1   force =    -0.04090274    0.00337794    0.03526777
     atom   11 type  1   force =    -0.00431948   -0.02019741    0.00208710
     atom   12 type  1   force =     0.00378924    0.01661956    0.00243060
     atom   13 type  2   force =     0.00053800   -0.00104991   -0.09642637
     atom   14 type  3   force =     0.01483096   -0.00436552    0.00908434
     atom   15 type  3   force =    -0.01493580    0.00432297    0.00853081

     Total force =     0.128136     Total SCF correction =     0.000681

     entering subroutine stress ...

     negative rho (up, down):  2.021E-04 0.000E+00
          total   stress  (Ry/bohr**3)                   (kbar)     P=   -1.67
   0.00000864   0.00000388  -0.00000099          1.27      0.57     -0.15
   0.00000388   0.00001132  -0.00000007          0.57      1.66     -0.01
  -0.00000099  -0.00000007  -0.00005408         -0.15     -0.01     -7.95

     BFGS Geometry Optimization

     number of scf cycles    =   1
     number of bfgs steps    =   0

     energy   new            =   -1151.6479318708 Ry

     new trust radius        =       0.0964335882 bohr
     new conv_thr            =       0.0000099958 Ry

ATOMIC_POSITIONS (crystal)
Sc1      0.166666667   0.166666667   0.395942884    0   0   0
Sc1      0.666666667   0.166666667   0.395942884    0   0   0
Sc1      0.166666667   0.666666667   0.395942884    0   0   0
Sc1      0.666666667   0.666666667   0.395942884    0   0   0
Sc1      0.833333333   0.333333333   0.500000000    0   0   0
Sc1      0.333333333   0.333333333   0.500000000    0   0   0
Sc1      0.833333333   0.833333333   0.500000000    0   0   0
Sc1      0.333333333   0.833333333   0.500000000    0   0   0
Sc1      0.003146751   0.000182892   0.604804432
Sc1      0.496477366   0.000320633   0.604796060
Sc1      0.000603491   0.498082871   0.604100845
Sc1      0.499522726   0.501577521   0.604108043
C1       0.250094054  -0.000099657   0.675088214
H1       0.292788784   0.112589948   0.702243318
H1       0.207204617   0.887406013   0.702231720

     Writing output data file calc.save
     Check: negative starting charge=   -0.000260
     NEW-OLD atomic charge density approx. for the potential
     Check: negative starting charge=   -0.000258

[...]

     energy   old            =   -1151.6479318708 Ry
     energy   new            =   -1151.6602575723 Ry

     CASE: energy  _new < energy  _old

[...]

     number of scf cycles    =  20
     number of bfgs steps    =  19

     energy   old            =   -1151.7113912708 Ry
     energy   new            =   -1151.7115614944 Ry

     CASE: energy  _new < energy  _old

     new trust radius        =       0.0220358141 bohr
     new conv_thr            =       0.0000001000 Ry

ATOMIC_POSITIONS (crystal)
Sc1      0.166666667   0.166666667   0.395942884    0   0   0
Sc1      0.666666667   0.166666667   0.395942884    0   0   0
Sc1      0.166666667   0.666666667   0.395942884    0   0   0
Sc1      0.666666667   0.666666667   0.395942884    0   0   0
Sc1      0.833333333   0.333333333   0.500000000    0   0   0
Sc1      0.333333333   0.333333333   0.500000000    0   0   0
Sc1      0.833333333   0.833333333   0.500000000    0   0   0
Sc1      0.333333333   0.833333333   0.500000000    0   0   0
Sc1      0.001026454   0.005467447   0.603886461
Sc1      0.491222259   0.005290053   0.603908219
Sc1      0.009863496   0.478941186   0.606190917
Sc1      0.484279274   0.529371812   0.606166807
C1       0.251276466  -0.004357525   0.662796676
H1       0.384553301   0.001262961   0.689640402
H1       0.116887797   0.992787667   0.689713392

     Writing output data file calc.save
     Check: negative starting charge=   -0.000272
     NEW-OLD atomic charge density approx. for the potential
     Check: negative starting charge=   -0.000272

[...]

     Self-consistent Calculation

[...]

     total energy              =   -1151.71162256 Ry
     Harris-Foulkes estimate   =   -1151.71162258 Ry
     estimated scf accuracy    <       0.00000024 Ry

     iteration # 13     ecut=    36.75 Ry     beta=0.30
     Davidson diagonalization with overlap
     ethr =  1.75E-10,  avg # of iterations =  4.0

[...]

     negative rho (up, down):  1.948E-04 0.000E+00

     Adding external electric field

     Computed dipole along edir(3) :
        Dipole                0.1066 Ry au,          0.2708 Debye
        Dipole field          0.0002 Ry au

        Potential amp.       -0.0204 Ry
        Total length         46.5341 bohr

     End of self-consistent calculation

[...]

          k = 0.0518-0.0598 0.0000 ( 23012 PWs)   bands (ev):

[...]

          k =-0.0777-0.0448 0.0000 ( 23032 PWs)   bands (ev):

   -49.3504 -49.2922 -49.2095 -49.2089 -49.1864 -49.1859 -49.0095 -49.0019
   -48.8006 -48.7753 -48.7689 -48.7151 -28.0409 -27.9796 -27.9529 -27.9036
   -27.8832 -27.8818 -27.8811 -27.8806 -27.8722 -27.8509 -27.8505 -27.8435
   -27.7797 -27.7789 -27.7534 -27.7524 -27.7087 -27.6966 -27.6469 -27.6459
   -27.6080 -27.5698 -27.5523 -27.5300 -27.4735 -27.4474 -27.3862 -27.3737
   -27.3632 -27.3576 -27.3472 -27.3454 -27.3123 -27.2825 -27.2568 -27.2241
   -11.9337  -6.1704  -3.5004  -2.7037  -2.5957  -1.9703  -1.5093  -1.4076
    -0.7962  -0.7712  -0.4435  -0.3855  -0.2202  -0.1948   0.4529   0.4630
     0.4780   0.5134   0.5229   0.5910   0.7583   0.7902   0.8128   0.8513
     0.8822   0.9131   1.1000   1.1585   1.1674   1.1899   1.2385

     the Fermi energy is     0.7145 ev

!    total energy              =   -1151.71162254 Ry
     Harris-Foulkes estimate   =   -1151.71162248 Ry
     estimated scf accuracy    <       0.00000004 Ry

     The total energy is the sum of the following terms:

     one-electron contribution =   -7371.75928142 Ry
     hartree contribution      =    3670.74859161 Ry
     xc contribution           =    -171.69005620 Ry
     ewald contribution        =    2721.12079626 Ry
     electric field correction =       0.00002333 Ry
     smearing contrib. (-TS)   =      -0.13169612 Ry

     convergence has been achieved in  13 iterations

 BEEF-vdW xc energy contributions
           1 :   -145.443129062245
           2 :    127.985124736894
           3 :   -100.784523761794
           4 :    74.3446766649508
           5 :   -56.0223909847707
           6 :    47.0869788847947
           7 :   -44.0048084462137
           8 :    42.1544382009254
           9 :   -38.9951853754683
          10 :    34.8051101075836
          11 :   -31.2319336361749
          12 :    29.3273598967418
          13 :   -28.6687709289349
          14 :    27.9747999232479
          15 :   -26.3733973140250
          16 :    24.1096416209866
          17 :   -22.1583668259130
          18 :    21.2324251019179
          19 :   -21.1474569236102
          20 :    21.0666411289724
          21 :   -20.3033312357310
          22 :    18.9023607549647
          23 :   -17.5124711346613
          24 :    16.7433370424045
          25 :   -16.6313791072368
          26 :    16.6702334652931
          27 :   -16.3168004956806
          28 :    15.4744037037815
          29 :   -14.5274214418432
          30 :    13.9424880304908
          31 :   -17.2525421823788
          32 :   -12.3717435828243

     Forces acting on atoms (Ry/au):

     negative rho (up, down):  1.948E-04 0.000E+00
     atom    1 type  1   force =     0.00001072   -0.00004532    0.00076879
     atom    2 type  1   force =     0.00001079   -0.00073570    0.00231970
     atom    3 type  1   force =    -0.00086594    0.00020130    0.00256895
     atom    4 type  1   force =     0.00088316    0.00019607    0.00258338
     atom    5 type  1   force =    -0.00080387    0.00340520    0.00462124
     atom    6 type  1   force =     0.00065447    0.00336172    0.00462053
     atom    7 type  1   force =    -0.00010915   -0.00755434   -0.00496278
     atom    8 type  1   force =    -0.00021061    0.00193925   -0.01130681
     atom    9 type  1   force =     0.00034396    0.00084847    0.00073902
     atom   10 type  1   force =     0.00046797    0.00079531    0.00025833
     atom   11 type  1   force =    -0.00039076   -0.00019869   -0.00148631
     atom   12 type  1   force =     0.00035390   -0.00084047   -0.00109910
     atom   13 type  2   force =     0.00005500   -0.00064595   -0.00093948
     atom   14 type  3   force =    -0.00014251   -0.00101980    0.00055464
     atom   15 type  3   force =    -0.00025715    0.00029296    0.00075988

     Total force =     0.003185     Total SCF correction =     0.000169

     entering subroutine stress ...

     negative rho (up, down):  1.948E-04 0.000E+00
          total   stress  (Ry/bohr**3)                   (kbar)     P=    0.89
   0.00002108   0.00000005   0.00000007          3.10      0.01      0.01
   0.00000005   0.00000813  -0.00000110          0.01      1.20     -0.16
   0.00000007  -0.00000110  -0.00001096          0.01     -0.16     -1.61

     bfgs converged in  21 scf cycles and  20 bfgs steps
     (criteria: energy <  1.0E+00, force <  1.9E-03)

     End of BFGS Geometry Optimization

     Final energy   =   -1151.7116225367 Ry
Begin final coordinates

ATOMIC_POSITIONS (crystal)
Sc1      0.166666667   0.166666667   0.395942884    0   0   0
Sc1      0.666666667   0.166666667   0.395942884    0   0   0
Sc1      0.166666667   0.666666667   0.395942884    0   0   0
Sc1      0.666666667   0.666666667   0.395942884    0   0   0
Sc1      0.833333333   0.333333333   0.500000000    0   0   0
Sc1      0.333333333   0.333333333   0.500000000    0   0   0
Sc1      0.833333333   0.833333333   0.500000000    0   0   0
Sc1      0.333333333   0.833333333   0.500000000    0   0   0
Sc1      0.001026454   0.005467447   0.603886461
Sc1      0.491222259   0.005290053   0.603908219
Sc1      0.009863496   0.478941186   0.606190917
Sc1      0.484279274   0.529371812   0.606166807
C1       0.251276466  -0.004357525   0.662796676
H1       0.384553301   0.001262961   0.689640402
H1       0.116887797   0.992787667   0.689713392
End final coordinates

     Writing output data file calc.save

     General routines

     Parallel routines

   This run was terminated on:   2:50: 2  23Apr2018

   JOB DONE.
Job  /afs/slac/g/suncat/bin/suncat-tsmpirun -x LD_LIBRARY_PATH -wdir /scratch/qe345900_L4IwQ pw.x -npool 4 -in pw.inp

TID   HOST_NAME   COMMAND_LINE            STATUS            TERMINATION_TIME
00000 suncat0051 pw.x -npool 4 -i  Done                     04/23/2018 02:50:02
00001 suncat0051 pw.x -npool 4 -i  Done                     04/23/2018 02:50:02
00002 suncat0051 pw.x -npool 4 -i  Done                     04/23/2018 02:50:02
00003 suncat0051 pw.x -npool 4 -i  Done                     04/23/2018 02:50:02
00004 suncat0051 pw.x -npool 4 -i  Done                     04/23/2018 02:50:02
00005 suncat0051 pw.x -npool 4 -i  Done                     04/23/2018 02:50:02
00006 suncat0051 pw.x -npool 4 -i  Done                     04/23/2018 02:50:02
00007 suncat0051 pw.x -npool 4 -i  Done                     04/23/2018 02:50:02
00008 suncat0014 pw.x -npool 4 -i  Done                     04/23/2018 02:50:02
00009 suncat0014 pw.x -npool 4 -i  Done                     04/23/2018 02:50:02
00010 suncat0014 pw.x -npool 4 -i  Done                     04/23/2018 02:50:02
00011 suncat0014 pw.x -npool 4 -i  Done                     04/23/2018 02:50:02
00012 suncat0014 pw.x -npool 4 -i  Done                     04/23/2018 02:50:02
00013 suncat0014 pw.x -npool 4 -i  Done                     04/23/2018 02:50:02
00014 suncat0014 pw.x -npool 4 -i  Done                     04/23/2018 02:50:02
00015 suncat0014 pw.x -npool 4 -i  Done                     04/23/2018 02:50:02
00016 suncat0001 pw.x -npool 4 -i  Done                     04/23/2018 02:50:02
00017 suncat0001 pw.x -npool 4 -i  Done                     04/23/2018 02:50:02
00018 suncat0001 pw.x -npool 4 -i  Done                     04/23/2018 02:50:02
00019 suncat0001 pw.x -npool 4 -i  Done                     04/23/2018 02:50:02
00020 suncat0001 pw.x -npool 4 -i  Done                     04/23/2018 02:50:02
00021 suncat0001 pw.x -npool 4 -i  Done                     04/23/2018 02:50:02
00022 suncat0001 pw.x -npool 4 -i  Done                     04/23/2018 02:50:02
00023 suncat0001 pw.x -npool 4 -i  Done                     04/23/2018 02:50:02
00024 suncat0183 pw.x -npool 4 -i  Done                     04/23/2018 02:50:02
00025 suncat0183 pw.x -npool 4 -i  Done                     04/23/2018 02:50:02
00026 suncat0183 pw.x -npool 4 -i  Done                     04/23/2018 02:50:02
00027 suncat0183 pw.x -npool 4 -i  Done                     04/23/2018 02:50:02
00028 suncat0183 pw.x -npool 4 -i  Done                     04/23/2018 02:50:02
00029 suncat0183 pw.x -npool 4 -i  Done                     04/23/2018 02:50:02
00030 suncat0183 pw.x -npool 4 -i  Done                     04/23/2018 02:50:02
00031 suncat0183 pw.x -npool 4 -i  Done                     04/23/2018 02:50:02