     Program PWSCF v.5.1rc2 (svn rev. 11289) starts on  9May2018 at  6:52:37

     Current dimensions of program PWSCF are:
     Max number of different atomic species (ntypx) = 10
     Max number of k-points (npk) =  40000
     Max angular momentum in pseudopotentials (lmaxx) =  3
     Presently stress not available with electric field

     IMPORTANT: XC functional enforced from input :
     Exchange-correlation      = BEEF-VDW ( 1  4 27 13 2)
     Any further DFT definition will be discarded
     Please, verify this is what you really want

     Subspace diagonalization in iterative solution of the eigenvalue problem:
     a serial algorithm will be used

     bravais-lattice index     =            0
     lattice parameter (alat)  =       1.8897  a.u.
     unit-cell volume          =    4569.9960 (a.u.)^3
     number of atoms/cell      =           16
     number of atomic types    =            3
     number of electrons       =       199.00
     number of Kohn-Sham states=          109
     kinetic-energy cutoff     =      36.7493  Ry
     charge density cutoff     =     367.4932  Ry
     convergence threshold     =      1.0E-05
     mixing beta               =       0.3000
     number of iterations used =           10  plain     mixing
     Exchange-correlation      = BEEF-VDW ( 1  4 27 13 2)
     nstep                     =           50

     celldm(1)=   1.889726  celldm(2)=   0.000000  celldm(3)=   0.000000
     celldm(4)=   0.000000  celldm(5)=   0.000000  celldm(6)=   0.000000

     crystal axes: (cart. coord. in units of alat)
               a(1) = (   5.637663   0.000000   0.000000 )
               a(2) = (   2.818831   4.882359   0.000000 )
               a(3) = (   0.000000   0.000000  24.603132 )

     reciprocal axes: (cart. coord. in units 2 pi/alat)
               b(1) = (  0.177378 -0.102410  0.000000 )
               b(2) = (  0.000000  0.204819  0.000000 )
               b(3) = (  0.000000  0.000000  0.040645 )

     PseudoPot. # 1 for Pd read from file:
     /nfs/slac/g/suncatfs/sw/external/esp-psp/gbrv1.5pbe/Pd.UPF
     MD5 check sum: 2d733d2bc2cbfd217af676df1668a4bc
     Pseudo is Ultrasoft + core correction, Zval = 16.0
     Generated by new atomic code, or converted to UPF format
     Using radial grid of  887 points,  6 beta functions with:
                l(1) =   0
                l(2) =   0
                l(3) =   1
                l(4) =   1
                l(5) =   2
                l(6) =   2
     Q(r) pseudized with  8 coefficients,  rinner =    1.130   1.130   1.130
                                                       1.130   1.130

     PseudoPot. # 2 for C  read from file:
     /nfs/slac/g/suncatfs/sw/external/esp-psp/gbrv1.5pbe/C.UPF
     MD5 check sum: d1aef80898a10debaa0f26306b886e00
     Pseudo is Ultrasoft + core correction, Zval =  4.0
     Generated by new atomic code, or converted to UPF format
     Using radial grid of  721 points,  4 beta functions with:
                l(1) =   0
                l(2) =   0
                l(3) =   1
                l(4) =   1
     Q(r) pseudized with  8 coefficients,  rinner =    1.100   1.100   1.100

     PseudoPot. # 3 for H  read from file:
     /nfs/slac/g/suncatfs/sw/external/esp-psp/gbrv1.5pbe/H.UPF
     MD5 check sum: 761ae9a214b05c3daf00ab9f6b793d6f
     Pseudo is Ultrasoft, Zval =  1.0
     Generated by new atomic code, or converted to UPF format
     Using radial grid of  615 points,  2 beta functions with:
                l(1) =   0
                l(2) =   0
     Q(r) pseudized with  8 coefficients,  rinner =    0.700

     vdW kernel table read from file vdW_kernel_table
     MD5 check sum: 095c7af220d748ca6e76c0b4c6cfb241

     atomic species   valence    mass     pseudopotential
        Pd1           16.00   106.42000     Pd( 1.00)
        C1             4.00    12.01100     C ( 1.00)
        H1             1.00     1.00800     H ( 1.00)

     No symmetry found

   Cartesian axes

     site n.     atom                  positions (alat units)
         1           Pd1 tau(   1) = (   0.0000000   0.0000000  10.0000000  )
         2           Pd1 tau(   2) = (   1.4094157   2.4411796  10.0000000  )
         3           Pd1 tau(   3) = (   2.8188314   0.0000000  10.0000000  )
         4           Pd1 tau(   4) = (   4.2282471   2.4411796  10.0000000  )
         5           Pd1 tau(   5) = (   5.6376627   3.2549061  12.3015662  )
         6           Pd1 tau(   6) = (   4.2282471   0.8137265  12.3015662  )
         7           Pd1 tau(   7) = (   2.8188314   3.2549061  12.3015662  )
         8           Pd1 tau(   8) = (   1.4094157   0.8137265  12.3015662  )
         9           Pd1 tau(   9) = (   2.8182870   1.6275640  14.6019814  )
        10           Pd1 tau(  10) = (   4.2286228   4.0680320  14.6028407  )
        11           Pd1 tau(  11) = (   5.6370610   1.6293053  14.6031189  )
        12           Pd1 tau(  12) = (   7.0460207   4.0694552  14.6019115  )
        13           C1  tau(  13) = (   4.9331638   2.8460832  16.0800983  )
        14           H1  tau(  14) = (   5.3964754   3.6512813  16.6165979  )
        15           H1  tau(  15) = (   4.4695157   2.0452417  16.6149480  )
        16           H1  tau(  16) = (   1.4086958   0.8132659  14.6141895  )

     number of k points=    20  Fermi-Dirac smearing, width (Ry)=  0.0110
                       cart. coord. in units 2pi/alat
        k(    1) = (   0.0000000   0.0000000   0.0000000), wk =   0.0555556
        k(    2) = (   0.0000000   0.0341365   0.0000000), wk =   0.1111111
        k(    3) = (   0.0000000   0.0682730   0.0000000), wk =   0.1111111
        k(    4) = (   0.0000000  -0.1024095   0.0000000), wk =   0.0555556
        k(    5) = (   0.0295631  -0.0170683   0.0000000), wk =   0.1111111
        k(    6) = (   0.0295631   0.0170683   0.0000000), wk =   0.1111111
        k(    7) = (   0.0295631   0.0512048   0.0000000), wk =   0.1111111
        k(    8) = (   0.0295631  -0.1194778   0.0000000), wk =   0.1111111
        k(    9) = (   0.0295631  -0.0853413   0.0000000), wk =   0.1111111
        k(   10) = (   0.0295631  -0.0512048   0.0000000), wk =   0.1111111
        k(   11) = (   0.0591262  -0.0341365   0.0000000), wk =   0.1111111
        k(   12) = (   0.0591262  -0.0000000   0.0000000), wk =   0.1111111
        k(   13) = (   0.0591262   0.0341365   0.0000000), wk =   0.1111111
        k(   14) = (   0.0591262  -0.1365460   0.0000000), wk =   0.1111111
        k(   15) = (   0.0591262  -0.1024095   0.0000000), wk =   0.1111111
        k(   16) = (   0.0591262  -0.0682730   0.0000000), wk =   0.1111111
        k(   17) = (  -0.0886892   0.0512048   0.0000000), wk =   0.0555556
        k(   18) = (  -0.0886892   0.0853413   0.0000000), wk =   0.1111111
        k(   19) = (  -0.0886892   0.1194778   0.0000000), wk =   0.1111111
        k(   20) = (  -0.0886892  -0.0512048   0.0000000), wk =   0.0555556

     Largest allocated arrays     est. size (Mb)     dimensions
     Largest temporary arrays     est. size (Mb)     dimensions

     Initial potential from superposition of free atoms
     Check: negative starting charge=   -0.903476

     starting charge  192.99985, renormalised to  199.00000

     negative rho (up, down):  9.316E-01 0.000E+00

     *
     * You are using vdW-DF for exchange-correlation in this calculation.
     * Please cite the following three references that made this development
     * possible:
     *
     *   M. Dion, H. Rydberg, E. Schroder, D. C. Langreth, and
     *   B. I. Lundqvist, Phys. Rev. Lett. 92, 246401 (2004).
     *
     *   T. Thonhauser, V. R. Cooper, S. Li, A. Puzder, P. Hyldgaard, and
     *   D. C. Langreth, Phys. Rev. B 76, 125112 (2007).
     *
     *   G. Roman-Perez and J. M. Soler, Phys. Rev. Lett. 103, 096102 (2009).
     *
     *
     * If you are using vdW-DF2, please also cite:
     *
     *   K. Lee, E. D. Murray, L. Kong, B. I. Lundqvist, and
     *   D. C. Langreth, Phys. Rev. B 82, 081101(R) (2010).
     *
     *
     * If you are calculating the stress with vdW-DF, please also cite:
     *
     *   R. Sabatini, E. Kucukbenli, B. Kolb, T. Thonhauser, and
     *   S. de Gironcoli, J. Phys.: Condens. Matter 24, 424209 (2012).
     *

     Carrying out vdW-DF run using the following parameters:

     Nqs =      20    Nr_points =    1024   r_max =   100.000
     q_mesh =
               0.00001000     0.04494208     0.09755937     0.15916263
               0.23128650     0.31572767     0.41458969     0.53033537
               0.66584808     0.82450364     1.01025438     1.22772762
               1.48234092     1.78043706     2.12944203     2.53805004
               3.01644009     3.57652955     4.23227104     5.00000000

     Gradients computed in reciprocal space

     Adding external electric field

     Computed dipole along edir(3) :
        Dipole               -1.5303 Ry au,         -3.8897 Debye
        Dipole field         -0.0042 Ry au

        Potential amp.        0.3815 Ry
        Total length         45.3309 bohr

     Starting wfc are  151 randomized atomic wfcs

     Self-consistent Calculation

     iteration #  1     ecut=    36.75 Ry     beta=0.30
     Davidson diagonalization with overlap
     ethr =  1.00E-02,  avg # of iterations =  5.2

[...]

     total energy              =   -2359.71343933 Ry
     Harris-Foulkes estimate   =   -2415.34267855 Ry
     estimated scf accuracy    <     117.58619233 Ry

[...]

     End of self-consistent calculation

          k = 0.0000 0.0000 0.0000 ( 17231 PWs)   bands (ev):

   -49.4471 -49.2966 -49.0496 -48.9305 -48.9162 -48.8486 -48.5556 -48.5211
   -48.5089 -48.5027 -48.4140 -48.3856 -48.3833 -48.3721 -48.3432 -48.3354
   -48.3234 -48.3213 -48.2753 -48.2716 -48.2696 -48.2617 -48.2576 -48.1920
   -48.1320 -48.1170 -48.1080 -48.1001 -48.0954 -48.0485 -48.0466 -47.9949
   -47.9742 -47.9519 -47.9274 -47.9151 -11.2773  -7.1157  -5.7890  -4.2596
    -4.0989  -3.3110  -3.1703  -3.1583  -3.0657  -3.0200  -2.9773  -2.8757
    -2.8613  -2.7951  -2.7147  -2.6149  -2.5728  -2.3960  -2.1283  -1.7581
    -1.5904  -1.4818  -1.4720  -1.4157  -1.2945  -1.2661  -1.1858  -1.0544
    -1.0051  -0.9326  -0.8903  -0.7925  -0.7869  -0.7695  -0.7624  -0.6122
    -0.3124  -0.2959  -0.1274  -0.0094   0.0789   0.1759   0.2648   0.3926
     0.4470   0.5023   0.5628   0.7806   0.7952   0.8599   0.9839   0.9968
     1.0283   1.0349   1.0592   1.1135   1.1619   1.2013   1.2353   1.3811
     1.3904   1.3924   1.4491   1.5798   1.5829   1.5885   2.2349   2.8393
     3.4030   3.5480   4.1059   4.3330   4.7293

[...]

          k =-0.0887 0.0512 0.0000 ( 17240 PWs)   bands (ev):

[...]

     the Fermi energy is     1.3575 ev

!    total energy              =   -2412.52662476 Ry
     Harris-Foulkes estimate   =   -2412.52661692 Ry
     estimated scf accuracy    <       0.00000275 Ry

     The total energy is the sum of the following terms:

     one-electron contribution =  -20849.98869839 Ry
     hartree contribution      =   10478.22770765 Ry
     xc contribution           =    -396.39366652 Ry
     ewald contribution        =    8355.73067295 Ry
     electric field correction =       0.00012193 Ry
     smearing contrib. (-TS)   =      -0.10276239 Ry

     convergence has been achieved in  22 iterations

 BEEF-vdW xc energy contributions
           1 :   -344.973807658494
           2 :    315.211939720836
           3 :   -264.434757992797
           4 :    206.245708011918
           5 :   -153.808134859671
           6 :    115.563318521715
           7 :   -93.4171890797836
           8 :    83.6973403495517
           9 :   -80.0555270395560
          10 :    76.7615961266708
          11 :   -70.9043032101601
          12 :    62.7436805444758
          13 :   -54.4732859418739
          14 :    48.3619640827111
          15 :   -45.3555351556148
          16 :    44.7480069923528
          17 :   -44.8567894153133
          18 :    44.1183392641802
          19 :   -41.9119462731556
          20 :    38.6964140980323
          21 :   -35.5110951561085
          22 :    33.2399640214703
          23 :   -32.1059246750320
          24 :    31.6479334991482
          25 :   -31.1150430845832
          26 :    29.9746611510170
          27 :   -28.2110423807335
          28 :    26.2583655974626
          29 :   -24.6578736603155
          30 :    23.6868746072776
          31 :   -33.7969910622454
          32 :   -24.9822017354343

     Forces acting on atoms (Ry/au):

     negative rho (up, down):  9.430E-01 0.000E+00
     atom    1 type  1   force =     0.00028226    0.00009406   -0.00038124
     atom    2 type  1   force =    -0.00055406    0.00158284   -0.00312651
     atom    3 type  1   force =     0.00069845   -0.00093215   -0.00269433
     atom    4 type  1   force =     0.00031838    0.00021780   -0.00083128
     atom    5 type  1   force =     0.00034353    0.00034264   -0.01214326
     atom    6 type  1   force =     0.00067423   -0.00260033   -0.00513957
     atom    7 type  1   force =    -0.00138609    0.00088198   -0.00742379
     atom    8 type  1   force =     0.00022100   -0.00217996   -0.00893958
     atom    9 type  1   force =     0.05131823    0.03315170    0.00071619
     atom   10 type  1   force =    -0.01278125   -0.07583534    0.00108239
     atom   11 type  1   force =    -0.04943237    0.04406415    0.00288340
     atom   12 type  1   force =     0.00382870   -0.00090157   -0.00247624
     atom   13 type  2   force =     0.00001434   -0.00042861   -0.04311855
     atom   14 type  3   force =     0.01914135    0.00260533    0.03156889
     atom   15 type  3   force =    -0.02055680   -0.00812064    0.03752289
     atom   16 type  3   force =     0.00787008    0.00805809    0.01250059

     Total force =     0.139544     Total SCF correction =     0.004218

     entering subroutine stress ...

     negative rho (up, down):  9.430E-01 0.000E+00
          total   stress  (Ry/bohr**3)                   (kbar)     P=    5.95
   0.00003364  -0.00000023  -0.00000240          4.95     -0.03     -0.35
  -0.00000023   0.00002472  -0.00000325         -0.03      3.64     -0.48
  -0.00000240  -0.00000325   0.00006306         -0.35     -0.48      9.28

     BFGS Geometry Optimization

     number of scf cycles    =   1
     number of bfgs steps    =   0

     energy   new            =   -2412.5266247577 Ry

     new trust radius        =       0.0769124862 bohr
     new conv_thr            =       0.0000099958 Ry

ATOMIC_POSITIONS (crystal)
Pd1      0.000000000   0.000000000   0.406452311    0   0   0
Pd1     -0.000000000   0.500000000   0.406452311    0   0   0
Pd1      0.500000000   0.000000000   0.406452311    0   0   0
Pd1      0.500000000   0.500000000   0.406452311    0   0   0
Pd1      0.666666667   0.666666667   0.500000000    0   0   0
Pd1      0.666666667   0.166666667   0.500000000    0   0   0
Pd1      0.166666667   0.666666667   0.500000000    0   0   0
Pd1      0.166666667   0.166666667   0.500000000    0   0   0
Pd1      0.336245797   0.336949218   0.593516311
Pd1      0.336371505   0.824990856   0.593559114
Pd1      0.826009002   0.338488633   0.593609158
Pd1      0.833469720   0.833404089   0.593444807
C1       0.583595644   0.582885500   0.652651897
H1       0.584948132   0.748134226   0.676064462
H1       0.581854180   0.418024240   0.676125464
H1       0.166888188   0.167445700   0.594265978

     Writing output data file calc.save
     Check: negative starting charge=   -0.903476
     NEW-OLD atomic charge density approx. for the potential
     Check: negative starting charge=   -0.903709

[...]

     energy   old            =   -2412.5266247577 Ry
     energy   new            =   -2412.5394913665 Ry

     CASE: energy  _new < energy  _old

[...]

     Total force =     0.006425     Total SCF correction =     0.000229

[...]

     number of scf cycles    =  24
     number of bfgs steps    =  23

     energy   old            =   -2412.5961953703 Ry
     energy   new            =   -2412.5963263491 Ry

     CASE: energy  _new < energy  _old

     new trust radius        =       0.0103759651 bohr
     new conv_thr            =       0.0000001000 Ry

ATOMIC_POSITIONS (crystal)
Pd1      0.000000000   0.000000000   0.406452311    0   0   0
Pd1     -0.000000000   0.500000000   0.406452311    0   0   0
Pd1      0.500000000   0.000000000   0.406452311    0   0   0
Pd1      0.500000000   0.500000000   0.406452311    0   0   0
Pd1      0.666666667   0.666666667   0.500000000    0   0   0
Pd1      0.666666667   0.166666667   0.500000000    0   0   0
Pd1      0.166666667   0.666666667   0.500000000    0   0   0
Pd1      0.166666667   0.166666667   0.500000000    0   0   0
Pd1      0.331962089   0.330325558   0.593091476
Pd1      0.338780854   0.825764017   0.599530268
Pd1      0.826687315   0.338926772   0.599361787
Pd1      0.835986492   0.835467003   0.591694128
C1       0.582581768   0.582457122   0.660303629
H1       0.673853025   0.674026598   0.685983042
H1       0.490728159   0.487460440   0.684877580
H1       0.168784092   0.172643004   0.631005349

     Writing output data file calc.save
     Check: negative starting charge=   -0.905123
     NEW-OLD atomic charge density approx. for the potential
     Check: negative starting charge=   -0.904895

[...]

     Self-consistent Calculation

[...]

     Threshold (ethr) on eigenvalues was too large:
     Diagonalizing with lowered threshold

     Davidson diagonalization with overlap
     ethr =  9.04E-08,  avg # of iterations =  1.0

[...]

     total energy              =   -2412.59637541 Ry
     Harris-Foulkes estimate   =   -2412.59637546 Ry
     estimated scf accuracy    <       0.00000010 Ry

     iteration # 10     ecut=    36.75 Ry     beta=0.30
     Davidson diagonalization with overlap
     ethr =  5.03E-11,  avg # of iterations =  1.9

[...]

     negative rho (up, down):  9.441E-01 0.000E+00

     Adding external electric field

     Computed dipole along edir(3) :
        Dipole                0.1965 Ry au,          0.4994 Debye
        Dipole field          0.0005 Ry au

        Potential amp.       -0.0490 Ry
        Total length         45.3309 bohr

     End of self-consistent calculation

[...]

          k = 0.0591-0.0683 0.0000 ( 17183 PWs)   bands (ev):

[...]

          k =-0.0887-0.0512 0.0000 ( 17240 PWs)   bands (ev):

   -49.3198 -49.2053 -49.0028 -48.9326 -48.8267 -48.7963 -48.5054 -48.4847
   -48.4681 -48.4340 -48.4249 -48.4113 -48.3958 -48.3864 -48.3854 -48.3752
   -48.3619 -48.3523 -48.3214 -48.3005 -48.2648 -48.2360 -48.2265 -48.2043
   -48.1981 -48.1912 -48.1731 -48.1616 -48.1481 -48.1158 -48.0836 -48.0691
   -47.9933 -47.9836 -47.9379 -47.9279 -10.9466  -5.1068  -4.9075  -4.2109
    -3.0502  -2.9386  -2.6551  -2.5268  -2.5034  -2.3510  -2.3108  -2.2502
    -2.2468  -2.1897  -2.0530  -2.0278  -1.9027  -1.8519  -1.8277  -1.7689
    -1.6880  -1.5092  -1.5001  -1.4619  -1.3827  -1.3686  -1.2567  -1.1358
    -1.1142  -1.1027  -0.9886  -0.9181  -0.8721  -0.7176  -0.6682  -0.6467
    -0.5776  -0.5632  -0.5352  -0.4961  -0.4879  -0.4124  -0.4047  -0.3422
    -0.1843  -0.0969  -0.0961  -0.0792   0.0225   0.0379   0.0949   0.2124
     0.2458   0.3298   0.4486   0.4954   0.5039   0.6644   0.6913   0.8519
     1.0319   1.0535   1.1912   1.2857   1.2967   1.3753   2.1170   2.3022
     2.7826   3.5655   3.8194   4.1564   5.0941

     the Fermi energy is     1.3328 ev

!    total energy              =   -2412.59637541 Ry
     Harris-Foulkes estimate   =   -2412.59637564 Ry
     estimated scf accuracy    <       0.00000003 Ry

     The total energy is the sum of the following terms:

     one-electron contribution =  -20574.39139354 Ry
     hartree contribution      =   10340.43729047 Ry
     xc contribution           =    -396.10924548 Ry
     ewald contribution        =    8217.57031638 Ry
     electric field correction =       0.00010617 Ry
     smearing contrib. (-TS)   =      -0.10344940 Ry

     convergence has been achieved in  10 iterations

 BEEF-vdW xc energy contributions
           1 :   -344.681891505668
           2 :    314.825060546386
           3 :   -263.943386750923
           4 :    205.738279561311
           5 :   -153.421733956798
           6 :    115.412822997840
           7 :   -93.5331435502687
           8 :    84.0032323522815
           9 :   -80.3994367220811
          10 :    76.9886324993734
          11 :   -70.9311903719905
          12 :    62.5933696618800
          13 :   -54.2511710111243
          14 :    48.1901578106882
          15 :   -45.3042814976079
          16 :    44.8033713826067
          17 :   -44.9403786968885
          18 :    44.1425924633602
          19 :   -41.8353073055637
          20 :    38.5457355085114
          21 :   -35.3608420923102
          22 :    33.1644644069419
          23 :   -32.1352030362457
          24 :    31.7535530643099
          25 :   -31.2321759121696
          26 :    30.0434409609570
          27 :   -28.2099441188183
          28 :    26.2101062560758
          29 :   -24.6077736817688
          30 :    23.6705609434845
          31 :   -33.7779850180434
          32 :   -24.9428386686926

     Forces acting on atoms (Ry/au):

     negative rho (up, down):  9.441E-01 0.000E+00
     atom    1 type  1   force =     0.00034668    0.00020041   -0.00033872
     atom    2 type  1   force =    -0.00083388    0.00149186   -0.00402161
     atom    3 type  1   force =     0.00087052   -0.00146742   -0.00404551
     atom    4 type  1   force =     0.00048480    0.00029601    0.00041470
     atom    5 type  1   force =    -0.00566235   -0.00310231    0.00193552
     atom    6 type  1   force =     0.00511249    0.00387549   -0.00077535
     atom    7 type  1   force =     0.00597916    0.00225989   -0.00064509
     atom    8 type  1   force =    -0.00564061   -0.00342559    0.00932502
     atom    9 type  1   force =    -0.00133169   -0.00010759   -0.00047934
     atom   10 type  1   force =     0.00079221    0.00163686   -0.00064968
     atom   11 type  1   force =     0.00023179    0.00029034   -0.00008899
     atom   12 type  1   force =     0.00039122    0.00014259    0.00001832
     atom   13 type  2   force =     0.00013179   -0.00114744   -0.00045331
     atom   14 type  3   force =     0.00053848    0.00049024   -0.00100195
     atom   15 type  3   force =    -0.00098795   -0.00020171    0.00087906
     atom   16 type  3   force =    -0.00042266   -0.00123164   -0.00007309

     Total force =     0.003554     Total SCF correction =     0.000472
     SCF correction compared to forces is large: reduce conv_thr to get better values

     entering subroutine stress ...

     negative rho (up, down):  9.441E-01 0.000E+00
          total   stress  (Ry/bohr**3)                   (kbar)     P=   -7.81
  -0.00007067   0.00000483  -0.00000188        -10.40      0.71     -0.28
   0.00000483  -0.00007754  -0.00000148          0.71    -11.41     -0.22
  -0.00000188  -0.00000148  -0.00001099         -0.28     -0.22     -1.62

     bfgs converged in  25 scf cycles and  24 bfgs steps
     (criteria: energy <  1.0E+00, force <  1.9E-03)

     End of BFGS Geometry Optimization

     Final energy   =   -2412.5963754069 Ry
Begin final coordinates

ATOMIC_POSITIONS (crystal)
Pd1      0.000000000   0.000000000   0.406452311    0   0   0
Pd1     -0.000000000   0.500000000   0.406452311    0   0   0
Pd1      0.500000000   0.000000000   0.406452311    0   0   0
Pd1      0.500000000   0.500000000   0.406452311    0   0   0
Pd1      0.666666667   0.666666667   0.500000000    0   0   0
Pd1      0.666666667   0.166666667   0.500000000    0   0   0
Pd1      0.166666667   0.666666667   0.500000000    0   0   0
Pd1      0.166666667   0.166666667   0.500000000    0   0   0
Pd1      0.331962089   0.330325558   0.593091476
Pd1      0.338780854   0.825764017   0.599530268
Pd1      0.826687315   0.338926772   0.599361787
Pd1      0.835986492   0.835467003   0.591694128
C1       0.582581768   0.582457122   0.660303629
H1       0.673853025   0.674026598   0.685983042
H1       0.490728159   0.487460440   0.684877580
H1       0.168784092   0.172643004   0.631005349
End final coordinates

     Writing output data file calc.save

     General routines

     Parallel routines

   This run was terminated on:   9:52: 6   9May2018

   JOB DONE.
Job  /afs/slac/g/suncat/bin/suncat-tsmpirun -x LD_LIBRARY_PATH -wdir /scratch/qe877436_66Ufn pw.x -npool 2 -in pw.inp

TID   HOST_NAME   COMMAND_LINE            STATUS            TERMINATION_TIME
00000 suncat1062 pw.x -npool 2 -i  Done                     05/09/2018 09:52:06
00001 suncat1062 pw.x -npool 2 -i  Done                     05/09/2018 09:52:06
00002 suncat1062 pw.x -npool 2 -i  Done                     05/09/2018 09:52:06
00003 suncat1062 pw.x -npool 2 -i  Done                     05/09/2018 09:52:06
00004 suncat1062 pw.x -npool 2 -i  Done                     05/09/2018 09:52:06
00005 suncat1062 pw.x -npool 2 -i  Done                     05/09/2018 09:52:06
00006 suncat1062 pw.x -npool 2 -i  Done                     05/09/2018 09:52:06
00007 suncat1062 pw.x -npool 2 -i  Done                     05/09/2018 09:52:06
00008 suncat1062 pw.x -npool 2 -i  Done                     05/09/2018 09:52:06
00009 suncat1062 pw.x -npool 2 -i  Done                     05/09/2018 09:52:06
00010 suncat1062 pw.x -npool 2 -i  Done                     05/09/2018 09:52:06
00011 suncat1062 pw.x -npool 2 -i  Done                     05/09/2018 09:52:06
00012 suncat1058 pw.x -npool 2 -i  Done                     05/09/2018 09:52:06
00013 suncat1058 pw.x -npool 2 -i  Done                     05/09/2018 09:52:06
00014 suncat1058 pw.x -npool 2 -i  Done                     05/09/2018 09:52:06
00015 suncat1058 pw.x -npool 2 -i  Done                     05/09/2018 09:52:06
00016 suncat1058 pw.x -npool 2 -i  Done                     05/09/2018 09:52:06
00017 suncat1058 pw.x -npool 2 -i  Done                     05/09/2018 09:52:06
00018 suncat1058 pw.x -npool 2 -i  Done                     05/09/2018 09:52:06
00019 suncat1058 pw.x -npool 2 -i  Done                     05/09/2018 09:52:06
00020 suncat1058 pw.x -npool 2 -i  Done                     05/09/2018 09:52:06
00021 suncat1058 pw.x -npool 2 -i  Done                     05/09/2018 09:52:06
00022 suncat1058 pw.x -npool 2 -i  Done                     05/09/2018 09:52:06
00023 suncat1058 pw.x -npool 2 -i  Done                     05/09/2018 09:52:06