     Program PWSCF v.5.1rc2 (svn rev. 11289) starts on 19Jan2018 at 22:34:36

     Current dimensions of program PWSCF are:
     Max number of different atomic species (ntypx) = 10
     Max number of k-points (npk) =  40000
     Max angular momentum in pseudopotentials (lmaxx) =  3
     Presently stress not available with electric field

     IMPORTANT: XC functional enforced from input :
     Exchange-correlation      = BEEF-VDW ( 1  4 27 13 2)
     Any further DFT definition will be discarded
     Please, verify this is what you really want

     Subspace diagonalization in iterative solution of the eigenvalue problem:
     a serial algorithm will be used

     bravais-lattice index     =            0
     lattice parameter (alat)  =       1.8897  a.u.
     unit-cell volume          =    4552.2840 (a.u.)^3
     number of atoms/cell      =           13
     number of atomic types    =            2
     number of electrons       =       174.00
     number of Kohn-Sham states=           97
     kinetic-energy cutoff     =      36.7493  Ry
     charge density cutoff     =     367.4932  Ry
     convergence threshold     =      1.0E-05
     mixing beta               =       0.3000
     number of iterations used =           10  plain     mixing
     Exchange-correlation      = BEEF-VDW ( 1  4 27 13 2)
     nstep                     =           50

     celldm(1)=   1.889726  celldm(2)=   0.000000  celldm(3)=   0.000000
     celldm(4)=   0.000000  celldm(5)=   0.000000  celldm(6)=   0.000000

     crystal axes: (cart. coord. in units of alat)
               a(1) = (   5.627661   0.000000   0.000000 )
               a(2) = (   2.813831   4.873698   0.000000 )
               a(3) = (   0.000000   0.000000  24.594966 )

     reciprocal axes: (cart. coord. in units 2 pi/alat)
               b(1) = (  0.177694 -0.102592  0.000000 )
               b(2) = (  0.000000  0.205183  0.000000 )
               b(3) = (  0.000000  0.000000  0.040659 )

     PseudoPot. # 1 for Mo read from file:
     /afs/slac.stanford.edu/u/if/mamunm/psp/gbrv1.5pbe/Mo.UPF
     MD5 check sum: 30c4dcd161f5d35cd49bb5239c51a633
     Pseudo is Ultrasoft + core correction, Zval = 14.0
     Generated by new atomic code, or converted to UPF format
     Using radial grid of  889 points,  6 beta functions with:
                l(1) =   0
                l(2) =   0
                l(3) =   1
                l(4) =   1
                l(5) =   2
                l(6) =   2
     Q(r) pseudized with  6 coefficients,  rinner =    1.000   1.000   1.000
                                                       1.000   1.000

     PseudoPot. # 2 for S  read from file:
     /afs/slac.stanford.edu/u/if/mamunm/psp/gbrv1.5pbe/S.UPF
     MD5 check sum: 88d86576ff6df21479756cfb9bdac1df
     Pseudo is Ultrasoft + core correction, Zval =  6.0
     Generated by new atomic code, or converted to UPF format
     Using radial grid of  907 points,  6 beta functions with:
                l(1) =   0
                l(2) =   0
                l(3) =   1
                l(4) =   1
                l(5) =   2
                l(6) =   2
     Q(r) pseudized with  8 coefficients,  rinner =    1.300   1.300   1.300
                                                       1.300   1.300

     vdW kernel table read from file vdW_kernel_table
     MD5 check sum: 095c7af220d748ca6e76c0b4c6cfb241

     atomic species   valence    mass     pseudopotential
        Mo1           14.00    95.95000     Mo( 1.00)
        S1             6.00    32.06000     S ( 1.00)

     No symmetry found

   Cartesian axes

     site n.     atom                  positions (alat units)
         1           Mo1 tau(   1) = (   1.4069153   0.8122829  10.0000000  )
         2           Mo1 tau(   2) = (   4.2207459   0.8122829  10.0000000  )
         3           Mo1 tau(   3) = (   2.8138306   3.2491317  10.0000000  )
         4           Mo1 tau(   4) = (   5.6276612   3.2491317  10.0000000  )
         5           Mo1 tau(   5) = (   5.6276612   1.6245658  12.2974831  )
         6           Mo1 tau(   6) = (   2.8138306   1.6245658  12.2974831  )
         7           Mo1 tau(   7) = (   7.0345765   4.0614146  12.2974831  )
         8           Mo1 tau(   8) = (   4.2207459   4.0614146  12.2974831  )
         9           Mo1 tau(   9) = (   0.0000000   0.0000000  14.5949661  )
        10           Mo1 tau(  10) = (   2.8138306   0.0000000  14.5949661  )
        11           Mo1 tau(  11) = (   1.4069153   2.4368488  14.5949661  )
        12           Mo1 tau(  12) = (   4.2207459   2.4368488  14.5949661  )
        13           S1  tau(  13) = (   0.0000000   0.0000000  17.1849661  )

     number of k points=    20  Fermi-Dirac smearing, width (Ry)=  0.0110
                       cart. coord. in units 2pi/alat
        k(    1) = (   0.0000000   0.0000000   0.0000000), wk =   0.0555556
        k(    2) = (   0.0000000   0.0341972   0.0000000), wk =   0.1111111
        k(    3) = (   0.0000000   0.0683943   0.0000000), wk =   0.1111111
        k(    4) = (   0.0000000  -0.1025915   0.0000000), wk =   0.0555556
        k(    5) = (   0.0296156  -0.0170986   0.0000000), wk =   0.1111111
        k(    6) = (   0.0296156   0.0170986   0.0000000), wk =   0.1111111
        k(    7) = (   0.0296156   0.0512958   0.0000000), wk =   0.1111111
        k(    8) = (   0.0296156  -0.1196901   0.0000000), wk =   0.1111111
        k(    9) = (   0.0296156  -0.0854929   0.0000000), wk =   0.1111111
        k(   10) = (   0.0296156  -0.0512958   0.0000000), wk =   0.1111111
        k(   11) = (   0.0592312  -0.0341972   0.0000000), wk =   0.1111111
        k(   12) = (   0.0592312   0.0000000   0.0000000), wk =   0.1111111
        k(   13) = (   0.0592312   0.0341972   0.0000000), wk =   0.1111111
        k(   14) = (   0.0592312  -0.1367887   0.0000000), wk =   0.1111111
        k(   15) = (   0.0592312  -0.1025915   0.0000000), wk =   0.1111111
        k(   16) = (   0.0592312  -0.0683943   0.0000000), wk =   0.1111111
        k(   17) = (  -0.0888469   0.0512958   0.0000000), wk =   0.0555556
        k(   18) = (  -0.0888469   0.0854929   0.0000000), wk =   0.1111111
        k(   19) = (  -0.0888469   0.1196901   0.0000000), wk =   0.1111111
        k(   20) = (  -0.0888469  -0.0512958   0.0000000), wk =   0.0555556

     Largest allocated arrays     est. size (Mb)     dimensions
     Largest temporary arrays     est. size (Mb)     dimensions

     Initial potential from superposition of free atoms
     Check: negative starting charge=   -0.004464

     starting charge  173.98720, renormalised to  174.00000

     negative rho (up, down):  4.464E-03 0.000E+00

     *
     * You are using vdW-DF for exchange-correlation in this calculation.
     * Please cite the following three references that made this development
     * possible:
     *
     *   M. Dion, H. Rydberg, E. Schroder, D. C. Langreth, and
     *   B. I. Lundqvist, Phys. Rev. Lett. 92, 246401 (2004).
     *
     *   T. Thonhauser, V. R. Cooper, S. Li, A. Puzder, P. Hyldgaard, and
     *   D. C. Langreth, Phys. Rev. B 76, 125112 (2007).
     *
     *   G. Roman-Perez and J. M. Soler, Phys. Rev. Lett. 103, 096102 (2009).
     *
     *
     * If you are using vdW-DF2, please also cite:
     *
     *   K. Lee, E. D. Murray, L. Kong, B. I. Lundqvist, and
     *   D. C. Langreth, Phys. Rev. B 82, 081101(R) (2010).
     *
     *
     * If you are calculating the stress with vdW-DF, please also cite:
     *
     *   R. Sabatini, E. Kucukbenli, B. Kolb, T. Thonhauser, and
     *   S. de Gironcoli, J. Phys.: Condens. Matter 24, 424209 (2012).
     *

     Carrying out vdW-DF run using the following parameters:

     Nqs =      20    Nr_points =    1024   r_max =   100.000
     q_mesh =
               0.00001000     0.04494208     0.09755937     0.15916263
               0.23128650     0.31572767     0.41458969     0.53033537
               0.66584808     0.82450364     1.01025438     1.22772762
               1.48234092     1.78043706     2.12944203     2.53805004
               3.01644009     3.57652955     4.23227104     5.00000000

     Gradients computed in reciprocal space

     Adding external electric field

     Computed dipole along edir(3) :
        Dipole               -0.0037 Ry au,         -0.0095 Debye
        Dipole field         -0.0000 Ry au

        Potential amp.        0.0009 Ry
        Total length         45.3158 bohr

     Starting wfc are  160 randomized atomic wfcs

     Self-consistent Calculation

     iteration #  1     ecut=    36.75 Ry     beta=0.30
     Davidson diagonalization with overlap
     ethr =  1.00E-02,  avg # of iterations =  2.0

[...]

     total energy              =   -1697.60802586 Ry
     Harris-Foulkes estimate   =   -1704.32764991 Ry
     estimated scf accuracy    <      13.80382412 Ry

[...]

     End of self-consistent calculation

          k = 0.0000 0.0000 0.0000 ( 17111 PWs)   bands (ev):

   -58.9960 -58.8879 -58.8404 -58.7803 -58.7802 -58.7726 -58.7146 -58.6947
   -58.6944 -58.6744 -58.6532 -58.6528 -33.4973 -33.4972 -33.4706 -33.4133
   -33.4133 -33.4091 -33.3941 -33.3092 -33.3091 -33.2978 -33.0034 -32.9025
   -32.8573 -32.8571 -32.7819 -32.7720 -32.7718 -32.6823 -32.6822 -32.6678
   -32.5646 -32.5646 -32.5630 -32.5552 -32.5278 -32.5275 -32.4561 -32.4415
   -32.4415 -32.4317 -32.3978 -32.3977 -32.3178 -32.3178 -32.2375 -32.2375
    -9.0609  -3.8683  -2.5580  -2.4035  -2.4034  -2.3820  -2.3616  -1.9685
    -1.9427  -1.9427  -1.7461  -1.7461  -1.7429  -1.5054  -1.5053  -1.4961
    -0.4531  -0.4530  -0.3024  -0.0874   0.5819   0.5819   0.7130   0.9612
     1.2112   1.3100   1.3100   1.3893   1.3893   1.6415   1.6416   1.7734
     1.7767   1.7768   1.8332   1.8332   2.0689   2.0818   2.0819   2.7358
     3.1656   3.3187   3.3188   3.3539   3.4311   3.4312   3.7438   3.9100
     3.9100

[...]

          k =-0.0888 0.0513 0.0000 ( 17160 PWs)   bands (ev):

[...]

     the Fermi energy is     2.0992 ev

!    total energy              =   -1703.67227307 Ry
     Harris-Foulkes estimate   =   -1703.67229090 Ry
     estimated scf accuracy    <       0.00000243 Ry

     The total energy is the sum of the following terms:

     one-electron contribution =  -15365.31331367 Ry
     hartree contribution      =    7678.43224346 Ry
     xc contribution           =    -248.72162976 Ry
     ewald contribution        =    6232.03537672 Ry
     electric field correction =       0.00041103 Ry
     smearing contrib. (-TS)   =      -0.10536085 Ry

     convergence has been achieved in  24 iterations

 BEEF-vdW xc energy contributions
           1 :   -213.471492906861
           2 :    194.639299733879
           3 :   -162.481384328013
           4 :    125.568503770842
           5 :   -92.3540502465482
           6 :    68.5455739050410
           7 :   -55.8534607532951
           8 :    52.2925545142896
           9 :   -53.7007303611545
          10 :    55.6939636980566
          11 :   -55.2765526294808
          12 :    51.5668661652338
          13 :   -45.5552167923531
          14 :    39.1736086524552
          15 :   -34.1872237462316
          16 :    31.3811209425182
          17 :   -30.3445183651014
[...]

[...]

   This run was terminated on:  23: 9:48  19Jan2018

[...]

     Program PWSCF v.5.1rc2 (svn rev. 11289) starts on 19Jan2018 at 23: 9:53

[...]

     Total force =     0.149682     Total SCF correction =     0.004397

[...]

     Program PWSCF v.5.1rc2 (svn rev. 11289) starts on 19Jan2018 at 23:22: 0

[...]

     Program PWSCF v.5.1rc2 (svn rev. 11289) starts on 20Jan2018 at  0: 6:30

[...]

   This run was terminated on:   0:47:48  20Jan2018

[...]

     Program PWSCF v.5.1rc2 (svn rev. 11289) starts on 20Jan2018 at  0:47:53

     Current dimensions of program PWSCF are:
     Max number of different atomic species (ntypx) = 10
     Max number of k-points (npk) =  40000
     Max angular momentum in pseudopotentials (lmaxx) =  3
     Presently stress not available with electric field

     IMPORTANT: XC functional enforced from input :
     Exchange-correlation      = BEEF-VDW ( 1  4 27 13 2)
     Any further DFT definition will be discarded
     Please, verify this is what you really want

     Subspace diagonalization in iterative solution of the eigenvalue problem:
     a serial algorithm will be used

     bravais-lattice index     =            0
     lattice parameter (alat)  =       1.8897  a.u.
     unit-cell volume          =    4552.2840 (a.u.)^3
     number of atoms/cell      =           13
     number of atomic types    =            2
     number of electrons       =       174.00
     number of Kohn-Sham states=           97
     kinetic-energy cutoff     =      36.7493  Ry
     charge density cutoff     =     367.4932  Ry
     convergence threshold     =      1.0E-05
     mixing beta               =       0.3000
     number of iterations used =           10  plain     mixing
     Exchange-correlation      = BEEF-VDW ( 1  4 27 13 2)
     nstep                     =           50

     celldm(1)=   1.889726  celldm(2)=   0.000000  celldm(3)=   0.000000
     celldm(4)=   0.000000  celldm(5)=   0.000000  celldm(6)=   0.000000

     crystal axes: (cart. coord. in units of alat)
               a(1) = (   5.627661   0.000000   0.000000 )
               a(2) = (   2.813831   4.873698   0.000000 )
               a(3) = (   0.000000   0.000000  24.594966 )

     reciprocal axes: (cart. coord. in units 2 pi/alat)
               b(1) = (  0.177694 -0.102592  0.000000 )
               b(2) = (  0.000000  0.205183  0.000000 )
               b(3) = (  0.000000  0.000000  0.040659 )

     PseudoPot. # 1 for Mo read from file:
     /afs/slac.stanford.edu/u/if/mamunm/psp/gbrv1.5pbe/Mo.UPF
     MD5 check sum: 30c4dcd161f5d35cd49bb5239c51a633
     Pseudo is Ultrasoft + core correction, Zval = 14.0
     Generated by new atomic code, or converted to UPF format
     Using radial grid of  889 points,  6 beta functions with:
                l(1) =   0
                l(2) =   0
                l(3) =   1
                l(4) =   1
                l(5) =   2
                l(6) =   2
     Q(r) pseudized with  6 coefficients,  rinner =    1.000   1.000   1.000
                                                       1.000   1.000

     PseudoPot. # 2 for S  read from file:
     /afs/slac.stanford.edu/u/if/mamunm/psp/gbrv1.5pbe/S.UPF
     MD5 check sum: 88d86576ff6df21479756cfb9bdac1df
     Pseudo is Ultrasoft + core correction, Zval =  6.0
     Generated by new atomic code, or converted to UPF format
     Using radial grid of  907 points,  6 beta functions with:
                l(1) =   0
                l(2) =   0
                l(3) =   1
                l(4) =   1
                l(5) =   2
                l(6) =   2
     Q(r) pseudized with  8 coefficients,  rinner =    1.300   1.300   1.300
                                                       1.300   1.300

     vdW kernel table read from file vdW_kernel_table
     MD5 check sum: 095c7af220d748ca6e76c0b4c6cfb241

     atomic species   valence    mass     pseudopotential
        Mo1           14.00    95.95000     Mo( 1.00)
        S1             6.00    32.06000     S ( 1.00)

     No symmetry found

   Cartesian axes

     site n.     atom                  positions (alat units)
         1           Mo1 tau(   1) = (   1.4069153   0.8122829  10.0000000  )
         2           Mo1 tau(   2) = (   4.2207459   0.8122829  10.0000000  )
         3           Mo1 tau(   3) = (   2.8138306   3.2491317  10.0000000  )
         4           Mo1 tau(   4) = (   5.6276612   3.2491317  10.0000000  )
         5           Mo1 tau(   5) = (   5.6276612   1.6245658  12.2974831  )
         6           Mo1 tau(   6) = (   2.8138306   1.6245658  12.2974831  )
         7           Mo1 tau(   7) = (   7.0345765   4.0614146  12.2974831  )
         8           Mo1 tau(   8) = (   4.2207459   4.0614146  12.2974831  )
         9           Mo1 tau(   9) = (   5.6276126   0.0000079  14.9706551  )
        10           Mo1 tau(  10) = (   5.6276801   4.8569611  14.4684188  )
        11           Mo1 tau(  11) = (   7.0201674   2.4451662  14.4683696  )
        12           Mo1 tau(  12) = (   4.2351516   2.4451516  14.4683143  )
        13           S1  tau(  13) = (   5.6276573   0.0000504  17.1128428  )

     number of k points=    20  Fermi-Dirac smearing, width (Ry)=  0.0110
                       cart. coord. in units 2pi/alat
        k(    1) = (   0.0000000   0.0000000   0.0000000), wk =   0.0555556
        k(    2) = (   0.0000000   0.0341972   0.0000000), wk =   0.1111111
        k(    3) = (   0.0000000   0.0683943   0.0000000), wk =   0.1111111
        k(    4) = (   0.0000000  -0.1025915   0.0000000), wk =   0.0555556
        k(    5) = (   0.0296156  -0.0170986   0.0000000), wk =   0.1111111
        k(    6) = (   0.0296156   0.0170986   0.0000000), wk =   0.1111111
        k(    7) = (   0.0296156   0.0512958   0.0000000), wk =   0.1111111
        k(    8) = (   0.0296156  -0.1196901   0.0000000), wk =   0.1111111
        k(    9) = (   0.0296156  -0.0854929   0.0000000), wk =   0.1111111
        k(   10) = (   0.0296156  -0.0512958   0.0000000), wk =   0.1111111
        k(   11) = (   0.0592312  -0.0341972   0.0000000), wk =   0.1111111
        k(   12) = (   0.0592312   0.0000000   0.0000000), wk =   0.1111111
        k(   13) = (   0.0592312   0.0341972   0.0000000), wk =   0.1111111
        k(   14) = (   0.0592312  -0.1367887   0.0000000), wk =   0.1111111
        k(   15) = (   0.0592312  -0.1025915   0.0000000), wk =   0.1111111
        k(   16) = (   0.0592312  -0.0683943   0.0000000), wk =   0.1111111
        k(   17) = (  -0.0888469   0.0512958   0.0000000), wk =   0.0555556
        k(   18) = (  -0.0888469   0.0854929   0.0000000), wk =   0.1111111
        k(   19) = (  -0.0888469   0.1196901   0.0000000), wk =   0.1111111
        k(   20) = (  -0.0888469  -0.0512958   0.0000000), wk =   0.0555556

     Largest allocated arrays     est. size (Mb)     dimensions
     Largest temporary arrays     est. size (Mb)     dimensions

     Initial potential from superposition of free atoms
     Check: negative starting charge=   -0.004355

     starting charge  173.98720, renormalised to  174.00000

[...]

     *
     * You are using vdW-DF for exchange-correlation in this calculation.
     * Please cite the following three references that made this development
     * possible:
     *
     *   M. Dion, H. Rydberg, E. Schroder, D. C. Langreth, and
     *   B. I. Lundqvist, Phys. Rev. Lett. 92, 246401 (2004).
     *
     *   T. Thonhauser, V. R. Cooper, S. Li, A. Puzder, P. Hyldgaard, and
     *   D. C. Langreth, Phys. Rev. B 76, 125112 (2007).
     *
     *   G. Roman-Perez and J. M. Soler, Phys. Rev. Lett. 103, 096102 (2009).
     *
     *
     * If you are using vdW-DF2, please also cite:
     *
     *   K. Lee, E. D. Murray, L. Kong, B. I. Lundqvist, and
     *   D. C. Langreth, Phys. Rev. B 82, 081101(R) (2010).
     *
     *
     * If you are calculating the stress with vdW-DF, please also cite:
     *
     *   R. Sabatini, E. Kucukbenli, B. Kolb, T. Thonhauser, and
     *   S. de Gironcoli, J. Phys.: Condens. Matter 24, 424209 (2012).
     *

     Carrying out vdW-DF run using the following parameters:

     Nqs =      20    Nr_points =    1024   r_max =   100.000
     q_mesh =
               0.00001000     0.04494208     0.09755937     0.15916263
               0.23128650     0.31572767     0.41458969     0.53033537
               0.66584808     0.82450364     1.01025438     1.22772762
               1.48234092     1.78043706     2.12944203     2.53805004
               3.01644009     3.57652955     4.23227104     5.00000000

     Gradients computed in reciprocal space

[...]

     Starting wfc are  160 randomized atomic wfcs

     Self-consistent Calculation

[...]

     total energy              =   -1703.75625901 Ry
     Harris-Foulkes estimate   =   -1703.75626089 Ry
     estimated scf accuracy    <       0.00001233 Ry

     iteration # 17     ecut=    36.75 Ry     beta=0.30
     Davidson diagonalization with overlap
     ethr =  7.09E-09,  avg # of iterations =  1.8

[...]

     negative rho (up, down):  4.325E-03 0.000E+00

     Adding external electric field

     Computed dipole along edir(3) :
        Dipole               -0.2536 Ry au,         -0.6445 Debye
        Dipole field         -0.0007 Ry au

        Potential amp.        0.0634 Ry
        Total length         45.3158 bohr

     End of self-consistent calculation

[...]

          k = 0.0592-0.0684 0.0000 ( 17122 PWs)   bands (ev):

[...]

          k =-0.0888-0.0513 0.0000 ( 17160 PWs)   bands (ev):

   -58.6976 -58.6591 -58.6413 -58.5927 -58.5677 -58.5429 -58.5400 -58.5114
   -58.5039 -58.4959 -58.4667 -58.4605 -33.1352 -33.1130 -33.1106 -33.0952
   -33.0599 -33.0387 -32.9433 -32.9065 -32.9035 -32.8965 -32.8571 -32.8392
   -32.7274 -32.6718 -32.6251 -32.6137 -32.6063 -32.5744 -32.5693 -32.5557
   -32.5258 -32.5161 -32.4861 -32.4377 -32.4230 -32.4078 -32.3476 -32.3335
   -32.2940 -32.2691 -32.2272 -32.2168 -32.2075 -32.1713 -32.1624 -32.1094
    -9.5557  -2.1115  -2.0671  -1.4209  -1.3795  -1.1687  -1.1346  -1.0550
    -1.0008  -0.9303  -0.7779  -0.6167  -0.5721  -0.5365  -0.3392  -0.3086
    -0.1819  -0.1467  -0.1058   0.1220   0.3008   0.3852   0.4963   0.5117
     0.6241   0.7691   0.9358   1.1768   1.1830   1.2611   1.4499   1.4603
     1.5291   1.5758   1.5814   1.6906   1.7827   1.8517   1.8932   2.0586
     2.1892   2.2637   2.7856   2.9540   3.0714   3.1430   3.2538   3.3673
     3.3786

     the Fermi energy is     2.2788 ev

!    total energy              =   -1703.75625914 Ry
     Harris-Foulkes estimate   =   -1703.75625310 Ry
     estimated scf accuracy    <       0.00000089 Ry

     The total energy is the sum of the following terms:

     one-electron contribution =  -15383.22032813 Ry
     hartree contribution      =    7688.29939701 Ry
     xc contribution           =    -248.94989683 Ry
     ewald contribution        =    6240.20667822 Ry
     electric field correction =       0.00017750 Ry
     smearing contrib. (-TS)   =      -0.09228690 Ry

     convergence has been achieved in  17 iterations

 BEEF-vdW xc energy contributions
           1 :   -213.700230282140
           2 :    194.917669005157
           3 :   -162.824673864392
           4 :    125.934515774157
           5 :   -92.6593481481040
           6 :    68.7135518007075
           7 :   -55.8542958081392
           8 :    52.1525401245027
           9 :   -53.4829801050721
          10 :    55.4686287098310
          11 :   -55.0970220485486
          12 :    51.4554661575574
          13 :   -45.4975812615558
          14 :    39.1227896049439
          15 :   -34.0777427782059
          16 :    31.1531981229984
          17 :   -29.9719493548774
          18 :    29.3609697844556
          19 :   -28.0516186368925
          20 :    25.3247330838246
          21 :   -21.3028692829893
          22 :    16.7919137958119
          23 :   -12.8103651067029
          24 :    10.0669740873341
          25 :   -8.64650067823447
          26 :    8.02787337701463
          27 :   -7.39348108211806
          28 :    6.04819670442436
          29 :   -3.73921852430689
          30 :   0.735078171363170
          31 :   -24.4423382939116
          32 :   -18.6686785442853

     Forces acting on atoms (Ry/au):

     negative rho (up, down):  4.325E-03 0.000E+00
     atom    1 type  1   force =     0.00163205    0.00093901   -0.00001301
     atom    2 type  1   force =    -0.00162990    0.00093282   -0.00001026
     atom    3 type  1   force =    -0.00000258   -0.00187969   -0.00001816
     atom    4 type  1   force =     0.00000432    0.00000786   -0.00997087
     atom    5 type  1   force =     0.00000789   -0.02425757    0.00928354
     atom    6 type  1   force =    -0.00001112   -0.00000395   -0.01818057
     atom    7 type  1   force =     0.02100770    0.01212947    0.00930697
     atom    8 type  1   force =    -0.02100977    0.01214156    0.00929138
     atom    9 type  1   force =     0.00001426   -0.00000547    0.00041730
     atom   10 type  1   force =    -0.00001126   -0.00029956    0.00010107
     atom   11 type  1   force =    -0.00026269    0.00013988    0.00011375
     atom   12 type  1   force =     0.00026243    0.00015449    0.00012338
     atom   13 type  2   force =    -0.00000134    0.00000116   -0.00044452

     Total force =     0.049660     Total SCF correction =     0.005359
     SCF correction compared to forces is large: reduce conv_thr to get better values

     entering subroutine stress ...

     negative rho (up, down):  4.325E-03 0.000E+00
          total   stress  (Ry/bohr**3)                   (kbar)     P=  -13.57
  -0.00014085   0.00000000   0.00000000        -20.72      0.00      0.00
   0.00000000  -0.00014085  -0.00000001          0.00    -20.72     -0.00
   0.00000000  -0.00000001   0.00000494          0.00     -0.00      0.73

 !ASE

     Writing output data file calc.save

     General routines

     Parallel routines

   This run was terminated on:   1: 1:50  20Jan2018

   JOB DONE.
Job  /afs/slac/g/suncat/bin/suncat-tsmpirun -x LD_LIBRARY_PATH -wdir /scratch/qe891410_DMYOm pw.x -in pw.inp

TID   HOST_NAME   COMMAND_LINE            STATUS            TERMINATION_TIME
00000 suncat1009 pw.x -in pw.inp   Done                     01/20/2018 01:01:50
00001 suncat1009 pw.x -in pw.inp   Done                     01/20/2018 01:01:50
00002 suncat1009 pw.x -in pw.inp   Done                     01/20/2018 01:01:50
00003 suncat1009 pw.x -in pw.inp   Done                     01/20/2018 01:01:50
00004 suncat1009 pw.x -in pw.inp   Done                     01/20/2018 01:01:50
00005 suncat1009 pw.x -in pw.inp   Done                     01/20/2018 01:01:50
00006 suncat1009 pw.x -in pw.inp   Done                     01/20/2018 01:01:50
00007 suncat1009 pw.x -in pw.inp   Done                     01/20/2018 01:01:50
00008 suncat1059 pw.x -in pw.inp   Done                     01/20/2018 01:01:50
00009 suncat1059 pw.x -in pw.inp   Done                     01/20/2018 01:01:50
00010 suncat1059 pw.x -in pw.inp   Done                     01/20/2018 01:01:50
00011 suncat1059 pw.x -in pw.inp   Done                     01/20/2018 01:01:50
00012 suncat1059 pw.x -in pw.inp   Done                     01/20/2018 01:01:50
00013 suncat1059 pw.x -in pw.inp   Done                     01/20/2018 01:01:50
00014 suncat1059 pw.x -in pw.inp   Done                     01/20/2018 01:01:50
00015 suncat1059 pw.x -in pw.inp   Done                     01/20/2018 01:01:50
00016 suncat1059 pw.x -in pw.inp   Done                     01/20/2018 01:01:50
00017 suncat1059 pw.x -in pw.inp   Done                     01/20/2018 01:01:50
00018 suncat1059 pw.x -in pw.inp   Done                     01/20/2018 01:01:50
00019 suncat1059 pw.x -in pw.inp   Done                     01/20/2018 01:01:50
00020 suncat1056 pw.x -in pw.inp   Done                     01/20/2018 01:01:50
00021 suncat1056 pw.x -in pw.inp   Done                     01/20/2018 01:01:50
00022 suncat1056 pw.x -in pw.inp   Done                     01/20/2018 01:01:50
00023 suncat1056 pw.x -in pw.inp   Done                     01/20/2018 01:01:50
00024 suncat1056 pw.x -in pw.inp   Done                     01/20/2018 01:01:50
00025 suncat1056 pw.x -in pw.inp   Done                     01/20/2018 01:01:50
00026 suncat1056 pw.x -in pw.inp   Done                     01/20/2018 01:01:50
00027 suncat1056 pw.x -in pw.inp   Done                     01/20/2018 01:01:50
00028 suncat1056 pw.x -in pw.inp   Done                     01/20/2018 01:01:50
00029 suncat1056 pw.x -in pw.inp   Done                     01/20/2018 01:01:50
00030 suncat1056 pw.x -in pw.inp   Done                     01/20/2018 01:01:50
00031 suncat1056 pw.x -in pw.inp   Done                     01/20/2018 01:01:50