     Program PWSCF v.5.1rc2 (svn rev. 11289) starts on 24Apr2018 at 17:11:46

     Current dimensions of program PWSCF are:
     Max number of different atomic species (ntypx) = 10
     Max number of k-points (npk) =  40000
     Max angular momentum in pseudopotentials (lmaxx) =  3
     Presently stress not available with electric field

     IMPORTANT: XC functional enforced from input :
     Exchange-correlation      = BEEF-VDW ( 1  4 27 13 2)
     Any further DFT definition will be discarded
     Please, verify this is what you really want

     Subspace diagonalization in iterative solution of the eigenvalue problem:
     a serial algorithm will be used

     bravais-lattice index     =            0
     lattice parameter (alat)  =       1.8897  a.u.
     unit-cell volume          =    4704.3541 (a.u.)^3
     number of atoms/cell      =           14
     number of atomic types    =            3
     number of electrons       =       175.00
     number of Kohn-Sham states=           97
     kinetic-energy cutoff     =      36.7493  Ry
     charge density cutoff     =     367.4932  Ry
     convergence threshold     =      1.0E-05
     mixing beta               =       0.3000
     number of iterations used =           10  plain     mixing
     Exchange-correlation      = BEEF-VDW ( 1  4 27 13 2)
     nstep                     =           50

     celldm(1)=   1.889726  celldm(2)=   0.000000  celldm(3)=   0.000000
     celldm(4)=   0.000000  celldm(5)=   0.000000  celldm(6)=   0.000000

     crystal axes: (cart. coord. in units of alat)
               a(1) = (   5.712816   0.000000   0.000000 )
               a(2) = (   2.856408   4.947444   0.000000 )
               a(3) = (   0.000000   0.000000  24.664495 )

     reciprocal axes: (cart. coord. in units 2 pi/alat)
               b(1) = (  0.175045 -0.101062  0.000000 )
               b(2) = (  0.000000  0.202125  0.000000 )
               b(3) = (  0.000000  0.000000  0.040544 )

     PseudoPot. # 1 for W  read from file:
     /u/if/mamunm/psp/gbrv1.5pbe/W.UPF
     MD5 check sum: 9c083fa34c2a2ea0f02f1f893e16e1c8
     Pseudo is Ultrasoft + core correction, Zval = 14.0
     Generated by new atomic code, or converted to UPF format
     Using radial grid of  923 points,  8 beta functions with:
                l(1) =   0
                l(2) =   0
                l(3) =   0
                l(4) =   1
                l(5) =   1
                l(6) =   2
                l(7) =   2
                l(8) =   3
     Q(r) pseudized with  6 coefficients,  rinner =    1.350   1.350   1.350
                                                       1.350   1.350   1.350
                                                       1.350

     PseudoPot. # 2 for S  read from file:
     /u/if/mamunm/psp/gbrv1.5pbe/S.UPF
     MD5 check sum: 88d86576ff6df21479756cfb9bdac1df
     Pseudo is Ultrasoft + core correction, Zval =  6.0
     Generated by new atomic code, or converted to UPF format
     Using radial grid of  907 points,  6 beta functions with:
                l(1) =   0
                l(2) =   0
                l(3) =   1
                l(4) =   1
                l(5) =   2
                l(6) =   2
     Q(r) pseudized with  8 coefficients,  rinner =    1.300   1.300   1.300
                                                       1.300   1.300

     PseudoPot. # 3 for H  read from file:
     /u/if/mamunm/psp/gbrv1.5pbe/H.UPF
     MD5 check sum: 761ae9a214b05c3daf00ab9f6b793d6f
     Pseudo is Ultrasoft, Zval =  1.0
     Generated by new atomic code, or converted to UPF format
     Using radial grid of  615 points,  2 beta functions with:
                l(1) =   0
                l(2) =   0
     Q(r) pseudized with  8 coefficients,  rinner =    0.700

     vdW kernel table read from file vdW_kernel_table
     MD5 check sum: 095c7af220d748ca6e76c0b4c6cfb241

     atomic species   valence    mass     pseudopotential
        W1            14.00   183.84000     W ( 1.00)
        S1             6.00    32.06000     S ( 1.00)
        H1             1.00     1.00800     H ( 1.00)

     No symmetry found

   Cartesian axes

     site n.     atom                  positions (alat units)
         1           W1  tau(   1) = (   1.4282041   0.8245740  10.0000000  )
         2           W1  tau(   2) = (   4.2846123   0.8245740  10.0000000  )
         3           W1  tau(   3) = (   2.8564082   3.2982961  10.0000000  )
         4           W1  tau(   4) = (   5.7128165   3.2982961  10.0000000  )
         5           W1  tau(   5) = (   5.7128165   1.6491481  12.3322476  )
         6           W1  tau(   6) = (   2.8564082   1.6491481  12.3322476  )
         7           W1  tau(   7) = (   7.1410206   4.1228701  12.3322476  )
         8           W1  tau(   8) = (   4.2846123   4.1228701  12.3322476  )
         9           W1  tau(   9) = (   0.0000000   0.0000000  14.6644951  )
        10           W1  tau(  10) = (   2.8564082   0.0000000  14.6644951  )
        11           W1  tau(  11) = (   1.4282041   2.4737221  14.6644951  )
        12           W1  tau(  12) = (   4.2846123   2.4737221  14.6644951  )
        13           S1  tau(  13) = (   0.0000000   0.0000000  16.9339951  )
        14           H1  tau(  14) = (   0.0000000   0.0000000  18.1839951  )

     number of k points=    20  Fermi-Dirac smearing, width (Ry)=  0.0110
                       cart. coord. in units 2pi/alat
        k(    1) = (   0.0000000   0.0000000   0.0000000), wk =   0.0555556
        k(    2) = (   0.0000000   0.0336874   0.0000000), wk =   0.1111111
        k(    3) = (   0.0000000   0.0673749   0.0000000), wk =   0.1111111
        k(    4) = (   0.0000000  -0.1010623   0.0000000), wk =   0.0555556
        k(    5) = (   0.0291742  -0.0168437   0.0000000), wk =   0.1111111
        k(    6) = (   0.0291742   0.0168437   0.0000000), wk =   0.1111111
        k(    7) = (   0.0291742   0.0505311   0.0000000), wk =   0.1111111
        k(    8) = (   0.0291742  -0.1179060   0.0000000), wk =   0.1111111
        k(    9) = (   0.0291742  -0.0842186   0.0000000), wk =   0.1111111
        k(   10) = (   0.0291742  -0.0505311   0.0000000), wk =   0.1111111
        k(   11) = (   0.0583483  -0.0336874   0.0000000), wk =   0.1111111
        k(   12) = (   0.0583483  -0.0000000   0.0000000), wk =   0.1111111
        k(   13) = (   0.0583483   0.0336874   0.0000000), wk =   0.1111111
        k(   14) = (   0.0583483  -0.1347497   0.0000000), wk =   0.1111111
        k(   15) = (   0.0583483  -0.1010623   0.0000000), wk =   0.1111111
        k(   16) = (   0.0583483  -0.0673749   0.0000000), wk =   0.1111111
        k(   17) = (  -0.0875225   0.0505311   0.0000000), wk =   0.0555556
        k(   18) = (  -0.0875225   0.0842186   0.0000000), wk =   0.1111111
        k(   19) = (  -0.0875225   0.1179060   0.0000000), wk =   0.1111111
        k(   20) = (  -0.0875225  -0.0505311   0.0000000), wk =   0.0555556

     Largest allocated arrays     est. size (Mb)     dimensions
     Largest temporary arrays     est. size (Mb)     dimensions

     Initial potential from superposition of free atoms
     Check: negative starting charge=   -0.760276

     starting charge  173.79588, renormalised to  175.00000

     negative rho (up, down):  7.655E-01 0.000E+00

     *
     * You are using vdW-DF for exchange-correlation in this calculation.
     * Please cite the following three references that made this development
     * possible:
     *
     *   M. Dion, H. Rydberg, E. Schroder, D. C. Langreth, and
     *   B. I. Lundqvist, Phys. Rev. Lett. 92, 246401 (2004).
     *
     *   T. Thonhauser, V. R. Cooper, S. Li, A. Puzder, P. Hyldgaard, and
     *   D. C. Langreth, Phys. Rev. B 76, 125112 (2007).
     *
     *   G. Roman-Perez and J. M. Soler, Phys. Rev. Lett. 103, 096102 (2009).
     *
     *
     * If you are using vdW-DF2, please also cite:
     *
     *   K. Lee, E. D. Murray, L. Kong, B. I. Lundqvist, and
     *   D. C. Langreth, Phys. Rev. B 82, 081101(R) (2010).
     *
     *
     * If you are calculating the stress with vdW-DF, please also cite:
     *
     *   R. Sabatini, E. Kucukbenli, B. Kolb, T. Thonhauser, and
     *   S. de Gironcoli, J. Phys.: Condens. Matter 24, 424209 (2012).
     *

     Carrying out vdW-DF run using the following parameters:

     Nqs =      20    Nr_points =    1024   r_max =   100.000
     q_mesh =
               0.00001000     0.04494208     0.09755937     0.15916263
               0.23128650     0.31572767     0.41458969     0.53033537
               0.66584808     0.82450364     1.01025438     1.22772762
               1.48234092     1.78043706     2.12944203     2.53805004
               3.01644009     3.57652955     4.23227104     5.00000000

     Gradients computed in reciprocal space

     Adding external electric field

     Computed dipole along edir(3) :
        Dipole               -0.4377 Ry au,         -1.1125 Debye
        Dipole field         -0.0012 Ry au

        Potential amp.        0.1063 Ry
        Total length         45.4439 bohr

     Starting wfc are  161 randomized atomic wfcs

     Self-consistent Calculation

     iteration #  1     ecut=    36.75 Ry     beta=0.30
     Davidson diagonalization with overlap
     ethr =  1.00E-02,  avg # of iterations =  2.0

[...]

     total energy              =   -1944.71258511 Ry
     Harris-Foulkes estimate   =   -1950.67867444 Ry
     estimated scf accuracy    <      12.52577701 Ry

[...]

     End of self-consistent calculation

          k = 0.0000 0.0000 0.0000 ( 17753 PWs)   bands (ev):

   -71.1759 -71.0696 -71.0316 -71.0055 -70.9985 -70.9984 -70.9831 -70.9620
   -70.9619 -70.9480 -70.9410 -70.9410 -35.6948 -35.6570 -35.6570 -35.6146
   -35.5808 -35.5808 -35.5496 -35.4550 -35.4549 -35.4401 -35.3654 -35.2249
   -35.1484 -35.1483 -35.0895 -35.0810 -35.0810 -34.9814 -34.9813 -34.9642
   -34.9087 -34.8766 -34.8766 -34.8634 -34.8634 -34.8404 -34.8194 -34.7676
   -34.7676 -34.7585 -34.7342 -34.7342 -34.6616 -34.6616 -34.5870 -34.5870
   -11.3111  -5.2242  -4.3850  -3.1159  -2.4401  -1.9178  -1.9178  -1.8519
    -1.6752  -1.6752  -1.5573  -0.9809  -0.9809  -0.8902  -0.8902  -0.8838
    -0.7868  -0.3124  -0.3124   0.6122   1.0833   1.0833   1.7718   1.8446
     1.9547   1.9547   2.1366   2.4745   2.5636   2.5636   2.6711   2.6711
     2.8940   2.8940   2.9733   2.9733   2.9864   3.1518   3.1518   3.1776
     3.8178   3.9771   4.1647   4.1647   4.7393   4.7393   4.7830   4.9907
     5.1788

[...]

          k =-0.0875 0.0505 0.0000 ( 17668 PWs)   bands (ev):

[...]

     the Fermi energy is     3.1600 ev

!    total energy              =   -1950.33327190 Ry
     Harris-Foulkes estimate   =   -1950.33327246 Ry
     estimated scf accuracy    <       0.00000051 Ry

     The total energy is the sum of the following terms:

     one-electron contribution =  -14889.61362824 Ry
     hartree contribution      =    7434.13313281 Ry
     xc contribution           =    -519.93299573 Ry
     ewald contribution        =    6025.17858046 Ry
     electric field correction =       0.00040116 Ry
     smearing contrib. (-TS)   =      -0.09876236 Ry

     convergence has been achieved in  20 iterations

 BEEF-vdW xc energy contributions
           1 :   -457.177090449968
           2 :    422.590870344768
           3 :   -361.770137709205
           4 :    288.127630027703
           5 :   -215.543021164584
           6 :    154.380914904259
           7 :   -109.314239306646
           8 :    79.4336045114612
           9 :   -60.2245156614960
          10 :    46.3207751232101
          11 :   -33.8064476017522
          12 :    21.2494830534845
          13 :   -9.35874147737411
          14 :  -0.228226565310933
          15 :    6.26193147160086
          16 :   -8.67132902625883
          17 :    8.57033046865291
          18 :   -7.63250304297139
          19 :    7.25383307086071
          20 :   -7.96016463980419
          21 :    9.33461644759507
          22 :   -10.4418752172112
          23 :    10.4695980882691
          24 :   -9.22238784407313
          25 :    7.21858831233294
          26 :   -5.37517971702363
          27 :    4.48685728589459
          28 :   -4.80002753932365
          29 :    5.90886208976400
          30 :   -7.00978197752983
          31 :   -41.6196314847900
          32 :   -31.1099104838884

     Forces acting on atoms (Ry/au):

     negative rho (up, down):  7.919E-01 0.000E+00
     atom    1 type  1   force =     0.00011459    0.00006388   -0.00186585
     atom    2 type  1   force =    -0.00011816    0.00006447   -0.00185396
     atom    3 type  1   force =    -0.00000135   -0.00012462   -0.00187116
     atom    4 type  1   force =     0.00000276    0.00000153   -0.00463395
     atom    5 type  1   force =    -0.00000213    0.00099581    0.00546073
     atom    6 type  1   force =     0.00000358    0.00002039    0.00990563
     atom    7 type  1   force =    -0.00085681   -0.00050504    0.00545364
     atom    8 type  1   force =     0.00085209   -0.00051596    0.00544953
     atom    9 type  1   force =     0.00000006   -0.00001173   -0.00196157
     atom   10 type  1   force =     0.00000162   -0.00136215   -0.02377824
     atom   11 type  1   force =    -0.00116956    0.00068684   -0.02376267
     atom   12 type  1   force =     0.00117166    0.00068459   -0.02375978
     atom   13 type  2   force =     0.00000061    0.00000095   -0.06586328
     atom   14 type  3   force =     0.00000104    0.00000103    0.12308093

     Total force =     0.145571     Total SCF correction =     0.001692

     entering subroutine stress ...

     negative rho (up, down):  7.919E-01 0.000E+00
          total   stress  (Ry/bohr**3)                   (kbar)     P=  -40.59
  -0.00042713   0.00000000   0.00000000        -62.83      0.00      0.00
   0.00000000  -0.00042714  -0.00000001          0.00    -62.83     -0.00
   0.00000000  -0.00000001   0.00002656          0.00     -0.00      3.91

     BFGS Geometry Optimization

     number of scf cycles    =   1
     number of bfgs steps    =   0

     energy   new            =   -1950.3332718965 Ry

     new trust radius        =       0.1230809289 bohr
     new conv_thr            =       0.0000099958 Ry

ATOMIC_POSITIONS (crystal)
W1       0.166666667   0.166666667   0.405441099    0   0   0
W1       0.666666667   0.166666667   0.405441099    0   0   0
W1       0.166666667   0.666666667   0.405441099    0   0   0
W1       0.666666667   0.666666667   0.405441099    0   0   0
W1       0.833333333   0.333333333   0.500000000    0   0   0
W1       0.333333333   0.333333333   0.500000000    0   0   0
W1       0.833333333   0.833333333   0.500000000    0   0   0
W1       0.333333333   0.833333333   0.500000000    0   0   0
W1       0.000000632  -0.000001255   0.594516815
W1       0.500072998  -0.000145696   0.594048739
W1      -0.000145068   0.500073464   0.594049072
W1       0.500071919   0.500073223   0.594049135
S1       0.000000005   0.000000102   0.685160661
H1       0.000000041   0.000000111   0.739894599

     Writing output data file calc.save
     Check: negative starting charge=   -0.760276
     NEW-OLD atomic charge density approx. for the potential
     Check: negative starting charge=   -0.761923

[...]

     energy   old            =   -1950.3332718965 Ry
     energy   new            =   -1950.3414547331 Ry

     CASE: energy  _new < energy  _old

[...]

     WARNING: bfgs curvature condition failed, Theta= 0.980
     new trust radius        =       0.0163120731 bohr
     new conv_thr            =       0.0000001000 Ry

[...]

     Total force =     0.004619     Total SCF correction =     0.000265

[...]

     number of scf cycles    =  15
     number of bfgs steps    =  14

     energy   old            =   -1950.3826214570 Ry
     energy   new            =   -1950.3830216100 Ry

     CASE: energy  _new < energy  _old

     new trust radius        =       0.0399940257 bohr
     new conv_thr            =       0.0000001000 Ry

ATOMIC_POSITIONS (crystal)
W1       0.166666667   0.166666667   0.405441099    0   0   0
W1       0.666666667   0.166666667   0.405441099    0   0   0
W1       0.166666667   0.666666667   0.405441099    0   0   0
W1       0.666666667   0.666666667   0.405441099    0   0   0
W1       0.833333333   0.333333333   0.500000000    0   0   0
W1       0.333333333   0.333333333   0.500000000    0   0   0
W1       0.833333333   0.833333333   0.500000000    0   0   0
W1       0.333333333   0.833333333   0.500000000    0   0   0
W1       0.000002939  -0.000003026   0.609958850
W1       0.502517099  -0.005033322   0.587928730
W1      -0.005027567   0.502514469   0.587927414
W1       0.502519831   0.502513672   0.587927188
S1      -0.000004180   0.000009366   0.702129828
H1       0.000002436  -0.000004505   0.756718311

     Writing output data file calc.save
     Check: negative starting charge=   -0.759456
     NEW-OLD atomic charge density approx. for the potential
     Check: negative starting charge=   -0.760226

[...]

     Self-consistent Calculation

[...]

     total energy              =   -1950.38311049 Ry
     Harris-Foulkes estimate   =   -1950.38311028 Ry
     estimated scf accuracy    <       0.00000019 Ry

     iteration # 11     ecut=    36.75 Ry     beta=0.30
     Davidson diagonalization with overlap
     ethr =  1.06E-10,  avg # of iterations =  3.5

[...]

     negative rho (up, down):  7.923E-01 0.000E+00

     Adding external electric field

     Computed dipole along edir(3) :
        Dipole                0.4303 Ry au,          1.0937 Debye
        Dipole field          0.0011 Ry au

        Potential amp.       -0.1045 Ry
        Total length         45.4439 bohr

     End of self-consistent calculation

[...]

          k = 0.0583-0.0674 0.0000 ( 17692 PWs)   bands (ev):

[...]

          k =-0.0875-0.0505 0.0000 ( 17668 PWs)   bands (ev):

   -71.3521 -70.9829 -70.9665 -70.9441 -70.9333 -70.9277 -70.9268 -70.9088
   -70.8666 -70.8421 -70.8227 -70.8192 -35.7478 -35.4856 -35.4560 -35.4433
   -35.4129 -35.3824 -35.3714 -35.3165 -35.3030 -35.2574 -35.2319 -35.2276
   -35.2257 -35.1411 -35.0329 -35.0073 -35.0073 -34.9987 -34.9860 -34.9797
   -34.9486 -34.9385 -34.9275 -34.8535 -34.8271 -34.8251 -34.8205 -34.7899
   -34.7324 -34.7275 -34.6768 -34.6622 -34.6549 -34.6362 -34.6080 -34.5597
   -10.9438  -4.2876  -3.1081  -2.9383  -1.6141  -1.3764  -0.8800  -0.8347
    -0.8143  -0.6878  -0.6567  -0.5985  -0.2967  -0.1758   0.0923   0.2340
     0.3582   0.4550   0.5570   0.6869   0.8401   0.9795   1.0255   1.1733
     1.2865   1.3337   1.5169   1.8383   1.9158   2.0085   2.0811   2.1277
     2.1312   2.2936   2.3190   2.3883   2.5274   2.7291   2.7747   2.9436
     3.1801   3.3231   3.6553   3.7977   4.0791   4.1968   4.3102   4.3606
     4.4507

     the Fermi energy is     3.1942 ev

!    total energy              =   -1950.38311049 Ry
     Harris-Foulkes estimate   =   -1950.38311012 Ry
     estimated scf accuracy    <       0.00000004 Ry

     The total energy is the sum of the following terms:

     one-electron contribution =  -14803.53901476 Ry
     hartree contribution      =    7391.34387927 Ry
     xc contribution           =    -519.94542859 Ry
     ewald contribution        =    5981.84330648 Ry
     electric field correction =       0.00049463 Ry
     smearing contrib. (-TS)   =      -0.08634752 Ry

     convergence has been achieved in  11 iterations

 BEEF-vdW xc energy contributions
           1 :   -457.189120218028
           2 :    422.574789432382
           3 :   -361.737431655371
           4 :    288.099329881451
           5 :   -215.513870656842
           6 :    154.324708672424
           7 :   -109.207308698146
           8 :    79.2734344928397
           9 :   -60.0345179953486
          10 :    46.1412244714375
          11 :   -33.6765566276406
          12 :    21.1866514173662
          13 :   -9.34216625796478
          14 :  -0.259157881734779
          15 :    6.38617905040246
          16 :   -8.94697616916619
          17 :    8.99703995643910
          18 :   -8.13842928306804
          19 :    7.72004213102798
          20 :   -8.27561569119780
          21 :    9.45429051656572
          22 :   -10.4147867176401
          23 :    10.4172162024958
          24 :   -9.27437405980436
          25 :    7.43955163316286
          26 :   -5.72593552360593
          27 :    4.84593528843368
          28 :   -5.03540421544676
          29 :    5.95831270345218
          30 :   -6.92160464239691
          31 :   -41.6184438337314
          32 :   -31.0989574665480

     Forces acting on atoms (Ry/au):

     negative rho (up, down):  7.923E-01 0.000E+00
     atom    1 type  1   force =    -0.00067149   -0.00038747    0.00530497
     atom    2 type  1   force =     0.00067079   -0.00038722    0.00530488
     atom    3 type  1   force =    -0.00000025    0.00077509    0.00530425
     atom    4 type  1   force =    -0.00000037    0.00000039   -0.00836878
     atom    5 type  1   force =     0.00000007   -0.03458083    0.00954518
     atom    6 type  1   force =    -0.00000140   -0.00000129   -0.03604278
     atom    7 type  1   force =     0.02994695    0.01729243    0.00955210
     atom    8 type  1   force =    -0.02994716    0.01729216    0.00955094
     atom    9 type  1   force =     0.00000001    0.00000023   -0.00006403
     atom   10 type  1   force =     0.00000089    0.00050871   -0.00006538
     atom   11 type  1   force =     0.00044249   -0.00025540   -0.00005832
     atom   12 type  1   force =    -0.00044054   -0.00025809   -0.00005620
     atom   13 type  2   force =    -0.00000007    0.00000611   -0.00042047
     atom   14 type  3   force =     0.00000007   -0.00000484    0.00051365

     Total force =     0.001112     Total SCF correction =     0.000376
     SCF correction compared to forces is large: reduce conv_thr to get better values

     entering subroutine stress ...

     negative rho (up, down):  7.923E-01 0.000E+00
          total   stress  (Ry/bohr**3)                   (kbar)     P=  -39.88
  -0.00036314  -0.00000000   0.00000000        -53.42     -0.00      0.00
  -0.00000000  -0.00036314  -0.00000000         -0.00    -53.42     -0.00
   0.00000000  -0.00000000  -0.00008696          0.00     -0.00    -12.79

     bfgs converged in  16 scf cycles and  15 bfgs steps
     (criteria: energy <  1.0E+00, force <  1.9E-03)

     End of BFGS Geometry Optimization

     Final energy   =   -1950.3831104931 Ry
Begin final coordinates

ATOMIC_POSITIONS (crystal)
W1       0.166666667   0.166666667   0.405441099    0   0   0
W1       0.666666667   0.166666667   0.405441099    0   0   0
W1       0.166666667   0.666666667   0.405441099    0   0   0
W1       0.666666667   0.666666667   0.405441099    0   0   0
W1       0.833333333   0.333333333   0.500000000    0   0   0
W1       0.333333333   0.333333333   0.500000000    0   0   0
W1       0.833333333   0.833333333   0.500000000    0   0   0
W1       0.333333333   0.833333333   0.500000000    0   0   0
W1       0.000002939  -0.000003026   0.609958850
W1       0.502517099  -0.005033322   0.587928730
W1      -0.005027567   0.502514469   0.587927414
W1       0.502519831   0.502513672   0.587927188
S1      -0.000004180   0.000009366   0.702129828
H1       0.000002436  -0.000004505   0.756718311
End final coordinates

     Writing output data file calc.save

     General routines

     Parallel routines

   This run was terminated on:  19:49: 3  24Apr2018

   JOB DONE.
Job  /afs/slac/g/suncat/bin/suncat-tsmpirun -x LD_LIBRARY_PATH -wdir /scratch/qe982129_qFOVs pw.x -npool 4 -in pw.inp

TID   HOST_NAME   COMMAND_LINE            STATUS            TERMINATION_TIME
00000 suncat0123 pw.x -npool 4 -i  Done                     04/24/2018 19:49:03
00001 suncat0123 pw.x -npool 4 -i  Done                     04/24/2018 19:49:03
00002 suncat0123 pw.x -npool 4 -i  Done                     04/24/2018 19:49:03
00003 suncat0123 pw.x -npool 4 -i  Done                     04/24/2018 19:49:03
00004 suncat0123 pw.x -npool 4 -i  Done                     04/24/2018 19:49:03
00005 suncat0123 pw.x -npool 4 -i  Done                     04/24/2018 19:49:03
00006 suncat0123 pw.x -npool 4 -i  Done                     04/24/2018 19:49:03
00007 suncat0123 pw.x -npool 4 -i  Done                     04/24/2018 19:49:03
00008 suncat0109 pw.x -npool 4 -i  Done                     04/24/2018 19:49:03
00009 suncat0109 pw.x -npool 4 -i  Done                     04/24/2018 19:49:03
00010 suncat0109 pw.x -npool 4 -i  Done                     04/24/2018 19:49:03
00011 suncat0109 pw.x -npool 4 -i  Done                     04/24/2018 19:49:03
00012 suncat0109 pw.x -npool 4 -i  Done                     04/24/2018 19:49:03
00013 suncat0109 pw.x -npool 4 -i  Done                     04/24/2018 19:49:03
00014 suncat0109 pw.x -npool 4 -i  Done                     04/24/2018 19:49:03
00015 suncat0109 pw.x -npool 4 -i  Done                     04/24/2018 19:49:03
00016 suncat0264 pw.x -npool 4 -i  Done                     04/24/2018 19:49:03
00017 suncat0264 pw.x -npool 4 -i  Done                     04/24/2018 19:49:03
00018 suncat0264 pw.x -npool 4 -i  Done                     04/24/2018 19:49:03
00019 suncat0264 pw.x -npool 4 -i  Done                     04/24/2018 19:49:03
00020 suncat0264 pw.x -npool 4 -i  Done                     04/24/2018 19:49:03
00021 suncat0264 pw.x -npool 4 -i  Done                     04/24/2018 19:49:03
00022 suncat0264 pw.x -npool 4 -i  Done                     04/24/2018 19:49:03
00023 suncat0264 pw.x -npool 4 -i  Done                     04/24/2018 19:49:03
00024 suncat0262 pw.x -npool 4 -i  Done                     04/24/2018 19:49:03
00025 suncat0262 pw.x -npool 4 -i  Done                     04/24/2018 19:49:03
00026 suncat0262 pw.x -npool 4 -i  Done                     04/24/2018 19:49:03
00027 suncat0262 pw.x -npool 4 -i  Done                     04/24/2018 19:49:03
00028 suncat0262 pw.x -npool 4 -i  Done                     04/24/2018 19:49:03
00029 suncat0262 pw.x -npool 4 -i  Done                     04/24/2018 19:49:03
00030 suncat0262 pw.x -npool 4 -i  Done                     04/24/2018 19:49:03
00031 suncat0262 pw.x -npool 4 -i  Done                     04/24/2018 19:49:03