     Program PWSCF v.5.1rc2 (svn rev. ) starts on 18Apr2018 at  3:46:43

     Current dimensions of program PWSCF are:
     Max number of different atomic species (ntypx) = 10
     Max number of k-points (npk) =  40000
     Max angular momentum in pseudopotentials (lmaxx) =  3
     Presently stress not available with electric field

     IMPORTANT: XC functional enforced from input :
     Exchange-correlation      = BEEF-VDW ( 1  4 27 13 2)
     Any further DFT definition will be discarded
     Please, verify this is what you really want

     Subspace diagonalization in iterative solution of the eigenvalue problem:
     a serial algorithm will be used

     bravais-lattice index     =            0
     lattice parameter (alat)  =       1.8897  a.u.
     unit-cell volume          =    6024.3322 (a.u.)^3
     number of atoms/cell      =           14
     number of atomic types    =            3
     number of electrons       =       151.00
     number of Kohn-Sham states=           85
     kinetic-energy cutoff     =      36.7493  Ry
     charge density cutoff     =     367.4932  Ry
     convergence threshold     =      1.0E-05
     mixing beta               =       0.3000
     number of iterations used =           10  plain     mixing
     Exchange-correlation      = BEEF-VDW ( 1  4 27 13 2)
     nstep                     =           50

     celldm(1)=   1.889726  celldm(2)=   0.000000  celldm(3)=   0.000000
     celldm(4)=   0.000000  celldm(5)=   0.000000  celldm(6)=   0.000000

     crystal axes: (cart. coord. in units of alat)
               a(1) = (   6.393197   0.000000   0.000000 )
               a(2) = (   3.196599   5.536671   0.000000 )
               a(3) = (   0.000000   0.000000  25.220024 )

     reciprocal axes: (cart. coord. in units 2 pi/alat)
               b(1) = (  0.156416 -0.090307  0.000000 )
               b(2) = (  0.000000  0.180614  0.000000 )
               b(3) = (  0.000000  0.000000  0.039651 )

     PseudoPot. # 1 for Hf read from file:
     /home/mamunm/src/pseudo/gbrv1.5pbe/Hf.UPF
     MD5 check sum: 8ee9378dfe14276e333edf04c5e4aa26
     Pseudo is Ultrasoft + core correction, Zval = 12.0
     Generated by new atomic code, or converted to UPF format
     Using radial grid of  921 points,  8 beta functions with:
                l(1) =   0
                l(2) =   0
                l(3) =   0
                l(4) =   1
                l(5) =   1
                l(6) =   2
                l(7) =   2
                l(8) =   3
     Q(r) pseudized with  6 coefficients,  rinner =    1.200   1.200   1.200
                                                       1.200   1.200   1.200
                                                       1.200

     PseudoPot. # 2 for S  read from file:
     /home/mamunm/src/pseudo/gbrv1.5pbe/S.UPF
     MD5 check sum: 88d86576ff6df21479756cfb9bdac1df
     Pseudo is Ultrasoft + core correction, Zval =  6.0
     Generated by new atomic code, or converted to UPF format
     Using radial grid of  907 points,  6 beta functions with:
                l(1) =   0
                l(2) =   0
                l(3) =   1
                l(4) =   1
                l(5) =   2
                l(6) =   2
     Q(r) pseudized with  8 coefficients,  rinner =    1.300   1.300   1.300
                                                       1.300   1.300

     PseudoPot. # 3 for H  read from file:
     /home/mamunm/src/pseudo/gbrv1.5pbe/H.UPF
     MD5 check sum: 761ae9a214b05c3daf00ab9f6b793d6f
     Pseudo is Ultrasoft, Zval =  1.0
     Generated by new atomic code, or converted to UPF format
     Using radial grid of  615 points,  2 beta functions with:
                l(1) =   0
                l(2) =   0
     Q(r) pseudized with  8 coefficients,  rinner =    0.700

     vdW kernel table read from file vdW_kernel_table
     MD5 check sum: 095c7af220d748ca6e76c0b4c6cfb241

     atomic species   valence    mass     pseudopotential
        Hf1           12.00   178.49000     Hf( 1.00)
        S1             6.00    32.06000     S ( 1.00)
        H1             1.00     1.00800     H ( 1.00)

     No symmetry found

   Cartesian axes

     site n.     atom                  positions (alat units)
         1           Hf1 tau(   1) = (   1.5982993   0.9227785  10.0000000  )
         2           Hf1 tau(   2) = (   4.7948978   0.9227785  10.0000000  )
         3           Hf1 tau(   3) = (   3.1965986   3.6911141  10.0000000  )
         4           Hf1 tau(   4) = (   6.3931971   3.6911141  10.0000000  )
         5           Hf1 tau(   5) = (   6.3931971   1.8455570  12.6100118  )
         6           Hf1 tau(   6) = (   3.1965986   1.8455570  12.6100118  )
         7           Hf1 tau(   7) = (   7.9914964   4.6138926  12.6100118  )
         8           Hf1 tau(   8) = (   4.7948978   4.6138926  12.6100118  )
         9           Hf1 tau(   9) = (   0.0000000   0.0000000  15.2200236  )
        10           Hf1 tau(  10) = (   3.1965986   0.0000000  15.2200236  )
        11           Hf1 tau(  11) = (   1.5982993   2.7683356  15.2200236  )
        12           Hf1 tau(  12) = (   4.7948978   2.7683356  15.2200236  )
        13           S1  tau(  13) = (   1.5982993   0.9227785  17.0400236  )
        14           H1  tau(  14) = (   1.5982993   0.9227785  18.2900236  )

     number of k points=    20  Fermi-Dirac smearing, width (Ry)=  0.0110
                       cart. coord. in units 2pi/alat
        k(    1) = (   0.0000000   0.0000000   0.0000000), wk =   0.0555556
        k(    2) = (   0.0000000   0.0301023   0.0000000), wk =   0.1111111
        k(    3) = (   0.0000000   0.0602046   0.0000000), wk =   0.1111111
        k(    4) = (   0.0000000  -0.0903070   0.0000000), wk =   0.0555556
        k(    5) = (   0.0260694  -0.0150512   0.0000000), wk =   0.1111111
        k(    6) = (   0.0260694   0.0150512   0.0000000), wk =   0.1111111
        k(    7) = (   0.0260694   0.0451535   0.0000000), wk =   0.1111111
        k(    8) = (   0.0260694  -0.1053581   0.0000000), wk =   0.1111111
        k(    9) = (   0.0260694  -0.0752558   0.0000000), wk =   0.1111111
        k(   10) = (   0.0260694  -0.0451535   0.0000000), wk =   0.1111111
        k(   11) = (   0.0521388  -0.0301023   0.0000000), wk =   0.1111111
        k(   12) = (   0.0521388   0.0000000   0.0000000), wk =   0.1111111
        k(   13) = (   0.0521388   0.0301023   0.0000000), wk =   0.1111111
        k(   14) = (   0.0521388  -0.1204093   0.0000000), wk =   0.1111111
        k(   15) = (   0.0521388  -0.0903070   0.0000000), wk =   0.1111111
        k(   16) = (   0.0521388  -0.0602046   0.0000000), wk =   0.1111111
        k(   17) = (  -0.0782081   0.0451535   0.0000000), wk =   0.0555556
        k(   18) = (  -0.0782081   0.0752558   0.0000000), wk =   0.1111111
        k(   19) = (  -0.0782081   0.1053581   0.0000000), wk =   0.1111111
        k(   20) = (  -0.0782081  -0.0451535   0.0000000), wk =   0.0555556

     Largest allocated arrays     est. size (Mb)     dimensions
     Largest temporary arrays     est. size (Mb)     dimensions

     Check: negative/imaginary core charge=   -0.000003    0.000000

     Initial potential from superposition of free atoms
     Check: negative starting charge=   -1.301220

     starting charge  126.99993, renormalised to  151.00000

     negative rho (up, down):  1.547E+00 0.000E+00

     *
     * You are using vdW-DF for exchange-correlation in this calculation.
     * Please cite the following three references that made this development
     * possible:
     *
     *   M. Dion, H. Rydberg, E. Schroder, D. C. Langreth, and
     *   B. I. Lundqvist, Phys. Rev. Lett. 92, 246401 (2004).
     *
     *   T. Thonhauser, V. R. Cooper, S. Li, A. Puzder, P. Hyldgaard, and
     *   D. C. Langreth, Phys. Rev. B 76, 125112 (2007).
     *
     *   G. Roman-Perez and J. M. Soler, Phys. Rev. Lett. 103, 096102 (2009).
     *
     *
     * If you are using vdW-DF2, please also cite:
     *
     *   K. Lee, E. D. Murray, L. Kong, B. I. Lundqvist, and
     *   D. C. Langreth, Phys. Rev. B 82, 081101(R) (2010).
     *
     *
     * If you are calculating the stress with vdW-DF, please also cite:
     *
     *   R. Sabatini, E. Kucukbenli, B. Kolb, T. Thonhauser, and
     *   S. de Gironcoli, J. Phys.: Condens. Matter 24, 424209 (2012).
     *

     Carrying out vdW-DF run using the following parameters:

     Nqs =      20    Nr_points =    1024   r_max =   100.000
     q_mesh =
               0.00001000     0.04494208     0.09755937     0.15916263
               0.23128650     0.31572767     0.41458969     0.53033537
               0.66584808     0.82450364     1.01025438     1.22772762
               1.48234092     1.78043706     2.12944203     2.53805004
               3.01644009     3.57652955     4.23227104     5.00000000

     Gradients computed in reciprocal space

     Adding external electric field

     Computed dipole along edir(3) :
        Dipole              -11.5201 Ry au,        -29.2811 Debye
        Dipole field         -0.0240 Ry au

        Potential amp.        2.2332 Ry
        Total length         46.4675 bohr

     Starting wfc are  161 randomized atomic wfcs

     Self-consistent Calculation

     iteration #  1     ecut=    36.75 Ry     beta=0.30
     Davidson diagonalization with overlap
     ethr =  1.00E-02,  avg # of iterations =  9.7

[...]

     total energy              =   -1246.97516955 Ry
     Harris-Foulkes estimate   =   -1946.74980701 Ry
     estimated scf accuracy    <    1498.87530801 Ry

[...]

     End of self-consistent calculation

          k = 0.0000 0.0000 0.0000 ( 22729 PWs)   bands (ev):

   -60.7895 -60.7452 -60.7147 -60.7081 -60.7075 -60.5949 -60.5704 -60.5689
   -60.3436 -60.3152 -60.3145 -60.2828 -29.5009 -29.5007 -29.4937 -29.4615
   -29.4610 -29.4407 -29.4019 -29.3703 -29.3126 -29.3122 -29.2996 -29.2157
   -29.1766 -29.1756 -29.0855 -29.0852 -29.0808 -29.0380 -29.0379 -29.0341
   -29.0080 -29.0077 -28.9781 -28.9554 -28.9554 -28.8603 -28.8597 -28.7917
   -28.7889 -28.7883 -28.7514 -28.7052 -28.6932 -28.6928 -28.5753 -28.5753
   -13.3149  -6.4072  -4.4760  -3.0602  -2.7157  -2.7155  -1.9040  -1.1033
    -1.1033  -1.0282  -0.8763  -0.7732  -0.7731  -0.3847  -0.2208  -0.2207
     0.2050   0.2050   0.2347   1.0171   1.0174   1.0977   1.8346   1.8966
     2.1574   2.1575   2.2321   2.3113   2.3502   2.3503   2.5410   2.7375
     2.9962   2.9963   3.1499   3.1500   3.1565

[...]

          k =-0.0782 0.0452 0.0000 ( 22668 PWs)   bands (ev):

[...]

     the Fermi energy is     1.8851 ev

!    total energy              =   -1952.36989443 Ry
     Harris-Foulkes estimate   =   -1952.36991338 Ry
     estimated scf accuracy    <       0.00000615 Ry

     The total energy is the sum of the following terms:

     one-electron contribution =   -8575.73058567 Ry
     hartree contribution      =    4275.07926878 Ry
     xc contribution           =    -937.43630344 Ry
     ewald contribution        =    3285.83430449 Ry
     electric field correction =       0.00020841 Ry
     smearing contrib. (-TS)   =      -0.11678701 Ry

     convergence has been achieved in  38 iterations

 BEEF-vdW xc energy contributions
           1 :   -847.244701914164
           2 :    787.114540450973
           3 :   -680.605147108705
           4 :    549.787050283754
           5 :   -417.493542548910
           6 :    300.929480858548
           7 :   -208.815783058879
           8 :    142.257012376847
           9 :   -97.8393829653813
          10 :    70.7248350853042
          11 :   -56.3115849220000
          12 :    50.3412808288371
          13 :   -48.4359736602986
          14 :    46.1119065277924
          15 :   -39.6650825709851
          16 :    27.4167587456254
          17 :   -10.4415294326161
          18 :   -7.84769289471819
          19 :    23.1555089590521
          20 :   -32.0976643678100
          21 :    33.4428549086673
          22 :   -28.2970146575761
          23 :    19.3209092269919
          24 :   -9.55861900799039
          25 :    1.50014959237683
          26 :    3.29884233754080
          27 :   -4.15364273224282
          28 :    1.07482078660996
          29 :    5.26552704981282
          30 :   -13.4597209181841
          31 :   -61.2134318201366
          32 :   -43.9892583329619

     Forces acting on atoms (Ry/au):

     negative rho (up, down):  1.379E+00 0.000E+00
     atom    1 type  1   force =    -0.00004307    0.00004965    0.02497941
     atom    2 type  1   force =     0.00003922   -0.00025204    0.02622876
     atom    3 type  1   force =    -0.00027579    0.00011684    0.02618292
     atom    4 type  1   force =     0.00026676    0.00006720    0.02612007
     atom    5 type  1   force =    -0.00363191    0.00209108   -0.00276242
     atom    6 type  1   force =     0.00363326    0.00195076   -0.00268528
     atom    7 type  1   force =    -0.00011712    0.00008006   -0.00807829
     atom    8 type  1   force =     0.00012803   -0.00411836   -0.00269186
     atom    9 type  1   force =    -0.02296124   -0.01304827   -0.01474357
     atom   10 type  1   force =     0.02297301   -0.01321889   -0.01483486
     atom   11 type  1   force =    -0.00015255    0.02639291   -0.01484402
     atom   12 type  1   force =     0.00014316   -0.00011872   -0.03740382
     atom   13 type  2   force =     0.00000005    0.00000461   -0.13935733
     atom   14 type  3   force =    -0.00000179    0.00000318    0.13389028

     Total force =     0.203717     Total SCF correction =     0.001394

     entering subroutine stress ...

     negative rho (up, down):  1.379E+00 0.000E+00
          total   stress  (Ry/bohr**3)                   (kbar)     P=  -18.97
  -0.00013088   0.00000002   0.00000004        -19.25      0.00      0.01
   0.00000002  -0.00013084  -0.00000002          0.00    -19.25     -0.00
   0.00000004  -0.00000002  -0.00012511          0.01     -0.00    -18.40

     BFGS Geometry Optimization

     number of scf cycles    =   1
     number of bfgs steps    =   0

     energy   new            =   -1952.3698944301 Ry

     new trust radius        =       0.1393573274 bohr
     new conv_thr            =       0.0000099958 Ry

ATOMIC_POSITIONS (crystal)
Hf1      0.166666667   0.166666667   0.396510335    0   0   0
Hf1      0.666666667   0.166666667   0.396510335    0   0   0
Hf1      0.166666667   0.666666667   0.396510335    0   0   0
Hf1      0.666666667   0.666666667   0.396510335    0   0   0
Hf1      0.833333333   0.333333333   0.500000000    0   0   0
Hf1      0.333333333   0.333333333   0.500000000    0   0   0
Hf1      0.833333333   0.833333333   0.500000000    0   0   0
Hf1      0.333333333   0.833333333   0.500000000    0   0   0
Hf1     -0.001276990  -0.001247111   0.603180309
Hf1      0.502533229  -0.001263419   0.603178394
Hf1     -0.001273902   0.502522550   0.603178202
Hf1      0.500017523   0.499988653   0.602704843
S1       0.166666450   0.166667107   0.672730492
H1       0.166666366   0.166666971   0.728027681

     Writing output data file calc.save
     Check: negative starting charge=   -1.301220
     NEW-OLD atomic charge density approx. for the potential

     Check: negative/imaginary core charge=   -0.000003    0.000000
     Check: negative starting charge=   -1.300668

[...]

     iteration #  1     ecut=    36.75 Ry     beta=0.30
     Davidson diagonalization with overlap
     c_bands:  1 eigenvalues not converged
     c_bands:  1 eigenvalues not converged
     ethr =  1.00E-06,  avg # of iterations = 16.8

[...]

     energy   old            =   -1952.3698944301 Ry
     energy   new            =   -1952.3871763379 Ry

     CASE: energy  _new < energy  _old

[...]

     WARNING: bfgs curvature condition failed, Theta= 0.934
     new trust radius        =       0.0401978531 bohr
     new conv_thr            =       0.0000001000 Ry

[...]

     iteration #  1     ecut=    36.75 Ry     beta=0.30
     Davidson diagonalization with overlap
     c_bands:  1 eigenvalues not converged
     c_bands:  1 eigenvalues not converged
     c_bands:  1 eigenvalues not converged
     ethr =  1.00E-06,  avg # of iterations = 16.7

[...]

     WARNING: bfgs curvature condition failed, Theta= 0.879
     new trust radius        =       0.0203341455 bohr
     new conv_thr            =       0.0000001000 Ry

[...]

     Total force =     0.007667     Total SCF correction =     0.000606

[...]

     number of scf cycles    =  15
     number of bfgs steps    =  14

     energy   old            =   -1952.4061811182 Ry
     energy   new            =   -1952.4064994559 Ry

     CASE: energy  _new < energy  _old

     new trust radius        =       0.0340471134 bohr
     new conv_thr            =       0.0000001000 Ry

ATOMIC_POSITIONS (crystal)
Hf1      0.166666667   0.166666667   0.396510335    0   0   0
Hf1      0.666666667   0.166666667   0.396510335    0   0   0
Hf1      0.166666667   0.666666667   0.396510335    0   0   0
Hf1      0.666666667   0.666666667   0.396510335    0   0   0
Hf1      0.833333333   0.333333333   0.500000000    0   0   0
Hf1      0.333333333   0.333333333   0.500000000    0   0   0
Hf1      0.833333333   0.833333333   0.500000000    0   0   0
Hf1      0.333333333   0.833333333   0.500000000    0   0   0
Hf1     -0.007646176  -0.007648989   0.597696428
Hf1      0.515267984  -0.007648260   0.597702772
Hf1     -0.007644585   0.515264296   0.597704056
Hf1      0.500000909   0.500003929   0.594888503
S1       0.166680852   0.166683515   0.666567205
H1       0.166652007   0.166655851   0.720628995

     Writing output data file calc.save
     Check: negative starting charge=   -1.298540
     NEW-OLD atomic charge density approx. for the potential

     Check: negative/imaginary core charge=   -0.000003    0.000000
     Check: negative starting charge=   -1.298142

[...]

     Self-consistent Calculation

[...]

     total energy              =   -1952.40669668 Ry
     Harris-Foulkes estimate   =   -1952.40669697 Ry
     estimated scf accuracy    <       0.00000040 Ry

     iteration # 11     ecut=    36.75 Ry     beta=0.30
     Davidson diagonalization with overlap
     ethr =  2.63E-10,  avg # of iterations =  4.0

[...]

     negative rho (up, down):  1.374E+00 0.000E+00

     Adding external electric field

     Computed dipole along edir(3) :
        Dipole                0.3144 Ry au,          0.7990 Debye
        Dipole field          0.0007 Ry au

        Potential amp.       -0.0609 Ry
        Total length         46.4675 bohr

     End of self-consistent calculation

[...]

          k = 0.0521-0.0602 0.0000 ( 22643 PWs)   bands (ev):

[...]

          k =-0.0782-0.0452 0.0000 ( 22668 PWs)   bands (ev):

   -60.7475 -60.7400 -60.7269 -60.7229 -60.6314 -60.4761 -60.4570 -60.4508
   -60.2357 -60.2282 -60.2193 -60.1139 -29.4140 -29.4075 -29.3676 -29.3563
   -29.3094 -29.3053 -29.2986 -29.2963 -29.2707 -29.2463 -29.2420 -29.2061
   -29.2040 -29.1848 -29.1393 -29.1233 -29.1071 -29.0904 -29.0362 -29.0306
   -29.0196 -28.9696 -28.8815 -28.8423 -28.8170 -28.7875 -28.7434 -28.7325
   -28.7159 -28.6812 -28.6734 -28.6610 -28.6229 -28.5634 -28.5582 -28.5036
   -12.9242  -5.8977  -3.3869  -2.9638  -2.6478  -2.5729  -1.6087  -1.4192
    -0.7854  -0.7596  -0.3914  -0.2847  -0.1777  -0.1562   0.6341   0.7704
     0.7757   0.8081   0.9580   1.0207   1.1666   1.2367   1.3252   1.3707
     1.4093   1.4716   1.6296   1.6365   1.7471   1.7704   1.8551   1.9630
     2.1168   2.1688   2.2708   2.6675   2.8228

     the Fermi energy is     1.8642 ev

!    total energy              =   -1952.40669670 Ry
     Harris-Foulkes estimate   =   -1952.40669683 Ry
     estimated scf accuracy    <       0.00000007 Ry

     The total energy is the sum of the following terms:

     one-electron contribution =   -8803.80477206 Ry
     hartree contribution      =    4389.42026033 Ry
     xc contribution           =    -937.68043881 Ry
     ewald contribution        =    3399.76937187 Ry
     electric field correction =       0.00020612 Ry
     smearing contrib. (-TS)   =      -0.11132415 Ry

     convergence has been achieved in  11 iterations

 BEEF-vdW xc energy contributions
           1 :   -847.495754352524
           2 :    787.458236062528
           3 :   -681.027838426589
           4 :    550.156441152970
           5 :   -417.650248378805
           6 :    300.809827302587
           7 :   -208.509616511789
           8 :    141.955448071560
           9 :   -97.7091996333710
          10 :    70.8017770999381
          11 :   -56.4874823344007
          12 :    50.4508898775293
          13 :   -48.3780149156382
          14 :    45.9170621480363
          15 :   -39.4648995478499
          16 :    27.3409069926697
          17 :   -10.5200601395345
          18 :   -7.70661736756040
          19 :    23.0977742481336
          20 :   -32.2136472442307
          21 :    33.6961638776713
          22 :   -28.5450390979611
          23 :    19.4141993284308
          24 :   -9.44725072357483
          25 :    1.26938594589501
          26 :    3.49039548836913
          27 :   -4.18807175226368
          28 :   0.956061591740536
          29 :    5.42379512507227
          30 :   -13.5282794418238
          31 :   -61.2325001484587
          32 :   -44.0211826750527

     Forces acting on atoms (Ry/au):

     negative rho (up, down):  1.374E+00 0.000E+00
     atom    1 type  1   force =     0.00000568    0.00000334    0.01748967
     atom    2 type  1   force =    -0.00000283    0.00065725    0.01979358
     atom    3 type  1   force =     0.00056776   -0.00033102    0.01979324
     atom    4 type  1   force =    -0.00056983   -0.00032892    0.01975374
     atom    5 type  1   force =     0.00031917   -0.00016392   -0.01389378
     atom    6 type  1   force =    -0.00030810   -0.00017766   -0.01387938
     atom    7 type  1   force =    -0.00002252   -0.00001595   -0.03654364
     atom    8 type  1   force =     0.00001721    0.00035871   -0.01389715
     atom    9 type  1   force =    -0.00065457   -0.00037802    0.00024259
     atom   10 type  1   force =     0.00076263   -0.00050870    0.00016824
     atom   11 type  1   force =    -0.00005961    0.00092355    0.00015784
     atom   12 type  1   force =    -0.00001264   -0.00000980    0.00032550
     atom   13 type  2   force =    -0.00004498   -0.00002997    0.00046786
     atom   14 type  3   force =     0.00000264    0.00000113    0.00002170

     Total force =     0.001646     Total SCF correction =     0.000581
     SCF correction compared to forces is large: reduce conv_thr to get better values

     entering subroutine stress ...

     negative rho (up, down):  1.374E+00 0.000E+00
          total   stress  (Ry/bohr**3)                   (kbar)     P=  -13.12
  -0.00009095  -0.00000006  -0.00000001        -13.38     -0.01     -0.00
  -0.00000006  -0.00009088  -0.00000000         -0.01    -13.37     -0.00
  -0.00000001  -0.00000000  -0.00008580         -0.00     -0.00    -12.62

     bfgs converged in  16 scf cycles and  15 bfgs steps
     (criteria: energy <  1.0E+00, force <  1.9E-03)

     End of BFGS Geometry Optimization

     Final energy   =   -1952.4066967045 Ry
Begin final coordinates

ATOMIC_POSITIONS (crystal)
Hf1      0.166666667   0.166666667   0.396510335    0   0   0
Hf1      0.666666667   0.166666667   0.396510335    0   0   0
Hf1      0.166666667   0.666666667   0.396510335    0   0   0
Hf1      0.666666667   0.666666667   0.396510335    0   0   0
Hf1      0.833333333   0.333333333   0.500000000    0   0   0
Hf1      0.333333333   0.333333333   0.500000000    0   0   0
Hf1      0.833333333   0.833333333   0.500000000    0   0   0
Hf1      0.333333333   0.833333333   0.500000000    0   0   0
Hf1     -0.007646176  -0.007648989   0.597696428
Hf1      0.515267984  -0.007648260   0.597702772
Hf1     -0.007644585   0.515264296   0.597704056
Hf1      0.500000909   0.500003929   0.594888503
S1       0.166680852   0.166683515   0.666567205
H1       0.166652007   0.166655851   0.720628995
End final coordinates

     Writing output data file calc.save

     General routines

     Parallel routines

   This run was terminated on:   5:43:27  18Apr2018

   JOB DONE.