     Program PWSCF v.5.1rc2 (svn rev. 11289) starts on 12Jan2019 at  0:59:51

     Current dimensions of program PWSCF are:
     Max number of different atomic species (ntypx) = 10
     Max number of k-points (npk) =  40000
     Max angular momentum in pseudopotentials (lmaxx) =  3

     IMPORTANT: XC functional enforced from input :
     Exchange-correlation      = BEEF-VDW ( 1  4 27 13 2)
     Any further DFT definition will be discarded
     Please, verify this is what you really want

     Subspace diagonalization in iterative solution of the eigenvalue problem:
     a serial algorithm will be used

     bravais-lattice index     =            0
     lattice parameter (alat)  =      12.6383  a.u.
     unit-cell volume          =    6655.4372 (a.u.)^3
     number of atoms/cell      =           13
     number of atomic types    =            2
     number of electrons       =       162.00
     number of Kohn-Sham states=           91
     kinetic-energy cutoff     =      36.7493  Ry
     charge density cutoff     =     367.4933  Ry
     convergence threshold     =      1.0E-04
     mixing beta               =       0.2000
     number of iterations used =            8  plain     mixing
     Exchange-correlation      = BEEF-VDW ( 1  4 27 13 2)
     nstep                     =           50

     celldm(1)=  12.638304  celldm(2)=   0.000000  celldm(3)=   0.000000
     celldm(4)=   0.000000  celldm(5)=   0.000000  celldm(6)=   0.000000

     crystal axes: (cart. coord. in units of alat)
               a(1) = (   1.000000   0.000000   0.000000 )
               a(2) = (   0.500000   0.866025   0.000000 )
               a(3) = (   0.000000   0.000000   3.806971 )

     reciprocal axes: (cart. coord. in units 2 pi/alat)
               b(1) = (  1.000000 -0.577350  0.000000 )
               b(2) = (  0.000000  1.154701  0.000000 )
               b(3) = (  0.000000  0.000000  0.262676 )

     PseudoPot. # 1 for Tl read from file:
     /u/if/jboes/code/decaf-espresso/gbrv15pbe/Tl.UPF
     MD5 check sum: b76cf1f7e72655a2b2c53cf6385d7059
     Pseudo is Ultrasoft + core correction, Zval = 13.0
     Generated by new atomic code, or converted to UPF format
     Using radial grid of  899 points,  6 beta functions with:
                l(1) =   0
                l(2) =   0
                l(3) =   1
                l(4) =   1
                l(5) =   2
                l(6) =   2
     Q(r) pseudized with  6 coefficients,  rinner =    1.100   1.100   1.100
                                                       1.100   1.100

     PseudoPot. # 2 for S  read from file:
     /u/if/jboes/code/decaf-espresso/gbrv15pbe/S.UPF
     MD5 check sum: 88d86576ff6df21479756cfb9bdac1df
     Pseudo is Ultrasoft + core correction, Zval =  6.0
     Generated by new atomic code, or converted to UPF format
     Using radial grid of  907 points,  6 beta functions with:
                l(1) =   0
                l(2) =   0
                l(3) =   1
                l(4) =   1
                l(5) =   2
                l(6) =   2
     Q(r) pseudized with  8 coefficients,  rinner =    1.300   1.300   1.300
                                                       1.300   1.300

     vdW kernel table read from file vdW_kernel_table
     MD5 check sum: 095c7af220d748ca6e76c0b4c6cfb241

     atomic species   valence    mass     pseudopotential
        Tl            13.00   204.38000     Tl( 1.00)
        S              6.00    32.06000     S ( 1.00)

     No symmetry found

   Cartesian axes

     site n.     atom                  positions (alat units)
         1           Tl  tau(   1) = (   0.2500000   0.1443376   1.4952371  )
         2           Tl  tau(   2) = (   0.7500000   0.1443376   1.4952371  )
         3           Tl  tau(   3) = (   0.5000000   0.5773503   1.4952371  )
         4           Tl  tau(   4) = (   1.0000000   0.5773503   1.4952371  )
         5           Tl  tau(   5) = (   1.0000000   0.2886751   1.9034854  )
         6           Tl  tau(   6) = (   0.5000000   0.2886751   1.9034854  )
         7           Tl  tau(   7) = (   1.2500000   0.7216878   1.9034854  )
         8           Tl  tau(   8) = (   0.7500000   0.7216878   1.9034854  )
         9           Tl  tau(   9) = (  -0.0046366  -0.0026729   2.3882112  )
        10           Tl  tau(  10) = (   0.5046401  -0.0026746   2.3882246  )
        11           Tl  tau(  11) = (   0.2500012   0.4383624   2.3882367  )
        12           Tl  tau(  12) = (   0.7499939   0.4330046   2.3433821  )
        13           S   tau(  13) = (   0.2500130   0.1443439   2.6726257  )

     number of k points=    20  Fermi-Dirac smearing, width (Ry)=  0.0110
                       cart. coord. in units 2pi/alat
        k(    1) = (   0.0000000   0.0000000   0.0000000), wk =   0.0555556
        k(    2) = (   0.0000000   0.1924501   0.0000000), wk =   0.1111111
        k(    3) = (   0.0000000   0.3849002   0.0000000), wk =   0.1111111
        k(    4) = (   0.0000000  -0.5773503   0.0000000), wk =   0.0555556
        k(    5) = (   0.1666667  -0.0962250   0.0000000), wk =   0.1111111
        k(    6) = (   0.1666667   0.0962250   0.0000000), wk =   0.1111111
        k(    7) = (   0.1666667   0.2886751   0.0000000), wk =   0.1111111
        k(    8) = (   0.1666667  -0.6735753   0.0000000), wk =   0.1111111
        k(    9) = (   0.1666667  -0.4811252   0.0000000), wk =   0.1111111
        k(   10) = (   0.1666667  -0.2886751   0.0000000), wk =   0.1111111
        k(   11) = (   0.3333333  -0.1924501   0.0000000), wk =   0.1111111
        k(   12) = (   0.3333333  -0.0000000   0.0000000), wk =   0.1111111
        k(   13) = (   0.3333333   0.1924501   0.0000000), wk =   0.1111111
        k(   14) = (   0.3333333  -0.7698004   0.0000000), wk =   0.1111111
        k(   15) = (   0.3333333  -0.5773503   0.0000000), wk =   0.1111111
        k(   16) = (   0.3333333  -0.3849002   0.0000000), wk =   0.1111111
        k(   17) = (  -0.5000000   0.2886751   0.0000000), wk =   0.0555556
        k(   18) = (  -0.5000000   0.4811252   0.0000000), wk =   0.1111111
        k(   19) = (  -0.5000000   0.6735753   0.0000000), wk =   0.1111111
        k(   20) = (  -0.5000000  -0.2886751   0.0000000), wk =   0.0555556

     Largest allocated arrays     est. size (Mb)     dimensions
     Largest temporary arrays     est. size (Mb)     dimensions

     Check: negative/imaginary core charge=   -0.000001    0.000000

     Initial potential from superposition of free atoms
     Check: negative starting charge=   -0.600773

     starting charge  161.94157, renormalised to  162.00000

     negative rho (up, down):  6.010E-01 0.000E+00

     *
     * You are using vdW-DF for exchange-correlation in this calculation.
     * Please cite the following three references that made this development
     * possible:
     *
     *   M. Dion, H. Rydberg, E. Schroder, D. C. Langreth, and
     *   B. I. Lundqvist, Phys. Rev. Lett. 92, 246401 (2004).
     *
     *   T. Thonhauser, V. R. Cooper, S. Li, A. Puzder, P. Hyldgaard, and
     *   D. C. Langreth, Phys. Rev. B 76, 125112 (2007).
     *
     *   G. Roman-Perez and J. M. Soler, Phys. Rev. Lett. 103, 096102 (2009).
     *
     *
     * If you are using vdW-DF2, please also cite:
     *
     *   K. Lee, E. D. Murray, L. Kong, B. I. Lundqvist, and
     *   D. C. Langreth, Phys. Rev. B 82, 081101(R) (2010).
     *
     *
     * If you are calculating the stress with vdW-DF, please also cite:
     *
     *   R. Sabatini, E. Kucukbenli, B. Kolb, T. Thonhauser, and
     *   S. de Gironcoli, J. Phys.: Condens. Matter 24, 424209 (2012).
     *

     Carrying out vdW-DF run using the following parameters:

     Nqs =      20    Nr_points =    1024   r_max =   100.000
     q_mesh =
               0.00001000     0.04494208     0.09755937     0.15916263
               0.23128650     0.31572767     0.41458969     0.53033537
               0.66584808     0.82450364     1.01025438     1.22772762
               1.48234092     1.78043706     2.12944203     2.53805004
               3.01644009     3.57652955     4.23227104     5.00000000

     Gradients computed in reciprocal space

     Adding external electric field

     Computed dipole along edir(3) :
        Dipole               -0.0201 Ry au,         -0.0511 Debye
        Dipole field         -0.0000 Ry au

        Potential amp.        0.0033 Ry
        Total length         43.3023 bohr

     Starting wfc are  112 randomized atomic wfcs

     Self-consistent Calculation

     iteration #  1     ecut=    36.75 Ry     beta=0.20
     Davidson diagonalization with overlap
     ethr =  1.00E-02,  avg # of iterations =  2.0

     Threshold (ethr) on eigenvalues was too large:
     Diagonalizing with lowered threshold

     Davidson diagonalization with overlap
     ethr =  4.00E-04,  avg # of iterations =  3.0

[...]

     total energy              =   -1785.87261399 Ry
     Harris-Foulkes estimate   =   -1786.06611251 Ry
     estimated scf accuracy    <       0.61628612 Ry

[...]

     End of self-consistent calculation

          k = 0.0000 0.0000 0.0000 ( 24957 PWs)   bands (ev):

   -11.8545 -11.5802 -11.5801 -11.5801 -11.4612 -11.4442 -11.4414 -11.4414
   -11.4293 -11.4293 -11.4139 -11.3769 -11.3769 -11.3252 -11.2961 -11.2639
   -11.2531 -11.2531 -11.2347 -11.2347 -11.2028 -11.2028 -11.1893 -11.1606
   -11.1606 -11.1149 -11.1142 -11.1142 -11.0749 -11.0749 -10.9534 -10.9534
   -10.8923 -10.8680 -10.8680 -10.8357 -10.8357 -10.8164 -10.8152 -10.7988
   -10.7988 -10.7679 -10.7679 -10.7518 -10.7425 -10.7425 -10.7178 -10.6861
   -10.6861 -10.6734 -10.6734 -10.6675 -10.6343 -10.6343 -10.6277 -10.6277
   -10.6123 -10.5309 -10.5309 -10.4625 -10.1951  -9.0374  -7.4354  -6.0422
    -4.4324  -4.4131  -4.4131  -4.0327  -4.0326  -4.0118  -3.4300  -3.4300
    -3.2685  -1.8369  -1.6166  -1.6166  -1.2627  -1.0554  -0.7829  -0.7829
    -0.4249  -0.4249  -0.3121   0.4058   0.4058   1.0517   2.2237   3.4303
     3.5717   3.5717   3.5828

[...]

          k =-0.5000 0.2887 0.0000 ( 25090 PWs)   bands (ev):

[...]

     the Fermi energy is     0.8131 ev

!    total energy              =   -1785.98773619 Ry
     Harris-Foulkes estimate   =   -1785.98776828 Ry
     estimated scf accuracy    <       0.00001639 Ry

     The total energy is the sum of the following terms:

     one-electron contribution =   -8304.48864931 Ry
     hartree contribution      =    4235.91267166 Ry
     xc contribution           =    -777.11258869 Ry
     ewald contribution        =    3059.74123648 Ry
     electric field correction =       0.00076289 Ry
     smearing contrib. (-TS)   =      -0.04116922 Ry

     convergence has been achieved in  10 iterations

     Forces acting on atoms (Ry/au):

     negative rho (up, down):  6.270E-01 0.000E+00
     atom    1 type  1   force =    -0.00000626   -0.00001494   -0.01856118
     atom    2 type  1   force =     0.00001222    0.00141123   -0.02092606
     atom    3 type  1   force =     0.00120516   -0.00068838   -0.02091207
     atom    4 type  1   force =    -0.00120339   -0.00069596   -0.02092305
     atom    5 type  1   force =     0.00194898   -0.00111167    0.02294878
     atom    6 type  1   force =    -0.00195793   -0.00112011    0.02295332
     atom    7 type  1   force =     0.00000493   -0.00000326    0.01557814
     atom    8 type  1   force =    -0.00000897    0.00225236    0.02294721
     atom    9 type  1   force =    -0.00269667   -0.00156298   -0.00079401
     atom   10 type  1   force =     0.00272524   -0.00158057   -0.00084791
     atom   11 type  1   force =    -0.00002161    0.00312567   -0.00081728
     atom   12 type  1   force =     0.00000860   -0.00000739   -0.00066092
     atom   13 type  2   force =    -0.00001031   -0.00000399    0.00001504

     Total force =     0.005645     Total SCF correction =     0.008855
     SCF correction compared to forces is large: reduce conv_thr to get better values

     BFGS Geometry Optimization

     number of scf cycles    =   1
     number of bfgs steps    =   0

     energy   new            =   -1785.9877361884 Ry

     new trust radius        =       0.0032625265 bohr
     new conv_thr            =       0.0001000000 Ry

ATOMIC_POSITIONS (angstrom)
Tl       1.671975640   0.965315586  10.000000000    0   0   0
Tl       5.015926920   0.965315586  10.000000000    0   0   0
Tl       3.343951280   3.861262344  10.000000000    0   0   0
Tl       6.687902560   3.861262344  10.000000000    0   0   0
Tl       6.687902560   1.930631172  12.730324787    0   0   0
Tl       3.343951280   1.930631172  12.730324787    0   0   0
Tl       8.359878201   4.826577929  12.730324787    0   0   0
Tl       5.015926920   4.826577929  12.730324787    0   0   0
Tl      -0.032436290  -0.018703366  15.971703691
Tl       3.376425838  -0.018723957  15.971764411
Tl       1.671972165   2.933379101  15.971861861
Tl       5.015890512   2.895888889  15.671961527
S        1.672056860   0.965356043  17.874268491

     Writing output data file calc.save
     Check: negative starting charge=   -0.600773
     NEW-OLD atomic charge density approx. for the potential

     Check: negative/imaginary core charge=   -0.000001    0.000000
     Check: negative starting charge=   -0.600539

[...]

     Self-consistent Calculation

[...]

     total energy              =   -1785.98774913 Ry
     Harris-Foulkes estimate   =   -1785.98776201 Ry
     estimated scf accuracy    <       0.00030356 Ry

     iteration #  4     ecut=    36.75 Ry     beta=0.20
     Davidson diagonalization with overlap
     ethr =  1.87E-07,  avg # of iterations =  1.2

     negative rho (up, down):  6.269E-01 0.000E+00

     Adding external electric field

     Computed dipole along edir(3) :
        Dipole               -0.6517 Ry au,         -1.6564 Debye
        Dipole field         -0.0012 Ry au

        Potential amp.        0.1066 Ry
        Total length         43.3023 bohr

     End of self-consistent calculation

[...]

          k = 0.3333-0.3849 0.0000 ( 25036 PWs)   bands (ev):

[...]

          k =-0.5000-0.2887 0.0000 ( 25090 PWs)   bands (ev):

   -11.7692 -11.4628 -11.4529 -11.3588 -11.3572 -11.3505 -11.3505 -11.3393
   -11.3331 -11.2900 -11.2899 -11.2791 -11.2356 -11.2251 -11.2126 -11.2038
   -11.1861 -11.1784 -11.1762 -11.1637 -11.1510 -11.1461 -11.1197 -11.0988
   -11.0938 -11.0877 -11.0715 -11.0504 -11.0313 -11.0311 -11.0071 -10.9775
   -10.9760 -10.9687 -10.9491 -10.9308 -10.9276 -10.9096 -10.9067 -10.9028
   -10.8974 -10.8933 -10.8901 -10.8842 -10.8482 -10.8314 -10.8194 -10.8132
   -10.8099 -10.7981 -10.7952 -10.7835 -10.7693 -10.7434 -10.7301 -10.7201
   -10.6913 -10.6752 -10.6716 -10.5593 -10.0624  -7.7903  -7.7254  -6.6040
    -6.2217  -5.2475  -5.2291  -5.1633  -4.9995  -4.3933  -4.2069  -3.3179
    -3.2372  -1.2592  -0.5074  -0.4770   0.3150   0.3970   0.5989   0.6576
     0.9179   1.1065   1.6003   1.9203   2.1369   2.2722   2.6139   3.0287
     3.3419   3.4521   3.7080

     the Fermi energy is     0.8084 ev

!    total energy              =   -1785.98776274 Ry
     Harris-Foulkes estimate   =   -1785.98775137 Ry
     estimated scf accuracy    <       0.00000174 Ry

     The total energy is the sum of the following terms:

     one-electron contribution =   -8305.00152003 Ry
     hartree contribution      =    4236.21241953 Ry
     xc contribution           =    -777.11039846 Ry
     ewald contribution        =    3059.95207490 Ry
     electric field correction =       0.00080186 Ry
     smearing contrib. (-TS)   =      -0.04114055 Ry

     convergence has been achieved in   4 iterations

     Forces acting on atoms (Ry/au):

     negative rho (up, down):  6.269E-01 0.000E+00
     atom    1 type  1   force =     0.00000027   -0.00000100   -0.01918540
     atom    2 type  1   force =     0.00000238    0.00157820   -0.02164881
     atom    3 type  1   force =     0.00136387   -0.00079661   -0.02162502
     atom    4 type  1   force =    -0.00137233   -0.00078297   -0.02164597
     atom    5 type  1   force =     0.00178930   -0.00104032    0.02183631
     atom    6 type  1   force =    -0.00179996   -0.00104420    0.02182026
     atom    7 type  1   force =    -0.00000409    0.00000652    0.01788704
     atom    8 type  1   force =     0.00000030    0.00207011    0.02183366
     atom    9 type  1   force =     0.00004204    0.00001979    0.00062458
     atom   10 type  1   force =    -0.00001384    0.00000117    0.00062336
     atom   11 type  1   force =     0.00000552   -0.00002090    0.00064031
     atom   12 type  1   force =    -0.00000954    0.00001965   -0.00075456
     atom   13 type  2   force =    -0.00000393   -0.00000943   -0.00040575

     Total force =     0.001388     Total SCF correction =     0.005468
     SCF correction compared to forces is large: reduce conv_thr to get better values

     bfgs converged in   2 scf cycles and   1 bfgs steps
     (criteria: energy <  1.0E+12, force <  1.9E-03)

     End of BFGS Geometry Optimization

     Final energy   =   -1785.9877627412 Ry
Begin final coordinates

ATOMIC_POSITIONS (angstrom)
Tl       1.671975640   0.965315586  10.000000000    0   0   0
Tl       5.015926920   0.965315586  10.000000000    0   0   0
Tl       3.343951280   3.861262344  10.000000000    0   0   0
Tl       6.687902560   3.861262344  10.000000000    0   0   0
Tl       6.687902560   1.930631172  12.730324787    0   0   0
Tl       3.343951280   1.930631172  12.730324787    0   0   0
Tl       8.359878201   4.826577930  12.730324787    0   0   0
Tl       5.015926920   4.826577930  12.730324787    0   0   0
Tl      -0.032436290  -0.018703366  15.971703691
Tl       3.376425838  -0.018723957  15.971764411
Tl       1.671972165   2.933379101  15.971861861
Tl       5.015890512   2.895888889  15.671961527
S        1.672056860   0.965356043  17.874268491
End final coordinates

     Writing output data file calc.save

     General routines

     Parallel routines

   This run was terminated on:   1: 7:39  12Jan2019

   JOB DONE.
Job  /afs/slac/g/suncat/bin/suncat-tsmpirun -x LD_LIBRARY_PATH -wdir /tmp/qe_759287mxr5sk2j_scratch pw.x -npool 4 -in pw.pwi

TID   HOST_NAME   COMMAND_LINE            STATUS            TERMINATION_TIME
00000 suncat0034 pw.x -npool 4 -i  Done                     01/12/2019 01:07:39
00001 suncat0034 pw.x -npool 4 -i  Done                     01/12/2019 01:07:39
00002 suncat0034 pw.x -npool 4 -i  Done                     01/12/2019 01:07:39
00003 suncat0034 pw.x -npool 4 -i  Done                     01/12/2019 01:07:39
00004 suncat0034 pw.x -npool 4 -i  Done                     01/12/2019 01:07:39
00005 suncat0034 pw.x -npool 4 -i  Done                     01/12/2019 01:07:39
00006 suncat0034 pw.x -npool 4 -i  Done                     01/12/2019 01:07:39
00007 suncat0034 pw.x -npool 4 -i  Done                     01/12/2019 01:07:39
00008 suncat0186 pw.x -npool 4 -i  Done                     01/12/2019 01:07:39
00009 suncat0186 pw.x -npool 4 -i  Done                     01/12/2019 01:07:39
00010 suncat0186 pw.x -npool 4 -i  Done                     01/12/2019 01:07:39
00011 suncat0186 pw.x -npool 4 -i  Done                     01/12/2019 01:07:39
00012 suncat0186 pw.x -npool 4 -i  Done                     01/12/2019 01:07:39
00013 suncat0186 pw.x -npool 4 -i  Done                     01/12/2019 01:07:39
00014 suncat0186 pw.x -npool 4 -i  Done                     01/12/2019 01:07:39
00015 suncat0186 pw.x -npool 4 -i  Done                     01/12/2019 01:07:39
00016 suncat0149 pw.x -npool 4 -i  Done                     01/12/2019 01:07:39
00017 suncat0149 pw.x -npool 4 -i  Done                     01/12/2019 01:07:39
00018 suncat0149 pw.x -npool 4 -i  Done                     01/12/2019 01:07:39
00019 suncat0149 pw.x -npool 4 -i  Done                     01/12/2019 01:07:39
00020 suncat0149 pw.x -npool 4 -i  Done                     01/12/2019 01:07:39
00021 suncat0149 pw.x -npool 4 -i  Done                     01/12/2019 01:07:39
00022 suncat0149 pw.x -npool 4 -i  Done                     01/12/2019 01:07:39
00023 suncat0149 pw.x -npool 4 -i  Done                     01/12/2019 01:07:39
00024 suncat0142 pw.x -npool 4 -i  Done                     01/12/2019 01:07:39
00025 suncat0142 pw.x -npool 4 -i  Done                     01/12/2019 01:07:39
00026 suncat0142 pw.x -npool 4 -i  Done                     01/12/2019 01:07:39
00027 suncat0142 pw.x -npool 4 -i  Done                     01/12/2019 01:07:39
00028 suncat0142 pw.x -npool 4 -i  Done                     01/12/2019 01:07:39
00029 suncat0142 pw.x -npool 4 -i  Done                     01/12/2019 01:07:39
00030 suncat0142 pw.x -npool 4 -i  Done                     01/12/2019 01:07:39
00031 suncat0142 pw.x -npool 4 -i  Done                     01/12/2019 01:07:39