     Program PWSCF v.5.1rc2 (svn rev. ) starts on 18Apr2018 at  2:16: 2

     Current dimensions of program PWSCF are:
     Max number of different atomic species (ntypx) = 10
     Max number of k-points (npk) =  40000
     Max angular momentum in pseudopotentials (lmaxx) =  3
     Presently stress not available with electric field

     IMPORTANT: XC functional enforced from input :
     Exchange-correlation      = BEEF-VDW ( 1  4 27 13 2)
     Any further DFT definition will be discarded
     Please, verify this is what you really want

     Subspace diagonalization in iterative solution of the eigenvalue problem:
     a serial algorithm will be used

     bravais-lattice index     =            0
     lattice parameter (alat)  =       1.8897  a.u.
     unit-cell volume          =    6024.3322 (a.u.)^3
     number of atoms/cell      =           14
     number of atomic types    =            3
     number of electrons       =       150.00
     number of Kohn-Sham states=           85
     kinetic-energy cutoff     =      36.7493  Ry
     charge density cutoff     =     367.4932  Ry
     convergence threshold     =      1.0E-05
     mixing beta               =       0.3000
     number of iterations used =           10  plain     mixing
     Exchange-correlation      = BEEF-VDW ( 1  4 27 13 2)
     nstep                     =           50

     celldm(1)=   1.889726  celldm(2)=   0.000000  celldm(3)=   0.000000
     celldm(4)=   0.000000  celldm(5)=   0.000000  celldm(6)=   0.000000

     crystal axes: (cart. coord. in units of alat)
               a(1) = (   6.393197   0.000000   0.000000 )
               a(2) = (   3.196599   5.536671   0.000000 )
               a(3) = (   0.000000   0.000000  25.220024 )

     reciprocal axes: (cart. coord. in units 2 pi/alat)
               b(1) = (  0.156416 -0.090307  0.000000 )
               b(2) = (  0.000000  0.180614  0.000000 )
               b(3) = (  0.000000  0.000000  0.039651 )

     PseudoPot. # 1 for Hf read from file:
     /home/mamunm/src/pseudo/gbrv1.5pbe/Hf.UPF
     MD5 check sum: 8ee9378dfe14276e333edf04c5e4aa26
     Pseudo is Ultrasoft + core correction, Zval = 12.0
     Generated by new atomic code, or converted to UPF format
     Using radial grid of  921 points,  8 beta functions with:
                l(1) =   0
                l(2) =   0
                l(3) =   0
                l(4) =   1
                l(5) =   1
                l(6) =   2
                l(7) =   2
                l(8) =   3
     Q(r) pseudized with  6 coefficients,  rinner =    1.200   1.200   1.200
                                                       1.200   1.200   1.200
                                                       1.200

     PseudoPot. # 2 for N  read from file:
     /home/mamunm/src/pseudo/gbrv1.5pbe/N.UPF
     MD5 check sum: 95339753478d7afb44899504a8723017
     Pseudo is Ultrasoft + core correction, Zval =  5.0
     Generated by new atomic code, or converted to UPF format
     Using radial grid of  729 points,  4 beta functions with:
                l(1) =   0
                l(2) =   0
                l(3) =   1
                l(4) =   1
     Q(r) pseudized with  8 coefficients,  rinner =    0.900   0.900   0.900

     PseudoPot. # 3 for H  read from file:
     /home/mamunm/src/pseudo/gbrv1.5pbe/H.UPF
     MD5 check sum: 761ae9a214b05c3daf00ab9f6b793d6f
     Pseudo is Ultrasoft, Zval =  1.0
     Generated by new atomic code, or converted to UPF format
     Using radial grid of  615 points,  2 beta functions with:
                l(1) =   0
                l(2) =   0
     Q(r) pseudized with  8 coefficients,  rinner =    0.700

     vdW kernel table read from file vdW_kernel_table
     MD5 check sum: 095c7af220d748ca6e76c0b4c6cfb241

     atomic species   valence    mass     pseudopotential
        Hf1           12.00   178.49000     Hf( 1.00)
        N1             5.00    14.00700     N ( 1.00)
        H1             1.00     1.00800     H ( 1.00)

     No symmetry found

   Cartesian axes

     site n.     atom                  positions (alat units)
         1           Hf1 tau(   1) = (   1.5982993   0.9227785  10.0000000  )
         2           Hf1 tau(   2) = (   4.7948978   0.9227785  10.0000000  )
         3           Hf1 tau(   3) = (   3.1965986   3.6911141  10.0000000  )
         4           Hf1 tau(   4) = (   6.3931971   3.6911141  10.0000000  )
         5           Hf1 tau(   5) = (   6.3931971   1.8455570  12.6100118  )
         6           Hf1 tau(   6) = (   3.1965986   1.8455570  12.6100118  )
         7           Hf1 tau(   7) = (   7.9914964   4.6138926  12.6100118  )
         8           Hf1 tau(   8) = (   4.7948978   4.6138926  12.6100118  )
         9           Hf1 tau(   9) = (   0.0000000   0.0000000  15.2200236  )
        10           Hf1 tau(  10) = (   3.1965986   0.0000000  15.2200236  )
        11           Hf1 tau(  11) = (   1.5982993   2.7683356  15.2200236  )
        12           Hf1 tau(  12) = (   4.7948978   2.7683356  15.2200236  )
        13           N1  tau(  13) = (   1.5982993   0.9227785  16.8190236  )
        14           H1  tau(  14) = (   1.5982993   0.9227785  17.8690236  )

     number of k points=    20  Fermi-Dirac smearing, width (Ry)=  0.0110
                       cart. coord. in units 2pi/alat
        k(    1) = (   0.0000000   0.0000000   0.0000000), wk =   0.0555556
        k(    2) = (   0.0000000   0.0301023   0.0000000), wk =   0.1111111
        k(    3) = (   0.0000000   0.0602046   0.0000000), wk =   0.1111111
        k(    4) = (   0.0000000  -0.0903070   0.0000000), wk =   0.0555556
        k(    5) = (   0.0260694  -0.0150512   0.0000000), wk =   0.1111111
        k(    6) = (   0.0260694   0.0150512   0.0000000), wk =   0.1111111
        k(    7) = (   0.0260694   0.0451535   0.0000000), wk =   0.1111111
        k(    8) = (   0.0260694  -0.1053581   0.0000000), wk =   0.1111111
        k(    9) = (   0.0260694  -0.0752558   0.0000000), wk =   0.1111111
        k(   10) = (   0.0260694  -0.0451535   0.0000000), wk =   0.1111111
        k(   11) = (   0.0521388  -0.0301023   0.0000000), wk =   0.1111111
        k(   12) = (   0.0521388   0.0000000   0.0000000), wk =   0.1111111
        k(   13) = (   0.0521388   0.0301023   0.0000000), wk =   0.1111111
        k(   14) = (   0.0521388  -0.1204093   0.0000000), wk =   0.1111111
        k(   15) = (   0.0521388  -0.0903070   0.0000000), wk =   0.1111111
        k(   16) = (   0.0521388  -0.0602046   0.0000000), wk =   0.1111111
        k(   17) = (  -0.0782081   0.0451535   0.0000000), wk =   0.0555556
        k(   18) = (  -0.0782081   0.0752558   0.0000000), wk =   0.1111111
        k(   19) = (  -0.0782081   0.1053581   0.0000000), wk =   0.1111111
        k(   20) = (  -0.0782081  -0.0451535   0.0000000), wk =   0.0555556

     Largest allocated arrays     est. size (Mb)     dimensions
     Largest temporary arrays     est. size (Mb)     dimensions

     Check: negative/imaginary core charge=   -0.000003    0.000000

     Initial potential from superposition of free atoms
     Check: negative starting charge=   -1.301362

     starting charge  125.99996, renormalised to  150.00000

     negative rho (up, down):  1.549E+00 0.000E+00

     *
     * You are using vdW-DF for exchange-correlation in this calculation.
     * Please cite the following three references that made this development
     * possible:
     *
     *   M. Dion, H. Rydberg, E. Schroder, D. C. Langreth, and
     *   B. I. Lundqvist, Phys. Rev. Lett. 92, 246401 (2004).
     *
     *   T. Thonhauser, V. R. Cooper, S. Li, A. Puzder, P. Hyldgaard, and
     *   D. C. Langreth, Phys. Rev. B 76, 125112 (2007).
     *
     *   G. Roman-Perez and J. M. Soler, Phys. Rev. Lett. 103, 096102 (2009).
     *
     *
     * If you are using vdW-DF2, please also cite:
     *
     *   K. Lee, E. D. Murray, L. Kong, B. I. Lundqvist, and
     *   D. C. Langreth, Phys. Rev. B 82, 081101(R) (2010).
     *
     *
     * If you are calculating the stress with vdW-DF, please also cite:
     *
     *   R. Sabatini, E. Kucukbenli, B. Kolb, T. Thonhauser, and
     *   S. de Gironcoli, J. Phys.: Condens. Matter 24, 424209 (2012).
     *

     Carrying out vdW-DF run using the following parameters:

     Nqs =      20    Nr_points =    1024   r_max =   100.000
     q_mesh =
               0.00001000     0.04494208     0.09755937     0.15916263
               0.23128650     0.31572767     0.41458969     0.53033537
               0.66584808     0.82450364     1.01025438     1.22772762
               1.48234092     1.78043706     2.12944203     2.53805004
               3.01644009     3.57652955     4.23227104     5.00000000

     Gradients computed in reciprocal space

     Adding external electric field

     Computed dipole along edir(3) :
        Dipole               -9.4679 Ry au,        -24.0651 Debye
        Dipole field         -0.0197 Ry au

        Potential amp.        1.8354 Ry
        Total length         46.4675 bohr

     Starting wfc are  161 randomized atomic wfcs

     Self-consistent Calculation

     iteration #  1     ecut=    36.75 Ry     beta=0.30
     Davidson diagonalization with overlap
     ethr =  1.00E-02,  avg # of iterations =  9.7

[...]

     total energy              =   -1287.60297956 Ry
     Harris-Foulkes estimate   =   -1939.22464182 Ry
     estimated scf accuracy    <    1398.07449036 Ry

     iteration #  2     ecut=    36.75 Ry     beta=0.30
     Davidson diagonalization with overlap
     c_bands:  5 eigenvalues not converged
     ethr =  1.00E-02,  avg # of iterations = 21.9

[...]

     End of self-consistent calculation

          k = 0.0000 0.0000 0.0000 ( 22729 PWs)   bands (ev):

   -61.1225 -61.0464 -61.0204 -61.0130 -61.0127 -61.0105 -60.9969 -60.9968
   -60.6147 -60.5870 -60.5868 -60.5295 -29.8338 -29.8337 -29.8017 -29.7904
   -29.7903 -29.7760 -29.7569 -29.6832 -29.6201 -29.6199 -29.6129 -29.5670
   -29.5341 -29.5340 -29.4063 -29.4063 -29.3880 -29.3840 -29.3839 -29.3803
   -29.3270 -29.2990 -29.2989 -29.2572 -29.2572 -29.2520 -29.2520 -29.0763
   -29.0675 -29.0674 -28.9976 -28.9762 -28.9646 -28.9645 -28.8419 -28.8418
   -12.9578  -5.1129  -4.4485  -3.2572  -2.1824  -1.6803  -1.6803  -1.3422
    -1.3421  -1.3036  -1.1575  -0.9864  -0.9864  -0.5615  -0.2315  -0.2314
    -0.0285  -0.0285   0.0434   0.7736   0.7736   0.9715   1.5925   1.7212
     1.9512   2.0140   2.0559   2.0559   2.0751   2.0751   2.3537   2.5032
     2.7019   2.7020   2.8587   2.8727   2.8728

[...]

          k =-0.0782 0.0452 0.0000 ( 22668 PWs)   bands (ev):

[...]

     the Fermi energy is     1.5855 ev

!    total energy              =   -1948.28556911 Ry
     Harris-Foulkes estimate   =   -1948.28555336 Ry
     estimated scf accuracy    <       0.00000559 Ry

     The total energy is the sum of the following terms:

     one-electron contribution =   -8583.10216207 Ry
     hartree contribution      =    4277.71321577 Ry
     xc contribution           =    -933.94383534 Ry
     ewald contribution        =    3291.16189904 Ry
     electric field correction =       0.00008335 Ry
     smearing contrib. (-TS)   =      -0.11476985 Ry

     convergence has been achieved in  31 iterations

 BEEF-vdW xc energy contributions
           1 :   -844.281533800446
           2 :    784.486414820299
           3 :   -678.598134326366
           4 :    548.583538383366
           5 :   -417.104930859354
           6 :    301.164611538066
           7 :   -209.351206593377
           8 :    142.787488107581
           9 :   -98.2081903322139
          10 :    70.9481683207925
          11 :   -56.4963307790736
          12 :    50.5716476367987
          13 :   -48.7142790298071
          14 :    46.3770325993150
          15 :   -39.8459034800006
          16 :    27.4706683215354
          17 :   -10.3651544354765
          18 :   -8.02310371380497
          19 :    23.3743837483449
          20 :   -32.2956853547480
          21 :    33.5695121642947
          22 :   -28.3377814716733
          23 :    19.3042668378459
          24 :   -9.53932403657609
          25 :    1.52771935732721
          26 :    3.20515098141459
          27 :   -4.00971470256593
          28 :   0.919264506490208
          29 :    5.38801415990133
          30 :   -13.5093979151454
          31 :   -60.8560026201267
          32 :   -43.7323690245209

     Forces acting on atoms (Ry/au):

     negative rho (up, down):  1.380E+00 0.000E+00
     atom    1 type  1   force =    -0.00004650   -0.00002114    0.02300919
     atom    2 type  1   force =     0.00004191    0.00155677    0.02415575
     atom    3 type  1   force =     0.00136277   -0.00074397    0.02415749
     atom    4 type  1   force =    -0.00135540   -0.00079041    0.02412659
     atom    5 type  1   force =    -0.00134369    0.00079867   -0.00032372
     atom    6 type  1   force =     0.00134617    0.00075298   -0.00029842
     atom    7 type  1   force =    -0.00003535    0.00000788   -0.00545652
     atom    8 type  1   force =     0.00004432   -0.00155481   -0.00031731
     atom    9 type  1   force =     0.02009010    0.01162491    0.03374376
     atom   10 type  1   force =    -0.02010018    0.01157344    0.03375353
     atom   11 type  1   force =    -0.00005280   -0.02320516    0.03376420
     atom   12 type  1   force =     0.00005744    0.00000314   -0.03962419
     atom   13 type  2   force =    -0.00000745   -0.00000248   -0.10616815
     atom   14 type  3   force =    -0.00000134    0.00000018   -0.04452218

     Total force =     0.140915     Total SCF correction =     0.007383

     entering subroutine stress ...

     negative rho (up, down):  1.380E+00 0.000E+00
          total   stress  (Ry/bohr**3)                   (kbar)     P=  -29.81
  -0.00016941   0.00000000   0.00000000        -24.92      0.00      0.00
   0.00000000  -0.00016940  -0.00000000          0.00    -24.92     -0.00
   0.00000000  -0.00000000  -0.00026920          0.00     -0.00    -39.60

     BFGS Geometry Optimization

     number of scf cycles    =   1
     number of bfgs steps    =   0

     energy   new            =   -1948.2855691094 Ry

     new trust radius        =       0.1061681546 bohr
     new conv_thr            =       0.0000099958 Ry

ATOMIC_POSITIONS (crystal)
Hf1      0.166666667   0.166666667   0.396510335    0   0   0
Hf1      0.666666667   0.166666667   0.396510335    0   0   0
Hf1      0.166666667   0.666666667   0.396510335    0   0   0
Hf1      0.666666667   0.666666667   0.396510335    0   0   0
Hf1      0.833333333   0.333333333   0.500000000    0   0   0
Hf1      0.333333333   0.333333333   0.500000000    0   0   0
Hf1      0.833333333   0.833333333   0.500000000    0   0   0
Hf1      0.333333333   0.833333333   0.500000000    0   0   0
Hf1      0.001107360   0.001111072   0.604197691
Hf1      0.497783193   0.001106152   0.604197896
Hf1      0.001104567   0.497782125   0.604198120
Hf1      0.500004605   0.500000300   0.602658254
N1       0.166666168   0.166666430   0.664664003
H1       0.166666547   0.166666684   0.707591070

     Writing output data file calc.save
     Check: negative starting charge=   -1.301362
     NEW-OLD atomic charge density approx. for the potential

     Check: negative/imaginary core charge=   -0.000003    0.000000
     Check: negative starting charge=   -1.299583

[...]

     energy   old            =   -1948.2855691094 Ry
     energy   new            =   -1948.3031068923 Ry

     CASE: energy  _new < energy  _old

[...]

     iteration #  1     ecut=    36.75 Ry     beta=0.30
     Davidson diagonalization with overlap
     c_bands:  1 eigenvalues not converged
     c_bands:  1 eigenvalues not converged
     c_bands:  1 eigenvalues not converged
     c_bands:  1 eigenvalues not converged
     ethr =  1.00E-06,  avg # of iterations = 17.0

[...]

     Total force =     0.009601     Total SCF correction =     0.000530

[...]

     number of scf cycles    =  13
     number of bfgs steps    =  12

     energy   old            =   -1948.3832484869 Ry
     energy   new            =   -1948.3836938239 Ry

     CASE: energy  _new < energy  _old

     new trust radius        =       0.0107251378 bohr
     new conv_thr            =       0.0000001000 Ry

ATOMIC_POSITIONS (crystal)
Hf1      0.166666667   0.166666667   0.396510335    0   0   0
Hf1      0.666666667   0.166666667   0.396510335    0   0   0
Hf1      0.166666667   0.666666667   0.396510335    0   0   0
Hf1      0.666666667   0.666666667   0.396510335    0   0   0
Hf1      0.833333333   0.333333333   0.500000000    0   0   0
Hf1      0.333333333   0.333333333   0.500000000    0   0   0
Hf1      0.833333333   0.833333333   0.500000000    0   0   0
Hf1      0.333333333   0.833333333   0.500000000    0   0   0
Hf1     -0.000408801  -0.000413890   0.599266694
Hf1      0.500844044  -0.000377252   0.599266328
Hf1     -0.000374944   0.500845443   0.599266833
Hf1      0.499981893   0.499992927   0.593541601
N1       0.166651937   0.166654475   0.643286184
H1       0.166657980   0.166657930   0.684032294

     Writing output data file calc.save
     Check: negative starting charge=   -1.299271
     NEW-OLD atomic charge density approx. for the potential

     Check: negative/imaginary core charge=   -0.000003    0.000000
     Check: negative starting charge=   -1.299939

[...]

     Self-consistent Calculation

[...]

     total energy              =   -1948.38373524 Ry
     Harris-Foulkes estimate   =   -1948.38373504 Ry
     estimated scf accuracy    <       0.00000021 Ry

     iteration # 13     ecut=    36.75 Ry     beta=0.30
     Davidson diagonalization with overlap
     ethr =  1.03E-10,  avg # of iterations =  1.1

[...]

     negative rho (up, down):  1.378E+00 0.000E+00

     Adding external electric field

     Computed dipole along edir(3) :
        Dipole                0.2841 Ry au,          0.7222 Debye
        Dipole field          0.0006 Ry au

        Potential amp.       -0.0551 Ry
        Total length         46.4675 bohr

     End of self-consistent calculation

[...]

          k = 0.0521-0.0602 0.0000 ( 22643 PWs)   bands (ev):

[...]

          k =-0.0782-0.0452 0.0000 ( 22668 PWs)   bands (ev):

   -60.9100 -60.9097 -60.8929 -60.8926 -60.6934 -60.6916 -60.6752 -60.6734
   -60.3375 -60.3311 -60.3211 -60.2943 -29.5755 -29.5752 -29.5205 -29.5173
   -29.4640 -29.4633 -29.4386 -29.4365 -29.4231 -29.4163 -29.3856 -29.3708
   -29.3705 -29.3630 -29.3255 -29.3078 -29.2681 -29.2503 -29.2155 -29.2091
   -29.2001 -29.1990 -29.0433 -29.0122 -28.9687 -28.9657 -28.8549 -28.8496
   -28.8213 -28.8149 -28.7945 -28.7867 -28.7676 -28.7515 -28.6682 -28.6520
   -14.1311  -5.4709  -3.4406  -3.1043  -2.5814  -2.4418  -1.7723  -1.4504
    -0.8928  -0.8731  -0.5555  -0.3070  -0.2696  -0.2573   0.5262   0.6352
     0.6617   0.7225   0.8412   0.8718   1.0720   1.1173   1.1984   1.2438
     1.3037   1.3299   1.4770   1.5369   1.6063   1.7018   1.7177   1.8904
     2.0049   2.1270   2.1660   2.6388   2.6756

     the Fermi energy is     1.7058 ev

!    total energy              =   -1948.38373526 Ry
     Harris-Foulkes estimate   =   -1948.38373497 Ry
     estimated scf accuracy    <          4.4E-09 Ry

     The total energy is the sum of the following terms:

     one-electron contribution =   -8867.50027570 Ry
     hartree contribution      =    4420.78853044 Ry
     xc contribution           =    -934.48885719 Ry
     ewald contribution        =    3432.92663879 Ry
     electric field correction =       0.00016842 Ry
     smearing contrib. (-TS)   =      -0.10994001 Ry

     convergence has been achieved in  13 iterations

 BEEF-vdW xc energy contributions
           1 :   -844.829239389690
           2 :    785.192453845037
           3 :   -679.449768482504
           4 :    549.385204684395
           5 :   -417.615146679889
           6 :    301.261305903707
           7 :   -209.110475459436
           8 :    142.425816502595
           9 :   -97.9383480875716
          10 :    70.8559748808976
          11 :   -56.5189335970304
          12 :    50.5789510613827
          13 :   -48.6235089733153
          14 :    46.2145844102478
          15 :   -39.7191800075890
          16 :    27.4789609604926
          17 :   -10.5174635338062
          18 :   -7.82407616967464
          19 :    23.2711049490009
          20 :   -32.3811658924777
          21 :    33.8244730952932
          22 :   -28.6427575839134
          23 :    19.5174120207520
          24 :   -9.58573682650069
          25 :    1.43898552750113
          26 :    3.32689652907345
          27 :   -4.07308181827943
          28 :   0.907977526883542
          29 :    5.41479507718134
          30 :   -13.4784035804252
          31 :   -60.8925284621334
          32 :   -43.7969699737349

     Forces acting on atoms (Ry/au):

     negative rho (up, down):  1.378E+00 0.000E+00
     atom    1 type  1   force =    -0.00001463   -0.00000849    0.01583914
     atom    2 type  1   force =     0.00000603    0.00116910    0.02020728
     atom    3 type  1   force =     0.00101540   -0.00057949    0.02020732
     atom    4 type  1   force =    -0.00102788   -0.00059357    0.02017808
     atom    5 type  1   force =     0.00541963   -0.00312037   -0.01786677
     atom    6 type  1   force =    -0.00543504   -0.00313676   -0.01788053
     atom    7 type  1   force =     0.00000099   -0.00000094   -0.02274081
     atom    8 type  1   force =     0.00000627    0.00625556   -0.01787324
     atom    9 type  1   force =    -0.00023237   -0.00012713   -0.00012240
     atom   10 type  1   force =     0.00022381   -0.00019817   -0.00002388
     atom   11 type  1   force =    -0.00006625    0.00029183   -0.00002476
     atom   12 type  1   force =     0.00005522    0.00002238    0.00017841
     atom   13 type  2   force =     0.00005330    0.00002875   -0.00032697
     atom   14 type  3   force =    -0.00000450   -0.00000271    0.00024913

     Total force =     0.000688     Total SCF correction =     0.000243
     SCF correction compared to forces is large: reduce conv_thr to get better values

     entering subroutine stress ...

     negative rho (up, down):  1.378E+00 0.000E+00
          total   stress  (Ry/bohr**3)                   (kbar)     P=  -13.83
  -0.00009718  -0.00000000   0.00000000        -14.30     -0.00      0.00
  -0.00000000  -0.00009718   0.00000000         -0.00    -14.30      0.00
   0.00000000   0.00000000  -0.00008762          0.00      0.00    -12.89

     bfgs converged in  14 scf cycles and  13 bfgs steps
     (criteria: energy <  1.0E+00, force <  1.9E-03)

     End of BFGS Geometry Optimization

     Final energy   =   -1948.3837352555 Ry
Begin final coordinates

ATOMIC_POSITIONS (crystal)
Hf1      0.166666667   0.166666667   0.396510335    0   0   0
Hf1      0.666666667   0.166666667   0.396510335    0   0   0
Hf1      0.166666667   0.666666667   0.396510335    0   0   0
Hf1      0.666666667   0.666666667   0.396510335    0   0   0
Hf1      0.833333333   0.333333333   0.500000000    0   0   0
Hf1      0.333333333   0.333333333   0.500000000    0   0   0
Hf1      0.833333333   0.833333333   0.500000000    0   0   0
Hf1      0.333333333   0.833333333   0.500000000    0   0   0
Hf1     -0.000408801  -0.000413890   0.599266694
Hf1      0.500844044  -0.000377252   0.599266328
Hf1     -0.000374944   0.500845443   0.599266833
Hf1      0.499981893   0.499992927   0.593541601
N1       0.166651937   0.166654475   0.643286184
H1       0.166657980   0.166657930   0.684032294
End final coordinates

     Writing output data file calc.save

     General routines

     Parallel routines

   This run was terminated on:   3:57: 6  18Apr2018

   JOB DONE.