     Program PWSCF v.5.1rc2 (svn rev. 11289) starts on 17Apr2018 at  0:41:52

     Current dimensions of program PWSCF are:
     Max number of different atomic species (ntypx) = 10
     Max number of k-points (npk) =  40000
     Max angular momentum in pseudopotentials (lmaxx) =  3
     Presently stress not available with electric field

     IMPORTANT: XC functional enforced from input :
     Exchange-correlation      = BEEF-VDW ( 1  4 27 13 2)
     Any further DFT definition will be discarded
     Please, verify this is what you really want

     Subspace diagonalization in iterative solution of the eigenvalue problem:
     a serial algorithm will be used

     bravais-lattice index     =            0
     lattice parameter (alat)  =       1.8897  a.u.
     unit-cell volume          =    3724.3394 (a.u.)^3
     number of atoms/cell      =           14
     number of atomic types    =            3
     number of electrons       =       175.00
     number of Kohn-Sham states=           97
     kinetic-energy cutoff     =      36.7493  Ry
     charge density cutoff     =     367.4932  Ry
     convergence threshold     =      1.0E-05
     mixing beta               =       0.3000
     number of iterations used =           10  plain     mixing
     Exchange-correlation      = BEEF-VDW ( 1  4 27 13 2)
     nstep                     =           50

     celldm(1)=   1.889726  celldm(2)=   0.000000  celldm(3)=   0.000000
     celldm(4)=   0.000000  celldm(5)=   0.000000  celldm(6)=   0.000000

     crystal axes: (cart. coord. in units of alat)
               a(1) = (   5.132588   0.000000   0.000000 )
               a(2) = (   2.566294   4.444952   0.000000 )
               a(3) = (   0.000000   0.000000  24.190741 )

     reciprocal axes: (cart. coord. in units 2 pi/alat)
               b(1) = (  0.194833 -0.112487  0.000000 )
               b(2) = (  0.000000  0.224974  0.000000 )
               b(3) = (  0.000000  0.000000  0.041338 )

     PseudoPot. # 1 for Cr read from file:
     /u/if/mamunm/psp/gbrv1.5pbe/Cr.UPF
     MD5 check sum: 0d52af634a40206e4dee301ad30da4bf
     Pseudo is Ultrasoft + core correction, Zval = 14.0
     Generated by new atomic code, or converted to UPF format
     Using radial grid of  857 points,  6 beta functions with:
                l(1) =   0
                l(2) =   0
                l(3) =   1
                l(4) =   1
                l(5) =   2
                l(6) =   2
     Q(r) pseudized with  8 coefficients,  rinner =    0.950   0.950   0.950
                                                       0.950   0.950

     PseudoPot. # 2 for S  read from file:
     /u/if/mamunm/psp/gbrv1.5pbe/S.UPF
     MD5 check sum: 88d86576ff6df21479756cfb9bdac1df
     Pseudo is Ultrasoft + core correction, Zval =  6.0
     Generated by new atomic code, or converted to UPF format
     Using radial grid of  907 points,  6 beta functions with:
                l(1) =   0
                l(2) =   0
                l(3) =   1
                l(4) =   1
                l(5) =   2
                l(6) =   2
     Q(r) pseudized with  8 coefficients,  rinner =    1.300   1.300   1.300
                                                       1.300   1.300

     PseudoPot. # 3 for H  read from file:
     /u/if/mamunm/psp/gbrv1.5pbe/H.UPF
     MD5 check sum: 761ae9a214b05c3daf00ab9f6b793d6f
     Pseudo is Ultrasoft, Zval =  1.0
     Generated by new atomic code, or converted to UPF format
     Using radial grid of  615 points,  2 beta functions with:
                l(1) =   0
                l(2) =   0
     Q(r) pseudized with  8 coefficients,  rinner =    0.700

     vdW kernel table read from file vdW_kernel_table
     MD5 check sum: 095c7af220d748ca6e76c0b4c6cfb241

     atomic species   valence    mass     pseudopotential
        Cr1           14.00    51.99610     Cr( 1.00)
        S1             6.00    32.06000     S ( 1.00)
        H1             1.00     1.00800     H ( 1.00)

     No symmetry found

   Cartesian axes

     site n.     atom                  positions (alat units)
         1           Cr1 tau(   1) = (   1.2831471   0.7408253  10.0000000  )
         2           Cr1 tau(   2) = (   3.8494412   0.7408253  10.0000000  )
         3           Cr1 tau(   3) = (   2.5662941   2.9633012  10.0000000  )
         4           Cr1 tau(   4) = (   5.1325882   2.9633012  10.0000000  )
         5           Cr1 tau(   5) = (   5.1325882   1.4816506  12.0953704  )
         6           Cr1 tau(   6) = (   2.5662941   1.4816506  12.0953704  )
         7           Cr1 tau(   7) = (   6.4157353   3.7041265  12.0953704  )
         8           Cr1 tau(   8) = (   3.8494412   3.7041265  12.0953704  )
         9           Cr1 tau(   9) = (   0.0000000   0.0000000  14.1907408  )
        10           Cr1 tau(  10) = (   2.5662941   0.0000000  14.1907408  )
        11           Cr1 tau(  11) = (   1.2831471   2.2224759  14.1907408  )
        12           Cr1 tau(  12) = (   3.8494412   2.2224759  14.1907408  )
        13           S1  tau(  13) = (   2.5662941   1.4816506  15.7767408  )
        14           H1  tau(  14) = (   2.5662941   1.4816506  17.0267408  )

     number of k points=    20  Fermi-Dirac smearing, width (Ry)=  0.0110
                       cart. coord. in units 2pi/alat
        k(    1) = (   0.0000000   0.0000000   0.0000000), wk =   0.0555556
        k(    2) = (   0.0000000   0.0374957   0.0000000), wk =   0.1111111
        k(    3) = (   0.0000000   0.0749914   0.0000000), wk =   0.1111111
        k(    4) = (   0.0000000  -0.1124872   0.0000000), wk =   0.0555556
        k(    5) = (   0.0324722  -0.0187479   0.0000000), wk =   0.1111111
        k(    6) = (   0.0324722   0.0187479   0.0000000), wk =   0.1111111
        k(    7) = (   0.0324722   0.0562436   0.0000000), wk =   0.1111111
        k(    8) = (   0.0324722  -0.1312350   0.0000000), wk =   0.1111111
        k(    9) = (   0.0324722  -0.0937393   0.0000000), wk =   0.1111111
        k(   10) = (   0.0324722  -0.0562436   0.0000000), wk =   0.1111111
        k(   11) = (   0.0649445  -0.0374957   0.0000000), wk =   0.1111111
        k(   12) = (   0.0649445   0.0000000   0.0000000), wk =   0.1111111
        k(   13) = (   0.0649445   0.0374957   0.0000000), wk =   0.1111111
        k(   14) = (   0.0649445  -0.1499829   0.0000000), wk =   0.1111111
        k(   15) = (   0.0649445  -0.1124872   0.0000000), wk =   0.1111111
        k(   16) = (   0.0649445  -0.0749914   0.0000000), wk =   0.1111111
        k(   17) = (  -0.0974167   0.0562436   0.0000000), wk =   0.0555556
        k(   18) = (  -0.0974167   0.0937393   0.0000000), wk =   0.1111111
        k(   19) = (  -0.0974167   0.1312350   0.0000000), wk =   0.1111111
        k(   20) = (  -0.0974167  -0.0562436   0.0000000), wk =   0.0555556

     Largest allocated arrays     est. size (Mb)     dimensions
     Largest temporary arrays     est. size (Mb)     dimensions

     Check: negative/imaginary core charge=   -0.000004    0.000000

     Initial potential from superposition of free atoms
     Check: negative starting charge=   -0.014776

     starting charge  162.99977, renormalised to  175.00000

     negative rho (up, down):  1.586E-02 0.000E+00

     *
     * You are using vdW-DF for exchange-correlation in this calculation.
     * Please cite the following three references that made this development
     * possible:
     *
     *   M. Dion, H. Rydberg, E. Schroder, D. C. Langreth, and
     *   B. I. Lundqvist, Phys. Rev. Lett. 92, 246401 (2004).
     *
     *   T. Thonhauser, V. R. Cooper, S. Li, A. Puzder, P. Hyldgaard, and
     *   D. C. Langreth, Phys. Rev. B 76, 125112 (2007).
     *
     *   G. Roman-Perez and J. M. Soler, Phys. Rev. Lett. 103, 096102 (2009).
     *
     *
     * If you are using vdW-DF2, please also cite:
     *
     *   K. Lee, E. D. Murray, L. Kong, B. I. Lundqvist, and
     *   D. C. Langreth, Phys. Rev. B 82, 081101(R) (2010).
     *
     *
     * If you are calculating the stress with vdW-DF, please also cite:
     *
     *   R. Sabatini, E. Kucukbenli, B. Kolb, T. Thonhauser, and
     *   S. de Gironcoli, J. Phys.: Condens. Matter 24, 424209 (2012).
     *

     Carrying out vdW-DF run using the following parameters:

     Nqs =      20    Nr_points =    1024   r_max =   100.000
     q_mesh =
               0.00001000     0.04494208     0.09755937     0.15916263
               0.23128650     0.31572767     0.41458969     0.53033537
               0.66584808     0.82450364     1.01025438     1.22772762
               1.48234092     1.78043706     2.12944203     2.53805004
               3.01644009     3.57652955     4.23227104     5.00000000

     Gradients computed in reciprocal space

     Adding external electric field

     Computed dipole along edir(3) :
        Dipole               -3.7587 Ry au,         -9.5537 Debye
        Dipole field         -0.0127 Ry au

        Potential amp.        1.1305 Ry
        Total length         44.5710 bohr

     Starting wfc are  125 randomized atomic wfcs

     Self-consistent Calculation

     iteration #  1     ecut=    36.75 Ry     beta=0.30
     Davidson diagonalization with overlap
     ethr =  1.00E-02,  avg # of iterations =  8.2

[...]

     total energy              =   -1830.65989942 Ry
     Harris-Foulkes estimate   =   -2139.76325718 Ry
     estimated scf accuracy    <     643.83855253 Ry

[...]

     iteration #  3     ecut=    36.75 Ry     beta=0.30
     Davidson diagonalization with overlap
     c_bands:  1 eigenvalues not converged
     ethr =  1.00E-02,  avg # of iterations = 18.4

[...]

     End of self-consistent calculation

          k = 0.0000 0.0000 0.0000 ( 14081 PWs)   bands (ev):

   -69.6219 -69.5364 -69.4820 -69.4817 -69.4796 -69.4701 -69.4424 -69.4319
   -69.4315 -69.3889 -69.3881 -69.3863 -41.2427 -41.2088 -41.2086 -41.1945
   -41.1355 -41.1319 -41.1318 -41.0534 -41.0410 -41.0407 -40.8922 -40.8290
   -40.8139 -40.8136 -40.7752 -40.7749 -40.7706 -40.7078 -40.7078 -40.6987
   -40.6467 -40.6466 -40.6321 -40.6031 -40.6030 -40.5836 -40.5723 -40.5402
   -40.5401 -40.5285 -40.5282 -40.5277 -40.4590 -40.4590 -40.3982 -40.3982
   -13.3239  -6.5924  -4.4265  -2.8327  -2.8327  -2.5972  -1.7729  -1.5529
    -1.5529  -1.4370  -1.2267  -1.0769  -1.0768  -0.8872  -0.7888  -0.7887
    -0.6629  -0.5796  -0.5795   0.2343   0.2344   0.3155   0.8876   1.2103
     1.2103   1.2468   1.3750   1.6603   1.6603   1.8092   1.8093   1.8596
     1.9173   1.9173   1.9288   1.9959   1.9959   2.0607   2.1862   2.1864
     2.5889   2.6290   2.6291   2.9867   3.0152   3.0154   3.2700   3.2700
     3.3698

[...]

          k =-0.0974 0.0562 0.0000 ( 14010 PWs)   bands (ev):

[...]

     the Fermi energy is     2.0847 ev

!    total energy              =   -2140.58918052 Ry
     Harris-Foulkes estimate   =   -2140.58920175 Ry
     estimated scf accuracy    <       0.00000495 Ry

     The total energy is the sum of the following terms:

     one-electron contribution =  -20089.07118055 Ry
     hartree contribution      =   10042.55559791 Ry
     xc contribution           =    -289.00596009 Ry
     ewald contribution        =    8195.06708556 Ry
     electric field correction =       0.00044085 Ry
     smearing contrib. (-TS)   =      -0.13516420 Ry

     convergence has been achieved in  52 iterations

 BEEF-vdW xc energy contributions
           1 :   -250.059955992330
           2 :    225.059745419145
           3 :   -183.263427230063
           4 :    137.148132892142
           5 :   -98.1064666020404
           6 :    72.3534231309685
           7 :   -59.7238165546902
           8 :    55.4464100311599
           9 :   -53.5540992962480
          10 :    49.9803129438109
          11 :   -43.9030317934823
          12 :    37.0562316920290
          13 :   -31.8487843859293
          14 :    29.5870990289572
          15 :   -29.7755077416431
          16 :    30.6729114638181
          17 :   -30.5407022993530
          18 :    28.7054212589409
          19 :   -25.8074508788260
          20 :    23.1886782877874
          21 :   -21.9147071361988
          22 :    22.0962032716746
          23 :   -22.9105535688167
          24 :    23.2301976487698
          25 :   -22.3856373783098
          26 :    20.5543001681498
          27 :   -18.5646893548617
          28 :    17.2996209617696
          29 :   -17.1190097362823
          30 :    17.6670038120160
          31 :   -24.9042712063722
          32 :   -17.9030762166586

     Forces acting on atoms (Ry/au):

     negative rho (up, down):  1.452E-02 0.000E+00
     atom    1 type  1   force =    -0.00187509   -0.00105774    0.00026398
     atom    2 type  1   force =     0.00187214   -0.00107486    0.00024774
     atom    3 type  1   force =    -0.00000549    0.00214758    0.00022400
     atom    4 type  1   force =     0.00000306   -0.00001996    0.00138154
     atom    5 type  1   force =    -0.00001928   -0.00212324   -0.00539606
     atom    6 type  1   force =     0.00001706   -0.00000409    0.00658643
     atom    7 type  1   force =     0.00181929    0.00108612   -0.00542362
     atom    8 type  1   force =    -0.00183160    0.00105130   -0.00537568
     atom    9 type  1   force =    -0.00000931    0.00002197   -0.02314520
     atom   10 type  1   force =     0.00000370   -0.06455761   -0.01551271
     atom   11 type  1   force =    -0.05590366    0.03226793   -0.01556342
     atom   12 type  1   force =     0.05592625    0.03226817   -0.01552925
     atom   13 type  2   force =     0.00000036   -0.00000490   -0.06393142
     atom   14 type  3   force =     0.00000258   -0.00000068    0.14117369

     Total force =     0.194371     Total SCF correction =     0.003886

     entering subroutine stress ...

     negative rho (up, down):  1.452E-02 0.000E+00
          total   stress  (Ry/bohr**3)                   (kbar)     P=   -9.18
  -0.00016852  -0.00000001   0.00000002        -24.79     -0.00      0.00
  -0.00000001  -0.00016848  -0.00000000         -0.00    -24.78     -0.00
   0.00000002  -0.00000000   0.00014975          0.00     -0.00     22.03

     BFGS Geometry Optimization

     number of scf cycles    =   1
     number of bfgs steps    =   0

     energy   new            =   -2140.5891805153 Ry

     new trust radius        =       0.1411736887 bohr
     new conv_thr            =       0.0000099958 Ry

ATOMIC_POSITIONS (crystal)
Cr1      0.166666667   0.166666667   0.413381306    0   0   0
Cr1      0.666666667   0.166666667   0.413381306    0   0   0
Cr1      0.166666667   0.666666667   0.413381306    0   0   0
Cr1      0.666666667   0.666666667   0.413381306    0   0   0
Cr1      0.833333333   0.333333333   0.500000000    0   0   0
Cr1      0.333333333   0.333333333   0.500000000    0   0   0
Cr1      0.833333333   0.833333333   0.500000000    0   0   0
Cr1      0.333333333   0.833333333   0.500000000    0   0   0
Cr1     -0.000002267   0.000002616   0.586112388
Cr1      0.503843215  -0.007685666   0.586279351
Cr1     -0.007684517   0.503841539   0.586278241
Cr1      0.503845294   0.503841566   0.586278989
S1       0.333333662   0.333332750   0.650782457
H1       0.333333639   0.333333253   0.706941835

     Writing output data file calc.save
     Check: negative starting charge=   -0.014776
     NEW-OLD atomic charge density approx. for the potential

     Check: negative/imaginary core charge=   -0.000004    0.000000
     Check: negative starting charge=   -0.013901

[...]

     energy   old            =   -2140.5891805153 Ry
     energy   new            =   -2140.6114606468 Ry

     CASE: energy  _new < energy  _old

[...]

     iteration #  1     ecut=    36.75 Ry     beta=0.30
     Davidson diagonalization with overlap
     c_bands:  1 eigenvalues not converged
     ethr =  1.00E-06,  avg # of iterations = 16.4

[...]

     CASE: energy  _new > energy  _old

[...]

     Total force =     0.005861     Total SCF correction =     0.000253

[...]

     number of scf cycles    =  15
     number of bfgs steps    =  13

     energy   old            =   -2140.6406799853 Ry
     energy   new            =   -2140.6407625997 Ry

     CASE: energy  _new < energy  _old

     new trust radius        =       0.0154967766 bohr
     new conv_thr            =       0.0000001000 Ry

ATOMIC_POSITIONS (crystal)
Cr1      0.166666667   0.166666667   0.413381306    0   0   0
Cr1      0.666666667   0.166666667   0.413381306    0   0   0
Cr1      0.166666667   0.666666667   0.413381306    0   0   0
Cr1      0.666666667   0.666666667   0.413381306    0   0   0
Cr1      0.833333333   0.333333333   0.500000000    0   0   0
Cr1      0.333333333   0.333333333   0.500000000    0   0   0
Cr1      0.833333333   0.833333333   0.500000000    0   0   0
Cr1      0.333333333   0.833333333   0.500000000    0   0   0
Cr1     -0.000002812   0.000002837   0.570304966
Cr1      0.515582085  -0.031168008   0.591548212
Cr1     -0.031147859   0.515576325   0.591546636
Cr1      0.515579964   0.515587039   0.591547798
S1       0.333342424   0.333328823   0.657878766
H1       0.333330933   0.333335275   0.714631072

     Writing output data file calc.save
     Check: negative starting charge=   -0.014767
     NEW-OLD atomic charge density approx. for the potential

     Check: negative/imaginary core charge=   -0.000004    0.000000
     Check: negative starting charge=   -0.014458

[...]

     Self-consistent Calculation

[...]

     total energy              =   -2140.64083714 Ry
     Harris-Foulkes estimate   =   -2140.64083719 Ry
     estimated scf accuracy    <       0.00000017 Ry

     iteration # 27     ecut=    36.75 Ry     beta=0.30
     Davidson diagonalization with overlap
     ethr =  9.90E-11,  avg # of iterations =  1.2

[...]

     negative rho (up, down):  1.428E-02 0.000E+00

     Adding external electric field

     Computed dipole along edir(3) :
        Dipole                0.3549 Ry au,          0.9020 Debye
        Dipole field          0.0012 Ry au

        Potential amp.       -0.1067 Ry
        Total length         44.5710 bohr

     End of self-consistent calculation

[...]

          k = 0.0649-0.0750 0.0000 ( 13990 PWs)   bands (ev):

[...]

          k =-0.0974-0.0562 0.0000 ( 14010 PWs)   bands (ev):

   -69.6840 -69.6676 -69.6254 -69.5612 -69.5313 -69.5150 -69.4996 -69.4921
   -69.4798 -69.4553 -69.4315 -69.4271 -41.3948 -41.2993 -41.2417 -41.2256
   -41.1692 -41.1158 -41.0897 -41.0337 -41.0248 -40.9836 -40.9755 -40.9708
   -40.9507 -40.8865 -40.8779 -40.8558 -40.8426 -40.8348 -40.8005 -40.7631
   -40.7494 -40.7442 -40.7246 -40.7169 -40.7058 -40.7012 -40.6910 -40.6760
   -40.6475 -40.6226 -40.5703 -40.5527 -40.5231 -40.5073 -40.4931 -40.4706
   -12.6861  -5.7421  -3.2102  -2.7093  -2.4279  -2.3483  -1.3967  -1.1535
    -0.8827  -0.8739  -0.8269  -0.8043  -0.7427  -0.4551  -0.2878  -0.2220
    -0.1146  -0.0139   0.0810   0.1967   0.2993   0.4879   0.5411   0.5905
     0.6211   0.7366   0.8415   0.9051   0.9900   1.0585   1.2884   1.3154
     1.3178   1.3862   1.4881   1.6030   1.6739   1.6777   1.7202   1.8012
     2.0505   2.0677   2.3705   2.4042   2.4765   2.5332   2.6848   2.8835
     2.9301

     the Fermi energy is     2.0585 ev

!    total energy              =   -2140.64083704 Ry
     Harris-Foulkes estimate   =   -2140.64083555 Ry
     estimated scf accuracy    <       0.00000009 Ry

     The total energy is the sum of the following terms:

     one-electron contribution =  -20025.60468137 Ry
     hartree contribution      =   10010.41617491 Ry
     xc contribution           =    -288.94895713 Ry
     ewald contribution        =    8163.61932301 Ry
     electric field correction =       0.00042490 Ry
     smearing contrib. (-TS)   =      -0.12312136 Ry

     convergence has been achieved in  27 iterations

 BEEF-vdW xc energy contributions
           1 :   -250.009281170531
           2 :    224.973015743237
           3 :   -183.116113203961
           4 :    136.924103125111
           5 :   -97.7931521704243
           6 :    71.9429533583703
           7 :   -59.2193788112810
           8 :    54.8738377133159
           9 :   -52.9708122658235
          10 :    49.4676485391535
          11 :   -43.5331501043127
          12 :    36.8451342412312
          13 :   -31.7292528834262
          14 :    29.4336181214656
          15 :   -29.4786049167299
          16 :    30.2173633676136
          17 :   -30.0278248578423
          18 :    28.2936223258989
          19 :   -25.6051296990937
          20 :    23.1733148438008
          21 :   -21.9380651492491
          22 :    21.9769908072653
          23 :   -22.5548898341688
          24 :    22.6989603350874
          25 :   -21.8619295115424
          26 :    20.2302204582722
          27 :   -18.5195069937150
          28 :    17.4475234397108
          29 :   -17.2608103291325
          30 :    17.6141636349232
          31 :   -24.8990959426771
          32 :   -17.8820781193510

     Forces acting on atoms (Ry/au):

     negative rho (up, down):  1.428E-02 0.000E+00
     atom    1 type  1   force =    -0.00128308   -0.00074195   -0.00202274
     atom    2 type  1   force =     0.00128493   -0.00074245   -0.00202401
     atom    3 type  1   force =    -0.00000029    0.00148233   -0.00202209
     atom    4 type  1   force =    -0.00000133    0.00000242    0.00643068
     atom    5 type  1   force =    -0.00000180    0.01853693   -0.01374964
     atom    6 type  1   force =     0.00000240   -0.00000129    0.04519200
     atom    7 type  1   force =    -0.01605622   -0.00926598   -0.01375049
     atom    8 type  1   force =     0.01605575   -0.00926865   -0.01375074
     atom    9 type  1   force =    -0.00000129    0.00000063   -0.00112132
     atom   10 type  1   force =    -0.00000210   -0.00112858   -0.00069339
     atom   11 type  1   force =    -0.00097526    0.00056055   -0.00069207
     atom   12 type  1   force =     0.00097871    0.00056673   -0.00069511
     atom   13 type  2   force =    -0.00000046   -0.00000099   -0.00035939
     atom   14 type  3   force =     0.00000004    0.00000030   -0.00074169

     Total force =     0.002683     Total SCF correction =     0.000781
     SCF correction compared to forces is large: reduce conv_thr to get better values

     entering subroutine stress ...

     negative rho (up, down):  1.428E-02 0.000E+00
          total   stress  (Ry/bohr**3)                   (kbar)     P=  -15.26
  -0.00014708  -0.00000001  -0.00000000        -21.64     -0.00     -0.00
  -0.00000001  -0.00014708  -0.00000001         -0.00    -21.64     -0.00
  -0.00000000  -0.00000001  -0.00001700         -0.00     -0.00     -2.50

     bfgs converged in  16 scf cycles and  14 bfgs steps
     (criteria: energy <  1.0E+00, force <  1.9E-03)

     End of BFGS Geometry Optimization

     Final energy   =   -2140.6408370390 Ry
Begin final coordinates

ATOMIC_POSITIONS (crystal)
Cr1      0.166666667   0.166666667   0.413381306    0   0   0
Cr1      0.666666667   0.166666667   0.413381306    0   0   0
Cr1      0.166666667   0.666666667   0.413381306    0   0   0
Cr1      0.666666667   0.666666667   0.413381306    0   0   0
Cr1      0.833333333   0.333333333   0.500000000    0   0   0
Cr1      0.333333333   0.333333333   0.500000000    0   0   0
Cr1      0.833333333   0.833333333   0.500000000    0   0   0
Cr1      0.333333333   0.833333333   0.500000000    0   0   0
Cr1     -0.000002812   0.000002837   0.570304966
Cr1      0.515582085  -0.031168008   0.591548212
Cr1     -0.031147859   0.515576325   0.591546636
Cr1      0.515579964   0.515587039   0.591547798
S1       0.333342424   0.333328823   0.657878766
H1       0.333330933   0.333335275   0.714631072
End final coordinates

     Writing output data file calc.save

     General routines

     Parallel routines

   This run was terminated on:   3: 6:45  17Apr2018

   JOB DONE.
Job  /afs/slac/g/suncat/bin/suncat-tsmpirun -x LD_LIBRARY_PATH -wdir /scratch/qe159196_QkYrm pw.x -npool 4 -in pw.inp

TID   HOST_NAME   COMMAND_LINE            STATUS            TERMINATION_TIME
00000 suncat0086 pw.x -npool 4 -i  Done                     04/17/2018 03:06:45
00001 suncat0086 pw.x -npool 4 -i  Done                     04/17/2018 03:06:45
00002 suncat0086 pw.x -npool 4 -i  Done                     04/17/2018 03:06:45
00003 suncat0086 pw.x -npool 4 -i  Done                     04/17/2018 03:06:45
00004 suncat0086 pw.x -npool 4 -i  Done                     04/17/2018 03:06:45
00005 suncat0086 pw.x -npool 4 -i  Done                     04/17/2018 03:06:45
00006 suncat0086 pw.x -npool 4 -i  Done                     04/17/2018 03:06:45
00007 suncat0086 pw.x -npool 4 -i  Done                     04/17/2018 03:06:45
00008 suncat0072 pw.x -npool 4 -i  Done                     04/17/2018 03:06:45
00009 suncat0072 pw.x -npool 4 -i  Done                     04/17/2018 03:06:45
00010 suncat0072 pw.x -npool 4 -i  Done                     04/17/2018 03:06:45
00011 suncat0072 pw.x -npool 4 -i  Done                     04/17/2018 03:06:45
00012 suncat0072 pw.x -npool 4 -i  Done                     04/17/2018 03:06:45
00013 suncat0072 pw.x -npool 4 -i  Done                     04/17/2018 03:06:45
00014 suncat0072 pw.x -npool 4 -i  Done                     04/17/2018 03:06:45
00015 suncat0072 pw.x -npool 4 -i  Done                     04/17/2018 03:06:45
00016 suncat0016 pw.x -npool 4 -i  Done                     04/17/2018 03:06:45
00017 suncat0016 pw.x -npool 4 -i  Done                     04/17/2018 03:06:45
00018 suncat0016 pw.x -npool 4 -i  Done                     04/17/2018 03:06:45
00019 suncat0016 pw.x -npool 4 -i  Done                     04/17/2018 03:06:45
00020 suncat0016 pw.x -npool 4 -i  Done                     04/17/2018 03:06:45
00021 suncat0016 pw.x -npool 4 -i  Done                     04/17/2018 03:06:45
00022 suncat0016 pw.x -npool 4 -i  Done                     04/17/2018 03:06:45
00023 suncat0016 pw.x -npool 4 -i  Done                     04/17/2018 03:06:45
00024 suncat0014 pw.x -npool 4 -i  Done                     04/17/2018 03:06:45
00025 suncat0014 pw.x -npool 4 -i  Done                     04/17/2018 03:06:45
00026 suncat0014 pw.x -npool 4 -i  Done                     04/17/2018 03:06:45
00027 suncat0014 pw.x -npool 4 -i  Done                     04/17/2018 03:06:45
00028 suncat0014 pw.x -npool 4 -i  Done                     04/17/2018 03:06:45
00029 suncat0014 pw.x -npool 4 -i  Done                     04/17/2018 03:06:45
00030 suncat0014 pw.x -npool 4 -i  Done                     04/17/2018 03:06:45
00031 suncat0014 pw.x -npool 4 -i  Done                     04/17/2018 03:06:45