     Program PWSCF v.5.1rc2 (svn rev. 11289) starts on  2May2018 at 23:11:21

     Current dimensions of program PWSCF are:
     Max number of different atomic species (ntypx) = 10
     Max number of k-points (npk) =  40000
     Max angular momentum in pseudopotentials (lmaxx) =  3
     Presently stress not available with electric field

     IMPORTANT: XC functional enforced from input :
     Exchange-correlation      = BEEF-VDW ( 1  4 27 13 2)
     Any further DFT definition will be discarded
     Please, verify this is what you really want

     Subspace diagonalization in iterative solution of the eigenvalue problem:
     a serial algorithm will be used

     bravais-lattice index     =            0
     lattice parameter (alat)  =       1.8897  a.u.
     unit-cell volume          =    7725.1200 (a.u.)^3
     number of atoms/cell      =           13
     number of atomic types    =            2
     number of electrons       =       136.00
     number of Kohn-Sham states=           78
     kinetic-energy cutoff     =      36.7493  Ry
     charge density cutoff     =     367.4932  Ry
     convergence threshold     =      1.0E-05
     mixing beta               =       0.3000
     number of iterations used =           10  plain     mixing
     Exchange-correlation      = BEEF-VDW ( 1  4 27 13 2)
     nstep                     =           50

     celldm(1)=   1.889726  celldm(2)=   0.000000  celldm(3)=   0.000000
     celldm(4)=   0.000000  celldm(5)=   0.000000  celldm(6)=   0.000000

     crystal axes: (cart. coord. in units of alat)
               a(1) = (   7.152277   0.000000   0.000000 )
               a(2) = (   3.576139   6.194054   0.000000 )
               a(3) = (   0.000000   0.000000  25.839810 )

     reciprocal axes: (cart. coord. in units 2 pi/alat)
               b(1) = (  0.139816 -0.080723  0.000000 )
               b(2) = (  0.000000  0.161445  0.000000 )
               b(3) = (  0.000000  0.000000  0.038700 )

     PseudoPot. # 1 for Y  read from file:
     /u/if/mamunm/psp/gbrv1.5pbe/Y.UPF
     MD5 check sum: d034151ed7554c50b6e82763ed42c788
     Pseudo is Ultrasoft + core correction, Zval = 11.0
     Generated by new atomic code, or converted to UPF format
     Using radial grid of  885 points,  6 beta functions with:
                l(1) =   0
                l(2) =   0
                l(3) =   1
                l(4) =   1
                l(5) =   2
                l(6) =   2
     Q(r) pseudized with  8 coefficients,  rinner =    1.200   1.200   1.200
                                                       1.200   1.200

     PseudoPot. # 2 for C  read from file:
     /u/if/mamunm/psp/gbrv1.5pbe/C.UPF
     MD5 check sum: d1aef80898a10debaa0f26306b886e00
     Pseudo is Ultrasoft + core correction, Zval =  4.0
     Generated by new atomic code, or converted to UPF format
     Using radial grid of  721 points,  4 beta functions with:
                l(1) =   0
                l(2) =   0
                l(3) =   1
                l(4) =   1
     Q(r) pseudized with  8 coefficients,  rinner =    1.100   1.100   1.100

     vdW kernel table read from file vdW_kernel_table
     MD5 check sum: 095c7af220d748ca6e76c0b4c6cfb241

     atomic species   valence    mass     pseudopotential
        Y1            11.00    88.90584     Y ( 1.00)
        C1             4.00    12.01100     C ( 1.00)

     No symmetry found

   Cartesian axes

     site n.     atom                  positions (alat units)
         1           Y1  tau(   1) = (   1.7880693   1.0323423  10.0000000  )
         2           Y1  tau(   2) = (   5.3642080   1.0323423  10.0000000  )
         3           Y1  tau(   3) = (   3.5761386   4.1293692  10.0000000  )
         4           Y1  tau(   4) = (   7.1522773   4.1293692  10.0000000  )
         5           Y1  tau(   5) = (   7.1522773   2.0646846  12.9199050  )
         6           Y1  tau(   6) = (   3.5761386   2.0646846  12.9199050  )
         7           Y1  tau(   7) = (   8.9403466   5.1617115  12.9199050  )
         8           Y1  tau(   8) = (   5.3642080   5.1617115  12.9199050  )
         9           Y1  tau(   9) = (   0.0000000   0.0000000  15.8398100  )
        10           Y1  tau(  10) = (   3.5761386   0.0000000  15.8398100  )
        11           Y1  tau(  11) = (   1.7880693   3.0970269  15.8398100  )
        12           Y1  tau(  12) = (   5.3642080   3.0970269  15.8398100  )
        13           C1  tau(  13) = (   0.0000000   0.0000000  18.1008100  )

     number of k points=    20  Fermi-Dirac smearing, width (Ry)=  0.0110
                       cart. coord. in units 2pi/alat
        k(    1) = (   0.0000000   0.0000000   0.0000000), wk =   0.0555556
        k(    2) = (   0.0000000   0.0269075   0.0000000), wk =   0.1111111
        k(    3) = (   0.0000000   0.0538151   0.0000000), wk =   0.1111111
        k(    4) = (   0.0000000  -0.0807226   0.0000000), wk =   0.0555556
        k(    5) = (   0.0233026  -0.0134538   0.0000000), wk =   0.1111111
        k(    6) = (   0.0233026   0.0134538   0.0000000), wk =   0.1111111
        k(    7) = (   0.0233026   0.0403613   0.0000000), wk =   0.1111111
        k(    8) = (   0.0233026  -0.0941763   0.0000000), wk =   0.1111111
        k(    9) = (   0.0233026  -0.0672688   0.0000000), wk =   0.1111111
        k(   10) = (   0.0233026  -0.0403613   0.0000000), wk =   0.1111111
        k(   11) = (   0.0466052  -0.0269075   0.0000000), wk =   0.1111111
        k(   12) = (   0.0466052   0.0000000   0.0000000), wk =   0.1111111
        k(   13) = (   0.0466052   0.0269075   0.0000000), wk =   0.1111111
        k(   14) = (   0.0466052  -0.1076301   0.0000000), wk =   0.1111111
        k(   15) = (   0.0466052  -0.0807226   0.0000000), wk =   0.1111111
        k(   16) = (   0.0466052  -0.0538151   0.0000000), wk =   0.1111111
        k(   17) = (  -0.0699078   0.0403613   0.0000000), wk =   0.0555556
        k(   18) = (  -0.0699078   0.0672688   0.0000000), wk =   0.1111111
        k(   19) = (  -0.0699078   0.0941763   0.0000000), wk =   0.1111111
        k(   20) = (  -0.0699078  -0.0403613   0.0000000), wk =   0.0555556

     Largest allocated arrays     est. size (Mb)     dimensions
     Largest temporary arrays     est. size (Mb)     dimensions

     Initial potential from superposition of free atoms
     Check: negative starting charge=   -0.000541

     starting charge  135.94633, renormalised to  136.00000

     negative rho (up, down):  5.409E-04 0.000E+00

     *
     * You are using vdW-DF for exchange-correlation in this calculation.
     * Please cite the following three references that made this development
     * possible:
     *
     *   M. Dion, H. Rydberg, E. Schroder, D. C. Langreth, and
     *   B. I. Lundqvist, Phys. Rev. Lett. 92, 246401 (2004).
     *
     *   T. Thonhauser, V. R. Cooper, S. Li, A. Puzder, P. Hyldgaard, and
     *   D. C. Langreth, Phys. Rev. B 76, 125112 (2007).
     *
     *   G. Roman-Perez and J. M. Soler, Phys. Rev. Lett. 103, 096102 (2009).
     *
     *
     * If you are using vdW-DF2, please also cite:
     *
     *   K. Lee, E. D. Murray, L. Kong, B. I. Lundqvist, and
     *   D. C. Langreth, Phys. Rev. B 82, 081101(R) (2010).
     *
     *
     * If you are calculating the stress with vdW-DF, please also cite:
     *
     *   R. Sabatini, E. Kucukbenli, B. Kolb, T. Thonhauser, and
     *   S. de Gironcoli, J. Phys.: Condens. Matter 24, 424209 (2012).
     *

     Carrying out vdW-DF run using the following parameters:

     Nqs =      20    Nr_points =    1024   r_max =   100.000
     q_mesh =
               0.00001000     0.04494208     0.09755937     0.15916263
               0.23128650     0.31572767     0.41458969     0.53033537
               0.66584808     0.82450364     1.01025438     1.22772762
               1.48234092     1.78043706     2.12944203     2.53805004
               3.01644009     3.57652955     4.23227104     5.00000000

     Gradients computed in reciprocal space

     Adding external electric field

     Computed dipole along edir(3) :
        Dipole               -0.0151 Ry au,         -0.0383 Debye
        Dipole field         -0.0000 Ry au

        Potential amp.        0.0023 Ry
        Total length         47.6094 bohr

     Starting wfc are  160 randomized atomic wfcs

     Self-consistent Calculation

     iteration #  1     ecut=    36.75 Ry     beta=0.30
     Davidson diagonalization with overlap
     ethr =  1.00E-02,  avg # of iterations =  2.0

[...]

     total energy              =   -1132.22896262 Ry
     Harris-Foulkes estimate   =   -1135.88424600 Ry
     estimated scf accuracy    <       7.98710644 Ry

[...]

     End of self-consistent calculation

          k = 0.0000 0.0000 0.0000 ( 28997 PWs)   bands (ev):

   -42.9461 -42.9141 -42.9140 -42.8443 -42.8037 -42.8037 -42.7954 -42.3110
   -42.2734 -42.2733 -42.2446 -41.6395 -23.0297 -22.9883 -22.9515 -22.9515
   -22.9481 -22.9339 -22.9339 -22.9309 -22.9309 -22.8720 -22.8054 -22.8054
   -22.7973 -22.7249 -22.6507 -22.6506 -22.6276 -22.6227 -22.6227 -22.5252
   -22.5252 -22.4550 -22.4202 -22.4202 -22.2363 -22.2020 -22.2019 -22.1754
   -22.1286 -22.1272 -22.1271 -22.0263 -22.0263 -21.6722 -21.6722 -21.5540
    -7.3579  -3.7435  -2.7795  -1.7695  -1.0986  -1.0986  -1.0936  -0.9816
    -0.9762  -0.9762  -0.6644  -0.6404  -0.6404  -0.2027  -0.1981  -0.1981
     0.0095   0.0095   0.2286   0.5090   0.5980   0.5980   0.6949   1.1219
     1.1759   1.2156   1.2156   1.4414   1.6007   1.7101

[...]

          k =-0.0699 0.0404 0.0000 ( 29048 PWs)   bands (ev):

[...]

     the Fermi energy is     0.5052 ev

!    total energy              =   -1135.51891481 Ry
     Harris-Foulkes estimate   =   -1135.51894783 Ry
     estimated scf accuracy    <       0.00000386 Ry

     The total energy is the sum of the following terms:

     one-electron contribution =   -5443.58927811 Ry
     hartree contribution      =    2713.46595705 Ry
     xc contribution           =    -342.16852414 Ry
     ewald contribution        =    1936.90707979 Ry
     electric field correction =       0.00081528 Ry
     smearing contrib. (-TS)   =      -0.13496468 Ry

     convergence has been achieved in  27 iterations

 BEEF-vdW xc energy contributions
           1 :   -298.385818230545
           2 :    267.936849139536
           3 :   -215.526647004118
           4 :    154.032823663581
           5 :   -95.4250108223313
           6 :    47.2315728544301
           7 :   -12.0157518294905
           8 :   -10.8895719990470
           9 :    23.1594459656670
          10 :   -26.2324846146990
          11 :    21.4122792494545
          12 :   -10.6847929631471
          13 :   -2.76094830948330
          14 :    14.9624773626715
          15 :   -22.4412087474968
          16 :    23.4981017702333
          17 :   -18.7024955442156
          18 :    10.3043906807965
          19 :   -1.03570630923116
          20 :   -6.93478508375631
          21 :    12.4054534899669
          22 :   -14.9622063602657
          23 :    14.6274212638842
          24 :   -11.7051521085461
          25 :    6.86804848528374
          26 :   -1.24833163103591
          27 :   -3.73270454764719
          28 :    6.82651312997024
          29 :   -7.46109193016622
          30 :    5.95293978613540
          31 :   -28.6357604387815
          32 :   -19.5892862092121

     Forces acting on atoms (Ry/au):

     negative rho (up, down):  1.157E-04 0.000E+00
     atom    1 type  1   force =    -0.00073293   -0.00042931    0.00591628
     atom    2 type  1   force =     0.00073605   -0.00043471    0.00591399
     atom    3 type  1   force =    -0.00000519    0.00085786    0.00592546
     atom    4 type  1   force =     0.00000561    0.00000940    0.00535203
     atom    5 type  1   force =     0.00002530    0.00201241    0.00041495
     atom    6 type  1   force =    -0.00002770   -0.00000611    0.00293623
     atom    7 type  1   force =    -0.00174516   -0.00101658    0.00042968
     atom    8 type  1   force =     0.00174854   -0.00099491    0.00040337
     atom    9 type  1   force =    -0.00000750    0.00000557    0.01258193
     atom   10 type  1   force =     0.00000280   -0.00022852    0.00804784
     atom   11 type  1   force =    -0.00019713    0.00011559    0.00806327
     atom   12 type  1   force =     0.00019741    0.00010853    0.00807862
     atom   13 type  2   force =    -0.00000009    0.00000076   -0.06406365

     Total force =     0.066766     Total SCF correction =     0.006885
     SCF correction compared to forces is large: reduce conv_thr to get better values

     entering subroutine stress ...

     negative rho (up, down):  1.157E-04 0.000E+00
          total   stress  (Ry/bohr**3)                   (kbar)     P=   -5.42
  -0.00002075  -0.00000000  -0.00000000         -3.05     -0.00     -0.00
  -0.00000000  -0.00002076  -0.00000000         -0.00     -3.05     -0.00
  -0.00000000  -0.00000000  -0.00006902         -0.00     -0.00    -10.15

     BFGS Geometry Optimization

     number of scf cycles    =   1
     number of bfgs steps    =   0

     energy   new            =   -1135.5189148058 Ry

     new trust radius        =       0.0640636519 bohr
     new conv_thr            =       0.0000099958 Ry

ATOMIC_POSITIONS (crystal)
Y1       0.166666667   0.166666667   0.386999750    0   0   0
Y1       0.666666667   0.166666667   0.386999750    0   0   0
Y1       0.166666667   0.666666667   0.386999750    0   0   0
Y1       0.666666667   0.666666667   0.386999750    0   0   0
Y1       0.833333333   0.333333333   0.500000000    0   0   0
Y1       0.333333333   0.333333333   0.500000000    0   0   0
Y1       0.833333333   0.833333333   0.500000000    0   0   0
Y1       0.333333333   0.833333333   0.500000000    0   0   0
Y1      -0.000000793   0.000000476   0.613257917
Y1       0.500009969  -0.000019523   0.613165063
Y1      -0.000019523   0.500009875   0.613165379
Y1       0.500009970   0.500009272   0.613165693
C1      -0.000000040   0.000000065   0.699188924

     Writing output data file calc.save
     Check: negative starting charge=   -0.000541
     NEW-OLD atomic charge density approx. for the potential
     Check: negative starting charge=   -0.000541

[...]

     Total force =     0.058301     Total SCF correction =     0.002688

[...]

     energy   old            =   -1135.5189148058 Ry
     energy   new            =   -1135.5231024499 Ry

     CASE: energy  _new < energy  _old

     WARNING: bfgs curvature condition failed, Theta= 0.925
     new trust radius        =       0.0960954778 bohr
     new conv_thr            =       0.0000001000 Ry

[...]

     iteration #  1     ecut=    36.75 Ry     beta=0.30
     Davidson diagonalization with overlap
     c_bands:  1 eigenvalues not converged
     ethr =  1.00E-06,  avg # of iterations = 11.7

[...]

     Total force =     0.003744     Total SCF correction =     0.000221

[...]

     number of scf cycles    =  10
     number of bfgs steps    =   9

     energy   old            =   -1135.5594584814 Ry
     energy   new            =   -1135.5597056230 Ry

     CASE: energy  _new < energy  _old

     new trust radius        =       0.0086582634 bohr
     new conv_thr            =       0.0000001000 Ry

ATOMIC_POSITIONS (crystal)
Y1       0.166666667   0.166666667   0.386999750    0   0   0
Y1       0.666666667   0.166666667   0.386999750    0   0   0
Y1       0.166666667   0.666666667   0.386999750    0   0   0
Y1       0.666666667   0.666666667   0.386999750    0   0   0
Y1       0.833333333   0.333333333   0.500000000    0   0   0
Y1       0.333333333   0.333333333   0.500000000    0   0   0
Y1       0.833333333   0.833333333   0.500000000    0   0   0
Y1       0.333333333   0.833333333   0.500000000    0   0   0
Y1      -0.000003952   0.000000756   0.596987871
Y1       0.500596725  -0.001192797   0.618674689
Y1      -0.001193200   0.500598458   0.618678513
Y1       0.500596269   0.500593680   0.618681677
C1      -0.000001981   0.000002683   0.677003692

     Writing output data file calc.save
     Check: negative starting charge=   -0.000577
     NEW-OLD atomic charge density approx. for the potential
     Check: negative starting charge=   -0.000577

[...]

     Self-consistent Calculation

[...]

     Threshold (ethr) on eigenvalues was too large:
     Diagonalizing with lowered threshold

     Davidson diagonalization with overlap
     ethr =  5.20E-08,  avg # of iterations =  2.7

[...]

     total energy              =   -1135.55971916 Ry
     Harris-Foulkes estimate   =   -1135.55971927 Ry
     estimated scf accuracy    <       0.00000038 Ry

     iteration #  8     ecut=    36.75 Ry     beta=0.30
     Davidson diagonalization with overlap
     ethr =  2.83E-10,  avg # of iterations =  6.0

[...]

     negative rho (up, down):  1.134E-04 0.000E+00

     Adding external electric field

     Computed dipole along edir(3) :
        Dipole               -0.3551 Ry au,         -0.9025 Debye
        Dipole field         -0.0006 Ry au

        Potential amp.        0.0550 Ry
        Total length         47.6094 bohr

     End of self-consistent calculation

[...]

          k = 0.0466-0.0538 0.0000 ( 29098 PWs)   bands (ev):

[...]

          k =-0.0699-0.0404 0.0000 ( 29048 PWs)   bands (ev):

   -42.8395 -42.8292 -42.8186 -42.5552 -42.5512 -42.5327 -42.5298 -42.0930
   -42.0191 -42.0066 -41.9969 -40.9251 -22.8531 -22.8363 -22.8274 -22.8198
   -22.7277 -22.7200 -22.6933 -22.6725 -22.6049 -22.5983 -22.5689 -22.5662
   -22.5367 -22.5304 -22.5282 -22.4751 -22.4729 -22.4402 -22.4399 -22.3099
   -22.3029 -22.1386 -22.1274 -22.0367 -22.0157 -22.0026 -21.9757 -21.9675
   -21.9543 -21.9330 -21.9250 -21.8383 -21.8200 -21.0741 -20.9887 -20.9774
    -7.0036  -2.2994  -2.2312  -1.5338  -1.2894  -0.7045  -0.6269  -0.5758
    -0.3499  -0.2933  -0.1379  -0.1246   0.1148   0.3056   0.5165   0.5507
     0.5853   0.6249   0.6995   0.7609   0.7906   0.8369   0.9152   0.9673
     1.0190   1.1457   1.1675   1.2823   1.3290   1.3413

     the Fermi energy is     0.7693 ev

!    total energy              =   -1135.55971916 Ry
     Harris-Foulkes estimate   =   -1135.55972030 Ry
     estimated scf accuracy    <       0.00000006 Ry

     The total energy is the sum of the following terms:

     one-electron contribution =   -5490.56608777 Ry
     hartree contribution      =    2738.05116745 Ry
     xc contribution           =    -342.28786364 Ry
     ewald contribution        =    1959.37070846 Ry
     electric field correction =       0.00020507 Ry
     smearing contrib. (-TS)   =      -0.12784874 Ry

     convergence has been achieved in   8 iterations

 BEEF-vdW xc energy contributions
           1 :   -298.503809847287
           2 :    268.088484906670
           3 :   -215.717637324859
           4 :    154.238126036346
           5 :   -95.5950817252068
           6 :    47.3112722965532
           7 :   -11.9808177225198
           8 :   -11.0100485317985
           9 :    23.2992258696679
          10 :   -26.3295794728581
          11 :    21.4440106564020
          12 :   -10.6760638036600
          13 :   -2.75833777889130
          14 :    14.9078336385344
          15 :   -22.3350789856317
          16 :    23.3794815143173
          17 :   -18.6153281007942
          18 :    10.2636048933085
          19 :   -1.02043996006103
          20 :   -6.95853102162448
          21 :    12.4547453583455
          22 :   -15.0253070416227
          23 :    14.6766464110984
          24 :   -11.7220917268776
          25 :    6.86199226651274
          26 :   -1.25248268320024
          27 :   -3.68614950790504
          28 :    6.73156108761145
          29 :   -7.34078515296585
          30 :    5.83794579506730
          31 :   -28.6450013283248
          32 :   -19.6070513499902

     Forces acting on atoms (Ry/au):

     negative rho (up, down):  1.134E-04 0.000E+00
     atom    1 type  1   force =     0.00016259    0.00009447    0.00574705
     atom    2 type  1   force =    -0.00016303    0.00009466    0.00574696
     atom    3 type  1   force =     0.00000004   -0.00018839    0.00574731
     atom    4 type  1   force =    -0.00000052   -0.00000031    0.00627695
     atom    5 type  1   force =     0.00000002    0.01016429   -0.01230102
     atom    6 type  1   force =     0.00000040    0.00000026    0.01552084
     atom    7 type  1   force =    -0.00880172   -0.00508172   -0.01230546
     atom    8 type  1   force =     0.00880136   -0.00508204   -0.01230293
     atom    9 type  1   force =     0.00000413   -0.00000088   -0.00089134
     atom   10 type  1   force =    -0.00000175   -0.00021351   -0.00054943
     atom   11 type  1   force =    -0.00018511    0.00010516   -0.00055447
     atom   12 type  1   force =     0.00018510    0.00010726   -0.00055827
     atom   13 type  2   force =    -0.00000153    0.00000074    0.00042382

     Total force =     0.001425     Total SCF correction =     0.000449
     SCF correction compared to forces is large: reduce conv_thr to get better values

     entering subroutine stress ...

     negative rho (up, down):  1.134E-04 0.000E+00
          total   stress  (Ry/bohr**3)                   (kbar)     P=   -4.79
  -0.00003927   0.00000000  -0.00000000         -5.78      0.00     -0.00
   0.00000000  -0.00003928   0.00000000          0.00     -5.78      0.00
  -0.00000000   0.00000000  -0.00001916         -0.00      0.00     -2.82

     bfgs converged in  11 scf cycles and  10 bfgs steps
     (criteria: energy <  1.0E+00, force <  1.9E-03)

     End of BFGS Geometry Optimization

     Final energy   =   -1135.5597191621 Ry
Begin final coordinates

ATOMIC_POSITIONS (crystal)
Y1       0.166666667   0.166666667   0.386999750    0   0   0
Y1       0.666666667   0.166666667   0.386999750    0   0   0
Y1       0.166666667   0.666666667   0.386999750    0   0   0
Y1       0.666666667   0.666666667   0.386999750    0   0   0
Y1       0.833333333   0.333333333   0.500000000    0   0   0
Y1       0.333333333   0.333333333   0.500000000    0   0   0
Y1       0.833333333   0.833333333   0.500000000    0   0   0
Y1       0.333333333   0.833333333   0.500000000    0   0   0
Y1      -0.000003952   0.000000756   0.596987871
Y1       0.500596725  -0.001192797   0.618674689
Y1      -0.001193200   0.500598458   0.618678513
Y1       0.500596269   0.500593680   0.618681677
C1      -0.000001981   0.000002683   0.677003692
End final coordinates

     Writing output data file calc.save

     General routines

     Parallel routines

   This run was terminated on:   1:18:34   3May2018

   JOB DONE.
Job  /afs/slac/g/suncat/bin/suncat-tsmpirun -x LD_LIBRARY_PATH -wdir /scratch/qe538124_7JArY pw.x -npool 4 -in pw.inp

TID   HOST_NAME   COMMAND_LINE            STATUS            TERMINATION_TIME
00000 suncat0010 pw.x -npool 4 -i  Done                     05/03/2018 01:18:34
00001 suncat0010 pw.x -npool 4 -i  Done                     05/03/2018 01:18:34
00002 suncat0010 pw.x -npool 4 -i  Done                     05/03/2018 01:18:34
00003 suncat0010 pw.x -npool 4 -i  Done                     05/03/2018 01:18:34
00004 suncat0010 pw.x -npool 4 -i  Done                     05/03/2018 01:18:34
00005 suncat0010 pw.x -npool 4 -i  Done                     05/03/2018 01:18:34
00006 suncat0010 pw.x -npool 4 -i  Done                     05/03/2018 01:18:34
00007 suncat0010 pw.x -npool 4 -i  Done                     05/03/2018 01:18:34
00008 suncat0191 pw.x -npool 4 -i  Done                     05/03/2018 01:18:34
00009 suncat0191 pw.x -npool 4 -i  Done                     05/03/2018 01:18:34
00010 suncat0191 pw.x -npool 4 -i  Done                     05/03/2018 01:18:34
00011 suncat0191 pw.x -npool 4 -i  Done                     05/03/2018 01:18:34
00012 suncat0191 pw.x -npool 4 -i  Done                     05/03/2018 01:18:34
00013 suncat0191 pw.x -npool 4 -i  Done                     05/03/2018 01:18:34
00014 suncat0191 pw.x -npool 4 -i  Done                     05/03/2018 01:18:34
00015 suncat0191 pw.x -npool 4 -i  Done                     05/03/2018 01:18:34
00016 suncat0145 pw.x -npool 4 -i  Done                     05/03/2018 01:18:34
00017 suncat0145 pw.x -npool 4 -i  Done                     05/03/2018 01:18:34
00018 suncat0145 pw.x -npool 4 -i  Done                     05/03/2018 01:18:34
00019 suncat0145 pw.x -npool 4 -i  Done                     05/03/2018 01:18:34
00020 suncat0145 pw.x -npool 4 -i  Done                     05/03/2018 01:18:34
00021 suncat0145 pw.x -npool 4 -i  Done                     05/03/2018 01:18:34
00022 suncat0145 pw.x -npool 4 -i  Done                     05/03/2018 01:18:34
00023 suncat0145 pw.x -npool 4 -i  Done                     05/03/2018 01:18:34
00024 suncat0143 pw.x -npool 4 -i  Done                     05/03/2018 01:18:34
00025 suncat0143 pw.x -npool 4 -i  Done                     05/03/2018 01:18:34
00026 suncat0143 pw.x -npool 4 -i  Done                     05/03/2018 01:18:34
00027 suncat0143 pw.x -npool 4 -i  Done                     05/03/2018 01:18:34
00028 suncat0143 pw.x -npool 4 -i  Done                     05/03/2018 01:18:34
00029 suncat0143 pw.x -npool 4 -i  Done                     05/03/2018 01:18:34
00030 suncat0143 pw.x -npool 4 -i  Done                     05/03/2018 01:18:34
00031 suncat0143 pw.x -npool 4 -i  Done                     05/03/2018 01:18:34