     Program PWSCF v.5.1rc2 (svn rev. 11289) starts on  3May2018 at  9:26:49

     Current dimensions of program PWSCF are:
     Max number of different atomic species (ntypx) = 10
     Max number of k-points (npk) =  40000
     Max angular momentum in pseudopotentials (lmaxx) =  3
     Presently stress not available with electric field

     IMPORTANT: XC functional enforced from input :
     Exchange-correlation      = BEEF-VDW ( 1  4 27 13 2)
     Any further DFT definition will be discarded
     Please, verify this is what you really want

     Subspace diagonalization in iterative solution of the eigenvalue problem:
     a serial algorithm will be used

     bravais-lattice index     =            0
     lattice parameter (alat)  =       1.8897  a.u.
     unit-cell volume          =    5182.3421 (a.u.)^3
     number of atoms/cell      =           13
     number of atomic types    =            2
     number of electrons       =       161.00
     number of Kohn-Sham states=           90
     kinetic-energy cutoff     =      36.7493  Ry
     charge density cutoff     =     367.4932  Ry
     convergence threshold     =      1.0E-05
     mixing beta               =       0.3000
     number of iterations used =           10  plain     mixing
     Exchange-correlation      = BEEF-VDW ( 1  4 27 13 2)
     nstep                     =           50

     celldm(1)=   1.889726  celldm(2)=   0.000000  celldm(3)=   0.000000
     celldm(4)=   0.000000  celldm(5)=   0.000000  celldm(6)=   0.000000

     crystal axes: (cart. coord. in units of alat)
               a(1) = (   5.970602   0.000000   0.000000 )
               a(2) = (   2.985301   5.170693   0.000000 )
               a(3) = (   0.000000   0.000000  24.874976 )

     reciprocal axes: (cart. coord. in units 2 pi/alat)
               b(1) = (  0.167487 -0.096699  0.000000 )
               b(2) = (  0.000000  0.193398  0.000000 )
               b(3) = (  0.000000  0.000000  0.040201 )

     PseudoPot. # 1 for Nb read from file:
     /u/if/mamunm/psp/gbrv1.5pbe/Nb.UPF
     MD5 check sum: 573aab8a2fa660278ed4a62cd769473f
     Pseudo is Ultrasoft + core correction, Zval = 13.0
     Generated by new atomic code, or converted to UPF format
     Using radial grid of  887 points,  6 beta functions with:
                l(1) =   0
                l(2) =   0
                l(3) =   1
                l(4) =   1
                l(5) =   2
                l(6) =   2
     Q(r) pseudized with  6 coefficients,  rinner =    1.000   1.000   1.000
                                                       1.000   1.000

     PseudoPot. # 2 for N  read from file:
     /u/if/mamunm/psp/gbrv1.5pbe/N.UPF
     MD5 check sum: 95339753478d7afb44899504a8723017
     Pseudo is Ultrasoft + core correction, Zval =  5.0
     Generated by new atomic code, or converted to UPF format
     Using radial grid of  729 points,  4 beta functions with:
                l(1) =   0
                l(2) =   0
                l(3) =   1
                l(4) =   1
     Q(r) pseudized with  8 coefficients,  rinner =    0.900   0.900   0.900

     vdW kernel table read from file vdW_kernel_table
     MD5 check sum: 095c7af220d748ca6e76c0b4c6cfb241

     atomic species   valence    mass     pseudopotential
        Nb1           13.00    92.90637     Nb( 1.00)
        N1             5.00    14.00700     N ( 1.00)

     No symmetry found

   Cartesian axes

     site n.     atom                  positions (alat units)
         1           Nb1 tau(   1) = (   1.4926504   0.8617821  10.0000000  )
         2           Nb1 tau(   2) = (   4.4779512   0.8617821  10.0000000  )
         3           Nb1 tau(   3) = (   2.9853008   3.4471284  10.0000000  )
         4           Nb1 tau(   4) = (   5.9706016   3.4471284  10.0000000  )
         5           Nb1 tau(   5) = (   5.9706016   1.7235642  12.4374879  )
         6           Nb1 tau(   6) = (   2.9853008   1.7235642  12.4374879  )
         7           Nb1 tau(   7) = (   7.4632520   4.3089105  12.4374879  )
         8           Nb1 tau(   8) = (   4.4779512   4.3089105  12.4374879  )
         9           Nb1 tau(   9) = (   0.0000000   0.0000000  14.8749758  )
        10           Nb1 tau(  10) = (   2.9853008   0.0000000  14.8749758  )
        11           Nb1 tau(  11) = (   1.4926504   2.5853463  14.8749758  )
        12           Nb1 tau(  12) = (   4.4779512   2.5853463  14.8749758  )
        13           N1  tau(  13) = (   2.9853008   1.7235642  16.4024758  )

     number of k points=    20  Fermi-Dirac smearing, width (Ry)=  0.0110
                       cart. coord. in units 2pi/alat
        k(    1) = (   0.0000000   0.0000000   0.0000000), wk =   0.0555556
        k(    2) = (   0.0000000   0.0322329   0.0000000), wk =   0.1111111
        k(    3) = (   0.0000000   0.0644659   0.0000000), wk =   0.1111111
        k(    4) = (   0.0000000  -0.0966988   0.0000000), wk =   0.0555556
        k(    5) = (   0.0279146  -0.0161165   0.0000000), wk =   0.1111111
        k(    6) = (   0.0279146   0.0161165   0.0000000), wk =   0.1111111
        k(    7) = (   0.0279146   0.0483494   0.0000000), wk =   0.1111111
        k(    8) = (   0.0279146  -0.1128153   0.0000000), wk =   0.1111111
        k(    9) = (   0.0279146  -0.0805824   0.0000000), wk =   0.1111111
        k(   10) = (   0.0279146  -0.0483494   0.0000000), wk =   0.1111111
        k(   11) = (   0.0558291  -0.0322329   0.0000000), wk =   0.1111111
        k(   12) = (   0.0558291   0.0000000   0.0000000), wk =   0.1111111
        k(   13) = (   0.0558291   0.0322329   0.0000000), wk =   0.1111111
        k(   14) = (   0.0558291  -0.1289318   0.0000000), wk =   0.1111111
        k(   15) = (   0.0558291  -0.0966988   0.0000000), wk =   0.1111111
        k(   16) = (   0.0558291  -0.0644659   0.0000000), wk =   0.1111111
        k(   17) = (  -0.0837437   0.0483494   0.0000000), wk =   0.0555556
        k(   18) = (  -0.0837437   0.0805824   0.0000000), wk =   0.1111111
        k(   19) = (  -0.0837437   0.1128153   0.0000000), wk =   0.1111111
        k(   20) = (  -0.0837437  -0.0483494   0.0000000), wk =   0.0555556

     Largest allocated arrays     est. size (Mb)     dimensions
     Largest temporary arrays     est. size (Mb)     dimensions

     Initial potential from superposition of free atoms
     Check: negative starting charge=   -0.005226

     starting charge  160.96719, renormalised to  161.00000

     negative rho (up, down):  5.227E-03 0.000E+00

     *
     * You are using vdW-DF for exchange-correlation in this calculation.
     * Please cite the following three references that made this development
     * possible:
     *
     *   M. Dion, H. Rydberg, E. Schroder, D. C. Langreth, and
     *   B. I. Lundqvist, Phys. Rev. Lett. 92, 246401 (2004).
     *
     *   T. Thonhauser, V. R. Cooper, S. Li, A. Puzder, P. Hyldgaard, and
     *   D. C. Langreth, Phys. Rev. B 76, 125112 (2007).
     *
     *   G. Roman-Perez and J. M. Soler, Phys. Rev. Lett. 103, 096102 (2009).
     *
     *
     * If you are using vdW-DF2, please also cite:
     *
     *   K. Lee, E. D. Murray, L. Kong, B. I. Lundqvist, and
     *   D. C. Langreth, Phys. Rev. B 82, 081101(R) (2010).
     *
     *
     * If you are calculating the stress with vdW-DF, please also cite:
     *
     *   R. Sabatini, E. Kucukbenli, B. Kolb, T. Thonhauser, and
     *   S. de Gironcoli, J. Phys.: Condens. Matter 24, 424209 (2012).
     *

     Carrying out vdW-DF run using the following parameters:

     Nqs =      20    Nr_points =    1024   r_max =   100.000
     q_mesh =
               0.00001000     0.04494208     0.09755937     0.15916263
               0.23128650     0.31572767     0.41458969     0.53033537
               0.66584808     0.82450364     1.01025438     1.22772762
               1.48234092     1.78043706     2.12944203     2.53805004
               3.01644009     3.57652955     4.23227104     5.00000000

     Gradients computed in reciprocal space

     Adding external electric field

     Computed dipole along edir(3) :
        Dipole               -0.0075 Ry au,         -0.0192 Debye
        Dipole field         -0.0000 Ry au

        Potential amp.        0.0017 Ry
        Total length         45.8317 bohr

     Starting wfc are  160 randomized atomic wfcs

     Self-consistent Calculation

     iteration #  1     ecut=    36.75 Ry     beta=0.30
     Davidson diagonalization with overlap
     ethr =  1.00E-02,  avg # of iterations =  2.0

[...]

     total energy              =   -1440.07896058 Ry
     Harris-Foulkes estimate   =   -1443.13515225 Ry
     estimated scf accuracy    <       6.79239180 Ry

[...]

     End of self-consistent calculation

          k = 0.0000 0.0000 0.0000 ( 19435 PWs)   bands (ev):

   -53.5594 -53.4737 -53.4251 -53.4231 -53.4230 -53.3568 -53.3380 -53.3376
   -53.3309 -53.2652 -53.2595 -53.2595 -29.9793 -29.9793 -29.9772 -29.8993
   -29.8938 -29.8937 -29.8868 -29.8398 -29.8366 -29.8364 -29.5785 -29.4684
   -29.4475 -29.4474 -29.3743 -29.3741 -29.3710 -29.2945 -29.2783 -29.2782
   -29.1914 -29.1869 -29.1868 -29.1442 -29.1367 -29.1367 -29.0782 -29.0673
   -29.0648 -29.0647 -29.0560 -29.0559 -28.9746 -28.9746 -28.8954 -28.8954
   -10.9146  -3.8009  -2.5101  -2.0940  -1.9506  -1.9135  -1.9135  -1.8150
    -1.8150  -1.6629  -1.3206  -1.2849  -1.2849  -1.1753  -1.1753  -1.1712
    -0.4322  -0.4321  -0.1409   0.3585   0.3585   0.5520   1.0527   1.1073
     1.1073   1.3769   1.7603   1.7603   1.8824   1.9726   1.9726   2.0024
     2.0546   2.0546   2.0828   2.1058   2.1058   2.2728   2.4210   2.4210
     3.0111   3.0311

[...]

          k =-0.0837 0.0483 0.0000 ( 19524 PWs)   bands (ev):

[...]

     the Fermi energy is     1.6461 ev

!    total energy              =   -1442.49700195 Ry
     Harris-Foulkes estimate   =   -1442.49702612 Ry
     estimated scf accuracy    <       0.00000460 Ry

     The total energy is the sum of the following terms:

     one-electron contribution =  -11737.73519846 Ry
     hartree contribution      =    5861.74814325 Ry
     xc contribution           =    -233.56679040 Ry
     ewald contribution        =    4667.17062496 Ry
     electric field correction =       0.00024887 Ry
     smearing contrib. (-TS)   =      -0.11403018 Ry

     convergence has been achieved in  18 iterations

 BEEF-vdW xc energy contributions
           1 :   -200.225151475408
           2 :    181.953862026681
           3 :   -150.854429872833
           4 :    115.301923275185
           5 :   -83.2891387614654
           6 :    59.7752941600432
           7 :   -45.6773736608095
           8 :    38.5670683014354
           9 :   -34.4958416150917
          10 :    29.9704922863478
          11 :   -23.2626160850805
          12 :    14.6482693800041
          13 :   -5.72029712002634
          14 :   -1.74247165487597
          15 :    6.73983563039141
          16 :   -9.43637859894338
          17 :    10.8755453244733
          18 :   -12.2778465662094
          19 :    14.3369322437659
          20 :   -16.8948007205867
          21 :    19.1261754232713
          22 :   -20.0797126516137
          23 :    19.2373658114880
          24 :   -16.7913170254678
          25 :    13.5203054885355
          26 :   -10.3803413094874
          27 :    8.05224669100568
          28 :   -6.68431630983343
          29 :    5.93258930892810
          30 :   -5.24508182942949
          31 :   -23.1263258911472
          32 :   -17.4464415155580

     Forces acting on atoms (Ry/au):

     negative rho (up, down):  5.028E-03 0.000E+00
     atom    1 type  1   force =     0.00034822    0.00018924   -0.00441658
     atom    2 type  1   force =    -0.00034806    0.00017216   -0.00440607
     atom    3 type  1   force =    -0.00001080   -0.00038077   -0.00439838
     atom    4 type  1   force =     0.00000428    0.00001507   -0.00908024
     atom    5 type  1   force =    -0.00001939   -0.00085468   -0.00235634
     atom    6 type  1   force =     0.00001565    0.00001102    0.00428666
     atom    7 type  1   force =     0.00075448    0.00043632   -0.00237328
     atom    8 type  1   force =    -0.00075403    0.00040914   -0.00235268
     atom    9 type  1   force =    -0.00000708   -0.00001618   -0.02218654
     atom   10 type  1   force =     0.00001689    0.05093071    0.07938957
     atom   11 type  1   force =     0.04412607   -0.02544523    0.07940560
     atom   12 type  1   force =    -0.04412082   -0.02546188    0.07943497
     atom   13 type  2   force =    -0.00000541   -0.00000492   -0.19094670

     Total force =     0.252298     Total SCF correction =     0.002636

     entering subroutine stress ...

     negative rho (up, down):  5.028E-03 0.000E+00
          total   stress  (Ry/bohr**3)                   (kbar)     P=  -27.14
  -0.00024219   0.00000002   0.00000001        -35.63      0.00      0.00
   0.00000002  -0.00024221   0.00000000          0.00    -35.63      0.00
   0.00000001   0.00000000  -0.00006903          0.00      0.00    -10.15

     BFGS Geometry Optimization

     number of scf cycles    =   1
     number of bfgs steps    =   0

     energy   new            =   -1442.4970019509 Ry

     new trust radius        =       0.1909466958 bohr
     new conv_thr            =       0.0000099958 Ry

ATOMIC_POSITIONS (crystal)
Nb1      0.166666667   0.166666667   0.402010442    0   0   0
Nb1      0.666666667   0.166666667   0.402010442    0   0   0
Nb1      0.166666667   0.666666667   0.402010442    0   0   0
Nb1      0.666666667   0.666666667   0.402010442    0   0   0
Nb1      0.833333333   0.333333333   0.500000000    0   0   0
Nb1      0.333333333   0.333333333   0.500000000    0   0   0
Nb1      0.833333333   0.833333333   0.500000000    0   0   0
Nb1      0.333333333   0.833333333   0.500000000    0   0   0
Nb1      0.000000201  -0.000001656   0.597517573
Nb1      0.497395331   0.005212332   0.599678450
Nb1      0.005212968   0.497395893   0.599678791
Nb1      0.497392457   0.497394189   0.599679416
N1       0.333333106   0.333332830   0.655334553

     Writing output data file calc.save
     Check: negative starting charge=   -0.005226
     NEW-OLD atomic charge density approx. for the potential
     Check: negative starting charge=   -0.005220

[...]

     energy   old            =   -1442.4970019509 Ry
     energy   new            =   -1442.5549465893 Ry

     CASE: energy  _new < energy  _old

[...]

     iteration #  1     ecut=    36.75 Ry     beta=0.30
     Davidson diagonalization with overlap
     c_bands:  1 eigenvalues not converged
     ethr =  1.00E-06,  avg # of iterations = 13.8

[...]

     iteration #  1     ecut=    36.75 Ry     beta=0.30
     Davidson diagonalization with overlap
     c_bands:  1 eigenvalues not converged
     ethr =  1.00E-06,  avg # of iterations = 14.1

[...]

     Total force =     0.006212     Total SCF correction =     0.000596

[...]

     number of scf cycles    =  12
     number of bfgs steps    =  11

     energy   old            =   -1442.6282663659 Ry
     energy   new            =   -1442.6287282685 Ry

     CASE: energy  _new < energy  _old

     new trust radius        =       0.0192305717 bohr
     new conv_thr            =       0.0000001000 Ry

ATOMIC_POSITIONS (crystal)
Nb1      0.166666667   0.166666667   0.402010442    0   0   0
Nb1      0.666666667   0.166666667   0.402010442    0   0   0
Nb1      0.166666667   0.666666667   0.402010442    0   0   0
Nb1      0.666666667   0.666666667   0.402010442    0   0   0
Nb1      0.833333333   0.333333333   0.500000000    0   0   0
Nb1      0.333333333   0.333333333   0.500000000    0   0   0
Nb1      0.833333333   0.833333333   0.500000000    0   0   0
Nb1      0.333333333   0.833333333   0.500000000    0   0   0
Nb1     -0.000001051   0.000002353   0.582886948
Nb1      0.499955614   0.000088137   0.603559393
Nb1      0.000084861   0.499956361   0.603559835
Nb1      0.499957853   0.499955294   0.603559704
N1       0.333333052   0.333336886   0.644533319

     Writing output data file calc.save
     Check: negative starting charge=   -0.005357
     NEW-OLD atomic charge density approx. for the potential
     Check: negative starting charge=   -0.005337

[...]

     Self-consistent Calculation

[...]

     total energy              =   -1442.62883226 Ry
     Harris-Foulkes estimate   =   -1442.62883224 Ry
     estimated scf accuracy    <       0.00000018 Ry

     iteration # 11     ecut=    36.75 Ry     beta=0.30
     Davidson diagonalization with overlap
     ethr =  1.10E-10,  avg # of iterations =  3.7

[...]

     negative rho (up, down):  5.133E-03 0.000E+00

     Adding external electric field

     Computed dipole along edir(3) :
        Dipole               -0.1029 Ry au,         -0.2616 Debye
        Dipole field         -0.0002 Ry au

        Potential amp.        0.0229 Ry
        Total length         45.8317 bohr

     End of self-consistent calculation

[...]

          k = 0.0558-0.0645 0.0000 ( 19505 PWs)   bands (ev):

[...]

          k =-0.0837-0.0483 0.0000 ( 19524 PWs)   bands (ev):

   -53.3002 -53.2684 -53.2326 -53.1618 -53.1575 -53.0917 -53.0870 -53.0757
   -53.0481 -52.9910 -52.9640 -52.8268 -29.7182 -29.6250 -29.5323 -29.5317
   -29.4888 -29.4856 -29.4661 -29.4079 -29.3927 -29.3729 -29.3391 -29.3343
   -29.3278 -29.2884 -29.2311 -29.1857 -29.1788 -29.1545 -29.1088 -29.0955
   -29.0619 -29.0379 -29.0321 -29.0020 -28.9914 -28.9797 -28.9289 -28.8972
   -28.8734 -28.8425 -28.8396 -28.7480 -28.7241 -28.6451 -28.5668 -28.5167
   -11.9442  -2.7513  -2.0814  -2.0447  -1.8701  -1.8132  -1.1064  -0.8502
    -0.7426  -0.6644  -0.6006  -0.5241  -0.3673  -0.1841  -0.0124   0.0246
     0.0722   0.1600   0.2711   0.4574   0.5879   0.8202   0.8203   0.8995
     1.0352   1.0429   1.1633   1.2562   1.4075   1.4630   1.5204   1.5324
     1.5964   1.6662   1.8565   2.0363   2.0421   2.0946   2.2354   2.4388
     2.6392   3.0060

     the Fermi energy is     1.8782 ev

!    total energy              =   -1442.62883227 Ry
     Harris-Foulkes estimate   =   -1442.62883217 Ry
     estimated scf accuracy    <       0.00000003 Ry

     The total energy is the sum of the following terms:

     one-electron contribution =  -11799.52963142 Ry
     hartree contribution      =    5893.85618766 Ry
     xc contribution           =    -233.92884778 Ry
     ewald contribution        =    4697.07923553 Ry
     electric field correction =       0.00002569 Ry
     smearing contrib. (-TS)   =      -0.10580197 Ry

     convergence has been achieved in  11 iterations

 BEEF-vdW xc energy contributions
           1 :   -200.589977691454
           2 :    182.399503735570
           3 :   -151.383907571172
           4 :    115.836136935634
           5 :   -83.7132322133410
           6 :    59.9830001824092
           7 :   -45.6025419908966
           8 :    38.2070256618504
           9 :   -33.9228321787211
          10 :    29.3187856405933
          11 :   -22.6854437836866
          12 :    14.2558319058434
          13 :   -5.53228050264229
          14 :   -1.79987021903213
          15 :    6.79006238048873
          16 :   -9.58763151288187
          17 :    11.1678402349486
          18 :   -12.6661698807231
          19 :    14.7174343547309
          20 :   -17.1612495589499
          21 :    19.2284266558952
          22 :   -20.0545969741146
          23 :    19.1936061220255
          24 :   -16.8536934931761
          25 :    13.7607531697718
          26 :   -10.7743392238619
          27 :    8.48754744674011
          28 :   -7.01943384707053
          29 :    6.07334759908593
          30 :   -5.19488376421100
          31 :   -23.1475697613978
          32 :   -17.4831408064077

     Forces acting on atoms (Ry/au):

     negative rho (up, down):  5.133E-03 0.000E+00
     atom    1 type  1   force =     0.00158565    0.00091621   -0.00510653
     atom    2 type  1   force =    -0.00158574    0.00091629   -0.00510681
     atom    3 type  1   force =     0.00000005   -0.00183367   -0.00510592
     atom    4 type  1   force =     0.00000010   -0.00000018   -0.00248081
     atom    5 type  1   force =     0.00000031    0.03258422   -0.00823097
     atom    6 type  1   force =     0.00000016   -0.00000055    0.04413319
     atom    7 type  1   force =    -0.02821794   -0.01629164   -0.00822765
     atom    8 type  1   force =     0.02821821   -0.01629142   -0.00822834
     atom    9 type  1   force =    -0.00000031   -0.00000189    0.00002303
     atom   10 type  1   force =    -0.00000039    0.00008679   -0.00019932
     atom   11 type  1   force =     0.00007622   -0.00004084   -0.00020079
     atom   12 type  1   force =    -0.00007195   -0.00003758   -0.00020175
     atom   13 type  2   force =    -0.00000437   -0.00000573   -0.00106732

     Total force =     0.001132     Total SCF correction =     0.000572
     SCF correction compared to forces is large: reduce conv_thr to get better values

     entering subroutine stress ...

     negative rho (up, down):  5.133E-03 0.000E+00
          total   stress  (Ry/bohr**3)                   (kbar)     P=  -14.49
  -0.00015356   0.00000000  -0.00000000        -22.59      0.00     -0.00
   0.00000000  -0.00015356  -0.00000000          0.00    -22.59     -0.00
  -0.00000000  -0.00000000   0.00001157         -0.00     -0.00      1.70

     bfgs converged in  13 scf cycles and  12 bfgs steps
     (criteria: energy <  1.0E+00, force <  1.9E-03)

     End of BFGS Geometry Optimization

     Final energy   =   -1442.6288322749 Ry
Begin final coordinates

ATOMIC_POSITIONS (crystal)
Nb1      0.166666667   0.166666667   0.402010442    0   0   0
Nb1      0.666666667   0.166666667   0.402010442    0   0   0
Nb1      0.166666667   0.666666667   0.402010442    0   0   0
Nb1      0.666666667   0.666666667   0.402010442    0   0   0
Nb1      0.833333333   0.333333333   0.500000000    0   0   0
Nb1      0.333333333   0.333333333   0.500000000    0   0   0
Nb1      0.833333333   0.833333333   0.500000000    0   0   0
Nb1      0.333333333   0.833333333   0.500000000    0   0   0
Nb1     -0.000001051   0.000002353   0.582886948
Nb1      0.499955614   0.000088137   0.603559393
Nb1      0.000084861   0.499956361   0.603559835
Nb1      0.499957853   0.499955294   0.603559704
N1       0.333333052   0.333336886   0.644533319
End final coordinates

     Writing output data file calc.save

     General routines

     Parallel routines

   This run was terminated on:  11: 9:10   3May2018

   JOB DONE.
Job  /afs/slac/g/suncat/bin/suncat-tsmpirun -x LD_LIBRARY_PATH -wdir /scratch/qe707426_IgoaZ pw.x -npool 4 -in pw.inp

TID   HOST_NAME   COMMAND_LINE            STATUS            TERMINATION_TIME
00000 suncat0077 pw.x -npool 4 -i  Done                     05/03/2018 11:09:10
00001 suncat0077 pw.x -npool 4 -i  Done                     05/03/2018 11:09:10
00002 suncat0077 pw.x -npool 4 -i  Done                     05/03/2018 11:09:10
00003 suncat0077 pw.x -npool 4 -i  Done                     05/03/2018 11:09:10
00004 suncat0077 pw.x -npool 4 -i  Done                     05/03/2018 11:09:10
00005 suncat0077 pw.x -npool 4 -i  Done                     05/03/2018 11:09:10
00006 suncat0077 pw.x -npool 4 -i  Done                     05/03/2018 11:09:10
00007 suncat0077 pw.x -npool 4 -i  Done                     05/03/2018 11:09:10
00008 suncat0074 pw.x -npool 4 -i  Done                     05/03/2018 11:09:10
00009 suncat0074 pw.x -npool 4 -i  Done                     05/03/2018 11:09:10
00010 suncat0074 pw.x -npool 4 -i  Done                     05/03/2018 11:09:10
00011 suncat0074 pw.x -npool 4 -i  Done                     05/03/2018 11:09:10
00012 suncat0074 pw.x -npool 4 -i  Done                     05/03/2018 11:09:10
00013 suncat0074 pw.x -npool 4 -i  Done                     05/03/2018 11:09:10
00014 suncat0074 pw.x -npool 4 -i  Done                     05/03/2018 11:09:10
00015 suncat0074 pw.x -npool 4 -i  Done                     05/03/2018 11:09:10
00016 suncat0071 pw.x -npool 4 -i  Done                     05/03/2018 11:09:10
00017 suncat0071 pw.x -npool 4 -i  Done                     05/03/2018 11:09:10
00018 suncat0071 pw.x -npool 4 -i  Done                     05/03/2018 11:09:10
00019 suncat0071 pw.x -npool 4 -i  Done                     05/03/2018 11:09:10
00020 suncat0071 pw.x -npool 4 -i  Done                     05/03/2018 11:09:10
00021 suncat0071 pw.x -npool 4 -i  Done                     05/03/2018 11:09:10
00022 suncat0071 pw.x -npool 4 -i  Done                     05/03/2018 11:09:10
00023 suncat0071 pw.x -npool 4 -i  Done                     05/03/2018 11:09:10
00024 suncat0069 pw.x -npool 4 -i  Done                     05/03/2018 11:09:10
00025 suncat0069 pw.x -npool 4 -i  Done                     05/03/2018 11:09:10
00026 suncat0069 pw.x -npool 4 -i  Done                     05/03/2018 11:09:10
00027 suncat0069 pw.x -npool 4 -i  Done                     05/03/2018 11:09:10
00028 suncat0069 pw.x -npool 4 -i  Done                     05/03/2018 11:09:10
00029 suncat0069 pw.x -npool 4 -i  Done                     05/03/2018 11:09:10
00030 suncat0069 pw.x -npool 4 -i  Done                     05/03/2018 11:09:10
00031 suncat0069 pw.x -npool 4 -i  Done                     05/03/2018 11:09:10