     Program PWSCF v.5.1rc2 (svn rev. 11289) starts on  3May2018 at  9:31:19

     Current dimensions of program PWSCF are:
     Max number of different atomic species (ntypx) = 10
     Max number of k-points (npk) =  40000
     Max angular momentum in pseudopotentials (lmaxx) =  3
     Presently stress not available with electric field

     IMPORTANT: XC functional enforced from input :
     Exchange-correlation      = BEEF-VDW ( 1  4 27 13 2)
     Any further DFT definition will be discarded
     Please, verify this is what you really want

     Subspace diagonalization in iterative solution of the eigenvalue problem:
     a serial algorithm will be used

     bravais-lattice index     =            0
     lattice parameter (alat)  =       1.8897  a.u.
     unit-cell volume          =    5182.3421 (a.u.)^3
     number of atoms/cell      =           13
     number of atomic types    =            2
     number of electrons       =       162.00
     number of Kohn-Sham states=           91
     kinetic-energy cutoff     =      36.7493  Ry
     charge density cutoff     =     367.4932  Ry
     convergence threshold     =      1.0E-05
     mixing beta               =       0.3000
     number of iterations used =           10  plain     mixing
     Exchange-correlation      = BEEF-VDW ( 1  4 27 13 2)
     nstep                     =           50

     celldm(1)=   1.889726  celldm(2)=   0.000000  celldm(3)=   0.000000
     celldm(4)=   0.000000  celldm(5)=   0.000000  celldm(6)=   0.000000

     crystal axes: (cart. coord. in units of alat)
               a(1) = (   5.970602   0.000000   0.000000 )
               a(2) = (   2.985301   5.170693   0.000000 )
               a(3) = (   0.000000   0.000000  24.874976 )

     reciprocal axes: (cart. coord. in units 2 pi/alat)
               b(1) = (  0.167487 -0.096699  0.000000 )
               b(2) = (  0.000000  0.193398  0.000000 )
               b(3) = (  0.000000  0.000000  0.040201 )

     PseudoPot. # 1 for Nb read from file:
     /u/if/mamunm/psp/gbrv1.5pbe/Nb.UPF
     MD5 check sum: 573aab8a2fa660278ed4a62cd769473f
     Pseudo is Ultrasoft + core correction, Zval = 13.0
     Generated by new atomic code, or converted to UPF format
     Using radial grid of  887 points,  6 beta functions with:
                l(1) =   0
                l(2) =   0
                l(3) =   1
                l(4) =   1
                l(5) =   2
                l(6) =   2
     Q(r) pseudized with  6 coefficients,  rinner =    1.000   1.000   1.000
                                                       1.000   1.000

     PseudoPot. # 2 for O  read from file:
     /u/if/mamunm/psp/gbrv1.5pbe/O.UPF
     MD5 check sum: 734c27235a0248c51dbae37a1fbe46ec
     Pseudo is Ultrasoft + core correction, Zval =  6.0
     Generated by new atomic code, or converted to UPF format
     Using radial grid of  737 points,  5 beta functions with:
                l(1) =   0
                l(2) =   0
                l(3) =   1
                l(4) =   1
                l(5) =   2
     Q(r) pseudized with  8 coefficients,  rinner =    0.900   0.900   0.900
                                                       0.900   0.900

     vdW kernel table read from file vdW_kernel_table
     MD5 check sum: 095c7af220d748ca6e76c0b4c6cfb241

     atomic species   valence    mass     pseudopotential
        Nb1           13.00    92.90637     Nb( 1.00)
        O1             6.00    15.99900     O ( 1.00)

     No symmetry found

   Cartesian axes

     site n.     atom                  positions (alat units)
         1           Nb1 tau(   1) = (   1.4926504   0.8617821  10.0000000  )
         2           Nb1 tau(   2) = (   4.4779512   0.8617821  10.0000000  )
         3           Nb1 tau(   3) = (   2.9853008   3.4471284  10.0000000  )
         4           Nb1 tau(   4) = (   5.9706016   3.4471284  10.0000000  )
         5           Nb1 tau(   5) = (   5.9706016   1.7235642  12.4374879  )
         6           Nb1 tau(   6) = (   2.9853008   1.7235642  12.4374879  )
         7           Nb1 tau(   7) = (   7.4632520   4.3089105  12.4374879  )
         8           Nb1 tau(   8) = (   4.4779512   4.3089105  12.4374879  )
         9           Nb1 tau(   9) = (   0.0000000   0.0000000  14.8749758  )
        10           Nb1 tau(  10) = (   2.9853008   0.0000000  14.8749758  )
        11           Nb1 tau(  11) = (   1.4926504   2.5853463  14.8749758  )
        12           Nb1 tau(  12) = (   4.4779512   2.5853463  14.8749758  )
        13           O1  tau(  13) = (   1.4926504   0.8617821  16.3699758  )

     number of k points=    20  Fermi-Dirac smearing, width (Ry)=  0.0110
                       cart. coord. in units 2pi/alat
        k(    1) = (   0.0000000   0.0000000   0.0000000), wk =   0.0555556
        k(    2) = (   0.0000000   0.0322329   0.0000000), wk =   0.1111111
        k(    3) = (   0.0000000   0.0644659   0.0000000), wk =   0.1111111
        k(    4) = (   0.0000000  -0.0966988   0.0000000), wk =   0.0555556
        k(    5) = (   0.0279146  -0.0161165   0.0000000), wk =   0.1111111
        k(    6) = (   0.0279146   0.0161165   0.0000000), wk =   0.1111111
        k(    7) = (   0.0279146   0.0483494   0.0000000), wk =   0.1111111
        k(    8) = (   0.0279146  -0.1128153   0.0000000), wk =   0.1111111
        k(    9) = (   0.0279146  -0.0805824   0.0000000), wk =   0.1111111
        k(   10) = (   0.0279146  -0.0483494   0.0000000), wk =   0.1111111
        k(   11) = (   0.0558291  -0.0322329   0.0000000), wk =   0.1111111
        k(   12) = (   0.0558291   0.0000000   0.0000000), wk =   0.1111111
        k(   13) = (   0.0558291   0.0322329   0.0000000), wk =   0.1111111
        k(   14) = (   0.0558291  -0.1289318   0.0000000), wk =   0.1111111
        k(   15) = (   0.0558291  -0.0966988   0.0000000), wk =   0.1111111
        k(   16) = (   0.0558291  -0.0644659   0.0000000), wk =   0.1111111
        k(   17) = (  -0.0837437   0.0483494   0.0000000), wk =   0.0555556
        k(   18) = (  -0.0837437   0.0805824   0.0000000), wk =   0.1111111
        k(   19) = (  -0.0837437   0.1128153   0.0000000), wk =   0.1111111
        k(   20) = (  -0.0837437  -0.0483494   0.0000000), wk =   0.0555556

     Largest allocated arrays     est. size (Mb)     dimensions
     Largest temporary arrays     est. size (Mb)     dimensions

     Initial potential from superposition of free atoms
     Check: negative starting charge=   -0.005269

     starting charge  161.96720, renormalised to  162.00000

     negative rho (up, down):  5.270E-03 0.000E+00

     *
     * You are using vdW-DF for exchange-correlation in this calculation.
     * Please cite the following three references that made this development
     * possible:
     *
     *   M. Dion, H. Rydberg, E. Schroder, D. C. Langreth, and
     *   B. I. Lundqvist, Phys. Rev. Lett. 92, 246401 (2004).
     *
     *   T. Thonhauser, V. R. Cooper, S. Li, A. Puzder, P. Hyldgaard, and
     *   D. C. Langreth, Phys. Rev. B 76, 125112 (2007).
     *
     *   G. Roman-Perez and J. M. Soler, Phys. Rev. Lett. 103, 096102 (2009).
     *
     *
     * If you are using vdW-DF2, please also cite:
     *
     *   K. Lee, E. D. Murray, L. Kong, B. I. Lundqvist, and
     *   D. C. Langreth, Phys. Rev. B 82, 081101(R) (2010).
     *
     *
     * If you are calculating the stress with vdW-DF, please also cite:
     *
     *   R. Sabatini, E. Kucukbenli, B. Kolb, T. Thonhauser, and
     *   S. de Gironcoli, J. Phys.: Condens. Matter 24, 424209 (2012).
     *

     Carrying out vdW-DF run using the following parameters:

     Nqs =      20    Nr_points =    1024   r_max =   100.000
     q_mesh =
               0.00001000     0.04494208     0.09755937     0.15916263
               0.23128650     0.31572767     0.41458969     0.53033537
               0.66584808     0.82450364     1.01025438     1.22772762
               1.48234092     1.78043706     2.12944203     2.53805004
               3.01644009     3.57652955     4.23227104     5.00000000

     Gradients computed in reciprocal space

     Adding external electric field

     Computed dipole along edir(3) :
        Dipole               -0.0090 Ry au,         -0.0229 Debye
        Dipole field         -0.0000 Ry au

        Potential amp.        0.0020 Ry
        Total length         45.8317 bohr

     Starting wfc are  160 randomized atomic wfcs

     Self-consistent Calculation

     iteration #  1     ecut=    36.75 Ry     beta=0.30
     Davidson diagonalization with overlap
     ethr =  1.00E-02,  avg # of iterations =  2.0

[...]

     total energy              =   -1452.83542657 Ry
     Harris-Foulkes estimate   =   -1455.48306961 Ry
     estimated scf accuracy    <       5.89566043 Ry

[...]

     End of self-consistent calculation

          k = 0.0000 0.0000 0.0000 ( 19435 PWs)   bands (ev):

   -53.5155 -53.3991 -53.3986 -53.3491 -53.3254 -53.2341 -53.2075 -53.2071
   -53.2061 -53.1444 -53.1441 -53.1189 -29.9499 -29.8910 -29.8908 -29.8158
   -29.7875 -29.7785 -29.7784 -29.7142 -29.7140 -29.7134 -29.4916 -29.4081
   -29.4077 -29.3681 -29.2538 -29.2536 -29.2485 -29.2249 -29.2102 -29.2099
   -29.0676 -29.0674 -29.0670 -29.0339 -29.0337 -29.0139 -28.9951 -28.9951
   -28.9695 -28.9393 -28.9360 -28.9359 -28.8466 -28.8466 -28.7669 -28.7669
   -15.8652  -3.7103  -2.6735  -2.3320  -2.3320  -2.2068  -1.8907  -1.7665
    -1.6559  -1.6558  -1.3624  -1.3623  -1.3219  -1.1061  -1.1060  -1.0428
    -0.7876  -0.7876  -0.3193   0.2511   0.2512   0.9069   1.1527   1.1974
     1.1974   1.2195   1.5639   1.8659   1.8659   1.9885   2.0929   2.0930
     2.1485   2.1486   2.1950   2.2158   2.2234   2.2234   2.3507   2.3507
     2.9571   3.1066   3.1067

[...]

          k =-0.0837 0.0483 0.0000 ( 19524 PWs)   bands (ev):

[...]

     the Fermi energy is     1.7822 ev

!    total energy              =   -1454.84144943 Ry
     Harris-Foulkes estimate   =   -1454.84144986 Ry
     estimated scf accuracy    <       0.00000158 Ry

     The total energy is the sum of the following terms:

     one-electron contribution =  -11835.72807270 Ry
     hartree contribution      =    5912.06867509 Ry
     xc contribution           =    -235.69793375 Ry
     ewald contribution        =    4704.63060556 Ry
     electric field correction =       0.00010062 Ry
     smearing contrib. (-TS)   =      -0.11482425 Ry

     convergence has been achieved in  18 iterations

 BEEF-vdW xc energy contributions
           1 :   -202.057703078429
           2 :    183.491004985040
           3 :   -151.933521659463
           4 :    115.933950394338
           5 :   -83.6081560975636
           6 :    59.9536390488664
           7 :   -45.8532288071226
           8 :    38.8085307841759
           9 :   -34.8054126444206
          10 :    30.3146375446184
          11 :   -23.6029285030242
          12 :    14.9546146521302
          13 :   -5.96488723029941
          14 :   -1.58992468612698
          15 :    6.70138878187012
          16 :   -9.50989693626425
          17 :    11.0289832121451
          18 :   -12.4558316473569
          19 :    14.4774080037860
          20 :   -16.9532203889594
          21 :    19.0973925597021
          22 :   -20.0031821298666
          23 :    19.1791814534258
          24 :   -16.8125932164556
          25 :    13.6498637720454
          26 :   -10.6042750615482
          27 :    8.32204811663127
          28 :   -6.93873920616372
          29 :    6.12420334613537
          30 :   -5.35889178866913
          31 :   -23.2822805557195
          32 :   -17.5265649288566

     Forces acting on atoms (Ry/au):

     negative rho (up, down):  5.037E-03 0.000E+00
     atom    1 type  1   force =    -0.00000231   -0.00000130   -0.00683041
     atom    2 type  1   force =     0.00000169    0.00256685   -0.00437675
     atom    3 type  1   force =     0.00222208   -0.00127950   -0.00438565
     atom    4 type  1   force =    -0.00222246   -0.00128351   -0.00437904
     atom    5 type  1   force =     0.00199545   -0.00114926    0.00434734
     atom    6 type  1   force =    -0.00200314   -0.00115690    0.00435647
     atom    7 type  1   force =    -0.00000328   -0.00000069   -0.00003772
     atom    8 type  1   force =     0.00000451    0.00230943    0.00435741
     atom    9 type  1   force =     0.01268960    0.00733250    0.06276674
     atom   10 type  1   force =    -0.01268869    0.00732636    0.06277240
     atom   11 type  1   force =    -0.00000530   -0.01465386    0.06276188
     atom   12 type  1   force =     0.00000273    0.00000007   -0.03174840
     atom   13 type  2   force =     0.00000912   -0.00001019   -0.14960427

     Total force =     0.189348     Total SCF correction =     0.001388

     entering subroutine stress ...

     negative rho (up, down):  5.037E-03 0.000E+00
          total   stress  (Ry/bohr**3)                   (kbar)     P=  -24.57
  -0.00022055  -0.00000000  -0.00000000        -32.44     -0.00     -0.00
  -0.00000000  -0.00022055   0.00000000         -0.00    -32.44      0.00
  -0.00000000   0.00000000  -0.00006001         -0.00      0.00     -8.83

     BFGS Geometry Optimization

     number of scf cycles    =   1
     number of bfgs steps    =   0

     energy   new            =   -1454.8414494281 Ry

     new trust radius        =       0.1496042693 bohr
     new conv_thr            =       0.0000099958 Ry

ATOMIC_POSITIONS (crystal)
Nb1      0.166666667   0.166666667   0.402010442    0   0   0
Nb1      0.666666667   0.166666667   0.402010442    0   0   0
Nb1      0.166666667   0.666666667   0.402010442    0   0   0
Nb1      0.666666667   0.666666667   0.402010442    0   0   0
Nb1      0.833333333   0.333333333   0.500000000    0   0   0
Nb1      0.333333333   0.333333333   0.500000000    0   0   0
Nb1      0.833333333   0.833333333   0.500000000    0   0   0
Nb1      0.333333333   0.833333333   0.500000000    0   0   0
Nb1      0.000749475   0.000750420   0.599324825
Nb1      0.498500499   0.000749791   0.599324945
Nb1      0.000749381   0.498500300   0.599324721
Nb1      0.500000238   0.500000007   0.597314159
O1       0.166667997   0.166665624   0.654907516

     Writing output data file calc.save
     Check: negative starting charge=   -0.005269
     NEW-OLD atomic charge density approx. for the potential
     Check: negative starting charge=   -0.005230

[...]

     energy   old            =   -1454.8414494281 Ry
     energy   new            =   -1454.8736460116 Ry

     CASE: energy  _new < energy  _old

[...]

     Total force =     0.009573     Total SCF correction =     0.000125

[...]

     number of scf cycles    =  11
     number of bfgs steps    =  10

     energy   old            =   -1454.9226165316 Ry
     energy   new            =   -1454.9231683845 Ry

     CASE: energy  _new < energy  _old

     new trust radius        =       0.0104799343 bohr
     new conv_thr            =       0.0000001000 Ry

ATOMIC_POSITIONS (crystal)
Nb1      0.166666667   0.166666667   0.402010442    0   0   0
Nb1      0.666666667   0.166666667   0.402010442    0   0   0
Nb1      0.166666667   0.666666667   0.402010442    0   0   0
Nb1      0.666666667   0.666666667   0.402010442    0   0   0
Nb1      0.833333333   0.333333333   0.500000000    0   0   0
Nb1      0.333333333   0.333333333   0.500000000    0   0   0
Nb1      0.833333333   0.833333333   0.500000000    0   0   0
Nb1      0.333333333   0.833333333   0.500000000    0   0   0
Nb1     -0.002662645  -0.002665474   0.601022240
Nb1      0.505328926  -0.002665663   0.601021767
Nb1     -0.002663796   0.505328847   0.601022430
Nb1      0.500001195   0.499999168   0.583770112
O1       0.166665489   0.166670055   0.644010096

     Writing output data file calc.save
     Check: negative starting charge=   -0.005263
     NEW-OLD atomic charge density approx. for the potential
     Check: negative starting charge=   -0.005251

[...]

     Self-consistent Calculation

[...]

     Threshold (ethr) on eigenvalues was too large:
     Diagonalizing with lowered threshold

     Davidson diagonalization with overlap
     ethr =  4.91E-08,  avg # of iterations =  4.8

[...]

     total energy              =   -1454.92326923 Ry
     Harris-Foulkes estimate   =   -1454.92326923 Ry
     estimated scf accuracy    <       0.00000040 Ry

     iteration #  9     ecut=    36.75 Ry     beta=0.30
     Davidson diagonalization with overlap
     ethr =  2.46E-10,  avg # of iterations =  2.9

[...]

     negative rho (up, down):  4.970E-03 0.000E+00

     Adding external electric field

     Computed dipole along edir(3) :
        Dipole                0.0203 Ry au,          0.0516 Debye
        Dipole field          0.0000 Ry au

        Potential amp.       -0.0045 Ry
        Total length         45.8317 bohr

     End of self-consistent calculation

[...]

          k = 0.0558-0.0645 0.0000 ( 19505 PWs)   bands (ev):

[...]

          k =-0.0837-0.0483 0.0000 ( 19524 PWs)   bands (ev):

   -53.2868 -53.2539 -53.2190 -53.0186 -53.0134 -52.9482 -52.9417 -52.9260
   -52.8930 -52.8485 -52.8353 -52.7391 -29.7152 -29.4989 -29.4794 -29.4659
   -29.4550 -29.3934 -29.3535 -29.3146 -29.2988 -29.2973 -29.2550 -29.2309
   -29.2112 -29.1984 -29.1912 -29.0413 -29.0372 -29.0192 -28.9750 -28.9683
   -28.9507 -28.9275 -28.9081 -28.8694 -28.8596 -28.8344 -28.7835 -28.7662
   -28.7056 -28.6978 -28.6912 -28.6164 -28.5679 -28.5608 -28.4814 -28.4237
   -17.1545  -3.8283  -3.5434  -3.2064  -1.8759  -1.7782  -0.9816  -0.7684
    -0.6408  -0.5713  -0.4867  -0.4473  -0.4346  -0.1015   0.0249   0.1710
     0.2084   0.2629   0.3615   0.4912   0.6756   0.8806   0.9131   0.9260
     0.9949   1.0445   1.2310   1.3906   1.4556   1.5779   1.6735   1.6759
     1.7293   1.8287   1.9293   2.1532   2.1846   2.2228   2.4815   2.5719
     2.6963   2.7769   3.1846

     the Fermi energy is     2.0337 ev

!    total energy              =   -1454.92326922 Ry
     Harris-Foulkes estimate   =   -1454.92326930 Ry
     estimated scf accuracy    <       0.00000008 Ry

     The total energy is the sum of the following terms:

     one-electron contribution =  -11974.22181951 Ry
     hartree contribution      =    5982.43969572 Ry
     xc contribution           =    -235.99869651 Ry
     ewald contribution        =    4772.96609565 Ry
     electric field correction =       0.00000100 Ry
     smearing contrib. (-TS)   =      -0.10854556 Ry

     convergence has been achieved in   9 iterations

 BEEF-vdW xc energy contributions
           1 :   -202.367550755515
           2 :    183.894480036482
           3 :   -152.432007126235
           4 :    116.430457030591
           5 :   -83.9675601973862
           6 :    60.0723784894973
           7 :   -45.7096640190965
           8 :    38.4761973692600
           9 :   -34.4222461456791
          10 :    30.0221631059377
          11 :   -23.4853777817207
          12 :    15.0079226081089
          13 :   -6.11056456178449
          14 :   -1.45911991525338
          15 :    6.67123971453370
          16 :   -9.61053025759247
          17 :    11.2277874823293
          18 :   -12.6788631317216
          19 :    14.6480827771802
          20 :   -17.0285409380470
          21 :    19.0847157883933
          22 :   -19.9523640263557
          23 :    19.1550448218539
          24 :   -16.8613651801378
          25 :    13.7761632282717
          26 :   -10.7706141533561
          27 :    8.47101043291758
          28 :   -7.02492217351784
          29 :    6.13854500521950
          30 :   -5.33323172790145
          31 :   -23.3009288421224
          32 :   -17.5633319882900

     Forces acting on atoms (Ry/au):

     negative rho (up, down):  4.970E-03 0.000E+00
     atom    1 type  1   force =    -0.00000136   -0.00000607    0.00184039
     atom    2 type  1   force =     0.00000137    0.00057784   -0.00335813
     atom    3 type  1   force =     0.00050469   -0.00028735   -0.00335317
     atom    4 type  1   force =    -0.00050481   -0.00028809   -0.00335288
     atom    5 type  1   force =     0.02926550   -0.01689686   -0.00739331
     atom    6 type  1   force =    -0.02926425   -0.01689553   -0.00739298
     atom    7 type  1   force =    -0.00000062   -0.00000191    0.02885008
     atom    8 type  1   force =    -0.00000117    0.03379071   -0.00739697
     atom    9 type  1   force =     0.00137148    0.00079239    0.00029485
     atom   10 type  1   force =    -0.00136954    0.00079083    0.00029636
     atom   11 type  1   force =    -0.00000047   -0.00158147    0.00029499
     atom   12 type  1   force =     0.00000208    0.00000409    0.00060492
     atom   13 type  2   force =    -0.00000291    0.00000142    0.00006585

     Total force =     0.002854     Total SCF correction =     0.000557
     SCF correction compared to forces is large: reduce conv_thr to get better values

     entering subroutine stress ...

     negative rho (up, down):  4.970E-03 0.000E+00
          total   stress  (Ry/bohr**3)                   (kbar)     P=  -12.84
  -0.00013438   0.00000000   0.00000000        -19.77      0.00      0.00
   0.00000000  -0.00013437  -0.00000000          0.00    -19.77     -0.00
   0.00000000  -0.00000000   0.00000685          0.00     -0.00      1.01

     bfgs converged in  12 scf cycles and  11 bfgs steps
     (criteria: energy <  1.0E+00, force <  1.9E-03)

     End of BFGS Geometry Optimization

     Final energy   =   -1454.9232692185 Ry
Begin final coordinates

ATOMIC_POSITIONS (crystal)
Nb1      0.166666667   0.166666667   0.402010442    0   0   0
Nb1      0.666666667   0.166666667   0.402010442    0   0   0
Nb1      0.166666667   0.666666667   0.402010442    0   0   0
Nb1      0.666666667   0.666666667   0.402010442    0   0   0
Nb1      0.833333333   0.333333333   0.500000000    0   0   0
Nb1      0.333333333   0.333333333   0.500000000    0   0   0
Nb1      0.833333333   0.833333333   0.500000000    0   0   0
Nb1      0.333333333   0.833333333   0.500000000    0   0   0
Nb1     -0.002662645  -0.002665474   0.601022240
Nb1      0.505328926  -0.002665663   0.601021767
Nb1     -0.002663796   0.505328847   0.601022430
Nb1      0.500001195   0.499999168   0.583770112
O1       0.166665489   0.166670055   0.644010096
End final coordinates

     Writing output data file calc.save

     General routines

     Parallel routines

   This run was terminated on:  11: 0:43   3May2018

   JOB DONE.
Job  /afs/slac/g/suncat/bin/suncat-tsmpirun -x LD_LIBRARY_PATH -wdir /scratch/qe708672_UXC5E pw.x -npool 4 -in pw.inp

TID   HOST_NAME   COMMAND_LINE            STATUS            TERMINATION_TIME
00000 suncat0062 pw.x -npool 4 -i  Done                     05/03/2018 11:00:43
00001 suncat0062 pw.x -npool 4 -i  Done                     05/03/2018 11:00:43
00002 suncat0062 pw.x -npool 4 -i  Done                     05/03/2018 11:00:43
00003 suncat0062 pw.x -npool 4 -i  Done                     05/03/2018 11:00:43
00004 suncat0062 pw.x -npool 4 -i  Done                     05/03/2018 11:00:43
00005 suncat0062 pw.x -npool 4 -i  Done                     05/03/2018 11:00:43
00006 suncat0062 pw.x -npool 4 -i  Done                     05/03/2018 11:00:43
00007 suncat0062 pw.x -npool 4 -i  Done                     05/03/2018 11:00:43
00008 suncat0055 pw.x -npool 4 -i  Done                     05/03/2018 11:00:43
00009 suncat0055 pw.x -npool 4 -i  Done                     05/03/2018 11:00:43
00010 suncat0055 pw.x -npool 4 -i  Done                     05/03/2018 11:00:43
00011 suncat0055 pw.x -npool 4 -i  Done                     05/03/2018 11:00:43
00012 suncat0055 pw.x -npool 4 -i  Done                     05/03/2018 11:00:43
00013 suncat0055 pw.x -npool 4 -i  Done                     05/03/2018 11:00:43
00014 suncat0055 pw.x -npool 4 -i  Done                     05/03/2018 11:00:43
00015 suncat0055 pw.x -npool 4 -i  Done                     05/03/2018 11:00:43
00016 suncat0014 pw.x -npool 4 -i  Done                     05/03/2018 11:00:43
00017 suncat0014 pw.x -npool 4 -i  Done                     05/03/2018 11:00:43
00018 suncat0014 pw.x -npool 4 -i  Done                     05/03/2018 11:00:43
00019 suncat0014 pw.x -npool 4 -i  Done                     05/03/2018 11:00:43
00020 suncat0014 pw.x -npool 4 -i  Done                     05/03/2018 11:00:43
00021 suncat0014 pw.x -npool 4 -i  Done                     05/03/2018 11:00:43
00022 suncat0014 pw.x -npool 4 -i  Done                     05/03/2018 11:00:43
00023 suncat0014 pw.x -npool 4 -i  Done                     05/03/2018 11:00:43
00024 suncat0196 pw.x -npool 4 -i  Done                     05/03/2018 11:00:43
00025 suncat0196 pw.x -npool 4 -i  Done                     05/03/2018 11:00:43
00026 suncat0196 pw.x -npool 4 -i  Done                     05/03/2018 11:00:43
00027 suncat0196 pw.x -npool 4 -i  Done                     05/03/2018 11:00:43
00028 suncat0196 pw.x -npool 4 -i  Done                     05/03/2018 11:00:43
00029 suncat0196 pw.x -npool 4 -i  Done                     05/03/2018 11:00:43
00030 suncat0196 pw.x -npool 4 -i  Done                     05/03/2018 11:00:43
00031 suncat0196 pw.x -npool 4 -i  Done                     05/03/2018 11:00:43