     Program PWSCF v.5.1rc2 (svn rev. 11289) starts on 21Apr2018 at 20:13:49

     Current dimensions of program PWSCF are:
     Max number of different atomic species (ntypx) = 10
     Max number of k-points (npk) =  40000
     Max angular momentum in pseudopotentials (lmaxx) =  3
     Presently stress not available with electric field

     IMPORTANT: XC functional enforced from input :
     Exchange-correlation      = BEEF-VDW ( 1  4 27 13 2)
     Any further DFT definition will be discarded
     Please, verify this is what you really want

     Subspace diagonalization in iterative solution of the eigenvalue problem:
     a serial algorithm will be used

     bravais-lattice index     =            0
     lattice parameter (alat)  =       1.8897  a.u.
     unit-cell volume          =    4569.9960 (a.u.)^3
     number of atoms/cell      =           14
     number of atomic types    =            3
     number of electrons       =       197.00
     number of Kohn-Sham states=          108
     kinetic-energy cutoff     =      36.7493  Ry
     charge density cutoff     =     367.4932  Ry
     convergence threshold     =      1.0E-05
     mixing beta               =       0.3000
     number of iterations used =           10  plain     mixing
     Exchange-correlation      = BEEF-VDW ( 1  4 27 13 2)
     nstep                     =           50

     celldm(1)=   1.889726  celldm(2)=   0.000000  celldm(3)=   0.000000
     celldm(4)=   0.000000  celldm(5)=   0.000000  celldm(6)=   0.000000

     crystal axes: (cart. coord. in units of alat)
               a(1) = (   5.637663   0.000000   0.000000 )
               a(2) = (   2.818831   4.882359   0.000000 )
               a(3) = (   0.000000   0.000000  24.603132 )

     reciprocal axes: (cart. coord. in units 2 pi/alat)
               b(1) = (  0.177378 -0.102410  0.000000 )
               b(2) = (  0.000000  0.204819  0.000000 )
               b(3) = (  0.000000  0.000000  0.040645 )

     PseudoPot. # 1 for Pd read from file:
     /u/if/mamunm/psp/gbrv1.5pbe/Pd.UPF
     MD5 check sum: 2d733d2bc2cbfd217af676df1668a4bc
     Pseudo is Ultrasoft + core correction, Zval = 16.0
     Generated by new atomic code, or converted to UPF format
     Using radial grid of  887 points,  6 beta functions with:
                l(1) =   0
                l(2) =   0
                l(3) =   1
                l(4) =   1
                l(5) =   2
                l(6) =   2
     Q(r) pseudized with  8 coefficients,  rinner =    1.130   1.130   1.130
                                                       1.130   1.130

     PseudoPot. # 2 for C  read from file:
     /u/if/mamunm/psp/gbrv1.5pbe/C.UPF
     MD5 check sum: d1aef80898a10debaa0f26306b886e00
     Pseudo is Ultrasoft + core correction, Zval =  4.0
     Generated by new atomic code, or converted to UPF format
     Using radial grid of  721 points,  4 beta functions with:
                l(1) =   0
                l(2) =   0
                l(3) =   1
                l(4) =   1
     Q(r) pseudized with  8 coefficients,  rinner =    1.100   1.100   1.100

     PseudoPot. # 3 for H  read from file:
     /u/if/mamunm/psp/gbrv1.5pbe/H.UPF
     MD5 check sum: 761ae9a214b05c3daf00ab9f6b793d6f
     Pseudo is Ultrasoft, Zval =  1.0
     Generated by new atomic code, or converted to UPF format
     Using radial grid of  615 points,  2 beta functions with:
                l(1) =   0
                l(2) =   0
     Q(r) pseudized with  8 coefficients,  rinner =    0.700

     vdW kernel table read from file vdW_kernel_table
     MD5 check sum: 095c7af220d748ca6e76c0b4c6cfb241

     atomic species   valence    mass     pseudopotential
        Pd1           16.00   106.42000     Pd( 1.00)
        C1             4.00    12.01100     C ( 1.00)
        H1             1.00     1.00800     H ( 1.00)

     No symmetry found

   Cartesian axes

     site n.     atom                  positions (alat units)
         1           Pd1 tau(   1) = (   1.4094157   0.8137265  10.0000000  )
         2           Pd1 tau(   2) = (   4.2282471   0.8137265  10.0000000  )
         3           Pd1 tau(   3) = (   2.8188314   3.2549061  10.0000000  )
         4           Pd1 tau(   4) = (   5.6376627   3.2549061  10.0000000  )
         5           Pd1 tau(   5) = (   5.6376627   1.6274531  12.3015662  )
         6           Pd1 tau(   6) = (   2.8188314   1.6274531  12.3015662  )
         7           Pd1 tau(   7) = (   7.0470784   4.0686326  12.3015662  )
         8           Pd1 tau(   8) = (   4.2282471   4.0686326  12.3015662  )
         9           Pd1 tau(   9) = (   0.0000000   0.0000000  14.6031324  )
        10           Pd1 tau(  10) = (   2.8188314   0.0000000  14.6031324  )
        11           Pd1 tau(  11) = (   1.4094157   2.4411796  14.6031324  )
        12           Pd1 tau(  12) = (   4.2282471   2.4411796  14.6031324  )
        13           C1  tau(  13) = (   1.4094157   0.8137265  16.0006324  )
        14           H1  tau(  14) = (   1.4094157   0.8137265  17.1006324  )

     number of k points=    20  Fermi-Dirac smearing, width (Ry)=  0.0110
                       cart. coord. in units 2pi/alat
        k(    1) = (   0.0000000   0.0000000   0.0000000), wk =   0.0555556
        k(    2) = (   0.0000000   0.0341365   0.0000000), wk =   0.1111111
        k(    3) = (   0.0000000   0.0682730   0.0000000), wk =   0.1111111
        k(    4) = (   0.0000000  -0.1024095   0.0000000), wk =   0.0555556
        k(    5) = (   0.0295631  -0.0170683   0.0000000), wk =   0.1111111
        k(    6) = (   0.0295631   0.0170683   0.0000000), wk =   0.1111111
        k(    7) = (   0.0295631   0.0512048   0.0000000), wk =   0.1111111
        k(    8) = (   0.0295631  -0.1194778   0.0000000), wk =   0.1111111
        k(    9) = (   0.0295631  -0.0853413   0.0000000), wk =   0.1111111
        k(   10) = (   0.0295631  -0.0512048   0.0000000), wk =   0.1111111
        k(   11) = (   0.0591262  -0.0341365   0.0000000), wk =   0.1111111
        k(   12) = (   0.0591262  -0.0000000   0.0000000), wk =   0.1111111
        k(   13) = (   0.0591262   0.0341365   0.0000000), wk =   0.1111111
        k(   14) = (   0.0591262  -0.1365460   0.0000000), wk =   0.1111111
        k(   15) = (   0.0591262  -0.1024095   0.0000000), wk =   0.1111111
        k(   16) = (   0.0591262  -0.0682730   0.0000000), wk =   0.1111111
        k(   17) = (  -0.0886892   0.0512048   0.0000000), wk =   0.0555556
        k(   18) = (  -0.0886892   0.0853413   0.0000000), wk =   0.1111111
        k(   19) = (  -0.0886892   0.1194778   0.0000000), wk =   0.1111111
        k(   20) = (  -0.0886892  -0.0512048   0.0000000), wk =   0.0555556

     Largest allocated arrays     est. size (Mb)     dimensions
     Largest temporary arrays     est. size (Mb)     dimensions

     Initial potential from superposition of free atoms
     Check: negative starting charge=   -0.903981

     starting charge  190.99987, renormalised to  197.00000

     negative rho (up, down):  9.324E-01 0.000E+00

     *
     * You are using vdW-DF for exchange-correlation in this calculation.
     * Please cite the following three references that made this development
     * possible:
     *
     *   M. Dion, H. Rydberg, E. Schroder, D. C. Langreth, and
     *   B. I. Lundqvist, Phys. Rev. Lett. 92, 246401 (2004).
     *
     *   T. Thonhauser, V. R. Cooper, S. Li, A. Puzder, P. Hyldgaard, and
     *   D. C. Langreth, Phys. Rev. B 76, 125112 (2007).
     *
     *   G. Roman-Perez and J. M. Soler, Phys. Rev. Lett. 103, 096102 (2009).
     *
     *
     * If you are using vdW-DF2, please also cite:
     *
     *   K. Lee, E. D. Murray, L. Kong, B. I. Lundqvist, and
     *   D. C. Langreth, Phys. Rev. B 82, 081101(R) (2010).
     *
     *
     * If you are calculating the stress with vdW-DF, please also cite:
     *
     *   R. Sabatini, E. Kucukbenli, B. Kolb, T. Thonhauser, and
     *   S. de Gironcoli, J. Phys.: Condens. Matter 24, 424209 (2012).
     *

     Carrying out vdW-DF run using the following parameters:

     Nqs =      20    Nr_points =    1024   r_max =   100.000
     q_mesh =
               0.00001000     0.04494208     0.09755937     0.15916263
               0.23128650     0.31572767     0.41458969     0.53033537
               0.66584808     0.82450364     1.01025438     1.22772762
               1.48234092     1.78043706     2.12944203     2.53805004
               3.01644009     3.57652955     4.23227104     5.00000000

     Gradients computed in reciprocal space

     Adding external electric field

     Computed dipole along edir(3) :
        Dipole               -1.1629 Ry au,         -2.9558 Debye
        Dipole field         -0.0032 Ry au

        Potential amp.        0.2899 Ry
        Total length         45.3309 bohr

     Starting wfc are  149 randomized atomic wfcs

     Self-consistent Calculation

     iteration #  1     ecut=    36.75 Ry     beta=0.30
     Davidson diagonalization with overlap
     ethr =  1.00E-02,  avg # of iterations =  4.8

[...]

     total energy              =   -2375.83351207 Ry
     Harris-Foulkes estimate   =   -2413.57275282 Ry
     estimated scf accuracy    <      80.12586296 Ry

[...]

     End of self-consistent calculation

          k = 0.0000 0.0000 0.0000 ( 17231 PWs)   bands (ev):

   -49.2083 -49.0838 -49.0837 -48.8557 -48.8557 -48.7698 -48.7597 -48.6939
   -48.6939 -48.6533 -48.6355 -48.6355 -48.5465 -48.5357 -48.5357 -48.5098
   -48.5089 -48.4673 -48.4673 -48.4216 -48.4216 -48.4095 -48.4093 -48.4034
   -48.2499 -48.2497 -48.2392 -48.1892 -48.1892 -48.1882 -48.1882 -48.1118
   -48.0784 -48.0743 -48.0656 -48.0650 -10.1265  -5.2328  -4.3658  -3.3937
    -3.3937  -3.3266  -3.2357  -3.2005  -3.1176  -3.1176  -2.9534  -2.9272
    -2.9272  -2.7455  -2.7454  -2.7126  -2.2421  -2.1827  -2.1827  -1.5280
    -1.5279  -1.4825  -1.4825  -1.4735  -1.3466  -1.2263  -1.2263  -1.1200
    -1.0358  -1.0358  -1.0176  -0.9037  -0.9037  -0.7474  -0.7474  -0.6263
    -0.2577  -0.2576  -0.1972  -0.0958   0.0667   0.0668   0.2615   0.2616
     0.3868   0.3869   0.6856   0.7460   0.7461   0.7943   0.8779   0.8781
     0.9779   0.9819   0.9819   1.0695   1.1401   1.1401   1.2415   1.2437
     1.2438   1.4401   1.4403   1.4457   1.9895   2.0866   2.0866   3.0662
     3.7794   3.7794   3.9878   4.8522

[...]

          k =-0.0887 0.0512 0.0000 ( 17240 PWs)   bands (ev):

[...]

     the Fermi energy is     1.2141 ev

!    total energy              =   -2410.11601199 Ry
     Harris-Foulkes estimate   =   -2410.11600783 Ry
     estimated scf accuracy    <       0.00000809 Ry

     The total energy is the sum of the following terms:

     one-electron contribution =  -20571.51217861 Ry
     hartree contribution      =   10337.62755005 Ry
     xc contribution           =    -394.38706041 Ry
     ewald contribution        =    8218.26000475 Ry
     electric field correction =       0.00007899 Ry
     smearing contrib. (-TS)   =      -0.10440677 Ry

     convergence has been achieved in  21 iterations

 BEEF-vdW xc energy contributions
           1 :   -343.269651793044
           2 :    313.638726873336
           3 :   -263.107759884046
           4 :    205.259701517460
           5 :   -153.230725390406
           6 :    115.408360380503
           7 :   -93.6142560957247
           8 :    84.0911006118194
           9 :   -80.4487638715954
          10 :    76.9869701411022
          11 :   -70.8888119594277
          12 :    62.5309761526767
          13 :   -54.1922538353029
          14 :    48.1562773874990
          15 :   -45.3107308821460
          16 :    44.8565169775924
          17 :   -45.0352727799539
          18 :    44.2607970080129
          19 :   -41.9473161329367
          20 :    38.6205432062311
          21 :   -35.3796105744859
          22 :    33.1306137929134
          23 :   -32.0740201565413
          24 :    31.6999487253573
          25 :   -31.2126445904398
          26 :    30.0625578297488
          27 :   -28.2494632067285
          28 :    26.2413177583529
          29 :   -24.6094960734923
          30 :    23.6423434876816
          31 :   -33.5668300134861
          32 :   -24.8038320056756

     Forces acting on atoms (Ry/au):

     negative rho (up, down):  9.424E-01 0.000E+00
     atom    1 type  1   force =    -0.00000472    0.00000098   -0.00028276
     atom    2 type  1   force =     0.00000513    0.00251793   -0.00283458
     atom    3 type  1   force =     0.00217798   -0.00125680   -0.00282764
     atom    4 type  1   force =    -0.00218079   -0.00126242   -0.00282154
     atom    5 type  1   force =    -0.00291270    0.00170189   -0.00696661
     atom    6 type  1   force =     0.00291129    0.00166173   -0.00692590
     atom    7 type  1   force =    -0.00003387   -0.00000134    0.00757742
     atom    8 type  1   force =     0.00003726   -0.00336245   -0.00694408
     atom    9 type  1   force =     0.02459390    0.01420710    0.04646348
     atom   10 type  1   force =    -0.02459722    0.01419909    0.04647112
     atom   11 type  1   force =    -0.00000814   -0.02840426    0.04646741
     atom   12 type  1   force =     0.00001100   -0.00000259    0.00265859
     atom   13 type  2   force =     0.00000261    0.00000160   -0.11164932
     atom   14 type  3   force =    -0.00000173   -0.00000047   -0.00838558

     Total force =     0.146427     Total SCF correction =     0.003524

     entering subroutine stress ...

     negative rho (up, down):  9.424E-01 0.000E+00
          total   stress  (Ry/bohr**3)                   (kbar)     P=  -13.99
  -0.00011286  -0.00000001  -0.00000000        -16.60     -0.00     -0.00
  -0.00000001  -0.00011287  -0.00000000         -0.00    -16.60     -0.00
  -0.00000000  -0.00000000  -0.00005966         -0.00     -0.00     -8.78

     BFGS Geometry Optimization

     number of scf cycles    =   1
     number of bfgs steps    =   0

     energy   new            =   -2410.1160119939 Ry

     new trust radius        =       0.1116493200 bohr
     new conv_thr            =       0.0000099958 Ry

ATOMIC_POSITIONS (crystal)
Pd1      0.166666667   0.166666667   0.406452311    0   0   0
Pd1      0.666666667   0.166666667   0.406452311    0   0   0
Pd1      0.166666667   0.666666667   0.406452311    0   0   0
Pd1      0.666666667   0.666666667   0.406452311    0   0   0
Pd1      0.833333333   0.333333333   0.500000000    0   0   0
Pd1      0.333333333   0.333333333   0.500000000    0   0   0
Pd1      0.833333333   0.833333333   0.500000000    0   0   0
Pd1      0.333333333   0.833333333   0.500000000    0   0   0
Pd1      0.001538576   0.001539844   0.594547050
Pd1      0.496921703   0.001538976   0.594547215
Pd1      0.001538541   0.496921389   0.594547135
Pd1      0.500001172   0.499999719   0.593604872
C1       0.166666825   0.166666840   0.647947987
H1       0.166666530   0.166666616   0.694878792

     Writing output data file calc.save
     Check: negative starting charge=   -0.903981
     NEW-OLD atomic charge density approx. for the potential
     Check: negative starting charge=   -0.905281

[...]

     energy   old            =   -2410.1160119939 Ry
     energy   new            =   -2410.1312496868 Ry

     CASE: energy  _new < energy  _old

[...]

     Total force =     0.005620     Total SCF correction =     0.000464

[...]

     number of scf cycles    =  12
     number of bfgs steps    =  11

     energy   old            =   -2410.1531618693 Ry
     energy   new            =   -2410.1532909011 Ry

     CASE: energy  _new < energy  _old

     new trust radius        =       0.0050275220 bohr
     new conv_thr            =       0.0000001000 Ry

ATOMIC_POSITIONS (crystal)
Pd1      0.166666667   0.166666667   0.406452311    0   0   0
Pd1      0.666666667   0.166666667   0.406452311    0   0   0
Pd1      0.166666667   0.666666667   0.406452311    0   0   0
Pd1      0.666666667   0.666666667   0.406452311    0   0   0
Pd1      0.833333333   0.333333333   0.500000000    0   0   0
Pd1      0.333333333   0.333333333   0.500000000    0   0   0
Pd1      0.833333333   0.833333333   0.500000000    0   0   0
Pd1      0.333333333   0.833333333   0.500000000    0   0   0
Pd1     -0.000999351  -0.001005921   0.596433582
Pd1      0.502006245  -0.001006572   0.596433768
Pd1     -0.001004243   0.502008290   0.596435169
Pd1      0.499998343   0.500005694   0.594243658
C1       0.166667657   0.166665450   0.641024440
H1       0.166667074   0.166666216   0.685674364

     Writing output data file calc.save
     Check: negative starting charge=   -0.904284
     NEW-OLD atomic charge density approx. for the potential
     Check: negative starting charge=   -0.904567

[...]

     Self-consistent Calculation

[...]

     total energy              =   -2410.15331355 Ry
     Harris-Foulkes estimate   =   -2410.15331355 Ry
     estimated scf accuracy    <       0.00000016 Ry

     iteration #  9     ecut=    36.75 Ry     beta=0.30
     Davidson diagonalization with overlap
     ethr =  7.90E-11,  avg # of iterations =  1.1

[...]

     negative rho (up, down):  9.439E-01 0.000E+00

     Adding external electric field

     Computed dipole along edir(3) :
        Dipole                0.1795 Ry au,          0.4563 Debye
        Dipole field          0.0005 Ry au

        Potential amp.       -0.0448 Ry
        Total length         45.3309 bohr

     End of self-consistent calculation

[...]

          k = 0.0591-0.0683 0.0000 ( 17183 PWs)   bands (ev):

[...]

          k =-0.0887-0.0512 0.0000 ( 17240 PWs)   bands (ev):

   -49.4048 -49.3517 -49.3038 -48.9185 -48.9004 -48.8663 -48.7718 -48.7501
   -48.7204 -48.5531 -48.5391 -48.4922 -48.4799 -48.4736 -48.4556 -48.4483
   -48.4406 -48.4075 -48.3884 -48.3806 -48.3578 -48.3208 -48.3120 -48.2598
   -48.2470 -48.2430 -48.2339 -48.1685 -48.1667 -48.1435 -48.1345 -48.0517
   -48.0280 -48.0223 -48.0187 -48.0151 -10.6742  -5.3375  -3.8953  -3.2945
    -3.1130  -2.9627  -2.6547  -2.6016  -2.5133  -2.4629  -2.3304  -2.3232
    -2.2411  -2.1976  -2.0917  -2.0739  -2.0494  -1.9409  -1.9252  -1.8111
    -1.6464  -1.5846  -1.5327  -1.4979  -1.4621  -1.3613  -1.3071  -1.2433
    -1.2170  -0.9946  -0.9703  -0.8970  -0.8508  -0.7776  -0.7693  -0.6318
    -0.5984  -0.5963  -0.5613  -0.4717  -0.4622  -0.4087  -0.2995  -0.2861
    -0.2839  -0.1482  -0.1136  -0.1045  -0.0284   0.0161   0.1354   0.1465
     0.2391   0.4095   0.4422   0.4484   0.5510   0.5743   0.7789   0.8976
     0.9728   1.0205   1.0721   1.2219   1.2360   2.0614   2.3713   2.8711
     3.6258   3.8802   4.2739   4.5672

     the Fermi energy is     1.2587 ev

!    total energy              =   -2410.15331352 Ry
     Harris-Foulkes estimate   =   -2410.15331371 Ry
     estimated scf accuracy    <       0.00000005 Ry

     The total energy is the sum of the following terms:

     one-electron contribution =  -20486.37788358 Ry
     hartree contribution      =   10295.14927587 Ry
     xc contribution           =    -394.55247471 Ry
     ewald contribution        =    8175.72690738 Ry
     electric field correction =       0.00008862 Ry
     smearing contrib. (-TS)   =      -0.09922710 Ry

     convergence has been achieved in   9 iterations

 BEEF-vdW xc energy contributions
           1 :   -343.432707930666
           2 :    313.826541560315
           3 :   -263.325942561978
           4 :    205.495507714234
           5 :   -153.458864173105
           6 :    115.593735313657
           7 :   -93.7201190152802
           8 :    84.0950344728617
           9 :   -80.3595412466881
          10 :    76.8501437931109
          11 :   -70.7719067203411
          12 :    62.4926473825915
          13 :   -54.2508093244284
          14 :    48.2762860198346
          15 :   -45.4178209732399
          16 :    44.8753441974387
          17 :   -44.9321889650884
          18 :    44.0670529066191
          19 :   -41.7477483276814
          20 :    38.5113740411172
          21 :   -35.4172280867439
          22 :    33.2997742015928
          23 :   -32.2943678471466
          24 :    31.8688393007703
          25 :   -31.2598703369384
          26 :    29.9858467473617
          27 :   -28.1111942481452
          28 :    26.1300930094717
          29 :   -24.5903409099328
          30 :    23.7233113180757
          31 :   -33.5764191343633
          32 :   -24.8183605480311

     Forces acting on atoms (Ry/au):

     negative rho (up, down):  9.439E-01 0.000E+00
     atom    1 type  1   force =     0.00000350    0.00000632   -0.00096049
     atom    2 type  1   force =    -0.00000345    0.00270869   -0.00316881
     atom    3 type  1   force =     0.00234091   -0.00135905   -0.00317099
     atom    4 type  1   force =    -0.00234128   -0.00135614   -0.00317262
     atom    5 type  1   force =    -0.00079132    0.00044664    0.00047410
     atom    6 type  1   force =     0.00079074    0.00045058    0.00046928
     atom    7 type  1   force =     0.00000315    0.00000875    0.00877635
     atom    8 type  1   force =    -0.00000255   -0.00090483    0.00047657
     atom    9 type  1   force =     0.00043048    0.00026484    0.00004505
     atom   10 type  1   force =    -0.00043002    0.00027067    0.00004173
     atom   11 type  1   force =     0.00000515   -0.00051633    0.00003452
     atom   12 type  1   force =    -0.00000544   -0.00002012   -0.00021129
     atom   13 type  2   force =     0.00000008    0.00000100    0.00121580
     atom   14 type  3   force =     0.00000004   -0.00000101   -0.00084922

     Total force =     0.001741     Total SCF correction =     0.000374
     SCF correction compared to forces is large: reduce conv_thr to get better values

     entering subroutine stress ...

     negative rho (up, down):  9.439E-01 0.000E+00
          total   stress  (Ry/bohr**3)                   (kbar)     P=   -7.70
  -0.00007520   0.00000000  -0.00000000        -11.06      0.00     -0.00
   0.00000000  -0.00007520  -0.00000000          0.00    -11.06     -0.00
  -0.00000000  -0.00000000  -0.00000655         -0.00     -0.00     -0.96

     bfgs converged in  13 scf cycles and  12 bfgs steps
     (criteria: energy <  1.0E+00, force <  1.9E-03)

     End of BFGS Geometry Optimization

     Final energy   =   -2410.1533135222 Ry
Begin final coordinates

ATOMIC_POSITIONS (crystal)
Pd1      0.166666667   0.166666667   0.406452311    0   0   0
Pd1      0.666666667   0.166666667   0.406452311    0   0   0
Pd1      0.166666667   0.666666667   0.406452311    0   0   0
Pd1      0.666666667   0.666666667   0.406452311    0   0   0
Pd1      0.833333333   0.333333333   0.500000000    0   0   0
Pd1      0.333333333   0.333333333   0.500000000    0   0   0
Pd1      0.833333333   0.833333333   0.500000000    0   0   0
Pd1      0.333333333   0.833333333   0.500000000    0   0   0
Pd1     -0.000999351  -0.001005921   0.596433582
Pd1      0.502006245  -0.001006572   0.596433768
Pd1     -0.001004243   0.502008290   0.596435169
Pd1      0.499998343   0.500005694   0.594243658
C1       0.166667657   0.166665450   0.641024440
H1       0.166667074   0.166666216   0.685674364
End final coordinates

     Writing output data file calc.save

     General routines

     Parallel routines

   This run was terminated on:  21:40:57  21Apr2018

   JOB DONE.
Job  /afs/slac/g/suncat/bin/suncat-tsmpirun -x LD_LIBRARY_PATH -wdir /scratch/qe394293_vkDZe pw.x -npool 4 -in pw.inp

TID   HOST_NAME   COMMAND_LINE            STATUS            TERMINATION_TIME
00000 suncat0143 pw.x -npool 4 -i  Done                     04/21/2018 21:40:57
00001 suncat0143 pw.x -npool 4 -i  Done                     04/21/2018 21:40:57
00002 suncat0143 pw.x -npool 4 -i  Done                     04/21/2018 21:40:57
00003 suncat0143 pw.x -npool 4 -i  Done                     04/21/2018 21:40:57
00004 suncat0143 pw.x -npool 4 -i  Done                     04/21/2018 21:40:57
00005 suncat0143 pw.x -npool 4 -i  Done                     04/21/2018 21:40:57
00006 suncat0143 pw.x -npool 4 -i  Done                     04/21/2018 21:40:57
00007 suncat0143 pw.x -npool 4 -i  Done                     04/21/2018 21:40:57
00008 suncat0249 pw.x -npool 4 -i  Done                     04/21/2018 21:40:57
00009 suncat0249 pw.x -npool 4 -i  Done                     04/21/2018 21:40:57
00010 suncat0249 pw.x -npool 4 -i  Done                     04/21/2018 21:40:57
00011 suncat0249 pw.x -npool 4 -i  Done                     04/21/2018 21:40:57
00012 suncat0249 pw.x -npool 4 -i  Done                     04/21/2018 21:40:57
00013 suncat0249 pw.x -npool 4 -i  Done                     04/21/2018 21:40:57
00014 suncat0249 pw.x -npool 4 -i  Done                     04/21/2018 21:40:57
00015 suncat0249 pw.x -npool 4 -i  Done                     04/21/2018 21:40:57
00016 suncat0238 pw.x -npool 4 -i  Done                     04/21/2018 21:40:57
00017 suncat0238 pw.x -npool 4 -i  Done                     04/21/2018 21:40:57
00018 suncat0238 pw.x -npool 4 -i  Done                     04/21/2018 21:40:57
00019 suncat0238 pw.x -npool 4 -i  Done                     04/21/2018 21:40:57
00020 suncat0238 pw.x -npool 4 -i  Done                     04/21/2018 21:40:57
00021 suncat0238 pw.x -npool 4 -i  Done                     04/21/2018 21:40:57
00022 suncat0238 pw.x -npool 4 -i  Done                     04/21/2018 21:40:57
00023 suncat0238 pw.x -npool 4 -i  Done                     04/21/2018 21:40:57
00024 suncat0200 pw.x -npool 4 -i  Done                     04/21/2018 21:40:57
00025 suncat0200 pw.x -npool 4 -i  Done                     04/21/2018 21:40:57
00026 suncat0200 pw.x -npool 4 -i  Done                     04/21/2018 21:40:57
00027 suncat0200 pw.x -npool 4 -i  Done                     04/21/2018 21:40:57
00028 suncat0200 pw.x -npool 4 -i  Done                     04/21/2018 21:40:57
00029 suncat0200 pw.x -npool 4 -i  Done                     04/21/2018 21:40:57
00030 suncat0200 pw.x -npool 4 -i  Done                     04/21/2018 21:40:57
00031 suncat0200 pw.x -npool 4 -i  Done                     04/21/2018 21:40:57