     Program PWSCF v.5.1rc2 (svn rev. 11289) starts on 14Jan2018 at  1: 1:41

     Current dimensions of program PWSCF are:
     Max number of different atomic species (ntypx) = 10
     Max number of k-points (npk) =  40000
     Max angular momentum in pseudopotentials (lmaxx) =  3
     Presently stress not available with electric field

     IMPORTANT: XC functional enforced from input :
     Exchange-correlation      = BEEF-VDW ( 1  4 27 13 2)
     Any further DFT definition will be discarded
     Please, verify this is what you really want

     Subspace diagonalization in iterative solution of the eigenvalue problem:
     a serial algorithm will be used

     bravais-lattice index     =            0
     lattice parameter (alat)  =       1.8897  a.u.
     unit-cell volume          =    4299.0717 (a.u.)^3
     number of atoms/cell      =           13
     number of atomic types    =            2
     number of electrons       =       181.00
     number of Kohn-Sham states=          100
     kinetic-energy cutoff     =      36.7493  Ry
     charge density cutoff     =     367.4932  Ry
     convergence threshold     =      1.0E-05
     mixing beta               =       0.3000
     number of iterations used =           10  plain     mixing
     Exchange-correlation      = BEEF-VDW ( 1  4 27 13 2)
     nstep                     =           50

     celldm(1)=   1.889726  celldm(2)=   0.000000  celldm(3)=   0.000000
     celldm(4)=   0.000000  celldm(5)=   0.000000  celldm(6)=   0.000000

     crystal axes: (cart. coord. in units of alat)
               a(1) = (   5.482164   0.000000   0.000000 )
               a(2) = (   2.741082   4.747693   0.000000 )
               a(3) = (   0.000000   0.000000  24.476168 )

     reciprocal axes: (cart. coord. in units 2 pi/alat)
               b(1) = (  0.182410 -0.105314  0.000000 )
               b(2) = (  0.000000  0.210629  0.000000 )
               b(3) = (  0.000000  0.000000  0.040856 )

     PseudoPot. # 1 for Ir read from file:
     /afs/slac.stanford.edu/u/if/mamunm/psp/gbrv1.5pbe/Ir.UPF
     MD5 check sum: 8836f839c3459d2b385c504ce6d91f2c
     Pseudo is Ultrasoft + core correction, Zval = 15.0
     Generated by new atomic code, or converted to UPF format
     Using radial grid of  983 points,  7 beta functions with:
                l(1) =   0
                l(2) =   0
                l(3) =   1
                l(4) =   1
                l(5) =   1
                l(6) =   2
                l(7) =   2
     Q(r) pseudized with  8 coefficients,  rinner =    1.400   1.400   1.400
                                                       1.400   1.400

     PseudoPot. # 2 for H  read from file:
     /afs/slac.stanford.edu/u/if/mamunm/psp/gbrv1.5pbe/H.UPF
     MD5 check sum: 761ae9a214b05c3daf00ab9f6b793d6f
     Pseudo is Ultrasoft, Zval =  1.0
     Generated by new atomic code, or converted to UPF format
     Using radial grid of  615 points,  2 beta functions with:
                l(1) =   0
                l(2) =   0
     Q(r) pseudized with  8 coefficients,  rinner =    0.700

     vdW kernel table read from file vdW_kernel_table
     MD5 check sum: 095c7af220d748ca6e76c0b4c6cfb241

     atomic species   valence    mass     pseudopotential
        Ir1           15.00   192.21700     Ir( 1.00)
        H1             1.00     1.00800     H ( 1.00)

     No symmetry found

   Cartesian axes

     site n.     atom                  positions (alat units)
         1           Ir1 tau(   1) = (   1.3705410   0.7912822  10.0000000  )
         2           Ir1 tau(   2) = (   4.1116229   0.7912822  10.0000000  )
         3           Ir1 tau(   3) = (   2.7410819   3.1651288  10.0000000  )
         4           Ir1 tau(   4) = (   5.4821639   3.1651288  10.0000000  )
         5           Ir1 tau(   5) = (   5.4821639   1.5825644  12.2380840  )
         6           Ir1 tau(   6) = (   2.7410819   1.5825644  12.2380840  )
         7           Ir1 tau(   7) = (   6.8527049   3.9564110  12.2380840  )
         8           Ir1 tau(   8) = (   4.1116229   3.9564110  12.2380840  )
         9           Ir1 tau(   9) = (   0.0000000   0.0000000  14.4761681  )
        10           Ir1 tau(  10) = (   2.7410819   0.0000000  14.4761681  )
        11           Ir1 tau(  11) = (   1.3705410   2.3738466  14.4761681  )
        12           Ir1 tau(  12) = (   4.1116229   2.3738466  14.4761681  )
        13           H1  tau(  13) = (   2.7410819   1.5825644  16.1961681  )

     number of k points=    20  Fermi-Dirac smearing, width (Ry)=  0.0110
                       cart. coord. in units 2pi/alat
        k(    1) = (   0.0000000   0.0000000   0.0000000), wk =   0.0555556
        k(    2) = (   0.0000000   0.0351048   0.0000000), wk =   0.1111111
        k(    3) = (   0.0000000   0.0702095   0.0000000), wk =   0.1111111
        k(    4) = (   0.0000000  -0.1053143   0.0000000), wk =   0.0555556
        k(    5) = (   0.0304016  -0.0175524   0.0000000), wk =   0.1111111
        k(    6) = (   0.0304016   0.0175524   0.0000000), wk =   0.1111111
        k(    7) = (   0.0304016   0.0526572   0.0000000), wk =   0.1111111
        k(    8) = (   0.0304016  -0.1228667   0.0000000), wk =   0.1111111
        k(    9) = (   0.0304016  -0.0877619   0.0000000), wk =   0.1111111
        k(   10) = (   0.0304016  -0.0526572   0.0000000), wk =   0.1111111
        k(   11) = (   0.0608032  -0.0351048   0.0000000), wk =   0.1111111
        k(   12) = (   0.0608032   0.0000000   0.0000000), wk =   0.1111111
        k(   13) = (   0.0608032   0.0351048   0.0000000), wk =   0.1111111
        k(   14) = (   0.0608032  -0.1404191   0.0000000), wk =   0.1111111
        k(   15) = (   0.0608032  -0.1053143   0.0000000), wk =   0.1111111
        k(   16) = (   0.0608032  -0.0702095   0.0000000), wk =   0.1111111
        k(   17) = (  -0.0912049   0.0526572   0.0000000), wk =   0.0555556
        k(   18) = (  -0.0912049   0.0877619   0.0000000), wk =   0.1111111
        k(   19) = (  -0.0912049   0.1228667   0.0000000), wk =   0.1111111
        k(   20) = (  -0.0912049  -0.0526572   0.0000000), wk =   0.0555556

     Largest allocated arrays     est. size (Mb)     dimensions
     Largest temporary arrays     est. size (Mb)     dimensions

     Initial potential from superposition of free atoms
     Check: negative starting charge=   -4.361865

     starting charge  174.99961, renormalised to  181.00000

     negative rho (up, down):  4.511E+00 0.000E+00

     *
     * You are using vdW-DF for exchange-correlation in this calculation.
     * Please cite the following three references that made this development
     * possible:
     *
     *   M. Dion, H. Rydberg, E. Schroder, D. C. Langreth, and
     *   B. I. Lundqvist, Phys. Rev. Lett. 92, 246401 (2004).
     *
     *   T. Thonhauser, V. R. Cooper, S. Li, A. Puzder, P. Hyldgaard, and
     *   D. C. Langreth, Phys. Rev. B 76, 125112 (2007).
     *
     *   G. Roman-Perez and J. M. Soler, Phys. Rev. Lett. 103, 096102 (2009).
     *
     *
     * If you are using vdW-DF2, please also cite:
     *
     *   K. Lee, E. D. Murray, L. Kong, B. I. Lundqvist, and
     *   D. C. Langreth, Phys. Rev. B 82, 081101(R) (2010).
     *
     *
     * If you are calculating the stress with vdW-DF, please also cite:
     *
     *   R. Sabatini, E. Kucukbenli, B. Kolb, T. Thonhauser, and
     *   S. de Gironcoli, J. Phys.: Condens. Matter 24, 424209 (2012).
     *

     Carrying out vdW-DF run using the following parameters:

     Nqs =      20    Nr_points =    1024   r_max =   100.000
     q_mesh =
               0.00001000     0.04494208     0.09755937     0.15916263
               0.23128650     0.31572767     0.41458969     0.53033537
               0.66584808     0.82450364     1.01025438     1.22772762
               1.48234092     1.78043706     2.12944203     2.53805004
               3.01644009     3.57652955     4.23227104     5.00000000

     Gradients computed in reciprocal space

     Adding external electric field

     Computed dipole along edir(3) :
        Dipole               -0.2564 Ry au,         -0.6517 Debye
        Dipole field         -0.0007 Ry au

        Potential amp.        0.0676 Ry
        Total length         45.0969 bohr

     Starting wfc are  145 randomized atomic wfcs

     Self-consistent Calculation

     iteration #  1     ecut=    36.75 Ry     beta=0.30
     Davidson diagonalization with overlap
     ethr =  1.00E-02,  avg # of iterations =  2.1

[...]

     total energy              =   -2197.33717887 Ry
     Harris-Foulkes estimate   =   -2204.00917804 Ry
     estimated scf accuracy    <      15.65258615 Ry

[...]

     End of self-consistent calculation

          k = 0.0000 0.0000 0.0000 ( 16073 PWs)   bands (ev):

   -47.6915 -47.6812 -47.6810 -47.5470 -47.4732 -47.4587 -47.4584 -47.2785
   -47.2784 -47.2596 -47.2147 -47.1796 -47.1794 -47.1387 -47.1387 -47.1183
   -47.1056 -47.1053 -46.8436 -46.8371 -46.8367 -46.8206 -46.7708 -46.7705
   -46.7598 -46.7595 -46.7534 -46.7482 -46.7228 -46.7123 -46.7117 -46.6859
   -46.6696 -46.6695 -46.6311 -46.6311  -7.1016  -5.2566  -4.8382  -4.5114
    -4.5026  -4.5025  -4.2516  -4.2019  -4.2019  -3.7156  -3.7050  -3.7049
    -3.4810  -3.4194  -3.4193  -2.2482  -1.9362  -1.9361  -1.5009  -1.3804
    -1.3803  -1.2004  -1.0461  -1.0461  -1.0186  -0.5884  -0.5884  -0.5406
    -0.5406  -0.5335  -0.2883  -0.2883  -0.0886   0.0060   0.0063   0.0423
     1.2985   1.2986   1.3070   1.3640   1.3642   1.3946   1.4037   1.4037
     2.1314   2.1314   2.2639   2.7016   2.7019   2.7550   2.8316   2.8317
     2.8418   3.0251   3.0251   3.3656   3.3658   3.3699   3.3758   3.6579
     3.6580   3.8331   3.8540   3.8555

[...]

          k =-0.0912 0.0527 0.0000 ( 16164 PWs)   bands (ev):

[...]

     the Fermi energy is     2.4115 ev

!    total energy              =   -2200.89428552 Ry
     Harris-Foulkes estimate   =   -2200.89428746 Ry
     estimated scf accuracy    <       0.00000287 Ry

     The total energy is the sum of the following terms:

     one-electron contribution =  -18450.83005631 Ry
     hartree contribution      =    9255.12846724 Ry
     xc contribution           =    -624.19368560 Ry
     ewald contribution        =    7619.10170516 Ry
     electric field correction =       0.00000033 Ry
     smearing contrib. (-TS)   =      -0.10071633 Ry

     convergence has been achieved in  17 iterations

 BEEF-vdW xc energy contributions
           1 :   -552.922226679632
           2 :    514.449746052808
           3 :   -445.606837523555
           4 :    359.881753672753
           5 :   -272.159563161484
           6 :    194.868858400430
           7 :   -135.328270368774
           8 :    94.9165410455321
           9 :   -70.1051711779542
          10 :    54.7666080110628
          11 :   -42.8091531536037
          12 :    30.1985736740111
          13 :   -15.7963672897139
          14 :   0.956778223883134
          15 :    11.7241785290612
          16 :   -19.8944638725151
          17 :    22.5676739855899
          18 :   -20.5094044512813
          19 :    15.8438826315931
          20 :   -11.1466302143002
          21 :    8.44624358469184
[...]
00030 suncat0247 pw.x -in pw.inp   Done                     01/14/2018 01:12:26
00031 suncat0247 pw.x -in pw.inp   Done                     01/14/2018 01:12:26

     Program PWSCF v.5.1rc2 (svn rev. 11289) starts on 14Jan2018 at  1:12:32

[...]

     Total force =     0.073410     Total SCF correction =     0.003666

[...]

     Program PWSCF v.5.1rc2 (svn rev. 11289) starts on 14Jan2018 at  1:33: 3

[...]

     Total force =     0.080947     Total SCF correction =     0.002698

[...]

   This run was terminated on:   2: 4:18  14Jan2018

[...]

     Program PWSCF v.5.1rc2 (svn rev. 11289) starts on 14Jan2018 at  2: 4:26

[...]

     Program PWSCF v.5.1rc2 (svn rev. 11289) starts on 14Jan2018 at  2:14:48

     Current dimensions of program PWSCF are:
     Max number of different atomic species (ntypx) = 10
     Max number of k-points (npk) =  40000
     Max angular momentum in pseudopotentials (lmaxx) =  3
     Presently stress not available with electric field

     IMPORTANT: XC functional enforced from input :
     Exchange-correlation      = BEEF-VDW ( 1  4 27 13 2)
     Any further DFT definition will be discarded
     Please, verify this is what you really want

     Subspace diagonalization in iterative solution of the eigenvalue problem:
     a serial algorithm will be used

     bravais-lattice index     =            0
     lattice parameter (alat)  =       1.8897  a.u.
     unit-cell volume          =    4299.0717 (a.u.)^3
     number of atoms/cell      =           13
     number of atomic types    =            2
     number of electrons       =       181.00
     number of Kohn-Sham states=          100
     kinetic-energy cutoff     =      36.7493  Ry
     charge density cutoff     =     367.4932  Ry
     convergence threshold     =      1.0E-05
     mixing beta               =       0.3000
     number of iterations used =           10  plain     mixing
     Exchange-correlation      = BEEF-VDW ( 1  4 27 13 2)
     nstep                     =           50

     celldm(1)=   1.889726  celldm(2)=   0.000000  celldm(3)=   0.000000
     celldm(4)=   0.000000  celldm(5)=   0.000000  celldm(6)=   0.000000

     crystal axes: (cart. coord. in units of alat)
               a(1) = (   5.482164   0.000000   0.000000 )
               a(2) = (   2.741082   4.747693   0.000000 )
               a(3) = (   0.000000   0.000000  24.476168 )

     reciprocal axes: (cart. coord. in units 2 pi/alat)
               b(1) = (  0.182410 -0.105314  0.000000 )
               b(2) = (  0.000000  0.210629  0.000000 )
               b(3) = (  0.000000  0.000000  0.040856 )

     PseudoPot. # 1 for Ir read from file:
     /afs/slac.stanford.edu/u/if/mamunm/psp/gbrv1.5pbe/Ir.UPF
     MD5 check sum: 8836f839c3459d2b385c504ce6d91f2c
     Pseudo is Ultrasoft + core correction, Zval = 15.0
     Generated by new atomic code, or converted to UPF format
     Using radial grid of  983 points,  7 beta functions with:
                l(1) =   0
                l(2) =   0
                l(3) =   1
                l(4) =   1
                l(5) =   1
                l(6) =   2
                l(7) =   2
     Q(r) pseudized with  8 coefficients,  rinner =    1.400   1.400   1.400
                                                       1.400   1.400

     PseudoPot. # 2 for H  read from file:
     /afs/slac.stanford.edu/u/if/mamunm/psp/gbrv1.5pbe/H.UPF
     MD5 check sum: 761ae9a214b05c3daf00ab9f6b793d6f
     Pseudo is Ultrasoft, Zval =  1.0
     Generated by new atomic code, or converted to UPF format
     Using radial grid of  615 points,  2 beta functions with:
                l(1) =   0
                l(2) =   0
     Q(r) pseudized with  8 coefficients,  rinner =    0.700

     vdW kernel table read from file vdW_kernel_table
     MD5 check sum: 095c7af220d748ca6e76c0b4c6cfb241

     atomic species   valence    mass     pseudopotential
        Ir1           15.00   192.21700     Ir( 1.00)
        H1             1.00     1.00800     H ( 1.00)

     No symmetry found

   Cartesian axes

     site n.     atom                  positions (alat units)
         1           Ir1 tau(   1) = (   1.3705410   0.7912822  10.0000000  )
         2           Ir1 tau(   2) = (   4.1116229   0.7912822  10.0000000  )
         3           Ir1 tau(   3) = (   2.7410819   3.1651288  10.0000000  )
         4           Ir1 tau(   4) = (   5.4821639   3.1651288  10.0000000  )
         5           Ir1 tau(   5) = (   5.4821639   1.5825644  12.2380840  )
         6           Ir1 tau(   6) = (   2.7410819   1.5825644  12.2380840  )
         7           Ir1 tau(   7) = (   6.8527049   3.9564110  12.2380840  )
         8           Ir1 tau(   8) = (   4.1116229   3.9564110  12.2380840  )
         9           Ir1 tau(   9) = (   2.7410778   4.7476710  14.4041195  )
        10           Ir1 tau(  10) = (   5.4821567   4.7185399  14.4512088  )
        11           Ir1 tau(  11) = (   6.8275225   2.3884294  14.4509953  )
        12           Ir1 tau(  12) = (   4.1368006   2.3884324  14.4509959  )
        13           H1  tau(  13) = (   2.7410983   1.5824974  15.4515038  )

     number of k points=    20  Fermi-Dirac smearing, width (Ry)=  0.0110
                       cart. coord. in units 2pi/alat
        k(    1) = (   0.0000000   0.0000000   0.0000000), wk =   0.0555556
        k(    2) = (   0.0000000   0.0351048   0.0000000), wk =   0.1111111
        k(    3) = (   0.0000000   0.0702095   0.0000000), wk =   0.1111111
        k(    4) = (   0.0000000  -0.1053143   0.0000000), wk =   0.0555556
        k(    5) = (   0.0304016  -0.0175524   0.0000000), wk =   0.1111111
        k(    6) = (   0.0304016   0.0175524   0.0000000), wk =   0.1111111
        k(    7) = (   0.0304016   0.0526572   0.0000000), wk =   0.1111111
        k(    8) = (   0.0304016  -0.1228667   0.0000000), wk =   0.1111111
        k(    9) = (   0.0304016  -0.0877619   0.0000000), wk =   0.1111111
        k(   10) = (   0.0304016  -0.0526572   0.0000000), wk =   0.1111111
        k(   11) = (   0.0608032  -0.0351048   0.0000000), wk =   0.1111111
        k(   12) = (   0.0608032   0.0000000   0.0000000), wk =   0.1111111
        k(   13) = (   0.0608032   0.0351048   0.0000000), wk =   0.1111111
        k(   14) = (   0.0608032  -0.1404191   0.0000000), wk =   0.1111111
        k(   15) = (   0.0608032  -0.1053143   0.0000000), wk =   0.1111111
        k(   16) = (   0.0608032  -0.0702095   0.0000000), wk =   0.1111111
        k(   17) = (  -0.0912049   0.0526572   0.0000000), wk =   0.0555556
        k(   18) = (  -0.0912049   0.0877619   0.0000000), wk =   0.1111111
        k(   19) = (  -0.0912049   0.1228667   0.0000000), wk =   0.1111111
        k(   20) = (  -0.0912049  -0.0526572   0.0000000), wk =   0.0555556

     Largest allocated arrays     est. size (Mb)     dimensions
     Largest temporary arrays     est. size (Mb)     dimensions

     Initial potential from superposition of free atoms
     Check: negative starting charge=   -4.367411

     starting charge  174.99961, renormalised to  181.00000

[...]

     *
     * You are using vdW-DF for exchange-correlation in this calculation.
     * Please cite the following three references that made this development
     * possible:
     *
     *   M. Dion, H. Rydberg, E. Schroder, D. C. Langreth, and
     *   B. I. Lundqvist, Phys. Rev. Lett. 92, 246401 (2004).
     *
     *   T. Thonhauser, V. R. Cooper, S. Li, A. Puzder, P. Hyldgaard, and
     *   D. C. Langreth, Phys. Rev. B 76, 125112 (2007).
     *
     *   G. Roman-Perez and J. M. Soler, Phys. Rev. Lett. 103, 096102 (2009).
     *
     *
     * If you are using vdW-DF2, please also cite:
     *
     *   K. Lee, E. D. Murray, L. Kong, B. I. Lundqvist, and
     *   D. C. Langreth, Phys. Rev. B 82, 081101(R) (2010).
     *
     *
     * If you are calculating the stress with vdW-DF, please also cite:
     *
     *   R. Sabatini, E. Kucukbenli, B. Kolb, T. Thonhauser, and
     *   S. de Gironcoli, J. Phys.: Condens. Matter 24, 424209 (2012).
     *

     Carrying out vdW-DF run using the following parameters:

     Nqs =      20    Nr_points =    1024   r_max =   100.000
     q_mesh =
               0.00001000     0.04494208     0.09755937     0.15916263
               0.23128650     0.31572767     0.41458969     0.53033537
               0.66584808     0.82450364     1.01025438     1.22772762
               1.48234092     1.78043706     2.12944203     2.53805004
               3.01644009     3.57652955     4.23227104     5.00000000

     Gradients computed in reciprocal space

[...]

     Starting wfc are  145 randomized atomic wfcs

     Self-consistent Calculation

[...]

     total energy              =   -2200.95585484 Ry
     Harris-Foulkes estimate   =   -2200.95589764 Ry
     estimated scf accuracy    <       0.00053669 Ry

     iteration # 15     ecut=    36.75 Ry     beta=0.30
     Davidson diagonalization with overlap
     ethr =  2.97E-07,  avg # of iterations =  1.0

[...]

     negative rho (up, down):  3.888E+00 0.000E+00

     Adding external electric field

     Computed dipole along edir(3) :
        Dipole                0.0176 Ry au,          0.0446 Debye
        Dipole field          0.0001 Ry au

        Potential amp.       -0.0046 Ry
        Total length         45.0969 bohr

     End of self-consistent calculation

[...]

          k = 0.0608-0.0702 0.0000 ( 16191 PWs)   bands (ev):

[...]

          k =-0.0912-0.0527 0.0000 ( 16164 PWs)   bands (ev):

   -47.5702 -47.5399 -47.4909 -47.4747 -47.4423 -47.4069 -47.3982 -47.3917
   -47.3540 -47.3393 -47.1859 -47.1597 -47.1574 -47.0715 -47.0174 -46.9939
   -46.9802 -46.9479 -46.9348 -46.8908 -46.8502 -46.8463 -46.8193 -46.8086
   -46.8022 -46.7874 -46.7737 -46.7567 -46.7429 -46.7269 -46.6908 -46.6868
   -46.6781 -46.6551 -46.6534 -46.6384  -5.5383  -5.2515  -4.7034  -3.7762
    -3.5383  -3.4848  -3.4265  -3.3779  -3.3687  -3.3471  -3.0231  -2.7753
    -2.7574  -2.4560  -2.3990  -2.3121  -2.1716  -1.9789  -1.9622  -1.9302
    -1.8796  -1.5671  -1.5363  -1.1158  -1.0363  -0.7530  -0.7268  -0.7053
    -0.6750  -0.5894  -0.5067  -0.3604  -0.3012  -0.2797  -0.2672  -0.2400
    -0.1975  -0.1416  -0.1411  -0.1085   0.5527   0.5933   0.7567   0.8082
     0.9265   0.9456   1.1777   1.1830   1.3322   1.4543   1.5974   1.6101
     1.8167   1.9849   2.0215   2.0340   2.1068   2.1611   2.7797   2.8103
     3.1255   3.1814   3.4519   3.4878

     the Fermi energy is     2.4611 ev

!    total energy              =   -2200.95587470 Ry
     Harris-Foulkes estimate   =   -2200.95587930 Ry
     estimated scf accuracy    <       0.00000475 Ry

     The total energy is the sum of the following terms:

     one-electron contribution =  -18593.94741525 Ry
     hartree contribution      =    9326.74077530 Ry
     xc contribution           =    -624.46239939 Ry
     ewald contribution        =    7690.81228791 Ry
     electric field correction =       0.00000090 Ry
     smearing contrib. (-TS)   =      -0.09912416 Ry

     convergence has been achieved in  15 iterations

 BEEF-vdW xc energy contributions
           1 :   -553.196281853867
           2 :    514.810409660567
           3 :   -446.077682600607
           4 :    360.405104185688
           5 :   -272.622931382713
           6 :    195.158018783299
           7 :   -135.384660166861
           8 :    94.7696126576503
           9 :   -69.8623741605941
          10 :    54.5654157421085
          11 :   -42.7549376581512
          12 :    30.3188167530367
          13 :   -16.0326003985173
          14 :    1.19626386768277
          15 :    11.5936266301843
          16 :   -19.9330525045193
          17 :    22.7591838222280
          18 :   -20.7723435597876
          19 :    16.0700040729472
          20 :   -11.2486612653310
          21 :    8.39479770876676
          22 :   -8.37385190764337
          23 :    10.6654920472998
          24 :   -13.7631497558474
          25 :    15.9272613541053
          26 :   -15.9585606546299
          27 :    13.6709775603873
          28 :   -9.89445735106585
          29 :    6.04509162890270
          30 :   -3.47884993742389
          31 :   -47.3658138106077
          32 :   -35.5393525687256

     Forces acting on atoms (Ry/au):

     negative rho (up, down):  3.888E+00 0.000E+00
     atom    1 type  1   force =     0.00051822    0.00031572    0.01747078
     atom    2 type  1   force =    -0.00051706    0.00032234    0.01746361
     atom    3 type  1   force =     0.00000623   -0.00061786    0.01748073
     atom    4 type  1   force =    -0.00000448   -0.00002347    0.01473998
     atom    5 type  1   force =    -0.00002331   -0.00030113   -0.01700032
     atom    6 type  1   force =     0.00002173    0.00002020   -0.01482894
     atom    7 type  1   force =     0.00026986    0.00015253   -0.01705548
     atom    8 type  1   force =    -0.00027410    0.00012820   -0.01702473
     atom    9 type  1   force =     0.00000601    0.00004184    0.00041812
     atom   10 type  1   force =    -0.00000460    0.00003327   -0.00056151
     atom   11 type  1   force =    -0.00003539   -0.00003595   -0.00053556
     atom   12 type  1   force =     0.00003987   -0.00002424   -0.00053596
     atom   13 type  2   force =    -0.00000297   -0.00001144   -0.00003073

     Total force =     0.047172     Total SCF correction =     0.012898
     SCF correction compared to forces is large: reduce conv_thr to get better values

     entering subroutine stress ...

     negative rho (up, down):  3.888E+00 0.000E+00
          total   stress  (Ry/bohr**3)                   (kbar)     P=  -26.13
  -0.00021126   0.00000000   0.00000000        -31.08      0.00      0.00
   0.00000000  -0.00021128  -0.00000001          0.00    -31.08     -0.00
   0.00000000  -0.00000001  -0.00011034          0.00     -0.00    -16.23

 !ASE

     Writing output data file calc.save

     General routines

     Parallel routines

   This run was terminated on:   2:24:29  14Jan2018

   JOB DONE.
Job  /afs/slac/g/suncat/bin/suncat-tsmpirun -x LD_LIBRARY_PATH -wdir /scratch/qe842452_OXX16 pw.x -in pw.inp

TID   HOST_NAME   COMMAND_LINE            STATUS            TERMINATION_TIME
00000 suncat0253 pw.x -in pw.inp   Done                     01/14/2018 02:24:29
00001 suncat0253 pw.x -in pw.inp   Done                     01/14/2018 02:24:29
00002 suncat0253 pw.x -in pw.inp   Done                     01/14/2018 02:24:29
00003 suncat0253 pw.x -in pw.inp   Done                     01/14/2018 02:24:29
00004 suncat0253 pw.x -in pw.inp   Done                     01/14/2018 02:24:29
00005 suncat0253 pw.x -in pw.inp   Done                     01/14/2018 02:24:29
00006 suncat0253 pw.x -in pw.inp   Done                     01/14/2018 02:24:29
00007 suncat0253 pw.x -in pw.inp   Done                     01/14/2018 02:24:29
00008 suncat0249 pw.x -in pw.inp   Done                     01/14/2018 02:24:29
00009 suncat0249 pw.x -in pw.inp   Done                     01/14/2018 02:24:29
00010 suncat0249 pw.x -in pw.inp   Done                     01/14/2018 02:24:29
00011 suncat0249 pw.x -in pw.inp   Done                     01/14/2018 02:24:29
00012 suncat0249 pw.x -in pw.inp   Done                     01/14/2018 02:24:29
00013 suncat0249 pw.x -in pw.inp   Done                     01/14/2018 02:24:29
00014 suncat0249 pw.x -in pw.inp   Done                     01/14/2018 02:24:29
00015 suncat0249 pw.x -in pw.inp   Done                     01/14/2018 02:24:29
00016 suncat0248 pw.x -in pw.inp   Done                     01/14/2018 02:24:29
00017 suncat0248 pw.x -in pw.inp   Done                     01/14/2018 02:24:29
00018 suncat0248 pw.x -in pw.inp   Done                     01/14/2018 02:24:29
00019 suncat0248 pw.x -in pw.inp   Done                     01/14/2018 02:24:29
00020 suncat0248 pw.x -in pw.inp   Done                     01/14/2018 02:24:29
00021 suncat0248 pw.x -in pw.inp   Done                     01/14/2018 02:24:29
00022 suncat0248 pw.x -in pw.inp   Done                     01/14/2018 02:24:29
00023 suncat0248 pw.x -in pw.inp   Done                     01/14/2018 02:24:29
00024 suncat0247 pw.x -in pw.inp   Done                     01/14/2018 02:24:29
00025 suncat0247 pw.x -in pw.inp   Done                     01/14/2018 02:24:29
00026 suncat0247 pw.x -in pw.inp   Done                     01/14/2018 02:24:29
00027 suncat0247 pw.x -in pw.inp   Done                     01/14/2018 02:24:29
00028 suncat0247 pw.x -in pw.inp   Done                     01/14/2018 02:24:29
00029 suncat0247 pw.x -in pw.inp   Done                     01/14/2018 02:24:29
00030 suncat0247 pw.x -in pw.inp   Done                     01/14/2018 02:24:29
00031 suncat0247 pw.x -in pw.inp   Done                     01/14/2018 02:24:29