     Program PWSCF v.5.1rc2 (svn rev. 11289) starts on 16Apr2018 at 10: 5:35

     Current dimensions of program PWSCF are:
     Max number of different atomic species (ntypx) = 10
     Max number of k-points (npk) =  40000
     Max angular momentum in pseudopotentials (lmaxx) =  3
     Presently stress not available with electric field

     IMPORTANT: XC functional enforced from input :
     Exchange-correlation      = BEEF-VDW ( 1  4 27 13 2)
     Any further DFT definition will be discarded
     Please, verify this is what you really want

     Subspace diagonalization in iterative solution of the eigenvalue problem:
     a serial algorithm will be used

     bravais-lattice index     =            0
     lattice parameter (alat)  =       1.8897  a.u.
     unit-cell volume          =    5174.6160 (a.u.)^3
     number of atoms/cell      =           14
     number of atomic types    =            3
     number of electrons       =       235.00
     number of Kohn-Sham states=          127
     kinetic-energy cutoff     =      36.7493  Ry
     charge density cutoff     =     367.4932  Ry
     convergence threshold     =      1.0E-05
     mixing beta               =       0.3000
     number of iterations used =           10  plain     mixing
     Exchange-correlation      = BEEF-VDW ( 1  4 27 13 2)
     nstep                     =           50

     celldm(1)=   1.889726  celldm(2)=   0.000000  celldm(3)=   0.000000
     celldm(4)=   0.000000  celldm(5)=   0.000000  celldm(6)=   0.000000

     crystal axes: (cart. coord. in units of alat)
               a(1) = (   5.966546   0.000000   0.000000 )
               a(2) = (   2.983273   5.167181   0.000000 )
               a(3) = (   0.000000   0.000000  24.871665 )

     reciprocal axes: (cart. coord. in units 2 pi/alat)
               b(1) = (  0.167601 -0.096765  0.000000 )
               b(2) = (  0.000000  0.193529  0.000000 )
               b(3) = (  0.000000  0.000000  0.040206 )

     PseudoPot. # 1 for Ag read from file:
     /u/if/mamunm/psp/gbrv1.5pbe/Ag.UPF
     MD5 check sum: d66d668201baa78d5eb5b04ef7011058
     Pseudo is Ultrasoft + core correction, Zval = 19.0
     Generated by new atomic code, or converted to UPF format
     Using radial grid of  887 points,  6 beta functions with:
                l(1) =   0
                l(2) =   0
                l(3) =   1
                l(4) =   1
                l(5) =   2
                l(6) =   2
     Q(r) pseudized with  6 coefficients,  rinner =    1.300   1.300   1.300
                                                       1.300   1.300

     PseudoPot. # 2 for S  read from file:
     /u/if/mamunm/psp/gbrv1.5pbe/S.UPF
     MD5 check sum: 88d86576ff6df21479756cfb9bdac1df
     Pseudo is Ultrasoft + core correction, Zval =  6.0
     Generated by new atomic code, or converted to UPF format
     Using radial grid of  907 points,  6 beta functions with:
                l(1) =   0
                l(2) =   0
                l(3) =   1
                l(4) =   1
                l(5) =   2
                l(6) =   2
     Q(r) pseudized with  8 coefficients,  rinner =    1.300   1.300   1.300
                                                       1.300   1.300

     PseudoPot. # 3 for H  read from file:
     /u/if/mamunm/psp/gbrv1.5pbe/H.UPF
     MD5 check sum: 761ae9a214b05c3daf00ab9f6b793d6f
     Pseudo is Ultrasoft, Zval =  1.0
     Generated by new atomic code, or converted to UPF format
     Using radial grid of  615 points,  2 beta functions with:
                l(1) =   0
                l(2) =   0
     Q(r) pseudized with  8 coefficients,  rinner =    0.700

     vdW kernel table read from file vdW_kernel_table
     MD5 check sum: 095c7af220d748ca6e76c0b4c6cfb241

     atomic species   valence    mass     pseudopotential
        Ag1           19.00   107.86820     Ag( 1.00)
        S1             6.00    32.06000     S ( 1.00)
        H1             1.00     1.00800     H ( 1.00)

     No symmetry found

   Cartesian axes

     site n.     atom                  positions (alat units)
         1           Ag1 tau(   1) = (   1.4916366   0.8611968  10.0000000  )
         2           Ag1 tau(   2) = (   4.4749098   0.8611968  10.0000000  )
         3           Ag1 tau(   3) = (   2.9832732   3.4447871  10.0000000  )
         4           Ag1 tau(   4) = (   5.9665464   3.4447871  10.0000000  )
         5           Ag1 tau(   5) = (   5.9665464   1.7223936  12.4358324  )
         6           Ag1 tau(   6) = (   2.9832732   1.7223936  12.4358324  )
         7           Ag1 tau(   7) = (   7.4581830   4.3059839  12.4358324  )
         8           Ag1 tau(   8) = (   4.4749098   4.3059839  12.4358324  )
         9           Ag1 tau(   9) = (   0.0000000   0.0000000  14.8716647  )
        10           Ag1 tau(  10) = (   2.9832732   0.0000000  14.8716647  )
        11           Ag1 tau(  11) = (   1.4916366   2.5835904  14.8716647  )
        12           Ag1 tau(  12) = (   4.4749098   2.5835904  14.8716647  )
        13           S1  tau(  13) = (   2.9832732   1.7223936  16.4966647  )
        14           H1  tau(  14) = (   2.9832732   1.7223936  17.7466647  )

     number of k points=    20  Fermi-Dirac smearing, width (Ry)=  0.0110
                       cart. coord. in units 2pi/alat
        k(    1) = (   0.0000000   0.0000000   0.0000000), wk =   0.0555556
        k(    2) = (   0.0000000   0.0322549   0.0000000), wk =   0.1111111
        k(    3) = (   0.0000000   0.0645097   0.0000000), wk =   0.1111111
        k(    4) = (   0.0000000  -0.0967646   0.0000000), wk =   0.0555556
        k(    5) = (   0.0279335  -0.0161274   0.0000000), wk =   0.1111111
        k(    6) = (   0.0279335   0.0161274   0.0000000), wk =   0.1111111
        k(    7) = (   0.0279335   0.0483823   0.0000000), wk =   0.1111111
        k(    8) = (   0.0279335  -0.1128920   0.0000000), wk =   0.1111111
        k(    9) = (   0.0279335  -0.0806371   0.0000000), wk =   0.1111111
        k(   10) = (   0.0279335  -0.0483823   0.0000000), wk =   0.1111111
        k(   11) = (   0.0558670  -0.0322549   0.0000000), wk =   0.1111111
        k(   12) = (   0.0558670   0.0000000   0.0000000), wk =   0.1111111
        k(   13) = (   0.0558670   0.0322549   0.0000000), wk =   0.1111111
        k(   14) = (   0.0558670  -0.1290194   0.0000000), wk =   0.1111111
        k(   15) = (   0.0558670  -0.0967646   0.0000000), wk =   0.1111111
        k(   16) = (   0.0558670  -0.0645097   0.0000000), wk =   0.1111111
        k(   17) = (  -0.0838006   0.0483823   0.0000000), wk =   0.0555556
        k(   18) = (  -0.0838006   0.0806371   0.0000000), wk =   0.1111111
        k(   19) = (  -0.0838006   0.1128920   0.0000000), wk =   0.1111111
        k(   20) = (  -0.0838006  -0.0483823   0.0000000), wk =   0.0555556

     Largest allocated arrays     est. size (Mb)     dimensions
     Largest temporary arrays     est. size (Mb)     dimensions

     Initial potential from superposition of free atoms
     Check: negative starting charge=   -0.001950

     starting charge  228.99939, renormalised to  235.00000

     negative rho (up, down):  2.001E-03 0.000E+00

     *
     * You are using vdW-DF for exchange-correlation in this calculation.
     * Please cite the following three references that made this development
     * possible:
     *
     *   M. Dion, H. Rydberg, E. Schroder, D. C. Langreth, and
     *   B. I. Lundqvist, Phys. Rev. Lett. 92, 246401 (2004).
     *
     *   T. Thonhauser, V. R. Cooper, S. Li, A. Puzder, P. Hyldgaard, and
     *   D. C. Langreth, Phys. Rev. B 76, 125112 (2007).
     *
     *   G. Roman-Perez and J. M. Soler, Phys. Rev. Lett. 103, 096102 (2009).
     *
     *
     * If you are using vdW-DF2, please also cite:
     *
     *   K. Lee, E. D. Murray, L. Kong, B. I. Lundqvist, and
     *   D. C. Langreth, Phys. Rev. B 82, 081101(R) (2010).
     *
     *
     * If you are calculating the stress with vdW-DF, please also cite:
     *
     *   R. Sabatini, E. Kucukbenli, B. Kolb, T. Thonhauser, and
     *   S. de Gironcoli, J. Phys.: Condens. Matter 24, 424209 (2012).
     *

     Carrying out vdW-DF run using the following parameters:

     Nqs =      20    Nr_points =    1024   r_max =   100.000
     q_mesh =
               0.00001000     0.04494208     0.09755937     0.15916263
               0.23128650     0.31572767     0.41458969     0.53033537
               0.66584808     0.82450364     1.01025438     1.22772762
               1.48234092     1.78043706     2.12944203     2.53805004
               3.01644009     3.57652955     4.23227104     5.00000000

     Gradients computed in reciprocal space

     Adding external electric field

     Computed dipole along edir(3) :
        Dipole               -1.4691 Ry au,         -3.7341 Debye
        Dipole field         -0.0036 Ry au

        Potential amp.        0.3270 Ry
        Total length         45.8256 bohr

     Starting wfc are  161 randomized atomic wfcs

     Self-consistent Calculation

     iteration #  1     ecut=    36.75 Ry     beta=0.30
     Davidson diagonalization with overlap
     ethr =  1.00E-02,  avg # of iterations =  5.4

[...]

     total energy              =   -3569.47873195 Ry
     Harris-Foulkes estimate   =   -3588.34173131 Ry
     estimated scf accuracy    <      40.49864512 Ry

[...]

     End of self-consistent calculation

          k = 0.0000 0.0000 0.0000 ( 19435 PWs)   bands (ev):

   -90.4648 -90.4594 -90.4594 -90.2856 -90.2800 -90.2800 -90.2544 -90.1631
   -90.0875 -90.0702 -90.0655 -90.0655 -54.0545 -54.0015 -54.0015 -53.9552
   -53.9552 -53.9380 -53.9300 -53.9201 -53.9201 -53.8217 -53.8096 -53.8096
   -53.7827 -53.7745 -53.7745 -53.7577 -53.7560 -53.7512 -53.7512 -53.7245
   -53.7245 -53.6708 -53.6708 -53.6424 -53.6206 -53.6206 -53.6123 -53.5682
   -53.5600 -53.5600 -53.5532 -53.5484 -53.5435 -53.5435 -53.5354 -53.5354
   -12.9567  -6.6425  -4.6783  -4.2940  -4.2940  -4.1254  -4.0757  -4.0757
    -4.0333  -3.9934  -3.9056  -3.9038  -3.9038  -3.7635  -3.6936  -3.6936
    -3.5761  -3.5254  -3.5254  -3.0640  -3.0640  -3.0018  -3.0018  -2.9824
    -2.9621  -2.8527  -2.8527  -2.8137  -2.8137  -2.7392  -2.6947  -2.6203
    -2.6203  -2.5498  -2.5498  -2.2440  -2.2440  -2.1713  -2.1616  -2.0774
    -2.0774  -1.9702  -1.8974  -1.8974  -1.8299  -1.8299  -1.6568  -1.6568
    -1.5990  -1.5703  -1.5703  -1.5698  -1.5168  -1.5168  -1.5018  -1.4761
    -1.4761  -1.3584  -1.3423  -1.3421  -1.3421  -1.1707  -1.1707  -1.1646
    -0.2312  -0.2312   0.8569   2.1433   2.2290   2.2290   2.4970   2.9457
     2.9457   3.2259   3.3508   3.3508   3.9012   5.0298   5.3188

[...]

          k =-0.0838 0.0484 0.0000 ( 19500 PWs)   bands (ev):

[...]

     the Fermi energy is     1.7605 ev

!    total energy              =   -3585.41548844 Ry
     Harris-Foulkes estimate   =   -3585.41548689 Ry
     estimated scf accuracy    <       0.00000034 Ry

     The total energy is the sum of the following terms:

     one-electron contribution =  -26258.41132755 Ry
     hartree contribution      =   13125.35288194 Ry
     xc contribution           =    -370.73742882 Ry
     ewald contribution        =    9918.40453679 Ry
     electric field correction =       0.00009128 Ry
     smearing contrib. (-TS)   =      -0.02424208 Ry

     convergence has been achieved in  16 iterations

 BEEF-vdW xc energy contributions
           1 :   -321.086130789235
           2 :    290.524105326174
           3 :   -239.517490122173
           4 :    183.404162332362
           5 :   -136.141888776370
           6 :    105.319929099028
           7 :   -90.7260127478375
           8 :    86.4968108546132
           9 :   -85.2265915355947
          10 :    81.7073204655790
          11 :   -74.5840521120194
          12 :    65.5929476650483
          13 :   -57.4112638024858
          14 :    51.6740335679355
          15 :   -48.2515453121744
          16 :    45.8611732232192
          17 :   -43.2623055237720
          18 :    40.0903454390671
          19 :   -36.8508535144907
          20 :    34.2683547734945
          21 :   -32.5996369125712
          22 :    31.4290575425216
          23 :   -30.0333132130197
          24 :    27.9721488359734
          25 :   -25.4383860377766
          26 :    23.1165395328468
          27 :   -21.6794575518031
          28 :    21.3047110824754
          29 :   -21.5584466874100
          30 :    21.7097453447701
          31 :   -32.2006684971761
          32 :   -23.3950092770992

     Forces acting on atoms (Ry/au):

     negative rho (up, down):  1.995E-03 0.000E+00
     atom    1 type  1   force =     0.00072001    0.00041614    0.00056712
     atom    2 type  1   force =    -0.00071976    0.00041533    0.00056707
     atom    3 type  1   force =    -0.00000100   -0.00083104    0.00056766
     atom    4 type  1   force =     0.00000098   -0.00000017   -0.00099535
     atom    5 type  1   force =    -0.00000050    0.00138878    0.00542111
     atom    6 type  1   force =     0.00000061   -0.00000061   -0.00524794
     atom    7 type  1   force =    -0.00120315   -0.00069369    0.00542021
     atom    8 type  1   force =     0.00120316   -0.00069424    0.00542051
     atom    9 type  1   force =    -0.00000039   -0.00000009   -0.01123786
     atom   10 type  1   force =     0.00000052   -0.05288598   -0.03142531
     atom   11 type  1   force =    -0.04580019    0.02644325   -0.03142431
     atom   12 type  1   force =     0.04579985    0.02644288   -0.03142245
     atom   13 type  2   force =    -0.00000021   -0.00000057   -0.03644854
     atom   14 type  3   force =     0.00000006    0.00000001    0.13023810

     Total force =     0.172539     Total SCF correction =     0.000575

     entering subroutine stress ...

     negative rho (up, down):  1.995E-03 0.000E+00
          total   stress  (Ry/bohr**3)                   (kbar)     P=    4.41
   0.00000351  -0.00000000  -0.00000000          0.52     -0.00     -0.00
  -0.00000000   0.00000352   0.00000000         -0.00      0.52      0.00
  -0.00000000   0.00000000   0.00008294         -0.00      0.00     12.20

     BFGS Geometry Optimization

     number of scf cycles    =   1
     number of bfgs steps    =   0

     energy   new            =   -3585.4154884357 Ry

     new trust radius        =       0.1302381020 bohr
     new conv_thr            =       0.0000099958 Ry

ATOMIC_POSITIONS (crystal)
Ag1      0.166666667   0.166666667   0.402063960    0   0   0
Ag1      0.666666667   0.166666667   0.402063960    0   0   0
Ag1      0.166666667   0.666666667   0.402063960    0   0   0
Ag1      0.666666667   0.666666667   0.402063960    0   0   0
Ag1      0.833333333   0.333333333   0.500000000    0   0   0
Ag1      0.333333333   0.333333333   0.500000000    0   0   0
Ag1      0.833333333   0.833333333   0.500000000    0   0   0
Ag1      0.333333333   0.833333333   0.500000000    0   0   0
Ag1     -0.000000030  -0.000000009   0.597696940
Ag1      0.502708105  -0.005416117   0.597267426
Ag1     -0.005416093   0.502708085   0.597267447
Ag1      0.502707998   0.502708047   0.597267486
S1       0.333333343   0.333333275   0.662495943
H1       0.333333338   0.333333334   0.716300415

     Writing output data file calc.save
     Check: negative starting charge=   -0.001950
     NEW-OLD atomic charge density approx. for the potential
     Check: negative starting charge=   -0.001949

[...]

     energy   old            =   -3585.4154884357 Ry
     energy   new            =   -3585.4343449278 Ry

     CASE: energy  _new < energy  _old

[...]

     Threshold (ethr) on eigenvalues was too large:
     Diagonalizing with lowered threshold

     Davidson diagonalization with overlap
     ethr =  9.32E-08,  avg # of iterations =  1.0

[...]

     Total force =     0.009130     Total SCF correction =     0.001237
     SCF correction compared to forces is large: reduce conv_thr to get better values

[...]

     Total force =     0.011849     Total SCF correction =     0.000980

[...]

     number of scf cycles    =  14
     number of bfgs steps    =  13

     energy   old            =   -3585.4585967411 Ry
     energy   new            =   -3585.4588009782 Ry

     CASE: energy  _new < energy  _old

     new trust radius        =       0.0346619149 bohr
     new conv_thr            =       0.0000001000 Ry

ATOMIC_POSITIONS (crystal)
Ag1      0.166666667   0.166666667   0.402063960    0   0   0
Ag1      0.666666667   0.166666667   0.402063960    0   0   0
Ag1      0.166666667   0.666666667   0.402063960    0   0   0
Ag1      0.666666667   0.666666667   0.402063960    0   0   0
Ag1      0.833333333   0.333333333   0.500000000    0   0   0
Ag1      0.333333333   0.333333333   0.500000000    0   0   0
Ag1      0.833333333   0.833333333   0.500000000    0   0   0
Ag1      0.333333333   0.833333333   0.500000000    0   0   0
Ag1     -0.000000004  -0.000000008   0.594474978
Ag1      0.506308737  -0.012617379   0.596979166
Ag1     -0.012617265   0.506308727   0.596979181
Ag1      0.506308482   0.506308505   0.596979207
S1       0.333333307   0.333333203   0.673569196
H1       0.333333397   0.333333474   0.728151915

     Writing output data file calc.save
     Check: negative starting charge=   -0.001916
     NEW-OLD atomic charge density approx. for the potential
     Check: negative starting charge=   -0.001909

[...]

     Self-consistent Calculation

[...]

     total energy              =   -3585.45888173 Ry
     Harris-Foulkes estimate   =   -3585.45888162 Ry
     estimated scf accuracy    <       0.00000039 Ry

     iteration #  7     ecut=    36.75 Ry     beta=0.30
     Davidson diagonalization with overlap
     ethr =  1.66E-10,  avg # of iterations =  2.6

[...]

     negative rho (up, down):  1.965E-03 0.000E+00

     Adding external electric field

     Computed dipole along edir(3) :
        Dipole                0.0201 Ry au,          0.0512 Debye
        Dipole field          0.0000 Ry au

        Potential amp.       -0.0045 Ry
        Total length         45.8256 bohr

     End of self-consistent calculation

[...]

          k = 0.0559-0.0645 0.0000 ( 19479 PWs)   bands (ev):

[...]

          k =-0.0838-0.0484 0.0000 ( 19500 PWs)   bands (ev):

   -90.5556 -90.5539 -90.5521 -90.5121 -90.4544 -90.4508 -90.4495 -90.3944
   -90.3394 -90.3269 -90.3250 -90.3235 -54.0798 -54.0637 -54.0596 -54.0578
   -54.0536 -54.0519 -54.0501 -54.0470 -54.0214 -54.0192 -54.0098 -53.9999
   -53.9928 -53.9764 -53.9731 -53.9564 -53.9547 -53.9370 -53.9163 -53.9132
   -53.9124 -53.9030 -53.8916 -53.8757 -53.8626 -53.8558 -53.8411 -53.8306
   -53.8282 -53.8262 -53.8198 -53.8060 -53.8050 -53.8030 -53.8022 -53.8000
   -11.8000  -5.2922  -4.1139  -4.0357  -3.9474  -3.9218  -3.8912  -3.8528
    -3.8173  -3.7753  -3.6668  -3.6483  -3.6388  -3.6196  -3.5602  -3.5336
    -3.4631  -3.4288  -3.3084  -3.2950  -3.2379  -3.1904  -3.1901  -3.1728
    -3.0814  -3.0612  -2.9298  -2.9202  -2.8847  -2.8691  -2.8299  -2.7984
    -2.7666  -2.7549  -2.6633  -2.6139  -2.6133  -2.5443  -2.5294  -2.5254
    -2.4962  -2.4684  -2.4590  -2.4075  -2.3536  -2.3428  -2.3147  -2.2959
    -2.2609  -2.2603  -2.2447  -2.1916  -2.1713  -2.0786  -2.0350  -2.0299
    -1.9995  -1.7871  -1.7609  -1.7230  -1.7003  -1.6809  -1.5898  -1.5659
    -1.2038  -0.2638  -0.2597   0.0387   1.2417   1.3071   2.1443   2.2786
     2.7790   2.8485   4.4765   4.7752   5.0068   5.1137   5.9809

     the Fermi energy is     1.4955 ev

!    total energy              =   -3585.45888175 Ry
     Harris-Foulkes estimate   =   -3585.45888177 Ry
     estimated scf accuracy    <       0.00000006 Ry

     The total energy is the sum of the following terms:

     one-electron contribution =  -26267.34461376 Ry
     hartree contribution      =   13128.65023746 Ry
     xc contribution           =    -370.58650284 Ry
     ewald contribution        =    9923.84763256 Ry
     electric field correction =       0.00000098 Ry
     smearing contrib. (-TS)   =      -0.02563616 Ry

     convergence has been achieved in   7 iterations

 BEEF-vdW xc energy contributions
           1 :   -320.925345137143
           2 :    290.283728736981
           3 :   -239.189323235582
           4 :    183.055926591889
           5 :   -135.865908224479
           6 :    105.172852967606
           7 :   -90.7002834669218
           8 :    86.5385429503177
           9 :   -85.2793134052790
          10 :    81.7475646416740
          11 :   -74.6265450690453
          12 :    65.6665747179359
          13 :   -57.5274388978747
          14 :    51.8113685466416
          15 :   -48.3670603420235
          16 :    45.9183253791708
          17 :   -43.2531656519786
          18 :    40.0370967980858
          19 :   -36.7890709419451
          20 :    34.2261704531048
          21 :   -32.5864688176102
          22 :    31.4380309948667
          23 :   -30.0515666670309
          24 :    27.9891116184697
          25 :   -25.4472772507382
          26 :    23.1125077853525
          27 :   -21.6605948373980
          28 :    21.2773545679701
          29 :   -21.5404471139346
          30 :    21.7242574304713
          31 :   -32.1886997325631
          32 :   -23.3639315867613

     Forces acting on atoms (Ry/au):

     negative rho (up, down):  1.965E-03 0.000E+00
     atom    1 type  1   force =     0.00033639    0.00019421    0.00078440
     atom    2 type  1   force =    -0.00033639    0.00019422    0.00078440
     atom    3 type  1   force =     0.00000000   -0.00038844    0.00078441
     atom    4 type  1   force =    -0.00000000   -0.00000000   -0.00057244
     atom    5 type  1   force =    -0.00000002    0.00173126   -0.00066237
     atom    6 type  1   force =    -0.00000000    0.00000000   -0.00016427
     atom    7 type  1   force =    -0.00149927   -0.00086562   -0.00066246
     atom    8 type  1   force =     0.00149928   -0.00086565   -0.00066240
     atom    9 type  1   force =     0.00000005    0.00000005    0.00098759
     atom   10 type  1   force =    -0.00000010   -0.00030308   -0.00040775
     atom   11 type  1   force =    -0.00026260    0.00015144   -0.00040777
     atom   12 type  1   force =     0.00026270    0.00015163   -0.00040783
     atom   13 type  2   force =    -0.00000006   -0.00000007    0.00187905
     atom   14 type  3   force =     0.00000003    0.00000004   -0.00127258

     Total force =     0.002627     Total SCF correction =     0.001248
     SCF correction compared to forces is large: reduce conv_thr to get better values

     entering subroutine stress ...

     negative rho (up, down):  1.965E-03 0.000E+00
          total   stress  (Ry/bohr**3)                   (kbar)     P=   -3.46
  -0.00002425  -0.00000000   0.00000000         -3.57     -0.00      0.00
  -0.00000000  -0.00002425   0.00000000         -0.00     -3.57      0.00
   0.00000000   0.00000000  -0.00002204          0.00      0.00     -3.24

     bfgs converged in  15 scf cycles and  14 bfgs steps
     (criteria: energy <  1.0E+00, force <  1.9E-03)

     End of BFGS Geometry Optimization

     Final energy   =   -3585.4588817481 Ry
Begin final coordinates

ATOMIC_POSITIONS (crystal)
Ag1      0.166666667   0.166666667   0.402063960    0   0   0
Ag1      0.666666667   0.166666667   0.402063960    0   0   0
Ag1      0.166666667   0.666666667   0.402063960    0   0   0
Ag1      0.666666667   0.666666667   0.402063960    0   0   0
Ag1      0.833333333   0.333333333   0.500000000    0   0   0
Ag1      0.333333333   0.333333333   0.500000000    0   0   0
Ag1      0.833333333   0.833333333   0.500000000    0   0   0
Ag1      0.333333333   0.833333333   0.500000000    0   0   0
Ag1     -0.000000004  -0.000000008   0.594474978
Ag1      0.506308737  -0.012617379   0.596979166
Ag1     -0.012617265   0.506308727   0.596979181
Ag1      0.506308482   0.506308505   0.596979207
S1       0.333333307   0.333333203   0.673569196
H1       0.333333397   0.333333474   0.728151915
End final coordinates

     Writing output data file calc.save

     General routines

     Parallel routines

   This run was terminated on:  11:35: 0  16Apr2018

   JOB DONE.
Job  /afs/slac/g/suncat/bin/suncat-tsmpirun -x LD_LIBRARY_PATH -wdir /scratch/qe103559_qpiBD pw.x -npool 4 -in pw.inp

TID   HOST_NAME   COMMAND_LINE            STATUS            TERMINATION_TIME
00000 suncat0077 pw.x -npool 4 -i  Done                     04/16/2018 11:35:00
00001 suncat0077 pw.x -npool 4 -i  Done                     04/16/2018 11:35:00
00002 suncat0077 pw.x -npool 4 -i  Done                     04/16/2018 11:35:00
00003 suncat0077 pw.x -npool 4 -i  Done                     04/16/2018 11:35:00
00004 suncat0077 pw.x -npool 4 -i  Done                     04/16/2018 11:35:00
00005 suncat0077 pw.x -npool 4 -i  Done                     04/16/2018 11:35:00
00006 suncat0077 pw.x -npool 4 -i  Done                     04/16/2018 11:35:00
00007 suncat0077 pw.x -npool 4 -i  Done                     04/16/2018 11:35:00
00008 suncat0053 pw.x -npool 4 -i  Done                     04/16/2018 11:35:00
00009 suncat0053 pw.x -npool 4 -i  Done                     04/16/2018 11:35:00
00010 suncat0053 pw.x -npool 4 -i  Done                     04/16/2018 11:35:00
00011 suncat0053 pw.x -npool 4 -i  Done                     04/16/2018 11:35:00
00012 suncat0053 pw.x -npool 4 -i  Done                     04/16/2018 11:35:00
00013 suncat0053 pw.x -npool 4 -i  Done                     04/16/2018 11:35:00
00014 suncat0053 pw.x -npool 4 -i  Done                     04/16/2018 11:35:00
00015 suncat0053 pw.x -npool 4 -i  Done                     04/16/2018 11:35:00
00016 suncat0130 pw.x -npool 4 -i  Done                     04/16/2018 11:35:00
00017 suncat0130 pw.x -npool 4 -i  Done                     04/16/2018 11:35:00
00018 suncat0130 pw.x -npool 4 -i  Done                     04/16/2018 11:35:00
00019 suncat0130 pw.x -npool 4 -i  Done                     04/16/2018 11:35:00
00020 suncat0130 pw.x -npool 4 -i  Done                     04/16/2018 11:35:00
00021 suncat0130 pw.x -npool 4 -i  Done                     04/16/2018 11:35:00
00022 suncat0130 pw.x -npool 4 -i  Done                     04/16/2018 11:35:00
00023 suncat0130 pw.x -npool 4 -i  Done                     04/16/2018 11:35:00
00024 suncat0238 pw.x -npool 4 -i  Done                     04/16/2018 11:35:00
00025 suncat0238 pw.x -npool 4 -i  Done                     04/16/2018 11:35:00
00026 suncat0238 pw.x -npool 4 -i  Done                     04/16/2018 11:35:00
00027 suncat0238 pw.x -npool 4 -i  Done                     04/16/2018 11:35:00
00028 suncat0238 pw.x -npool 4 -i  Done                     04/16/2018 11:35:00
00029 suncat0238 pw.x -npool 4 -i  Done                     04/16/2018 11:35:00
00030 suncat0238 pw.x -npool 4 -i  Done                     04/16/2018 11:35:00
00031 suncat0238 pw.x -npool 4 -i  Done                     04/16/2018 11:35:00