     Program PWSCF v.5.1rc2 (svn rev. 11289) starts on  3May2018 at 18:29:43

     Current dimensions of program PWSCF are:
     Max number of different atomic species (ntypx) = 10
     Max number of k-points (npk) =  40000
     Max angular momentum in pseudopotentials (lmaxx) =  3
     Presently stress not available with electric field

     IMPORTANT: XC functional enforced from input :
     Exchange-correlation      = BEEF-VDW ( 1  4 27 13 2)
     Any further DFT definition will be discarded
     Please, verify this is what you really want

     Subspace diagonalization in iterative solution of the eigenvalue problem:
     a serial algorithm will be used

     bravais-lattice index     =            0
     lattice parameter (alat)  =       1.8897  a.u.
     unit-cell volume          =    5409.9593 (a.u.)^3
     number of atoms/cell      =           13
     number of atomic types    =            2
     number of electrons       =       229.00
     number of Kohn-Sham states=          124
     kinetic-energy cutoff     =      36.7493  Ry
     charge density cutoff     =     367.4932  Ry
     convergence threshold     =      1.0E-05
     mixing beta               =       0.3000
     number of iterations used =           10  plain     mixing
     Exchange-correlation      = BEEF-VDW ( 1  4 27 13 2)
     nstep                     =           50

     celldm(1)=   1.889726  celldm(2)=   0.000000  celldm(3)=   0.000000
     celldm(4)=   0.000000  celldm(5)=   0.000000  celldm(6)=   0.000000

     crystal axes: (cart. coord. in units of alat)
               a(1) = (   6.088539   0.000000   0.000000 )
               a(2) = (   3.044269   5.272829   0.000000 )
               a(3) = (   0.000000   0.000000  24.971271 )

     reciprocal axes: (cart. coord. in units 2 pi/alat)
               b(1) = (  0.164243 -0.094826  0.000000 )
               b(2) = (  0.000000  0.189652  0.000000 )
               b(3) = (  0.000000  0.000000  0.040046 )

     PseudoPot. # 1 for Ga read from file:
     /u/if/mamunm/psp/gbrv1.5pbe/Ga.UPF
     MD5 check sum: ccd671392a58a050fbb373893b4fcd66
     Pseudo is Ultrasoft + core correction, Zval = 19.0
     Generated by new atomic code, or converted to UPF format
     Using radial grid of  871 points,  6 beta functions with:
                l(1) =   0
                l(2) =   0
                l(3) =   1
                l(4) =   1
                l(5) =   2
                l(6) =   2
     Q(r) pseudized with  8 coefficients,  rinner =    1.250   1.250   1.250
                                                       1.250   1.250

     PseudoPot. # 2 for H  read from file:
     /u/if/mamunm/psp/gbrv1.5pbe/H.UPF
     MD5 check sum: 761ae9a214b05c3daf00ab9f6b793d6f
     Pseudo is Ultrasoft, Zval =  1.0
     Generated by new atomic code, or converted to UPF format
     Using radial grid of  615 points,  2 beta functions with:
                l(1) =   0
                l(2) =   0
     Q(r) pseudized with  8 coefficients,  rinner =    0.700

     vdW kernel table read from file vdW_kernel_table
     MD5 check sum: 095c7af220d748ca6e76c0b4c6cfb241

     atomic species   valence    mass     pseudopotential
        Ga1           19.00    69.72300     Ga( 1.00)
        H1             1.00     1.00800     H ( 1.00)

     No symmetry found

   Cartesian axes

     site n.     atom                  positions (alat units)
         1           Ga1 tau(   1) = (   1.5221346   0.8788048  10.0000000  )
         2           Ga1 tau(   2) = (   4.5664039   0.8788048  10.0000000  )
         3           Ga1 tau(   3) = (   3.0442693   3.5152194  10.0000000  )
         4           Ga1 tau(   4) = (   6.0885386   3.5152194  10.0000000  )
         5           Ga1 tau(   5) = (   6.0885386   1.7576097  12.4856355  )
         6           Ga1 tau(   6) = (   3.0442693   1.7576097  12.4856355  )
         7           Ga1 tau(   7) = (   7.6106732   4.3940242  12.4856355  )
         8           Ga1 tau(   8) = (   4.5664039   4.3940242  12.4856355  )
         9           Ga1 tau(   9) = (   0.0000000   0.0000000  14.9712709  )
        10           Ga1 tau(  10) = (   3.0442693   0.0000000  14.9712709  )
        11           Ga1 tau(  11) = (   1.5221346   2.6364145  14.9712709  )
        12           Ga1 tau(  12) = (   4.5664039   2.6364145  14.9712709  )
        13           H1  tau(  13) = (   1.5221346   0.0000000  16.1187709  )

     number of k points=    20  Fermi-Dirac smearing, width (Ry)=  0.0110
                       cart. coord. in units 2pi/alat
        k(    1) = (   0.0000000   0.0000000   0.0000000), wk =   0.0555556
        k(    2) = (   0.0000000   0.0316086   0.0000000), wk =   0.1111111
        k(    3) = (   0.0000000   0.0632172   0.0000000), wk =   0.1111111
        k(    4) = (   0.0000000  -0.0948258   0.0000000), wk =   0.0555556
        k(    5) = (   0.0273738  -0.0158043   0.0000000), wk =   0.1111111
        k(    6) = (   0.0273738   0.0158043   0.0000000), wk =   0.1111111
        k(    7) = (   0.0273738   0.0474129   0.0000000), wk =   0.1111111
        k(    8) = (   0.0273738  -0.1106300   0.0000000), wk =   0.1111111
        k(    9) = (   0.0273738  -0.0790215   0.0000000), wk =   0.1111111
        k(   10) = (   0.0273738  -0.0474129   0.0000000), wk =   0.1111111
        k(   11) = (   0.0547477  -0.0316086   0.0000000), wk =   0.1111111
        k(   12) = (   0.0547477   0.0000000   0.0000000), wk =   0.1111111
        k(   13) = (   0.0547477   0.0316086   0.0000000), wk =   0.1111111
        k(   14) = (   0.0547477  -0.1264343   0.0000000), wk =   0.1111111
        k(   15) = (   0.0547477  -0.0948258   0.0000000), wk =   0.1111111
        k(   16) = (   0.0547477  -0.0632172   0.0000000), wk =   0.1111111
        k(   17) = (  -0.0821215   0.0474129   0.0000000), wk =   0.0555556
        k(   18) = (  -0.0821215   0.0790215   0.0000000), wk =   0.1111111
        k(   19) = (  -0.0821215   0.1106300   0.0000000), wk =   0.1111111
        k(   20) = (  -0.0821215  -0.0474129   0.0000000), wk =   0.0555556

     Largest allocated arrays     est. size (Mb)     dimensions
     Largest temporary arrays     est. size (Mb)     dimensions

     Initial potential from superposition of free atoms
     Check: negative starting charge=   -0.001277

     starting charge  216.99998, renormalised to  229.00000

     negative rho (up, down):  1.348E-03 0.000E+00

     *
     * You are using vdW-DF for exchange-correlation in this calculation.
     * Please cite the following three references that made this development
     * possible:
     *
     *   M. Dion, H. Rydberg, E. Schroder, D. C. Langreth, and
     *   B. I. Lundqvist, Phys. Rev. Lett. 92, 246401 (2004).
     *
     *   T. Thonhauser, V. R. Cooper, S. Li, A. Puzder, P. Hyldgaard, and
     *   D. C. Langreth, Phys. Rev. B 76, 125112 (2007).
     *
     *   G. Roman-Perez and J. M. Soler, Phys. Rev. Lett. 103, 096102 (2009).
     *
     *
     * If you are using vdW-DF2, please also cite:
     *
     *   K. Lee, E. D. Murray, L. Kong, B. I. Lundqvist, and
     *   D. C. Langreth, Phys. Rev. B 82, 081101(R) (2010).
     *
     *
     * If you are calculating the stress with vdW-DF, please also cite:
     *
     *   R. Sabatini, E. Kucukbenli, B. Kolb, T. Thonhauser, and
     *   S. de Gironcoli, J. Phys.: Condens. Matter 24, 424209 (2012).
     *

     Carrying out vdW-DF run using the following parameters:

     Nqs =      20    Nr_points =    1024   r_max =   100.000
     q_mesh =
               0.00001000     0.04494208     0.09755937     0.15916263
               0.23128650     0.31572767     0.41458969     0.53033537
               0.66584808     0.82450364     1.01025438     1.22772762
               1.48234092     1.78043706     2.12944203     2.53805004
               3.01644009     3.57652955     4.23227104     5.00000000

     Gradients computed in reciprocal space

     Adding external electric field

     Computed dipole along edir(3) :
        Dipole               -0.3796 Ry au,         -0.9649 Debye
        Dipole field         -0.0009 Ry au

        Potential amp.        0.0811 Ry
        Total length         46.0091 bohr

     Starting wfc are  145 randomized atomic wfcs

     Self-consistent Calculation

     iteration #  1     ecut=    36.75 Ry     beta=0.30
     Davidson diagonalization with overlap
     ethr =  1.00E-02,  avg # of iterations =  8.2

[...]

     total energy              =   -4935.66656998 Ry
     Harris-Foulkes estimate   =   -5023.62992936 Ry
     estimated scf accuracy    <     183.74604398 Ry

[...]

     End of self-consistent calculation

          k = 0.0000 0.0000 0.0000 ( 20347 PWs)   bands (ev):

   -94.6851 -94.6845 -94.6706 -94.6699 -94.6692 -94.6691 -94.6575 -94.6557
   -94.6556 -94.6529 -94.6521 -94.6497 -94.6491 -94.6483 -94.6430 -94.6422
   -94.6411 -94.6365 -94.6359 -94.6347 -94.6341 -94.6338 -94.6333 -94.6330
   -94.6302 -94.6278 -94.6268 -94.6262 -94.6210 -94.6205 -94.6203 -94.6182
   -94.6172 -94.6145 -94.6133 -94.6129 -15.1530 -15.1477 -15.1446 -15.1181
   -15.1136 -15.1046 -15.1039 -15.0954 -15.0947 -15.0849 -15.0735 -15.0726
   -15.0699 -15.0670 -15.0514 -15.0387 -15.0378 -15.0365 -15.0318 -15.0310
   -15.0306 -15.0305 -15.0277 -15.0164 -15.0133 -15.0124 -15.0119 -15.0057
   -15.0048 -15.0026 -14.9567 -14.9525 -14.9506 -14.9372 -14.9329 -14.9286
   -14.9279 -14.9258 -14.9250 -14.9215 -14.8826 -14.8814 -14.8810 -14.8723
   -14.8712 -14.8708 -14.8645 -14.8639 -14.8587 -14.8529 -14.8485 -14.8476
   -14.8442 -14.8409 -14.8397 -14.8385 -14.8346 -14.8249 -14.8248 -14.8195
   -10.0654  -8.7191  -6.6482  -5.0637  -4.8238  -4.8088  -4.6159  -4.4524
    -4.4374  -3.9034  -3.2071  -3.1697  -2.9691  -2.6673  -2.6660  -2.4567
    -1.5242  -0.9259  -0.8841  -0.8295  -0.7207  -0.7159   0.4907   1.9357
     2.9392   3.0080   3.0684   3.1026

[...]

          k =-0.0821 0.0474 0.0000 ( 20384 PWs)   bands (ev):

[...]

     the Fermi energy is     0.0900 ev

!    total energy              =   -5000.19469924 Ry
     Harris-Foulkes estimate   =   -5000.19469681 Ry
     estimated scf accuracy    <       0.00000069 Ry

     The total energy is the sum of the following terms:

     one-electron contribution =  -27141.52918323 Ry
     hartree contribution      =   13574.68248735 Ry
     xc contribution           =    -597.19213727 Ry
     ewald contribution        =    9163.87704222 Ry
     electric field correction =       0.00001034 Ry
     smearing contrib. (-TS)   =      -0.03291865 Ry

     convergence has been achieved in  15 iterations

 BEEF-vdW xc energy contributions
           1 :   -533.985159455183
           2 :    484.829046766413
           3 :   -402.363468010492
           4 :    310.532861143387
           5 :   -230.601892474782
           6 :    173.137075215167
           7 :   -136.438059417640
           8 :    111.250512990341
           9 :   -88.1905225725186
          10 :    63.2575123296553
          11 :   -38.6422541437480
          12 :    19.3178780975250
          13 :   -8.45420559322338
          14 :    4.94094946359928
          15 :   -4.37917051858619
          16 :    2.32674034490776
          17 :    2.80336851482696
          18 :   -9.21262557037653
          19 :    13.6478799480019
          20 :   -14.1261668325066
          21 :    11.3956305461116
          22 :   -8.20617598608374
          23 :    7.14417005844075
          24 :   -8.76875364344971
          25 :    11.4094465975751
          26 :   -12.6457136595882
          27 :    11.2351921485072
          28 :   -8.01634755397822
          29 :    5.17782711020936
          30 :   -4.54759178402765
          31 :   -39.3348885872126
          32 :   -26.7038731763597

     Forces acting on atoms (Ry/au):

     negative rho (up, down):  1.024E-03 0.000E+00
     atom    1 type  1   force =    -0.00000031    0.00210294    0.00325944
     atom    2 type  1   force =    -0.00000043   -0.00044819    0.00281623
     atom    3 type  1   force =    -0.00044002    0.00017546    0.00189525
     atom    4 type  1   force =     0.00043681    0.00017498    0.00190456
     atom    5 type  1   force =    -0.00098270    0.00035681   -0.00015680
     atom    6 type  1   force =     0.00098444    0.00034841   -0.00016220
     atom    7 type  1   force =    -0.00000434   -0.00479316   -0.00348502
     atom    8 type  1   force =     0.00000702   -0.00127170    0.00602589
     atom    9 type  1   force =    -0.00620344   -0.00219852    0.00543072
     atom   10 type  1   force =     0.00620765   -0.00219477    0.00542505
     atom   11 type  1   force =     0.00000224    0.01383758   -0.00426857
     atom   12 type  1   force =    -0.00000603   -0.00873634   -0.00444216
     atom   13 type  2   force =    -0.00000090    0.00264651   -0.01424238

     Total force =     0.025714     Total SCF correction =     0.003313
     SCF correction compared to forces is large: reduce conv_thr to get better values

     entering subroutine stress ...

     negative rho (up, down):  1.024E-03 0.000E+00
          total   stress  (Ry/bohr**3)                   (kbar)     P=   -6.34
  -0.00005678  -0.00000000  -0.00000000         -8.35     -0.00     -0.00
  -0.00000000  -0.00003949   0.00000223         -0.00     -5.81      0.33
  -0.00000000   0.00000223  -0.00003303         -0.00      0.33     -4.86

     BFGS Geometry Optimization

     number of scf cycles    =   1
     number of bfgs steps    =   0

     energy   new            =   -5000.1946992376 Ry

     new trust radius        =       0.0144861818 bohr
     new conv_thr            =       0.0000099958 Ry

ATOMIC_POSITIONS (crystal)
Ga1      0.166666667   0.166666667   0.400460194    0   0   0
Ga1      0.666666667   0.166666667   0.400460194    0   0   0
Ga1      0.166666667   0.666666667   0.400460194    0   0   0
Ga1      0.666666667   0.666666667   0.400460194    0   0   0
Ga1      0.833333333   0.333333333   0.500000000    0   0   0
Ga1      0.333333333   0.333333333   0.500000000    0   0   0
Ga1      0.833333333   0.833333333   0.500000000    0   0   0
Ga1      0.333333333   0.833333333   0.500000000    0   0   0
Ga1     -0.000428843  -0.000220642   0.599654891
Ga1      0.500649662  -0.000220266   0.599654770
Ga1     -0.000694170   0.501388729   0.599449349
Ga1      0.500437862   0.499123227   0.599445670
H1       0.249867121   0.000265602   0.645190797

     Writing output data file calc.save
     Check: negative starting charge=   -0.001277
     NEW-OLD atomic charge density approx. for the potential
     Check: negative starting charge=   -0.001278

[...]

     energy   old            =   -5000.1946992376 Ry
     energy   new            =   -5000.1953573145 Ry

     CASE: energy  _new < energy  _old

     WARNING: bfgs curvature condition failed, Theta= 0.801
     new trust radius        =       0.0217292727 bohr
     new conv_thr            =       0.0000001000 Ry

[...]

     Threshold (ethr) on eigenvalues was too large:
     Diagonalizing with lowered threshold

     Davidson diagonalization with overlap
     ethr =  9.46E-08,  avg # of iterations =  1.1

[...]

     Total force =     0.024016     Total SCF correction =     0.000823

[...]

     WARNING: bfgs curvature condition failed, Theta= 0.789
     new trust radius        =       0.0061202839 bohr
     new conv_thr            =       0.0000001000 Ry

[...]

     Threshold (ethr) on eigenvalues was too large:
     Diagonalizing with lowered threshold

     Davidson diagonalization with overlap
     ethr =  5.16E-08,  avg # of iterations =  1.4

[...]

     Total force =     0.016947     Total SCF correction =     0.000866

[...]

     number of scf cycles    =  25
     number of bfgs steps    =  24

     energy   old            =   -5000.2073287109 Ry
     energy   new            =   -5000.2074975103 Ry

     CASE: energy  _new < energy  _old

     new trust radius        =       0.0678227063 bohr
     new conv_thr            =       0.0000001000 Ry

ATOMIC_POSITIONS (crystal)
Ga1      0.166666667   0.166666667   0.400460194    0   0   0
Ga1      0.666666667   0.166666667   0.400460194    0   0   0
Ga1      0.166666667   0.666666667   0.400460194    0   0   0
Ga1      0.666666667   0.666666667   0.400460194    0   0   0
Ga1      0.833333333   0.333333333   0.500000000    0   0   0
Ga1      0.333333333   0.333333333   0.500000000    0   0   0
Ga1      0.833333333   0.833333333   0.500000000    0   0   0
Ga1      0.333333333   0.833333333   0.500000000    0   0   0
Ga1     -0.008422527   0.000034032   0.596007406
Ga1      0.508392464   0.000036586   0.596003996
Ga1     -0.021935556   0.543841865   0.599505216
Ga1      0.508233121   0.483514352   0.595223806
H1       0.206254202   0.087515564   0.628000530

     Writing output data file calc.save
     Check: negative starting charge=   -0.001299
     NEW-OLD atomic charge density approx. for the potential
     Check: negative starting charge=   -0.001301

[...]

     Self-consistent Calculation

[...]

     total energy              =   -5000.20761031 Ry
     Harris-Foulkes estimate   =   -5000.20761020 Ry
     estimated scf accuracy    <       0.00000044 Ry

     iteration #  7     ecut=    36.75 Ry     beta=0.30
     Davidson diagonalization with overlap
     ethr =  1.93E-10,  avg # of iterations =  4.0

[...]

     negative rho (up, down):  1.038E-03 0.000E+00

     Adding external electric field

     Computed dipole along edir(3) :
        Dipole               -0.0188 Ry au,         -0.0477 Debye
        Dipole field         -0.0000 Ry au

        Potential amp.        0.0040 Ry
        Total length         46.0091 bohr

     End of self-consistent calculation

[...]

          k = 0.0547-0.0632 0.0000 ( 20377 PWs)   bands (ev):

[...]

          k =-0.0821-0.0474 0.0000 ( 20384 PWs)   bands (ev):

   -94.6766 -94.6765 -94.6613 -94.6612 -94.6476 -94.6474 -94.6202 -94.6167
   -94.6164 -94.6129 -94.6129 -94.6070 -94.5976 -94.5967 -94.5945 -94.5934
   -94.5933 -94.5928 -94.5919 -94.5918 -94.5913 -94.5903 -94.5869 -94.5773
   -94.5724 -94.5716 -94.5716 -94.5699 -94.5697 -94.5687 -94.5620 -94.5616
   -94.5615 -94.5567 -94.5418 -94.5378 -15.1068 -15.0795 -15.0747 -15.0619
   -15.0567 -15.0496 -15.0455 -15.0376 -15.0341 -15.0311 -15.0208 -15.0137
   -15.0079 -15.0033 -14.9948 -14.9940 -14.9857 -14.9842 -14.9805 -14.9774
   -14.9668 -14.9618 -14.9575 -14.9531 -14.9516 -14.9465 -14.9447 -14.9373
   -14.9358 -14.9328 -14.9285 -14.9188 -14.9109 -14.9081 -14.9046 -14.8950
   -14.8925 -14.8872 -14.8828 -14.8798 -14.8773 -14.8739 -14.8712 -14.8660
   -14.8628 -14.8588 -14.8571 -14.8542 -14.8529 -14.8378 -14.8353 -14.8338
   -14.8270 -14.8217 -14.8184 -14.8132 -14.8058 -14.7941 -14.7783 -14.7776
    -8.7966  -8.7773  -7.5401  -7.3207  -6.2463  -5.8759  -5.4518  -5.0272
    -4.7051  -4.4270  -2.9516  -2.4973  -1.4457  -0.9194  -0.5488  -0.4031
    -0.2119  -0.0408   0.2992   1.0994   1.1350   1.2245   1.8897   2.0792
     2.2128   2.2545   2.4602   2.6361

     the Fermi energy is     0.1330 ev

!    total energy              =   -5000.20761043 Ry
     Harris-Foulkes estimate   =   -5000.20761036 Ry
     estimated scf accuracy    <       0.00000008 Ry

     The total energy is the sum of the following terms:

     one-electron contribution =  -27409.38103563 Ry
     hartree contribution      =   13708.92398440 Ry
     xc contribution           =    -597.28509395 Ry
     ewald contribution        =    9297.56423051 Ry
     electric field correction =       0.00000082 Ry
     smearing contrib. (-TS)   =      -0.02969658 Ry

     convergence has been achieved in   7 iterations

 BEEF-vdW xc energy contributions
           1 :   -534.082897450098
           2 :    484.970936752610
           3 :   -402.552367707693
           4 :    310.723623959927
           5 :   -230.731778049694
           6 :    173.167999883632
           7 :   -136.381369945502
           8 :    111.158625092978
           9 :   -88.1223581483907
          10 :    63.2426790892693
          11 :   -38.6680115083138
          12 :    19.3457131169091
          13 :   -8.45191153162068
          14 :    4.90527604783438
          15 :   -4.33330386136026
          16 :    2.29789235589760
          17 :    2.80646073387948
          18 :   -9.20426742958080
          19 :    13.6491702631311
          20 :   -14.1424541906129
          21 :    11.4083161239115
          22 :   -8.18705218399055
          23 :    7.08201425986317
          24 :   -8.68724058904695
          25 :    11.3606594644236
          26 :   -12.6807430894079
          27 :    11.3702532392994
          28 :   -8.21604008124632
          29 :    5.36550892770492
          30 :   -4.63519021952993
          31 :   -39.3433950368578
          32 :   -26.7221648141617

     Forces acting on atoms (Ry/au):

     negative rho (up, down):  1.038E-03 0.000E+00
     atom    1 type  1   force =     0.00000033    0.00143482    0.00260513
     atom    2 type  1   force =     0.00000013   -0.00229197    0.00378339
     atom    3 type  1   force =     0.00016390    0.00089667    0.00295033
     atom    4 type  1   force =    -0.00016436    0.00089725    0.00295099
     atom    5 type  1   force =     0.00213793    0.00000069    0.00009463
     atom    6 type  1   force =    -0.00213916    0.00000194    0.00009243
     atom    7 type  1   force =     0.00000155   -0.00247722   -0.01241905
     atom    8 type  1   force =    -0.00000071   -0.00049655    0.00246411
     atom    9 type  1   force =     0.00000890    0.00162206   -0.00024009
     atom   10 type  1   force =    -0.00001058    0.00162542   -0.00023717
     atom   11 type  1   force =     0.00000150   -0.00093618   -0.00062462
     atom   12 type  1   force =     0.00000084    0.00002753   -0.00002635
     atom   13 type  2   force =    -0.00000026   -0.00030445   -0.00139372

     Total force =     0.002948     Total SCF correction =     0.001849
     SCF correction compared to forces is large: reduce conv_thr to get better values

     entering subroutine stress ...

     negative rho (up, down):  1.038E-03 0.000E+00
          total   stress  (Ry/bohr**3)                   (kbar)     P=   -4.47
  -0.00004012   0.00000000   0.00000000         -5.90      0.00      0.00
   0.00000000  -0.00003075   0.00000191          0.00     -4.52      0.28
   0.00000000   0.00000191  -0.00002023          0.00      0.28     -2.98

     bfgs converged in  26 scf cycles and  25 bfgs steps
     (criteria: energy <  1.0E+00, force <  1.9E-03)

     End of BFGS Geometry Optimization

     Final energy   =   -5000.2076104337 Ry
Begin final coordinates

ATOMIC_POSITIONS (crystal)
Ga1      0.166666667   0.166666667   0.400460194    0   0   0
Ga1      0.666666667   0.166666667   0.400460194    0   0   0
Ga1      0.166666667   0.666666667   0.400460194    0   0   0
Ga1      0.666666667   0.666666667   0.400460194    0   0   0
Ga1      0.833333333   0.333333333   0.500000000    0   0   0
Ga1      0.333333333   0.333333333   0.500000000    0   0   0
Ga1      0.833333333   0.833333333   0.500000000    0   0   0
Ga1      0.333333333   0.833333333   0.500000000    0   0   0
Ga1     -0.008422527   0.000034032   0.596007406
Ga1      0.508392464   0.000036586   0.596003996
Ga1     -0.021935556   0.543841865   0.599505216
Ga1      0.508233121   0.483514352   0.595223806
H1       0.206254202   0.087515564   0.628000530
End final coordinates

     Writing output data file calc.save

     General routines

     Parallel routines

   This run was terminated on:  21: 3:53   3May2018

   JOB DONE.
Job  /afs/slac/g/suncat/bin/suncat-tsmpirun -x LD_LIBRARY_PATH -wdir /scratch/qe802375_OB1yu pw.x -npool 4 -in pw.inp

TID   HOST_NAME   COMMAND_LINE            STATUS            TERMINATION_TIME
00000 suncat0244 pw.x -npool 4 -i  Done                     05/03/2018 21:03:53
00001 suncat0244 pw.x -npool 4 -i  Done                     05/03/2018 21:03:53
00002 suncat0244 pw.x -npool 4 -i  Done                     05/03/2018 21:03:53
00003 suncat0244 pw.x -npool 4 -i  Done                     05/03/2018 21:03:53
00004 suncat0244 pw.x -npool 4 -i  Done                     05/03/2018 21:03:53
00005 suncat0244 pw.x -npool 4 -i  Done                     05/03/2018 21:03:53
00006 suncat0244 pw.x -npool 4 -i  Done                     05/03/2018 21:03:53
00007 suncat0244 pw.x -npool 4 -i  Done                     05/03/2018 21:03:53
00008 suncat0243 pw.x -npool 4 -i  Done                     05/03/2018 21:03:53
00009 suncat0243 pw.x -npool 4 -i  Done                     05/03/2018 21:03:53
00010 suncat0243 pw.x -npool 4 -i  Done                     05/03/2018 21:03:53
00011 suncat0243 pw.x -npool 4 -i  Done                     05/03/2018 21:03:53
00012 suncat0243 pw.x -npool 4 -i  Done                     05/03/2018 21:03:53
00013 suncat0243 pw.x -npool 4 -i  Done                     05/03/2018 21:03:53
00014 suncat0243 pw.x -npool 4 -i  Done                     05/03/2018 21:03:53
00015 suncat0243 pw.x -npool 4 -i  Done                     05/03/2018 21:03:53
00016 suncat0214 pw.x -npool 4 -i  Done                     05/03/2018 21:03:53
00017 suncat0214 pw.x -npool 4 -i  Done                     05/03/2018 21:03:53
00018 suncat0214 pw.x -npool 4 -i  Done                     05/03/2018 21:03:53
00019 suncat0214 pw.x -npool 4 -i  Done                     05/03/2018 21:03:53
00020 suncat0214 pw.x -npool 4 -i  Done                     05/03/2018 21:03:53
00021 suncat0214 pw.x -npool 4 -i  Done                     05/03/2018 21:03:53
00022 suncat0214 pw.x -npool 4 -i  Done                     05/03/2018 21:03:53
00023 suncat0214 pw.x -npool 4 -i  Done                     05/03/2018 21:03:53
00024 suncat0206 pw.x -npool 4 -i  Done                     05/03/2018 21:03:53
00025 suncat0206 pw.x -npool 4 -i  Done                     05/03/2018 21:03:53
00026 suncat0206 pw.x -npool 4 -i  Done                     05/03/2018 21:03:53
00027 suncat0206 pw.x -npool 4 -i  Done                     05/03/2018 21:03:53
00028 suncat0206 pw.x -npool 4 -i  Done                     05/03/2018 21:03:53
00029 suncat0206 pw.x -npool 4 -i  Done                     05/03/2018 21:03:53
00030 suncat0206 pw.x -npool 4 -i  Done                     05/03/2018 21:03:53
00031 suncat0206 pw.x -npool 4 -i  Done                     05/03/2018 21:03:53