     Program PWSCF v.5.1rc2 (svn rev. 11289) starts on  3May2018 at  9: 2:29

     Current dimensions of program PWSCF are:
     Max number of different atomic species (ntypx) = 10
     Max number of k-points (npk) =  40000
     Max angular momentum in pseudopotentials (lmaxx) =  3
     Presently stress not available with electric field

     IMPORTANT: XC functional enforced from input :
     Exchange-correlation      = BEEF-VDW ( 1  4 27 13 2)
     Any further DFT definition will be discarded
     Please, verify this is what you really want

     Subspace diagonalization in iterative solution of the eigenvalue problem:
     a serial algorithm will be used

     bravais-lattice index     =            0
     lattice parameter (alat)  =       1.8897  a.u.
     unit-cell volume          =    5182.3421 (a.u.)^3
     number of atoms/cell      =           13
     number of atomic types    =            2
     number of electrons       =       160.00
     number of Kohn-Sham states=           90
     kinetic-energy cutoff     =      36.7493  Ry
     charge density cutoff     =     367.4932  Ry
     convergence threshold     =      1.0E-05
     mixing beta               =       0.3000
     number of iterations used =           10  plain     mixing
     Exchange-correlation      = BEEF-VDW ( 1  4 27 13 2)
     nstep                     =           50

     celldm(1)=   1.889726  celldm(2)=   0.000000  celldm(3)=   0.000000
     celldm(4)=   0.000000  celldm(5)=   0.000000  celldm(6)=   0.000000

     crystal axes: (cart. coord. in units of alat)
               a(1) = (   5.970602   0.000000   0.000000 )
               a(2) = (   2.985301   5.170693   0.000000 )
               a(3) = (   0.000000   0.000000  24.874976 )

     reciprocal axes: (cart. coord. in units 2 pi/alat)
               b(1) = (  0.167487 -0.096699  0.000000 )
               b(2) = (  0.000000  0.193398  0.000000 )
               b(3) = (  0.000000  0.000000  0.040201 )

     PseudoPot. # 1 for Nb read from file:
     /u/if/mamunm/psp/gbrv1.5pbe/Nb.UPF
     MD5 check sum: 573aab8a2fa660278ed4a62cd769473f
     Pseudo is Ultrasoft + core correction, Zval = 13.0
     Generated by new atomic code, or converted to UPF format
     Using radial grid of  887 points,  6 beta functions with:
                l(1) =   0
                l(2) =   0
                l(3) =   1
                l(4) =   1
                l(5) =   2
                l(6) =   2
     Q(r) pseudized with  6 coefficients,  rinner =    1.000   1.000   1.000
                                                       1.000   1.000

     PseudoPot. # 2 for C  read from file:
     /u/if/mamunm/psp/gbrv1.5pbe/C.UPF
     MD5 check sum: d1aef80898a10debaa0f26306b886e00
     Pseudo is Ultrasoft + core correction, Zval =  4.0
     Generated by new atomic code, or converted to UPF format
     Using radial grid of  721 points,  4 beta functions with:
                l(1) =   0
                l(2) =   0
                l(3) =   1
                l(4) =   1
     Q(r) pseudized with  8 coefficients,  rinner =    1.100   1.100   1.100

     vdW kernel table read from file vdW_kernel_table
     MD5 check sum: 095c7af220d748ca6e76c0b4c6cfb241

     atomic species   valence    mass     pseudopotential
        Nb1           13.00    92.90637     Nb( 1.00)
        C1             4.00    12.01100     C ( 1.00)

     No symmetry found

   Cartesian axes

     site n.     atom                  positions (alat units)
         1           Nb1 tau(   1) = (   1.4926504   0.8617821  10.0000000  )
         2           Nb1 tau(   2) = (   4.4779512   0.8617821  10.0000000  )
         3           Nb1 tau(   3) = (   2.9853008   3.4471284  10.0000000  )
         4           Nb1 tau(   4) = (   5.9706016   3.4471284  10.0000000  )
         5           Nb1 tau(   5) = (   5.9706016   1.7235642  12.4374879  )
         6           Nb1 tau(   6) = (   2.9853008   1.7235642  12.4374879  )
         7           Nb1 tau(   7) = (   7.4632520   4.3089105  12.4374879  )
         8           Nb1 tau(   8) = (   4.4779512   4.3089105  12.4374879  )
         9           Nb1 tau(   9) = (   0.0000000   0.0000000  14.8749758  )
        10           Nb1 tau(  10) = (   2.9853008   0.0000000  14.8749758  )
        11           Nb1 tau(  11) = (   1.4926504   2.5853463  14.8749758  )
        12           Nb1 tau(  12) = (   4.4779512   2.5853463  14.8749758  )
        13           C1  tau(  13) = (   2.9853008   1.7235642  16.4349758  )

     number of k points=    20  Fermi-Dirac smearing, width (Ry)=  0.0110
                       cart. coord. in units 2pi/alat
        k(    1) = (   0.0000000   0.0000000   0.0000000), wk =   0.0555556
        k(    2) = (   0.0000000   0.0322329   0.0000000), wk =   0.1111111
        k(    3) = (   0.0000000   0.0644659   0.0000000), wk =   0.1111111
        k(    4) = (   0.0000000  -0.0966988   0.0000000), wk =   0.0555556
        k(    5) = (   0.0279146  -0.0161165   0.0000000), wk =   0.1111111
        k(    6) = (   0.0279146   0.0161165   0.0000000), wk =   0.1111111
        k(    7) = (   0.0279146   0.0483494   0.0000000), wk =   0.1111111
        k(    8) = (   0.0279146  -0.1128153   0.0000000), wk =   0.1111111
        k(    9) = (   0.0279146  -0.0805824   0.0000000), wk =   0.1111111
        k(   10) = (   0.0279146  -0.0483494   0.0000000), wk =   0.1111111
        k(   11) = (   0.0558291  -0.0322329   0.0000000), wk =   0.1111111
        k(   12) = (   0.0558291   0.0000000   0.0000000), wk =   0.1111111
        k(   13) = (   0.0558291   0.0322329   0.0000000), wk =   0.1111111
        k(   14) = (   0.0558291  -0.1289318   0.0000000), wk =   0.1111111
        k(   15) = (   0.0558291  -0.0966988   0.0000000), wk =   0.1111111
        k(   16) = (   0.0558291  -0.0644659   0.0000000), wk =   0.1111111
        k(   17) = (  -0.0837437   0.0483494   0.0000000), wk =   0.0555556
        k(   18) = (  -0.0837437   0.0805824   0.0000000), wk =   0.1111111
        k(   19) = (  -0.0837437   0.1128153   0.0000000), wk =   0.1111111
        k(   20) = (  -0.0837437  -0.0483494   0.0000000), wk =   0.0555556

     Largest allocated arrays     est. size (Mb)     dimensions
     Largest temporary arrays     est. size (Mb)     dimensions

     Initial potential from superposition of free atoms
     Check: negative starting charge=   -0.005158

     starting charge  159.96716, renormalised to  160.00000

     negative rho (up, down):  5.159E-03 0.000E+00

     *
     * You are using vdW-DF for exchange-correlation in this calculation.
     * Please cite the following three references that made this development
     * possible:
     *
     *   M. Dion, H. Rydberg, E. Schroder, D. C. Langreth, and
     *   B. I. Lundqvist, Phys. Rev. Lett. 92, 246401 (2004).
     *
     *   T. Thonhauser, V. R. Cooper, S. Li, A. Puzder, P. Hyldgaard, and
     *   D. C. Langreth, Phys. Rev. B 76, 125112 (2007).
     *
     *   G. Roman-Perez and J. M. Soler, Phys. Rev. Lett. 103, 096102 (2009).
     *
     *
     * If you are using vdW-DF2, please also cite:
     *
     *   K. Lee, E. D. Murray, L. Kong, B. I. Lundqvist, and
     *   D. C. Langreth, Phys. Rev. B 82, 081101(R) (2010).
     *
     *
     * If you are calculating the stress with vdW-DF, please also cite:
     *
     *   R. Sabatini, E. Kucukbenli, B. Kolb, T. Thonhauser, and
     *   S. de Gironcoli, J. Phys.: Condens. Matter 24, 424209 (2012).
     *

     Carrying out vdW-DF run using the following parameters:

     Nqs =      20    Nr_points =    1024   r_max =   100.000
     q_mesh =
               0.00001000     0.04494208     0.09755937     0.15916263
               0.23128650     0.31572767     0.41458969     0.53033537
               0.66584808     0.82450364     1.01025438     1.22772762
               1.48234092     1.78043706     2.12944203     2.53805004
               3.01644009     3.57652955     4.23227104     5.00000000

     Gradients computed in reciprocal space

     Adding external electric field

     Computed dipole along edir(3) :
        Dipole               -0.0059 Ry au,         -0.0149 Debye
        Dipole field         -0.0000 Ry au

        Potential amp.        0.0013 Ry
        Total length         45.8317 bohr

     Starting wfc are  160 randomized atomic wfcs

     Self-consistent Calculation

     iteration #  1     ecut=    36.75 Ry     beta=0.30
     Davidson diagonalization with overlap
     ethr =  1.00E-02,  avg # of iterations =  2.0

[...]

     total energy              =   -1430.78086962 Ry
     Harris-Foulkes estimate   =   -1434.15088876 Ry
     estimated scf accuracy    <       7.48332800 Ry

[...]

     End of self-consistent calculation

          k = 0.0000 0.0000 0.0000 ( 19435 PWs)   bands (ev):

   -53.5532 -53.5064 -53.4272 -53.3802 -53.3734 -53.3733 -53.3677 -53.3601
   -53.3595 -53.2943 -53.2936 -53.2894 -29.9844 -29.9844 -29.9681 -29.9178
   -29.9050 -29.9048 -29.8968 -29.8664 -29.8664 -29.8507 -29.5982 -29.4831
   -29.4326 -29.4324 -29.4004 -29.3805 -29.3803 -29.2795 -29.2786 -29.2785
   -29.2081 -29.2081 -29.2037 -29.1705 -29.1615 -29.1611 -29.0977 -29.0935
   -29.0905 -29.0903 -29.0325 -29.0325 -28.9971 -28.9970 -28.9223 -28.9223
    -7.2373  -3.7851  -2.4653  -2.0769  -1.9387  -1.9386  -1.8551  -1.7512
    -1.7512  -1.6417  -1.2805  -1.2760  -1.2760  -1.1986  -1.1986  -1.1556
    -0.2311  -0.2311  -0.0004   0.6676   0.6678   0.6834   1.0474   1.1549
     1.1549   1.3564   1.7396   1.7396   1.9188   1.9569   1.9570   2.0249
     2.0328   2.0329   2.0598   2.0859   2.0859   2.4766   2.5058   2.5059
     3.0571   3.0571

[...]

          k =-0.0837 0.0483 0.0000 ( 19524 PWs)   bands (ev):

[...]

     the Fermi energy is     1.6073 ev

!    total energy              =   -1433.61107236 Ry
     Harris-Foulkes estimate   =   -1433.61109065 Ry
     estimated scf accuracy    <       0.00000290 Ry

     The total energy is the sum of the following terms:

     one-electron contribution =  -11650.51096488 Ry
     hartree contribution      =    5817.38937582 Ry
     xc contribution           =    -231.66085513 Ry
     ewald contribution        =    4631.28516456 Ry
     electric field correction =       0.00031589 Ry
     smearing contrib. (-TS)   =      -0.11410862 Ry

     convergence has been achieved in  20 iterations

 BEEF-vdW xc energy contributions
           1 :   -198.598360723658
           2 :    180.597540828006
           3 :   -149.921982174805
           4 :    114.801202308544
           5 :   -83.1327764207340
           6 :    59.8473088375766
           7 :   -45.8738795044444
           8 :    38.8071486534611
           9 :   -34.7199876850827
          10 :    30.1420756181862
          11 :   -23.3723550089229
          12 :    14.7128357269280
          13 :   -5.77092059658830
          14 :   -1.67507583561644
          15 :    6.63414312523901
          16 :   -9.28013328190696
          17 :    10.6631187035413
          18 :   -12.0106911372255
          19 :    14.0285720624147
          20 :   -16.5745585429823
          21 :    18.8338361283789
          22 :   -19.8520576683336
          23 :    19.0952256724777
          24 :   -16.7347324034903
          25 :    13.5327747598206
          26 :   -10.4366767738253
          27 :    8.12432084617546
          28 :   -6.74482541947611
          29 :    5.96046552814755
          30 :   -5.23202667314419
          31 :   -22.9646657245575
          32 :   -17.3624843733551

     Forces acting on atoms (Ry/au):

     negative rho (up, down):  4.887E-03 0.000E+00
     atom    1 type  1   force =     0.00086810    0.00051050   -0.00594711
     atom    2 type  1   force =    -0.00086279    0.00052307   -0.00597682
     atom    3 type  1   force =     0.00001325   -0.00101565   -0.00598533
     atom    4 type  1   force =    -0.00001370   -0.00001971   -0.00854860
     atom    5 type  1   force =    -0.00000226   -0.00176871   -0.00247514
     atom    6 type  1   force =     0.00000382    0.00002431    0.00062193
     atom    7 type  1   force =     0.00154024    0.00087192   -0.00246622
     atom    8 type  1   force =    -0.00154714    0.00087056   -0.00249298
     atom    9 type  1   force =     0.00001042    0.00000979   -0.00764919
     atom   10 type  1   force =    -0.00000737    0.04766399    0.06762580
     atom   11 type  1   force =     0.04127847   -0.02384657    0.06762460
     atom   12 type  1   force =    -0.04128239   -0.02384273    0.06761668
     atom   13 type  2   force =     0.00000136    0.00001923   -0.16194763

     Total force =     0.216382     Total SCF correction =     0.006706

     entering subroutine stress ...

     negative rho (up, down):  4.887E-03 0.000E+00
          total   stress  (Ry/bohr**3)                   (kbar)     P=  -24.54
  -0.00023245  -0.00000000  -0.00000001        -34.19     -0.00     -0.00
  -0.00000000  -0.00023242   0.00000001         -0.00    -34.19      0.00
  -0.00000001   0.00000001  -0.00003565         -0.00      0.00     -5.24

     BFGS Geometry Optimization

     number of scf cycles    =   1
     number of bfgs steps    =   0

     energy   new            =   -1433.6110723596 Ry

     new trust radius        =       0.1619476274 bohr
     new conv_thr            =       0.0000099958 Ry

ATOMIC_POSITIONS (crystal)
Nb1      0.166666667   0.166666667   0.402010442    0   0   0
Nb1      0.666666667   0.166666667   0.402010442    0   0   0
Nb1      0.166666667   0.666666667   0.402010442    0   0   0
Nb1      0.666666667   0.666666667   0.402010442    0   0   0
Nb1      0.833333333   0.333333333   0.500000000    0   0   0
Nb1      0.333333333   0.333333333   0.500000000    0   0   0
Nb1      0.833333333   0.833333333   0.500000000    0   0   0
Nb1      0.333333333   0.833333333   0.500000000    0   0   0
Nb1      0.000000423   0.000001002   0.597826833
Nb1      0.497560341   0.004878011   0.599428194
Nb1      0.004878779   0.497559503   0.599428169
Nb1      0.497561175   0.497559896   0.599428000
C1       0.333332470   0.333335301   0.657257998

     Writing output data file calc.save
     Check: negative starting charge=   -0.005158
     NEW-OLD atomic charge density approx. for the potential
     Check: negative starting charge=   -0.005161

[...]

     energy   old            =   -1433.6110723596 Ry
     energy   new            =   -1433.6536567844 Ry

     CASE: energy  _new < energy  _old

     WARNING: bfgs curvature condition failed, Theta= 1.000
     new trust radius        =       0.1781423901 bohr
     new conv_thr            =       0.0000001000 Ry

[...]

     Threshold (ethr) on eigenvalues was too large:
     Diagonalizing with lowered threshold

     Davidson diagonalization with overlap
     ethr =  4.34E-08,  avg # of iterations =  3.0

[...]

     Total force =     0.005329     Total SCF correction =     0.000384

[...]

     number of scf cycles    =  17
     number of bfgs steps    =  16

     energy   old            =   -1433.7176885268 Ry
     energy   new            =   -1433.7177262810 Ry

     CASE: energy  _new < energy  _old

     new trust radius        =       0.0058132321 bohr
     new conv_thr            =       0.0000001000 Ry

ATOMIC_POSITIONS (crystal)
Nb1      0.166666667   0.166666667   0.402010442    0   0   0
Nb1      0.666666667   0.166666667   0.402010442    0   0   0
Nb1      0.166666667   0.666666667   0.402010442    0   0   0
Nb1      0.666666667   0.666666667   0.402010442    0   0   0
Nb1      0.833333333   0.333333333   0.500000000    0   0   0
Nb1      0.333333333   0.333333333   0.500000000    0   0   0
Nb1      0.833333333   0.833333333   0.500000000    0   0   0
Nb1      0.333333333   0.833333333   0.500000000    0   0   0
Nb1     -0.000001204   0.000001042   0.584874555
Nb1      0.505291043  -0.010580037   0.604332642
Nb1     -0.010580128   0.505290491   0.604331887
Nb1      0.505290902   0.505289619   0.604332631
C1       0.333331141   0.333334771   0.643034748

     Writing output data file calc.save
     Check: negative starting charge=   -0.005368
     NEW-OLD atomic charge density approx. for the potential
     Check: negative starting charge=   -0.005364

[...]

     Self-consistent Calculation

[...]

     Threshold (ethr) on eigenvalues was too large:
     Diagonalizing with lowered threshold

     Davidson diagonalization with overlap
     ethr =  2.65E-08,  avg # of iterations =  4.1

[...]

     total energy              =   -1433.71774917 Ry
     Harris-Foulkes estimate   =   -1433.71774917 Ry
     estimated scf accuracy    <       0.00000020 Ry

     iteration #  9     ecut=    36.75 Ry     beta=0.30
     Davidson diagonalization with overlap
     ethr =  1.26E-10,  avg # of iterations =  3.0

[...]

     negative rho (up, down):  5.105E-03 0.000E+00

     Adding external electric field

     Computed dipole along edir(3) :
        Dipole               -0.1927 Ry au,         -0.4897 Debye
        Dipole field         -0.0005 Ry au

        Potential amp.        0.0428 Ry
        Total length         45.8317 bohr

     End of self-consistent calculation

[...]

          k = 0.0558-0.0645 0.0000 ( 19505 PWs)   bands (ev):

[...]

          k =-0.0837-0.0483 0.0000 ( 19524 PWs)   bands (ev):

   -53.2849 -53.2739 -53.2487 -53.2265 -53.2076 -53.2001 -53.1943 -53.1722
   -53.1646 -53.1166 -53.0878 -53.0050 -29.7168 -29.6402 -29.6184 -29.6032
   -29.5943 -29.5789 -29.5520 -29.4806 -29.4715 -29.4227 -29.3908 -29.3427
   -29.3387 -29.2793 -29.2742 -29.2406 -29.2171 -29.2105 -29.2057 -29.2029
   -29.1661 -29.1551 -29.1083 -29.0879 -29.0879 -29.0551 -29.0018 -28.9980
   -28.9707 -28.9563 -28.9260 -28.8719 -28.8427 -28.8175 -28.7223 -28.7049
    -7.6102  -2.3208  -2.0852  -1.6660  -1.2290  -1.0805  -0.9351  -0.8620
    -0.7655  -0.7001  -0.6914  -0.6270  -0.2805  -0.2438  -0.0495  -0.0342
     0.0459   0.0593   0.2080   0.3685   0.5761   0.7085   0.7637   0.7760
     0.9681   0.9830   1.0921   1.2368   1.3166   1.3859   1.4477   1.4541
     1.5072   1.6397   1.8088   1.9215   2.0092   2.0820   2.2339   2.3622
     2.6492   2.8444

     the Fermi energy is     1.7688 ev

!    total energy              =   -1433.71774919 Ry
     Harris-Foulkes estimate   =   -1433.71774923 Ry
     estimated scf accuracy    <       0.00000003 Ry

     The total energy is the sum of the following terms:

     one-electron contribution =  -11663.41635468 Ry
     hartree contribution      =    5824.77542188 Ry
     xc contribution           =    -232.01296791 Ry
     ewald contribution        =    4637.04375929 Ry
     electric field correction =       0.00009001 Ry
     smearing contrib. (-TS)   =      -0.10769778 Ry

     convergence has been achieved in   9 iterations

 BEEF-vdW xc energy contributions
           1 :   -198.943783806677
           2 :    180.988443636718
           3 :   -150.353600127053
           4 :    115.217657943168
           5 :   -83.4557370087495
           6 :    59.9977233033422
           7 :   -45.7891030347717
           8 :    38.4639080773171
           9 :   -34.1581755947889
          10 :    29.4685165203371
          11 :   -22.7294446364918
          12 :    14.2182891124371
          13 :   -5.46248780471120
          14 :   -1.85473300623875
          15 :    6.80291720917614
          16 :   -9.55167077800104
          17 :    11.0853672094877
          18 :   -12.5381667523449
          19 :    14.5411703588365
          20 :   -16.9353069373424
          21 :    18.9596654616110
          22 :   -19.7627046302598
          23 :    18.9113983718041
          24 :   -16.6212518381948
          25 :    13.6130023739059
          26 :   -10.7267092260172
          27 :    8.52706789644412
          28 :   -7.10857979504215
          29 :    6.16707501805661
          30 :   -5.26142859906065
          31 :   -22.9859441313245
          32 :   -17.3908771481234

     Forces acting on atoms (Ry/au):

     negative rho (up, down):  5.105E-03 0.000E+00
     atom    1 type  1   force =     0.00192679    0.00111270   -0.00639783
     atom    2 type  1   force =    -0.00192616    0.00111197   -0.00639814
     atom    3 type  1   force =    -0.00000042   -0.00222486   -0.00639794
     atom    4 type  1   force =     0.00000036   -0.00000028   -0.00400636
     atom    5 type  1   force =    -0.00000056    0.02825201   -0.00394605
     atom    6 type  1   force =    -0.00000032    0.00000018    0.03398613
     atom    7 type  1   force =    -0.02446701   -0.01412560   -0.00394599
     atom    8 type  1   force =     0.02446662   -0.01412583   -0.00394274
     atom    9 type  1   force =     0.00000006   -0.00000020   -0.00012432
     atom   10 type  1   force =    -0.00000076   -0.00000693    0.00024898
     atom   11 type  1   force =    -0.00000726    0.00000425    0.00024993
     atom   12 type  1   force =     0.00000612    0.00000426    0.00024898
     atom   13 type  2   force =     0.00000255   -0.00000166    0.00042534

     Total force =     0.000619     Total SCF correction =     0.000207
     SCF correction compared to forces is large: reduce conv_thr to get better values

     entering subroutine stress ...

     negative rho (up, down):  5.105E-03 0.000E+00
          total   stress  (Ry/bohr**3)                   (kbar)     P=  -13.37
  -0.00014666  -0.00000000   0.00000000        -21.57     -0.00      0.00
  -0.00000000  -0.00014666   0.00000000         -0.00    -21.57      0.00
   0.00000000   0.00000000   0.00002057          0.00      0.00      3.03

     bfgs converged in  18 scf cycles and  17 bfgs steps
     (criteria: energy <  1.0E+00, force <  1.9E-03)

     End of BFGS Geometry Optimization

     Final energy   =   -1433.7177491917 Ry
Begin final coordinates

ATOMIC_POSITIONS (crystal)
Nb1      0.166666667   0.166666667   0.402010442    0   0   0
Nb1      0.666666667   0.166666667   0.402010442    0   0   0
Nb1      0.166666667   0.666666667   0.402010442    0   0   0
Nb1      0.666666667   0.666666667   0.402010442    0   0   0
Nb1      0.833333333   0.333333333   0.500000000    0   0   0
Nb1      0.333333333   0.333333333   0.500000000    0   0   0
Nb1      0.833333333   0.833333333   0.500000000    0   0   0
Nb1      0.333333333   0.833333333   0.500000000    0   0   0
Nb1     -0.000001204   0.000001042   0.584874555
Nb1      0.505291043  -0.010580037   0.604332642
Nb1     -0.010580128   0.505290491   0.604331887
Nb1      0.505290902   0.505289619   0.604332631
C1       0.333331141   0.333334771   0.643034748
End final coordinates

     Writing output data file calc.save

     General routines

     Parallel routines

   This run was terminated on:  11: 8:35   3May2018

   JOB DONE.
Job  /afs/slac/g/suncat/bin/suncat-tsmpirun -x LD_LIBRARY_PATH -wdir /scratch/qe697419_P05gR pw.x -npool 4 -in pw.inp

TID   HOST_NAME   COMMAND_LINE            STATUS            TERMINATION_TIME
00000 suncat0188 pw.x -npool 4 -i  Done                     05/03/2018 11:08:35
00001 suncat0188 pw.x -npool 4 -i  Done                     05/03/2018 11:08:35
00002 suncat0188 pw.x -npool 4 -i  Done                     05/03/2018 11:08:35
00003 suncat0188 pw.x -npool 4 -i  Done                     05/03/2018 11:08:35
00004 suncat0188 pw.x -npool 4 -i  Done                     05/03/2018 11:08:35
00005 suncat0188 pw.x -npool 4 -i  Done                     05/03/2018 11:08:35
00006 suncat0188 pw.x -npool 4 -i  Done                     05/03/2018 11:08:35
00007 suncat0188 pw.x -npool 4 -i  Done                     05/03/2018 11:08:35
00008 suncat0147 pw.x -npool 4 -i  Done                     05/03/2018 11:08:35
00009 suncat0147 pw.x -npool 4 -i  Done                     05/03/2018 11:08:35
00010 suncat0147 pw.x -npool 4 -i  Done                     05/03/2018 11:08:35
00011 suncat0147 pw.x -npool 4 -i  Done                     05/03/2018 11:08:35
00012 suncat0147 pw.x -npool 4 -i  Done                     05/03/2018 11:08:35
00013 suncat0147 pw.x -npool 4 -i  Done                     05/03/2018 11:08:35
00014 suncat0147 pw.x -npool 4 -i  Done                     05/03/2018 11:08:35
00015 suncat0147 pw.x -npool 4 -i  Done                     05/03/2018 11:08:35
00016 suncat0240 pw.x -npool 4 -i  Done                     05/03/2018 11:08:35
00017 suncat0240 pw.x -npool 4 -i  Done                     05/03/2018 11:08:35
00018 suncat0240 pw.x -npool 4 -i  Done                     05/03/2018 11:08:35
00019 suncat0240 pw.x -npool 4 -i  Done                     05/03/2018 11:08:35
00020 suncat0240 pw.x -npool 4 -i  Done                     05/03/2018 11:08:35
00021 suncat0240 pw.x -npool 4 -i  Done                     05/03/2018 11:08:35
00022 suncat0240 pw.x -npool 4 -i  Done                     05/03/2018 11:08:35
00023 suncat0240 pw.x -npool 4 -i  Done                     05/03/2018 11:08:35
00024 suncat0216 pw.x -npool 4 -i  Done                     05/03/2018 11:08:35
00025 suncat0216 pw.x -npool 4 -i  Done                     05/03/2018 11:08:35
00026 suncat0216 pw.x -npool 4 -i  Done                     05/03/2018 11:08:35
00027 suncat0216 pw.x -npool 4 -i  Done                     05/03/2018 11:08:35
00028 suncat0216 pw.x -npool 4 -i  Done                     05/03/2018 11:08:35
00029 suncat0216 pw.x -npool 4 -i  Done                     05/03/2018 11:08:35
00030 suncat0216 pw.x -npool 4 -i  Done                     05/03/2018 11:08:35
00031 suncat0216 pw.x -npool 4 -i  Done                     05/03/2018 11:08:35