     Program PWSCF v.5.1rc2 (svn rev. 11289) starts on  2May2018 at 17:15:27

     Current dimensions of program PWSCF are:
     Max number of different atomic species (ntypx) = 10
     Max number of k-points (npk) =  40000
     Max angular momentum in pseudopotentials (lmaxx) =  3
     Presently stress not available with electric field

     IMPORTANT: XC functional enforced from input :
     Exchange-correlation      = BEEF-VDW ( 1  4 27 13 2)
     Any further DFT definition will be discarded
     Please, verify this is what you really want

     Subspace diagonalization in iterative solution of the eigenvalue problem:
     a serial algorithm will be used

     bravais-lattice index     =            0
     lattice parameter (alat)  =       1.8897  a.u.
     unit-cell volume          =    4301.6107 (a.u.)^3
     number of atoms/cell      =           13
     number of atomic types    =            2
     number of electrons       =       186.00
     number of Kohn-Sham states=          103
     kinetic-energy cutoff     =      36.7493  Ry
     charge density cutoff     =     367.4932  Ry
     convergence threshold     =      1.0E-05
     mixing beta               =       0.3000
     number of iterations used =           10  plain     mixing
     Exchange-correlation      = BEEF-VDW ( 1  4 27 13 2)
     nstep                     =           50

     celldm(1)=   1.889726  celldm(2)=   0.000000  celldm(3)=   0.000000
     celldm(4)=   0.000000  celldm(5)=   0.000000  celldm(6)=   0.000000

     crystal axes: (cart. coord. in units of alat)
               a(1) = (   5.483647   0.000000   0.000000 )
               a(2) = (   2.741823   4.748977   0.000000 )
               a(3) = (   0.000000   0.000000  24.477379 )

     reciprocal axes: (cart. coord. in units 2 pi/alat)
               b(1) = (  0.182360 -0.105286  0.000000 )
               b(2) = (  0.000000  0.210572  0.000000 )
               b(3) = (  0.000000  0.000000  0.040854 )

     PseudoPot. # 1 for Tc read from file:
     /u/if/mamunm/psp/gbrv1.5pbe/Tc.UPF
     MD5 check sum: 9eb49e5b028550b2339a02317eb7b844
     Pseudo is Ultrasoft + core correction, Zval = 15.0
     Generated by new atomic code, or converted to UPF format
     Using radial grid of  965 points,  6 beta functions with:
                l(1) =   0
                l(2) =   0
                l(3) =   1
                l(4) =   1
                l(5) =   2
                l(6) =   2
     Q(r) pseudized with  8 coefficients,  rinner =    1.300   1.300   1.300
                                                       1.300   1.300

     PseudoPot. # 2 for O  read from file:
     /u/if/mamunm/psp/gbrv1.5pbe/O.UPF
     MD5 check sum: 734c27235a0248c51dbae37a1fbe46ec
     Pseudo is Ultrasoft + core correction, Zval =  6.0
     Generated by new atomic code, or converted to UPF format
     Using radial grid of  737 points,  5 beta functions with:
                l(1) =   0
                l(2) =   0
                l(3) =   1
                l(4) =   1
                l(5) =   2
     Q(r) pseudized with  8 coefficients,  rinner =    0.900   0.900   0.900
                                                       0.900   0.900

     vdW kernel table read from file vdW_kernel_table
     MD5 check sum: 095c7af220d748ca6e76c0b4c6cfb241

     atomic species   valence    mass     pseudopotential
        Tc1           15.00    97.90721     Tc( 1.00)
        O1             6.00    15.99900     O ( 1.00)

     No symmetry found

   Cartesian axes

     site n.     atom                  positions (alat units)
         1           Tc1 tau(   1) = (   1.3709117   0.7914962  10.0000000  )
         2           Tc1 tau(   2) = (   4.1127351   0.7914962  10.0000000  )
         3           Tc1 tau(   3) = (   2.7418234   3.1659850  10.0000000  )
         4           Tc1 tau(   4) = (   5.4836469   3.1659850  10.0000000  )
         5           Tc1 tau(   5) = (   5.4836469   1.5829925  12.2386895  )
         6           Tc1 tau(   6) = (   2.7418234   1.5829925  12.2386895  )
         7           Tc1 tau(   7) = (   6.8545586   3.9574812  12.2386895  )
         8           Tc1 tau(   8) = (   4.1127351   3.9574812  12.2386895  )
         9           Tc1 tau(   9) = (   0.0000000   0.0000000  14.4773789  )
        10           Tc1 tau(  10) = (   2.7418234   0.0000000  14.4773789  )
        11           Tc1 tau(  11) = (   1.3709117   2.3744887  14.4773789  )
        12           Tc1 tau(  12) = (   4.1127351   2.3744887  14.4773789  )
        13           O1  tau(  13) = (   2.7418234   1.5829925  15.8618789  )

     number of k points=    20  Fermi-Dirac smearing, width (Ry)=  0.0110
                       cart. coord. in units 2pi/alat
        k(    1) = (   0.0000000   0.0000000   0.0000000), wk =   0.0555556
        k(    2) = (   0.0000000   0.0350953   0.0000000), wk =   0.1111111
        k(    3) = (   0.0000000   0.0701905   0.0000000), wk =   0.1111111
        k(    4) = (   0.0000000  -0.1052858   0.0000000), wk =   0.0555556
        k(    5) = (   0.0303934  -0.0175476   0.0000000), wk =   0.1111111
        k(    6) = (   0.0303934   0.0175476   0.0000000), wk =   0.1111111
        k(    7) = (   0.0303934   0.0526429   0.0000000), wk =   0.1111111
        k(    8) = (   0.0303934  -0.1228335   0.0000000), wk =   0.1111111
        k(    9) = (   0.0303934  -0.0877382   0.0000000), wk =   0.1111111
        k(   10) = (   0.0303934  -0.0526429   0.0000000), wk =   0.1111111
        k(   11) = (   0.0607868  -0.0350953   0.0000000), wk =   0.1111111
        k(   12) = (   0.0607868   0.0000000   0.0000000), wk =   0.1111111
        k(   13) = (   0.0607868   0.0350953   0.0000000), wk =   0.1111111
        k(   14) = (   0.0607868  -0.1403811   0.0000000), wk =   0.1111111
        k(   15) = (   0.0607868  -0.1052858   0.0000000), wk =   0.1111111
        k(   16) = (   0.0607868  -0.0701905   0.0000000), wk =   0.1111111
        k(   17) = (  -0.0911802   0.0526429   0.0000000), wk =   0.0555556
        k(   18) = (  -0.0911802   0.0877382   0.0000000), wk =   0.1111111
        k(   19) = (  -0.0911802   0.1228335   0.0000000), wk =   0.1111111
        k(   20) = (  -0.0911802  -0.0526429   0.0000000), wk =   0.0555556

     Largest allocated arrays     est. size (Mb)     dimensions
     Largest temporary arrays     est. size (Mb)     dimensions

     Check: negative/imaginary core charge=   -0.000022    0.000000

     Initial potential from superposition of free atoms
     Check: negative starting charge=   -1.505105

     starting charge  173.99967, renormalised to  186.00000

     negative rho (up, down):  1.609E+00 0.000E+00

     *
     * You are using vdW-DF for exchange-correlation in this calculation.
     * Please cite the following three references that made this development
     * possible:
     *
     *   M. Dion, H. Rydberg, E. Schroder, D. C. Langreth, and
     *   B. I. Lundqvist, Phys. Rev. Lett. 92, 246401 (2004).
     *
     *   T. Thonhauser, V. R. Cooper, S. Li, A. Puzder, P. Hyldgaard, and
     *   D. C. Langreth, Phys. Rev. B 76, 125112 (2007).
     *
     *   G. Roman-Perez and J. M. Soler, Phys. Rev. Lett. 103, 096102 (2009).
     *
     *
     * If you are using vdW-DF2, please also cite:
     *
     *   K. Lee, E. D. Murray, L. Kong, B. I. Lundqvist, and
     *   D. C. Langreth, Phys. Rev. B 82, 081101(R) (2010).
     *
     *
     * If you are calculating the stress with vdW-DF, please also cite:
     *
     *   R. Sabatini, E. Kucukbenli, B. Kolb, T. Thonhauser, and
     *   S. de Gironcoli, J. Phys.: Condens. Matter 24, 424209 (2012).
     *

     Carrying out vdW-DF run using the following parameters:

     Nqs =      20    Nr_points =    1024   r_max =   100.000
     q_mesh =
               0.00001000     0.04494208     0.09755937     0.15916263
               0.23128650     0.31572767     0.41458969     0.53033537
               0.66584808     0.82450364     1.01025438     1.22772762
               1.48234092     1.78043706     2.12944203     2.53805004
               3.01644009     3.57652955     4.23227104     5.00000000

     Gradients computed in reciprocal space

     Adding external electric field

     Computed dipole along edir(3) :
        Dipole               -2.8332 Ry au,         -7.2014 Debye
        Dipole field         -0.0083 Ry au

        Potential amp.        0.7466 Ry
        Total length         45.0992 bohr

     Starting wfc are  160 randomized atomic wfcs

     Self-consistent Calculation

     iteration #  1     ecut=    36.75 Ry     beta=0.30
     Davidson diagonalization with overlap
     ethr =  1.00E-02,  avg # of iterations =  8.9

[...]

     total energy              =   -1908.48486219 Ry
     Harris-Foulkes estimate   =   -2131.86561060 Ry
     estimated scf accuracy    <     471.01669914 Ry

[...]

     End of self-consistent calculation

          k = 0.0000 0.0000 0.0000 ( 16073 PWs)   bands (ev):

   -65.0135 -64.9211 -64.8621 -64.8616 -64.8412 -64.7979 -64.7978 -64.7231
   -64.6053 -64.6024 -64.6022 -64.5960 -37.5227 -37.4236 -37.4236 -37.3663
   -37.3323 -37.3011 -37.3010 -37.1546 -37.1277 -37.1276 -36.8956 -36.8659
   -36.8656 -36.7814 -36.7486 -36.7486 -36.6970 -36.6957 -36.6956 -36.6587
   -36.5937 -36.5935 -36.5587 -36.5421 -36.5421 -36.5364 -36.4630 -36.4444
   -36.4444 -36.3889 -36.3880 -36.3879 -36.3142 -36.3141 -36.1903 -36.1903
   -16.2465  -4.1944  -3.4722  -3.0573  -3.0573  -2.9130  -2.9130  -2.8976
    -2.7827  -2.5607  -2.3966  -2.3966  -2.3372  -2.1883  -2.0559  -2.0559
    -1.6504  -1.6504  -1.1792  -0.5719  -0.5719  -0.3483   0.0989   0.0990
     0.3220   0.5307   0.6383   0.6383   0.8850   0.8850   0.9966   1.0693
     1.0694   1.1515   1.1779   1.1779   1.5904   1.7889   1.7890   2.3696
     2.5953   2.6639   2.6639   2.8669   2.8670   3.0897   3.0897   3.1938
     3.4734   3.4735   3.8007   4.1213   4.1919   4.1920   4.3189

[...]

          k =-0.0912 0.0526 0.0000 ( 16164 PWs)   bands (ev):

[...]

     the Fermi energy is     2.3112 ev

!    total energy              =   -2136.00296350 Ry
     Harris-Foulkes estimate   =   -2136.00295651 Ry
     estimated scf accuracy    <       0.00000360 Ry

     The total energy is the sum of the following terms:

     one-electron contribution =  -19234.94641132 Ry
     hartree contribution      =    9618.13210660 Ry
     xc contribution           =    -404.48347029 Ry
     ewald contribution        =    7885.38274869 Ry
     electric field correction =       0.00006604 Ry
     smearing contrib. (-TS)   =      -0.08800322 Ry

     convergence has been achieved in  26 iterations

 BEEF-vdW xc energy contributions
           1 :   -354.280954939932
           2 :    325.510751842522
           3 :   -274.438419023329
           4 :    211.421184568881
           5 :   -147.419289268414
           6 :    90.9842637154578
           7 :   -46.6278852049160
           8 :    14.7476563603168
           9 :    7.07882929862319
          10 :   -22.2161371868544
          11 :    33.2851060821188
          12 :   -41.3118252411539
          13 :    45.8103277751842
          14 :   -45.5923814138350
          15 :    39.8065438106601
          16 :   -28.7506539410100
          17 :    14.1141042583071
          18 :    1.40004417260661
          19 :   -14.8872540379842
          20 :    24.1075573088092
          21 :   -28.0616136081007
          22 :    27.0675751603681
          23 :   -22.3798081861339
          24 :    15.5661536578531
          25 :   -7.95130508835587
          26 :   0.348252291444282
          27 :    6.86820022155109
          28 :   -13.4750849887502
          29 :    19.1103433664491
          30 :   -23.1583929326210
          31 :   -33.7798959931600
          32 :   -24.7464493901023

     Forces acting on atoms (Ry/au):

     negative rho (up, down):  1.591E+00 0.000E+00
     atom    1 type  1   force =    -0.00024401   -0.00015057    0.02770035
     atom    2 type  1   force =     0.00024586   -0.00015016    0.02771972
     atom    3 type  1   force =     0.00000030    0.00028832    0.02770689
     atom    4 type  1   force =     0.00000299    0.00000507    0.02818028
     atom    5 type  1   force =    -0.00000981   -0.00700169   -0.00407563
     atom    6 type  1   force =     0.00000800   -0.00003891    0.00225183
     atom    7 type  1   force =     0.00602444    0.00352551   -0.00406145
     atom    8 type  1   force =    -0.00602465    0.00352375   -0.00406501
     atom    9 type  1   force =     0.00000313    0.00000153   -0.04601670
     atom   10 type  1   force =     0.00000008   -0.02586647    0.01024228
     atom   11 type  1   force =    -0.02238392    0.01292255    0.01024136
     atom   12 type  1   force =     0.02239612    0.01293512    0.01025641
     atom   13 type  2   force =    -0.00001854    0.00000595   -0.08608032

     Total force =     0.108850     Total SCF correction =     0.003130

     entering subroutine stress ...

     negative rho (up, down):  1.591E+00 0.000E+00
          total   stress  (Ry/bohr**3)                   (kbar)     P=  -35.04
  -0.00021920  -0.00000000   0.00000001        -32.25     -0.00      0.00
  -0.00000000  -0.00021925  -0.00000001         -0.00    -32.25     -0.00
   0.00000001  -0.00000001  -0.00027619          0.00     -0.00    -40.63

     BFGS Geometry Optimization

     number of scf cycles    =   1
     number of bfgs steps    =   0

     energy   new            =   -2136.0029634993 Ry

     new trust radius        =       0.0860803218 bohr
     new conv_thr            =       0.0000099958 Ry

ATOMIC_POSITIONS (crystal)
Tc1      0.166666667   0.166666667   0.408540475    0   0   0
Tc1      0.666666667   0.166666667   0.408540475    0   0   0
Tc1      0.166666667   0.666666667   0.408540475    0   0   0
Tc1      0.666666667   0.666666667   0.408540475    0   0   0
Tc1      0.833333333   0.333333333   0.500000000    0   0   0
Tc1      0.333333333   0.333333333   0.500000000    0   0   0
Tc1      0.833333333   0.833333333   0.500000000    0   0   0
Tc1      0.333333333   0.833333333   0.500000000    0   0   0
Tc1      0.000000217   0.000000171   0.590464689
Tc1      0.501441154  -0.002882294   0.591680953
Tc1     -0.002880048   0.501439956   0.591680933
Tc1      0.501440569   0.501441357   0.591681259
O1       0.333331213   0.333333996   0.646160981

     Writing output data file calc.save
     Check: negative starting charge=   -1.505105
     NEW-OLD atomic charge density approx. for the potential

     Check: negative/imaginary core charge=   -0.000022    0.000000
     Check: negative starting charge=   -1.507782

[...]

     Total force =     0.086257     Total SCF correction =     0.011434
     SCF correction compared to forces is large: reduce conv_thr to get better values

[...]

     energy   old            =   -2136.0029634993 Ry
     energy   new            =   -2136.0135386936 Ry

     CASE: energy  _new < energy  _old

[...]

     iteration #  1     ecut=    36.75 Ry     beta=0.30
     Davidson diagonalization with overlap
     c_bands:  1 eigenvalues not converged
     ethr =  1.00E-06,  avg # of iterations = 13.2

[...]

     iteration #  1     ecut=    36.75 Ry     beta=0.30
     Davidson diagonalization with overlap
     c_bands:  1 eigenvalues not converged
     ethr =  1.00E-06,  avg # of iterations = 14.1

[...]

     Total force =     0.004835     Total SCF correction =     0.000322

[...]

     number of scf cycles    =  10
     number of bfgs steps    =   9

     energy   old            =   -2136.0350313451 Ry
     energy   new            =   -2136.0350890966 Ry

     CASE: energy  _new < energy  _old

     new trust radius        =       0.0124498906 bohr
     new conv_thr            =       0.0000001000 Ry

ATOMIC_POSITIONS (crystal)
Tc1      0.166666667   0.166666667   0.408540475    0   0   0
Tc1      0.666666667   0.166666667   0.408540475    0   0   0
Tc1      0.166666667   0.666666667   0.408540475    0   0   0
Tc1      0.666666667   0.666666667   0.408540475    0   0   0
Tc1      0.833333333   0.333333333   0.500000000    0   0   0
Tc1      0.333333333   0.333333333   0.500000000    0   0   0
Tc1      0.833333333   0.833333333   0.500000000    0   0   0
Tc1      0.333333333   0.833333333   0.500000000    0   0   0
Tc1     -0.000000151  -0.000000408   0.585395338
Tc1      0.505893734  -0.011783416   0.588784305
Tc1     -0.011779825   0.505889954   0.588784145
Tc1      0.505892655   0.505889185   0.588784333
O1       0.333336163   0.333330665   0.637105824

     Writing output data file calc.save
     Check: negative starting charge=   -1.505016
     NEW-OLD atomic charge density approx. for the potential

     Check: negative/imaginary core charge=   -0.000022    0.000000
     Check: negative starting charge=   -1.504851

[...]

     Self-consistent Calculation

[...]

     total energy              =   -2136.03513435 Ry
     Harris-Foulkes estimate   =   -2136.03513441 Ry
     estimated scf accuracy    <       0.00000059 Ry

     iteration # 11     ecut=    36.75 Ry     beta=0.30
     Davidson diagonalization with overlap
     ethr =  3.16E-10,  avg # of iterations =  3.8

[...]

     negative rho (up, down):  1.590E+00 0.000E+00

     Adding external electric field

     Computed dipole along edir(3) :
        Dipole               -0.0368 Ry au,         -0.0935 Debye
        Dipole field         -0.0001 Ry au

        Potential amp.        0.0097 Ry
        Total length         45.0992 bohr

     End of self-consistent calculation

[...]

          k = 0.0608-0.0702 0.0000 ( 16203 PWs)   bands (ev):

[...]

          k =-0.0912-0.0526 0.0000 ( 16164 PWs)   bands (ev):

   -64.8303 -64.8027 -64.7391 -64.7218 -64.7158 -64.6975 -64.6695 -64.5538
   -64.5457 -64.4910 -64.4836 -64.4256 -37.2933 -37.1662 -37.1642 -37.1511
   -37.1097 -37.0876 -36.9558 -36.9369 -36.9107 -36.8918 -36.8456 -36.8338
   -36.8291 -36.7084 -36.6617 -36.6056 -36.6040 -36.5841 -36.5685 -36.5560
   -36.5225 -36.5171 -36.4949 -36.4928 -36.4620 -36.4517 -36.4500 -36.4416
   -36.3921 -36.3576 -36.3492 -36.2943 -36.2514 -36.2009 -36.1745 -36.1641
   -16.7336  -3.7268  -3.1503  -3.0155  -2.5434  -2.4251  -1.9668  -1.8890
    -1.8601  -1.6175  -1.5558  -1.5078  -1.3235  -1.2171  -1.1560  -1.1533
    -0.9614  -0.8881  -0.8880  -0.4571  -0.3215  -0.2400  -0.1748  -0.1213
     0.0148   0.0233   0.3731   0.5032   0.6316   0.6651   0.9404   0.9653
     1.0044   1.0341   1.0925   1.1175   1.1653   1.2766   1.2882   1.3507
     1.3858   1.6426   1.7243   2.2028   2.2216   2.2796   2.4341   2.5619
     2.5722   2.7558   2.8286   2.9651   3.0467   3.1103   3.3915

     the Fermi energy is     2.4353 ev

!    total energy              =   -2136.03513434 Ry
     Harris-Foulkes estimate   =   -2136.03513432 Ry
     estimated scf accuracy    <       0.00000007 Ry

     The total energy is the sum of the following terms:

     one-electron contribution =  -19550.39679952 Ry
     hartree contribution      =    9776.45220716 Ry
     xc contribution           =    -404.81788579 Ry
     ewald contribution        =    8042.81443406 Ry
     electric field correction =       0.00000396 Ry
     smearing contrib. (-TS)   =      -0.08709420 Ry

     convergence has been achieved in  11 iterations

 BEEF-vdW xc energy contributions
           1 :   -354.623888673108
           2 :    325.967153239542
           3 :   -275.032723782556
           4 :    212.066760468523
           5 :   -147.963389744572
           6 :    91.2827396813165
           7 :   -46.6133863943266
           8 :    14.4668269146318
           9 :    7.47772315400795
          10 :   -22.5463713580679
          11 :    33.4037755736278
          12 :   -41.1795802947676
          13 :    45.5065959453172
          14 :   -45.2767755376722
          15 :    39.6429998692628
          16 :   -28.8306024179272
          17 :    14.4129827661970
          18 :    1.01098268355577
          19 :   -14.5793343622753
          20 :    24.0123247436147
          21 :   -28.2092412037160
          22 :    27.3749617505538
          23 :   -22.6917159805773
          24 :    15.7283680867820
          25 :   -7.88173273792341
          26 :   7.333338888349772E-002
          27 :    7.22798309764124
          28 :   -13.7622907491200
          29 :    19.2023757473677
          30 :   -23.0218708991003
          31 :   -33.8014699203691
          32 :   -24.7915962636946

     Forces acting on atoms (Ry/au):

     negative rho (up, down):  1.590E+00 0.000E+00
     atom    1 type  1   force =     0.00230003    0.00132882    0.01850068
     atom    2 type  1   force =    -0.00229865    0.00132447    0.01849202
     atom    3 type  1   force =    -0.00000308   -0.00265441    0.01849096
     atom    4 type  1   force =     0.00000411    0.00000034    0.02181753
     atom    5 type  1   force =    -0.00000129   -0.00015804   -0.02063633
     atom    6 type  1   force =     0.00000303   -0.00000120   -0.01583867
     atom    7 type  1   force =     0.00013794    0.00008067   -0.02063867
     atom    8 type  1   force =    -0.00013491    0.00007783   -0.02063158
     atom    9 type  1   force =     0.00000138   -0.00000069    0.00145700
     atom   10 type  1   force =    -0.00000125   -0.00047029   -0.00014972
     atom   11 type  1   force =    -0.00040848    0.00023576   -0.00015087
     atom   12 type  1   force =     0.00040592    0.00023532   -0.00014293
     atom   13 type  2   force =    -0.00000477    0.00000140   -0.00056943

     Total force =     0.001782     Total SCF correction =     0.000974
     SCF correction compared to forces is large: reduce conv_thr to get better values

     entering subroutine stress ...

     negative rho (up, down):  1.590E+00 0.000E+00
          total   stress  (Ry/bohr**3)                   (kbar)     P=  -18.63
  -0.00014289  -0.00000000  -0.00000000        -21.02     -0.00     -0.00
  -0.00000000  -0.00014289   0.00000000         -0.00    -21.02      0.00
  -0.00000000   0.00000000  -0.00009414         -0.00      0.00    -13.85

     bfgs converged in  11 scf cycles and  10 bfgs steps
     (criteria: energy <  1.0E+00, force <  1.9E-03)

     End of BFGS Geometry Optimization

     Final energy   =   -2136.0351343379 Ry
Begin final coordinates

ATOMIC_POSITIONS (crystal)
Tc1      0.166666667   0.166666667   0.408540475    0   0   0
Tc1      0.666666667   0.166666667   0.408540475    0   0   0
Tc1      0.166666667   0.666666667   0.408540475    0   0   0
Tc1      0.666666667   0.666666667   0.408540475    0   0   0
Tc1      0.833333333   0.333333333   0.500000000    0   0   0
Tc1      0.333333333   0.333333333   0.500000000    0   0   0
Tc1      0.833333333   0.833333333   0.500000000    0   0   0
Tc1      0.333333333   0.833333333   0.500000000    0   0   0
Tc1     -0.000000151  -0.000000408   0.585395338
Tc1      0.505893734  -0.011783416   0.588784305
Tc1     -0.011779825   0.505889954   0.588784145
Tc1      0.505892655   0.505889185   0.588784333
O1       0.333336163   0.333330665   0.637105824
End final coordinates

     Writing output data file calc.save

     General routines

     Parallel routines

   This run was terminated on:  18:34:25   2May2018

   JOB DONE.
Job  /afs/slac/g/suncat/bin/suncat-tsmpirun -x LD_LIBRARY_PATH -wdir /scratch/qe806657_Zr1qB pw.x -npool 4 -in pw.inp

TID   HOST_NAME   COMMAND_LINE            STATUS            TERMINATION_TIME
00000 suncat0091 pw.x -npool 4 -i  Done                     05/02/2018 18:34:25
00001 suncat0091 pw.x -npool 4 -i  Done                     05/02/2018 18:34:25
00002 suncat0091 pw.x -npool 4 -i  Done                     05/02/2018 18:34:25
00003 suncat0091 pw.x -npool 4 -i  Done                     05/02/2018 18:34:25
00004 suncat0091 pw.x -npool 4 -i  Done                     05/02/2018 18:34:25
00005 suncat0091 pw.x -npool 4 -i  Done                     05/02/2018 18:34:25
00006 suncat0091 pw.x -npool 4 -i  Done                     05/02/2018 18:34:25
00007 suncat0091 pw.x -npool 4 -i  Done                     05/02/2018 18:34:25
00008 suncat0090 pw.x -npool 4 -i  Done                     05/02/2018 18:34:25
00009 suncat0090 pw.x -npool 4 -i  Done                     05/02/2018 18:34:25
00010 suncat0090 pw.x -npool 4 -i  Done                     05/02/2018 18:34:25
00011 suncat0090 pw.x -npool 4 -i  Done                     05/02/2018 18:34:25
00012 suncat0090 pw.x -npool 4 -i  Done                     05/02/2018 18:34:25
00013 suncat0090 pw.x -npool 4 -i  Done                     05/02/2018 18:34:25
00014 suncat0090 pw.x -npool 4 -i  Done                     05/02/2018 18:34:25
00015 suncat0090 pw.x -npool 4 -i  Done                     05/02/2018 18:34:25
00016 suncat0050 pw.x -npool 4 -i  Done                     05/02/2018 18:34:25
00017 suncat0050 pw.x -npool 4 -i  Done                     05/02/2018 18:34:25
00018 suncat0050 pw.x -npool 4 -i  Done                     05/02/2018 18:34:25
00019 suncat0050 pw.x -npool 4 -i  Done                     05/02/2018 18:34:25
00020 suncat0050 pw.x -npool 4 -i  Done                     05/02/2018 18:34:25
00021 suncat0050 pw.x -npool 4 -i  Done                     05/02/2018 18:34:25
00022 suncat0050 pw.x -npool 4 -i  Done                     05/02/2018 18:34:25
00023 suncat0050 pw.x -npool 4 -i  Done                     05/02/2018 18:34:25
00024 suncat0048 pw.x -npool 4 -i  Done                     05/02/2018 18:34:25
00025 suncat0048 pw.x -npool 4 -i  Done                     05/02/2018 18:34:25
00026 suncat0048 pw.x -npool 4 -i  Done                     05/02/2018 18:34:25
00027 suncat0048 pw.x -npool 4 -i  Done                     05/02/2018 18:34:25
00028 suncat0048 pw.x -npool 4 -i  Done                     05/02/2018 18:34:25
00029 suncat0048 pw.x -npool 4 -i  Done                     05/02/2018 18:34:25
00030 suncat0048 pw.x -npool 4 -i  Done                     05/02/2018 18:34:25
00031 suncat0048 pw.x -npool 4 -i  Done                     05/02/2018 18:34:25