     Program PWSCF v.5.1rc2 (svn rev. 11289) starts on  4May2018 at 10:49:36

     Current dimensions of program PWSCF are:
     Max number of different atomic species (ntypx) = 10
     Max number of k-points (npk) =  40000
     Max angular momentum in pseudopotentials (lmaxx) =  3
     Presently stress not available with electric field

     IMPORTANT: XC functional enforced from input :
     Exchange-correlation      = BEEF-VDW ( 1  4 27 13 2)
     Any further DFT definition will be discarded
     Please, verify this is what you really want

     Subspace diagonalization in iterative solution of the eigenvalue problem:
     a serial algorithm will be used

     bravais-lattice index     =            0
     lattice parameter (alat)  =       1.8897  a.u.
     unit-cell volume          =    5174.6160 (a.u.)^3
     number of atoms/cell      =           13
     number of atomic types    =            2
     number of electrons       =       233.00
     number of Kohn-Sham states=          126
     kinetic-energy cutoff     =      36.7493  Ry
     charge density cutoff     =     367.4932  Ry
     convergence threshold     =      1.0E-05
     mixing beta               =       0.3000
     number of iterations used =           10  plain     mixing
     Exchange-correlation      = BEEF-VDW ( 1  4 27 13 2)
     nstep                     =           50

     celldm(1)=   1.889726  celldm(2)=   0.000000  celldm(3)=   0.000000
     celldm(4)=   0.000000  celldm(5)=   0.000000  celldm(6)=   0.000000

     crystal axes: (cart. coord. in units of alat)
               a(1) = (   5.966546   0.000000   0.000000 )
               a(2) = (   2.983273   5.167181   0.000000 )
               a(3) = (   0.000000   0.000000  24.871665 )

     reciprocal axes: (cart. coord. in units 2 pi/alat)
               b(1) = (  0.167601 -0.096765  0.000000 )
               b(2) = (  0.000000  0.193529  0.000000 )
               b(3) = (  0.000000  0.000000  0.040206 )

     PseudoPot. # 1 for Ag read from file:
     /u/if/mamunm/psp/gbrv1.5pbe/Ag.UPF
     MD5 check sum: d66d668201baa78d5eb5b04ef7011058
     Pseudo is Ultrasoft + core correction, Zval = 19.0
     Generated by new atomic code, or converted to UPF format
     Using radial grid of  887 points,  6 beta functions with:
                l(1) =   0
                l(2) =   0
                l(3) =   1
                l(4) =   1
                l(5) =   2
                l(6) =   2
     Q(r) pseudized with  6 coefficients,  rinner =    1.300   1.300   1.300
                                                       1.300   1.300

     PseudoPot. # 2 for N  read from file:
     /u/if/mamunm/psp/gbrv1.5pbe/N.UPF
     MD5 check sum: 95339753478d7afb44899504a8723017
     Pseudo is Ultrasoft + core correction, Zval =  5.0
     Generated by new atomic code, or converted to UPF format
     Using radial grid of  729 points,  4 beta functions with:
                l(1) =   0
                l(2) =   0
                l(3) =   1
                l(4) =   1
     Q(r) pseudized with  8 coefficients,  rinner =    0.900   0.900   0.900

     vdW kernel table read from file vdW_kernel_table
     MD5 check sum: 095c7af220d748ca6e76c0b4c6cfb241

     atomic species   valence    mass     pseudopotential
        Ag1           19.00   107.86820     Ag( 1.00)
        N1             5.00    14.00700     N ( 1.00)

     No symmetry found

   Cartesian axes

     site n.     atom                  positions (alat units)
         1           Ag1 tau(   1) = (   1.4916366   0.8611968  10.0000000  )
         2           Ag1 tau(   2) = (   4.4749098   0.8611968  10.0000000  )
         3           Ag1 tau(   3) = (   2.9832732   3.4447871  10.0000000  )
         4           Ag1 tau(   4) = (   5.9665464   3.4447871  10.0000000  )
         5           Ag1 tau(   5) = (   5.9665464   1.7223936  12.4358324  )
         6           Ag1 tau(   6) = (   2.9832732   1.7223936  12.4358324  )
         7           Ag1 tau(   7) = (   7.4581830   4.3059839  12.4358324  )
         8           Ag1 tau(   8) = (   4.4749098   4.3059839  12.4358324  )
         9           Ag1 tau(   9) = (   0.0000000   0.0000000  14.8716647  )
        10           Ag1 tau(  10) = (   2.9832732   0.0000000  14.8716647  )
        11           Ag1 tau(  11) = (   1.4916366   2.5835904  14.8716647  )
        12           Ag1 tau(  12) = (   4.4749098   2.5835904  14.8716647  )
        13           N1  tau(  13) = (   2.9832732   1.7223936  16.2756647  )

     number of k points=    20  Fermi-Dirac smearing, width (Ry)=  0.0110
                       cart. coord. in units 2pi/alat
        k(    1) = (   0.0000000   0.0000000   0.0000000), wk =   0.0555556
        k(    2) = (   0.0000000   0.0322549   0.0000000), wk =   0.1111111
        k(    3) = (   0.0000000   0.0645097   0.0000000), wk =   0.1111111
        k(    4) = (   0.0000000  -0.0967646   0.0000000), wk =   0.0555556
        k(    5) = (   0.0279335  -0.0161274   0.0000000), wk =   0.1111111
        k(    6) = (   0.0279335   0.0161274   0.0000000), wk =   0.1111111
        k(    7) = (   0.0279335   0.0483823   0.0000000), wk =   0.1111111
        k(    8) = (   0.0279335  -0.1128920   0.0000000), wk =   0.1111111
        k(    9) = (   0.0279335  -0.0806371   0.0000000), wk =   0.1111111
        k(   10) = (   0.0279335  -0.0483823   0.0000000), wk =   0.1111111
        k(   11) = (   0.0558670  -0.0322549   0.0000000), wk =   0.1111111
        k(   12) = (   0.0558670   0.0000000   0.0000000), wk =   0.1111111
        k(   13) = (   0.0558670   0.0322549   0.0000000), wk =   0.1111111
        k(   14) = (   0.0558670  -0.1290194   0.0000000), wk =   0.1111111
        k(   15) = (   0.0558670  -0.0967646   0.0000000), wk =   0.1111111
        k(   16) = (   0.0558670  -0.0645097   0.0000000), wk =   0.1111111
        k(   17) = (  -0.0838006   0.0483823   0.0000000), wk =   0.0555556
        k(   18) = (  -0.0838006   0.0806371   0.0000000), wk =   0.1111111
        k(   19) = (  -0.0838006   0.1128920   0.0000000), wk =   0.1111111
        k(   20) = (  -0.0838006  -0.0483823   0.0000000), wk =   0.0555556

     Largest allocated arrays     est. size (Mb)     dimensions
     Largest temporary arrays     est. size (Mb)     dimensions

     Initial potential from superposition of free atoms
     Check: negative starting charge=   -0.002260

     starting charge  226.99942, renormalised to  233.00000

     negative rho (up, down):  2.320E-03 0.000E+00

     *
     * You are using vdW-DF for exchange-correlation in this calculation.
     * Please cite the following three references that made this development
     * possible:
     *
     *   M. Dion, H. Rydberg, E. Schroder, D. C. Langreth, and
     *   B. I. Lundqvist, Phys. Rev. Lett. 92, 246401 (2004).
     *
     *   T. Thonhauser, V. R. Cooper, S. Li, A. Puzder, P. Hyldgaard, and
     *   D. C. Langreth, Phys. Rev. B 76, 125112 (2007).
     *
     *   G. Roman-Perez and J. M. Soler, Phys. Rev. Lett. 103, 096102 (2009).
     *
     *
     * If you are using vdW-DF2, please also cite:
     *
     *   K. Lee, E. D. Murray, L. Kong, B. I. Lundqvist, and
     *   D. C. Langreth, Phys. Rev. B 82, 081101(R) (2010).
     *
     *
     * If you are calculating the stress with vdW-DF, please also cite:
     *
     *   R. Sabatini, E. Kucukbenli, B. Kolb, T. Thonhauser, and
     *   S. de Gironcoli, J. Phys.: Condens. Matter 24, 424209 (2012).
     *

     Carrying out vdW-DF run using the following parameters:

     Nqs =      20    Nr_points =    1024   r_max =   100.000
     q_mesh =
               0.00001000     0.04494208     0.09755937     0.15916263
               0.23128650     0.31572767     0.41458969     0.53033537
               0.66584808     0.82450364     1.01025438     1.22772762
               1.48234092     1.78043706     2.12944203     2.53805004
               3.01644009     3.57652955     4.23227104     5.00000000

     Gradients computed in reciprocal space

     Adding external electric field

     Computed dipole along edir(3) :
        Dipole               -0.9590 Ry au,         -2.4375 Debye
        Dipole field         -0.0023 Ry au

        Potential amp.        0.2134 Ry
        Total length         45.8256 bohr

     Starting wfc are  160 randomized atomic wfcs

     Self-consistent Calculation

     iteration #  1     ecut=    36.75 Ry     beta=0.30
     Davidson diagonalization with overlap
     ethr =  1.00E-02,  avg # of iterations =  5.5

[...]

     total energy              =   -3571.25522549 Ry
     Harris-Foulkes estimate   =   -3583.41299555 Ry
     estimated scf accuracy    <      26.34846451 Ry

[...]

     End of self-consistent calculation

          k = 0.0000 0.0000 0.0000 ( 19435 PWs)   bands (ev):

   -91.3363 -91.3303 -91.3303 -91.3232 -91.1578 -91.1524 -91.1519 -91.1423
   -91.1370 -91.1369 -91.1351 -91.0185 -54.8758 -54.8758 -54.8692 -54.8325
   -54.8218 -54.8218 -54.8177 -54.8176 -54.8075 -54.8075 -54.7896 -54.7896
   -54.7021 -54.6948 -54.6946 -54.6872 -54.6573 -54.6572 -54.6403 -54.6373
   -54.6370 -54.6316 -54.6265 -54.6263 -54.6251 -54.6249 -54.6146 -54.6145
   -54.6106 -54.6065 -54.6009 -54.5816 -54.5816 -54.5211 -54.5210 -54.5007
   -11.9983  -5.7186  -5.0751  -5.0751  -5.0629  -5.0427  -4.9305  -4.9305
    -4.9059  -4.8457  -4.8400  -4.8400  -4.7682  -4.6631  -4.6620  -4.6620
    -4.1105  -4.1104  -4.0229  -3.9871  -3.9870  -3.9409  -3.9022  -3.9022
    -3.8566  -3.7738  -3.7738  -3.7152  -3.7152  -3.6849  -3.6345  -3.6345
    -3.2817  -3.2816  -3.1041  -3.0880  -3.0879  -3.0385  -3.0384  -3.0150
    -2.9906  -2.8129  -2.8128  -2.7843  -2.7842  -2.6955  -2.6398  -2.6397
    -2.5615  -2.5021  -2.5021  -2.4788  -2.4787  -2.4326  -2.4228  -2.4227
    -2.4152  -2.2538  -2.2498  -2.2496  -2.1897  -2.1873  -2.1873  -0.2118
     0.1377   0.1762   0.1762   1.3163   1.3164   1.3833   1.8082   2.0908
     2.0908   2.1898   2.5127   2.5127   4.1161   4.4150

[...]

          k =-0.0838 0.0484 0.0000 ( 19500 PWs)   bands (ev):

[...]

     the Fermi energy is     0.7113 ev

!    total energy              =   -3579.89888995 Ry
     Harris-Foulkes estimate   =   -3579.89890477 Ry
     estimated scf accuracy    <       0.00000781 Ry

     The total energy is the sum of the following terms:

     one-electron contribution =  -26200.01160505 Ry
     hartree contribution      =   13089.26160633 Ry
     xc contribution           =    -366.24564925 Ry
     ewald contribution        =    9897.12362469 Ry
     electric field correction =       0.00059946 Ry
     smearing contrib. (-TS)   =      -0.02746613 Ry

     convergence has been achieved in  14 iterations

 BEEF-vdW xc energy contributions
           1 :   -317.280263814165
           2 :    287.151440610877
           3 :   -236.925438008740
           4 :    181.791888731754
           5 :   -135.507566108672
           6 :    105.444894245953
           7 :   -91.2485730253559
           8 :    87.0565126518571
           9 :   -85.6018468518950
          10 :    81.8721421937767
          11 :   -74.6608730617982
          12 :    65.7409097323223
          13 :   -57.7172777774558
          14 :    52.1017393340086
          15 :   -48.6701508588193
          16 :    46.1278129001182
          17 :   -43.2998426978567
          18 :    39.9161477933573
          19 :   -36.5519146615582
          20 :    33.9490574509979
          21 :   -32.3360287194966
          22 :    31.2501931415629
          23 :   -29.9286143416548
          24 :    27.9104787417758
          25 :   -25.3851632426269
          26 :    23.0441770292114
          27 :   -21.5750520067956
          28 :    21.1773653235458
          29 :   -21.4396316041638
          30 :    21.6400610971643
          31 :   -31.7300147932177
          32 :   -23.0588433438061

     Forces acting on atoms (Ry/au):

     negative rho (up, down):  2.303E-03 0.000E+00
     atom    1 type  1   force =    -0.00091483   -0.00052848    0.00098890
     atom    2 type  1   force =     0.00091251   -0.00052755    0.00099058
     atom    3 type  1   force =     0.00000006    0.00105485    0.00102917
     atom    4 type  1   force =    -0.00000003    0.00000063   -0.00250950
     atom    5 type  1   force =     0.00001487    0.00219983    0.00328977
     atom    6 type  1   force =    -0.00001343   -0.00000039   -0.00416129
     atom    7 type  1   force =    -0.00190562   -0.00110837    0.00329326
     atom    8 type  1   force =     0.00190609   -0.00109132    0.00328846
     atom    9 type  1   force =     0.00000066   -0.00000318   -0.00051444
     atom   10 type  1   force =    -0.00000053    0.00143317    0.01569943
     atom   11 type  1   force =     0.00124460   -0.00071503    0.01569717
     atom   12 type  1   force =    -0.00124460   -0.00071445    0.01570033
     atom   13 type  2   force =     0.00000026    0.00000030   -0.05279184

     Total force =     0.059437     Total SCF correction =     0.010680
     SCF correction compared to forces is large: reduce conv_thr to get better values

     entering subroutine stress ...

     negative rho (up, down):  2.303E-03 0.000E+00
          total   stress  (Ry/bohr**3)                   (kbar)     P=   -6.10
  -0.00004777  -0.00000000  -0.00000000         -7.03     -0.00     -0.00
  -0.00000000  -0.00004777  -0.00000000         -0.00     -7.03     -0.00
  -0.00000000  -0.00000000  -0.00002893         -0.00     -0.00     -4.26

     BFGS Geometry Optimization

     number of scf cycles    =   1
     number of bfgs steps    =   0

     energy   new            =   -3579.8988899462 Ry

     new trust radius        =       0.0527918416 bohr
     new conv_thr            =       0.0000099958 Ry

ATOMIC_POSITIONS (crystal)
Ag1      0.166666667   0.166666667   0.402063960    0   0   0
Ag1      0.666666667   0.166666667   0.402063960    0   0   0
Ag1      0.166666667   0.666666667   0.402063960    0   0   0
Ag1      0.666666667   0.666666667   0.402063960    0   0   0
Ag1      0.833333333   0.333333333   0.500000000    0   0   0
Ag1      0.333333333   0.333333333   0.500000000    0   0   0
Ag1      0.833333333   0.833333333   0.500000000    0   0   0
Ag1      0.333333333   0.833333333   0.500000000    0   0   0
Ag1      0.000000222  -0.000000326   0.597925095
Ag1      0.499926567   0.000146772   0.598270066
Ag1      0.000146998   0.499926773   0.598270018
Ag1      0.499926199   0.499926832   0.598270085
N1       0.333333341   0.333333364   0.653262605

     Writing output data file calc.save
     Check: negative starting charge=   -0.002260
     NEW-OLD atomic charge density approx. for the potential
     Check: negative starting charge=   -0.002264

[...]

     energy   old            =   -3579.8988899462 Ry
     energy   new            =   -3579.9021957439 Ry

     CASE: energy  _new < energy  _old

     WARNING: bfgs curvature condition failed, Theta= 0.918
     new trust radius        =       0.0580710257 bohr
     new conv_thr            =       0.0000001000 Ry

[...]

     Total force =     0.041103     Total SCF correction =     0.001181

[...]

     Total force =     0.006133     Total SCF correction =     0.000499

[...]

     number of scf cycles    =  13
     number of bfgs steps    =  12

     energy   old            =   -3579.9144064400 Ry
     energy   new            =   -3579.9145290570 Ry

     CASE: energy  _new < energy  _old

     new trust radius        =       0.0354544668 bohr
     new conv_thr            =       0.0000001000 Ry

ATOMIC_POSITIONS (crystal)
Ag1      0.166666667   0.166666667   0.402063960    0   0   0
Ag1      0.666666667   0.166666667   0.402063960    0   0   0
Ag1      0.166666667   0.666666667   0.402063960    0   0   0
Ag1      0.666666667   0.666666667   0.402063960    0   0   0
Ag1      0.833333333   0.333333333   0.500000000    0   0   0
Ag1      0.333333333   0.333333333   0.500000000    0   0   0
Ag1      0.833333333   0.833333333   0.500000000    0   0   0
Ag1      0.333333333   0.833333333   0.500000000    0   0   0
Ag1     -0.000000701   0.000001161   0.596561738
Ag1      0.507323146  -0.014645678   0.598696914
Ag1     -0.014646205   0.507322442   0.598696968
Ag1      0.507324063   0.507322146   0.598696947
N1       0.333333023   0.333333591   0.642409433

     Writing output data file calc.save
     Check: negative starting charge=   -0.002343
     NEW-OLD atomic charge density approx. for the potential
     Check: negative starting charge=   -0.002344

[...]

     Self-consistent Calculation

[...]

     total energy              =   -3579.91460458 Ry
     Harris-Foulkes estimate   =   -3579.91460431 Ry
     estimated scf accuracy    <       0.00000023 Ry

     iteration #  8     ecut=    36.75 Ry     beta=0.30
     Davidson diagonalization with overlap
     ethr =  9.87E-11,  avg # of iterations =  2.0

[...]

     negative rho (up, down):  2.367E-03 0.000E+00

     Adding external electric field

     Computed dipole along edir(3) :
        Dipole               -0.3630 Ry au,         -0.9226 Debye
        Dipole field         -0.0009 Ry au

        Potential amp.        0.0808 Ry
        Total length         45.8256 bohr

     End of self-consistent calculation

[...]

          k = 0.0559-0.0645 0.0000 ( 19479 PWs)   bands (ev):

[...]

          k =-0.0838-0.0484 0.0000 ( 19500 PWs)   bands (ev):

   -91.2138 -91.2122 -91.2103 -91.1885 -91.1293 -91.1251 -91.1240 -91.0089
   -91.0074 -91.0054 -90.9955 -90.9401 -54.7401 -54.7370 -54.7184 -54.7141
   -54.7139 -54.7115 -54.7030 -54.7025 -54.6949 -54.6869 -54.6796 -54.6770
   -54.6752 -54.6619 -54.6486 -54.6090 -54.6068 -54.5885 -54.5660 -54.5550
   -54.5506 -54.5406 -54.5338 -54.5145 -54.5140 -54.5097 -54.5007 -54.4856
   -54.4824 -54.4809 -54.4789 -54.4778 -54.4685 -54.4513 -54.4463 -54.4283
   -12.4249  -4.9302  -4.6803  -4.6431  -4.5517  -4.5228  -4.4805  -4.4398
    -4.4249  -4.3582  -4.2972  -4.2906  -4.2489  -4.2355  -4.1706  -4.1691
    -4.0982  -4.0700  -3.9579  -3.8922  -3.8277  -3.8230  -3.8075  -3.7455
    -3.7378  -3.7085  -3.5688  -3.5400  -3.5036  -3.4508  -3.4430  -3.4252
    -3.4119  -3.3672  -3.2630  -3.2512  -3.2297  -3.1893  -3.1691  -3.1506
    -3.1455  -3.1140  -3.1016  -2.9963  -2.9852  -2.9695  -2.9296  -2.9133
    -2.8988  -2.8730  -2.8425  -2.8299  -2.7502  -2.7298  -2.6748  -2.6191
    -2.4766  -2.4018  -2.3798  -2.3688  -2.3608  -2.2424  -2.2351  -1.5832
    -1.0566  -0.1422  -0.0065   0.4686   0.9152   1.0572   1.5376   2.0003
     2.5608   3.1351   4.0000   4.1410   4.7702   5.5986

     the Fermi energy is     0.8683 ev

!    total energy              =   -3579.91460459 Ry
     Harris-Foulkes estimate   =   -3579.91460563 Ry
     estimated scf accuracy    <       0.00000002 Ry

     The total energy is the sum of the following terms:

     one-electron contribution =  -26275.27085251 Ry
     hartree contribution      =   13127.46435423 Ry
     xc contribution           =    -366.32119727 Ry
     ewald contribution        =    9934.23791752 Ry
     electric field correction =       0.00031995 Ry
     smearing contrib. (-TS)   =      -0.02514651 Ry

     convergence has been achieved in   8 iterations

 BEEF-vdW xc energy contributions
           1 :   -317.370831710148
           2 :    287.304060494940
           3 :   -237.136203288561
           4 :    181.991463563202
           5 :   -135.612495520095
           6 :    105.411722474985
           7 :   -91.1001737227874
           8 :    86.8683671381534
           9 :   -85.4585919875022
          10 :    81.8220342479551
          11 :   -74.6947347635713
          12 :    65.8059225713843
          13 :   -57.7560550516341
          14 :    52.0896694099412
          15 :   -48.6256551409182
          16 :    46.0929793597571
          17 :   -43.3084878515624
          18 :    39.9704342543491
          19 :   -36.6207683524652
          20 :    33.9878886459794
          21 :   -32.3150173265622
          22 :    31.1735005634663
          23 :   -29.8328541660138
          24 :    27.8432091370401
          25 :   -25.3777972750466
          26 :    23.0966693838769
          27 :   -21.6590824988806
          28 :    21.2528762639239
          29 :   -21.4743631003786
          30 :    21.6207977916623
          31 :   -31.7371084515577
          32 :   -23.0775142696121

     Forces acting on atoms (Ry/au):

     negative rho (up, down):  2.367E-03 0.000E+00
     atom    1 type  1   force =    -0.00112241   -0.00064802    0.00036648
     atom    2 type  1   force =     0.00112241   -0.00064803    0.00036647
     atom    3 type  1   force =     0.00000000    0.00129605    0.00036649
     atom    4 type  1   force =    -0.00000000    0.00000000   -0.00261927
     atom    5 type  1   force =     0.00000003    0.00160775    0.00071440
     atom    6 type  1   force =    -0.00000001    0.00000006   -0.00122064
     atom    7 type  1   force =    -0.00139223   -0.00080391    0.00071479
     atom    8 type  1   force =     0.00139223   -0.00080388    0.00071488
     atom    9 type  1   force =     0.00000029   -0.00000140    0.00035198
     atom   10 type  1   force =    -0.00000033    0.00062308    0.00062768
     atom   11 type  1   force =     0.00054096   -0.00031102    0.00062744
     atom   12 type  1   force =    -0.00054123   -0.00031079    0.00062770
     atom   13 type  2   force =     0.00000029    0.00000011   -0.00163840

     Total force =     0.002271     Total SCF correction =     0.000836
     SCF correction compared to forces is large: reduce conv_thr to get better values

     entering subroutine stress ...

     negative rho (up, down):  2.367E-03 0.000E+00
          total   stress  (Ry/bohr**3)                   (kbar)     P=   -5.08
  -0.00004183  -0.00000000   0.00000000         -6.15     -0.00      0.00
  -0.00000000  -0.00004183   0.00000000         -0.00     -6.15      0.00
   0.00000000   0.00000000  -0.00002002          0.00      0.00     -2.95

     bfgs converged in  14 scf cycles and  13 bfgs steps
     (criteria: energy <  1.0E+00, force <  1.9E-03)

     End of BFGS Geometry Optimization

     Final energy   =   -3579.9146045924 Ry
Begin final coordinates

ATOMIC_POSITIONS (crystal)
Ag1      0.166666667   0.166666667   0.402063960    0   0   0
Ag1      0.666666667   0.166666667   0.402063960    0   0   0
Ag1      0.166666667   0.666666667   0.402063960    0   0   0
Ag1      0.666666667   0.666666667   0.402063960    0   0   0
Ag1      0.833333333   0.333333333   0.500000000    0   0   0
Ag1      0.333333333   0.333333333   0.500000000    0   0   0
Ag1      0.833333333   0.833333333   0.500000000    0   0   0
Ag1      0.333333333   0.833333333   0.500000000    0   0   0
Ag1     -0.000000701   0.000001161   0.596561738
Ag1      0.507323146  -0.014645678   0.598696914
Ag1     -0.014646205   0.507322442   0.598696968
Ag1      0.507324063   0.507322146   0.598696947
N1       0.333333023   0.333333591   0.642409433
End final coordinates

     Writing output data file calc.save

     General routines

     Parallel routines

   This run was terminated on:  11:47:31   4May2018

   JOB DONE.
Job  /afs/slac/g/suncat/bin/suncat-tsmpirun -x LD_LIBRARY_PATH -wdir /scratch/qe28863_9kwml pw.x -npool 3 -in pw.inp

TID   HOST_NAME   COMMAND_LINE            STATUS            TERMINATION_TIME
00000 suncat2041 pw.x -npool 3 -i  Done                     05/04/2018 11:47:31
00001 suncat2041 pw.x -npool 3 -i  Done                     05/04/2018 11:47:31
00002 suncat2041 pw.x -npool 3 -i  Done                     05/04/2018 11:47:31
00003 suncat2041 pw.x -npool 3 -i  Done                     05/04/2018 11:47:31
00004 suncat2040 pw.x -npool 3 -i  Done                     05/04/2018 11:47:31
00005 suncat2040 pw.x -npool 3 -i  Done                     05/04/2018 11:47:31
00006 suncat2040 pw.x -npool 3 -i  Done                     05/04/2018 11:47:31
00007 suncat2040 pw.x -npool 3 -i  Done                     05/04/2018 11:47:31
00008 suncat2040 pw.x -npool 3 -i  Done                     05/04/2018 11:47:31
00009 suncat2040 pw.x -npool 3 -i  Done                     05/04/2018 11:47:31
00010 suncat2040 pw.x -npool 3 -i  Done                     05/04/2018 11:47:31
00011 suncat2040 pw.x -npool 3 -i  Done                     05/04/2018 11:47:31
00012 suncat2040 pw.x -npool 3 -i  Done                     05/04/2018 11:47:31
00013 suncat2040 pw.x -npool 3 -i  Done                     05/04/2018 11:47:31
00014 suncat2040 pw.x -npool 3 -i  Done                     05/04/2018 11:47:31
00015 suncat2040 pw.x -npool 3 -i  Done                     05/04/2018 11:47:31
00016 suncat2040 pw.x -npool 3 -i  Done                     05/04/2018 11:47:31
00017 suncat2040 pw.x -npool 3 -i  Done                     05/04/2018 11:47:31
00018 suncat2040 pw.x -npool 3 -i  Done                     05/04/2018 11:47:31
00019 suncat2040 pw.x -npool 3 -i  Done                     05/04/2018 11:47:31
00020 suncat2009 pw.x -npool 3 -i  Done                     05/04/2018 11:47:31
00021 suncat2009 pw.x -npool 3 -i  Done                     05/04/2018 11:47:31
00022 suncat2009 pw.x -npool 3 -i  Done                     05/04/2018 11:47:31
00023 suncat2009 pw.x -npool 3 -i  Done                     05/04/2018 11:47:31
00024 suncat2009 pw.x -npool 3 -i  Done                     05/04/2018 11:47:31
00025 suncat2009 pw.x -npool 3 -i  Done                     05/04/2018 11:47:31
00026 suncat2009 pw.x -npool 3 -i  Done                     05/04/2018 11:47:31
00027 suncat2009 pw.x -npool 3 -i  Done                     05/04/2018 11:47:31
00028 suncat2009 pw.x -npool 3 -i  Done                     05/04/2018 11:47:31
00029 suncat2009 pw.x -npool 3 -i  Done                     05/04/2018 11:47:31
00030 suncat2009 pw.x -npool 3 -i  Done                     05/04/2018 11:47:31
00031 suncat2009 pw.x -npool 3 -i  Done                     05/04/2018 11:47:31
00032 suncat2009 pw.x -npool 3 -i  Done                     05/04/2018 11:47:31
00033 suncat2009 pw.x -npool 3 -i  Done                     05/04/2018 11:47:31
00034 suncat2009 pw.x -npool 3 -i  Done                     05/04/2018 11:47:31
00035 suncat2009 pw.x -npool 3 -i  Done                     05/04/2018 11:47:31