     Program PWSCF v.5.1rc2 (svn rev. 11289) starts on 22Apr2018 at 23:59:56

     Current dimensions of program PWSCF are:
     Max number of different atomic species (ntypx) = 10
     Max number of k-points (npk) =  40000
     Max angular momentum in pseudopotentials (lmaxx) =  3
     Presently stress not available with electric field

     IMPORTANT: XC functional enforced from input :
     Exchange-correlation      = BEEF-VDW ( 1  4 27 13 2)
     Any further DFT definition will be discarded
     Please, verify this is what you really want

     Subspace diagonalization in iterative solution of the eigenvalue problem:
     a serial algorithm will be used

     bravais-lattice index     =            0
     lattice parameter (alat)  =       1.8897  a.u.
     unit-cell volume          =    6116.8020 (a.u.)^3
     number of atoms/cell      =           16
     number of atomic types    =            3
     number of electrons       =       139.00
     number of Kohn-Sham states=           79
     kinetic-energy cutoff     =      36.7493  Ry
     charge density cutoff     =     367.4932  Ry
     convergence threshold     =      1.0E-05
     mixing beta               =       0.3000
     number of iterations used =           10  plain     mixing
     Exchange-correlation      = BEEF-VDW ( 1  4 27 13 2)
     nstep                     =           50

     celldm(1)=   1.889726  celldm(2)=   0.000000  celldm(3)=   0.000000
     celldm(4)=   0.000000  celldm(5)=   0.000000  celldm(6)=   0.000000

     crystal axes: (cart. coord. in units of alat)
               a(1) = (   6.437465   0.000000   0.000000 )
               a(2) = (   3.218732   5.575008   0.000000 )
               a(3) = (   0.000000   0.000000  25.256168 )

     reciprocal axes: (cart. coord. in units 2 pi/alat)
               b(1) = (  0.155341 -0.089686  0.000000 )
               b(2) = (  0.000000  0.179372  0.000000 )
               b(3) = (  0.000000  0.000000  0.039594 )

     PseudoPot. # 1 for Sc read from file:
     /u/if/mamunm/psp/gbrv1.5pbe/Sc.UPF
     MD5 check sum: db30a2753ba66ef00f23801d899b7e7f
     Pseudo is Ultrasoft + core correction, Zval = 11.0
     Generated by new atomic code, or converted to UPF format
     Using radial grid of  849 points,  6 beta functions with:
                l(1) =   0
                l(2) =   0
                l(3) =   1
                l(4) =   1
                l(5) =   2
                l(6) =   2
     Q(r) pseudized with  6 coefficients,  rinner =    1.200   1.200   1.200
                                                       1.200   1.200

     PseudoPot. # 2 for C  read from file:
     /u/if/mamunm/psp/gbrv1.5pbe/C.UPF
     MD5 check sum: d1aef80898a10debaa0f26306b886e00
     Pseudo is Ultrasoft + core correction, Zval =  4.0
     Generated by new atomic code, or converted to UPF format
     Using radial grid of  721 points,  4 beta functions with:
                l(1) =   0
                l(2) =   0
                l(3) =   1
                l(4) =   1
     Q(r) pseudized with  8 coefficients,  rinner =    1.100   1.100   1.100

     PseudoPot. # 3 for H  read from file:
     /u/if/mamunm/psp/gbrv1.5pbe/H.UPF
     MD5 check sum: 761ae9a214b05c3daf00ab9f6b793d6f
     Pseudo is Ultrasoft, Zval =  1.0
     Generated by new atomic code, or converted to UPF format
     Using radial grid of  615 points,  2 beta functions with:
                l(1) =   0
                l(2) =   0
     Q(r) pseudized with  8 coefficients,  rinner =    0.700

     vdW kernel table read from file vdW_kernel_table
     MD5 check sum: 095c7af220d748ca6e76c0b4c6cfb241

     atomic species   valence    mass     pseudopotential
        Sc1           11.00    44.95591     Sc( 1.00)
        C1             4.00    12.01100     C ( 1.00)
        H1             1.00     1.00800     H ( 1.00)

     No symmetry found

   Cartesian axes

     site n.     atom                  positions (alat units)
         1           Sc1 tau(   1) = (   1.6093662   0.9291680  10.0000000  )
         2           Sc1 tau(   2) = (   4.8280986   0.9291680  10.0000000  )
         3           Sc1 tau(   3) = (   3.2187324   3.7166720  10.0000000  )
         4           Sc1 tau(   4) = (   6.4374648   3.7166720  10.0000000  )
         5           Sc1 tau(   5) = (   6.4374648   1.8583360  12.6280840  )
         6           Sc1 tau(   6) = (   3.2187324   1.8583360  12.6280840  )
         7           Sc1 tau(   7) = (   8.0468310   4.6458400  12.6280840  )
         8           Sc1 tau(   8) = (   4.8280986   4.6458400  12.6280840  )
         9           Sc1 tau(   9) = (   0.0000000   0.0000000  15.2561680  )
        10           Sc1 tau(  10) = (   3.2187324   0.0000000  15.2561680  )
        11           Sc1 tau(  11) = (   1.6093662   2.7875040  15.2561680  )
        12           Sc1 tau(  12) = (   4.8280986   2.7875040  15.2561680  )
        13           C1  tau(  13) = (   1.6093662   0.0000000  17.1011680  )
        14           H1  tau(  14) = (   2.6993662   0.0000000  17.7311680  )
        15           H1  tau(  15) = (   1.1593662   0.8895000  17.7311680  )
        16           H1  tau(  16) = (   4.3780986   4.6855080  17.7311680  )

     number of k points=    20  Fermi-Dirac smearing, width (Ry)=  0.0110
                       cart. coord. in units 2pi/alat
        k(    1) = (   0.0000000   0.0000000   0.0000000), wk =   0.0555556
        k(    2) = (   0.0000000   0.0298953   0.0000000), wk =   0.1111111
        k(    3) = (   0.0000000   0.0597906   0.0000000), wk =   0.1111111
        k(    4) = (   0.0000000  -0.0896860   0.0000000), wk =   0.0555556
        k(    5) = (   0.0258901  -0.0149477   0.0000000), wk =   0.1111111
        k(    6) = (   0.0258901   0.0149477   0.0000000), wk =   0.1111111
        k(    7) = (   0.0258901   0.0448430   0.0000000), wk =   0.1111111
        k(    8) = (   0.0258901  -0.1046336   0.0000000), wk =   0.1111111
        k(    9) = (   0.0258901  -0.0747383   0.0000000), wk =   0.1111111
        k(   10) = (   0.0258901  -0.0448430   0.0000000), wk =   0.1111111
        k(   11) = (   0.0517802  -0.0298953   0.0000000), wk =   0.1111111
        k(   12) = (   0.0517802   0.0000000   0.0000000), wk =   0.1111111
        k(   13) = (   0.0517802   0.0298953   0.0000000), wk =   0.1111111
        k(   14) = (   0.0517802  -0.1195813   0.0000000), wk =   0.1111111
        k(   15) = (   0.0517802  -0.0896860   0.0000000), wk =   0.1111111
        k(   16) = (   0.0517802  -0.0597906   0.0000000), wk =   0.1111111
        k(   17) = (  -0.0776703   0.0448430   0.0000000), wk =   0.0555556
        k(   18) = (  -0.0776703   0.0747383   0.0000000), wk =   0.1111111
        k(   19) = (  -0.0776703   0.1046336   0.0000000), wk =   0.1111111
        k(   20) = (  -0.0776703  -0.0448430   0.0000000), wk =   0.0555556

     Largest allocated arrays     est. size (Mb)     dimensions
     Largest temporary arrays     est. size (Mb)     dimensions

     Initial potential from superposition of free atoms
     Check: negative starting charge=   -0.000255

     starting charge  138.97110, renormalised to  139.00000

     negative rho (up, down):  2.555E-04 0.000E+00

     *
     * You are using vdW-DF for exchange-correlation in this calculation.
     * Please cite the following three references that made this development
     * possible:
     *
     *   M. Dion, H. Rydberg, E. Schroder, D. C. Langreth, and
     *   B. I. Lundqvist, Phys. Rev. Lett. 92, 246401 (2004).
     *
     *   T. Thonhauser, V. R. Cooper, S. Li, A. Puzder, P. Hyldgaard, and
     *   D. C. Langreth, Phys. Rev. B 76, 125112 (2007).
     *
     *   G. Roman-Perez and J. M. Soler, Phys. Rev. Lett. 103, 096102 (2009).
     *
     *
     * If you are using vdW-DF2, please also cite:
     *
     *   K. Lee, E. D. Murray, L. Kong, B. I. Lundqvist, and
     *   D. C. Langreth, Phys. Rev. B 82, 081101(R) (2010).
     *
     *
     * If you are calculating the stress with vdW-DF, please also cite:
     *
     *   R. Sabatini, E. Kucukbenli, B. Kolb, T. Thonhauser, and
     *   S. de Gironcoli, J. Phys.: Condens. Matter 24, 424209 (2012).
     *

     Carrying out vdW-DF run using the following parameters:

     Nqs =      20    Nr_points =    1024   r_max =   100.000
     q_mesh =
               0.00001000     0.04494208     0.09755937     0.15916263
               0.23128650     0.31572767     0.41458969     0.53033537
               0.66584808     0.82450364     1.01025438     1.22772762
               1.48234092     1.78043706     2.12944203     2.53805004
               3.01644009     3.57652955     4.23227104     5.00000000

     Gradients computed in reciprocal space

     Adding external electric field

     Computed dipole along edir(3) :
        Dipole               -0.0124 Ry au,         -0.0316 Debye
        Dipole field         -0.0000 Ry au

        Potential amp.        0.0024 Ry
        Total length         46.5341 bohr

     Starting wfc are  163 randomized atomic wfcs

     Self-consistent Calculation

     iteration #  1     ecut=    36.75 Ry     beta=0.30
     Davidson diagonalization with overlap
     ethr =  1.00E-02,  avg # of iterations =  2.0

[...]

     total energy              =   -1150.34405261 Ry
     Harris-Foulkes estimate   =   -1153.56188373 Ry
     estimated scf accuracy    <       6.86253987 Ry

[...]

     End of self-consistent calculation

          k = 0.0000 0.0000 0.0000 ( 23031 PWs)   bands (ev):

   -49.1885 -49.1575 -49.1481 -49.1128 -49.1113 -49.1106 -49.0815 -49.0350
   -48.7040 -48.6675 -48.6550 -48.6459 -27.9055 -27.8896 -27.8734 -27.8713
   -27.8679 -27.8607 -27.8460 -27.8396 -27.8272 -27.7836 -27.7805 -27.7772
   -27.7527 -27.6977 -27.6173 -27.6107 -27.6107 -27.6094 -27.5924 -27.5794
   -27.5320 -27.5314 -27.5219 -27.4760 -27.4277 -27.4233 -27.4190 -27.2699
   -27.2528 -27.2350 -27.2230 -27.1918 -27.1842 -27.1790 -27.1084 -27.1077
   -12.3530  -5.2896  -5.0198  -4.0542  -3.3584  -2.4626  -1.4584  -0.7054
    -0.6917  -0.6664  -0.5841  -0.5783  -0.5224  -0.3049  -0.2964  -0.1704
     0.2190   0.2247   0.2525   0.4712   0.5222   0.6124   0.8827   0.9893
     1.2763   1.2924   1.4150   1.4177   1.4341   1.6540   1.8581

[...]

          k =-0.0777 0.0448 0.0000 ( 23032 PWs)   bands (ev):

[...]

     the Fermi energy is     0.7926 ev

!    total energy              =   -1152.88546868 Ry
     Harris-Foulkes estimate   =   -1152.88546219 Ry
     estimated scf accuracy    <       0.00000864 Ry

     The total energy is the sum of the following terms:

     one-electron contribution =   -7354.37479562 Ry
     hartree contribution      =    3662.55164133 Ry
     xc contribution           =    -172.30340543 Ry
     ewald contribution        =    2711.37630073 Ry
     electric field correction =       0.00005432 Ry
     smearing contrib. (-TS)   =      -0.13526401 Ry

     convergence has been achieved in  17 iterations

 BEEF-vdW xc energy contributions
           1 :   -145.903607765514
           2 :    128.281586224983
           3 :   -100.873498974158
           4 :    74.3013509149634
           5 :   -55.9568914347902
           6 :    47.0781622804785
           7 :   -44.0817923456833
           8 :    42.3042121116936
           9 :   -39.1742538047282
          10 :    34.9554176924303
          11 :   -31.3088853981794
          12 :    29.3269681223520
          13 :   -28.6267459535171
          14 :    27.9323915198256
          15 :   -26.3410379319144
          16 :    24.0650637392817
          17 :   -22.0818212965507
          18 :    21.1421706553136
          19 :   -21.0952365056742
          20 :    21.0941682826208
          21 :   -20.4022642558687
          22 :    19.0170764920374
          23 :   -17.5844245062569
          24 :    16.7580271233884
          25 :   -16.6263193725807
          26 :    16.6973606330126
          27 :   -16.3942146222698
          28 :    15.5719015774704
          29 :   -14.5982009219929
          30 :    13.9688719799692
          31 :   -17.3409143405437
          32 :   -12.4136739599467

     Forces acting on atoms (Ry/au):

     negative rho (up, down):  1.756E-04 0.000E+00
     atom    1 type  1   force =     0.00006139   -0.00006356    0.00208215
     atom    2 type  1   force =    -0.00006367   -0.00030198    0.00182066
     atom    3 type  1   force =    -0.00031900    0.00014605    0.00252044
     atom    4 type  1   force =     0.00032745    0.00025861    0.00230750
     atom    5 type  1   force =    -0.00036608    0.00082123    0.00324461
     atom    6 type  1   force =     0.00019036    0.00167861    0.00279132
     atom    7 type  1   force =     0.00057565   -0.00167836   -0.00340646
     atom    8 type  1   force =    -0.00067599   -0.00134966   -0.00216150
     atom    9 type  1   force =     0.01457171   -0.00052021    0.01106554
     atom   10 type  1   force =    -0.01186457   -0.00089101    0.01237541
     atom   11 type  1   force =    -0.00142758   -0.00183753   -0.00779503
     atom   12 type  1   force =    -0.00109788    0.00238660   -0.00717338
     atom   13 type  2   force =     0.05342820    0.00118930    0.14991083
     atom   14 type  3   force =    -0.07872496    0.00005301   -0.07134610
     atom   15 type  3   force =     0.01269359   -0.04241503   -0.04746760
     atom   16 type  3   force =     0.01269137    0.04252395   -0.04876840

     Total force =     0.214319     Total SCF correction =     0.003357

     entering subroutine stress ...

     negative rho (up, down):  1.756E-04 0.000E+00
          total   stress  (Ry/bohr**3)                   (kbar)     P=   -3.51
  -0.00001373   0.00000018  -0.00001021         -2.02      0.03     -1.50
   0.00000018  -0.00000256   0.00000116          0.03     -0.38      0.17
  -0.00001021   0.00000116  -0.00005526         -1.50      0.17     -8.13

     BFGS Geometry Optimization

     number of scf cycles    =   1
     number of bfgs steps    =   0

     energy   new            =   -1152.8854686774 Ry

     new trust radius        =       0.1591516396 bohr
     new conv_thr            =       0.0000099958 Ry

ATOMIC_POSITIONS (crystal)
Sc1      0.166666667   0.166666667   0.395942884    0   0   0
Sc1      0.666666667   0.166666667   0.395942884    0   0   0
Sc1      0.166666667   0.666666667   0.395942884    0   0   0
Sc1      0.666666667   0.666666667   0.395942884    0   0   0
Sc1      0.833333333   0.333333333   0.500000000    0   0   0
Sc1      0.333333333   0.333333333   0.500000000    0   0   0
Sc1      0.833333333   0.833333333   0.500000000    0   0   0
Sc1      0.333333333   0.833333333   0.500000000    0   0   0
Sc1      0.001222523  -0.000049378   0.604288965
Sc1      0.499066988  -0.000084575   0.604316410
Sc1     -0.000030142   0.499825582   0.603893791
Sc1      0.499796484   0.500226535   0.603906816
C1       0.254335500   0.000112888   0.680249569
H1       0.412847392   0.000005032   0.700558108
H1       0.103377491   0.155525324   0.701058419
H1       0.258897464   0.844485014   0.701031165

     Writing output data file calc.save
     Check: negative starting charge=   -0.000255
     NEW-OLD atomic charge density approx. for the potential
     Check: negative starting charge=   -0.000256

[...]

     energy   old            =   -1152.8854686774 Ry
     energy   new            =   -1152.9163821718 Ry

     CASE: energy  _new < energy  _old

[...]

     Threshold (ethr) on eigenvalues was too large:
     Diagonalizing with lowered threshold

     Davidson diagonalization with overlap
     ethr =  7.43E-08,  avg # of iterations =  7.2

[...]

     Total force =     0.005355     Total SCF correction =     0.000649
     SCF correction compared to forces is large: reduce conv_thr to get better values

[...]

     Threshold (ethr) on eigenvalues was too large:
     Diagonalizing with lowered threshold

     Davidson diagonalization with overlap
     ethr =  9.84E-08,  avg # of iterations =  5.8

[...]

     Total force =     0.006127     Total SCF correction =     0.000212

[...]

     number of scf cycles    =  25
     number of bfgs steps    =  24

     energy   old            =   -1152.9263391586 Ry
     energy   new            =   -1152.9264444152 Ry

     CASE: energy  _new < energy  _old

     new trust radius        =       0.0208742285 bohr
     new conv_thr            =       0.0000001000 Ry

ATOMIC_POSITIONS (crystal)
Sc1      0.166666667   0.166666667   0.395942884    0   0   0
Sc1      0.666666667   0.166666667   0.395942884    0   0   0
Sc1      0.166666667   0.666666667   0.395942884    0   0   0
Sc1      0.666666667   0.666666667   0.395942884    0   0   0
Sc1      0.833333333   0.333333333   0.500000000    0   0   0
Sc1      0.333333333   0.333333333   0.500000000    0   0   0
Sc1      0.833333333   0.833333333   0.500000000    0   0   0
Sc1      0.333333333   0.833333333   0.500000000    0   0   0
Sc1      0.019726534  -0.004356909   0.607771016
Sc1      0.502581208  -0.002912071   0.606007060
Sc1      0.006912609   0.497436214   0.601541972
Sc1      0.508307891   0.492981347   0.599054211
C1       0.243187243   0.018562319   0.678840387
H1       0.394186163   0.005121168   0.702060689
H1       0.080813406   0.169244580   0.696737968
H1       0.235514938   0.855057610   0.690010119

     Writing output data file calc.save
     Check: negative starting charge=   -0.000249
     NEW-OLD atomic charge density approx. for the potential
     Check: negative starting charge=   -0.000249

[...]

     Self-consistent Calculation

[...]

     total energy              =   -1152.92651309 Ry
     Harris-Foulkes estimate   =   -1152.92651310 Ry
     estimated scf accuracy    <       0.00000032 Ry

     iteration # 10     ecut=    36.75 Ry     beta=0.30
     Davidson diagonalization with overlap
     ethr =  2.32E-10,  avg # of iterations =  4.5

[...]

     negative rho (up, down):  1.908E-04 0.000E+00

     Adding external electric field

     Computed dipole along edir(3) :
        Dipole                0.1261 Ry au,          0.3205 Debye
        Dipole field          0.0003 Ry au

        Potential amp.       -0.0241 Ry
        Total length         46.5341 bohr

     End of self-consistent calculation

[...]

          k = 0.0518-0.0598 0.0000 ( 23012 PWs)   bands (ev):

[...]

          k =-0.0777-0.0448 0.0000 ( 23032 PWs)   bands (ev):

   -49.1571 -49.1566 -49.1554 -49.1342 -49.1326 -49.1309 -49.0969 -49.0534
   -48.7159 -48.6876 -48.6642 -48.6511 -27.8741 -27.8355 -27.8324 -27.8281
   -27.8260 -27.8181 -27.8068 -27.7985 -27.7967 -27.7953 -27.7617 -27.7608
   -27.7249 -27.7244 -27.7112 -27.6978 -27.6966 -27.6943 -27.6408 -27.6052
   -27.5923 -27.5917 -27.5715 -27.5403 -27.3820 -27.3756 -27.3093 -27.2907
   -27.2817 -27.2554 -27.2504 -27.2421 -27.2411 -27.2278 -27.1575 -27.1571
   -13.0392  -6.2249  -6.0680  -3.0231  -2.6345  -2.4803  -1.6280  -1.4646
    -0.7480  -0.7377  -0.4712  -0.3654  -0.1935  -0.1669   0.4789   0.4977
     0.5283   0.5587   0.5713   0.6072   0.7927   0.8171   0.8561   0.8800
     0.9082   0.9521   1.1358   1.1645   1.1835   1.2559   1.3103

     the Fermi energy is     0.7733 ev

!    total energy              =   -1152.92651310 Ry
     Harris-Foulkes estimate   =   -1152.92651326 Ry
     estimated scf accuracy    <       0.00000005 Ry

     The total energy is the sum of the following terms:

     one-electron contribution =   -7375.44837720 Ry
     hartree contribution      =    3673.01988944 Ry
     xc contribution           =    -172.50864529 Ry
     ewald contribution        =    2722.14515375 Ry
     electric field correction =       0.00003267 Ry
     smearing contrib. (-TS)   =      -0.13456646 Ry

     convergence has been achieved in  10 iterations

 BEEF-vdW xc energy contributions
           1 :   -146.090352525180
           2 :    128.463277778779
           3 :   -101.042279777525
           4 :    74.4485253506259
           5 :   -56.0770353438155
           6 :    47.1721138356323
           7 :   -44.1546447126905
           8 :    42.3597852176738
           9 :   -39.2135707177484
          10 :    34.9792075150136
          11 :   -31.3185821504082
          12 :    29.3251519810267
          13 :   -28.6199952499467
          14 :    27.9319059933910
          15 :   -26.3557488390863
          16 :    24.0931549185059
          17 :   -22.1099739998887
          18 :    21.1534623627075
          19 :   -21.0800827531077
          20 :    21.0564410738626
          21 :   -20.3555204104916
          22 :    18.9736056683184
          23 :   -17.5457978026085
          24 :    16.7152675996139
          25 :   -16.5700609735115
          26 :    16.6283036739015
          27 :   -16.3226253955470
          28 :    15.5061798370723
          29 :   -14.5342186610359
          30 :    13.8911817816237
          31 :   -17.3528994241861
          32 :   -12.4253326281546

     Forces acting on atoms (Ry/au):

     negative rho (up, down):  1.908E-04 0.000E+00
     atom    1 type  1   force =    -0.00033902   -0.00046897    0.00163556
     atom    2 type  1   force =     0.00023490   -0.00128278    0.00182252
     atom    3 type  1   force =    -0.00074910    0.00111258    0.00136327
     atom    4 type  1   force =     0.00064830    0.00082103    0.00108544
     atom    5 type  1   force =     0.00251956   -0.00119494   -0.00201376
     atom    6 type  1   force =    -0.00088899   -0.00042176   -0.00283703
     atom    7 type  1   force =     0.00191242   -0.00037623   -0.00103723
     atom    8 type  1   force =     0.00081072   -0.00131740    0.00057744
     atom    9 type  1   force =    -0.00083629    0.00094789    0.00033622
     atom   10 type  1   force =    -0.00178241    0.00152812    0.00078643
     atom   11 type  1   force =     0.00033839   -0.00158629   -0.00013912
     atom   12 type  1   force =    -0.00022341   -0.00127872   -0.00039089
     atom   13 type  2   force =     0.00004281    0.00093903   -0.00118784
     atom   14 type  3   force =    -0.00007236    0.00094707   -0.00136752
     atom   15 type  3   force =    -0.00068381   -0.00024185    0.00025248
     atom   16 type  3   force =    -0.00093171    0.00187322    0.00111402

     Total force =     0.004858     Total SCF correction =     0.000594
     SCF correction compared to forces is large: reduce conv_thr to get better values

     entering subroutine stress ...

     negative rho (up, down):  1.908E-04 0.000E+00
          total   stress  (Ry/bohr**3)                   (kbar)     P=    1.55
   0.00002077  -0.00000172  -0.00000442          3.05     -0.25     -0.65
  -0.00000172   0.00002139   0.00000490         -0.25      3.15      0.72
  -0.00000442   0.00000490  -0.00001050         -0.65      0.72     -1.54

     bfgs converged in  26 scf cycles and  25 bfgs steps
     (criteria: energy <  1.0E+00, force <  1.9E-03)

     End of BFGS Geometry Optimization

     Final energy   =   -1152.9265130984 Ry
Begin final coordinates

ATOMIC_POSITIONS (crystal)
Sc1      0.166666667   0.166666667   0.395942884    0   0   0
Sc1      0.666666667   0.166666667   0.395942884    0   0   0
Sc1      0.166666667   0.666666667   0.395942884    0   0   0
Sc1      0.666666667   0.666666667   0.395942884    0   0   0
Sc1      0.833333333   0.333333333   0.500000000    0   0   0
Sc1      0.333333333   0.333333333   0.500000000    0   0   0
Sc1      0.833333333   0.833333333   0.500000000    0   0   0
Sc1      0.333333333   0.833333333   0.500000000    0   0   0
Sc1      0.019726534  -0.004356909   0.607771016
Sc1      0.502581208  -0.002912071   0.606007060
Sc1      0.006912609   0.497436214   0.601541972
Sc1      0.508307891   0.492981347   0.599054211
C1       0.243187243   0.018562319   0.678840387
H1       0.394186163   0.005121168   0.702060689
H1       0.080813406   0.169244580   0.696737968
H1       0.235514938   0.855057610   0.690010119
End final coordinates

     Writing output data file calc.save

     General routines

     Parallel routines

   This run was terminated on:   3:43: 1  23Apr2018

   JOB DONE.
Job  /afs/slac/g/suncat/bin/suncat-tsmpirun -x LD_LIBRARY_PATH -wdir /scratch/qe357399_h3MgT pw.x -npool 4 -in pw.inp

TID   HOST_NAME   COMMAND_LINE            STATUS            TERMINATION_TIME
00000 suncat0089 pw.x -npool 4 -i  Done                     04/23/2018 03:43:01
00001 suncat0089 pw.x -npool 4 -i  Done                     04/23/2018 03:43:01
00002 suncat0089 pw.x -npool 4 -i  Done                     04/23/2018 03:43:01
00003 suncat0089 pw.x -npool 4 -i  Done                     04/23/2018 03:43:01
00004 suncat0089 pw.x -npool 4 -i  Done                     04/23/2018 03:43:01
00005 suncat0089 pw.x -npool 4 -i  Done                     04/23/2018 03:43:01
00006 suncat0089 pw.x -npool 4 -i  Done                     04/23/2018 03:43:01
00007 suncat0089 pw.x -npool 4 -i  Done                     04/23/2018 03:43:01
00008 suncat0148 pw.x -npool 4 -i  Done                     04/23/2018 03:43:01
00009 suncat0148 pw.x -npool 4 -i  Done                     04/23/2018 03:43:01
00010 suncat0148 pw.x -npool 4 -i  Done                     04/23/2018 03:43:01
00011 suncat0148 pw.x -npool 4 -i  Done                     04/23/2018 03:43:01
00012 suncat0148 pw.x -npool 4 -i  Done                     04/23/2018 03:43:01
00013 suncat0148 pw.x -npool 4 -i  Done                     04/23/2018 03:43:01
00014 suncat0148 pw.x -npool 4 -i  Done                     04/23/2018 03:43:01
00015 suncat0148 pw.x -npool 4 -i  Done                     04/23/2018 03:43:01
00016 suncat0123 pw.x -npool 4 -i  Done                     04/23/2018 03:43:01
00017 suncat0123 pw.x -npool 4 -i  Done                     04/23/2018 03:43:01
00018 suncat0123 pw.x -npool 4 -i  Done                     04/23/2018 03:43:01
00019 suncat0123 pw.x -npool 4 -i  Done                     04/23/2018 03:43:01
00020 suncat0123 pw.x -npool 4 -i  Done                     04/23/2018 03:43:01
00021 suncat0123 pw.x -npool 4 -i  Done                     04/23/2018 03:43:01
00022 suncat0123 pw.x -npool 4 -i  Done                     04/23/2018 03:43:01
00023 suncat0123 pw.x -npool 4 -i  Done                     04/23/2018 03:43:01
00024 suncat0109 pw.x -npool 4 -i  Done                     04/23/2018 03:43:01
00025 suncat0109 pw.x -npool 4 -i  Done                     04/23/2018 03:43:01
00026 suncat0109 pw.x -npool 4 -i  Done                     04/23/2018 03:43:01
00027 suncat0109 pw.x -npool 4 -i  Done                     04/23/2018 03:43:01
00028 suncat0109 pw.x -npool 4 -i  Done                     04/23/2018 03:43:01
00029 suncat0109 pw.x -npool 4 -i  Done                     04/23/2018 03:43:01
00030 suncat0109 pw.x -npool 4 -i  Done                     04/23/2018 03:43:01
00031 suncat0109 pw.x -npool 4 -i  Done                     04/23/2018 03:43:01