     Program PWSCF v.5.1rc2 (svn rev. 11289) starts on 16Jan2018 at 20:23:30

     Current dimensions of program PWSCF are:
     Max number of different atomic species (ntypx) = 10
     Max number of k-points (npk) =  40000
     Max angular momentum in pseudopotentials (lmaxx) =  3
     Presently stress not available with electric field

     IMPORTANT: XC functional enforced from input :
     Exchange-correlation      = BEEF-VDW ( 1  4 27 13 2)
     Any further DFT definition will be discarded
     Please, verify this is what you really want

     Subspace diagonalization in iterative solution of the eigenvalue problem:
     a serial algorithm will be used

     bravais-lattice index     =            0
     lattice parameter (alat)  =       1.8897  a.u.
     unit-cell volume          =    4481.2752 (a.u.)^3
     number of atoms/cell      =           13
     number of atomic types    =            2
     number of electrons       =       198.00
     number of Kohn-Sham states=          109
     kinetic-energy cutoff     =      36.7493  Ry
     charge density cutoff     =     367.4932  Ry
     convergence threshold     =      1.0E-05
     mixing beta               =       0.3000
     number of iterations used =           10  plain     mixing
     Exchange-correlation      = BEEF-VDW ( 1  4 27 13 2)
     nstep                     =           50

     celldm(1)=   1.889726  celldm(2)=   0.000000  celldm(3)=   0.000000
     celldm(4)=   0.000000  celldm(5)=   0.000000  celldm(6)=   0.000000

     crystal axes: (cart. coord. in units of alat)
               a(1) = (   5.587338   0.000000   0.000000 )
               a(2) = (   2.793669   4.838777   0.000000 )
               a(3) = (   0.000000   0.000000  24.562042 )

     reciprocal axes: (cart. coord. in units 2 pi/alat)
               b(1) = (  0.178976 -0.103332  0.000000 )
               b(2) = (  0.000000  0.206664  0.000000 )
               b(3) = (  0.000000  0.000000  0.040713 )

     PseudoPot. # 1 for Pt read from file:
     /afs/slac.stanford.edu/u/if/mamunm/psp/gbrv1.5pbe/Pt.UPF
     MD5 check sum: f09d6de1a584b5a045c4fc126da2d0c4
     Pseudo is Ultrasoft + core correction, Zval = 16.0
     Generated by new atomic code, or converted to UPF format
     Using radial grid of  985 points,  6 beta functions with:
                l(1) =   0
                l(2) =   0
                l(3) =   1
                l(4) =   1
                l(5) =   2
                l(6) =   2
     Q(r) pseudized with  8 coefficients,  rinner =    1.300   1.300   1.300
                                                       1.300   1.300

     PseudoPot. # 2 for O  read from file:
     /afs/slac.stanford.edu/u/if/mamunm/psp/gbrv1.5pbe/O.UPF
     MD5 check sum: 734c27235a0248c51dbae37a1fbe46ec
     Pseudo is Ultrasoft + core correction, Zval =  6.0
     Generated by new atomic code, or converted to UPF format
     Using radial grid of  737 points,  5 beta functions with:
                l(1) =   0
                l(2) =   0
                l(3) =   1
                l(4) =   1
                l(5) =   2
     Q(r) pseudized with  8 coefficients,  rinner =    0.900   0.900   0.900
                                                       0.900   0.900

     vdW kernel table read from file vdW_kernel_table
     MD5 check sum: 095c7af220d748ca6e76c0b4c6cfb241

     atomic species   valence    mass     pseudopotential
        Pt1           16.00   195.08400     Pt( 1.00)
        O1             6.00    15.99900     O ( 1.00)

     No symmetry found

   Cartesian axes

     site n.     atom                  positions (alat units)
         1           Pt1 tau(   1) = (   1.3968345   0.8064628  10.0000000  )
         2           Pt1 tau(   2) = (   4.1905036   0.8064628  10.0000000  )
         3           Pt1 tau(   3) = (   2.7936691   3.2258512  10.0000000  )
         4           Pt1 tau(   4) = (   5.5873381   3.2258512  10.0000000  )
         5           Pt1 tau(   5) = (   5.5873381   1.6129256  12.2810212  )
         6           Pt1 tau(   6) = (   2.7936691   1.6129256  12.2810212  )
         7           Pt1 tau(   7) = (   6.9841727   4.0323140  12.2810212  )
         8           Pt1 tau(   8) = (   4.1905036   4.0323140  12.2810212  )
         9           Pt1 tau(   9) = (   0.0000000   0.0000000  14.5620425  )
        10           Pt1 tau(  10) = (   2.7936691   0.0000000  14.5620425  )
        11           Pt1 tau(  11) = (   1.3968345   2.4193884  14.5620425  )
        12           Pt1 tau(  12) = (   4.1905036   2.4193884  14.5620425  )
        13           O1  tau(  13) = (   1.3968345   0.0000000  16.5820425  )

     number of k points=    20  Fermi-Dirac smearing, width (Ry)=  0.0110
                       cart. coord. in units 2pi/alat
        k(    1) = (   0.0000000   0.0000000   0.0000000), wk =   0.0555556
        k(    2) = (   0.0000000   0.0344440   0.0000000), wk =   0.1111111
        k(    3) = (   0.0000000   0.0688879   0.0000000), wk =   0.1111111
        k(    4) = (   0.0000000  -0.1033319   0.0000000), wk =   0.0555556
        k(    5) = (   0.0298294  -0.0172220   0.0000000), wk =   0.1111111
        k(    6) = (   0.0298294   0.0172220   0.0000000), wk =   0.1111111
        k(    7) = (   0.0298294   0.0516660   0.0000000), wk =   0.1111111
        k(    8) = (   0.0298294  -0.1205539   0.0000000), wk =   0.1111111
        k(    9) = (   0.0298294  -0.0861099   0.0000000), wk =   0.1111111
        k(   10) = (   0.0298294  -0.0516660   0.0000000), wk =   0.1111111
        k(   11) = (   0.0596587  -0.0344440   0.0000000), wk =   0.1111111
        k(   12) = (   0.0596587   0.0000000   0.0000000), wk =   0.1111111
        k(   13) = (   0.0596587   0.0344440   0.0000000), wk =   0.1111111
        k(   14) = (   0.0596587  -0.1377759   0.0000000), wk =   0.1111111
        k(   15) = (   0.0596587  -0.1033319   0.0000000), wk =   0.1111111
        k(   16) = (   0.0596587  -0.0688879   0.0000000), wk =   0.1111111
        k(   17) = (  -0.0894881   0.0516660   0.0000000), wk =   0.0555556
        k(   18) = (  -0.0894881   0.0861099   0.0000000), wk =   0.1111111
        k(   19) = (  -0.0894881   0.1205539   0.0000000), wk =   0.1111111
        k(   20) = (  -0.0894881  -0.0516660   0.0000000), wk =   0.0555556

     Largest allocated arrays     est. size (Mb)     dimensions
     Largest temporary arrays     est. size (Mb)     dimensions

     Check: negative/imaginary core charge=   -0.000001    0.000000

     Initial potential from superposition of free atoms
     Check: negative starting charge=   -2.200943

     starting charge  191.99986, renormalised to  198.00000

     negative rho (up, down):  2.270E+00 0.000E+00

     *
     * You are using vdW-DF for exchange-correlation in this calculation.
     * Please cite the following three references that made this development
     * possible:
     *
     *   M. Dion, H. Rydberg, E. Schroder, D. C. Langreth, and
     *   B. I. Lundqvist, Phys. Rev. Lett. 92, 246401 (2004).
     *
     *   T. Thonhauser, V. R. Cooper, S. Li, A. Puzder, P. Hyldgaard, and
     *   D. C. Langreth, Phys. Rev. B 76, 125112 (2007).
     *
     *   G. Roman-Perez and J. M. Soler, Phys. Rev. Lett. 103, 096102 (2009).
     *
     *
     * If you are using vdW-DF2, please also cite:
     *
     *   K. Lee, E. D. Murray, L. Kong, B. I. Lundqvist, and
     *   D. C. Langreth, Phys. Rev. B 82, 081101(R) (2010).
     *
     *
     * If you are calculating the stress with vdW-DF, please also cite:
     *
     *   R. Sabatini, E. Kucukbenli, B. Kolb, T. Thonhauser, and
     *   S. de Gironcoli, J. Phys.: Condens. Matter 24, 424209 (2012).
     *

     Carrying out vdW-DF run using the following parameters:

     Nqs =      20    Nr_points =    1024   r_max =   100.000
     q_mesh =
               0.00001000     0.04494208     0.09755937     0.15916263
               0.23128650     0.31572767     0.41458969     0.53033537
               0.66584808     0.82450364     1.01025438     1.22772762
               1.48234092     1.78043706     2.12944203     2.53805004
               3.01644009     3.57652955     4.23227104     5.00000000

     Gradients computed in reciprocal space

     Adding external electric field

     Computed dipole along edir(3) :
        Dipole               -1.5240 Ry au,         -3.8736 Debye
        Dipole field         -0.0043 Ry au

        Potential amp.        0.3868 Ry
        Total length         45.2551 bohr

     Starting wfc are  148 randomized atomic wfcs

     Self-consistent Calculation

     iteration #  1     ecut=    36.75 Ry     beta=0.30
     Davidson diagonalization with overlap
     ethr =  1.00E-02,  avg # of iterations =  2.8

[...]

     total energy              =   -2551.71323520 Ry
     Harris-Foulkes estimate   =   -2583.47925696 Ry
     estimated scf accuracy    <      66.99109978 Ry

[...]

     End of self-consistent calculation

          k = 0.0000 0.0000 0.0000 ( 16787 PWs)   bands (ev):

   -51.8496 -51.8484 -51.7968 -51.7892 -51.7149 -51.6825 -51.6645 -51.6389
   -51.5965 -51.5837 -51.5770 -51.5687 -51.5593 -51.5410 -51.4798 -51.4776
   -51.4528 -51.4490 -51.4480 -51.4276 -51.3868 -51.3202 -51.2313 -51.2268
   -51.2210 -51.2160 -51.1937 -51.1485 -51.1447 -51.1438 -51.0536 -51.0288
   -51.0074 -51.0042 -50.9987 -50.9878 -14.7480  -7.5851  -5.8456  -5.4374
    -5.0932  -5.0833  -5.0793  -4.8790  -4.8614  -4.8611  -4.4358  -4.4157
    -4.4122  -4.2666  -4.2609  -4.2355  -2.9769  -2.8941  -2.8378  -2.4968
    -2.4898  -2.4800  -2.3128  -2.2091  -2.2046  -1.9369  -1.9241  -1.9012
    -1.8025  -1.7767  -1.7580  -1.6859  -1.6804  -1.5136  -1.2097  -1.1115
    -0.7150  -0.5080  -0.3441  -0.3038  -0.2219  -0.2095  -0.1898  -0.0805
     0.0636   0.2656   0.3814   0.4297   0.5432   0.8874   0.9340   0.9465
     0.9804   1.0893   1.1008   1.1222   1.2878   1.3389   1.3503   1.3599
     1.4378   1.5913   1.6256   1.6683   1.7342   1.7347   1.7365   2.4410
     2.5797   2.6802   3.2253   4.1918   4.2080

[...]

          k =-0.0895 0.0517 0.0000 ( 16880 PWs)   bands (ev):

[...]

     the Fermi energy is     1.2108 ev

!    total energy              =   -2580.52356123 Ry
     Harris-Foulkes estimate   =   -2580.52360921 Ry
     estimated scf accuracy    <       0.00000269 Ry

     The total energy is the sum of the following terms:

     one-electron contribution =  -20587.24604792 Ry
     hartree contribution      =   10330.05298915 Ry
     xc contribution           =    -710.67184029 Ry
     ewald contribution        =    8387.45728734 Ry
     electric field correction =       0.00062830 Ry
     smearing contrib. (-TS)   =      -0.11657781 Ry

     convergence has been achieved in  20 iterations

 BEEF-vdW xc energy contributions
           1 :   -632.530101114565
           2 :    588.380793352355
           3 :   -509.379186023081
           4 :    410.706978629653
           5 :   -308.794026775365
           6 :    217.172719344793
           7 :   -143.860566495302
           8 :    90.7345892630771
           9 :   -54.8059348903137
          10 :    30.6611892446108
          11 :   -13.0339264440615
          12 :   -1.44781863908520
          13 :    13.7707713352077
[...]

[...]

   This run was terminated on:  22: 3:31  16Jan2018

[...]

     Program PWSCF v.5.1rc2 (svn rev. 11289) starts on 16Jan2018 at 22: 3:37

[...]

   This run was terminated on:  23: 8: 4  16Jan2018

[...]

   This run was terminated on:   1: 3: 2  17Jan2018

[...]

     Program PWSCF v.5.1rc2 (svn rev. 11289) starts on 17Jan2018 at  1: 3:10

[...]

     Program PWSCF v.5.1rc2 (svn rev. 11289) starts on 17Jan2018 at  1:19:47

     Current dimensions of program PWSCF are:
     Max number of different atomic species (ntypx) = 10
     Max number of k-points (npk) =  40000
     Max angular momentum in pseudopotentials (lmaxx) =  3
     Presently stress not available with electric field

     IMPORTANT: XC functional enforced from input :
     Exchange-correlation      = BEEF-VDW ( 1  4 27 13 2)
     Any further DFT definition will be discarded
     Please, verify this is what you really want

     Subspace diagonalization in iterative solution of the eigenvalue problem:
     a serial algorithm will be used

     bravais-lattice index     =            0
     lattice parameter (alat)  =       1.8897  a.u.
     unit-cell volume          =    4481.2752 (a.u.)^3
     number of atoms/cell      =           13
     number of atomic types    =            2
     number of electrons       =       198.00
     number of Kohn-Sham states=          109
     kinetic-energy cutoff     =      36.7493  Ry
     charge density cutoff     =     367.4932  Ry
     convergence threshold     =      1.0E-05
     mixing beta               =       0.3000
     number of iterations used =           10  plain     mixing
     Exchange-correlation      = BEEF-VDW ( 1  4 27 13 2)
     nstep                     =           50

     celldm(1)=   1.889726  celldm(2)=   0.000000  celldm(3)=   0.000000
     celldm(4)=   0.000000  celldm(5)=   0.000000  celldm(6)=   0.000000

     crystal axes: (cart. coord. in units of alat)
               a(1) = (   5.587338   0.000000   0.000000 )
               a(2) = (   2.793669   4.838777   0.000000 )
               a(3) = (   0.000000   0.000000  24.562042 )

     reciprocal axes: (cart. coord. in units 2 pi/alat)
               b(1) = (  0.178976 -0.103332  0.000000 )
               b(2) = (  0.000000  0.206664  0.000000 )
               b(3) = (  0.000000  0.000000  0.040713 )

     PseudoPot. # 1 for Pt read from file:
     /afs/slac.stanford.edu/u/if/mamunm/psp/gbrv1.5pbe/Pt.UPF
     MD5 check sum: f09d6de1a584b5a045c4fc126da2d0c4
     Pseudo is Ultrasoft + core correction, Zval = 16.0
     Generated by new atomic code, or converted to UPF format
     Using radial grid of  985 points,  6 beta functions with:
                l(1) =   0
                l(2) =   0
                l(3) =   1
                l(4) =   1
                l(5) =   2
                l(6) =   2
     Q(r) pseudized with  8 coefficients,  rinner =    1.300   1.300   1.300
                                                       1.300   1.300

     PseudoPot. # 2 for O  read from file:
     /afs/slac.stanford.edu/u/if/mamunm/psp/gbrv1.5pbe/O.UPF
     MD5 check sum: 734c27235a0248c51dbae37a1fbe46ec
     Pseudo is Ultrasoft + core correction, Zval =  6.0
     Generated by new atomic code, or converted to UPF format
     Using radial grid of  737 points,  5 beta functions with:
                l(1) =   0
                l(2) =   0
                l(3) =   1
                l(4) =   1
                l(5) =   2
     Q(r) pseudized with  8 coefficients,  rinner =    0.900   0.900   0.900
                                                       0.900   0.900

     vdW kernel table read from file vdW_kernel_table
     MD5 check sum: 095c7af220d748ca6e76c0b4c6cfb241

     atomic species   valence    mass     pseudopotential
        Pt1           16.00   195.08400     Pt( 1.00)
        O1             6.00    15.99900     O ( 1.00)

     No symmetry found

   Cartesian axes

     site n.     atom                  positions (alat units)
         1           Pt1 tau(   1) = (   1.3968345   0.8064628  10.0000000  )
         2           Pt1 tau(   2) = (   4.1905036   0.8064628  10.0000000  )
         3           Pt1 tau(   3) = (   2.7936691   3.2258512  10.0000000  )
         4           Pt1 tau(   4) = (   5.5873381   3.2258512  10.0000000  )
         5           Pt1 tau(   5) = (   5.5873381   1.6129256  12.2810212  )
         6           Pt1 tau(   6) = (   2.7936691   1.6129256  12.2810212  )
         7           Pt1 tau(   7) = (   6.9841727   4.0323140  12.2810212  )
         8           Pt1 tau(   8) = (   4.1905036   4.0323140  12.2810212  )
         9           Pt1 tau(   9) = (   8.3236731   4.8049243  14.6650624  )
        10           Pt1 tau(  10) = (   5.6446105   4.8050965  14.6651478  )
        11           Pt1 tau(  11) = (   6.9842965   2.4849632  14.6605218  )
        12           Pt1 tau(  12) = (   4.1904274   2.4180657  14.5712313  )
        13           O1  tau(  13) = (   1.3968777   0.8077639  15.8430782  )

     number of k points=    20  Fermi-Dirac smearing, width (Ry)=  0.0110
                       cart. coord. in units 2pi/alat
        k(    1) = (   0.0000000   0.0000000   0.0000000), wk =   0.0555556
        k(    2) = (   0.0000000   0.0344440   0.0000000), wk =   0.1111111
        k(    3) = (   0.0000000   0.0688879   0.0000000), wk =   0.1111111
        k(    4) = (   0.0000000  -0.1033319   0.0000000), wk =   0.0555556
        k(    5) = (   0.0298294  -0.0172220   0.0000000), wk =   0.1111111
        k(    6) = (   0.0298294   0.0172220   0.0000000), wk =   0.1111111
        k(    7) = (   0.0298294   0.0516660   0.0000000), wk =   0.1111111
        k(    8) = (   0.0298294  -0.1205539   0.0000000), wk =   0.1111111
        k(    9) = (   0.0298294  -0.0861099   0.0000000), wk =   0.1111111
        k(   10) = (   0.0298294  -0.0516660   0.0000000), wk =   0.1111111
        k(   11) = (   0.0596587  -0.0344440   0.0000000), wk =   0.1111111
        k(   12) = (   0.0596587   0.0000000   0.0000000), wk =   0.1111111
        k(   13) = (   0.0596587   0.0344440   0.0000000), wk =   0.1111111
        k(   14) = (   0.0596587  -0.1377759   0.0000000), wk =   0.1111111
        k(   15) = (   0.0596587  -0.1033319   0.0000000), wk =   0.1111111
        k(   16) = (   0.0596587  -0.0688879   0.0000000), wk =   0.1111111
        k(   17) = (  -0.0894881   0.0516660   0.0000000), wk =   0.0555556
        k(   18) = (  -0.0894881   0.0861099   0.0000000), wk =   0.1111111
        k(   19) = (  -0.0894881   0.1205539   0.0000000), wk =   0.1111111
        k(   20) = (  -0.0894881  -0.0516660   0.0000000), wk =   0.0555556

     Largest allocated arrays     est. size (Mb)     dimensions
     Largest temporary arrays     est. size (Mb)     dimensions

     Check: negative/imaginary core charge=   -0.000001    0.000000

     Initial potential from superposition of free atoms
     Check: negative starting charge=   -2.203592

     starting charge  191.99986, renormalised to  198.00000

[...]

     *
     * You are using vdW-DF for exchange-correlation in this calculation.
     * Please cite the following three references that made this development
     * possible:
     *
     *   M. Dion, H. Rydberg, E. Schroder, D. C. Langreth, and
     *   B. I. Lundqvist, Phys. Rev. Lett. 92, 246401 (2004).
     *
     *   T. Thonhauser, V. R. Cooper, S. Li, A. Puzder, P. Hyldgaard, and
     *   D. C. Langreth, Phys. Rev. B 76, 125112 (2007).
     *
     *   G. Roman-Perez and J. M. Soler, Phys. Rev. Lett. 103, 096102 (2009).
     *
     *
     * If you are using vdW-DF2, please also cite:
     *
     *   K. Lee, E. D. Murray, L. Kong, B. I. Lundqvist, and
     *   D. C. Langreth, Phys. Rev. B 82, 081101(R) (2010).
     *
     *
     * If you are calculating the stress with vdW-DF, please also cite:
     *
     *   R. Sabatini, E. Kucukbenli, B. Kolb, T. Thonhauser, and
     *   S. de Gironcoli, J. Phys.: Condens. Matter 24, 424209 (2012).
     *

     Carrying out vdW-DF run using the following parameters:

     Nqs =      20    Nr_points =    1024   r_max =   100.000
     q_mesh =
               0.00001000     0.04494208     0.09755937     0.15916263
               0.23128650     0.31572767     0.41458969     0.53033537
               0.66584808     0.82450364     1.01025438     1.22772762
               1.48234092     1.78043706     2.12944203     2.53805004
               3.01644009     3.57652955     4.23227104     5.00000000

     Gradients computed in reciprocal space

[...]

     Starting wfc are  148 randomized atomic wfcs

     Self-consistent Calculation

[...]

     total energy              =   -2580.66544170 Ry
     Harris-Foulkes estimate   =   -2580.66544617 Ry
     estimated scf accuracy    <       0.00001045 Ry

     iteration # 20     ecut=    36.75 Ry     beta=0.30
     Davidson diagonalization with overlap
     ethr =  5.28E-09,  avg # of iterations =  1.0

[...]

     negative rho (up, down):  2.120E+00 0.000E+00

     Adding external electric field

     Computed dipole along edir(3) :
        Dipole               -0.0378 Ry au,         -0.0960 Debye
        Dipole field         -0.0001 Ry au

        Potential amp.        0.0096 Ry
        Total length         45.2551 bohr

     End of self-consistent calculation

[...]

          k = 0.0597-0.0689 0.0000 ( 16875 PWs)   bands (ev):

[...]

          k =-0.0895-0.0517 0.0000 ( 16880 PWs)   bands (ev):

   -51.5826 -51.4615 -51.4046 -51.2049 -51.1929 -51.1801 -51.1368 -51.1229
   -51.1195 -51.1030 -51.0099 -51.0010 -50.9904 -50.9799 -50.9588 -50.9531
   -50.9210 -50.9140 -50.8808 -50.8776 -50.8646 -50.8173 -50.8160 -50.7515
   -50.7205 -50.7145 -50.6979 -50.6164 -50.6146 -50.6100 -50.5931 -50.4773
   -50.4116 -50.4035 -50.3975 -50.3383 -17.4700  -5.5347  -5.1506  -4.6828
    -4.2856  -4.1428  -3.8733  -3.6573  -3.5044  -3.4659  -3.4521  -3.3955
    -3.2905  -2.9481  -2.9101  -2.8823  -2.8489  -2.6158  -2.5950  -2.5749
    -2.2565  -2.2301  -2.1764  -2.1525  -2.1271  -2.0780  -1.7714  -1.6849
    -1.5644  -1.5020  -1.3408  -1.2364  -1.1423  -1.0414  -1.0394  -1.0206
    -0.9654  -0.9054  -0.8315  -0.7888  -0.7246  -0.5472  -0.4414  -0.3044
    -0.2087  -0.1760  -0.1295  -0.0045   0.0431   0.1722   0.1771   0.2817
     0.3438   0.4246   0.6982   0.7860   0.7927   0.9578   1.1379   1.1954
     1.2790   1.4948   1.5172   1.6934   1.9331   2.0841   2.2129   2.8009
     3.6777   3.8552   3.9784   4.2031   5.1100

     the Fermi energy is     1.7562 ev

!    total energy              =   -2580.66543683 Ry
     Harris-Foulkes estimate   =   -2580.66544843 Ry
     estimated scf accuracy    <       0.00000582 Ry

     The total energy is the sum of the following terms:

     one-electron contribution =  -20652.83952487 Ry
     hartree contribution      =   10365.50300237 Ry
     xc contribution           =    -710.93490051 Ry
     ewald contribution        =    8417.70684985 Ry
     electric field correction =       0.00000400 Ry
     smearing contrib. (-TS)   =      -0.10086766 Ry

     convergence has been achieved in  20 iterations

 BEEF-vdW xc energy contributions
           1 :   -632.816804582436
           2 :    588.784552935565
           3 :   -509.875128447880
           4 :    411.145100068681
           5 :   -309.018115973708
           6 :    217.119720957556
           7 :   -143.589305466297
           8 :    90.3856907279302
           9 :   -54.5262013007713
          10 :    30.5368933490082
          11 :   -13.0642932086947
          12 :   -1.32779852516558
          13 :    13.6377397365000
          14 :   -23.0661282379484
          15 :    28.2754656649435
          16 :   -28.6068437732509
          17 :    24.7118681417071
          18 :   -18.4211795048064
          19 :    12.0372913199525
          20 :   -7.46581076753387
          21 :    5.58904797664047
          22 :   -6.12405050603581
          23 :    7.95935481510094
          24 :   -9.76448052607054
          25 :    10.5709446609952
          26 :   -10.0898089258400
          27 :    8.68063125427113
          28 :   -7.05198830593997
          29 :    5.86910159418278
          30 :   -5.45783561303278
          31 :   -52.0250014797658
          32 :   -38.4525507467990

     Forces acting on atoms (Ry/au):

     negative rho (up, down):  2.120E+00 0.000E+00
     atom    1 type  1   force =     0.00000576   -0.00000188   -0.01279818
     atom    2 type  1   force =    -0.00000664   -0.00263297   -0.01940421
     atom    3 type  1   force =    -0.00226195    0.00133546   -0.01948679
     atom    4 type  1   force =     0.00226226    0.00134180   -0.01946366
     atom    5 type  1   force =     0.00208873   -0.00142302    0.00698985
     atom    6 type  1   force =    -0.00208271   -0.00142914    0.00695356
     atom    7 type  1   force =    -0.00001306    0.00011933    0.05000451
     atom    8 type  1   force =     0.00001007    0.00253858    0.00731173
     atom    9 type  1   force =    -0.00009942   -0.00007347   -0.00045319
     atom   10 type  1   force =     0.00016381   -0.00022030   -0.00049465
     atom   11 type  1   force =    -0.00009637    0.00032324    0.00012783
     atom   12 type  1   force =     0.00007579    0.00029120    0.00037818
     atom   13 type  2   force =    -0.00004625   -0.00016883    0.00033503

     Total force =     0.063175     Total SCF correction =     0.022488
     SCF correction compared to forces is large: reduce conv_thr to get better values

     entering subroutine stress ...

     negative rho (up, down):  2.120E+00 0.000E+00
          total   stress  (Ry/bohr**3)                   (kbar)     P=   -5.91
  -0.00008676   0.00000001  -0.00000002        -12.76      0.00     -0.00
   0.00000001  -0.00008676   0.00000001          0.00    -12.76      0.00
  -0.00000002   0.00000001   0.00005299         -0.00      0.00      7.79

 !ASE

     Writing output data file calc.save

     General routines

     Parallel routines

   This run was terminated on:   1:36:18  17Jan2018

   JOB DONE.
Job  /afs/slac/g/suncat/bin/suncat-tsmpirun -x LD_LIBRARY_PATH -wdir /scratch/qe842471_l69Tc pw.x -in pw.inp

TID   HOST_NAME   COMMAND_LINE            STATUS            TERMINATION_TIME
00000 suncat0264 pw.x -in pw.inp   Done                     01/17/2018 01:36:18
00001 suncat0264 pw.x -in pw.inp   Done                     01/17/2018 01:36:18
00002 suncat0264 pw.x -in pw.inp   Done                     01/17/2018 01:36:18
00003 suncat0264 pw.x -in pw.inp   Done                     01/17/2018 01:36:18
00004 suncat0264 pw.x -in pw.inp   Done                     01/17/2018 01:36:18
00005 suncat0264 pw.x -in pw.inp   Done                     01/17/2018 01:36:18
00006 suncat0264 pw.x -in pw.inp   Done                     01/17/2018 01:36:18
00007 suncat0264 pw.x -in pw.inp   Done                     01/17/2018 01:36:18
00008 suncat0259 pw.x -in pw.inp   Done                     01/17/2018 01:36:18
00009 suncat0259 pw.x -in pw.inp   Done                     01/17/2018 01:36:18
00010 suncat0259 pw.x -in pw.inp   Done                     01/17/2018 01:36:18
00011 suncat0259 pw.x -in pw.inp   Done                     01/17/2018 01:36:18
00012 suncat0259 pw.x -in pw.inp   Done                     01/17/2018 01:36:18
00013 suncat0259 pw.x -in pw.inp   Done                     01/17/2018 01:36:18
00014 suncat0259 pw.x -in pw.inp   Done                     01/17/2018 01:36:18
00015 suncat0259 pw.x -in pw.inp   Done                     01/17/2018 01:36:18
00016 suncat0258 pw.x -in pw.inp   Done                     01/17/2018 01:36:18
00017 suncat0258 pw.x -in pw.inp   Done                     01/17/2018 01:36:18
00018 suncat0258 pw.x -in pw.inp   Done                     01/17/2018 01:36:18
00019 suncat0258 pw.x -in pw.inp   Done                     01/17/2018 01:36:18
00020 suncat0258 pw.x -in pw.inp   Done                     01/17/2018 01:36:18
00021 suncat0258 pw.x -in pw.inp   Done                     01/17/2018 01:36:18
00022 suncat0258 pw.x -in pw.inp   Done                     01/17/2018 01:36:18
00023 suncat0258 pw.x -in pw.inp   Done                     01/17/2018 01:36:18
00024 suncat0256 pw.x -in pw.inp   Done                     01/17/2018 01:36:18
00025 suncat0256 pw.x -in pw.inp   Done                     01/17/2018 01:36:18
00026 suncat0256 pw.x -in pw.inp   Done                     01/17/2018 01:36:18
00027 suncat0256 pw.x -in pw.inp   Done                     01/17/2018 01:36:18
00028 suncat0256 pw.x -in pw.inp   Done                     01/17/2018 01:36:18
00029 suncat0256 pw.x -in pw.inp   Done                     01/17/2018 01:36:18
00030 suncat0256 pw.x -in pw.inp   Done                     01/17/2018 01:36:18
00031 suncat0256 pw.x -in pw.inp   Done                     01/17/2018 01:36:18