     Program PWSCF v.5.1rc2 (svn rev. 11289) starts on 16Jan2018 at 13:58:30

     Current dimensions of program PWSCF are:
     Max number of different atomic species (ntypx) = 10
     Max number of k-points (npk) =  40000
     Max angular momentum in pseudopotentials (lmaxx) =  3
     Presently stress not available with electric field

     IMPORTANT: XC functional enforced from input :
     Exchange-correlation      = BEEF-VDW ( 1  4 27 13 2)
     Any further DFT definition will be discarded
     Please, verify this is what you really want

     Subspace diagonalization in iterative solution of the eigenvalue problem:
     a serial algorithm will be used

     bravais-lattice index     =            0
     lattice parameter (alat)  =       1.8897  a.u.
     unit-cell volume          =    4806.0858 (a.u.)^3
     number of atoms/cell      =           13
     number of atomic types    =            2
     number of electrons       =       145.00
     number of Kohn-Sham states=           82
     kinetic-energy cutoff     =      36.7493  Ry
     charge density cutoff     =     367.4932  Ry
     convergence threshold     =      1.0E-05
     mixing beta               =       0.3000
     number of iterations used =           10  plain     mixing
     Exchange-correlation      = BEEF-VDW ( 1  4 27 13 2)
     nstep                     =           50

     celldm(1)=   1.889726  celldm(2)=   0.000000  celldm(3)=   0.000000
     celldm(4)=   0.000000  celldm(5)=   0.000000  celldm(6)=   0.000000

     crystal axes: (cart. coord. in units of alat)
               a(1) = (   5.768903   0.000000   0.000000 )
               a(2) = (   2.884451   4.996016   0.000000 )
               a(3) = (   0.000000   0.000000  24.710289 )

     reciprocal axes: (cart. coord. in units 2 pi/alat)
               b(1) = (  0.173343 -0.100080  0.000000 )
               b(2) = (  0.000000  0.200159  0.000000 )
               b(3) = (  0.000000  0.000000  0.040469 )

     PseudoPot. # 1 for Ti read from file:
     /afs/slac.stanford.edu/u/if/mamunm/psp/gbrv1.5pbe/Ti.UPF
     MD5 check sum: 88a00a6731bd790ddea75d31a80cb452
     Pseudo is Ultrasoft + core correction, Zval = 12.0
     Generated by new atomic code, or converted to UPF format
     Using radial grid of  851 points,  6 beta functions with:
                l(1) =   0
                l(2) =   0
                l(3) =   1
                l(4) =   1
                l(5) =   2
                l(6) =   2
     Q(r) pseudized with  6 coefficients,  rinner =    1.000   1.000   1.000
                                                       1.000   1.000

     PseudoPot. # 2 for H  read from file:
     /afs/slac.stanford.edu/u/if/mamunm/psp/gbrv1.5pbe/H.UPF
     MD5 check sum: 761ae9a214b05c3daf00ab9f6b793d6f
     Pseudo is Ultrasoft, Zval =  1.0
     Generated by new atomic code, or converted to UPF format
     Using radial grid of  615 points,  2 beta functions with:
                l(1) =   0
                l(2) =   0
     Q(r) pseudized with  8 coefficients,  rinner =    0.700

     vdW kernel table read from file vdW_kernel_table
     MD5 check sum: 095c7af220d748ca6e76c0b4c6cfb241

     atomic species   valence    mass     pseudopotential
        Ti1           12.00    47.86700     Ti( 1.00)
        H1             1.00     1.00800     H ( 1.00)

     No symmetry found

   Cartesian axes

     site n.     atom                  positions (alat units)
         1           Ti1 tau(   1) = (   1.4422257   0.8326694  10.0000000  )
         2           Ti1 tau(   2) = (   4.3266771   0.8326694  10.0000000  )
         3           Ti1 tau(   3) = (   2.8844514   3.3306776  10.0000000  )
         4           Ti1 tau(   4) = (   5.7689029   3.3306776  10.0000000  )
         5           Ti1 tau(   5) = (   5.7689029   1.6653388  12.3551447  )
         6           Ti1 tau(   6) = (   2.8844514   1.6653388  12.3551447  )
         7           Ti1 tau(   7) = (   7.2111286   4.1633470  12.3551447  )
         8           Ti1 tau(   8) = (   4.3266771   4.1633470  12.3551447  )
         9           Ti1 tau(   9) = (   0.0000000   0.0000000  14.7102895  )
        10           Ti1 tau(  10) = (   2.8844514   0.0000000  14.7102895  )
        11           Ti1 tau(  11) = (   1.4422257   2.4980082  14.7102895  )
        12           Ti1 tau(  12) = (   4.3266771   2.4980082  14.7102895  )
        13           H1  tau(  13) = (   0.0000000   0.0000000  16.6202895  )

     number of k points=    20  Fermi-Dirac smearing, width (Ry)=  0.0110
                       cart. coord. in units 2pi/alat
        k(    1) = (   0.0000000   0.0000000   0.0000000), wk =   0.0555556
        k(    2) = (   0.0000000   0.0333599   0.0000000), wk =   0.1111111
        k(    3) = (   0.0000000   0.0667198   0.0000000), wk =   0.1111111
        k(    4) = (   0.0000000  -0.1000797   0.0000000), wk =   0.0555556
        k(    5) = (   0.0288905  -0.0166800   0.0000000), wk =   0.1111111
        k(    6) = (   0.0288905   0.0166800   0.0000000), wk =   0.1111111
        k(    7) = (   0.0288905   0.0500399   0.0000000), wk =   0.1111111
        k(    8) = (   0.0288905  -0.1167597   0.0000000), wk =   0.1111111
        k(    9) = (   0.0288905  -0.0833998   0.0000000), wk =   0.1111111
        k(   10) = (   0.0288905  -0.0500399   0.0000000), wk =   0.1111111
        k(   11) = (   0.0577811  -0.0333599   0.0000000), wk =   0.1111111
        k(   12) = (   0.0577811  -0.0000000   0.0000000), wk =   0.1111111
        k(   13) = (   0.0577811   0.0333599   0.0000000), wk =   0.1111111
        k(   14) = (   0.0577811  -0.1334396   0.0000000), wk =   0.1111111
        k(   15) = (   0.0577811  -0.1000797   0.0000000), wk =   0.1111111
        k(   16) = (   0.0577811  -0.0667198   0.0000000), wk =   0.1111111
        k(   17) = (  -0.0866716   0.0500399   0.0000000), wk =   0.0555556
        k(   18) = (  -0.0866716   0.0833998   0.0000000), wk =   0.1111111
        k(   19) = (  -0.0866716   0.1167597   0.0000000), wk =   0.1111111
        k(   20) = (  -0.0866716  -0.0500399   0.0000000), wk =   0.0555556

     Largest allocated arrays     est. size (Mb)     dimensions
     Largest temporary arrays     est. size (Mb)     dimensions

     Check: negative/imaginary core charge=   -0.000006    0.000000

     Initial potential from superposition of free atoms
     Check: negative starting charge=   -0.012749

     starting charge  132.99946, renormalised to  145.00000

     negative rho (up, down):  1.390E-02 0.000E+00

     *
     * You are using vdW-DF for exchange-correlation in this calculation.
     * Please cite the following three references that made this development
     * possible:
     *
     *   M. Dion, H. Rydberg, E. Schroder, D. C. Langreth, and
     *   B. I. Lundqvist, Phys. Rev. Lett. 92, 246401 (2004).
     *
     *   T. Thonhauser, V. R. Cooper, S. Li, A. Puzder, P. Hyldgaard, and
     *   D. C. Langreth, Phys. Rev. B 76, 125112 (2007).
     *
     *   G. Roman-Perez and J. M. Soler, Phys. Rev. Lett. 103, 096102 (2009).
     *
     *
     * If you are using vdW-DF2, please also cite:
     *
     *   K. Lee, E. D. Murray, L. Kong, B. I. Lundqvist, and
     *   D. C. Langreth, Phys. Rev. B 82, 081101(R) (2010).
     *
     *
     * If you are calculating the stress with vdW-DF, please also cite:
     *
     *   R. Sabatini, E. Kucukbenli, B. Kolb, T. Thonhauser, and
     *   S. de Gironcoli, J. Phys.: Condens. Matter 24, 424209 (2012).
     *

     Carrying out vdW-DF run using the following parameters:

     Nqs =      20    Nr_points =    1024   r_max =   100.000
     q_mesh =
               0.00001000     0.04494208     0.09755937     0.15916263
               0.23128650     0.31572767     0.41458969     0.53033537
               0.66584808     0.82450364     1.01025438     1.22772762
               1.48234092     1.78043706     2.12944203     2.53805004
               3.01644009     3.57652955     4.23227104     5.00000000

     Gradients computed in reciprocal space

     Adding external electric field

     Computed dipole along edir(3) :
        Dipole               -0.7272 Ry au,         -1.8483 Debye
        Dipole field         -0.0019 Ry au

        Potential amp.        0.1731 Ry
        Total length         45.5283 bohr

     Starting wfc are  121 randomized atomic wfcs

     Self-consistent Calculation

     iteration #  1     ecut=    36.75 Ry     beta=0.30
     Davidson diagonalization with overlap
     ethr =  1.00E-02,  avg # of iterations =  6.0

[...]

     total energy              =   -1429.45903808 Ry
     Harris-Foulkes estimate   =   -1442.01939873 Ry
     estimated scf accuracy    <      26.72293227 Ry

[...]

     iteration # 16     ecut=    36.75 Ry     beta=0.30
     Davidson diagonalization with overlap
     c_bands:  1 eigenvalues not converged
     ethr =  3.02E-06,  avg # of iterations = 11.3

[...]

     End of self-consistent calculation

          k = 0.0000 0.0000 0.0000 ( 18103 PWs)   bands (ev):

   -56.5164 -56.4692 -56.4415 -56.4413 -56.3797 -56.3764 -56.3757 -56.2898
   -56.2531 -56.2091 -56.2080 -56.2027 -32.9612 -32.9611 -32.9564 -32.9235
   -32.9110 -32.9106 -32.9079 -32.8586 -32.8585 -32.8309 -32.7563 -32.6981
   -32.6979 -32.6071 -32.5761 -32.5756 -32.5755 -32.5048 -32.5046 -32.4983
   -32.4868 -32.4866 -32.4651 -32.4048 -32.4041 -32.3870 -32.3764 -32.3761
   -32.3695 -32.3695 -32.3118 -32.3113 -32.3112 -32.3031 -32.1959 -32.1958
    -4.9756  -3.7217  -2.4870  -1.9015  -1.7935  -1.7913  -1.7911  -1.6632
    -1.6632  -1.4589  -1.2464  -1.2463  -1.1593  -1.0091  -1.0090  -0.9814
    -0.3802  -0.3493  -0.3492   0.4447   0.7215   0.7510   0.7511   0.8331
     1.0368   1.0764   1.0768   1.0769   1.3087   1.3087   1.4929   1.4935
     1.5060   1.5061

[...]

          k =-0.0867 0.0500 0.0000 ( 18044 PWs)   bands (ev):

[...]

     the Fermi energy is     0.5363 ev

!    total energy              =   -1439.69543710 Ry
     Harris-Foulkes estimate   =   -1439.69543610 Ry
     estimated scf accuracy    <       0.00000959 Ry

     The total energy is the sum of the following terms:

     one-electron contribution =  -10888.23502919 Ry
     hartree contribution      =    5428.54268722 Ry
     xc contribution           =    -225.53248326 Ry
     ewald contribution        =    4245.66171420 Ry
     electric field correction =       0.00008726 Ry
     smearing contrib. (-TS)   =      -0.13241332 Ry

     convergence has been achieved in  25 iterations

 BEEF-vdW xc energy contributions
           1 :   -193.866742105730
           2 :    173.213905523177
           3 :   -139.347052365363
           4 :    103.072761977719
           5 :   -73.2704759795055
           6 :    53.4336883404481
           7 :   -41.6525672292986
           8 :    33.3403294740420
           9 :   -24.6019068546672
          10 :    14.2053334834234
          11 :   -3.41410647219124
          12 :   -5.65979636467452
          13 :    11.7909933031179
          14 :   -15.3457721744288
          15 :    17.7064717584368
          16 :   -20.0640777716019
          17 :    22.5450001784389
          18 :   -24.2697435406229
          19 :    24.1797030174225
[...]
00031 suncat0205 pw.x -in pw.inp   Done                     01/16/2018 14:13:33

[...]

   This run was terminated on:  15: 3:18  16Jan2018

[...]

     Program PWSCF v.5.1rc2 (svn rev. 11289) starts on 16Jan2018 at 15: 3:24

[...]

   This run was terminated on:  15:19: 2  16Jan2018

[...]

     Program PWSCF v.5.1rc2 (svn rev. 11289) starts on 16Jan2018 at 15:19: 8

[...]

     Program PWSCF v.5.1rc2 (svn rev. 11289) starts on 16Jan2018 at 15:34:36

[...]

     Program PWSCF v.5.1rc2 (svn rev. 11289) starts on 16Jan2018 at 15:51: 2

[...]

   This run was terminated on:  16: 5:37  16Jan2018

[...]

     Program PWSCF v.5.1rc2 (svn rev. 11289) starts on 16Jan2018 at 16: 5:44

     Current dimensions of program PWSCF are:
     Max number of different atomic species (ntypx) = 10
     Max number of k-points (npk) =  40000
     Max angular momentum in pseudopotentials (lmaxx) =  3
     Presently stress not available with electric field

     IMPORTANT: XC functional enforced from input :
     Exchange-correlation      = BEEF-VDW ( 1  4 27 13 2)
     Any further DFT definition will be discarded
     Please, verify this is what you really want

     Subspace diagonalization in iterative solution of the eigenvalue problem:
     a serial algorithm will be used

     bravais-lattice index     =            0
     lattice parameter (alat)  =       1.8897  a.u.
     unit-cell volume          =    4806.0858 (a.u.)^3
     number of atoms/cell      =           13
     number of atomic types    =            2
     number of electrons       =       145.00
     number of Kohn-Sham states=           82
     kinetic-energy cutoff     =      36.7493  Ry
     charge density cutoff     =     367.4932  Ry
     convergence threshold     =      1.0E-05
     mixing beta               =       0.3000
     number of iterations used =           10  plain     mixing
     Exchange-correlation      = BEEF-VDW ( 1  4 27 13 2)
     nstep                     =           50

     celldm(1)=   1.889726  celldm(2)=   0.000000  celldm(3)=   0.000000
     celldm(4)=   0.000000  celldm(5)=   0.000000  celldm(6)=   0.000000

     crystal axes: (cart. coord. in units of alat)
               a(1) = (   5.768903   0.000000   0.000000 )
               a(2) = (   2.884451   4.996016   0.000000 )
               a(3) = (   0.000000   0.000000  24.710289 )

     reciprocal axes: (cart. coord. in units 2 pi/alat)
               b(1) = (  0.173343 -0.100080  0.000000 )
               b(2) = (  0.000000  0.200159  0.000000 )
               b(3) = (  0.000000  0.000000  0.040469 )

     PseudoPot. # 1 for Ti read from file:
     /afs/slac.stanford.edu/u/if/mamunm/psp/gbrv1.5pbe/Ti.UPF
     MD5 check sum: 88a00a6731bd790ddea75d31a80cb452
     Pseudo is Ultrasoft + core correction, Zval = 12.0
     Generated by new atomic code, or converted to UPF format
     Using radial grid of  851 points,  6 beta functions with:
                l(1) =   0
                l(2) =   0
                l(3) =   1
                l(4) =   1
                l(5) =   2
                l(6) =   2
     Q(r) pseudized with  6 coefficients,  rinner =    1.000   1.000   1.000
                                                       1.000   1.000

     PseudoPot. # 2 for H  read from file:
     /afs/slac.stanford.edu/u/if/mamunm/psp/gbrv1.5pbe/H.UPF
     MD5 check sum: 761ae9a214b05c3daf00ab9f6b793d6f
     Pseudo is Ultrasoft, Zval =  1.0
     Generated by new atomic code, or converted to UPF format
     Using radial grid of  615 points,  2 beta functions with:
                l(1) =   0
                l(2) =   0
     Q(r) pseudized with  8 coefficients,  rinner =    0.700

     vdW kernel table read from file vdW_kernel_table
     MD5 check sum: 095c7af220d748ca6e76c0b4c6cfb241

     atomic species   valence    mass     pseudopotential
        Ti1           12.00    47.86700     Ti( 1.00)
        H1             1.00     1.00800     H ( 1.00)

     No symmetry found

   Cartesian axes

     site n.     atom                  positions (alat units)
         1           Ti1 tau(   1) = (   1.4422257   0.8326694  10.0000000  )
         2           Ti1 tau(   2) = (   4.3266771   0.8326694  10.0000000  )
         3           Ti1 tau(   3) = (   2.8844514   3.3306776  10.0000000  )
         4           Ti1 tau(   4) = (   5.7689029   3.3306776  10.0000000  )
         5           Ti1 tau(   5) = (   5.7689029   1.6653388  12.3551447  )
         6           Ti1 tau(   6) = (   2.8844514   1.6653388  12.3551447  )
         7           Ti1 tau(   7) = (   7.2111286   4.1633470  12.3551447  )
         8           Ti1 tau(   8) = (   4.3266771   4.1633470  12.3551447  )
         9           Ti1 tau(   9) = (   0.0001145   0.0001214  14.6613947  )
        10           Ti1 tau(  10) = (   2.8844209   0.0115502  14.6677795  )
        11           Ti1 tau(  11) = (   1.4522463   2.4921357  14.6678258  )
        12           Ti1 tau(  12) = (   4.3168050   2.4922472  14.6677050  )
        13           H1  tau(  13) = (   8.6532309   4.9959440  16.4661121  )

     number of k points=    20  Fermi-Dirac smearing, width (Ry)=  0.0110
                       cart. coord. in units 2pi/alat
        k(    1) = (   0.0000000   0.0000000   0.0000000), wk =   0.0555556
        k(    2) = (   0.0000000   0.0333599   0.0000000), wk =   0.1111111
        k(    3) = (   0.0000000   0.0667198   0.0000000), wk =   0.1111111
        k(    4) = (   0.0000000  -0.1000797   0.0000000), wk =   0.0555556
        k(    5) = (   0.0288905  -0.0166800   0.0000000), wk =   0.1111111
        k(    6) = (   0.0288905   0.0166800   0.0000000), wk =   0.1111111
        k(    7) = (   0.0288905   0.0500399   0.0000000), wk =   0.1111111
        k(    8) = (   0.0288905  -0.1167597   0.0000000), wk =   0.1111111
        k(    9) = (   0.0288905  -0.0833998   0.0000000), wk =   0.1111111
        k(   10) = (   0.0288905  -0.0500399   0.0000000), wk =   0.1111111
        k(   11) = (   0.0577811  -0.0333599   0.0000000), wk =   0.1111111
        k(   12) = (   0.0577811  -0.0000000   0.0000000), wk =   0.1111111
        k(   13) = (   0.0577811   0.0333599   0.0000000), wk =   0.1111111
        k(   14) = (   0.0577811  -0.1334396   0.0000000), wk =   0.1111111
        k(   15) = (   0.0577811  -0.1000797   0.0000000), wk =   0.1111111
        k(   16) = (   0.0577811  -0.0667198   0.0000000), wk =   0.1111111
        k(   17) = (  -0.0866716   0.0500399   0.0000000), wk =   0.0555556
        k(   18) = (  -0.0866716   0.0833998   0.0000000), wk =   0.1111111
        k(   19) = (  -0.0866716   0.1167597   0.0000000), wk =   0.1111111
        k(   20) = (  -0.0866716  -0.0500399   0.0000000), wk =   0.0555556

     Largest allocated arrays     est. size (Mb)     dimensions
     Largest temporary arrays     est. size (Mb)     dimensions

     Check: negative/imaginary core charge=   -0.000006    0.000000

     Initial potential from superposition of free atoms
     Check: negative starting charge=   -0.012937

     starting charge  132.99946, renormalised to  145.00000

[...]

     *
     * You are using vdW-DF for exchange-correlation in this calculation.
     * Please cite the following three references that made this development
     * possible:
     *
     *   M. Dion, H. Rydberg, E. Schroder, D. C. Langreth, and
     *   B. I. Lundqvist, Phys. Rev. Lett. 92, 246401 (2004).
     *
     *   T. Thonhauser, V. R. Cooper, S. Li, A. Puzder, P. Hyldgaard, and
     *   D. C. Langreth, Phys. Rev. B 76, 125112 (2007).
     *
     *   G. Roman-Perez and J. M. Soler, Phys. Rev. Lett. 103, 096102 (2009).
     *
     *
     * If you are using vdW-DF2, please also cite:
     *
     *   K. Lee, E. D. Murray, L. Kong, B. I. Lundqvist, and
     *   D. C. Langreth, Phys. Rev. B 82, 081101(R) (2010).
     *
     *
     * If you are calculating the stress with vdW-DF, please also cite:
     *
     *   R. Sabatini, E. Kucukbenli, B. Kolb, T. Thonhauser, and
     *   S. de Gironcoli, J. Phys.: Condens. Matter 24, 424209 (2012).
     *

     Carrying out vdW-DF run using the following parameters:

     Nqs =      20    Nr_points =    1024   r_max =   100.000
     q_mesh =
               0.00001000     0.04494208     0.09755937     0.15916263
               0.23128650     0.31572767     0.41458969     0.53033537
               0.66584808     0.82450364     1.01025438     1.22772762
               1.48234092     1.78043706     2.12944203     2.53805004
               3.01644009     3.57652955     4.23227104     5.00000000

     Gradients computed in reciprocal space

[...]

     Starting wfc are  121 randomized atomic wfcs

     Self-consistent Calculation

[...]

     iteration # 25     ecut=    36.75 Ry     beta=0.30
     Davidson diagonalization with overlap
     c_bands:  1 eigenvalues not converged
     ethr =  1.53E-07,  avg # of iterations =  1.9

[...]

     total energy              =   -1439.69896480 Ry
     Harris-Foulkes estimate   =   -1439.69896645 Ry
     estimated scf accuracy    <       0.00002063 Ry

     iteration # 30     ecut=    36.75 Ry     beta=0.30
     Davidson diagonalization with overlap
     ethr =  9.65E-09,  avg # of iterations =  1.2

[...]

     negative rho (up, down):  7.993E-03 0.000E+00

     Adding external electric field

     Computed dipole along edir(3) :
        Dipole               -0.1336 Ry au,         -0.3395 Debye
        Dipole field         -0.0003 Ry au

        Potential amp.        0.0318 Ry
        Total length         45.5283 bohr

     End of self-consistent calculation

[...]

          k = 0.0578-0.0667 0.0000 ( 18031 PWs)   bands (ev):

[...]

          k =-0.0867-0.0500 0.0000 ( 18044 PWs)   bands (ev):

   -56.4382 -56.4165 -56.3913 -56.3857 -56.3814 -56.3390 -56.3354 -56.2049
   -56.1870 -56.1657 -56.1522 -56.1428 -32.8282 -32.8257 -32.8098 -32.8031
   -32.7732 -32.7724 -32.7540 -32.7304 -32.7158 -32.6889 -32.6796 -32.6544
   -32.6179 -32.6152 -32.6123 -32.5954 -32.5872 -32.5695 -32.5314 -32.4959
   -32.4646 -32.4216 -32.4133 -32.3985 -32.3928 -32.3783 -32.3762 -32.3564
   -32.3510 -32.3409 -32.3156 -32.3102 -32.3039 -32.2190 -32.2019 -32.1881
    -3.4491  -3.3478  -2.5460  -2.2015  -1.7007  -1.3726  -1.3497  -1.1248
    -1.1045  -1.1015  -0.9973  -0.3777  -0.3767  -0.3648  -0.3511  -0.2370
    -0.2048   0.1083   0.1114   0.1291   0.1355   0.1641   0.2648   0.3809
     0.4045   0.4201   0.5489   0.5643   0.5763   0.6571   0.8052   0.8676
     1.0123   1.1887

     the Fermi energy is     0.5731 ev

!    total energy              =   -1439.69896067 Ry
     Harris-Foulkes estimate   =   -1439.69896869 Ry
     estimated scf accuracy    <       0.00000498 Ry

     The total energy is the sum of the following terms:

     one-electron contribution =  -10961.19650604 Ry
     hartree contribution      =    5465.16900271 Ry
     xc contribution           =    -225.62114010 Ry
     ewald contribution        =    4282.08065738 Ry
     electric field correction =       0.00004664 Ry
     smearing contrib. (-TS)   =      -0.13102126 Ry

     convergence has been achieved in  30 iterations

 BEEF-vdW xc energy contributions
           1 :   -193.955242188624
           2 :    173.325267783414
           3 :   -139.474203332533
           4 :    103.179005093256
           5 :   -73.3190495689868
           6 :    53.4188756478787
           7 :   -41.6070682106464
           8 :    33.3134990344882
           9 :   -24.6260890271833
          10 :    14.2740747683852
          11 :   -3.48766619204741
          12 :   -5.62545562888300
          13 :    11.8120355026638
          14 :   -15.3986955836151
          15 :    17.7465567763562
          16 :   -20.0603527714906
          17 :    22.5032831600324
          18 :   -24.2259690301694
          19 :    24.1693899513086
          20 :   -21.9568718363952
          21 :    18.1950309512603
          22 :   -14.0256196437974
          23 :    10.3391389906022
          24 :   -7.26822858223647
          25 :    4.29228548839771
          26 :  -0.804952640876110
          27 :   -3.32386428963480
          28 :    7.59691751943143
          29 :   -11.2201542858268
          30 :    13.6280121905063
          31 :   -20.5824640348855
          32 :   -14.6546227642152

     Forces acting on atoms (Ry/au):

     negative rho (up, down):  7.993E-03 0.000E+00
     atom    1 type  1   force =    -0.00063652   -0.00037465    0.00902257
     atom    2 type  1   force =     0.00063818   -0.00037204    0.00903305
     atom    3 type  1   force =     0.00000494    0.00074407    0.00903498
     atom    4 type  1   force =    -0.00000507    0.00000568    0.01075236
     atom    5 type  1   force =    -0.00000089    0.00736873   -0.01127664
     atom    6 type  1   force =     0.00000601   -0.00002203   -0.00499626
     atom    7 type  1   force =    -0.00640080   -0.00367477   -0.01123798
     atom    8 type  1   force =     0.00639989   -0.00367212   -0.01125366
     atom    9 type  1   force =     0.00000694   -0.00001552   -0.00103888
     atom   10 type  1   force =     0.00000504    0.00034801    0.00049364
     atom   11 type  1   force =     0.00031117   -0.00016210    0.00045809
     atom   12 type  1   force =    -0.00031611   -0.00016680    0.00047286
     atom   13 type  2   force =    -0.00001279   -0.00000647    0.00053588

     Total force =     0.030538     Total SCF correction =     0.008582
     SCF correction compared to forces is large: reduce conv_thr to get better values

     entering subroutine stress ...

     negative rho (up, down):  7.993E-03 0.000E+00
          total   stress  (Ry/bohr**3)                   (kbar)     P=   -4.07
  -0.00002088  -0.00000001  -0.00000001         -3.07     -0.00     -0.00
  -0.00000001  -0.00002088  -0.00000001         -0.00     -3.07     -0.00
  -0.00000001  -0.00000001  -0.00004134         -0.00     -0.00     -6.08

 !ASE

     Writing output data file calc.save

     General routines

     Parallel routines

   This run was terminated on:  16:22:46  16Jan2018

   JOB DONE.
Job  /afs/slac/g/suncat/bin/suncat-tsmpirun -x LD_LIBRARY_PATH -wdir /scratch/qe842487_cXSPn pw.x -in pw.inp

TID   HOST_NAME   COMMAND_LINE            STATUS            TERMINATION_TIME
00000 suncat0267 pw.x -in pw.inp   Done                     01/16/2018 16:22:46
00001 suncat0267 pw.x -in pw.inp   Done                     01/16/2018 16:22:46
00002 suncat0267 pw.x -in pw.inp   Done                     01/16/2018 16:22:46
00003 suncat0267 pw.x -in pw.inp   Done                     01/16/2018 16:22:46
00004 suncat0267 pw.x -in pw.inp   Done                     01/16/2018 16:22:46
00005 suncat0267 pw.x -in pw.inp   Done                     01/16/2018 16:22:46
00006 suncat0267 pw.x -in pw.inp   Done                     01/16/2018 16:22:46
00007 suncat0267 pw.x -in pw.inp   Done                     01/16/2018 16:22:46
00008 suncat0220 pw.x -in pw.inp   Done                     01/16/2018 16:22:46
00009 suncat0220 pw.x -in pw.inp   Done                     01/16/2018 16:22:46
00010 suncat0220 pw.x -in pw.inp   Done                     01/16/2018 16:22:46
00011 suncat0220 pw.x -in pw.inp   Done                     01/16/2018 16:22:46
00012 suncat0220 pw.x -in pw.inp   Done                     01/16/2018 16:22:46
00013 suncat0220 pw.x -in pw.inp   Done                     01/16/2018 16:22:46
00014 suncat0220 pw.x -in pw.inp   Done                     01/16/2018 16:22:46
00015 suncat0220 pw.x -in pw.inp   Done                     01/16/2018 16:22:46
00016 suncat0209 pw.x -in pw.inp   Done                     01/16/2018 16:22:46
00017 suncat0209 pw.x -in pw.inp   Done                     01/16/2018 16:22:46
00018 suncat0209 pw.x -in pw.inp   Done                     01/16/2018 16:22:46
00019 suncat0209 pw.x -in pw.inp   Done                     01/16/2018 16:22:46
00020 suncat0209 pw.x -in pw.inp   Done                     01/16/2018 16:22:46
00021 suncat0209 pw.x -in pw.inp   Done                     01/16/2018 16:22:46
00022 suncat0209 pw.x -in pw.inp   Done                     01/16/2018 16:22:46
00023 suncat0209 pw.x -in pw.inp   Done                     01/16/2018 16:22:46
00024 suncat0205 pw.x -in pw.inp   Done                     01/16/2018 16:22:46
00025 suncat0205 pw.x -in pw.inp   Done                     01/16/2018 16:22:46
00026 suncat0205 pw.x -in pw.inp   Done                     01/16/2018 16:22:46
00027 suncat0205 pw.x -in pw.inp   Done                     01/16/2018 16:22:46
00028 suncat0205 pw.x -in pw.inp   Done                     01/16/2018 16:22:46
00029 suncat0205 pw.x -in pw.inp   Done                     01/16/2018 16:22:46
00030 suncat0205 pw.x -in pw.inp   Done                     01/16/2018 16:22:46
00031 suncat0205 pw.x -in pw.inp   Done                     01/16/2018 16:22:46