     Program PWSCF v.5.1rc2 (svn rev. 11289) starts on 20Jan2018 at  0:51:46

     Current dimensions of program PWSCF are:
     Max number of different atomic species (ntypx) = 10
     Max number of k-points (npk) =  40000
     Max angular momentum in pseudopotentials (lmaxx) =  3
     Presently stress not available with electric field

     IMPORTANT: XC functional enforced from input :
     Exchange-correlation      = BEEF-VDW ( 1  4 27 13 2)
     Any further DFT definition will be discarded
     Please, verify this is what you really want

     Subspace diagonalization in iterative solution of the eigenvalue problem:
     a serial algorithm will be used

     bravais-lattice index     =            0
     lattice parameter (alat)  =       1.8897  a.u.
     unit-cell volume          =    4204.8134 (a.u.)^3
     number of atoms/cell      =           13
     number of atomic types    =            2
     number of electrons       =       186.00
     number of Kohn-Sham states=          103
     kinetic-energy cutoff     =      36.7493  Ry
     charge density cutoff     =     367.4932  Ry
     convergence threshold     =      1.0E-05
     mixing beta               =       0.3000
     number of iterations used =           10  plain     mixing
     Exchange-correlation      = BEEF-VDW ( 1  4 27 13 2)
     nstep                     =           50

     celldm(1)=   1.889726  celldm(2)=   0.000000  celldm(3)=   0.000000
     celldm(4)=   0.000000  celldm(5)=   0.000000  celldm(6)=   0.000000

     crystal axes: (cart. coord. in units of alat)
               a(1) = (   5.426750   0.000000   0.000000 )
               a(2) = (   2.713375   4.699703   0.000000 )
               a(3) = (   0.000000   0.000000  24.430923 )

     reciprocal axes: (cart. coord. in units 2 pi/alat)
               b(1) = (  0.184272 -0.106390  0.000000 )
               b(2) = (  0.000000  0.212779  0.000000 )
               b(3) = (  0.000000  0.000000  0.040932 )

     PseudoPot. # 1 for Rh read from file:
     /afs/slac.stanford.edu/u/if/mamunm/psp/gbrv1.5pbe/Rh.UPF
     MD5 check sum: 761627e959a2e3a1f56b0b5fe687810e
     Pseudo is Ultrasoft + core correction, Zval = 15.0
     Generated by new atomic code, or converted to UPF format
     Using radial grid of  969 points,  7 beta functions with:
                l(1) =   0
                l(2) =   0
                l(3) =   1
                l(4) =   1
                l(5) =   2
                l(6) =   2
                l(7) =   2
     Q(r) pseudized with  8 coefficients,  rinner =    1.200   1.200   1.200
                                                       1.200   1.200

     PseudoPot. # 2 for S  read from file:
     /afs/slac.stanford.edu/u/if/mamunm/psp/gbrv1.5pbe/S.UPF
     MD5 check sum: 88d86576ff6df21479756cfb9bdac1df
     Pseudo is Ultrasoft + core correction, Zval =  6.0
     Generated by new atomic code, or converted to UPF format
     Using radial grid of  907 points,  6 beta functions with:
                l(1) =   0
                l(2) =   0
                l(3) =   1
                l(4) =   1
                l(5) =   2
                l(6) =   2
     Q(r) pseudized with  8 coefficients,  rinner =    1.300   1.300   1.300
                                                       1.300   1.300

     vdW kernel table read from file vdW_kernel_table
     MD5 check sum: 095c7af220d748ca6e76c0b4c6cfb241

     atomic species   valence    mass     pseudopotential
        Rh1           15.00   102.90550     Rh( 1.00)
        S1             6.00    32.06000     S ( 1.00)

     No symmetry found

   Cartesian axes

     site n.     atom                  positions (alat units)
         1           Rh1 tau(   1) = (   1.3566875   0.7832839  10.0000000  )
         2           Rh1 tau(   2) = (   4.0700625   0.7832839  10.0000000  )
         3           Rh1 tau(   3) = (   2.7133750   3.1331356  10.0000000  )
         4           Rh1 tau(   4) = (   5.4267500   3.1331356  10.0000000  )
         5           Rh1 tau(   5) = (   5.4267500   1.5665678  12.2154614  )
         6           Rh1 tau(   6) = (   2.7133750   1.5665678  12.2154614  )
         7           Rh1 tau(   7) = (   6.7834375   3.9164194  12.2154614  )
         8           Rh1 tau(   8) = (   4.0700625   3.9164194  12.2154614  )
         9           Rh1 tau(   9) = (   0.0000000   0.0000000  14.4309228  )
        10           Rh1 tau(  10) = (   2.7133750   0.0000000  14.4309228  )
        11           Rh1 tau(  11) = (   1.3566875   2.3498517  14.4309228  )
        12           Rh1 tau(  12) = (   4.0700625   2.3498517  14.4309228  )
        13           S1  tau(  13) = (   0.0000000   0.0000000  16.9009228  )

     number of k points=    20  Fermi-Dirac smearing, width (Ry)=  0.0110
                       cart. coord. in units 2pi/alat
        k(    1) = (   0.0000000   0.0000000   0.0000000), wk =   0.0555556
        k(    2) = (   0.0000000   0.0354632   0.0000000), wk =   0.1111111
        k(    3) = (   0.0000000   0.0709265   0.0000000), wk =   0.1111111
        k(    4) = (   0.0000000  -0.1063897   0.0000000), wk =   0.0555556
        k(    5) = (   0.0307121  -0.0177316   0.0000000), wk =   0.1111111
        k(    6) = (   0.0307121   0.0177316   0.0000000), wk =   0.1111111
        k(    7) = (   0.0307121   0.0531948   0.0000000), wk =   0.1111111
        k(    8) = (   0.0307121  -0.1241213   0.0000000), wk =   0.1111111
        k(    9) = (   0.0307121  -0.0886581   0.0000000), wk =   0.1111111
        k(   10) = (   0.0307121  -0.0531948   0.0000000), wk =   0.1111111
        k(   11) = (   0.0614241  -0.0354632   0.0000000), wk =   0.1111111
        k(   12) = (   0.0614241   0.0000000   0.0000000), wk =   0.1111111
        k(   13) = (   0.0614241   0.0354632   0.0000000), wk =   0.1111111
        k(   14) = (   0.0614241  -0.1418529   0.0000000), wk =   0.1111111
        k(   15) = (   0.0614241  -0.1063897   0.0000000), wk =   0.1111111
        k(   16) = (   0.0614241  -0.0709265   0.0000000), wk =   0.1111111
        k(   17) = (  -0.0921362   0.0531948   0.0000000), wk =   0.0555556
        k(   18) = (  -0.0921362   0.0886581   0.0000000), wk =   0.1111111
        k(   19) = (  -0.0921362   0.1241213   0.0000000), wk =   0.1111111
        k(   20) = (  -0.0921362  -0.0531948   0.0000000), wk =   0.0555556

     Largest allocated arrays     est. size (Mb)     dimensions
     Largest temporary arrays     est. size (Mb)     dimensions

     Initial potential from superposition of free atoms
     Check: negative starting charge=   -0.652754

     starting charge  179.99878, renormalised to  186.00000

     negative rho (up, down):  6.745E-01 0.000E+00

     *
     * You are using vdW-DF for exchange-correlation in this calculation.
     * Please cite the following three references that made this development
     * possible:
     *
     *   M. Dion, H. Rydberg, E. Schroder, D. C. Langreth, and
     *   B. I. Lundqvist, Phys. Rev. Lett. 92, 246401 (2004).
     *
     *   T. Thonhauser, V. R. Cooper, S. Li, A. Puzder, P. Hyldgaard, and
     *   D. C. Langreth, Phys. Rev. B 76, 125112 (2007).
     *
     *   G. Roman-Perez and J. M. Soler, Phys. Rev. Lett. 103, 096102 (2009).
     *
     *
     * If you are using vdW-DF2, please also cite:
     *
     *   K. Lee, E. D. Murray, L. Kong, B. I. Lundqvist, and
     *   D. C. Langreth, Phys. Rev. B 82, 081101(R) (2010).
     *
     *
     * If you are calculating the stress with vdW-DF, please also cite:
     *
     *   R. Sabatini, E. Kucukbenli, B. Kolb, T. Thonhauser, and
     *   S. de Gironcoli, J. Phys.: Condens. Matter 24, 424209 (2012).
     *

     Carrying out vdW-DF run using the following parameters:

     Nqs =      20    Nr_points =    1024   r_max =   100.000
     q_mesh =
               0.00001000     0.04494208     0.09755937     0.15916263
               0.23128650     0.31572767     0.41458969     0.53033537
               0.66584808     0.82450364     1.01025438     1.22772762
               1.48234092     1.78043706     2.12944203     2.53805004
               3.01644009     3.57652955     4.23227104     5.00000000

     Gradients computed in reciprocal space

     Adding external electric field

     Computed dipole along edir(3) :
        Dipole               -1.7709 Ry au,         -4.5011 Debye
        Dipole field         -0.0053 Ry au

        Potential amp.        0.4765 Ry
        Total length         45.0136 bohr

     Starting wfc are  148 randomized atomic wfcs

     Self-consistent Calculation

     iteration #  1     ecut=    36.75 Ry     beta=0.30
     Davidson diagonalization with overlap
     ethr =  1.00E-02,  avg # of iterations =  2.0

[...]

     total energy              =   -2034.34248021 Ry
     Harris-Foulkes estimate   =   -2091.32661304 Ry
     estimated scf accuracy    <     117.71353467 Ry

[...]

     End of self-consistent calculation

          k = 0.0000 0.0000 0.0000 ( 15785 PWs)   bands (ev):

   -45.5212 -45.5106 -45.5106 -45.4025 -45.3432 -45.3431 -45.3025 -45.1856
   -45.1856 -45.1306 -45.1159 -45.1158 -45.1100 -45.0947 -45.0306 -45.0306
   -45.0122 -44.9971 -44.9971 -44.8053 -44.8053 -44.7071 -44.6935 -44.6934
   -44.6929 -44.6916 -44.6383 -44.6381 -44.6263 -44.6263 -44.6209 -44.6089
   -44.6088 -44.5788 -44.5788 -44.5639  -9.5910  -5.1558  -3.9144  -3.9144
    -3.9109  -3.8637  -3.7320  -3.6410  -3.6128  -3.6128  -3.4085  -3.4085
    -3.3774  -3.0789  -3.0789  -3.0675  -2.0505  -2.0504  -1.9340  -1.6269
    -1.5238  -1.5238  -1.3902  -1.2147  -1.2147  -1.1151  -0.9016  -0.9016
    -0.8218  -0.8217  -0.8007  -0.6668  -0.6668  -0.4750  -0.0142  -0.0141
     0.3182   0.3182   0.5329   0.6646   0.6646   0.6733   0.6877   0.6877
     0.8644   1.2365   1.2365   1.3833   1.3833   1.6446   1.7752   1.7753
     1.7845   1.8210   1.8211   1.9105   1.9105   2.1521   2.1536   2.1536
     2.3319   2.4525   2.4526   2.5128   2.5584   2.5585   2.5613

[...]

          k =-0.0921 0.0532 0.0000 ( 15852 PWs)   bands (ev):

[...]

     the Fermi energy is     1.5491 ev

!    total energy              =   -2090.77852306 Ry
     Harris-Foulkes estimate   =   -2090.77852768 Ry
     estimated scf accuracy    <       0.00000086 Ry

     The total energy is the sum of the following terms:

     one-electron contribution =  -19326.69221944 Ry
     hartree contribution      =    9706.01472272 Ry
     xc contribution           =    -380.66528669 Ry
     ewald contribution        =    7910.69586727 Ry
     electric field correction =       0.00030820 Ry
     smearing contrib. (-TS)   =      -0.13191512 Ry

     convergence has been achieved in  24 iterations

 BEEF-vdW xc energy contributions
           1 :   -331.315913813366
           2 :    303.893089634461
           3 :   -256.552618680853
           4 :    201.139438053338
           5 :   -149.502849435963
           6 :    109.863911828526
           7 :   -84.9860522436679
           8 :    72.5275652288931
           9 :   -67.1161151220698
          10 :    63.0916167946568
          11 :   -56.7481291181775
          12 :    47.2778768772783
          13 :   -36.2857761401293
          14 :    26.3707079021736
          15 :   -19.5803471643928
[...]

[...]

   This run was terminated on:   2: 0:22  20Jan2018

[...]

     Program PWSCF v.5.1rc2 (svn rev. 11289) starts on 20Jan2018 at  2: 0:28

[...]

   This run was terminated on:   3:23: 4  20Jan2018

[...]

     Program PWSCF v.5.1rc2 (svn rev. 11289) starts on 20Jan2018 at  3:23: 9

[...]

     Program PWSCF v.5.1rc2 (svn rev. 11289) starts on 20Jan2018 at  3:44:56

[...]

   This run was terminated on:   4: 6:21  20Jan2018

[...]

     Program PWSCF v.5.1rc2 (svn rev. 11289) starts on 20Jan2018 at  4: 6:27

     Current dimensions of program PWSCF are:
     Max number of different atomic species (ntypx) = 10
     Max number of k-points (npk) =  40000
     Max angular momentum in pseudopotentials (lmaxx) =  3
     Presently stress not available with electric field

     IMPORTANT: XC functional enforced from input :
     Exchange-correlation      = BEEF-VDW ( 1  4 27 13 2)
     Any further DFT definition will be discarded
     Please, verify this is what you really want

     Subspace diagonalization in iterative solution of the eigenvalue problem:
     a serial algorithm will be used

     bravais-lattice index     =            0
     lattice parameter (alat)  =       1.8897  a.u.
     unit-cell volume          =    4204.8134 (a.u.)^3
     number of atoms/cell      =           13
     number of atomic types    =            2
     number of electrons       =       186.00
     number of Kohn-Sham states=          103
     kinetic-energy cutoff     =      36.7493  Ry
     charge density cutoff     =     367.4932  Ry
     convergence threshold     =      1.0E-05
     mixing beta               =       0.3000
     number of iterations used =           10  plain     mixing
     Exchange-correlation      = BEEF-VDW ( 1  4 27 13 2)
     nstep                     =           50

     celldm(1)=   1.889726  celldm(2)=   0.000000  celldm(3)=   0.000000
     celldm(4)=   0.000000  celldm(5)=   0.000000  celldm(6)=   0.000000

     crystal axes: (cart. coord. in units of alat)
               a(1) = (   5.426750   0.000000   0.000000 )
               a(2) = (   2.713375   4.699703   0.000000 )
               a(3) = (   0.000000   0.000000  24.430923 )

     reciprocal axes: (cart. coord. in units 2 pi/alat)
               b(1) = (  0.184272 -0.106390  0.000000 )
               b(2) = (  0.000000  0.212779  0.000000 )
               b(3) = (  0.000000  0.000000  0.040932 )

     PseudoPot. # 1 for Rh read from file:
     /afs/slac.stanford.edu/u/if/mamunm/psp/gbrv1.5pbe/Rh.UPF
     MD5 check sum: 761627e959a2e3a1f56b0b5fe687810e
     Pseudo is Ultrasoft + core correction, Zval = 15.0
     Generated by new atomic code, or converted to UPF format
     Using radial grid of  969 points,  7 beta functions with:
                l(1) =   0
                l(2) =   0
                l(3) =   1
                l(4) =   1
                l(5) =   2
                l(6) =   2
                l(7) =   2
     Q(r) pseudized with  8 coefficients,  rinner =    1.200   1.200   1.200
                                                       1.200   1.200

     PseudoPot. # 2 for S  read from file:
     /afs/slac.stanford.edu/u/if/mamunm/psp/gbrv1.5pbe/S.UPF
     MD5 check sum: 88d86576ff6df21479756cfb9bdac1df
     Pseudo is Ultrasoft + core correction, Zval =  6.0
     Generated by new atomic code, or converted to UPF format
     Using radial grid of  907 points,  6 beta functions with:
                l(1) =   0
                l(2) =   0
                l(3) =   1
                l(4) =   1
                l(5) =   2
                l(6) =   2
     Q(r) pseudized with  8 coefficients,  rinner =    1.300   1.300   1.300
                                                       1.300   1.300

     vdW kernel table read from file vdW_kernel_table
     MD5 check sum: 095c7af220d748ca6e76c0b4c6cfb241

     atomic species   valence    mass     pseudopotential
        Rh1           15.00   102.90550     Rh( 1.00)
        S1             6.00    32.06000     S ( 1.00)

     No symmetry found

   Cartesian axes

     site n.     atom                  positions (alat units)
         1           Rh1 tau(   1) = (   1.3566875   0.7832839  10.0000000  )
         2           Rh1 tau(   2) = (   4.0700625   0.7832839  10.0000000  )
         3           Rh1 tau(   3) = (   2.7133750   3.1331356  10.0000000  )
         4           Rh1 tau(   4) = (   5.4267500   3.1331356  10.0000000  )
         5           Rh1 tau(   5) = (   5.4267500   1.5665678  12.2154614  )
         6           Rh1 tau(   6) = (   2.7133750   1.5665678  12.2154614  )
         7           Rh1 tau(   7) = (   6.7834375   3.9164194  12.2154614  )
         8           Rh1 tau(   8) = (   4.0700625   3.9164194  12.2154614  )
         9           Rh1 tau(   9) = (   0.0000251   0.0000309  14.3607667  )
        10           Rh1 tau(  10) = (   5.4266517   4.6912444  14.4147639  )
        11           Rh1 tau(  11) = (   6.7760322   2.3540635  14.4147016  )
        12           Rh1 tau(  12) = (   4.0773724   2.3541083  14.4146932  )
        13           S1  tau(  13) = (   2.7133915   4.6996522  16.5035207  )

     number of k points=    20  Fermi-Dirac smearing, width (Ry)=  0.0110
                       cart. coord. in units 2pi/alat
        k(    1) = (   0.0000000   0.0000000   0.0000000), wk =   0.0555556
        k(    2) = (   0.0000000   0.0354632   0.0000000), wk =   0.1111111
        k(    3) = (   0.0000000   0.0709265   0.0000000), wk =   0.1111111
        k(    4) = (   0.0000000  -0.1063897   0.0000000), wk =   0.0555556
        k(    5) = (   0.0307121  -0.0177316   0.0000000), wk =   0.1111111
        k(    6) = (   0.0307121   0.0177316   0.0000000), wk =   0.1111111
        k(    7) = (   0.0307121   0.0531948   0.0000000), wk =   0.1111111
        k(    8) = (   0.0307121  -0.1241213   0.0000000), wk =   0.1111111
        k(    9) = (   0.0307121  -0.0886581   0.0000000), wk =   0.1111111
        k(   10) = (   0.0307121  -0.0531948   0.0000000), wk =   0.1111111
        k(   11) = (   0.0614241  -0.0354632   0.0000000), wk =   0.1111111
        k(   12) = (   0.0614241   0.0000000   0.0000000), wk =   0.1111111
        k(   13) = (   0.0614241   0.0354632   0.0000000), wk =   0.1111111
        k(   14) = (   0.0614241  -0.1418529   0.0000000), wk =   0.1111111
        k(   15) = (   0.0614241  -0.1063897   0.0000000), wk =   0.1111111
        k(   16) = (   0.0614241  -0.0709265   0.0000000), wk =   0.1111111
        k(   17) = (  -0.0921362   0.0531948   0.0000000), wk =   0.0555556
        k(   18) = (  -0.0921362   0.0886581   0.0000000), wk =   0.1111111
        k(   19) = (  -0.0921362   0.1241213   0.0000000), wk =   0.1111111
        k(   20) = (  -0.0921362  -0.0531948   0.0000000), wk =   0.0555556

     Largest allocated arrays     est. size (Mb)     dimensions
     Largest temporary arrays     est. size (Mb)     dimensions

     Initial potential from superposition of free atoms
     Check: negative starting charge=   -0.654412

     starting charge  179.99878, renormalised to  186.00000

[...]

     *
     * You are using vdW-DF for exchange-correlation in this calculation.
     * Please cite the following three references that made this development
     * possible:
     *
     *   M. Dion, H. Rydberg, E. Schroder, D. C. Langreth, and
     *   B. I. Lundqvist, Phys. Rev. Lett. 92, 246401 (2004).
     *
     *   T. Thonhauser, V. R. Cooper, S. Li, A. Puzder, P. Hyldgaard, and
     *   D. C. Langreth, Phys. Rev. B 76, 125112 (2007).
     *
     *   G. Roman-Perez and J. M. Soler, Phys. Rev. Lett. 103, 096102 (2009).
     *
     *
     * If you are using vdW-DF2, please also cite:
     *
     *   K. Lee, E. D. Murray, L. Kong, B. I. Lundqvist, and
     *   D. C. Langreth, Phys. Rev. B 82, 081101(R) (2010).
     *
     *
     * If you are calculating the stress with vdW-DF, please also cite:
     *
     *   R. Sabatini, E. Kucukbenli, B. Kolb, T. Thonhauser, and
     *   S. de Gironcoli, J. Phys.: Condens. Matter 24, 424209 (2012).
     *

     Carrying out vdW-DF run using the following parameters:

     Nqs =      20    Nr_points =    1024   r_max =   100.000
     q_mesh =
               0.00001000     0.04494208     0.09755937     0.15916263
               0.23128650     0.31572767     0.41458969     0.53033537
               0.66584808     0.82450364     1.01025438     1.22772762
               1.48234092     1.78043706     2.12944203     2.53805004
               3.01644009     3.57652955     4.23227104     5.00000000

     Gradients computed in reciprocal space

[...]

     Starting wfc are  148 randomized atomic wfcs

     Self-consistent Calculation

[...]

     total energy              =   -2090.82338233 Ry
     Harris-Foulkes estimate   =   -2090.82338580 Ry
     estimated scf accuracy    <       0.00002388 Ry

     iteration # 24     ecut=    36.75 Ry     beta=0.30
     Davidson diagonalization with overlap
     ethr =  1.28E-08,  avg # of iterations =  1.0

[...]

     negative rho (up, down):  6.887E-01 0.000E+00

     Adding external electric field

     Computed dipole along edir(3) :
        Dipole               -0.1776 Ry au,         -0.4515 Debye
        Dipole field         -0.0005 Ry au

        Potential amp.        0.0478 Ry
        Total length         45.0136 bohr

     End of self-consistent calculation

[...]

          k = 0.0614-0.0709 0.0000 ( 15838 PWs)   bands (ev):

[...]

          k =-0.0921-0.0532 0.0000 ( 15852 PWs)   bands (ev):

   -45.4982 -45.2328 -45.2259 -45.2002 -45.1972 -45.1124 -45.0807 -45.0631
   -45.0627 -45.0598 -45.0249 -45.0220 -44.9913 -44.8682 -44.8416 -44.7856
   -44.7339 -44.7333 -44.6309 -44.6098 -44.6077 -44.5921 -44.5829 -44.5752
   -44.5487 -44.5299 -44.4444 -44.4371 -44.4244 -44.4236 -44.4065 -44.4055
   -44.4015 -44.3984 -44.3964 -44.3232 -10.3329  -3.5699  -3.5004  -3.0693
    -2.9687  -2.9381  -2.9028  -2.7883  -2.7227  -2.6145  -2.5386  -2.4446
    -2.4052  -2.2726  -2.1286  -2.1048  -1.9913  -1.9147  -1.8556  -1.6940
    -1.5538  -1.5220  -1.4780  -1.3684  -1.2199  -1.1107  -0.9645  -0.8852
    -0.6825  -0.6577  -0.5699  -0.4815  -0.4397  -0.3981  -0.3588  -0.2897
    -0.2872  -0.2063  -0.1699  -0.1587  -0.1455   0.0078   0.2487   0.3081
     0.3776   0.5057   0.5217   0.6983   0.7825   0.8178   0.8484   0.9518
     0.9666   1.0502   1.0642   1.1376   1.3974   1.4635   1.4669   1.7815
     1.9353   2.0841   2.1941   2.2126   2.3605   2.4351   2.4885

     the Fermi energy is     1.7665 ev

!    total energy              =   -2090.82337770 Ry
     Harris-Foulkes estimate   =   -2090.82338171 Ry
     estimated scf accuracy    <       0.00000700 Ry

     The total energy is the sum of the following terms:

     one-electron contribution =  -19545.88313963 Ry
     hartree contribution      =    9816.59886151 Ry
     xc contribution           =    -380.89071562 Ry
     ewald contribution        =    8019.47910661 Ry
     electric field correction =       0.00009432 Ry
     smearing contrib. (-TS)   =      -0.12758489 Ry

     convergence has been achieved in  24 iterations

 BEEF-vdW xc energy contributions
           1 :   -331.553706436778
           2 :    304.246657074158
           3 :   -257.043915691939
           4 :    201.683430257720
           5 :   -149.966664137164
           6 :    110.141304931695
           7 :   -85.0464169982339
           8 :    72.4238401673043
           9 :   -66.9551761930990
          10 :    62.9848780929135
          11 :   -56.7640929230828
          12 :    47.4145491494593
          13 :   -36.4750925919549
          14 :    26.5151246031651
          15 :   -19.6044632641735
          16 :    16.3397375675597
          17 :   -15.7593137909240
          18 :    16.0266883512265
          19 :   -15.4337009829944
          20 :    13.1919497286348
          21 :   -9.65274018941813
          22 :    5.92945847989984
          23 :   -3.19876785820770
          24 :    2.07265142311638
          25 :   -2.34231805140524
          26 :    3.17393309694029
          27 :   -3.60497122384135
          28 :    3.05610168042716
          29 :   -1.59157038589609
          30 :  -0.185022039019429
          31 :   -32.9391821509025
          32 :   -24.6640493097495

     Forces acting on atoms (Ry/au):

     negative rho (up, down):  6.887E-01 0.000E+00
     atom    1 type  1   force =    -0.00067018   -0.00040521    0.00703963
     atom    2 type  1   force =     0.00067615   -0.00040061    0.00704128
     atom    3 type  1   force =     0.00000159    0.00079714    0.00710389
     atom    4 type  1   force =     0.00000250    0.00001232   -0.00397963
     atom    5 type  1   force =    -0.00001087    0.00191614   -0.00437991
     atom    6 type  1   force =    -0.00000134    0.00000907   -0.00391394
     atom    7 type  1   force =    -0.00164306   -0.00096901   -0.00437317
     atom    8 type  1   force =     0.00163738   -0.00096689   -0.00439445
     atom    9 type  1   force =    -0.00004086    0.00000161   -0.00093968
     atom   10 type  1   force =     0.00004010    0.00004479    0.00014706
     atom   11 type  1   force =     0.00006581   -0.00000378    0.00017106
     atom   12 type  1   force =    -0.00006171   -0.00003022    0.00011721
     atom   13 type  2   force =     0.00000448   -0.00000536    0.00036065

     Total force =     0.015883     Total SCF correction =     0.012755
     SCF correction compared to forces is large: reduce conv_thr to get better values

     entering subroutine stress ...

     negative rho (up, down):  6.887E-01 0.000E+00
          total   stress  (Ry/bohr**3)                   (kbar)     P=  -27.59
  -0.00019617   0.00000002   0.00000001        -28.86      0.00      0.00
   0.00000002  -0.00019611   0.00000001          0.00    -28.85      0.00
   0.00000001   0.00000001  -0.00017034          0.00      0.00    -25.06

 !ASE

     Writing output data file calc.save

     General routines

     Parallel routines

   This run was terminated on:   4:27:21  20Jan2018

   JOB DONE.
Job  /afs/slac/g/suncat/bin/suncat-tsmpirun -x LD_LIBRARY_PATH -wdir /scratch/qe869904_IfoAU pw.x -in pw.inp

TID   HOST_NAME   COMMAND_LINE            STATUS            TERMINATION_TIME
00000 suncat1053 pw.x -in pw.inp   Done                     01/20/2018 04:27:21
00001 suncat1053 pw.x -in pw.inp   Done                     01/20/2018 04:27:21
00002 suncat1053 pw.x -in pw.inp   Done                     01/20/2018 04:27:21
00003 suncat1053 pw.x -in pw.inp   Done                     01/20/2018 04:27:21
00004 suncat1053 pw.x -in pw.inp   Done                     01/20/2018 04:27:21
00005 suncat1053 pw.x -in pw.inp   Done                     01/20/2018 04:27:21
00006 suncat1053 pw.x -in pw.inp   Done                     01/20/2018 04:27:21
00007 suncat1053 pw.x -in pw.inp   Done                     01/20/2018 04:27:21
00008 suncat1045 pw.x -in pw.inp   Done                     01/20/2018 04:27:21
00009 suncat1045 pw.x -in pw.inp   Done                     01/20/2018 04:27:21
00010 suncat1045 pw.x -in pw.inp   Done                     01/20/2018 04:27:21
00011 suncat1045 pw.x -in pw.inp   Done                     01/20/2018 04:27:21
00012 suncat1045 pw.x -in pw.inp   Done                     01/20/2018 04:27:21
00013 suncat1045 pw.x -in pw.inp   Done                     01/20/2018 04:27:21
00014 suncat1045 pw.x -in pw.inp   Done                     01/20/2018 04:27:21
00015 suncat1045 pw.x -in pw.inp   Done                     01/20/2018 04:27:21
00016 suncat1045 pw.x -in pw.inp   Done                     01/20/2018 04:27:21
00017 suncat1045 pw.x -in pw.inp   Done                     01/20/2018 04:27:21
00018 suncat1045 pw.x -in pw.inp   Done                     01/20/2018 04:27:21
00019 suncat1045 pw.x -in pw.inp   Done                     01/20/2018 04:27:21
00020 suncat1022 pw.x -in pw.inp   Done                     01/20/2018 04:27:21
00021 suncat1022 pw.x -in pw.inp   Done                     01/20/2018 04:27:21
00022 suncat1022 pw.x -in pw.inp   Done                     01/20/2018 04:27:21
00023 suncat1022 pw.x -in pw.inp   Done                     01/20/2018 04:27:21
00024 suncat1022 pw.x -in pw.inp   Done                     01/20/2018 04:27:21
00025 suncat1022 pw.x -in pw.inp   Done                     01/20/2018 04:27:21
00026 suncat1022 pw.x -in pw.inp   Done                     01/20/2018 04:27:21
00027 suncat1022 pw.x -in pw.inp   Done                     01/20/2018 04:27:21
00028 suncat1022 pw.x -in pw.inp   Done                     01/20/2018 04:27:21
00029 suncat1022 pw.x -in pw.inp   Done                     01/20/2018 04:27:21
00030 suncat1022 pw.x -in pw.inp   Done                     01/20/2018 04:27:21
00031 suncat1022 pw.x -in pw.inp   Done                     01/20/2018 04:27:21