     Program PWSCF v.5.1rc2 (svn rev. 11289) starts on  2May2018 at 18: 9: 1

     Current dimensions of program PWSCF are:
     Max number of different atomic species (ntypx) = 10
     Max number of k-points (npk) =  40000
     Max angular momentum in pseudopotentials (lmaxx) =  3
     Presently stress not available with electric field

     IMPORTANT: XC functional enforced from input :
     Exchange-correlation      = BEEF-VDW ( 1  4 27 13 2)
     Any further DFT definition will be discarded
     Please, verify this is what you really want

     Subspace diagonalization in iterative solution of the eigenvalue problem:
     a serial algorithm will be used

     bravais-lattice index     =            0
     lattice parameter (alat)  =       1.8897  a.u.
     unit-cell volume          =    6082.7792 (a.u.)^3
     number of atoms/cell      =           13
     number of atomic types    =            2
     number of electrons       =       148.00
     number of Kohn-Sham states=           84
     kinetic-energy cutoff     =      36.7493  Ry
     charge density cutoff     =     367.4932  Ry
     convergence threshold     =      1.0E-05
     mixing beta               =       0.3000
     number of iterations used =           10  plain     mixing
     Exchange-correlation      = BEEF-VDW ( 1  4 27 13 2)
     nstep                     =           50

     celldm(1)=   1.889726  celldm(2)=   0.000000  celldm(3)=   0.000000
     celldm(4)=   0.000000  celldm(5)=   0.000000  celldm(6)=   0.000000

     crystal axes: (cart. coord. in units of alat)
               a(1) = (   6.421223   0.000000   0.000000 )
               a(2) = (   3.210611   5.560942   0.000000 )
               a(3) = (   0.000000   0.000000  25.242906 )

     reciprocal axes: (cart. coord. in units 2 pi/alat)
               b(1) = (  0.155734 -0.089913  0.000000 )
               b(2) = (  0.000000  0.179826  0.000000 )
               b(3) = (  0.000000  0.000000  0.039615 )

     PseudoPot. # 1 for Zr read from file:
     /u/if/mamunm/psp/gbrv1.5pbe/Zr.UPF
     MD5 check sum: 5db81b1e868ab7776c4564c113de050b
     Pseudo is Ultrasoft + core correction, Zval = 12.0
     Generated by new atomic code, or converted to UPF format
     Using radial grid of  887 points,  6 beta functions with:
                l(1) =   0
                l(2) =   0
                l(3) =   1
                l(4) =   1
                l(5) =   2
                l(6) =   2
     Q(r) pseudized with  6 coefficients,  rinner =    1.200   1.200   1.200
                                                       1.200   1.200

     PseudoPot. # 2 for C  read from file:
     /u/if/mamunm/psp/gbrv1.5pbe/C.UPF
     MD5 check sum: d1aef80898a10debaa0f26306b886e00
     Pseudo is Ultrasoft + core correction, Zval =  4.0
     Generated by new atomic code, or converted to UPF format
     Using radial grid of  721 points,  4 beta functions with:
                l(1) =   0
                l(2) =   0
                l(3) =   1
                l(4) =   1
     Q(r) pseudized with  8 coefficients,  rinner =    1.100   1.100   1.100

     vdW kernel table read from file vdW_kernel_table
     MD5 check sum: 095c7af220d748ca6e76c0b4c6cfb241

     atomic species   valence    mass     pseudopotential
        Zr1           12.00    91.22400     Zr( 1.00)
        C1             4.00    12.01100     C ( 1.00)

     No symmetry found

   Cartesian axes

     site n.     atom                  positions (alat units)
         1           Zr1 tau(   1) = (   1.6053057   0.9268237  10.0000000  )
         2           Zr1 tau(   2) = (   4.8159170   0.9268237  10.0000000  )
         3           Zr1 tau(   3) = (   3.2106113   3.7072946  10.0000000  )
         4           Zr1 tau(   4) = (   6.4212227   3.7072946  10.0000000  )
         5           Zr1 tau(   5) = (   6.4212227   1.8536473  12.6214532  )
         6           Zr1 tau(   6) = (   3.2106113   1.8536473  12.6214532  )
         7           Zr1 tau(   7) = (   8.0265283   4.6341183  12.6214532  )
         8           Zr1 tau(   8) = (   4.8159170   4.6341183  12.6214532  )
         9           Zr1 tau(   9) = (   0.0000000   0.0000000  15.2429064  )
        10           Zr1 tau(  10) = (   3.2106113   0.0000000  15.2429064  )
        11           Zr1 tau(  11) = (   1.6053057   2.7804710  15.2429064  )
        12           Zr1 tau(  12) = (   4.8159170   2.7804710  15.2429064  )
        13           C1  tau(  13) = (   3.2106113   1.8536473  16.8744064  )

     number of k points=    20  Fermi-Dirac smearing, width (Ry)=  0.0110
                       cart. coord. in units 2pi/alat
        k(    1) = (   0.0000000   0.0000000   0.0000000), wk =   0.0555556
        k(    2) = (   0.0000000   0.0299709   0.0000000), wk =   0.1111111
        k(    3) = (   0.0000000   0.0599419   0.0000000), wk =   0.1111111
        k(    4) = (   0.0000000  -0.0899128   0.0000000), wk =   0.0555556
        k(    5) = (   0.0259556  -0.0149855   0.0000000), wk =   0.1111111
        k(    6) = (   0.0259556   0.0149855   0.0000000), wk =   0.1111111
        k(    7) = (   0.0259556   0.0449564   0.0000000), wk =   0.1111111
        k(    8) = (   0.0259556  -0.1048983   0.0000000), wk =   0.1111111
        k(    9) = (   0.0259556  -0.0749274   0.0000000), wk =   0.1111111
        k(   10) = (   0.0259556  -0.0449564   0.0000000), wk =   0.1111111
        k(   11) = (   0.0519112  -0.0299709   0.0000000), wk =   0.1111111
        k(   12) = (   0.0519112   0.0000000   0.0000000), wk =   0.1111111
        k(   13) = (   0.0519112   0.0299709   0.0000000), wk =   0.1111111
        k(   14) = (   0.0519112  -0.1198838   0.0000000), wk =   0.1111111
        k(   15) = (   0.0519112  -0.0899128   0.0000000), wk =   0.1111111
        k(   16) = (   0.0519112  -0.0599419   0.0000000), wk =   0.1111111
        k(   17) = (  -0.0778668   0.0449564   0.0000000), wk =   0.0555556
        k(   18) = (  -0.0778668   0.0749274   0.0000000), wk =   0.1111111
        k(   19) = (  -0.0778668   0.1048983   0.0000000), wk =   0.1111111
        k(   20) = (  -0.0778668  -0.0449564   0.0000000), wk =   0.0555556

     Largest allocated arrays     est. size (Mb)     dimensions
     Largest temporary arrays     est. size (Mb)     dimensions

     Initial potential from superposition of free atoms
     Check: negative starting charge=   -0.729074

     starting charge  147.97417, renormalised to  148.00000

     negative rho (up, down):  7.292E-01 0.000E+00

     *
     * You are using vdW-DF for exchange-correlation in this calculation.
     * Please cite the following three references that made this development
     * possible:
     *
     *   M. Dion, H. Rydberg, E. Schroder, D. C. Langreth, and
     *   B. I. Lundqvist, Phys. Rev. Lett. 92, 246401 (2004).
     *
     *   T. Thonhauser, V. R. Cooper, S. Li, A. Puzder, P. Hyldgaard, and
     *   D. C. Langreth, Phys. Rev. B 76, 125112 (2007).
     *
     *   G. Roman-Perez and J. M. Soler, Phys. Rev. Lett. 103, 096102 (2009).
     *
     *
     * If you are using vdW-DF2, please also cite:
     *
     *   K. Lee, E. D. Murray, L. Kong, B. I. Lundqvist, and
     *   D. C. Langreth, Phys. Rev. B 82, 081101(R) (2010).
     *
     *
     * If you are calculating the stress with vdW-DF, please also cite:
     *
     *   R. Sabatini, E. Kucukbenli, B. Kolb, T. Thonhauser, and
     *   S. de Gironcoli, J. Phys.: Condens. Matter 24, 424209 (2012).
     *

     Carrying out vdW-DF run using the following parameters:

     Nqs =      20    Nr_points =    1024   r_max =   100.000
     q_mesh =
               0.00001000     0.04494208     0.09755937     0.15916263
               0.23128650     0.31572767     0.41458969     0.53033537
               0.66584808     0.82450364     1.01025438     1.22772762
               1.48234092     1.78043706     2.12944203     2.53805004
               3.01644009     3.57652955     4.23227104     5.00000000

     Gradients computed in reciprocal space

     Adding external electric field

     Computed dipole along edir(3) :
        Dipole               -0.0053 Ry au,         -0.0134 Debye
        Dipole field         -0.0000 Ry au

        Potential amp.        0.0010 Ry
        Total length         46.5096 bohr

     Starting wfc are  160 randomized atomic wfcs

     Self-consistent Calculation

     iteration #  1     ecut=    36.75 Ry     beta=0.30
     Davidson diagonalization with overlap
     ethr =  1.00E-02,  avg # of iterations =  2.0

[...]

     total energy              =   -1204.79002547 Ry
     Harris-Foulkes estimate   =   -1208.81306864 Ry
     estimated scf accuracy    <       8.59547552 Ry

[...]

     End of self-consistent calculation

          k = 0.0000 0.0000 0.0000 ( 22923 PWs)   bands (ev):

   -48.2469 -48.1907 -48.1011 -48.1009 -48.1003 -48.0284 -47.9658 -47.9657
   -47.8719 -47.7958 -47.7956 -47.7817 -26.4785 -26.4784 -26.4681 -26.4329
   -26.4259 -26.4258 -26.3375 -26.3182 -26.2847 -26.2846 -26.2177 -26.0779
   -26.0478 -26.0476 -25.9597 -25.9259 -25.9258 -25.9253 -25.9118 -25.9117
   -25.8720 -25.8719 -25.8280 -25.7592 -25.7592 -25.7132 -25.7074 -25.7072
   -25.6716 -25.6437 -25.6437 -25.6116 -25.5909 -25.5908 -25.4531 -25.4531
    -7.3034  -3.7856  -2.5907  -1.8534  -1.4698  -1.4698  -1.4440  -1.4440
    -1.4098  -1.3622  -0.9805  -0.9805  -0.9660  -0.7239  -0.7238  -0.7056
    -0.0400  -0.0399   0.1811   0.7115   0.7115   0.7998   1.0464   1.3593
     1.3593   1.5767   1.6350   1.7002   1.9534   1.9534   2.0605   2.0605
     2.1378   2.2556   2.2557   2.2934

[...]

          k =-0.0779 0.0450 0.0000 ( 22880 PWs)   bands (ev):

[...]

     the Fermi energy is     1.0915 ev

!    total energy              =   -1208.31569725 Ry
     Harris-Foulkes estimate   =   -1208.31566830 Ry
     estimated scf accuracy    <       0.00000480 Ry

     The total energy is the sum of the following terms:

     one-electron contribution =   -8375.56555576 Ry
     hartree contribution      =    4178.36604491 Ry
     xc contribution           =    -223.90559007 Ry
     ewald contribution        =    3212.90574537 Ry
     electric field correction =       0.00040932 Ry
     smearing contrib. (-TS)   =      -0.11675101 Ry

     convergence has been achieved in  19 iterations

 BEEF-vdW xc energy contributions
           1 :   -191.743089987946
           2 :    173.544213769826
           3 :   -142.874552928456
           4 :    108.374759959625
           5 :   -77.8427613207067
           6 :    55.4992675724876
           7 :   -41.3343051448357
           8 :    32.4426139482514
           9 :   -25.3020258367497
          10 :    17.6976055288458
          11 :   -9.44479229193962
          12 :    1.84349560477150
          13 :    3.55035769888943
          14 :   -6.02350352031635
          15 :    6.09203897877345
          16 :   -5.08878766324796
          17 :    4.32734743566024
          18 :   -4.40258493978041
          19 :    5.02486888577647
          20 :   -5.41410213883097
          21 :    4.93604122111321
          22 :   -3.55046843198420
          23 :    1.80968420128937
          24 :  -0.463522998984331
          25 :  -2.628427521989352E-002
          26 :  -0.262740630084181
          27 :   0.831000854598585
          28 :   -1.12403031903364
          29 :   0.887728059818471
          30 :  -0.288937512729291
          31 :   -22.2716899827036
          32 :   -16.6080679030869

     Forces acting on atoms (Ry/au):

     negative rho (up, down):  7.499E-01 0.000E+00
     atom    1 type  1   force =     0.00041074    0.00022703    0.01482486
     atom    2 type  1   force =    -0.00041238    0.00024235    0.01480252
     atom    3 type  1   force =     0.00001223   -0.00047199    0.01481877
     atom    4 type  1   force =    -0.00001223    0.00000351    0.01607080
     atom    5 type  1   force =    -0.00000204   -0.00178833   -0.00614450
     atom    6 type  1   force =     0.00000365    0.00000045   -0.02035058
     atom    7 type  1   force =     0.00154877    0.00089466   -0.00614310
     atom    8 type  1   force =    -0.00154916    0.00089247   -0.00614785
     atom    9 type  1   force =     0.00001188   -0.00000484   -0.00325583
     atom   10 type  1   force =    -0.00001210    0.05025390    0.04426831
     atom   11 type  1   force =     0.04352409   -0.02513082    0.04429056
     atom   12 type  1   force =    -0.04352641   -0.02511740    0.04425924
     atom   13 type  2   force =     0.00000297   -0.00000099   -0.15129321

     Total force =     0.190676     Total SCF correction =     0.009937

     entering subroutine stress ...

     negative rho (up, down):  7.499E-01 0.000E+00
          total   stress  (Ry/bohr**3)                   (kbar)     P=  -15.61
  -0.00008589  -0.00000000   0.00000000        -12.64     -0.00      0.00
  -0.00000000  -0.00008590  -0.00000000         -0.00    -12.64     -0.00
   0.00000000  -0.00000000  -0.00014656          0.00     -0.00    -21.56

     BFGS Geometry Optimization

     number of scf cycles    =   1
     number of bfgs steps    =   0

     energy   new            =   -1208.3156972487 Ry

     new trust radius        =       0.1512932131 bohr
     new conv_thr            =       0.0000099958 Ry

ATOMIC_POSITIONS (crystal)
Zr1      0.166666667   0.166666667   0.396150897    0   0   0
Zr1      0.666666667   0.166666667   0.396150897    0   0   0
Zr1      0.166666667   0.666666667   0.396150897    0   0   0
Zr1      0.666666667   0.666666667   0.396150897    0   0   0
Zr1      0.833333333   0.333333333   0.500000000    0   0   0
Zr1      0.333333333   0.333333333   0.500000000    0   0   0
Zr1      0.833333333   0.833333333   0.500000000    0   0   0
Zr1      0.333333333   0.833333333   0.500000000    0   0   0
Zr1      0.000001209  -0.000000460   0.603780850
Zr1      0.497607931   0.004782143   0.604777117
Zr1      0.004782569   0.497608560   0.604777584
Zr1      0.497608041   0.497609837   0.604776927
C1       0.333333626   0.333333239   0.665309501

     Writing output data file calc.save
     Check: negative starting charge=   -0.729074
     NEW-OLD atomic charge density approx. for the potential
     Check: negative starting charge=   -0.728354

[...]

     energy   old            =   -1208.3156972487 Ry
     energy   new            =   -1208.3499723246 Ry

     CASE: energy  _new < energy  _old

     WARNING: bfgs curvature condition failed, Theta= 0.918
     new trust radius        =       0.2269398197 bohr
     new conv_thr            =       0.0000001000 Ry

[...]

     iteration #  1     ecut=    36.75 Ry     beta=0.30
     Davidson diagonalization with overlap
     c_bands:  1 eigenvalues not converged
     ethr =  1.00E-06,  avg # of iterations = 15.1

[...]

     iteration #  1     ecut=    36.75 Ry     beta=0.30
     Davidson diagonalization with overlap
     c_bands:  1 eigenvalues not converged
     ethr =  1.00E-06,  avg # of iterations = 13.8

[...]

     Total force =     0.006946     Total SCF correction =     0.000723
     SCF correction compared to forces is large: reduce conv_thr to get better values

[...]

     Total force =     0.004056     Total SCF correction =     0.000270

[...]

     Threshold (ethr) on eigenvalues was too large:
     Diagonalizing with lowered threshold

     Davidson diagonalization with overlap
     ethr =  2.10E-08,  avg # of iterations =  4.0

[...]

     WARNING: bfgs curvature condition failed, Theta= 0.974
     new trust radius        =       0.0060212682 bohr
     new conv_thr            =       0.0000001000 Ry

[...]

     number of scf cycles    =  19
     number of bfgs steps    =  18

     energy   old            =   -1208.4455461674 Ry
     energy   new            =   -1208.4455703403 Ry

     CASE: energy  _new < energy  _old

     new trust radius        =       0.0090319023 bohr
     new conv_thr            =       0.0000001000 Ry

ATOMIC_POSITIONS (crystal)
Zr1      0.166666667   0.166666667   0.396150897    0   0   0
Zr1      0.666666667   0.166666667   0.396150897    0   0   0
Zr1      0.166666667   0.666666667   0.396150897    0   0   0
Zr1      0.666666667   0.666666667   0.396150897    0   0   0
Zr1      0.833333333   0.333333333   0.500000000    0   0   0
Zr1      0.333333333   0.333333333   0.500000000    0   0   0
Zr1      0.833333333   0.833333333   0.500000000    0   0   0
Zr1      0.333333333   0.833333333   0.500000000    0   0   0
Zr1      0.000000030  -0.000000025   0.596165379
Zr1      0.509208672  -0.018417770   0.604049045
Zr1     -0.018417746   0.509208721   0.604049166
Zr1      0.509208804   0.509208838   0.604049026
C1       0.333333322   0.333333276   0.629597021

     Writing output data file calc.save
     Check: negative starting charge=   -0.729441
     NEW-OLD atomic charge density approx. for the potential
     Check: negative starting charge=   -0.729508

[...]

     Self-consistent Calculation

[...]

     Threshold (ethr) on eigenvalues was too large:
     Diagonalizing with lowered threshold

     Davidson diagonalization with overlap
     ethr =  3.14E-08,  avg # of iterations =  4.9

[...]

     total energy              =   -1208.44559291 Ry
     Harris-Foulkes estimate   =   -1208.44559287 Ry
     estimated scf accuracy    <       0.00000011 Ry

     iteration #  9     ecut=    36.75 Ry     beta=0.30
     Davidson diagonalization with overlap
     ethr =  7.36E-11,  avg # of iterations =  3.2

[...]

     negative rho (up, down):  7.502E-01 0.000E+00

     Adding external electric field

     Computed dipole along edir(3) :
        Dipole               -0.1036 Ry au,         -0.2633 Debye
        Dipole field         -0.0002 Ry au

        Potential amp.        0.0199 Ry
        Total length         46.5096 bohr

     End of self-consistent calculation

[...]

          k = 0.0519-0.0599 0.0000 ( 22856 PWs)   bands (ev):

[...]

          k =-0.0779-0.0450 0.0000 ( 22880 PWs)   bands (ev):

   -47.8720 -47.8698 -47.8262 -47.8249 -47.7045 -47.6925 -47.4957 -47.4616
   -47.4414 -47.4359 -47.4237 -47.4048 -26.0689 -26.0582 -26.0031 -25.9930
   -25.9359 -25.9310 -25.8877 -25.8718 -25.8578 -25.8496 -25.8340 -25.7989
   -25.7911 -25.7366 -25.7216 -25.7063 -25.6599 -25.6267 -25.5748 -25.5686
   -25.5628 -25.5404 -25.5164 -25.4513 -25.4448 -25.4127 -25.3818 -25.3694
   -25.3570 -25.3015 -25.2821 -25.2674 -25.2669 -25.2529 -25.1672 -25.1642
    -7.5851  -2.3085  -2.0713  -1.6583  -1.1571  -0.9879  -0.9034  -0.6705
    -0.4841  -0.4038  -0.3608  -0.2552  -0.0307   0.1255   0.3310   0.3403
     0.4009   0.4329   0.5489   0.7185   0.7941   0.8726   0.8990   0.9939
     1.0566   1.1363   1.2529   1.3175   1.4055   1.4219   1.5936   1.6503
     1.7088   1.8512   2.0551   2.0887

     the Fermi energy is     1.3621 ev

!    total energy              =   -1208.44559292 Ry
     Harris-Foulkes estimate   =   -1208.44559307 Ry
     estimated scf accuracy    <       0.00000004 Ry

     The total energy is the sum of the following terms:

     one-electron contribution =   -8558.31949449 Ry
     hartree contribution      =    4271.54167510 Ry
     xc contribution           =    -224.48371878 Ry
     ewald contribution        =    3302.92352674 Ry
     electric field correction =       0.00002218 Ry
     smearing contrib. (-TS)   =      -0.10760367 Ry

     convergence has been achieved in   9 iterations

 BEEF-vdW xc energy contributions
           1 :   -192.313115521286
           2 :    174.225691213758
           3 :   -143.655147464601
           4 :    109.112873780717
           5 :   -78.3512056089545
           6 :    55.6412259222198
           7 :   -41.0864131147973
           8 :    31.9040401407166
           9 :   -24.6508203640772
          10 :    17.1134696499650
          11 :   -9.03279218692217
          12 :    1.59731037083330
          13 :    3.72542322262524
          14 :   -6.24170347721500
          15 :    6.41605878466677
          16 :   -5.49953588033216
          17 :    4.74658018582090
          18 :   -4.74674085992504
          19 :    5.25576114546365
          20 :   -5.55777584206501
          21 :    5.05978204932009
          22 :   -3.71436038286728
          23 :    2.02598952946758
          24 :  -0.692011911190633
          25 :   0.156274707712555
          26 :  -0.371506054400044
          27 :   0.893370309096127
          28 :   -1.20574495812846
          29 :    1.04733300236822
          30 :  -0.537338619441726
          31 :   -22.3106477091512
          32 :   -16.6665281621667

     Forces acting on atoms (Ry/au):

     negative rho (up, down):  7.502E-01 0.000E+00
     atom    1 type  1   force =     0.00350914    0.00202596    0.01589248
     atom    2 type  1   force =    -0.00350912    0.00202593    0.01589256
     atom    3 type  1   force =    -0.00000001   -0.00405187    0.01589265
     atom    4 type  1   force =     0.00000000    0.00000007    0.01115189
     atom    5 type  1   force =     0.00000013    0.00373015   -0.01823075
     atom    6 type  1   force =    -0.00000010   -0.00000003   -0.00518016
     atom    7 type  1   force =    -0.00323044   -0.00186519   -0.01823063
     atom    8 type  1   force =     0.00323040   -0.00186504   -0.01823100
     atom    9 type  1   force =    -0.00000018   -0.00000008    0.00163035
     atom   10 type  1   force =     0.00000022    0.00019697    0.00010834
     atom   11 type  1   force =     0.00017046   -0.00009823    0.00010808
     atom   12 type  1   force =    -0.00017067   -0.00009856    0.00010854
     atom   13 type  2   force =     0.00000019   -0.00000009   -0.00091233

     Total force =     0.001908     Total SCF correction =     0.000305
     SCF correction compared to forces is large: reduce conv_thr to get better values

     entering subroutine stress ...

     negative rho (up, down):  7.502E-01 0.000E+00
          total   stress  (Ry/bohr**3)                   (kbar)     P=   -0.55
   0.00001845  -0.00000000   0.00000000          2.71     -0.00      0.00
  -0.00000000   0.00001846  -0.00000000         -0.00      2.71     -0.00
   0.00000000  -0.00000000  -0.00004817          0.00     -0.00     -7.09

     bfgs converged in  20 scf cycles and  19 bfgs steps
     (criteria: energy <  1.0E+00, force <  1.9E-03)

     End of BFGS Geometry Optimization

     Final energy   =   -1208.4455929181 Ry
Begin final coordinates

ATOMIC_POSITIONS (crystal)
Zr1      0.166666667   0.166666667   0.396150897    0   0   0
Zr1      0.666666667   0.166666667   0.396150897    0   0   0
Zr1      0.166666667   0.666666667   0.396150897    0   0   0
Zr1      0.666666667   0.666666667   0.396150897    0   0   0
Zr1      0.833333333   0.333333333   0.500000000    0   0   0
Zr1      0.333333333   0.333333333   0.500000000    0   0   0
Zr1      0.833333333   0.833333333   0.500000000    0   0   0
Zr1      0.333333333   0.833333333   0.500000000    0   0   0
Zr1      0.000000030  -0.000000025   0.596165379
Zr1      0.509208672  -0.018417770   0.604049045
Zr1     -0.018417746   0.509208721   0.604049166
Zr1      0.509208804   0.509208838   0.604049026
C1       0.333333322   0.333333276   0.629597021
End final coordinates

     Writing output data file calc.save

     General routines

     Parallel routines

   This run was terminated on:  20:57:39   2May2018

   JOB DONE.
Job  /afs/slac/g/suncat/bin/suncat-tsmpirun -x LD_LIBRARY_PATH -wdir /scratch/qe834690_G0Onv pw.x -npool 4 -in pw.inp

TID   HOST_NAME   COMMAND_LINE            STATUS            TERMINATION_TIME
00000 suncat0058 pw.x -npool 4 -i  Done                     05/02/2018 20:57:39
00001 suncat0058 pw.x -npool 4 -i  Done                     05/02/2018 20:57:39
00002 suncat0058 pw.x -npool 4 -i  Done                     05/02/2018 20:57:39
00003 suncat0058 pw.x -npool 4 -i  Done                     05/02/2018 20:57:39
00004 suncat0058 pw.x -npool 4 -i  Done                     05/02/2018 20:57:39
00005 suncat0058 pw.x -npool 4 -i  Done                     05/02/2018 20:57:39
00006 suncat0058 pw.x -npool 4 -i  Done                     05/02/2018 20:57:39
00007 suncat0058 pw.x -npool 4 -i  Done                     05/02/2018 20:57:39
00008 suncat0052 pw.x -npool 4 -i  Done                     05/02/2018 20:57:39
00009 suncat0052 pw.x -npool 4 -i  Done                     05/02/2018 20:57:39
00010 suncat0052 pw.x -npool 4 -i  Done                     05/02/2018 20:57:39
00011 suncat0052 pw.x -npool 4 -i  Done                     05/02/2018 20:57:39
00012 suncat0052 pw.x -npool 4 -i  Done                     05/02/2018 20:57:39
00013 suncat0052 pw.x -npool 4 -i  Done                     05/02/2018 20:57:39
00014 suncat0052 pw.x -npool 4 -i  Done                     05/02/2018 20:57:39
00015 suncat0052 pw.x -npool 4 -i  Done                     05/02/2018 20:57:39
00016 suncat0238 pw.x -npool 4 -i  Done                     05/02/2018 20:57:39
00017 suncat0238 pw.x -npool 4 -i  Done                     05/02/2018 20:57:39
00018 suncat0238 pw.x -npool 4 -i  Done                     05/02/2018 20:57:39
00019 suncat0238 pw.x -npool 4 -i  Done                     05/02/2018 20:57:39
00020 suncat0238 pw.x -npool 4 -i  Done                     05/02/2018 20:57:39
00021 suncat0238 pw.x -npool 4 -i  Done                     05/02/2018 20:57:39
00022 suncat0238 pw.x -npool 4 -i  Done                     05/02/2018 20:57:39
00023 suncat0238 pw.x -npool 4 -i  Done                     05/02/2018 20:57:39
00024 suncat0218 pw.x -npool 4 -i  Done                     05/02/2018 20:57:39
00025 suncat0218 pw.x -npool 4 -i  Done                     05/02/2018 20:57:39
00026 suncat0218 pw.x -npool 4 -i  Done                     05/02/2018 20:57:39
00027 suncat0218 pw.x -npool 4 -i  Done                     05/02/2018 20:57:39
00028 suncat0218 pw.x -npool 4 -i  Done                     05/02/2018 20:57:39
00029 suncat0218 pw.x -npool 4 -i  Done                     05/02/2018 20:57:39
00030 suncat0218 pw.x -npool 4 -i  Done                     05/02/2018 20:57:39
00031 suncat0218 pw.x -npool 4 -i  Done                     05/02/2018 20:57:39