     Program PWSCF v.5.1rc2 (svn rev. ) starts on 18Apr2018 at  8: 8:46

     Current dimensions of program PWSCF are:
     Max number of different atomic species (ntypx) = 10
     Max number of k-points (npk) =  40000
     Max angular momentum in pseudopotentials (lmaxx) =  3
     Presently stress not available with electric field

     IMPORTANT: XC functional enforced from input :
     Exchange-correlation      = BEEF-VDW ( 1  4 27 13 2)
     Any further DFT definition will be discarded
     Please, verify this is what you really want

     Subspace diagonalization in iterative solution of the eigenvalue problem:
     a serial algorithm will be used

     bravais-lattice index     =            0
     lattice parameter (alat)  =       1.8897  a.u.
     unit-cell volume          =    6501.5726 (a.u.)^3
     number of atoms/cell      =           14
     number of atomic types    =            3
     number of electrons       =       163.00
     number of Kohn-Sham states=           91
     kinetic-energy cutoff     =      36.7493  Ry
     charge density cutoff     =     367.4932  Ry
     convergence threshold     =      1.0E-05
     mixing beta               =       0.3000
     number of iterations used =           10  plain     mixing
     Exchange-correlation      = BEEF-VDW ( 1  4 27 13 2)
     nstep                     =           50

     celldm(1)=   1.889726  celldm(2)=   0.000000  celldm(3)=   0.000000
     celldm(4)=   0.000000  celldm(5)=   0.000000  celldm(6)=   0.000000

     crystal axes: (cart. coord. in units of alat)
               a(1) = (   6.617606   0.000000   0.000000 )
               a(2) = (   3.308803   5.731015   0.000000 )
               a(3) = (   0.000000   0.000000  25.403253 )

     reciprocal axes: (cart. coord. in units 2 pi/alat)
               b(1) = (  0.151112 -0.087245  0.000000 )
               b(2) = (  0.000000  0.174489  0.000000 )
               b(3) = (  0.000000  0.000000  0.039365 )

     PseudoPot. # 1 for In read from file:
     /home/mamunm/src/pseudo/gbrv1.5pbe/In.UPF
     MD5 check sum: 90777abd96fbb83f2e67db2a40c566b9
     Pseudo is Ultrasoft + core correction, Zval = 13.0
     Generated by new atomic code, or converted to UPF format
     Using radial grid of  889 points,  6 beta functions with:
                l(1) =   0
                l(2) =   0
                l(3) =   1
                l(4) =   1
                l(5) =   2
                l(6) =   2
     Q(r) pseudized with  6 coefficients,  rinner =    1.400   1.400   1.400
                                                       1.400   1.400

     PseudoPot. # 2 for O  read from file:
     /home/mamunm/src/pseudo/gbrv1.5pbe/O.UPF
     MD5 check sum: 734c27235a0248c51dbae37a1fbe46ec
     Pseudo is Ultrasoft + core correction, Zval =  6.0
     Generated by new atomic code, or converted to UPF format
     Using radial grid of  737 points,  5 beta functions with:
                l(1) =   0
                l(2) =   0
                l(3) =   1
                l(4) =   1
                l(5) =   2
     Q(r) pseudized with  8 coefficients,  rinner =    0.900   0.900   0.900
                                                       0.900   0.900

     PseudoPot. # 3 for H  read from file:
     /home/mamunm/src/pseudo/gbrv1.5pbe/H.UPF
     MD5 check sum: 761ae9a214b05c3daf00ab9f6b793d6f
     Pseudo is Ultrasoft, Zval =  1.0
     Generated by new atomic code, or converted to UPF format
     Using radial grid of  615 points,  2 beta functions with:
                l(1) =   0
                l(2) =   0
     Q(r) pseudized with  8 coefficients,  rinner =    0.700

     vdW kernel table read from file vdW_kernel_table
     MD5 check sum: 095c7af220d748ca6e76c0b4c6cfb241

     atomic species   valence    mass     pseudopotential
        In1           13.00   114.81800     In( 1.00)
        O1             6.00    15.99900     O ( 1.00)
        H1             1.00     1.00800     H ( 1.00)

     No symmetry found

   Cartesian axes

     site n.     atom                  positions (alat units)
         1           In1 tau(   1) = (   1.6544016   0.9551692  10.0000000  )
         2           In1 tau(   2) = (   4.9632047   0.9551692  10.0000000  )
         3           In1 tau(   3) = (   3.3088031   3.8206768  10.0000000  )
         4           In1 tau(   4) = (   6.6176063   3.8206768  10.0000000  )
         5           In1 tau(   5) = (   6.6176063   1.9103384  12.7016265  )
         6           In1 tau(   6) = (   3.3088031   1.9103384  12.7016265  )
         7           In1 tau(   7) = (   8.2720078   4.7758460  12.7016265  )
         8           In1 tau(   8) = (   4.9632047   4.7758460  12.7016265  )
         9           In1 tau(   9) = (   0.0000000   0.0000000  15.4032529  )
        10           In1 tau(  10) = (   3.3088031   0.0000000  15.4032529  )
        11           In1 tau(  11) = (   1.6544016   2.8655076  15.4032529  )
        12           In1 tau(  12) = (   4.9632047   2.8655076  15.4032529  )
        13           O1  tau(  13) = (   1.6544016   0.0000000  16.9632529  )
        14           H1  tau(  14) = (   1.6544016   0.0000000  17.9132529  )

     number of k points=    20  Fermi-Dirac smearing, width (Ry)=  0.0110
                       cart. coord. in units 2pi/alat
        k(    1) = (   0.0000000   0.0000000   0.0000000), wk =   0.0555556
        k(    2) = (   0.0000000   0.0290815   0.0000000), wk =   0.1111111
        k(    3) = (   0.0000000   0.0581631   0.0000000), wk =   0.1111111
        k(    4) = (   0.0000000  -0.0872446   0.0000000), wk =   0.0555556
        k(    5) = (   0.0251853  -0.0145408   0.0000000), wk =   0.1111111
        k(    6) = (   0.0251853   0.0145408   0.0000000), wk =   0.1111111
        k(    7) = (   0.0251853   0.0436223   0.0000000), wk =   0.1111111
        k(    8) = (   0.0251853  -0.1017853   0.0000000), wk =   0.1111111
        k(    9) = (   0.0251853  -0.0727038   0.0000000), wk =   0.1111111
        k(   10) = (   0.0251853  -0.0436223   0.0000000), wk =   0.1111111
        k(   11) = (   0.0503707  -0.0290815   0.0000000), wk =   0.1111111
        k(   12) = (   0.0503707   0.0000000   0.0000000), wk =   0.1111111
        k(   13) = (   0.0503707   0.0290815   0.0000000), wk =   0.1111111
        k(   14) = (   0.0503707  -0.1163261   0.0000000), wk =   0.1111111
        k(   15) = (   0.0503707  -0.0872446   0.0000000), wk =   0.1111111
        k(   16) = (   0.0503707  -0.0581631   0.0000000), wk =   0.1111111
        k(   17) = (  -0.0755560   0.0436223   0.0000000), wk =   0.0555556
        k(   18) = (  -0.0755560   0.0727038   0.0000000), wk =   0.1111111
        k(   19) = (  -0.0755560   0.1017853   0.0000000), wk =   0.1111111
        k(   20) = (  -0.0755560  -0.0436223   0.0000000), wk =   0.0555556

     Largest allocated arrays     est. size (Mb)     dimensions
     Largest temporary arrays     est. size (Mb)     dimensions

     Initial potential from superposition of free atoms
     Check: negative starting charge=   -0.000338

     starting charge  144.99998, renormalised to  163.00000

     negative rho (up, down):  3.796E-04 0.000E+00

     *
     * You are using vdW-DF for exchange-correlation in this calculation.
     * Please cite the following three references that made this development
     * possible:
     *
     *   M. Dion, H. Rydberg, E. Schroder, D. C. Langreth, and
     *   B. I. Lundqvist, Phys. Rev. Lett. 92, 246401 (2004).
     *
     *   T. Thonhauser, V. R. Cooper, S. Li, A. Puzder, P. Hyldgaard, and
     *   D. C. Langreth, Phys. Rev. B 76, 125112 (2007).
     *
     *   G. Roman-Perez and J. M. Soler, Phys. Rev. Lett. 103, 096102 (2009).
     *
     *
     * If you are using vdW-DF2, please also cite:
     *
     *   K. Lee, E. D. Murray, L. Kong, B. I. Lundqvist, and
     *   D. C. Langreth, Phys. Rev. B 82, 081101(R) (2010).
     *
     *
     * If you are calculating the stress with vdW-DF, please also cite:
     *
     *   R. Sabatini, E. Kucukbenli, B. Kolb, T. Thonhauser, and
     *   S. de Gironcoli, J. Phys.: Condens. Matter 24, 424209 (2012).
     *

     Carrying out vdW-DF run using the following parameters:

     Nqs =      20    Nr_points =    1024   r_max =   100.000
     q_mesh =
               0.00001000     0.04494208     0.09755937     0.15916263
               0.23128650     0.31572767     0.41458969     0.53033537
               0.66584808     0.82450364     1.01025438     1.22772762
               1.48234092     1.78043706     2.12944203     2.53805004
               3.01644009     3.57652955     4.23227104     5.00000000

     Gradients computed in reciprocal space

     Adding external electric field

     Computed dipole along edir(3) :
        Dipole               -7.2208 Ry au,        -18.3534 Debye
        Dipole field         -0.0140 Ry au

        Potential amp.        1.3065 Ry
        Total length         46.8051 bohr

     Starting wfc are  113 randomized atomic wfcs

     Self-consistent Calculation

     iteration #  1     ecut=    36.75 Ry     beta=0.30
     Davidson diagonalization with overlap
     ethr =  1.00E-02,  avg # of iterations =  8.5

[...]

     total energy              =    -782.18789514 Ry
     Harris-Foulkes estimate   =   -1619.25579297 Ry
     estimated scf accuracy    <    1786.84298019 Ry

[...]

     iteration #  4     ecut=    36.75 Ry     beta=0.30
     Davidson diagonalization with overlap
     c_bands:  2 eigenvalues not converged
     c_bands:  1 eigenvalues not converged
     c_bands:  1 eigenvalues not converged
     ethr =  1.00E-02,  avg # of iterations = 17.8

[...]

     End of self-consistent calculation

          k = 0.0000 0.0000 0.0000 ( 24345 PWs)   bands (ev):

   -19.1862 -14.3627 -14.3624 -14.3609 -14.2801 -14.2741 -14.2680 -14.2661
   -14.2614 -14.2605 -14.2402 -14.2281 -14.2252 -14.2244 -14.1979 -14.1871
   -14.1758 -14.1747 -14.1689 -14.1678 -14.1640 -14.1552 -14.1445 -14.1370
   -14.1365 -14.1323 -14.1287 -14.1217 -14.1203 -14.1172 -14.1092 -14.0246
   -14.0118 -13.9968 -13.9946 -13.9941 -13.9616 -13.9587 -13.9469 -13.9454
   -13.9398 -13.9108 -13.9057 -13.9030 -13.9008 -13.8984 -13.8953 -13.8881
   -13.8853 -13.8627 -13.8615 -13.8572 -13.8567 -13.8531 -13.8513 -13.8430
   -13.8259 -13.8195 -13.8145 -13.8092 -13.8081  -8.4478  -7.4984  -6.4148
    -4.6324  -4.1858  -3.5760  -3.5287  -3.4711  -3.3021  -3.1648  -2.8971
    -2.7910  -1.9980  -1.8462  -1.7981  -1.5971  -1.4229  -1.4103  -1.0789
    -0.1107   0.0329   0.0515   0.3977   0.5498   0.7775   1.7293   3.3094
     3.4751   3.5013   3.5316

[...]

          k =-0.0756 0.0436 0.0000 ( 24448 PWs)   bands (ev):

[...]

     the Fermi energy is     0.8214 ev

!    total energy              =   -1651.09497714 Ry
     Harris-Foulkes estimate   =   -1651.09497820 Ry
     estimated scf accuracy    <       0.00000300 Ry

     The total energy is the sum of the following terms:

     one-electron contribution =   -9544.38557490 Ry
     hartree contribution      =    4855.92512114 Ry
     xc contribution           =    -478.04141655 Ry
     ewald contribution        =    3515.44470590 Ry
     electric field correction =       0.00004186 Ry
     smearing contrib. (-TS)   =      -0.03785459 Ry

     convergence has been achieved in  31 iterations

 BEEF-vdW xc energy contributions
           1 :   -418.585376519174
           2 :    382.316674909475
           3 :   -321.155154819455
           4 :    252.372699055715
           5 :   -191.668024415845
           6 :    147.502382003400
           7 :   -119.551057571374
           8 :    101.360249447802
           9 :   -85.2696242199805
          10 :    66.7414969342307
          11 :   -45.9717312652177
          12 :    26.4576998314246
          13 :   -11.9603034600506
          14 :    3.95012017970123
          15 :  -0.965063712380243
          16 :  -0.106800325206905
          17 :    1.97541256525767
          18 :   -5.54164527771479
          19 :    9.86599086104002
          20 :   -13.2552241904581
          21 :    14.5677596451893
          22 :   -13.8814855783512
          23 :    12.2343012849649
          24 :   -10.8052061699222
          25 :    10.1900143019278
          26 :   -10.2244027051754
          27 :    10.3385315638851
          28 :   -10.0716600320106
          29 :    9.34900437569843
          30 :   -8.39449792679409
          31 :   -38.1376280278488
          32 :   -27.6423571961736

     Forces acting on atoms (Ry/au):

     negative rho (up, down):  1.226E-03 0.000E+00
     atom    1 type  1   force =    -0.00000301    0.00087813   -0.01144255
     atom    2 type  1   force =    -0.00000027   -0.00019634   -0.01000895
     atom    3 type  1   force =    -0.00025200   -0.00028862   -0.01092537
     atom    4 type  1   force =     0.00025167   -0.00028359   -0.01093502
     atom    5 type  1   force =     0.00021866    0.00103231   -0.00035789
     atom    6 type  1   force =    -0.00021851    0.00103032   -0.00035375
     atom    7 type  1   force =    -0.00000126   -0.00305415   -0.00506547
     atom    8 type  1   force =     0.00000255   -0.00103804    0.00297657
     atom    9 type  1   force =    -0.01616395   -0.00025002    0.00977059
     atom   10 type  1   force =     0.01616409   -0.00024697    0.00977048
     atom   11 type  1   force =     0.00000352    0.00718847    0.00767278
     atom   12 type  1   force =    -0.00000007   -0.00617435    0.00732046
     atom   13 type  2   force =    -0.00000078    0.00100231   -0.04464335
     atom   14 type  3   force =    -0.00000063    0.00040054    0.05622149

     Total force =     0.077916     Total SCF correction =     0.004921

     entering subroutine stress ...

     negative rho (up, down):  1.226E-03 0.000E+00
          total   stress  (Ry/bohr**3)                   (kbar)     P=   10.79
   0.00006792  -0.00000000  -0.00000000          9.99     -0.00     -0.00
  -0.00000000   0.00006524   0.00000223         -0.00      9.60      0.33
  -0.00000000   0.00000223   0.00008686         -0.00      0.33     12.78

     BFGS Geometry Optimization

     number of scf cycles    =   1
     number of bfgs steps    =   0

     energy   new            =   -1651.0949771414 Ry

     new trust radius        =       0.0562229149 bohr
     new conv_thr            =       0.0000099958 Ry

ATOMIC_POSITIONS (crystal)
In1      0.166666667   0.166666667   0.393650374    0   0   0
In1      0.666666667   0.166666667   0.393650374    0   0   0
In1      0.166666667   0.666666667   0.393650374    0   0   0
In1      0.666666667   0.666666667   0.393650374    0   0   0
In1      0.833333333   0.333333333   0.500000000    0   0   0
In1      0.333333333   0.333333333   0.500000000    0   0   0
In1      0.833333333   0.833333333   0.500000000    0   0   0
In1      0.333333333   0.833333333   0.500000000    0   0   0
In1     -0.001281008  -0.000023086   0.606553158
In1      0.501303964  -0.000022805   0.606553156
In1     -0.000331595   0.500663753   0.606509458
In1      0.500285051   0.499429887   0.606502119
O1       0.249953663   0.000092549   0.666829115
H1       0.249981457   0.000036984   0.706327024

     Writing output data file calc.save
     Check: negative starting charge=   -0.000338
     NEW-OLD atomic charge density approx. for the potential
     Check: negative starting charge=   -0.000334

[...]

     energy   old            =   -1651.0949771415 Ry
     energy   new            =   -1651.0953289978 Ry

     CASE: energy  _new < energy  _old

[...]

     iteration #  1     ecut=    36.75 Ry     beta=0.30
     Davidson diagonalization with overlap
     c_bands:  1 eigenvalues not converged
     ethr =  1.00E-06,  avg # of iterations = 15.2

[...]

     Total force =     0.004785     Total SCF correction =     0.001105
     SCF correction compared to forces is large: reduce conv_thr to get better values

[...]

     Threshold (ethr) on eigenvalues was too large:
     Diagonalizing with lowered threshold

     Davidson diagonalization with overlap
     ethr =  1.21E-08,  avg # of iterations =  2.2

[...]

     Threshold (ethr) on eigenvalues was too large:
     Diagonalizing with lowered threshold

     Davidson diagonalization with overlap
     ethr =  9.17E-08,  avg # of iterations =  1.0

[...]

     Total force =     0.007774     Total SCF correction =     0.000733

[...]

     number of scf cycles    =  39
     number of bfgs steps    =  38

     energy   old            =   -1651.1142835903 Ry
     energy   new            =   -1651.1143492606 Ry

     CASE: energy  _new < energy  _old

     new trust radius        =       0.0483864530 bohr
     new conv_thr            =       0.0000001000 Ry

ATOMIC_POSITIONS (crystal)
In1      0.166666667   0.166666667   0.393650374    0   0   0
In1      0.666666667   0.166666667   0.393650374    0   0   0
In1      0.166666667   0.666666667   0.393650374    0   0   0
In1      0.666666667   0.666666667   0.393650374    0   0   0
In1      0.833333333   0.333333333   0.500000000    0   0   0
In1      0.333333333   0.333333333   0.500000000    0   0   0
In1      0.833333333   0.833333333   0.500000000    0   0   0
In1      0.333333333   0.833333333   0.500000000    0   0   0
In1     -0.003663441   0.007205552   0.627194841
In1      0.496457716   0.007205897   0.627194899
In1     -0.005781203   0.511562913   0.608459044
In1      0.497983800   0.504032355   0.609411115
O1       0.214078640   0.071843164   0.690381603
H1       0.264562915  -0.029125920   0.721321046

     Writing output data file calc.save
     Check: negative starting charge=   -0.000329
     NEW-OLD atomic charge density approx. for the potential
     Check: negative starting charge=   -0.000330

[...]

     Self-consistent Calculation

[...]

     total energy              =   -1651.11439537 Ry
     Harris-Foulkes estimate   =   -1651.11439509 Ry
     estimated scf accuracy    <       0.00000056 Ry

     iteration #  7     ecut=    36.75 Ry     beta=0.30
     Davidson diagonalization with overlap
     ethr =  3.42E-10,  avg # of iterations =  2.1

[...]

     negative rho (up, down):  1.160E-03 0.000E+00

     Adding external electric field

     Computed dipole along edir(3) :
        Dipole                0.0300 Ry au,          0.0763 Debye
        Dipole field          0.0001 Ry au

        Potential amp.       -0.0054 Ry
        Total length         46.8051 bohr

     End of self-consistent calculation

[...]

          k = 0.0504-0.0582 0.0000 ( 24479 PWs)   bands (ev):

[...]

          k =-0.0756-0.0436 0.0000 ( 24448 PWs)   bands (ev):

   -18.8680 -14.3752 -14.3711 -14.3265 -14.3229 -14.3155 -14.3111 -14.3052
   -14.3044 -14.2773 -14.2757 -14.2662 -14.2642 -14.2561 -14.2531 -14.2445
   -14.2390 -14.2289 -14.2278 -14.2121 -14.2103 -14.2002 -14.1984 -14.1904
   -14.1872 -14.1827 -14.1796 -14.1643 -14.1596 -14.1483 -14.1440 -14.1346
   -14.1317 -14.1210 -14.1194 -14.1168 -14.1132 -14.1098 -14.0959 -14.0916
   -14.0863 -14.0840 -14.0795 -14.0784 -14.0769 -14.0723 -14.0654 -14.0609
   -14.0539 -14.0525 -14.0462 -14.0410 -14.0313 -14.0123 -14.0099 -14.0032
   -13.9986 -13.9836 -13.9664 -13.9576 -13.9503  -7.1214  -7.0382  -6.6842
    -5.8040  -5.3596  -4.5721  -4.4706  -4.2607  -3.8752  -3.5372  -3.1725
    -2.6209  -2.2675  -1.5259  -1.3216  -0.0840  -0.0532   0.3991   0.4353
     0.8739   0.9054   1.6819   1.7953   1.8447   1.9741   2.3497   2.6133
     2.7770   2.9912   3.1749

     the Fermi energy is     0.7112 ev

!    total energy              =   -1651.11439548 Ry
     Harris-Foulkes estimate   =   -1651.11439541 Ry
     estimated scf accuracy    <       0.00000009 Ry

     The total energy is the sum of the following terms:

     one-electron contribution =   -9063.36507170 Ry
     hartree contribution      =    4614.90426225 Ry
     xc contribution           =    -477.83050378 Ry
     ewald contribution        =    3275.21392596 Ry
     electric field correction =       0.00000174 Ry
     smearing contrib. (-TS)   =      -0.03700995 Ry

     convergence has been achieved in   7 iterations

 BEEF-vdW xc energy contributions
           1 :   -418.362274921301
           2 :    381.953727854003
           3 :   -320.632553925252
           4 :    251.803349344553
           5 :   -191.212917989507
           6 :    147.263473189272
           7 :   -119.510896418735
           8 :    101.402857908978
           9 :   -85.2619778692650
          10 :    66.6174194381400
          11 :   -45.7638096219375
          12 :    26.2614433291000
          13 :   -11.8617162579997
          14 :    3.97038493366364
          15 :   -1.05827152665375
          16 :  -9.157569547426192E-003
          17 :    1.91438605370968
          18 :   -5.51244484898319
          19 :    9.83764812644625
          20 :   -13.2068558146503
          21 :    14.5104388688795
          22 :   -13.8479884918982
          23 :    12.2466509676948
          24 :   -10.8488729955011
          25 :    10.2190616882401
          26 :   -10.1965975291823
          27 :    10.2519285337104
          28 :   -9.96976946028889
          29 :    9.28896634662846
          30 :   -8.40471882647159
          31 :   -38.1181594634879
          32 :   -27.5859566282293

     Forces acting on atoms (Ry/au):

     negative rho (up, down):  1.160E-03 0.000E+00
     atom    1 type  1   force =     0.00000002    0.00093116   -0.01218157
     atom    2 type  1   force =    -0.00000000   -0.00028824   -0.01083248
     atom    3 type  1   force =    -0.00073624   -0.00012346   -0.01191285
     atom    4 type  1   force =     0.00073622   -0.00012345   -0.01191286
     atom    5 type  1   force =    -0.00110491   -0.00339586    0.01020921
     atom    6 type  1   force =     0.00110491   -0.00339589    0.01020915
     atom    7 type  1   force =     0.00000001    0.00234391    0.01006498
     atom    8 type  1   force =     0.00000000    0.00353033    0.01537204
     atom    9 type  1   force =    -0.00042870    0.00067477    0.00025212
     atom   10 type  1   force =     0.00042886    0.00067447    0.00025205
     atom   11 type  1   force =    -0.00000022    0.00142377    0.00127496
     atom   12 type  1   force =     0.00000020   -0.00004200   -0.00066851
     atom   13 type  2   force =    -0.00000025   -0.00173582   -0.00078145
     atom   14 type  3   force =     0.00000010   -0.00047369    0.00065520

     Total force =     0.003128     Total SCF correction =     0.001154
     SCF correction compared to forces is large: reduce conv_thr to get better values

     entering subroutine stress ...

     negative rho (up, down):  1.160E-03 0.000E+00
          total   stress  (Ry/bohr**3)                   (kbar)     P=    4.56
   0.00003194  -0.00000000  -0.00000000          4.70     -0.00     -0.00
  -0.00000000   0.00003027  -0.00000105         -0.00      4.45     -0.15
  -0.00000000  -0.00000105   0.00003085         -0.00     -0.15      4.54

     bfgs converged in  40 scf cycles and  39 bfgs steps
     (criteria: energy <  1.0E+00, force <  1.9E-03)

     End of BFGS Geometry Optimization

     Final energy   =   -1651.1143954764 Ry
Begin final coordinates

ATOMIC_POSITIONS (crystal)
In1      0.166666667   0.166666667   0.393650374    0   0   0
In1      0.666666667   0.166666667   0.393650374    0   0   0
In1      0.166666667   0.666666667   0.393650374    0   0   0
In1      0.666666667   0.666666667   0.393650374    0   0   0
In1      0.833333333   0.333333333   0.500000000    0   0   0
In1      0.333333333   0.333333333   0.500000000    0   0   0
In1      0.833333333   0.833333333   0.500000000    0   0   0
In1      0.333333333   0.833333333   0.500000000    0   0   0
In1     -0.003663441   0.007205552   0.627194841
In1      0.496457716   0.007205897   0.627194899
In1     -0.005781203   0.511562913   0.608459044
In1      0.497983800   0.504032355   0.609411115
O1       0.214078640   0.071843164   0.690381603
H1       0.264562915  -0.029125920   0.721321046
End final coordinates

     Writing output data file calc.save

     General routines

     Parallel routines

   This run was terminated on:  10:53:21  18Apr2018

   JOB DONE.