     Program PWSCF v.5.1rc2 (svn rev. 11289) starts on 24Jan2018 at  4:28:58

     Current dimensions of program PWSCF are:
     Max number of different atomic species (ntypx) = 10
     Max number of k-points (npk) =  40000
     Max angular momentum in pseudopotentials (lmaxx) =  3
     Presently stress not available with electric field

     IMPORTANT: XC functional enforced from input :
     Exchange-correlation      = BEEF-VDW ( 1  4 27 13 2)
     Any further DFT definition will be discarded
     Please, verify this is what you really want

     Subspace diagonalization in iterative solution of the eigenvalue problem:
     a serial algorithm will be used

     bravais-lattice index     =            0
     lattice parameter (alat)  =       1.8897  a.u.
     unit-cell volume          =    4806.0858 (a.u.)^3
     number of atoms/cell      =           13
     number of atomic types    =            2
     number of electrons       =       150.00
     number of Kohn-Sham states=           85
     kinetic-energy cutoff     =      36.7493  Ry
     charge density cutoff     =     367.4932  Ry
     convergence threshold     =      1.0E-05
     mixing beta               =       0.3000
     number of iterations used =           10  plain     mixing
     Exchange-correlation      = BEEF-VDW ( 1  4 27 13 2)
     nstep                     =           50

     celldm(1)=   1.889726  celldm(2)=   0.000000  celldm(3)=   0.000000
     celldm(4)=   0.000000  celldm(5)=   0.000000  celldm(6)=   0.000000

     crystal axes: (cart. coord. in units of alat)
               a(1) = (   5.768903   0.000000   0.000000 )
               a(2) = (   2.884451   4.996016   0.000000 )
               a(3) = (   0.000000   0.000000  24.710289 )

     reciprocal axes: (cart. coord. in units 2 pi/alat)
               b(1) = (  0.173343 -0.100080  0.000000 )
               b(2) = (  0.000000  0.200159  0.000000 )
               b(3) = (  0.000000  0.000000  0.040469 )

     PseudoPot. # 1 for Ti read from file:
     /afs/slac.stanford.edu/u/if/mamunm/psp/gbrv1.5pbe/Ti.UPF
     MD5 check sum: 88a00a6731bd790ddea75d31a80cb452
     Pseudo is Ultrasoft + core correction, Zval = 12.0
     Generated by new atomic code, or converted to UPF format
     Using radial grid of  851 points,  6 beta functions with:
                l(1) =   0
                l(2) =   0
                l(3) =   1
                l(4) =   1
                l(5) =   2
                l(6) =   2
     Q(r) pseudized with  6 coefficients,  rinner =    1.000   1.000   1.000
                                                       1.000   1.000

     PseudoPot. # 2 for S  read from file:
     /afs/slac.stanford.edu/u/if/mamunm/psp/gbrv1.5pbe/S.UPF
     MD5 check sum: 88d86576ff6df21479756cfb9bdac1df
     Pseudo is Ultrasoft + core correction, Zval =  6.0
     Generated by new atomic code, or converted to UPF format
     Using radial grid of  907 points,  6 beta functions with:
                l(1) =   0
                l(2) =   0
                l(3) =   1
                l(4) =   1
                l(5) =   2
                l(6) =   2
     Q(r) pseudized with  8 coefficients,  rinner =    1.300   1.300   1.300
                                                       1.300   1.300

     vdW kernel table read from file vdW_kernel_table
     MD5 check sum: 095c7af220d748ca6e76c0b4c6cfb241

     atomic species   valence    mass     pseudopotential
        Ti1           12.00    47.86700     Ti( 1.00)
        S1             6.00    32.06000     S ( 1.00)

     No symmetry found

   Cartesian axes

     site n.     atom                  positions (alat units)
         1           Ti1 tau(   1) = (   1.4422257   0.8326694  10.0000000  )
         2           Ti1 tau(   2) = (   4.3266771   0.8326694  10.0000000  )
         3           Ti1 tau(   3) = (   2.8844514   3.3306776  10.0000000  )
         4           Ti1 tau(   4) = (   5.7689029   3.3306776  10.0000000  )
         5           Ti1 tau(   5) = (   5.7689029   1.6653388  12.3551447  )
         6           Ti1 tau(   6) = (   2.8844514   1.6653388  12.3551447  )
         7           Ti1 tau(   7) = (   7.2111286   4.1633470  12.3551447  )
         8           Ti1 tau(   8) = (   4.3266771   4.1633470  12.3551447  )
         9           Ti1 tau(   9) = (   0.0000000   0.0000000  14.7102895  )
        10           Ti1 tau(  10) = (   2.8844514   0.0000000  14.7102895  )
        11           Ti1 tau(  11) = (   1.4422257   2.4980082  14.7102895  )
        12           Ti1 tau(  12) = (   4.3266771   2.4980082  14.7102895  )
        13           S1  tau(  13) = (   2.8844514   1.6653388  17.3602895  )

     number of k points=    20  Fermi-Dirac smearing, width (Ry)=  0.0110
                       cart. coord. in units 2pi/alat
        k(    1) = (   0.0000000   0.0000000   0.0000000), wk =   0.0555556
        k(    2) = (   0.0000000   0.0333599   0.0000000), wk =   0.1111111
        k(    3) = (   0.0000000   0.0667198   0.0000000), wk =   0.1111111
        k(    4) = (   0.0000000  -0.1000797   0.0000000), wk =   0.0555556
        k(    5) = (   0.0288905  -0.0166800   0.0000000), wk =   0.1111111
        k(    6) = (   0.0288905   0.0166800   0.0000000), wk =   0.1111111
        k(    7) = (   0.0288905   0.0500399   0.0000000), wk =   0.1111111
        k(    8) = (   0.0288905  -0.1167597   0.0000000), wk =   0.1111111
        k(    9) = (   0.0288905  -0.0833998   0.0000000), wk =   0.1111111
        k(   10) = (   0.0288905  -0.0500399   0.0000000), wk =   0.1111111
        k(   11) = (   0.0577811  -0.0333599   0.0000000), wk =   0.1111111
        k(   12) = (   0.0577811  -0.0000000   0.0000000), wk =   0.1111111
        k(   13) = (   0.0577811   0.0333599   0.0000000), wk =   0.1111111
        k(   14) = (   0.0577811  -0.1334396   0.0000000), wk =   0.1111111
        k(   15) = (   0.0577811  -0.1000797   0.0000000), wk =   0.1111111
        k(   16) = (   0.0577811  -0.0667198   0.0000000), wk =   0.1111111
        k(   17) = (  -0.0866716   0.0500399   0.0000000), wk =   0.0555556
        k(   18) = (  -0.0866716   0.0833998   0.0000000), wk =   0.1111111
        k(   19) = (  -0.0866716   0.1167597   0.0000000), wk =   0.1111111
        k(   20) = (  -0.0866716  -0.0500399   0.0000000), wk =   0.0555556

     Largest allocated arrays     est. size (Mb)     dimensions
     Largest temporary arrays     est. size (Mb)     dimensions

     Check: negative/imaginary core charge=   -0.000006    0.000000

     Initial potential from superposition of free atoms
     Check: negative starting charge=   -0.012631

     starting charge  137.99943, renormalised to  150.00000

     negative rho (up, down):  1.373E-02 0.000E+00

     *
     * You are using vdW-DF for exchange-correlation in this calculation.
     * Please cite the following three references that made this development
     * possible:
     *
     *   M. Dion, H. Rydberg, E. Schroder, D. C. Langreth, and
     *   B. I. Lundqvist, Phys. Rev. Lett. 92, 246401 (2004).
     *
     *   T. Thonhauser, V. R. Cooper, S. Li, A. Puzder, P. Hyldgaard, and
     *   D. C. Langreth, Phys. Rev. B 76, 125112 (2007).
     *
     *   G. Roman-Perez and J. M. Soler, Phys. Rev. Lett. 103, 096102 (2009).
     *
     *
     * If you are using vdW-DF2, please also cite:
     *
     *   K. Lee, E. D. Murray, L. Kong, B. I. Lundqvist, and
     *   D. C. Langreth, Phys. Rev. B 82, 081101(R) (2010).
     *
     *
     * If you are calculating the stress with vdW-DF, please also cite:
     *
     *   R. Sabatini, E. Kucukbenli, B. Kolb, T. Thonhauser, and
     *   S. de Gironcoli, J. Phys.: Condens. Matter 24, 424209 (2012).
     *

     Carrying out vdW-DF run using the following parameters:

     Nqs =      20    Nr_points =    1024   r_max =   100.000
     q_mesh =
               0.00001000     0.04494208     0.09755937     0.15916263
               0.23128650     0.31572767     0.41458969     0.53033537
               0.66584808     0.82450364     1.01025438     1.22772762
               1.48234092     1.78043706     2.12944203     2.53805004
               3.01644009     3.57652955     4.23227104     5.00000000

     Gradients computed in reciprocal space

     Adding external electric field

     Computed dipole along edir(3) :
        Dipole               -4.9347 Ry au,        -12.5427 Debye
        Dipole field         -0.0129 Ry au

        Potential amp.        1.1749 Ry
        Total length         45.5283 bohr

     Starting wfc are  124 randomized atomic wfcs

     Self-consistent Calculation

     iteration #  1     ecut=    36.75 Ry     beta=0.30
     Davidson diagonalization with overlap
     ethr =  1.00E-02,  avg # of iterations =  6.3

[...]

     total energy              =   -1308.71296639 Ry
     Harris-Foulkes estimate   =   -1466.22086700 Ry
     estimated scf accuracy    <     326.52439196 Ry

[...]

     iteration # 21     ecut=    36.75 Ry     beta=0.30
     Davidson diagonalization with overlap
     c_bands:  1 eigenvalues not converged
     ethr =  7.38E-06,  avg # of iterations =  8.8

[...]

     End of self-consistent calculation

          k = 0.0000 0.0000 0.0000 ( 18103 PWs)   bands (ev):

   -56.7690 -56.6881 -56.6718 -56.6704 -56.6616 -56.5701 -56.5699 -56.5682
   -56.4768 -56.4011 -56.4009 -56.3922 -33.2142 -33.2135 -33.1988 -33.1542
   -33.1107 -33.1101 -33.1100 -33.0785 -33.0555 -33.0549 -32.9696 -32.9158
   -32.8958 -32.8950 -32.7885 -32.7823 -32.7818 -32.7712 -32.7710 -32.7702
   -32.6910 -32.6909 -32.6909 -32.6564 -32.6562 -32.5963 -32.5961 -32.5942
   -32.5791 -32.5629 -32.5629 -32.5068 -32.4963 -32.4962 -32.3857 -32.3857
   -10.5451  -5.1368  -3.8326  -2.6182  -2.0228  -1.9971  -1.9969  -1.9016
    -1.9015  -1.8864  -1.5416  -1.4881  -1.4879  -1.2428  -1.2107  -1.2107
    -1.0773  -0.7294  -0.7292  -0.4117  -0.4034  -0.4034   0.2429   0.5189
     0.5714   0.5715   0.6807   0.8357   0.8862   0.9780   0.9783   1.0900
     1.0901   1.2765   1.2771   1.3073   1.3133

[...]

          k =-0.0867 0.0500 0.0000 ( 18044 PWs)   bands (ev):

[...]

     the Fermi energy is     0.3416 ev

!    total energy              =   -1462.99598306 Ry
     Harris-Foulkes estimate   =   -1462.99595560 Ry
     estimated scf accuracy    <       0.00000823 Ry

     The total energy is the sum of the following terms:

     one-electron contribution =  -10987.91720339 Ry
     hartree contribution      =    5479.41599210 Ry
     xc contribution           =    -233.40838619 Ry
     ewald contribution        =    4279.04459157 Ry
     electric field correction =       0.00078987 Ry
     smearing contrib. (-TS)   =      -0.13176701 Ry

     convergence has been achieved in  34 iterations

 BEEF-vdW xc energy contributions
           1 :   -200.480956798249
           2 :    178.867211121425
           3 :   -143.470212780627
           4 :    105.575064246919
           5 :   -74.3942923573397
           6 :    53.5755131496450
           7 :   -41.2297956109553
           8 :    32.7128269580027
           9 :   -24.0282338007269
          10 :    13.8141300471012
          11 :   -3.19716836119508
          12 :   -5.81175455218954
          13 :    12.0079532348446
[...]

[...]

   This run was terminated on:   6: 7:54  24Jan2018

[...]

     Program PWSCF v.5.1rc2 (svn rev. 11289) starts on 24Jan2018 at  6: 7:59

[...]

     Total force =     0.031921     Total SCF correction =     0.002951

[...]

     iteration # 40     ecut=    36.75 Ry     beta=0.30
     Davidson diagonalization with overlap
     c_bands:  1 eigenvalues not converged
     c_bands:  1 eigenvalues not converged
     ethr =  4.37E-08,  avg # of iterations =  6.7

[...]

     Program PWSCF v.5.1rc2 (svn rev. 11289) starts on 24Jan2018 at  8:48:36

[...]

     Program PWSCF v.5.1rc2 (svn rev. 11289) starts on 24Jan2018 at  9:15: 5

     Current dimensions of program PWSCF are:
     Max number of different atomic species (ntypx) = 10
     Max number of k-points (npk) =  40000
     Max angular momentum in pseudopotentials (lmaxx) =  3
     Presently stress not available with electric field

     IMPORTANT: XC functional enforced from input :
     Exchange-correlation      = BEEF-VDW ( 1  4 27 13 2)
     Any further DFT definition will be discarded
     Please, verify this is what you really want

     Subspace diagonalization in iterative solution of the eigenvalue problem:
     a serial algorithm will be used

     bravais-lattice index     =            0
     lattice parameter (alat)  =       1.8897  a.u.
     unit-cell volume          =    4806.0858 (a.u.)^3
     number of atoms/cell      =           13
     number of atomic types    =            2
     number of electrons       =       150.00
     number of Kohn-Sham states=           85
     kinetic-energy cutoff     =      36.7493  Ry
     charge density cutoff     =     367.4932  Ry
     convergence threshold     =      1.0E-05
     mixing beta               =       0.3000
     number of iterations used =           10  plain     mixing
     Exchange-correlation      = BEEF-VDW ( 1  4 27 13 2)
     nstep                     =           50

     celldm(1)=   1.889726  celldm(2)=   0.000000  celldm(3)=   0.000000
     celldm(4)=   0.000000  celldm(5)=   0.000000  celldm(6)=   0.000000

     crystal axes: (cart. coord. in units of alat)
               a(1) = (   5.768903   0.000000   0.000000 )
               a(2) = (   2.884451   4.996016   0.000000 )
               a(3) = (   0.000000   0.000000  24.710289 )

     reciprocal axes: (cart. coord. in units 2 pi/alat)
               b(1) = (  0.173343 -0.100080  0.000000 )
               b(2) = (  0.000000  0.200159  0.000000 )
               b(3) = (  0.000000  0.000000  0.040469 )

     PseudoPot. # 1 for Ti read from file:
     /afs/slac.stanford.edu/u/if/mamunm/psp/gbrv1.5pbe/Ti.UPF
     MD5 check sum: 88a00a6731bd790ddea75d31a80cb452
     Pseudo is Ultrasoft + core correction, Zval = 12.0
     Generated by new atomic code, or converted to UPF format
     Using radial grid of  851 points,  6 beta functions with:
                l(1) =   0
                l(2) =   0
                l(3) =   1
                l(4) =   1
                l(5) =   2
                l(6) =   2
     Q(r) pseudized with  6 coefficients,  rinner =    1.000   1.000   1.000
                                                       1.000   1.000

     PseudoPot. # 2 for S  read from file:
     /afs/slac.stanford.edu/u/if/mamunm/psp/gbrv1.5pbe/S.UPF
     MD5 check sum: 88d86576ff6df21479756cfb9bdac1df
     Pseudo is Ultrasoft + core correction, Zval =  6.0
     Generated by new atomic code, or converted to UPF format
     Using radial grid of  907 points,  6 beta functions with:
                l(1) =   0
                l(2) =   0
                l(3) =   1
                l(4) =   1
                l(5) =   2
                l(6) =   2
     Q(r) pseudized with  8 coefficients,  rinner =    1.300   1.300   1.300
                                                       1.300   1.300

     vdW kernel table read from file vdW_kernel_table
     MD5 check sum: 095c7af220d748ca6e76c0b4c6cfb241

     atomic species   valence    mass     pseudopotential
        Ti1           12.00    47.86700     Ti( 1.00)
        S1             6.00    32.06000     S ( 1.00)

     No symmetry found

   Cartesian axes

     site n.     atom                  positions (alat units)
         1           Ti1 tau(   1) = (   1.4422257   0.8326694  10.0000000  )
         2           Ti1 tau(   2) = (   4.3266771   0.8326694  10.0000000  )
         3           Ti1 tau(   3) = (   2.8844514   3.3306776  10.0000000  )
         4           Ti1 tau(   4) = (   5.7689029   3.3306776  10.0000000  )
         5           Ti1 tau(   5) = (   5.7689029   1.6653388  12.3551447  )
         6           Ti1 tau(   6) = (   2.8844514   1.6653388  12.3551447  )
         7           Ti1 tau(   7) = (   7.2111286   4.1633470  12.3551447  )
         8           Ti1 tau(   8) = (   4.3266771   4.1633470  12.3551447  )
         9           Ti1 tau(   9) = (   0.0001705   0.0002184  14.5266741  )
        10           Ti1 tau(  10) = (   2.8844166   0.0010634  14.7230656  )
        11           Ti1 tau(  11) = (   1.4431400   2.4974218  14.7230201  )
        12           Ti1 tau(  12) = (   4.3258681   2.4974015  14.7230767  )
        13           S1  tau(  13) = (   2.8843743   1.6651548  16.4738359  )

     number of k points=    20  Fermi-Dirac smearing, width (Ry)=  0.0110
                       cart. coord. in units 2pi/alat
        k(    1) = (   0.0000000   0.0000000   0.0000000), wk =   0.0555556
        k(    2) = (   0.0000000   0.0333599   0.0000000), wk =   0.1111111
        k(    3) = (   0.0000000   0.0667198   0.0000000), wk =   0.1111111
        k(    4) = (   0.0000000  -0.1000797   0.0000000), wk =   0.0555556
        k(    5) = (   0.0288905  -0.0166800   0.0000000), wk =   0.1111111
        k(    6) = (   0.0288905   0.0166800   0.0000000), wk =   0.1111111
        k(    7) = (   0.0288905   0.0500399   0.0000000), wk =   0.1111111
        k(    8) = (   0.0288905  -0.1167597   0.0000000), wk =   0.1111111
        k(    9) = (   0.0288905  -0.0833998   0.0000000), wk =   0.1111111
        k(   10) = (   0.0288905  -0.0500399   0.0000000), wk =   0.1111111
        k(   11) = (   0.0577811  -0.0333599   0.0000000), wk =   0.1111111
        k(   12) = (   0.0577811  -0.0000000   0.0000000), wk =   0.1111111
        k(   13) = (   0.0577811   0.0333599   0.0000000), wk =   0.1111111
        k(   14) = (   0.0577811  -0.1334396   0.0000000), wk =   0.1111111
        k(   15) = (   0.0577811  -0.1000797   0.0000000), wk =   0.1111111
        k(   16) = (   0.0577811  -0.0667198   0.0000000), wk =   0.1111111
        k(   17) = (  -0.0866716   0.0500399   0.0000000), wk =   0.0555556
        k(   18) = (  -0.0866716   0.0833998   0.0000000), wk =   0.1111111
        k(   19) = (  -0.0866716   0.1167597   0.0000000), wk =   0.1111111
        k(   20) = (  -0.0866716  -0.0500399   0.0000000), wk =   0.0555556

     Largest allocated arrays     est. size (Mb)     dimensions
     Largest temporary arrays     est. size (Mb)     dimensions

     Check: negative/imaginary core charge=   -0.000006    0.000000

     Initial potential from superposition of free atoms
     Check: negative starting charge=   -0.012618

     starting charge  137.99943, renormalised to  150.00000

[...]

     *
     * You are using vdW-DF for exchange-correlation in this calculation.
     * Please cite the following three references that made this development
     * possible:
     *
     *   M. Dion, H. Rydberg, E. Schroder, D. C. Langreth, and
     *   B. I. Lundqvist, Phys. Rev. Lett. 92, 246401 (2004).
     *
     *   T. Thonhauser, V. R. Cooper, S. Li, A. Puzder, P. Hyldgaard, and
     *   D. C. Langreth, Phys. Rev. B 76, 125112 (2007).
     *
     *   G. Roman-Perez and J. M. Soler, Phys. Rev. Lett. 103, 096102 (2009).
     *
     *
     * If you are using vdW-DF2, please also cite:
     *
     *   K. Lee, E. D. Murray, L. Kong, B. I. Lundqvist, and
     *   D. C. Langreth, Phys. Rev. B 82, 081101(R) (2010).
     *
     *
     * If you are calculating the stress with vdW-DF, please also cite:
     *
     *   R. Sabatini, E. Kucukbenli, B. Kolb, T. Thonhauser, and
     *   S. de Gironcoli, J. Phys.: Condens. Matter 24, 424209 (2012).
     *

     Carrying out vdW-DF run using the following parameters:

     Nqs =      20    Nr_points =    1024   r_max =   100.000
     q_mesh =
               0.00001000     0.04494208     0.09755937     0.15916263
               0.23128650     0.31572767     0.41458969     0.53033537
               0.66584808     0.82450364     1.01025438     1.22772762
               1.48234092     1.78043706     2.12944203     2.53805004
               3.01644009     3.57652955     4.23227104     5.00000000

     Gradients computed in reciprocal space

[...]

     Starting wfc are  124 randomized atomic wfcs

     Self-consistent Calculation

[...]

     total energy              =   -1463.17995554 Ry
     Harris-Foulkes estimate   =   -1463.17995594 Ry
     estimated scf accuracy    <       0.00001304 Ry

     iteration # 45     ecut=    36.75 Ry     beta=0.30
     Davidson diagonalization with overlap
     ethr =  7.66E-09,  avg # of iterations =  1.1

[...]

     negative rho (up, down):  8.469E-03 0.000E+00

     Adding external electric field

     Computed dipole along edir(3) :
        Dipole               -0.1359 Ry au,         -0.3453 Debye
        Dipole field         -0.0004 Ry au

        Potential amp.        0.0323 Ry
        Total length         45.5283 bohr

     End of self-consistent calculation

[...]

          k = 0.0578-0.0667 0.0000 ( 18031 PWs)   bands (ev):

[...]

          k =-0.0867-0.0500 0.0000 ( 18044 PWs)   bands (ev):

   -56.1265 -56.1174 -56.1148 -56.1083 -56.0795 -56.0709 -56.0691 -56.0223
   -55.9023 -55.8927 -55.8607 -55.8578 -32.5410 -32.5339 -32.5290 -32.5119
   -32.5014 -32.4886 -32.4554 -32.4406 -32.4267 -32.4189 -32.3943 -32.3847
   -32.3625 -32.3419 -32.3361 -32.3232 -32.3173 -32.2980 -32.2970 -32.2622
   -32.1926 -32.1572 -32.1364 -32.1321 -32.1261 -32.1221 -32.0894 -32.0833
   -32.0632 -32.0543 -32.0379 -32.0231 -32.0143 -31.9987 -31.9138 -31.8944
   -11.8361  -3.3410  -3.1793  -2.6550  -2.6333  -2.5815  -1.7004  -1.5277
    -1.0697  -1.0631  -0.8166  -0.8135  -0.7433  -0.6376  -0.1427  -0.1358
    -0.0349  -0.0341   0.0483   0.0995   0.3594   0.4084   0.4094   0.4358
     0.5341   0.5546   0.6795   0.7643   0.8142   0.8327   0.8733   0.9080
     1.0659   1.0880   1.2352   1.2519   1.5061

     the Fermi energy is     0.8376 ev

!    total energy              =   -1463.17994988 Ry
     Harris-Foulkes estimate   =   -1463.17995850 Ry
     estimated scf accuracy    <       0.00000701 Ry

     The total energy is the sum of the following terms:

     one-electron contribution =  -11263.90447925 Ry
     hartree contribution      =    5619.57585738 Ry
     xc contribution           =    -233.82492779 Ry
     ewald contribution        =    4415.10162074 Ry
     electric field correction =       0.00004826 Ry
     smearing contrib. (-TS)   =      -0.12806923 Ry

     convergence has been achieved in  45 iterations

 BEEF-vdW xc energy contributions
           1 :   -200.903566469815
           2 :    179.444507484795
           3 :   -144.184047922684
           4 :    106.252475205463
           5 :   -74.8666332313047
           6 :    53.8049594416706
           7 :   -41.3064424409794
           8 :    32.7511828766685
           9 :   -24.0704681818895
          10 :    13.8195033830933
          11 :   -3.10737906029323
          12 :   -6.00203054113092
          13 :    12.2338820788767
          14 :   -15.8553642677875
          15 :    18.1675425760537
          16 :   -20.3537661344193
          17 :    22.6110407756505
          18 :   -24.1553080388034
          19 :    23.9817480894403
          20 :   -21.7314751277972
          21 :    17.9973363033193
          22 :   -13.8931375214216
          23 :    10.2774918613815
          24 :   -7.25076159125445
          25 :    4.26973655528553
          26 :  -0.730544062029026
          27 :   -3.46586484723238
          28 :    7.78099486489310
          29 :   -11.3964134538647
          30 :    13.7527610727693
          31 :   -21.4446531683880
          32 :   -15.2622337030360

     Forces acting on atoms (Ry/au):

     negative rho (up, down):  8.469E-03 0.000E+00
     atom    1 type  1   force =    -0.00005751   -0.00003250    0.00843393
     atom    2 type  1   force =     0.00005363   -0.00003148    0.00847474
     atom    3 type  1   force =     0.00000204    0.00006363    0.00849425
     atom    4 type  1   force =    -0.00000526    0.00000117    0.00689010
     atom    5 type  1   force =     0.00001135    0.00644121   -0.01130079
     atom    6 type  1   force =    -0.00001753   -0.00001999   -0.00043088
     atom    7 type  1   force =    -0.00557263   -0.00320880   -0.01126633
     atom    8 type  1   force =     0.00557733   -0.00320717   -0.01129333
     atom    9 type  1   force =    -0.00001257   -0.00002912    0.00185128
     atom   10 type  1   force =     0.00000157    0.00037496    0.00029952
     atom   11 type  1   force =     0.00032987   -0.00018258    0.00032293
     atom   12 type  1   force =    -0.00035729   -0.00018469    0.00030731
     atom   13 type  2   force =     0.00004700    0.00001538   -0.00078275

     Total force =     0.027820     Total SCF correction =     0.007554
     SCF correction compared to forces is large: reduce conv_thr to get better values

     entering subroutine stress ...

     negative rho (up, down):  8.469E-03 0.000E+00
          total   stress  (Ry/bohr**3)                   (kbar)     P=    0.15
   0.00001571  -0.00000003   0.00000005          2.31     -0.01      0.01
  -0.00000003   0.00001571  -0.00000000         -0.01      2.31     -0.00
   0.00000005  -0.00000000  -0.00002841          0.01     -0.00     -4.18

 !ASE

     Writing output data file calc.save

     General routines

     Parallel routines

   This run was terminated on:   9:42:15  24Jan2018

   JOB DONE.
Job  /afs/slac/g/suncat/bin/suncat-tsmpirun -x LD_LIBRARY_PATH -wdir /scratch/qe888509_vROke pw.x -in pw.inp

TID   HOST_NAME   COMMAND_LINE            STATUS            TERMINATION_TIME
00000 suncat1041 pw.x -in pw.inp   Done                     01/24/2018 09:42:15
00001 suncat1041 pw.x -in pw.inp   Done                     01/24/2018 09:42:15
00002 suncat1041 pw.x -in pw.inp   Done                     01/24/2018 09:42:15
00003 suncat1041 pw.x -in pw.inp   Done                     01/24/2018 09:42:15
00004 suncat1041 pw.x -in pw.inp   Done                     01/24/2018 09:42:15
00005 suncat1041 pw.x -in pw.inp   Done                     01/24/2018 09:42:15
00006 suncat1041 pw.x -in pw.inp   Done                     01/24/2018 09:42:15
00007 suncat1041 pw.x -in pw.inp   Done                     01/24/2018 09:42:15
00008 suncat1040 pw.x -in pw.inp   Done                     01/24/2018 09:42:15
00009 suncat1040 pw.x -in pw.inp   Done                     01/24/2018 09:42:15
00010 suncat1040 pw.x -in pw.inp   Done                     01/24/2018 09:42:15
00011 suncat1040 pw.x -in pw.inp   Done                     01/24/2018 09:42:15
00012 suncat1040 pw.x -in pw.inp   Done                     01/24/2018 09:42:15
00013 suncat1040 pw.x -in pw.inp   Done                     01/24/2018 09:42:15
00014 suncat1040 pw.x -in pw.inp   Done                     01/24/2018 09:42:15
00015 suncat1040 pw.x -in pw.inp   Done                     01/24/2018 09:42:15
00016 suncat1040 pw.x -in pw.inp   Done                     01/24/2018 09:42:15
00017 suncat1040 pw.x -in pw.inp   Done                     01/24/2018 09:42:15
00018 suncat1040 pw.x -in pw.inp   Done                     01/24/2018 09:42:15
00019 suncat1040 pw.x -in pw.inp   Done                     01/24/2018 09:42:15
00020 suncat1015 pw.x -in pw.inp   Done                     01/24/2018 09:42:15
00021 suncat1015 pw.x -in pw.inp   Done                     01/24/2018 09:42:15
00022 suncat1015 pw.x -in pw.inp   Done                     01/24/2018 09:42:15
00023 suncat1015 pw.x -in pw.inp   Done                     01/24/2018 09:42:15
00024 suncat1015 pw.x -in pw.inp   Done                     01/24/2018 09:42:15
00025 suncat1015 pw.x -in pw.inp   Done                     01/24/2018 09:42:15
00026 suncat1015 pw.x -in pw.inp   Done                     01/24/2018 09:42:15
00027 suncat1015 pw.x -in pw.inp   Done                     01/24/2018 09:42:15
00028 suncat1015 pw.x -in pw.inp   Done                     01/24/2018 09:42:15
00029 suncat1015 pw.x -in pw.inp   Done                     01/24/2018 09:42:15
00030 suncat1015 pw.x -in pw.inp   Done                     01/24/2018 09:42:15
00031 suncat1015 pw.x -in pw.inp   Done                     01/24/2018 09:42:15