     Program PWSCF v.5.1rc2 (svn rev. 11289) starts on 17Jan2019 at  0:47:24

     Current dimensions of program PWSCF are:
     Max number of different atomic species (ntypx) = 10
     Max number of k-points (npk) =  40000
     Max angular momentum in pseudopotentials (lmaxx) =  3

     IMPORTANT: XC functional enforced from input :
     Exchange-correlation      = BEEF-VDW ( 1  4 27 13 2)
     Any further DFT definition will be discarded
     Please, verify this is what you really want

     Subspace diagonalization in iterative solution of the eigenvalue problem:
     a serial algorithm will be used

     bravais-lattice index     =            0
     lattice parameter (alat)  =      12.7122  a.u.
     unit-cell volume          =    6741.9071 (a.u.)^3
     number of atoms/cell      =           13
     number of atomic types    =            2
     number of electrons       =       169.00
     number of Kohn-Sham states=           94
     kinetic-energy cutoff     =      36.7493  Ry
     charge density cutoff     =     367.4933  Ry
     convergence threshold     =      1.0E-04
     mixing beta               =       0.2000
     number of iterations used =            8  plain     mixing
     Exchange-correlation      = BEEF-VDW ( 1  4 27 13 2)
     nstep                     =           50

     celldm(1)=  12.712175  celldm(2)=   0.000000  celldm(3)=   0.000000
     celldm(4)=   0.000000  celldm(5)=   0.000000  celldm(6)=   0.000000

     crystal axes: (cart. coord. in units of alat)
               a(1) = (   1.000000   0.000000   0.000000 )
               a(2) = (   0.500000   0.866025   0.000000 )
               a(3) = (   0.000000   0.000000   3.789593 )

     reciprocal axes: (cart. coord. in units 2 pi/alat)
               b(1) = (  1.000000 -0.577350  0.000000 )
               b(2) = (  0.000000  1.154701  0.000000 )
               b(3) = (  0.000000  0.000000  0.263881 )

     PseudoPot. # 1 for Sn read from file:
     /nfs/slac/g/suncatfs/mamunm/src/decaf-espresso/gbrv15pbe/Sn.UPF
     MD5 check sum: 469debedee59599fedebd795477fea03
     Pseudo is Ultrasoft + core correction, Zval = 14.0
     Generated by new atomic code, or converted to UPF format
     Using radial grid of  891 points,  6 beta functions with:
                l(1) =   0
                l(2) =   0
                l(3) =   1
                l(4) =   1
                l(5) =   2
                l(6) =   2
     Q(r) pseudized with  8 coefficients,  rinner =    1.350   1.350   1.350
                                                       1.350   1.350

     PseudoPot. # 2 for H  read from file:
     /nfs/slac/g/suncatfs/mamunm/src/decaf-espresso/gbrv15pbe/H.UPF
     MD5 check sum: 761ae9a214b05c3daf00ab9f6b793d6f
     Pseudo is Ultrasoft, Zval =  1.0
     Generated by new atomic code, or converted to UPF format
     Using radial grid of  615 points,  2 beta functions with:
                l(1) =   0
                l(2) =   0
     Q(r) pseudized with  8 coefficients,  rinner =    0.700

     vdW kernel table read from file vdW_kernel_table
     MD5 check sum: 095c7af220d748ca6e76c0b4c6cfb241

     atomic species   valence    mass     pseudopotential
        Sn            14.00   118.71000     Sn( 1.00)
        H              1.00     1.00800     H ( 1.00)

     No symmetry found

   Cartesian axes

     site n.     atom                  positions (alat units)
         1           Sn  tau(   1) = (   0.2500000   0.1443376   1.4865483  )
         2           Sn  tau(   2) = (   0.7500000   0.1443376   1.4865483  )
         3           Sn  tau(   3) = (   0.5000000   0.5773503   1.4865483  )
         4           Sn  tau(   4) = (   1.0000000   0.5773503   1.4865483  )
         5           Sn  tau(   5) = (   1.0000000   0.2886751   1.8947966  )
         6           Sn  tau(   6) = (   0.5000000   0.2886751   1.8947966  )
         7           Sn  tau(   7) = (   1.2500000   0.7216878   1.8947966  )
         8           Sn  tau(   8) = (   0.7500000   0.7216878   1.8947966  )
         9           Sn  tau(   9) = (   0.0000353  -0.0000028   2.3869743  )
        10           Sn  tau(  10) = (   0.4999836  -0.0047188   2.2974983  )
        11           Sn  tau(  11) = (   0.2458294   0.4354423   2.2974938  )
        12           Sn  tau(  12) = (   0.7540507   0.4353583   2.2975026  )
        13           H   tau(  13) = (   0.0000403  -0.0000090   2.6536486  )

     number of k points=    20  Fermi-Dirac smearing, width (Ry)=  0.0110
                       cart. coord. in units 2pi/alat
        k(    1) = (   0.0000000   0.0000000   0.0000000), wk =   0.0555556
        k(    2) = (   0.0000000   0.1924501   0.0000000), wk =   0.1111111
        k(    3) = (   0.0000000   0.3849002   0.0000000), wk =   0.1111111
        k(    4) = (   0.0000000  -0.5773503   0.0000000), wk =   0.0555556
        k(    5) = (   0.1666667  -0.0962250   0.0000000), wk =   0.1111111
        k(    6) = (   0.1666667   0.0962250   0.0000000), wk =   0.1111111
        k(    7) = (   0.1666667   0.2886751   0.0000000), wk =   0.1111111
        k(    8) = (   0.1666667  -0.6735753   0.0000000), wk =   0.1111111
        k(    9) = (   0.1666667  -0.4811252   0.0000000), wk =   0.1111111
        k(   10) = (   0.1666667  -0.2886751   0.0000000), wk =   0.1111111
        k(   11) = (   0.3333333  -0.1924501   0.0000000), wk =   0.1111111
        k(   12) = (   0.3333333   0.0000000   0.0000000), wk =   0.1111111
        k(   13) = (   0.3333333   0.1924501   0.0000000), wk =   0.1111111
        k(   14) = (   0.3333333  -0.7698004   0.0000000), wk =   0.1111111
        k(   15) = (   0.3333333  -0.5773503   0.0000000), wk =   0.1111111
        k(   16) = (   0.3333333  -0.3849002   0.0000000), wk =   0.1111111
        k(   17) = (  -0.5000000   0.2886751   0.0000000), wk =   0.0555556
        k(   18) = (  -0.5000000   0.4811252   0.0000000), wk =   0.1111111
        k(   19) = (  -0.5000000   0.6735753   0.0000000), wk =   0.1111111
        k(   20) = (  -0.5000000  -0.2886751   0.0000000), wk =   0.0555556

     Largest allocated arrays     est. size (Mb)     dimensions
     Largest temporary arrays     est. size (Mb)     dimensions

     Initial potential from superposition of free atoms
     Check: negative starting charge=   -0.001422

     starting charge  156.99945, renormalised to  169.00000

     negative rho (up, down):  1.531E-03 0.000E+00

     *
     * You are using vdW-DF for exchange-correlation in this calculation.
     * Please cite the following three references that made this development
     * possible:
     *
     *   M. Dion, H. Rydberg, E. Schroder, D. C. Langreth, and
     *   B. I. Lundqvist, Phys. Rev. Lett. 92, 246401 (2004).
     *
     *   T. Thonhauser, V. R. Cooper, S. Li, A. Puzder, P. Hyldgaard, and
     *   D. C. Langreth, Phys. Rev. B 76, 125112 (2007).
     *
     *   G. Roman-Perez and J. M. Soler, Phys. Rev. Lett. 103, 096102 (2009).
     *
     *
     * If you are using vdW-DF2, please also cite:
     *
     *   K. Lee, E. D. Murray, L. Kong, B. I. Lundqvist, and
     *   D. C. Langreth, Phys. Rev. B 82, 081101(R) (2010).
     *
     *
     * If you are calculating the stress with vdW-DF, please also cite:
     *
     *   R. Sabatini, E. Kucukbenli, B. Kolb, T. Thonhauser, and
     *   S. de Gironcoli, J. Phys.: Condens. Matter 24, 424209 (2012).
     *

     Carrying out vdW-DF run using the following parameters:

     Nqs =      20    Nr_points =    1024   r_max =   100.000
     q_mesh =
               0.00001000     0.04494208     0.09755937     0.15916263
               0.23128650     0.31572767     0.41458969     0.53033537
               0.66584808     0.82450364     1.01025438     1.22772762
               1.48234092     1.78043706     2.12944203     2.53805004
               3.01644009     3.57652955     4.23227104     5.00000000

     Gradients computed in reciprocal space

     Adding external electric field

     Computed dipole along edir(3) :
        Dipole               -0.7318 Ry au,         -1.8601 Debye
        Dipole field         -0.0014 Ry au

        Potential amp.        0.1183 Ry
        Total length         43.3566 bohr

     Starting wfc are  109 randomized atomic wfcs

     Self-consistent Calculation

     iteration #  1     ecut=    36.75 Ry     beta=0.20
     Davidson diagonalization with overlap
     ethr =  1.00E-02,  avg # of iterations =  5.0

[...]

     total energy              =   -1929.77764948 Ry
     Harris-Foulkes estimate   =   -1935.20345923 Ry
     estimated scf accuracy    <      16.41339368 Ry

[...]

     End of self-consistent calculation

          k = 0.0000 0.0000 0.0000 ( 25377 PWs)   bands (ev):

   -21.5782 -21.5669 -21.5669 -21.5422 -21.5422 -21.5347 -21.5238 -21.5238
   -21.5136 -21.5024 -21.4940 -21.4940 -21.4862 -21.4855 -21.4855 -21.4826
   -21.4826 -21.4757 -21.4712 -21.4658 -21.4657 -21.4619 -21.4619 -21.4618
   -21.4589 -21.4473 -21.4473 -21.4454 -21.4308 -21.4307 -21.4217 -21.4169
   -21.4169 -21.4098 -21.4098 -21.3884 -21.3884 -21.3871 -21.3666 -21.3666
   -21.3585 -21.3585 -21.3534 -21.3522 -21.3522 -21.3408 -21.3396 -21.3396
   -21.3379 -21.3245 -21.3238 -21.3238 -21.3140 -21.3134 -21.3134 -21.2037
   -21.2037 -21.0982 -21.0934 -21.0934 -10.1638  -8.9449  -7.3841  -6.1413
    -6.1413  -6.1124  -5.8362  -5.6871  -5.6870  -5.1137  -4.7223  -4.7221
    -3.5058  -3.3173  -3.3172  -2.7765  -2.4795  -2.1658  -2.1657  -2.0366
    -1.9935  -1.9934  -1.2845   0.3181   1.3791   1.3793   1.5093   1.5587
     1.5588   2.5741   3.0782   3.1438   3.1439   3.1994

[...]

          k =-0.5000 0.2887 0.0000 ( 25386 PWs)   bands (ev):

[...]

     the Fermi energy is     0.5381 ev

!    total energy              =   -1929.46904960 Ry
     Harris-Foulkes estimate   =   -1929.46904134 Ry
     estimated scf accuracy    <       0.00005356 Ry

     The total energy is the sum of the following terms:

     one-electron contribution =  -10188.18431984 Ry
     hartree contribution      =    5156.33834278 Ry
     xc contribution           =    -534.52716658 Ry
     ewald contribution        =    3636.94407590 Ry
     electric field correction =       0.00015382 Ry
     smearing contrib. (-TS)   =      -0.04013568 Ry

     convergence has been achieved in  11 iterations

     Forces acting on atoms (Ry/au):

     negative rho (up, down):  4.137E-04 0.000E+00
     atom    1 type  1   force =    -0.00380504   -0.00219431    0.00193934
     atom    2 type  1   force =     0.00379865   -0.00222448    0.00191129
     atom    3 type  1   force =     0.00002277    0.00443953    0.00191174
     atom    4 type  1   force =     0.00000144   -0.00001624    0.00836152
     atom    5 type  1   force =    -0.00001670   -0.00520710   -0.00634169
     atom    6 type  1   force =    -0.00003092    0.00001842    0.00538343
     atom    7 type  1   force =     0.00454311    0.00261843   -0.00628836
     atom    8 type  1   force =    -0.00453221    0.00260151   -0.00633290
     atom    9 type  1   force =    -0.00000152   -0.00000389    0.00139895
     atom   10 type  1   force =     0.00000056    0.00107128   -0.00160868
     atom   11 type  1   force =     0.00095011   -0.00054326   -0.00161423
     atom   12 type  1   force =    -0.00093188   -0.00056059   -0.00160153
     atom   13 type  2   force =     0.00000165    0.00000070    0.00288112

     Total force =     0.004642     Total SCF correction =     0.018065
     SCF correction compared to forces is large: reduce conv_thr to get better values

     BFGS Geometry Optimization

     number of scf cycles    =   1
     number of bfgs steps    =   0

     energy   new            =   -1929.4690495981 Ry

     new trust radius        =       0.0028811172 bohr
     new conv_thr            =       0.0001000000 Ry

ATOMIC_POSITIONS (angstrom)
Sn       1.681748263   0.970957812  10.000000000    0   0   0
Sn       5.045244789   0.970957812  10.000000000    0   0   0
Sn       3.363496526   3.883831250  10.000000000    0   0   0
Sn       6.726993052   3.883831250  10.000000000    0   0   0
Sn       6.726993052   1.941915625  12.746283414    0   0   0
Sn       3.363496526   1.941915625  12.746283414    0   0   0
Sn       8.408741315   4.854789062  12.746283414    0   0   0
Sn       5.045244789   4.854789062  12.746283414    0   0   0
Sn       0.000236539  -0.000021054  16.057899962
Sn       3.363386441  -0.031176574  15.454404108
Sn       1.654195239   2.928929598  15.454370711
Sn       5.072000895   2.928355929  15.454436266
H        0.000271662  -0.000060483  17.852599990

     Writing output data file calc.save
     Check: negative starting charge=   -0.001422
     NEW-OLD atomic charge density approx. for the potential
     Check: negative starting charge=   -0.001422

[...]

     energy   old            =   -1929.4690495981 Ry
     energy   new            =   -1929.4690745960 Ry

     CASE: energy  _new < energy  _old

     WARNING: bfgs curvature condition failed, Theta= 0.726
     new trust radius        =       0.0043216758 bohr
     new conv_thr            =       0.0000010000 Ry

[...]

     WARNING: info= 39 for Hessian
     new trust radius        =       0.0081142405 bohr
     new conv_thr            =       0.0000010000 Ry

[...]

     Threshold (ethr) on eigenvalues was too large:
     Diagonalizing with lowered threshold

     Davidson diagonalization with overlap
     ethr =  7.76E-08,  avg # of iterations =  1.2

[...]

     number of scf cycles    =   4
     number of bfgs steps    =   3

     energy   old            =   -1929.4691029515 Ry
     energy   new            =   -1929.4691422457 Ry

     CASE: energy  _new < energy  _old

     WARNING: info= 39 for Hessian

     WARNING: bfgs curvature condition failed, Theta= 0.161
     uphill step: resetting bfgs history

     new trust radius        =       0.0032327227 bohr
     new conv_thr            =       0.0000010000 Ry

ATOMIC_POSITIONS (angstrom)
Sn       1.681748263   0.970957812  10.000000000    0   0   0
Sn       5.045244789   0.970957812  10.000000000    0   0   0
Sn       3.363496526   3.883831250  10.000000000    0   0   0
Sn       6.726993052   3.883831250  10.000000000    0   0   0
Sn       6.726993052   1.941915625  12.746283413    0   0   0
Sn       3.363496526   1.941915625  12.746283413    0   0   0
Sn       8.408741315   4.854789062  12.746283413    0   0   0
Sn       5.045244789   4.854789062  12.746283413    0   0   0
Sn       0.000226785  -0.000022681  16.064608631
Sn       3.363378142  -0.025385153  15.451889988
Sn       1.659268223   2.926005660  15.451850656
Sn       5.066986027   2.925409263  15.451929336
H        0.000278581  -0.000058541  17.859201210

     Writing output data file calc.save
     Check: negative starting charge=   -0.001422
     NEW-OLD atomic charge density approx. for the potential
     Check: negative starting charge=   -0.001422

[...]

     Self-consistent Calculation

[...]

     Threshold (ethr) on eigenvalues was too large:
     Diagonalizing with lowered threshold

     Davidson diagonalization with overlap
     ethr =  8.30E-08,  avg # of iterations =  2.0

[...]

     total energy              =   -1929.46916145 Ry
     Harris-Foulkes estimate   =   -1929.46916162 Ry
     estimated scf accuracy    <       0.00000760 Ry

     iteration #  4     ecut=    36.75 Ry     beta=0.20
     Davidson diagonalization with overlap
     ethr =  4.50E-09,  avg # of iterations =  3.6

     negative rho (up, down):  4.157E-04 0.000E+00

     Adding external electric field

     Computed dipole along edir(3) :
        Dipole               -0.2718 Ry au,         -0.6909 Debye
        Dipole field         -0.0005 Ry au

        Potential amp.        0.0439 Ry
        Total length         43.3566 bohr

     End of self-consistent calculation

[...]

          k = 0.3333-0.3849 0.0000 ( 25368 PWs)   bands (ev):

[...]

          k =-0.5000-0.2887 0.0000 ( 25386 PWs)   bands (ev):

   -21.5616 -21.5379 -21.5355 -21.5270 -21.5209 -21.5145 -21.5127 -21.4989
   -21.4935 -21.4910 -21.4858 -21.4815 -21.4760 -21.4717 -21.4681 -21.4675
   -21.4650 -21.4622 -21.4592 -21.4577 -21.4554 -21.4519 -21.4503 -21.4446
   -21.4445 -21.4402 -21.4389 -21.4367 -21.4349 -21.4325 -21.4281 -21.4257
   -21.4191 -21.4174 -21.4116 -21.4110 -21.4081 -21.3953 -21.3953 -21.3937
   -21.3909 -21.3882 -21.3849 -21.3819 -21.3817 -21.3796 -21.3770 -21.3720
   -21.3654 -21.3587 -21.3513 -21.3499 -21.3424 -21.3286 -21.3255 -21.2172
   -21.2108 -21.0987 -21.0916 -21.0906  -9.1063  -8.9448  -7.8841  -7.7845
    -6.8259  -6.7973  -6.4839  -6.1784  -5.7613  -5.7293  -4.7242  -4.4414
    -2.5529  -1.8152  -1.6790  -1.6189  -1.3144  -1.3059  -1.1594  -0.4398
    -0.3503  -0.2540  -0.1046   0.4752   0.7240   0.9057   0.9745   1.1479
     1.5455   1.5505   1.6752   1.8270   1.8750   1.9371

     the Fermi energy is     0.5382 ev

!    total energy              =   -1929.46916223 Ry
     Harris-Foulkes estimate   =   -1929.46915832 Ry
     estimated scf accuracy    <       0.00000055 Ry

     The total energy is the sum of the following terms:

     one-electron contribution =  -10188.75989665 Ry
     hartree contribution      =    5156.80719302 Ry
     xc contribution           =    -534.53188013 Ry
     ewald contribution        =    3637.05537362 Ry
     electric field correction =       0.00013774 Ry
     smearing contrib. (-TS)   =      -0.04008983 Ry

     convergence has been achieved in   4 iterations

     Forces acting on atoms (Ry/au):

     negative rho (up, down):  4.157E-04 0.000E+00
     atom    1 type  1   force =    -0.00412380   -0.00238381    0.00049839
     atom    2 type  1   force =     0.00412079   -0.00237799    0.00049765
     atom    3 type  1   force =     0.00000125    0.00476018    0.00049756
     atom    4 type  1   force =     0.00000051   -0.00000085    0.00742862
     atom    5 type  1   force =    -0.00000138   -0.00635948   -0.00523506
     atom    6 type  1   force =     0.00000026    0.00000031    0.00219472
     atom    7 type  1   force =     0.00550589    0.00317828   -0.00523623
     atom    8 type  1   force =    -0.00550762    0.00317959   -0.00523441
     atom    9 type  1   force =    -0.00000409   -0.00000029    0.00113297
     atom   10 type  1   force =    -0.00000215    0.00010105    0.00069143
     atom   11 type  1   force =     0.00008799   -0.00005098    0.00069244
     atom   12 type  1   force =    -0.00007973   -0.00004533    0.00068845
     atom   13 type  2   force =     0.00000209   -0.00000067    0.00138347

     Total force =     0.002158     Total SCF correction =     0.003299
     SCF correction compared to forces is large: reduce conv_thr to get better values

     bfgs converged in   5 scf cycles and   4 bfgs steps
     (criteria: energy <  1.0E+12, force <  1.9E-03)

     End of BFGS Geometry Optimization

     Final energy   =   -1929.4691622300 Ry
Begin final coordinates

ATOMIC_POSITIONS (angstrom)
Sn       1.681748263   0.970957812  10.000000000    0   0   0
Sn       5.045244789   0.970957812  10.000000000    0   0   0
Sn       3.363496526   3.883831250  10.000000000    0   0   0
Sn       6.726993052   3.883831250  10.000000000    0   0   0
Sn       6.726993052   1.941915625  12.746283413    0   0   0
Sn       3.363496526   1.941915625  12.746283413    0   0   0
Sn       8.408741315   4.854789062  12.746283413    0   0   0
Sn       5.045244789   4.854789062  12.746283413    0   0   0
Sn       0.000226785  -0.000022681  16.064608631
Sn       3.363378142  -0.025385153  15.451889988
Sn       1.659268223   2.926005660  15.451850656
Sn       5.066986027   2.925409263  15.451929336
H        0.000278581  -0.000058541  17.859201210
End final coordinates

     Writing output data file calc.save

     General routines

     Parallel routines

   This run was terminated on:   1: 5:18  17Jan2019

   JOB DONE.
Job  /afs/slac/g/suncat/bin/suncat-tsmpirun -x LD_LIBRARY_PATH -wdir /tmp/qe_450638323weveu_scratch pw.x -npool 4 -in pw.pwi

TID   HOST_NAME   COMMAND_LINE            STATUS            TERMINATION_TIME
00000 suncat0154 pw.x -npool 4 -i  Done                     01/17/2019 01:05:18
00001 suncat0154 pw.x -npool 4 -i  Done                     01/17/2019 01:05:18
00002 suncat0154 pw.x -npool 4 -i  Done                     01/17/2019 01:05:18
00003 suncat0154 pw.x -npool 4 -i  Done                     01/17/2019 01:05:18
00004 suncat0154 pw.x -npool 4 -i  Done                     01/17/2019 01:05:18
00005 suncat0154 pw.x -npool 4 -i  Done                     01/17/2019 01:05:18
00006 suncat0154 pw.x -npool 4 -i  Done                     01/17/2019 01:05:18
00007 suncat0154 pw.x -npool 4 -i  Done                     01/17/2019 01:05:18
00008 suncat0153 pw.x -npool 4 -i  Done                     01/17/2019 01:05:18
00009 suncat0153 pw.x -npool 4 -i  Done                     01/17/2019 01:05:18
00010 suncat0153 pw.x -npool 4 -i  Done                     01/17/2019 01:05:18
00011 suncat0153 pw.x -npool 4 -i  Done                     01/17/2019 01:05:18
00012 suncat0153 pw.x -npool 4 -i  Done                     01/17/2019 01:05:18
00013 suncat0153 pw.x -npool 4 -i  Done                     01/17/2019 01:05:18
00014 suncat0153 pw.x -npool 4 -i  Done                     01/17/2019 01:05:18
00015 suncat0153 pw.x -npool 4 -i  Done                     01/17/2019 01:05:18
00016 suncat0152 pw.x -npool 4 -i  Done                     01/17/2019 01:05:18
00017 suncat0152 pw.x -npool 4 -i  Done                     01/17/2019 01:05:18
00018 suncat0152 pw.x -npool 4 -i  Done                     01/17/2019 01:05:18
00019 suncat0152 pw.x -npool 4 -i  Done                     01/17/2019 01:05:18
00020 suncat0152 pw.x -npool 4 -i  Done                     01/17/2019 01:05:18
00021 suncat0152 pw.x -npool 4 -i  Done                     01/17/2019 01:05:18
00022 suncat0152 pw.x -npool 4 -i  Done                     01/17/2019 01:05:18
00023 suncat0152 pw.x -npool 4 -i  Done                     01/17/2019 01:05:18
00024 suncat0123 pw.x -npool 4 -i  Done                     01/17/2019 01:05:18
00025 suncat0123 pw.x -npool 4 -i  Done                     01/17/2019 01:05:18
00026 suncat0123 pw.x -npool 4 -i  Done                     01/17/2019 01:05:18
00027 suncat0123 pw.x -npool 4 -i  Done                     01/17/2019 01:05:18
00028 suncat0123 pw.x -npool 4 -i  Done                     01/17/2019 01:05:18
00029 suncat0123 pw.x -npool 4 -i  Done                     01/17/2019 01:05:18
00030 suncat0123 pw.x -npool 4 -i  Done                     01/17/2019 01:05:18
00031 suncat0123 pw.x -npool 4 -i  Done                     01/17/2019 01:05:18