     Program PWSCF v.5.1rc2 starts on  9May2018 at 17:40:44

     Current dimensions of program PWSCF are:
     Max number of different atomic species (ntypx) = 10
     Max number of k-points (npk) =  40000
     Max angular momentum in pseudopotentials (lmaxx) =  3
     Presently stress not available with electric field

     IMPORTANT: XC functional enforced from input :
     Exchange-correlation      = BEEF-VDW ( 1  4 27 13 2)
     Any further DFT definition will be discarded
     Please, verify this is what you really want

     bravais-lattice index     =            0
     lattice parameter (alat)  =       1.8897  a.u.
     unit-cell volume          =    5185.0501 (a.u.)^3
     number of atoms/cell      =           15
     number of atomic types    =            3
     number of electrons       =       162.00
     number of Kohn-Sham states=           91
     kinetic-energy cutoff     =      36.7493  Ry
     charge density cutoff     =     367.4932  Ry
     convergence threshold     =      1.0E-05
     mixing beta               =       0.3000
     number of iterations used =           10  plain     mixing
     Exchange-correlation      = BEEF-VDW ( 1  4 27 13 2)
     nstep                     =           50

     celldm(1)=   1.889726  celldm(2)=   0.000000  celldm(3)=   0.000000
     celldm(4)=   0.000000  celldm(5)=   0.000000  celldm(6)=   0.000000

     crystal axes: (cart. coord. in units of alat)
               a(1) = (   5.972022   0.000000   0.000000 )
               a(2) = (   2.986011   5.171923  -0.000000 )
               a(3) = (   0.000000   0.000000  24.876136 )

     reciprocal axes: (cart. coord. in units 2 pi/alat)
               b(1) = (  0.167447 -0.096676  0.000000 )
               b(2) = (  0.000000  0.193352 -0.000000 )
               b(3) = (  0.000000  0.000000  0.040199 )

     PseudoPot. # 1 for Ta read from file:
     /home/users/winther/src/pseudo/Ta.UPF
     MD5 check sum: f8bbe9446314a3b8ea5d9f3e3836c939
     Pseudo is Ultrasoft + core correction, Zval = 13.0
     Generated by new atomic code, or converted to UPF format
     Using radial grid of  921 points,  7 beta functions with:
                l(1) =   0
                l(2) =   0
                l(3) =   1
                l(4) =   1
                l(5) =   2
                l(6) =   2
                l(7) =   3
     Q(r) pseudized with  6 coefficients,  rinner =    1.300   1.300   1.300
                                                       1.300   1.300   1.300
                                                       1.300

     PseudoPot. # 2 for C  read from file:
     /home/users/winther/src/pseudo/C.UPF
     MD5 check sum: d1aef80898a10debaa0f26306b886e00
     Pseudo is Ultrasoft + core correction, Zval =  4.0
     Generated by new atomic code, or converted to UPF format
     Using radial grid of  721 points,  4 beta functions with:
                l(1) =   0
                l(2) =   0
                l(3) =   1
                l(4) =   1
     Q(r) pseudized with  8 coefficients,  rinner =    1.100   1.100   1.100

     PseudoPot. # 3 for H  read from file:
     /home/users/winther/src/pseudo/H.UPF
     MD5 check sum: 761ae9a214b05c3daf00ab9f6b793d6f
     Pseudo is Ultrasoft, Zval =  1.0
     Generated by new atomic code, or converted to UPF format
     Using radial grid of  615 points,  2 beta functions with:
                l(1) =   0
                l(2) =   0
     Q(r) pseudized with  8 coefficients,  rinner =    0.700

     vdW kernel table read from file vdW_kernel_table
     MD5 check sum: 095c7af220d748ca6e76c0b4c6cfb241

     atomic species   valence    mass     pseudopotential
        Ta1           13.00   180.94788     Ta( 1.00)
        C1             4.00    12.01100     C ( 1.00)
        H1             1.00     1.00800     H ( 1.00)

     No symmetry found

   Cartesian axes

     site n.     atom                  positions (alat units)
         1           Ta1 tau(   1) = (   0.0000000   0.0000000  10.0000000  )
         2           Ta1 tau(   2) = (   1.4930055   2.5859614  10.0000000  )
         3           Ta1 tau(   3) = (   2.9860110   0.0000000  10.0000000  )
         4           Ta1 tau(   4) = (   4.4790165   2.5859614  10.0000000  )
         5           Ta1 tau(   5) = (   5.9720221   3.4479485  12.4380678  )
         6           Ta1 tau(   6) = (   4.4790165   0.8619871  12.4380678  )
         7           Ta1 tau(   7) = (   2.9860110   3.4479485  12.4380678  )
         8           Ta1 tau(   8) = (   1.4930055   0.8619871  12.4380678  )
         9           Ta1 tau(   9) = (   2.9854666   1.7240852  14.8749846  )
        10           Ta1 tau(  10) = (   4.4793922   4.3093350  14.8758439  )
        11           Ta1 tau(  11) = (   5.9714203   1.7258265  14.8761221  )
        12           Ta1 tau(  12) = (   7.4639699   4.3107582  14.8749147  )
        13           C1  tau(  13) = (   2.9862199   1.7220146  17.2118074  )
        14           H1  tau(  14) = (   2.9862079   1.7247127  18.2833070  )
        15           H1  tau(  15) = (   4.4789009   2.5856603  15.6956948  )

     number of k points=    20  Fermi-Dirac smearing, width (Ry)=  0.0110
                       cart. coord. in units 2pi/alat
        k(    1) = (   0.0000000   0.0000000   0.0000000), wk =   0.0555556
        k(    2) = (   0.0000000   0.0322253  -0.0000000), wk =   0.1111111
        k(    3) = (   0.0000000   0.0644506  -0.0000000), wk =   0.1111111
        k(    4) = (   0.0000000  -0.0966758   0.0000000), wk =   0.0555556
        k(    5) = (   0.0279079  -0.0161126   0.0000000), wk =   0.1111111
        k(    6) = (   0.0279079   0.0161126  -0.0000000), wk =   0.1111111
        k(    7) = (   0.0279079   0.0483379  -0.0000000), wk =   0.1111111
        k(    8) = (   0.0279079  -0.1127885   0.0000000), wk =   0.1111111
        k(    9) = (   0.0279079  -0.0805632   0.0000000), wk =   0.1111111
        k(   10) = (   0.0279079  -0.0483379   0.0000000), wk =   0.1111111
        k(   11) = (   0.0558158  -0.0322253   0.0000000), wk =   0.1111111
        k(   12) = (   0.0558158  -0.0000000  -0.0000000), wk =   0.1111111
        k(   13) = (   0.0558158   0.0322253  -0.0000000), wk =   0.1111111
        k(   14) = (   0.0558158  -0.1289011   0.0000000), wk =   0.1111111
        k(   15) = (   0.0558158  -0.0966758   0.0000000), wk =   0.1111111
        k(   16) = (   0.0558158  -0.0644506   0.0000000), wk =   0.1111111
        k(   17) = (  -0.0837237   0.0483379  -0.0000000), wk =   0.0555556
        k(   18) = (  -0.0837237   0.0805632  -0.0000000), wk =   0.1111111
        k(   19) = (  -0.0837237   0.1127885  -0.0000000), wk =   0.1111111
        k(   20) = (  -0.0837237  -0.0483379   0.0000000), wk =   0.0555556

     Largest allocated arrays     est. size (Mb)     dimensions
     Largest temporary arrays     est. size (Mb)     dimensions

     Initial potential from superposition of free atoms
     Check: negative starting charge=   -1.121455

     starting charge  161.98660, renormalised to  162.00000

     negative rho (up, down):  1.122E+00 0.000E+00

     *
     * You are using vdW-DF for exchange-correlation in this calculation.
     * Please cite the following three references that made this development
     * possible:
     *
     *   M. Dion, H. Rydberg, E. Schroder, D. C. Langreth, and
     *   B. I. Lundqvist, Phys. Rev. Lett. 92, 246401 (2004).
     *
     *   T. Thonhauser, V. R. Cooper, S. Li, A. Puzder, P. Hyldgaard, and
     *   D. C. Langreth, Phys. Rev. B 76, 125112 (2007).
     *
     *   G. Roman-Perez and J. M. Soler, Phys. Rev. Lett. 103, 096102 (2009).
     *
     *
     * If you are using vdW-DF2, please also cite:
     *
     *   K. Lee, E. D. Murray, L. Kong, B. I. Lundqvist, and
     *   D. C. Langreth, Phys. Rev. B 82, 081101(R) (2010).
     *
     *
     * If you are calculating the stress with vdW-DF, please also cite:
     *
     *   R. Sabatini, E. Kucukbenli, B. Kolb, T. Thonhauser, and
     *   S. de Gironcoli, J. Phys.: Condens. Matter 24, 424209 (2012).
     *

     Carrying out vdW-DF run using the following parameters:

     Nqs =      20    Nr_points =    1024   r_max =   100.000
     q_mesh =
               0.00001000     0.04494208     0.09755937     0.15916263
               0.23128650     0.31572767     0.41458969     0.53033537
               0.66584808     0.82450364     1.01025438     1.22772762
               1.48234092     1.78043706     2.12944203     2.53805004
               3.01644009     3.57652955     4.23227104     5.00000000

     Gradients computed in reciprocal space

     Adding external electric field

     Computed dipole along edir(3) :
        Dipole               -0.0039 Ry au,         -0.0099 Debye
        Dipole field         -0.0000 Ry au

        Potential amp.        0.0009 Ry
        Total length         45.8339 bohr

     Starting wfc are  162 randomized atomic wfcs

     Self-consistent Calculation

     iteration #  1     ecut=    36.75 Ry     beta=0.30
     Davidson diagonalization with overlap
     ethr =  1.00E-02,  avg # of iterations =  2.0

[...]

     total energy              =   -1729.91189593 Ry
     Harris-Foulkes estimate   =   -1732.51726307 Ry
     estimated scf accuracy    <       5.70953226 Ry

[...]

     End of self-consistent calculation

          k = 0.0000 0.0000 0.0000 ( 19447 PWs)   bands (ev):

   -66.2042 -66.1531 -66.1334 -66.0994 -66.0440 -66.0413 -66.0385 -66.0144
   -65.9830 -65.9337 -65.9136 -65.8955 -32.8867 -32.8554 -32.8399 -32.8308
   -32.8036 -32.7918 -32.7537 -32.7456 -32.7449 -32.7362 -32.5861 -32.5208
   -32.5080 -32.4011 -32.3776 -32.3771 -32.3259 -32.3234 -32.2553 -32.2296
   -32.1949 -32.1883 -32.1761 -32.1601 -32.1450 -32.1253 -32.0792 -32.0757
   -32.0652 -32.0634 -32.0627 -32.0594 -32.0076 -32.0070 -31.9137 -31.9130
    -8.7191  -5.6323  -4.5862  -3.0923  -2.3093  -2.1904  -1.8648  -1.8188
    -1.7847  -1.6997  -1.4843  -1.4451  -1.0241  -0.9382  -0.8434  -0.7430
    -0.6873  -0.1532   0.3044   0.4330   1.2315   1.4366   1.5663   1.7466
     1.7736   2.0717   2.0726   2.1502   2.3087   2.3843   2.4722   2.5716
     2.5740   2.6116   2.8307   2.8578   2.9334   2.9610   2.9933   3.0141
     3.0143   3.2531   3.4174

[...]

          k =-0.0837 0.0483-0.0000 ( 19532 PWs)   bands (ev):

[...]

     the Fermi energy is     2.2159 ev

!    total energy              =   -1732.12646649 Ry
     Harris-Foulkes estimate   =   -1732.12648423 Ry
     estimated scf accuracy    <       0.00000759 Ry

     The total energy is the sum of the following terms:

     one-electron contribution =  -11604.35073550 Ry
     hartree contribution      =    5787.46603959 Ry
     xc contribution           =    -527.73913854 Ry
     ewald contribution        =    4612.60053099 Ry
     electric field correction =       0.00001530 Ry
     smearing contrib. (-TS)   =      -0.10317832 Ry

     convergence has been achieved in  17 iterations

 BEEF-vdW xc energy contributions
           1 :   -464.437123677498
           2 :    428.545281622958
           3 :   -365.966356114783
           4 :    291.234176038447
           5 :   -218.844865134060
           6 :    158.836512014207
           7 :   -114.821920605877
           8 :    84.8225763785058
           9 :   -63.9950553375753
          10 :    47.6593943310289
          11 :   -33.2184266246359
          12 :    20.3922081021097
          13 :   -10.1561860600360
          14 :    3.32553873551768
          15 :   0.327391745413195
          16 :   -2.04389418658684
          17 :    3.35716920247341
          18 :   -5.24253747308336
          19 :    7.67737308652767
          20 :   -9.84051649836840
          21 :    10.7760809648209
          22 :   -10.0818383915697
          23 :    8.20274565162998
          24 :   -6.17797214061250
          25 :    5.03260252435314
          26 :   -5.20599143392144
          27 :    6.35577787283358
          28 :   -7.62559512074688
          29 :    8.18123867630021
          30 :   -7.67818799256571
          31 :   -41.6556422002058
          32 :   -30.8959916859731

     Forces acting on atoms (Ry/au):

     negative rho (up, down):  1.178E+00 0.000E+00
     atom    1 type  1   force =    -0.00034697   -0.00020636    0.00188941
     atom    2 type  1   force =     0.00156783    0.00024935    0.00165271
     atom    3 type  1   force =     0.00100754    0.00123025    0.00165617
     atom    4 type  1   force =    -0.00159396   -0.00093468    0.00199502
     atom    5 type  1   force =     0.00065384    0.00033727    0.00885445
     atom    6 type  1   force =     0.00357396   -0.00190317   -0.00609818
     atom    7 type  1   force =     0.00012389    0.00402996   -0.00611389
     atom    8 type  1   force =    -0.00116610   -0.00068711    0.00040745
     atom    9 type  1   force =    -0.02421752   -0.01404935    0.18566024
     atom   10 type  1   force =     0.00343039    0.02679007   -0.01475412
     atom   11 type  1   force =     0.02517045   -0.01042214   -0.01494067
     atom   12 type  1   force =     0.00050879    0.00013342   -0.00629594
     atom   13 type  2   force =    -0.02235187   -0.01266460   -0.20476111
     atom   14 type  3   force =     0.00163122    0.00087433    0.03569442
     atom   15 type  3   force =     0.01200852    0.00722276    0.01515404

     Total force =     0.285476     Total SCF correction =     0.009441

     entering subroutine stress ...

     negative rho (up, down):  1.178E+00 0.000E+00
          total   stress  (Ry/bohr**3)                   (kbar)     P=  -31.80
  -0.00023172   0.00000331  -0.00001737        -34.09      0.49     -2.56
   0.00000331  -0.00023547  -0.00000972          0.49    -34.64     -1.43
  -0.00001737  -0.00000972  -0.00018138         -2.56     -1.43    -26.68

     BFGS Geometry Optimization

     number of scf cycles    =   1
     number of bfgs steps    =   0

     energy   new            =   -1732.1264664879 Ry

     new trust radius        =       0.2063664455 bohr
     new conv_thr            =       0.0000099958 Ry

ATOMIC_POSITIONS (crystal)
Ta1      0.000000000   0.000000000   0.401991699    0   0   0
Ta1     -0.000000000   0.500000000   0.401991699    0   0   0
Ta1      0.500000000   0.000000000   0.401991699    0   0   0
Ta1      0.500000000   0.500000000   0.401991699    0   0   0
Ta1      0.666666667   0.666666667   0.500000000    0   0   0
Ta1      0.666666667   0.166666667   0.500000000    0   0   0
Ta1      0.166666667   0.666666667   0.500000000    0   0   0
Ta1      0.166666667   0.166666667   0.500000000    0   0   0
Ta1      0.331804301   0.331917289   0.601911487
Ta1      0.332387731   0.835958287   0.597682719
Ta1      0.835817029   0.332625109   0.597689934
Ta1      0.833114960   0.833506025   0.597825294
C1       0.332225078   0.331658620   0.687544592
H1       0.333394717   0.333565576   0.735733071
H1       0.500704305   0.500680794   0.631276266

     Writing output data file calc.save
     Check: negative starting charge=   -1.121455
     NEW-OLD atomic charge density approx. for the potential
     Check: negative starting charge=   -1.122986

[...]

     energy   old            =   -1732.1264664879 Ry
     energy   new            =   -1732.1822378064 Ry

     CASE: energy  _new < energy  _old

[...]

     WARNING: bfgs curvature condition failed, Theta= 0.758
     new trust radius        =       0.3297963374 bohr
     new conv_thr            =       0.0000001000 Ry

[...]

     WARNING: bfgs curvature condition failed, Theta= 0.006
     new trust radius        =       0.8000000000 bohr
     new conv_thr            =       0.0000001000 Ry

[...]

     CASE: energy  _new > energy  _old

[...]

     iteration #  1     ecut=    36.75 Ry     beta=0.30
     Davidson diagonalization with overlap
     c_bands:  1 eigenvalues not converged
     c_bands:  1 eigenvalues not converged
     ethr =  1.00E-06,  avg # of iterations = 14.8

[...]

     CASE: energy  _new > energy  _old

[...]

     iteration #  1     ecut=    36.75 Ry     beta=0.30
     Davidson diagonalization with overlap
     c_bands:  1 eigenvalues not converged
     ethr =  1.00E-06,  avg # of iterations = 10.9

[...]

     Threshold (ethr) on eigenvalues was too large:
     Diagonalizing with lowered threshold

     Davidson diagonalization with overlap
     ethr =  7.06E-08,  avg # of iterations =  1.9

[...]

     Threshold (ethr) on eigenvalues was too large:
     Diagonalizing with lowered threshold

     Davidson diagonalization with overlap
     ethr =  8.71E-08,  avg # of iterations =  1.6

[...]

     new trust radius        =       0.0315919640 bohr
     new conv_thr            =       0.0000001000 Ry

ATOMIC_POSITIONS (crystal)
Ta1      0.000000000   0.000000000   0.401991699    0   0   0
Ta1     -0.000000000   0.500000000   0.401991699    0   0   0
Ta1      0.500000000   0.000000000   0.401991699    0   0   0
Ta1      0.500000000   0.500000000   0.401991699    0   0   0
Ta1      0.666666667   0.666666667   0.500000000    0   0   0
Ta1      0.666666667   0.166666667   0.500000000    0   0   0
Ta1      0.166666667   0.666666667   0.500000000    0   0   0
Ta1      0.166666667   0.166666667   0.500000000    0   0   0
Ta1      0.314831842   0.306519888   0.593000707
Ta1      0.297714753   0.807181634   0.599752845
Ta1      0.811361290   0.293227335   0.599952329
Ta1      0.807745755   0.801706664   0.593751955
C1       0.149941469   0.150531209   0.649803077
H1       0.196641362   0.195615345   0.689712597
H1       0.644041651   0.641249375   0.642279036

     Writing output data file calc.save
     Check: negative starting charge=   -1.124464
     NEW-OLD atomic charge density approx. for the potential
     Check: negative starting charge=   -1.124544

[...]

     Self-consistent Calculation

[...]

     total energy              =   -1732.39850607 Ry
     Harris-Foulkes estimate   =   -1732.39850613 Ry
     estimated scf accuracy    <       0.00000028 Ry

     iteration # 11     ecut=    36.75 Ry     beta=0.30
     Davidson diagonalization with overlap
     ethr =  1.74E-10,  avg # of iterations =  3.0

[...]

     negative rho (up, down):  1.182E+00 0.000E+00

     Adding external electric field

     Computed dipole along edir(3) :
        Dipole                0.0662 Ry au,          0.1683 Debye
        Dipole field          0.0002 Ry au

        Potential amp.       -0.0147 Ry
        Total length         45.8339 bohr

     End of self-consistent calculation

[...]

          k = 0.0558-0.0645 0.0000 ( 19521 PWs)   bands (ev):

[...]

          k =-0.0837-0.0483 0.0000 ( 19532 PWs)   bands (ev):

   -66.1122 -66.1063 -66.0774 -66.0772 -66.0694 -66.0228 -65.9911 -65.9593
   -65.9557 -65.9339 -65.9301 -65.8727 -32.7399 -32.7079 -32.6984 -32.6963
   -32.6890 -32.6761 -32.6516 -32.6134 -32.5980 -32.5760 -32.5533 -32.5180
   -32.4212 -32.4143 -32.4061 -32.3759 -32.3602 -32.3585 -32.3511 -32.3448
   -32.2917 -32.2546 -32.2266 -32.2172 -32.2126 -32.1794 -32.1592 -32.1496
   -32.1202 -32.0803 -32.0454 -32.0419 -32.0258 -32.0113 -31.9969 -31.9696
    -8.8972  -4.0413  -3.5545  -3.1087  -3.0646  -2.1246  -1.5151  -1.3286
    -1.2270  -0.9501  -0.9377  -0.8838  -0.6136  -0.1214   0.0613   0.1778
     0.1988   0.2597   0.4338   0.5148   0.6471   0.7637   0.8161   0.9650
     1.0552   1.0663   1.2877   1.4736   1.5270   1.5973   1.6046   1.7496
     1.7912   1.8475   1.8871   2.0633   2.3869   2.4099   2.4810   2.5265
     3.3432   3.4318   3.5147

     the Fermi energy is     2.1754 ev

!    total energy              =   -1732.39850609 Ry
     Harris-Foulkes estimate   =   -1732.39850612 Ry
     estimated scf accuracy    <       0.00000001 Ry

     The total energy is the sum of the following terms:

     one-electron contribution =  -11867.32208420 Ry
     hartree contribution      =    5919.13635423 Ry
     xc contribution           =    -528.23651284 Ry
     ewald contribution        =    4744.12341366 Ry
     electric field correction =       0.00001062 Ry
     smearing contrib. (-TS)   =      -0.09968756 Ry

     convergence has been achieved in  11 iterations

 BEEF-vdW xc energy contributions
           1 :   -464.934524636406
           2 :    429.191987177696
           3 :   -366.775276859250
           4 :    292.074808018111
           5 :   -219.536629973869
           6 :    159.252832068183
           7 :   -114.946475860295
           8 :    84.7381729089717
           9 :   -63.8264664924437
          10 :    47.5094029264660
          11 :   -33.1286971294895
          12 :    20.3409680855290
          13 :   -10.0868421755014
          14 :    3.19034615516273
          15 :   0.531385293819653
          16 :   -2.26570270197828
          17 :    3.51252224362844
          18 :   -5.25595800358928
          19 :    7.52738786889279
          20 :   -9.57887915143965
          21 :    10.5038141454069
          22 :   -9.89477775363304
          23 :    8.14065826742308
          24 :   -6.20953612536806
          25 :    5.08336574162917
          26 :   -5.20857010381911
          27 :    6.29020760801387
          28 :   -7.52728205825485
          29 :    8.11584545683672
          30 :   -7.70195929513261
          31 :   -41.6921556430490
          32 :   -30.9645594388380

     Forces acting on atoms (Ry/au):

     negative rho (up, down):  1.182E+00 0.000E+00
     atom    1 type  1   force =     0.00229526    0.00164302    0.00117669
     atom    2 type  1   force =     0.00092951   -0.00189227    0.00153938
     atom    3 type  1   force =    -0.00123929    0.00191219    0.00129332
     atom    4 type  1   force =     0.00193712    0.00135962    0.00196705
     atom    5 type  1   force =    -0.00679369   -0.00235925   -0.00032013
     atom    6 type  1   force =     0.00108403    0.00094093   -0.01433392
     atom    7 type  1   force =     0.00054287    0.00164353   -0.01365532
     atom    8 type  1   force =    -0.01128327   -0.00452555   -0.00366638
     atom    9 type  1   force =    -0.00509031   -0.00460307    0.03442749
     atom   10 type  1   force =     0.00861702    0.00385935    0.00983773
     atom   11 type  1   force =     0.00792082    0.00359019    0.00913412
     atom   12 type  1   force =     0.00330317    0.00065381    0.00187234
     atom   13 type  2   force =     0.00610707    0.00345073   -0.02539390
     atom   14 type  3   force =    -0.00620899   -0.00409415    0.00105254
     atom   15 type  3   force =    -0.00212130   -0.00157908   -0.00493101

     Total force =     0.048723     Total SCF correction =     0.000167

     entering subroutine stress ...

     negative rho (up, down):  1.182E+00 0.000E+00
          total   stress  (Ry/bohr**3)                   (kbar)     P=  -23.47
  -0.00019169   0.00003803   0.00000485        -28.20      5.59      0.71
   0.00003803  -0.00024221  -0.00000369          5.59    -35.63     -0.54
   0.00000485  -0.00000369  -0.00004476          0.71     -0.54     -6.58

     number of scf cycles    =  50
     number of bfgs steps    =  47

     energy   old            =   -1732.3982257325 Ry
     energy   new            =   -1732.3985060873 Ry

     CASE: energy  _new < energy  _old

     new trust radius        =       0.0473879461 bohr

     The maximum number of steps has been reached.

     End of BFGS Geometry Optimization
Begin final coordinates

ATOMIC_POSITIONS (crystal)
Ta1      0.000000000   0.000000000   0.401991699    0   0   0
Ta1     -0.000000000   0.500000000   0.401991699    0   0   0
Ta1      0.500000000   0.000000000   0.401991699    0   0   0
Ta1      0.500000000   0.500000000   0.401991699    0   0   0
Ta1      0.666666667   0.666666667   0.500000000    0   0   0
Ta1      0.666666667   0.166666667   0.500000000    0   0   0
Ta1      0.166666667   0.666666667   0.500000000    0   0   0
Ta1      0.166666667   0.166666667   0.500000000    0   0   0
Ta1      0.315303927   0.304014176   0.593457812
Ta1      0.299389118   0.805687689   0.599581373
Ta1      0.811514638   0.293593683   0.600010097
Ta1      0.809063827   0.801642834   0.593723829
C1       0.148302158   0.148744027   0.650228651
H1       0.194778042   0.193473359   0.690279715
H1       0.645482483   0.641531623   0.642293816
End final coordinates

     Writing output data file calc.save

     General routines

     Parallel routines

   This run was terminated on:  20:10:35   9May2018

   JOB DONE.