     Program PWSCF v.5.1rc2 (svn rev. 11289) starts on 15Jan2018 at 15:45:54

     Current dimensions of program PWSCF are:
     Max number of different atomic species (ntypx) = 10
     Max number of k-points (npk) =  40000
     Max angular momentum in pseudopotentials (lmaxx) =  3
     Presently stress not available with electric field

     IMPORTANT: XC functional enforced from input :
     Exchange-correlation      = BEEF-VDW ( 1  4 27 13 2)
     Any further DFT definition will be discarded
     Please, verify this is what you really want

     Subspace diagonalization in iterative solution of the eigenvalue problem:
     a serial algorithm will be used

     bravais-lattice index     =            0
     lattice parameter (alat)  =       1.8897  a.u.
     unit-cell volume          =    4299.0717 (a.u.)^3
     number of atoms/cell      =           13
     number of atomic types    =            2
     number of electrons       =       184.00
     number of Kohn-Sham states=          102
     kinetic-energy cutoff     =      36.7493  Ry
     charge density cutoff     =     367.4932  Ry
     convergence threshold     =      1.0E-05
     mixing beta               =       0.3000
     number of iterations used =           10  plain     mixing
     Exchange-correlation      = BEEF-VDW ( 1  4 27 13 2)
     nstep                     =           50

     celldm(1)=   1.889726  celldm(2)=   0.000000  celldm(3)=   0.000000
     celldm(4)=   0.000000  celldm(5)=   0.000000  celldm(6)=   0.000000

     crystal axes: (cart. coord. in units of alat)
               a(1) = (   5.482164   0.000000   0.000000 )
               a(2) = (   2.741082   4.747693   0.000000 )
               a(3) = (   0.000000   0.000000  24.476168 )

     reciprocal axes: (cart. coord. in units 2 pi/alat)
               b(1) = (  0.182410 -0.105314  0.000000 )
               b(2) = (  0.000000  0.210629  0.000000 )
               b(3) = (  0.000000  0.000000  0.040856 )

     PseudoPot. # 1 for Ir read from file:
     /afs/slac.stanford.edu/u/if/mamunm/psp/gbrv1.5pbe/Ir.UPF
     MD5 check sum: 8836f839c3459d2b385c504ce6d91f2c
     Pseudo is Ultrasoft + core correction, Zval = 15.0
     Generated by new atomic code, or converted to UPF format
     Using radial grid of  983 points,  7 beta functions with:
                l(1) =   0
                l(2) =   0
                l(3) =   1
                l(4) =   1
                l(5) =   1
                l(6) =   2
                l(7) =   2
     Q(r) pseudized with  8 coefficients,  rinner =    1.400   1.400   1.400
                                                       1.400   1.400

     PseudoPot. # 2 for C  read from file:
     /afs/slac.stanford.edu/u/if/mamunm/psp/gbrv1.5pbe/C.UPF
     MD5 check sum: d1aef80898a10debaa0f26306b886e00
     Pseudo is Ultrasoft + core correction, Zval =  4.0
     Generated by new atomic code, or converted to UPF format
     Using radial grid of  721 points,  4 beta functions with:
                l(1) =   0
                l(2) =   0
                l(3) =   1
                l(4) =   1
     Q(r) pseudized with  8 coefficients,  rinner =    1.100   1.100   1.100

     vdW kernel table read from file vdW_kernel_table
     MD5 check sum: 095c7af220d748ca6e76c0b4c6cfb241

     atomic species   valence    mass     pseudopotential
        Ir1           15.00   192.21700     Ir( 1.00)
        C1             4.00    12.01100     C ( 1.00)

     No symmetry found

   Cartesian axes

     site n.     atom                  positions (alat units)
         1           Ir1 tau(   1) = (   1.3705410   0.7912822  10.0000000  )
         2           Ir1 tau(   2) = (   4.1116229   0.7912822  10.0000000  )
         3           Ir1 tau(   3) = (   2.7410819   3.1651288  10.0000000  )
         4           Ir1 tau(   4) = (   5.4821639   3.1651288  10.0000000  )
         5           Ir1 tau(   5) = (   5.4821639   1.5825644  12.2380840  )
         6           Ir1 tau(   6) = (   2.7410819   1.5825644  12.2380840  )
         7           Ir1 tau(   7) = (   6.8527049   3.9564110  12.2380840  )
         8           Ir1 tau(   8) = (   4.1116229   3.9564110  12.2380840  )
         9           Ir1 tau(   9) = (   0.0000000   0.0000000  14.4761681  )
        10           Ir1 tau(  10) = (   2.7410819   0.0000000  14.4761681  )
        11           Ir1 tau(  11) = (   1.3705410   2.3738466  14.4761681  )
        12           Ir1 tau(  12) = (   4.1116229   2.3738466  14.4761681  )
        13           C1  tau(  13) = (   2.7410819   1.5825644  16.6461681  )

     number of k points=    20  Fermi-Dirac smearing, width (Ry)=  0.0110
                       cart. coord. in units 2pi/alat
        k(    1) = (   0.0000000   0.0000000   0.0000000), wk =   0.0555556
        k(    2) = (   0.0000000   0.0351048   0.0000000), wk =   0.1111111
        k(    3) = (   0.0000000   0.0702095   0.0000000), wk =   0.1111111
        k(    4) = (   0.0000000  -0.1053143   0.0000000), wk =   0.0555556
        k(    5) = (   0.0304016  -0.0175524   0.0000000), wk =   0.1111111
        k(    6) = (   0.0304016   0.0175524   0.0000000), wk =   0.1111111
        k(    7) = (   0.0304016   0.0526572   0.0000000), wk =   0.1111111
        k(    8) = (   0.0304016  -0.1228667   0.0000000), wk =   0.1111111
        k(    9) = (   0.0304016  -0.0877619   0.0000000), wk =   0.1111111
        k(   10) = (   0.0304016  -0.0526572   0.0000000), wk =   0.1111111
        k(   11) = (   0.0608032  -0.0351048   0.0000000), wk =   0.1111111
        k(   12) = (   0.0608032   0.0000000   0.0000000), wk =   0.1111111
        k(   13) = (   0.0608032   0.0351048   0.0000000), wk =   0.1111111
        k(   14) = (   0.0608032  -0.1404191   0.0000000), wk =   0.1111111
        k(   15) = (   0.0608032  -0.1053143   0.0000000), wk =   0.1111111
        k(   16) = (   0.0608032  -0.0702095   0.0000000), wk =   0.1111111
        k(   17) = (  -0.0912049   0.0526572   0.0000000), wk =   0.0555556
        k(   18) = (  -0.0912049   0.0877619   0.0000000), wk =   0.1111111
        k(   19) = (  -0.0912049   0.1228667   0.0000000), wk =   0.1111111
        k(   20) = (  -0.0912049  -0.0526572   0.0000000), wk =   0.0555556

     Largest allocated arrays     est. size (Mb)     dimensions
     Largest temporary arrays     est. size (Mb)     dimensions

     Initial potential from superposition of free atoms
     Check: negative starting charge=   -4.361539

     starting charge  177.99958, renormalised to  184.00000

     negative rho (up, down):  4.509E+00 0.000E+00

     *
     * You are using vdW-DF for exchange-correlation in this calculation.
     * Please cite the following three references that made this development
     * possible:
     *
     *   M. Dion, H. Rydberg, E. Schroder, D. C. Langreth, and
     *   B. I. Lundqvist, Phys. Rev. Lett. 92, 246401 (2004).
     *
     *   T. Thonhauser, V. R. Cooper, S. Li, A. Puzder, P. Hyldgaard, and
     *   D. C. Langreth, Phys. Rev. B 76, 125112 (2007).
     *
     *   G. Roman-Perez and J. M. Soler, Phys. Rev. Lett. 103, 096102 (2009).
     *
     *
     * If you are using vdW-DF2, please also cite:
     *
     *   K. Lee, E. D. Murray, L. Kong, B. I. Lundqvist, and
     *   D. C. Langreth, Phys. Rev. B 82, 081101(R) (2010).
     *
     *
     * If you are calculating the stress with vdW-DF, please also cite:
     *
     *   R. Sabatini, E. Kucukbenli, B. Kolb, T. Thonhauser, and
     *   S. de Gironcoli, J. Phys.: Condens. Matter 24, 424209 (2012).
     *

     Carrying out vdW-DF run using the following parameters:

     Nqs =      20    Nr_points =    1024   r_max =   100.000
     q_mesh =
               0.00001000     0.04494208     0.09755937     0.15916263
               0.23128650     0.31572767     0.41458969     0.53033537
               0.66584808     0.82450364     1.01025438     1.22772762
               1.48234092     1.78043706     2.12944203     2.53805004
               3.01644009     3.57652955     4.23227104     5.00000000

     Gradients computed in reciprocal space

     Adding external electric field

     Computed dipole along edir(3) :
        Dipole               -1.1229 Ry au,         -2.8541 Debye
        Dipole field         -0.0033 Ry au

        Potential amp.        0.2960 Ry
        Total length         45.0969 bohr

     Starting wfc are  148 randomized atomic wfcs

     Self-consistent Calculation

     iteration #  1     ecut=    36.75 Ry     beta=0.30
     Davidson diagonalization with overlap
     ethr =  1.00E-02,  avg # of iterations =  2.2

[...]

     total energy              =   -2194.32827515 Ry
     Harris-Foulkes estimate   =   -2214.34220144 Ry
     estimated scf accuracy    <      42.76227767 Ry

[...]

     End of self-consistent calculation

          k = 0.0000 0.0000 0.0000 ( 16073 PWs)   bands (ev):

   -47.8255 -47.8175 -47.8174 -47.6833 -47.6182 -47.5989 -47.5987 -47.4189
   -47.4188 -47.3880 -47.3802 -47.3489 -47.3489 -47.2733 -47.2733 -47.2535
   -47.2526 -47.2525 -47.0119 -47.0118 -46.9993 -46.9932 -46.9287 -46.9286
   -46.9120 -46.9010 -46.9009 -46.8954 -46.8747 -46.8519 -46.8483 -46.8482
   -46.8342 -46.8340 -46.7721 -46.7720  -7.3401  -6.4586  -5.1619  -4.9025
    -4.6434  -4.6434  -4.6314  -4.3503  -4.3503  -4.3190  -3.8537  -3.8537
    -3.8440  -3.5758  -3.5758  -3.5662  -2.0895  -2.0894  -2.0510  -1.5434
    -1.5281  -1.5281  -1.3303  -1.1837  -1.1837  -0.9350  -0.7468  -0.7468
    -0.6913  -0.6913  -0.6673  -0.4456  -0.4456  -0.2102  -0.2102  -0.1123
     0.9740   1.0741   1.0741   1.1717   1.2113   1.2113   1.2603   1.2603
     1.4658   1.9227   1.9227   2.0655   2.0655   2.3619   2.6453   2.6896
     2.6896   2.7086   2.8833   2.8833   3.2175   3.2176   3.2349   3.2420
     3.4006   3.4006   3.6097   3.6098   3.6631   3.6885

[...]

          k =-0.0912 0.0527 0.0000 ( 16164 PWs)   bands (ev):

[...]

     the Fermi energy is     2.2538 ev

!    total energy              =   -2210.99602015 Ry
     Harris-Foulkes estimate   =   -2210.99600807 Ry
     estimated scf accuracy    <       0.00000285 Ry

     The total energy is the sum of the following terms:

     one-electron contribution =  -18609.05997823 Ry
     hartree contribution      =    9334.73271826 Ry
     xc contribution           =    -626.72232968 Ry
     ewald contribution        =    7690.15335539 Ry
     electric field correction =       0.00012288 Ry
     smearing contrib. (-TS)   =      -0.09990877 Ry

     convergence has been achieved in  18 iterations

 BEEF-vdW xc energy contributions
           1 :   -555.006201502130
           2 :    516.253720673562
           3 :   -446.986704622149
           4 :    360.828804230471
           5 :   -272.734526806176
           6 :    195.162601391887
           7 :   -135.445878389427
           8 :    94.9609865099942
           9 :   -70.1545438247323
          10 :    54.8570114554125
          11 :   -42.9371011926662
          12 :    30.3385216503067
          13 :   -15.9204856076948
          14 :    1.05203701657820
          15 :    11.6472784203477
          16 :   -19.8100426759165
          17 :    22.4539763538767
          18 :   -20.3649445231864
[...]
     SCF correction compared to forces is large: reduce conv_thr to get better values

[...]

   This run was terminated on:  16:22: 8  15Jan2018

[...]

   This run was terminated on:  16:47: 9  15Jan2018

[...]

     Program PWSCF v.5.1rc2 (svn rev. 11289) starts on 15Jan2018 at 17:24: 5

[...]

     Total force =     0.070517     Total SCF correction =     0.006557

[...]

   This run was terminated on:  18: 0:19  15Jan2018

[...]

     Program PWSCF v.5.1rc2 (svn rev. 11289) starts on 15Jan2018 at 18: 0:25

[...]

     Program PWSCF v.5.1rc2 (svn rev. 11289) starts on 15Jan2018 at 18:12:28

     Current dimensions of program PWSCF are:
     Max number of different atomic species (ntypx) = 10
     Max number of k-points (npk) =  40000
     Max angular momentum in pseudopotentials (lmaxx) =  3
     Presently stress not available with electric field

     IMPORTANT: XC functional enforced from input :
     Exchange-correlation      = BEEF-VDW ( 1  4 27 13 2)
     Any further DFT definition will be discarded
     Please, verify this is what you really want

     Subspace diagonalization in iterative solution of the eigenvalue problem:
     a serial algorithm will be used

     bravais-lattice index     =            0
     lattice parameter (alat)  =       1.8897  a.u.
     unit-cell volume          =    4299.0717 (a.u.)^3
     number of atoms/cell      =           13
     number of atomic types    =            2
     number of electrons       =       184.00
     number of Kohn-Sham states=          102
     kinetic-energy cutoff     =      36.7493  Ry
     charge density cutoff     =     367.4932  Ry
     convergence threshold     =      1.0E-05
     mixing beta               =       0.3000
     number of iterations used =           10  plain     mixing
     Exchange-correlation      = BEEF-VDW ( 1  4 27 13 2)
     nstep                     =           50

     celldm(1)=   1.889726  celldm(2)=   0.000000  celldm(3)=   0.000000
     celldm(4)=   0.000000  celldm(5)=   0.000000  celldm(6)=   0.000000

     crystal axes: (cart. coord. in units of alat)
               a(1) = (   5.482164   0.000000   0.000000 )
               a(2) = (   2.741082   4.747693   0.000000 )
               a(3) = (   0.000000   0.000000  24.476168 )

     reciprocal axes: (cart. coord. in units 2 pi/alat)
               b(1) = (  0.182410 -0.105314  0.000000 )
               b(2) = (  0.000000  0.210629  0.000000 )
               b(3) = (  0.000000  0.000000  0.040856 )

     PseudoPot. # 1 for Ir read from file:
     /afs/slac.stanford.edu/u/if/mamunm/psp/gbrv1.5pbe/Ir.UPF
     MD5 check sum: 8836f839c3459d2b385c504ce6d91f2c
     Pseudo is Ultrasoft + core correction, Zval = 15.0
     Generated by new atomic code, or converted to UPF format
     Using radial grid of  983 points,  7 beta functions with:
                l(1) =   0
                l(2) =   0
                l(3) =   1
                l(4) =   1
                l(5) =   1
                l(6) =   2
                l(7) =   2
     Q(r) pseudized with  8 coefficients,  rinner =    1.400   1.400   1.400
                                                       1.400   1.400

     PseudoPot. # 2 for C  read from file:
     /afs/slac.stanford.edu/u/if/mamunm/psp/gbrv1.5pbe/C.UPF
     MD5 check sum: d1aef80898a10debaa0f26306b886e00
     Pseudo is Ultrasoft + core correction, Zval =  4.0
     Generated by new atomic code, or converted to UPF format
     Using radial grid of  721 points,  4 beta functions with:
                l(1) =   0
                l(2) =   0
                l(3) =   1
                l(4) =   1
     Q(r) pseudized with  8 coefficients,  rinner =    1.100   1.100   1.100

     vdW kernel table read from file vdW_kernel_table
     MD5 check sum: 095c7af220d748ca6e76c0b4c6cfb241

     atomic species   valence    mass     pseudopotential
        Ir1           15.00   192.21700     Ir( 1.00)
        C1             4.00    12.01100     C ( 1.00)

     No symmetry found

   Cartesian axes

     site n.     atom                  positions (alat units)
         1           Ir1 tau(   1) = (   1.3705410   0.7912822  10.0000000  )
         2           Ir1 tau(   2) = (   4.1116229   0.7912822  10.0000000  )
         3           Ir1 tau(   3) = (   2.7410819   3.1651288  10.0000000  )
         4           Ir1 tau(   4) = (   5.4821639   3.1651288  10.0000000  )
         5           Ir1 tau(   5) = (   5.4821639   1.5825644  12.2380840  )
         6           Ir1 tau(   6) = (   2.7410819   1.5825644  12.2380840  )
         7           Ir1 tau(   7) = (   6.8527049   3.9564110  12.2380840  )
         8           Ir1 tau(   8) = (   4.1116229   3.9564110  12.2380840  )
         9           Ir1 tau(   9) = (   2.7410645   4.7476293  14.3997792  )
        10           Ir1 tau(  10) = (   5.4820454   4.6978380  14.4979249  )
        11           Ir1 tau(  11) = (   6.8096177   2.3987062  14.4979283  )
        12           Ir1 tau(  12) = (   4.1548891   2.3989624  14.4979823  )
        13           C1  tau(  13) = (   2.7410001   1.5825843  15.5614038  )

     number of k points=    20  Fermi-Dirac smearing, width (Ry)=  0.0110
                       cart. coord. in units 2pi/alat
        k(    1) = (   0.0000000   0.0000000   0.0000000), wk =   0.0555556
        k(    2) = (   0.0000000   0.0351048   0.0000000), wk =   0.1111111
        k(    3) = (   0.0000000   0.0702095   0.0000000), wk =   0.1111111
        k(    4) = (   0.0000000  -0.1053143   0.0000000), wk =   0.0555556
        k(    5) = (   0.0304016  -0.0175524   0.0000000), wk =   0.1111111
        k(    6) = (   0.0304016   0.0175524   0.0000000), wk =   0.1111111
        k(    7) = (   0.0304016   0.0526572   0.0000000), wk =   0.1111111
        k(    8) = (   0.0304016  -0.1228667   0.0000000), wk =   0.1111111
        k(    9) = (   0.0304016  -0.0877619   0.0000000), wk =   0.1111111
        k(   10) = (   0.0304016  -0.0526572   0.0000000), wk =   0.1111111
        k(   11) = (   0.0608032  -0.0351048   0.0000000), wk =   0.1111111
        k(   12) = (   0.0608032   0.0000000   0.0000000), wk =   0.1111111
        k(   13) = (   0.0608032   0.0351048   0.0000000), wk =   0.1111111
        k(   14) = (   0.0608032  -0.1404191   0.0000000), wk =   0.1111111
        k(   15) = (   0.0608032  -0.1053143   0.0000000), wk =   0.1111111
        k(   16) = (   0.0608032  -0.0702095   0.0000000), wk =   0.1111111
        k(   17) = (  -0.0912049   0.0526572   0.0000000), wk =   0.0555556
        k(   18) = (  -0.0912049   0.0877619   0.0000000), wk =   0.1111111
        k(   19) = (  -0.0912049   0.1228667   0.0000000), wk =   0.1111111
        k(   20) = (  -0.0912049  -0.0526572   0.0000000), wk =   0.0555556

     Largest allocated arrays     est. size (Mb)     dimensions
     Largest temporary arrays     est. size (Mb)     dimensions

     Initial potential from superposition of free atoms
     Check: negative starting charge=   -4.366196

     starting charge  177.99958, renormalised to  184.00000

[...]

     *
     * You are using vdW-DF for exchange-correlation in this calculation.
     * Please cite the following three references that made this development
     * possible:
     *
     *   M. Dion, H. Rydberg, E. Schroder, D. C. Langreth, and
     *   B. I. Lundqvist, Phys. Rev. Lett. 92, 246401 (2004).
     *
     *   T. Thonhauser, V. R. Cooper, S. Li, A. Puzder, P. Hyldgaard, and
     *   D. C. Langreth, Phys. Rev. B 76, 125112 (2007).
     *
     *   G. Roman-Perez and J. M. Soler, Phys. Rev. Lett. 103, 096102 (2009).
     *
     *
     * If you are using vdW-DF2, please also cite:
     *
     *   K. Lee, E. D. Murray, L. Kong, B. I. Lundqvist, and
     *   D. C. Langreth, Phys. Rev. B 82, 081101(R) (2010).
     *
     *
     * If you are calculating the stress with vdW-DF, please also cite:
     *
     *   R. Sabatini, E. Kucukbenli, B. Kolb, T. Thonhauser, and
     *   S. de Gironcoli, J. Phys.: Condens. Matter 24, 424209 (2012).
     *

     Carrying out vdW-DF run using the following parameters:

     Nqs =      20    Nr_points =    1024   r_max =   100.000
     q_mesh =
               0.00001000     0.04494208     0.09755937     0.15916263
               0.23128650     0.31572767     0.41458969     0.53033537
               0.66584808     0.82450364     1.01025438     1.22772762
               1.48234092     1.78043706     2.12944203     2.53805004
               3.01644009     3.57652955     4.23227104     5.00000000

     Gradients computed in reciprocal space

[...]

     Starting wfc are  148 randomized atomic wfcs

     Self-consistent Calculation

[...]

     total energy              =   -2211.29097816 Ry
     Harris-Foulkes estimate   =   -2211.29098692 Ry
     estimated scf accuracy    <       0.00013148 Ry

     iteration # 17     ecut=    36.75 Ry     beta=0.30
     Davidson diagonalization with overlap
     ethr =  6.82E-08,  avg # of iterations =  1.4

[...]

     negative rho (up, down):  3.881E+00 0.000E+00

     Adding external electric field

     Computed dipole along edir(3) :
        Dipole               -0.0490 Ry au,         -0.1245 Debye
        Dipole field         -0.0001 Ry au

        Potential amp.        0.0129 Ry
        Total length         45.0969 bohr

     End of self-consistent calculation

[...]

          k = 0.0608-0.0702 0.0000 ( 16191 PWs)   bands (ev):

[...]

          k =-0.0912-0.0527 0.0000 ( 16164 PWs)   bands (ev):

   -47.6878 -47.6006 -47.5459 -47.5180 -47.4864 -47.4645 -47.4320 -47.4226
   -47.3930 -47.3865 -47.3185 -47.3162 -47.2898 -47.2228 -47.1981 -47.1947
   -47.1280 -47.0823 -47.0278 -47.0200 -47.0112 -46.9758 -46.9484 -46.8785
   -46.8690 -46.8456 -46.8215 -46.8112 -46.7370 -46.7266 -46.7001 -46.6964
   -46.6925 -46.6756 -46.6654 -46.6583  -9.5038  -5.4324  -5.1270  -4.2530
    -3.7878  -3.6316  -3.4802  -3.4582  -3.4008  -3.3878  -3.3362  -2.9610
    -2.8476  -2.7568  -2.7035  -2.5394  -2.4922  -2.3470  -2.1896  -2.0085
    -1.9152  -1.8208  -1.7928  -1.5500  -1.4089  -1.3165  -1.1277  -1.0772
    -0.8140  -0.8111  -0.7948  -0.5619  -0.5292  -0.3669  -0.3640  -0.3104
    -0.2542  -0.2456  -0.2090  -0.1967  -0.0792   0.0958   0.5243   0.5777
     0.6385   0.6971   0.9433   1.0235   1.1119   1.1824   1.2059   1.4177
     1.5583   1.7574   1.8322   1.8931   1.9733   2.1221   2.4666   2.6484
     2.9427   3.0664   3.0888   3.3105   3.4199   3.7563

     the Fermi energy is     2.4127 ev

!    total energy              =   -2211.29098078 Ry
     Harris-Foulkes estimate   =   -2211.29099539 Ry
     estimated scf accuracy    <       0.00000764 Ry

     The total energy is the sum of the following terms:

     one-electron contribution =  -18880.31518401 Ry
     hartree contribution      =    9470.71060891 Ry
     xc contribution           =    -627.45713458 Ry
     ewald contribution        =    7825.86438964 Ry
     electric field correction =       0.00000701 Ry
     smearing contrib. (-TS)   =      -0.09366775 Ry

     convergence has been achieved in  17 iterations

 BEEF-vdW xc energy contributions
           1 :   -555.746173601225
           2 :    517.214164633453
           3 :   -448.225626574040
           4 :    362.215806274900
           5 :   -274.028475842937
           6 :    196.115907572178
           7 :   -135.900303428976
           8 :    94.9068295251599
           9 :   -69.7318545299058
          10 :    54.2970254103016
          11 :   -42.4677501850762
          12 :    30.0988415570660
          13 :   -15.9213391012731
          14 :    1.19100005386576
          15 :    11.5282736045979
          16 :   -19.8475870503387
          17 :    22.7015861403584
          18 :   -20.7727774456887
          19 :    16.1299408053851
          20 :   -11.3370290446001
          21 :    8.45451039199725
          22 :   -8.34039041882750
          23 :    10.4938169677632
          24 :   -13.4528608896007
          25 :    15.5324736899718
          26 :   -15.5734806735513
          27 :    13.3949765677953
          28 :   -9.79074718526215
          29 :    6.11185740139001
          30 :   -3.64763842463503
          31 :   -47.7186333255815
          32 :   -35.8355952849151

     Forces acting on atoms (Ry/au):

     negative rho (up, down):  3.881E+00 0.000E+00
     atom    1 type  1   force =     0.00332316    0.00188646    0.01600536
     atom    2 type  1   force =    -0.00331457    0.00191560    0.01588035
     atom    3 type  1   force =     0.00000755   -0.00382711    0.01601950
     atom    4 type  1   force =     0.00000097    0.00000353    0.01569606
     atom    5 type  1   force =    -0.00014565    0.00169701   -0.01038793
     atom    6 type  1   force =     0.00014570   -0.00008910   -0.03231913
     atom    7 type  1   force =    -0.00155929   -0.00071716   -0.01037907
     atom    8 type  1   force =     0.00152517   -0.00086701   -0.01024849
     atom    9 type  1   force =    -0.00004469    0.00005643   -0.00015378
     atom   10 type  1   force =     0.00012593    0.00005947    0.00002072
     atom   11 type  1   force =    -0.00006624    0.00007003   -0.00001928
     atom   12 type  1   force =    -0.00008858   -0.00017013    0.00000570
     atom   13 type  2   force =     0.00009055   -0.00001803   -0.00012000

     Total force =     0.049290     Total SCF correction =     0.019826
     SCF correction compared to forces is large: reduce conv_thr to get better values

     entering subroutine stress ...

     negative rho (up, down):  3.881E+00 0.000E+00
          total   stress  (Ry/bohr**3)                   (kbar)     P=  -20.37
  -0.00015388  -0.00000002   0.00000005        -22.64     -0.00      0.01
  -0.00000002  -0.00015387   0.00000001         -0.00    -22.63      0.00
   0.00000005   0.00000001  -0.00010760          0.01      0.00    -15.83

 !ASE

     Writing output data file calc.save

     General routines

     Parallel routines

   This run was terminated on:  18:23:52  15Jan2018

   JOB DONE.
Job  /afs/slac/g/suncat/bin/suncat-tsmpirun -x LD_LIBRARY_PATH -wdir /scratch/qe842452_lcr8t pw.x -in pw.inp

TID   HOST_NAME   COMMAND_LINE            STATUS            TERMINATION_TIME
00000 suncat0253 pw.x -in pw.inp   Done                     01/15/2018 18:23:52
00001 suncat0253 pw.x -in pw.inp   Done                     01/15/2018 18:23:52
00002 suncat0253 pw.x -in pw.inp   Done                     01/15/2018 18:23:52
00003 suncat0253 pw.x -in pw.inp   Done                     01/15/2018 18:23:52
00004 suncat0253 pw.x -in pw.inp   Done                     01/15/2018 18:23:52
00005 suncat0253 pw.x -in pw.inp   Done                     01/15/2018 18:23:52
00006 suncat0253 pw.x -in pw.inp   Done                     01/15/2018 18:23:52
00007 suncat0253 pw.x -in pw.inp   Done                     01/15/2018 18:23:52
00008 suncat0249 pw.x -in pw.inp   Done                     01/15/2018 18:23:52
00009 suncat0249 pw.x -in pw.inp   Done                     01/15/2018 18:23:52
00010 suncat0249 pw.x -in pw.inp   Done                     01/15/2018 18:23:52
00011 suncat0249 pw.x -in pw.inp   Done                     01/15/2018 18:23:52
00012 suncat0249 pw.x -in pw.inp   Done                     01/15/2018 18:23:52
00013 suncat0249 pw.x -in pw.inp   Done                     01/15/2018 18:23:52
00014 suncat0249 pw.x -in pw.inp   Done                     01/15/2018 18:23:52
00015 suncat0249 pw.x -in pw.inp   Done                     01/15/2018 18:23:52
00016 suncat0248 pw.x -in pw.inp   Done                     01/15/2018 18:23:52
00017 suncat0248 pw.x -in pw.inp   Done                     01/15/2018 18:23:52
00018 suncat0248 pw.x -in pw.inp   Done                     01/15/2018 18:23:52
00019 suncat0248 pw.x -in pw.inp   Done                     01/15/2018 18:23:52
00020 suncat0248 pw.x -in pw.inp   Done                     01/15/2018 18:23:52
00021 suncat0248 pw.x -in pw.inp   Done                     01/15/2018 18:23:52
00022 suncat0248 pw.x -in pw.inp   Done                     01/15/2018 18:23:52
00023 suncat0248 pw.x -in pw.inp   Done                     01/15/2018 18:23:52
00024 suncat0247 pw.x -in pw.inp   Done                     01/15/2018 18:23:52
00025 suncat0247 pw.x -in pw.inp   Done                     01/15/2018 18:23:52
00026 suncat0247 pw.x -in pw.inp   Done                     01/15/2018 18:23:52
00027 suncat0247 pw.x -in pw.inp   Done                     01/15/2018 18:23:52
00028 suncat0247 pw.x -in pw.inp   Done                     01/15/2018 18:23:52
00029 suncat0247 pw.x -in pw.inp   Done                     01/15/2018 18:23:52
00030 suncat0247 pw.x -in pw.inp   Done                     01/15/2018 18:23:52
00031 suncat0247 pw.x -in pw.inp   Done                     01/15/2018 18:23:52