     Program PWSCF v.5.1rc2 (svn rev. 11289) starts on 22Apr2018 at 20:30:33

     Current dimensions of program PWSCF are:
     Max number of different atomic species (ntypx) = 10
     Max number of k-points (npk) =  40000
     Max angular momentum in pseudopotentials (lmaxx) =  3
     Presently stress not available with electric field

     IMPORTANT: XC functional enforced from input :
     Exchange-correlation      = BEEF-VDW ( 1  4 27 13 2)
     Any further DFT definition will be discarded
     Please, verify this is what you really want

     Subspace diagonalization in iterative solution of the eigenvalue problem:
     a serial algorithm will be used

     bravais-lattice index     =            0
     lattice parameter (alat)  =       1.8897  a.u.
     unit-cell volume          =    6116.8020 (a.u.)^3
     number of atoms/cell      =           14
     number of atomic types    =            3
     number of electrons       =       139.00
     number of Kohn-Sham states=           79
     kinetic-energy cutoff     =      36.7493  Ry
     charge density cutoff     =     367.4932  Ry
     convergence threshold     =      1.0E-05
     mixing beta               =       0.3000
     number of iterations used =           10  plain     mixing
     Exchange-correlation      = BEEF-VDW ( 1  4 27 13 2)
     nstep                     =           50

     celldm(1)=   1.889726  celldm(2)=   0.000000  celldm(3)=   0.000000
     celldm(4)=   0.000000  celldm(5)=   0.000000  celldm(6)=   0.000000

     crystal axes: (cart. coord. in units of alat)
               a(1) = (   6.437465   0.000000   0.000000 )
               a(2) = (   3.218732   5.575008   0.000000 )
               a(3) = (   0.000000   0.000000  25.256168 )

     reciprocal axes: (cart. coord. in units 2 pi/alat)
               b(1) = (  0.155341 -0.089686  0.000000 )
               b(2) = (  0.000000  0.179372  0.000000 )
               b(3) = (  0.000000  0.000000  0.039594 )

     PseudoPot. # 1 for Sc read from file:
     /u/if/mamunm/psp/gbrv1.5pbe/Sc.UPF
     MD5 check sum: db30a2753ba66ef00f23801d899b7e7f
     Pseudo is Ultrasoft + core correction, Zval = 11.0
     Generated by new atomic code, or converted to UPF format
     Using radial grid of  849 points,  6 beta functions with:
                l(1) =   0
                l(2) =   0
                l(3) =   1
                l(4) =   1
                l(5) =   2
                l(6) =   2
     Q(r) pseudized with  6 coefficients,  rinner =    1.200   1.200   1.200
                                                       1.200   1.200

     PseudoPot. # 2 for O  read from file:
     /u/if/mamunm/psp/gbrv1.5pbe/O.UPF
     MD5 check sum: 734c27235a0248c51dbae37a1fbe46ec
     Pseudo is Ultrasoft + core correction, Zval =  6.0
     Generated by new atomic code, or converted to UPF format
     Using radial grid of  737 points,  5 beta functions with:
                l(1) =   0
                l(2) =   0
                l(3) =   1
                l(4) =   1
                l(5) =   2
     Q(r) pseudized with  8 coefficients,  rinner =    0.900   0.900   0.900
                                                       0.900   0.900

     PseudoPot. # 3 for H  read from file:
     /u/if/mamunm/psp/gbrv1.5pbe/H.UPF
     MD5 check sum: 761ae9a214b05c3daf00ab9f6b793d6f
     Pseudo is Ultrasoft, Zval =  1.0
     Generated by new atomic code, or converted to UPF format
     Using radial grid of  615 points,  2 beta functions with:
                l(1) =   0
                l(2) =   0
     Q(r) pseudized with  8 coefficients,  rinner =    0.700

     vdW kernel table read from file vdW_kernel_table
     MD5 check sum: 095c7af220d748ca6e76c0b4c6cfb241

     atomic species   valence    mass     pseudopotential
        Sc1           11.00    44.95591     Sc( 1.00)
        O1             6.00    15.99900     O ( 1.00)
        H1             1.00     1.00800     H ( 1.00)

     No symmetry found

   Cartesian axes

     site n.     atom                  positions (alat units)
         1           Sc1 tau(   1) = (   1.6093662   0.9291680  10.0000000  )
         2           Sc1 tau(   2) = (   4.8280986   0.9291680  10.0000000  )
         3           Sc1 tau(   3) = (   3.2187324   3.7166720  10.0000000  )
         4           Sc1 tau(   4) = (   6.4374648   3.7166720  10.0000000  )
         5           Sc1 tau(   5) = (   6.4374648   1.8583360  12.6280840  )
         6           Sc1 tau(   6) = (   3.2187324   1.8583360  12.6280840  )
         7           Sc1 tau(   7) = (   8.0468310   4.6458400  12.6280840  )
         8           Sc1 tau(   8) = (   4.8280986   4.6458400  12.6280840  )
         9           Sc1 tau(   9) = (   0.0000000   0.0000000  15.2561680  )
        10           Sc1 tau(  10) = (   3.2187324   0.0000000  15.2561680  )
        11           Sc1 tau(  11) = (   1.6093662   2.7875040  15.2561680  )
        12           Sc1 tau(  12) = (   4.8280986   2.7875040  15.2561680  )
        13           O1  tau(  13) = (   0.0000000   0.0000000  17.2621680  )
        14           H1  tau(  14) = (   0.0000000   0.0000000  18.2121680  )

     number of k points=    20  Fermi-Dirac smearing, width (Ry)=  0.0110
                       cart. coord. in units 2pi/alat
        k(    1) = (   0.0000000   0.0000000   0.0000000), wk =   0.0555556
        k(    2) = (   0.0000000   0.0298953   0.0000000), wk =   0.1111111
        k(    3) = (   0.0000000   0.0597906   0.0000000), wk =   0.1111111
        k(    4) = (   0.0000000  -0.0896860   0.0000000), wk =   0.0555556
        k(    5) = (   0.0258901  -0.0149477   0.0000000), wk =   0.1111111
        k(    6) = (   0.0258901   0.0149477   0.0000000), wk =   0.1111111
        k(    7) = (   0.0258901   0.0448430   0.0000000), wk =   0.1111111
        k(    8) = (   0.0258901  -0.1046336   0.0000000), wk =   0.1111111
        k(    9) = (   0.0258901  -0.0747383   0.0000000), wk =   0.1111111
        k(   10) = (   0.0258901  -0.0448430   0.0000000), wk =   0.1111111
        k(   11) = (   0.0517802  -0.0298953   0.0000000), wk =   0.1111111
        k(   12) = (   0.0517802   0.0000000   0.0000000), wk =   0.1111111
        k(   13) = (   0.0517802   0.0298953   0.0000000), wk =   0.1111111
        k(   14) = (   0.0517802  -0.1195813   0.0000000), wk =   0.1111111
        k(   15) = (   0.0517802  -0.0896860   0.0000000), wk =   0.1111111
        k(   16) = (   0.0517802  -0.0597906   0.0000000), wk =   0.1111111
        k(   17) = (  -0.0776703   0.0448430   0.0000000), wk =   0.0555556
        k(   18) = (  -0.0776703   0.0747383   0.0000000), wk =   0.1111111
        k(   19) = (  -0.0776703   0.1046336   0.0000000), wk =   0.1111111
        k(   20) = (  -0.0776703  -0.0448430   0.0000000), wk =   0.0555556

     Largest allocated arrays     est. size (Mb)     dimensions
     Largest temporary arrays     est. size (Mb)     dimensions

     Initial potential from superposition of free atoms
     Check: negative starting charge=   -0.000347

     starting charge  138.97116, renormalised to  139.00000

     negative rho (up, down):  3.467E-04 0.000E+00

     *
     * You are using vdW-DF for exchange-correlation in this calculation.
     * Please cite the following three references that made this development
     * possible:
     *
     *   M. Dion, H. Rydberg, E. Schroder, D. C. Langreth, and
     *   B. I. Lundqvist, Phys. Rev. Lett. 92, 246401 (2004).
     *
     *   T. Thonhauser, V. R. Cooper, S. Li, A. Puzder, P. Hyldgaard, and
     *   D. C. Langreth, Phys. Rev. B 76, 125112 (2007).
     *
     *   G. Roman-Perez and J. M. Soler, Phys. Rev. Lett. 103, 096102 (2009).
     *
     *
     * If you are using vdW-DF2, please also cite:
     *
     *   K. Lee, E. D. Murray, L. Kong, B. I. Lundqvist, and
     *   D. C. Langreth, Phys. Rev. B 82, 081101(R) (2010).
     *
     *
     * If you are calculating the stress with vdW-DF, please also cite:
     *
     *   R. Sabatini, E. Kucukbenli, B. Kolb, T. Thonhauser, and
     *   S. de Gironcoli, J. Phys.: Condens. Matter 24, 424209 (2012).
     *

     Carrying out vdW-DF run using the following parameters:

     Nqs =      20    Nr_points =    1024   r_max =   100.000
     q_mesh =
               0.00001000     0.04494208     0.09755937     0.15916263
               0.23128650     0.31572767     0.41458969     0.53033537
               0.66584808     0.82450364     1.01025438     1.22772762
               1.48234092     1.78043706     2.12944203     2.53805004
               3.01644009     3.57652955     4.23227104     5.00000000

     Gradients computed in reciprocal space

     Adding external electric field

     Computed dipole along edir(3) :
        Dipole               -0.0130 Ry au,         -0.0330 Debye
        Dipole field         -0.0000 Ry au

        Potential amp.        0.0025 Ry
        Total length         46.5341 bohr

     Starting wfc are  161 randomized atomic wfcs

     Self-consistent Calculation

     iteration #  1     ecut=    36.75 Ry     beta=0.30
     Davidson diagonalization with overlap
     ethr =  1.00E-02,  avg # of iterations =  2.0

[...]

     total energy              =   -1169.03245618 Ry
     Harris-Foulkes estimate   =   -1172.22523843 Ry
     estimated scf accuracy    <       6.77947107 Ry

[...]

     End of self-consistent calculation

          k = 0.0000 0.0000 0.0000 ( 23031 PWs)   bands (ev):

   -49.1624 -49.1268 -49.1263 -49.1130 -49.0685 -49.0676 -49.0650 -48.9100
   -48.6711 -48.6285 -48.6255 -48.6251 -27.8816 -27.8479 -27.8476 -27.8363
   -27.8339 -27.8334 -27.8236 -27.8232 -27.8210 -27.7905 -27.7362 -27.7354
   -27.7340 -27.6421 -27.5941 -27.5671 -27.5649 -27.5645 -27.5429 -27.5424
   -27.4869 -27.4868 -27.4469 -27.4468 -27.3900 -27.3894 -27.3892 -27.2381
   -27.2152 -27.2093 -27.2090 -27.1552 -27.1550 -27.1472 -27.0758 -27.0757
   -19.1461  -7.0367  -3.8944  -2.9244  -2.9244  -2.8112  -1.5254  -0.6539
    -0.6535  -0.6535  -0.5482  -0.5482  -0.5411  -0.2908  -0.2907  -0.2715
     0.2665   0.2665   0.2709   0.5123   0.6010   0.6011   0.9278   1.1465
     1.3222   1.3739   1.4599   1.4600   1.5137   1.8074   1.8074

[...]

          k =-0.0777 0.0448 0.0000 ( 23032 PWs)   bands (ev):

[...]

     the Fermi energy is     0.8371 ev

!    total energy              =   -1171.53286346 Ry
     Harris-Foulkes estimate   =   -1171.53287087 Ry
     estimated scf accuracy    <       0.00000165 Ry

     The total energy is the sum of the following terms:

     one-electron contribution =   -7375.50666522 Ry
     hartree contribution      =    3674.26982608 Ry
     xc contribution           =    -174.82296640 Ry
     ewald contribution        =    2704.65786999 Ry
     electric field correction =       0.00014070 Ry
     smearing contrib. (-TS)   =      -0.13106861 Ry

     convergence has been achieved in  19 iterations

 BEEF-vdW xc energy contributions
           1 :   -148.156268291885
           2 :    130.233207108648
           3 :   -102.340887343760
           4 :    75.2544343741559
           5 :   -56.4817134433933
           6 :    47.3113727106689
           7 :   -44.1572037852078
           8 :    42.3181701376481
           9 :   -39.1681770857759
          10 :    34.9218532978566
          11 :   -31.2223596220592
          12 :    29.1781008996663
          13 :   -28.4330074876827
          14 :    27.7190856456059
          15 :   -26.1184504809872
          16 :    23.8265232453089
          17 :   -21.8158737481199
          18 :    20.8428160036106
          19 :   -20.7715863402507
          20 :    20.7761395141762
          21 :   -20.1294932055435
          22 :    18.8124307692960
          23 :   -17.4354841271865
          24 :    16.6263071122884
          25 :   -16.4779939174325
          26 :    16.5268523768435
          27 :   -16.2200238440559
          28 :    15.4135947818906
          29 :   -14.4590953611616
          30 :    13.8370524475663
          31 :   -17.4572219391803
          32 :   -12.4562274583768

     Forces acting on atoms (Ry/au):

     negative rho (up, down):  3.309E-04 0.000E+00
     atom    1 type  1   force =    -0.00007199   -0.00006884    0.00124095
     atom    2 type  1   force =     0.00006905   -0.00009791    0.00119543
     atom    3 type  1   force =    -0.00002672    0.00012665    0.00125195
     atom    4 type  1   force =     0.00002815    0.00004158    0.00133208
     atom    5 type  1   force =    -0.00005036    0.00502911    0.00122595
     atom    6 type  1   force =     0.00005247    0.00003675    0.00392522
     atom    7 type  1   force =    -0.00432064   -0.00250644    0.00119118
     atom    8 type  1   force =     0.00432461   -0.00256532    0.00124225
     atom    9 type  1   force =    -0.00003424    0.00000149    0.04783988
     atom   10 type  1   force =     0.00003523   -0.00317790   -0.00645148
     atom   11 type  1   force =    -0.00276049    0.00161146   -0.00651562
     atom   12 type  1   force =     0.00275682    0.00157348   -0.00648622
     atom   13 type  2   force =    -0.00000197   -0.00000287   -0.07794529
     atom   14 type  3   force =     0.00000008   -0.00000123    0.03695374

     Total force =     0.099430     Total SCF correction =     0.000309

     entering subroutine stress ...

     negative rho (up, down):  3.309E-04 0.000E+00
          total   stress  (Ry/bohr**3)                   (kbar)     P=    1.32
   0.00003037  -0.00000000  -0.00000000          4.47     -0.00     -0.00
  -0.00000000   0.00003038  -0.00000001         -0.00      4.47     -0.00
  -0.00000000  -0.00000001  -0.00003384         -0.00     -0.00     -4.98

     BFGS Geometry Optimization

     number of scf cycles    =   1
     number of bfgs steps    =   0

     energy   new            =   -1171.5328634626 Ry

     new trust radius        =       0.0779452896 bohr
     new conv_thr            =       0.0000099958 Ry

ATOMIC_POSITIONS (crystal)
Sc1      0.166666667   0.166666667   0.395942884    0   0   0
Sc1      0.666666667   0.166666667   0.395942884    0   0   0
Sc1      0.166666667   0.666666667   0.395942884    0   0   0
Sc1      0.666666667   0.666666667   0.395942884    0   0   0
Sc1      0.833333333   0.333333333   0.500000000    0   0   0
Sc1      0.333333333   0.333333333   0.500000000    0   0   0
Sc1      0.833333333   0.833333333   0.500000000    0   0   0
Sc1      0.333333333   0.833333333   0.500000000    0   0   0
Sc1     -0.000002885   0.000000141   0.605059476
Sc1      0.500153719  -0.000301645   0.603921942
Sc1     -0.000303399   0.500152959   0.603920598
Sc1      0.500151942   0.500149354   0.603921214
O1      -0.000000026  -0.000000272   0.681850118
H1       0.000000066  -0.000000117   0.721872102

     Writing output data file calc.save
     Check: negative starting charge=   -0.000347
     NEW-OLD atomic charge density approx. for the potential
     Check: negative starting charge=   -0.000346

[...]

     energy   old            =   -1171.5328634626 Ry
     energy   new            =   -1171.5336037842 Ry

     CASE: energy  _new < energy  _old

[...]

     iteration #  9     ecut=    36.75 Ry     beta=0.30
     Davidson diagonalization with overlap
     c_bands:  1 eigenvalues not converged
     ethr =  3.46E-09,  avg # of iterations =  5.8

[...]

     iteration # 10     ecut=    36.75 Ry     beta=0.30
     Davidson diagonalization with overlap
     c_bands:  1 eigenvalues not converged
     ethr =  1.01E-09,  avg # of iterations =  8.6

[...]

     Threshold (ethr) on eigenvalues was too large:
     Diagonalizing with lowered threshold

     Davidson diagonalization with overlap
     ethr =  9.18E-08,  avg # of iterations =  1.4

[...]

     number of scf cycles    =  10
     number of bfgs steps    =   9

     energy   old            =   -1171.5392484679 Ry
     energy   new            =   -1171.5392973858 Ry

     CASE: energy  _new < energy  _old

     new trust radius        =       0.0041402750 bohr
     new conv_thr            =       0.0000001000 Ry

ATOMIC_POSITIONS (crystal)
Sc1      0.166666667   0.166666667   0.395942884    0   0   0
Sc1      0.666666667   0.166666667   0.395942884    0   0   0
Sc1      0.166666667   0.666666667   0.395942884    0   0   0
Sc1      0.666666667   0.666666667   0.395942884    0   0   0
Sc1      0.833333333   0.333333333   0.500000000    0   0   0
Sc1      0.333333333   0.333333333   0.500000000    0   0   0
Sc1      0.833333333   0.833333333   0.500000000    0   0   0
Sc1      0.333333333   0.833333333   0.500000000    0   0   0
Sc1      0.000000859   0.000001539   0.607062397
Sc1      0.501439126  -0.002881565   0.600985615
Sc1     -0.002881343   0.501439270   0.600986540
Sc1      0.501441098   0.501441385   0.600985587
O1       0.000000497  -0.000000718   0.682942976
H1       0.000000025  -0.000000303   0.721176766

     Writing output data file calc.save
     Check: negative starting charge=   -0.000340
     NEW-OLD atomic charge density approx. for the potential
     Check: negative starting charge=   -0.000340

[...]

     Self-consistent Calculation

[...]

     Threshold (ethr) on eigenvalues was too large:
     Diagonalizing with lowered threshold

     Davidson diagonalization with overlap
     ethr =  3.44E-08,  avg # of iterations =  5.7

[...]

     total energy              =   -1171.53931561 Ry
     Harris-Foulkes estimate   =   -1171.53931555 Ry
     estimated scf accuracy    <       0.00000014 Ry

     iteration # 12     ecut=    36.75 Ry     beta=0.30
     Davidson diagonalization with overlap
     ethr =  9.82E-11,  avg # of iterations =  6.2

[...]

     negative rho (up, down):  3.270E-04 0.000E+00

     Adding external electric field

     Computed dipole along edir(3) :
        Dipole                0.2952 Ry au,          0.7503 Debye
        Dipole field          0.0006 Ry au

        Potential amp.       -0.0564 Ry
        Total length         46.5341 bohr

     End of self-consistent calculation

[...]

          k = 0.0518-0.0598 0.0000 ( 23012 PWs)   bands (ev):

[...]

          k =-0.0777-0.0448 0.0000 ( 23032 PWs)   bands (ev):

   -49.0756 -49.0711 -49.0641 -49.0526 -49.0525 -49.0451 -49.0405 -48.8448
   -48.6036 -48.5961 -48.5813 -48.5581 -27.7893 -27.7746 -27.7557 -27.7486
   -27.7465 -27.7422 -27.7422 -27.7202 -27.7172 -27.7113 -27.6924 -27.6432
   -27.6402 -27.6289 -27.6166 -27.6108 -27.6107 -27.5819 -27.5782 -27.5102
   -27.5060 -27.4684 -27.4597 -27.4001 -27.2949 -27.2685 -27.1973 -27.1896
   -27.1754 -27.1719 -27.1701 -27.1605 -27.1490 -27.1458 -27.0749 -27.0484
   -19.2021  -7.1892  -3.2291  -3.1649  -2.5759  -2.5582  -1.5727  -1.5363
    -0.6816  -0.6658  -0.3746  -0.3434  -0.1322  -0.1182   0.5466   0.5933
     0.5940   0.6410   0.6747   0.7289   0.8283   0.9108   0.9296   0.9715
     1.0051   1.0642   1.1407   1.2527   1.3017   1.3074   1.4408

     the Fermi energy is     0.8594 ev

!    total energy              =   -1171.53931560 Ry
     Harris-Foulkes estimate   =   -1171.53931540 Ry
     estimated scf accuracy    <          7.5E-09 Ry

     The total energy is the sum of the following terms:

     one-electron contribution =   -7415.34501176 Ry
     hartree contribution      =    3694.33531039 Ry
     xc contribution           =    -174.87982686 Ry
     ewald contribution        =    2724.48110383 Ry
     electric field correction =       0.00017903 Ry
     smearing contrib. (-TS)   =      -0.13107022 Ry

     convergence has been achieved in  12 iterations

 BEEF-vdW xc energy contributions
           1 :   -148.217989873901
           2 :    130.321932215665
           3 :   -102.448450166915
           4 :    75.3404198156012
           5 :   -56.5114666104193
           6 :    47.2872858072126
           7 :   -44.1129170876306
           8 :    42.2889975536660
           9 :   -39.1675158219238
          10 :    34.9382525780954
          11 :   -31.2336418746684
          12 :    29.1711618191313
          13 :   -28.4149245293534
          14 :    27.7091984182374
          15 :   -26.1274967012756
          16 :    23.8440128999086
          17 :   -21.8195483244506
          18 :    20.8203921260686
          19 :   -20.7318477276779
          20 :    20.7392461106407
          21 :   -20.1081249929935
          22 :    18.8018912772982
          23 :   -17.4200882436137
          24 :    16.5953552077271
          25 :   -16.4372481784872
          26 :    16.4941259885896
          27 :   -16.2070417177981
          28 :    15.4114314378870
          29 :   -14.4429564577985
          30 :    13.7873282492680
          31 :   -17.4618000312392
          32 :   -12.4651004828358

     Forces acting on atoms (Ry/au):

     negative rho (up, down):  3.270E-04 0.000E+00
     atom    1 type  1   force =    -0.00062743   -0.00035852    0.00145056
     atom    2 type  1   force =     0.00062733   -0.00036020    0.00145162
     atom    3 type  1   force =    -0.00000155    0.00072181    0.00145057
     atom    4 type  1   force =     0.00000147   -0.00000283    0.00049309
     atom    5 type  1   force =     0.00000186    0.00421822   -0.00151013
     atom    6 type  1   force =    -0.00000200    0.00000308   -0.00200291
     atom    7 type  1   force =    -0.00365052   -0.00211157   -0.00151138
     atom    8 type  1   force =     0.00365037   -0.00210937   -0.00151427
     atom    9 type  1   force =    -0.00000404    0.00000057    0.00108329
     atom   10 type  1   force =     0.00000452    0.00131726    0.00004215
     atom   11 type  1   force =     0.00113982   -0.00065689    0.00004113
     atom   12 type  1   force =    -0.00113966   -0.00066172    0.00004387
     atom   13 type  2   force =    -0.00000023    0.00000005   -0.00000318
     atom   14 type  3   force =     0.00000005    0.00000011    0.00048559

     Total force =     0.002572     Total SCF correction =     0.000089

     entering subroutine stress ...

     negative rho (up, down):  3.270E-04 0.000E+00
          total   stress  (Ry/bohr**3)                   (kbar)     P=    3.19
   0.00003576   0.00000000  -0.00000000          5.26      0.00     -0.00
   0.00000000   0.00003576  -0.00000000          0.00      5.26     -0.00
  -0.00000000  -0.00000000  -0.00000636         -0.00     -0.00     -0.94

     bfgs converged in  11 scf cycles and  10 bfgs steps
     (criteria: energy <  1.0E+00, force <  1.9E-03)

     End of BFGS Geometry Optimization

     Final energy   =   -1171.5393156010 Ry
Begin final coordinates

ATOMIC_POSITIONS (crystal)
Sc1      0.166666667   0.166666667   0.395942884    0   0   0
Sc1      0.666666667   0.166666667   0.395942884    0   0   0
Sc1      0.166666667   0.666666667   0.395942884    0   0   0
Sc1      0.666666667   0.666666667   0.395942884    0   0   0
Sc1      0.833333333   0.333333333   0.500000000    0   0   0
Sc1      0.333333333   0.333333333   0.500000000    0   0   0
Sc1      0.833333333   0.833333333   0.500000000    0   0   0
Sc1      0.333333333   0.833333333   0.500000000    0   0   0
Sc1      0.000000859   0.000001539   0.607062397
Sc1      0.501439126  -0.002881565   0.600985615
Sc1     -0.002881343   0.501439270   0.600986540
Sc1      0.501441098   0.501441385   0.600985587
O1       0.000000497  -0.000000718   0.682942976
H1       0.000000025  -0.000000303   0.721176766
End final coordinates

     Writing output data file calc.save

     General routines

     Parallel routines

   This run was terminated on:  22: 4:36  22Apr2018

   JOB DONE.
Job  /afs/slac/g/suncat/bin/suncat-tsmpirun -x LD_LIBRARY_PATH -wdir /scratch/qe311424_xtYQw pw.x -npool 4 -in pw.inp

TID   HOST_NAME   COMMAND_LINE            STATUS            TERMINATION_TIME
00000 suncat0096 pw.x -npool 4 -i  Done                     04/22/2018 22:04:36
00001 suncat0096 pw.x -npool 4 -i  Done                     04/22/2018 22:04:36
00002 suncat0096 pw.x -npool 4 -i  Done                     04/22/2018 22:04:36
00003 suncat0096 pw.x -npool 4 -i  Done                     04/22/2018 22:04:36
00004 suncat0096 pw.x -npool 4 -i  Done                     04/22/2018 22:04:36
00005 suncat0096 pw.x -npool 4 -i  Done                     04/22/2018 22:04:36
00006 suncat0096 pw.x -npool 4 -i  Done                     04/22/2018 22:04:36
00007 suncat0096 pw.x -npool 4 -i  Done                     04/22/2018 22:04:36
00008 suncat0094 pw.x -npool 4 -i  Done                     04/22/2018 22:04:36
00009 suncat0094 pw.x -npool 4 -i  Done                     04/22/2018 22:04:36
00010 suncat0094 pw.x -npool 4 -i  Done                     04/22/2018 22:04:36
00011 suncat0094 pw.x -npool 4 -i  Done                     04/22/2018 22:04:36
00012 suncat0094 pw.x -npool 4 -i  Done                     04/22/2018 22:04:36
00013 suncat0094 pw.x -npool 4 -i  Done                     04/22/2018 22:04:36
00014 suncat0094 pw.x -npool 4 -i  Done                     04/22/2018 22:04:36
00015 suncat0094 pw.x -npool 4 -i  Done                     04/22/2018 22:04:36
00016 suncat0283 pw.x -npool 4 -i  Done                     04/22/2018 22:04:36
00017 suncat0283 pw.x -npool 4 -i  Done                     04/22/2018 22:04:36
00018 suncat0283 pw.x -npool 4 -i  Done                     04/22/2018 22:04:36
00019 suncat0283 pw.x -npool 4 -i  Done                     04/22/2018 22:04:36
00020 suncat0283 pw.x -npool 4 -i  Done                     04/22/2018 22:04:36
00021 suncat0283 pw.x -npool 4 -i  Done                     04/22/2018 22:04:36
00022 suncat0283 pw.x -npool 4 -i  Done                     04/22/2018 22:04:36
00023 suncat0283 pw.x -npool 4 -i  Done                     04/22/2018 22:04:36
00024 suncat0276 pw.x -npool 4 -i  Done                     04/22/2018 22:04:36
00025 suncat0276 pw.x -npool 4 -i  Done                     04/22/2018 22:04:36
00026 suncat0276 pw.x -npool 4 -i  Done                     04/22/2018 22:04:36
00027 suncat0276 pw.x -npool 4 -i  Done                     04/22/2018 22:04:36
00028 suncat0276 pw.x -npool 4 -i  Done                     04/22/2018 22:04:36
00029 suncat0276 pw.x -npool 4 -i  Done                     04/22/2018 22:04:36
00030 suncat0276 pw.x -npool 4 -i  Done                     04/22/2018 22:04:36
00031 suncat0276 pw.x -npool 4 -i  Done                     04/22/2018 22:04:36