     Program PWSCF v.5.1rc2 (svn rev. 11289) starts on 16Jan2018 at 19: 4:39

     Current dimensions of program PWSCF are:
     Max number of different atomic species (ntypx) = 10
     Max number of k-points (npk) =  40000
     Max angular momentum in pseudopotentials (lmaxx) =  3
     Presently stress not available with electric field

     IMPORTANT: XC functional enforced from input :
     Exchange-correlation      = BEEF-VDW ( 1  4 27 13 2)
     Any further DFT definition will be discarded
     Please, verify this is what you really want

     Subspace diagonalization in iterative solution of the eigenvalue problem:
     a serial algorithm will be used

     bravais-lattice index     =            0
     lattice parameter (alat)  =       1.8897  a.u.
     unit-cell volume          =    4204.8134 (a.u.)^3
     number of atoms/cell      =           13
     number of atomic types    =            2
     number of electrons       =       186.00
     number of Kohn-Sham states=          103
     kinetic-energy cutoff     =      36.7493  Ry
     charge density cutoff     =     367.4932  Ry
     convergence threshold     =      1.0E-05
     mixing beta               =       0.3000
     number of iterations used =           10  plain     mixing
     Exchange-correlation      = BEEF-VDW ( 1  4 27 13 2)
     nstep                     =           50

     celldm(1)=   1.889726  celldm(2)=   0.000000  celldm(3)=   0.000000
     celldm(4)=   0.000000  celldm(5)=   0.000000  celldm(6)=   0.000000

     crystal axes: (cart. coord. in units of alat)
               a(1) = (   5.426750   0.000000   0.000000 )
               a(2) = (   2.713375   4.699703   0.000000 )
               a(3) = (   0.000000   0.000000  24.430923 )

     reciprocal axes: (cart. coord. in units 2 pi/alat)
               b(1) = (  0.184272 -0.106390  0.000000 )
               b(2) = (  0.000000  0.212779  0.000000 )
               b(3) = (  0.000000  0.000000  0.040932 )

     PseudoPot. # 1 for Rh read from file:
     /afs/slac.stanford.edu/u/if/mamunm/psp/gbrv1.5pbe/Rh.UPF
     MD5 check sum: 761627e959a2e3a1f56b0b5fe687810e
     Pseudo is Ultrasoft + core correction, Zval = 15.0
     Generated by new atomic code, or converted to UPF format
     Using radial grid of  969 points,  7 beta functions with:
                l(1) =   0
                l(2) =   0
                l(3) =   1
                l(4) =   1
                l(5) =   2
                l(6) =   2
                l(7) =   2
     Q(r) pseudized with  8 coefficients,  rinner =    1.200   1.200   1.200
                                                       1.200   1.200

     PseudoPot. # 2 for O  read from file:
     /afs/slac.stanford.edu/u/if/mamunm/psp/gbrv1.5pbe/O.UPF
     MD5 check sum: 734c27235a0248c51dbae37a1fbe46ec
     Pseudo is Ultrasoft + core correction, Zval =  6.0
     Generated by new atomic code, or converted to UPF format
     Using radial grid of  737 points,  5 beta functions with:
                l(1) =   0
                l(2) =   0
                l(3) =   1
                l(4) =   1
                l(5) =   2
     Q(r) pseudized with  8 coefficients,  rinner =    0.900   0.900   0.900
                                                       0.900   0.900

     vdW kernel table read from file vdW_kernel_table
     MD5 check sum: 095c7af220d748ca6e76c0b4c6cfb241

     atomic species   valence    mass     pseudopotential
        Rh1           15.00   102.90550     Rh( 1.00)
        O1             6.00    15.99900     O ( 1.00)

     No symmetry found

   Cartesian axes

     site n.     atom                  positions (alat units)
         1           Rh1 tau(   1) = (   1.3566875   0.7832839  10.0000000  )
         2           Rh1 tau(   2) = (   4.0700625   0.7832839  10.0000000  )
         3           Rh1 tau(   3) = (   2.7133750   3.1331356  10.0000000  )
         4           Rh1 tau(   4) = (   5.4267500   3.1331356  10.0000000  )
         5           Rh1 tau(   5) = (   5.4267500   1.5665678  12.2154614  )
         6           Rh1 tau(   6) = (   2.7133750   1.5665678  12.2154614  )
         7           Rh1 tau(   7) = (   6.7834375   3.9164194  12.2154614  )
         8           Rh1 tau(   8) = (   4.0700625   3.9164194  12.2154614  )
         9           Rh1 tau(   9) = (   0.0000000   0.0000000  14.4309228  )
        10           Rh1 tau(  10) = (   2.7133750   0.0000000  14.4309228  )
        11           Rh1 tau(  11) = (   1.3566875   2.3498517  14.4309228  )
        12           Rh1 tau(  12) = (   4.0700625   2.3498517  14.4309228  )
        13           O1  tau(  13) = (   0.0000000   0.0000000  16.5109228  )

     number of k points=    20  Fermi-Dirac smearing, width (Ry)=  0.0110
                       cart. coord. in units 2pi/alat
        k(    1) = (   0.0000000   0.0000000   0.0000000), wk =   0.0555556
        k(    2) = (   0.0000000   0.0354632   0.0000000), wk =   0.1111111
        k(    3) = (   0.0000000   0.0709265   0.0000000), wk =   0.1111111
        k(    4) = (   0.0000000  -0.1063897   0.0000000), wk =   0.0555556
        k(    5) = (   0.0307121  -0.0177316   0.0000000), wk =   0.1111111
        k(    6) = (   0.0307121   0.0177316   0.0000000), wk =   0.1111111
        k(    7) = (   0.0307121   0.0531948   0.0000000), wk =   0.1111111
        k(    8) = (   0.0307121  -0.1241213   0.0000000), wk =   0.1111111
        k(    9) = (   0.0307121  -0.0886581   0.0000000), wk =   0.1111111
        k(   10) = (   0.0307121  -0.0531948   0.0000000), wk =   0.1111111
        k(   11) = (   0.0614241  -0.0354632   0.0000000), wk =   0.1111111
        k(   12) = (   0.0614241   0.0000000   0.0000000), wk =   0.1111111
        k(   13) = (   0.0614241   0.0354632   0.0000000), wk =   0.1111111
        k(   14) = (   0.0614241  -0.1418529   0.0000000), wk =   0.1111111
        k(   15) = (   0.0614241  -0.1063897   0.0000000), wk =   0.1111111
        k(   16) = (   0.0614241  -0.0709265   0.0000000), wk =   0.1111111
        k(   17) = (  -0.0921362   0.0531948   0.0000000), wk =   0.0555556
        k(   18) = (  -0.0921362   0.0886581   0.0000000), wk =   0.1111111
        k(   19) = (  -0.0921362   0.1241213   0.0000000), wk =   0.1111111
        k(   20) = (  -0.0921362  -0.0531948   0.0000000), wk =   0.0555556

     Largest allocated arrays     est. size (Mb)     dimensions
     Largest temporary arrays     est. size (Mb)     dimensions

     Initial potential from superposition of free atoms
     Check: negative starting charge=   -0.652988

     starting charge  179.99882, renormalised to  186.00000

     negative rho (up, down):  6.748E-01 0.000E+00

     *
     * You are using vdW-DF for exchange-correlation in this calculation.
     * Please cite the following three references that made this development
     * possible:
     *
     *   M. Dion, H. Rydberg, E. Schroder, D. C. Langreth, and
     *   B. I. Lundqvist, Phys. Rev. Lett. 92, 246401 (2004).
     *
     *   T. Thonhauser, V. R. Cooper, S. Li, A. Puzder, P. Hyldgaard, and
     *   D. C. Langreth, Phys. Rev. B 76, 125112 (2007).
     *
     *   G. Roman-Perez and J. M. Soler, Phys. Rev. Lett. 103, 096102 (2009).
     *
     *
     * If you are using vdW-DF2, please also cite:
     *
     *   K. Lee, E. D. Murray, L. Kong, B. I. Lundqvist, and
     *   D. C. Langreth, Phys. Rev. B 82, 081101(R) (2010).
     *
     *
     * If you are calculating the stress with vdW-DF, please also cite:
     *
     *   R. Sabatini, E. Kucukbenli, B. Kolb, T. Thonhauser, and
     *   S. de Gironcoli, J. Phys.: Condens. Matter 24, 424209 (2012).
     *

     Carrying out vdW-DF run using the following parameters:

     Nqs =      20    Nr_points =    1024   r_max =   100.000
     q_mesh =
               0.00001000     0.04494208     0.09755937     0.15916263
               0.23128650     0.31572767     0.41458969     0.53033537
               0.66584808     0.82450364     1.01025438     1.22772762
               1.48234092     1.78043706     2.12944203     2.53805004
               3.01644009     3.57652955     4.23227104     5.00000000

     Gradients computed in reciprocal space

     Adding external electric field

     Computed dipole along edir(3) :
        Dipole               -1.6238 Ry au,         -4.1272 Debye
        Dipole field         -0.0049 Ry au

        Potential amp.        0.4369 Ry
        Total length         45.0136 bohr

     Starting wfc are  148 randomized atomic wfcs

     Self-consistent Calculation

     iteration #  1     ecut=    36.75 Ry     beta=0.30
     Davidson diagonalization with overlap
     ethr =  1.00E-02,  avg # of iterations =  2.0

[...]

     total energy              =   -2048.38984768 Ry
     Harris-Foulkes estimate   =   -2099.83450816 Ry
     estimated scf accuracy    <     105.92270306 Ry

[...]

     End of self-consistent calculation

          k = 0.0000 0.0000 0.0000 ( 15785 PWs)   bands (ev):

   -46.1415 -46.0805 -46.0803 -46.0319 -45.9773 -45.9772 -45.8860 -45.8453
   -45.8195 -45.8193 -45.6998 -45.6849 -45.6847 -45.6555 -45.6029 -45.6026
   -45.5773 -45.5660 -45.5660 -45.3858 -45.3858 -45.2789 -45.2611 -45.2607
   -45.2560 -45.2357 -45.2032 -45.2028 -45.1836 -45.1806 -45.1806 -45.1711
   -45.1709 -45.1467 -45.1467 -45.1161 -15.0464  -5.7282  -4.4899  -4.4896
    -4.4895  -4.4402  -4.3018  -4.2191  -4.1832  -4.1830  -3.9928  -3.9927
    -3.9476  -3.6568  -3.6567  -3.6367  -2.6612  -2.6611  -2.5048  -2.3404
    -2.1015  -2.1014  -1.9690  -1.7858  -1.7858  -1.6884  -1.4836  -1.4836
    -1.4093  -1.4092  -1.3672  -1.2424  -1.2424  -1.1071  -0.6021  -0.6019
    -0.4493  -0.4493   0.0323   0.1074   0.1075   0.1130   0.1232   0.1233
     0.3293   0.6228   0.6230   0.7848   0.7850   1.0962   1.2195   1.2196
     1.2210   1.2692   1.2694   1.3460   1.3460   1.5829   1.5831   1.5831
     1.8505   1.8506   1.8740   1.9522   1.9896   1.9898   1.9985

[...]

          k =-0.0921 0.0532 0.0000 ( 15852 PWs)   bands (ev):

[...]

     the Fermi energy is     0.9808 ev

!    total energy              =   -2098.78934367 Ry
     Harris-Foulkes estimate   =   -2098.78933181 Ry
     estimated scf accuracy    <       0.00000253 Ry

     The total energy is the sum of the following terms:

     one-electron contribution =  -19480.18281383 Ry
     hartree contribution      =    9780.22261504 Ry
     xc contribution           =    -379.37813254 Ry
     ewald contribution        =    7980.67819590 Ry
     electric field correction =       0.00100802 Ry
     smearing contrib. (-TS)   =      -0.13021626 Ry

     convergence has been achieved in  23 iterations

 BEEF-vdW xc energy contributions
           1 :   -330.259612993223
           2 :    302.935743468075
           3 :   -255.868472777812
           4 :    200.914961732940
           5 :   -149.807287725103
           6 :    110.590469013339
           7 :   -85.9087374243165
           8 :    73.4134725116650
           9 :   -67.8188014346474
          10 :    63.5864231289132
          11 :   -57.1099125773782
          12 :    47.6127218439590
          13 :   -36.6538530004430
          14 :    26.7503749483214
          15 :   -19.8876801498809
[...]
     SCF correction compared to forces is large: reduce conv_thr to get better values

[...]

   This run was terminated on:  20: 7:40  16Jan2018

[...]

     Program PWSCF v.5.1rc2 (svn rev. 11289) starts on 16Jan2018 at 21: 7:34

[...]

     Program PWSCF v.5.1rc2 (svn rev. 11289) starts on 16Jan2018 at 21:23: 2

[...]

     Program PWSCF v.5.1rc2 (svn rev. 11289) starts on 16Jan2018 at 21:37:59

[...]

   This run was terminated on:  21:52:55  16Jan2018

[...]

     Program PWSCF v.5.1rc2 (svn rev. 11289) starts on 16Jan2018 at 21:53: 1

     Current dimensions of program PWSCF are:
     Max number of different atomic species (ntypx) = 10
     Max number of k-points (npk) =  40000
     Max angular momentum in pseudopotentials (lmaxx) =  3
     Presently stress not available with electric field

     IMPORTANT: XC functional enforced from input :
     Exchange-correlation      = BEEF-VDW ( 1  4 27 13 2)
     Any further DFT definition will be discarded
     Please, verify this is what you really want

     Subspace diagonalization in iterative solution of the eigenvalue problem:
     a serial algorithm will be used

     bravais-lattice index     =            0
     lattice parameter (alat)  =       1.8897  a.u.
     unit-cell volume          =    4204.8134 (a.u.)^3
     number of atoms/cell      =           13
     number of atomic types    =            2
     number of electrons       =       186.00
     number of Kohn-Sham states=          103
     kinetic-energy cutoff     =      36.7493  Ry
     charge density cutoff     =     367.4932  Ry
     convergence threshold     =      1.0E-05
     mixing beta               =       0.3000
     number of iterations used =           10  plain     mixing
     Exchange-correlation      = BEEF-VDW ( 1  4 27 13 2)
     nstep                     =           50

     celldm(1)=   1.889726  celldm(2)=   0.000000  celldm(3)=   0.000000
     celldm(4)=   0.000000  celldm(5)=   0.000000  celldm(6)=   0.000000

     crystal axes: (cart. coord. in units of alat)
               a(1) = (   5.426750   0.000000   0.000000 )
               a(2) = (   2.713375   4.699703   0.000000 )
               a(3) = (   0.000000   0.000000  24.430923 )

     reciprocal axes: (cart. coord. in units 2 pi/alat)
               b(1) = (  0.184272 -0.106390  0.000000 )
               b(2) = (  0.000000  0.212779  0.000000 )
               b(3) = (  0.000000  0.000000  0.040932 )

     PseudoPot. # 1 for Rh read from file:
     /afs/slac.stanford.edu/u/if/mamunm/psp/gbrv1.5pbe/Rh.UPF
     MD5 check sum: 761627e959a2e3a1f56b0b5fe687810e
     Pseudo is Ultrasoft + core correction, Zval = 15.0
     Generated by new atomic code, or converted to UPF format
     Using radial grid of  969 points,  7 beta functions with:
                l(1) =   0
                l(2) =   0
                l(3) =   1
                l(4) =   1
                l(5) =   2
                l(6) =   2
                l(7) =   2
     Q(r) pseudized with  8 coefficients,  rinner =    1.200   1.200   1.200
                                                       1.200   1.200

     PseudoPot. # 2 for O  read from file:
     /afs/slac.stanford.edu/u/if/mamunm/psp/gbrv1.5pbe/O.UPF
     MD5 check sum: 734c27235a0248c51dbae37a1fbe46ec
     Pseudo is Ultrasoft + core correction, Zval =  6.0
     Generated by new atomic code, or converted to UPF format
     Using radial grid of  737 points,  5 beta functions with:
                l(1) =   0
                l(2) =   0
                l(3) =   1
                l(4) =   1
                l(5) =   2
     Q(r) pseudized with  8 coefficients,  rinner =    0.900   0.900   0.900
                                                       0.900   0.900

     vdW kernel table read from file vdW_kernel_table
     MD5 check sum: 095c7af220d748ca6e76c0b4c6cfb241

     atomic species   valence    mass     pseudopotential
        Rh1           15.00   102.90550     Rh( 1.00)
        O1             6.00    15.99900     O ( 1.00)

     No symmetry found

   Cartesian axes

     site n.     atom                  positions (alat units)
         1           Rh1 tau(   1) = (   1.3566875   0.7832839  10.0000000  )
         2           Rh1 tau(   2) = (   4.0700625   0.7832839  10.0000000  )
         3           Rh1 tau(   3) = (   2.7133750   3.1331356  10.0000000  )
         4           Rh1 tau(   4) = (   5.4267500   3.1331356  10.0000000  )
         5           Rh1 tau(   5) = (   5.4267500   1.5665678  12.2154614  )
         6           Rh1 tau(   6) = (   2.7133750   1.5665678  12.2154614  )
         7           Rh1 tau(   7) = (   6.7834375   3.9164194  12.2154614  )
         8           Rh1 tau(   8) = (   4.0700625   3.9164194  12.2154614  )
         9           Rh1 tau(   9) = (   0.0002961   0.0001367  14.4650450  )
        10           Rh1 tau(  10) = (   5.4265698   4.6963535  14.3848014  )
        11           Rh1 tau(  11) = (   6.7805544   2.3513250  14.3848962  )
        12           Rh1 tau(  12) = (   4.0728303   2.3515865  14.3850227  )
        13           O1  tau(  13) = (   5.4267081   0.0000373  16.2483106  )

     number of k points=    20  Fermi-Dirac smearing, width (Ry)=  0.0110
                       cart. coord. in units 2pi/alat
        k(    1) = (   0.0000000   0.0000000   0.0000000), wk =   0.0555556
        k(    2) = (   0.0000000   0.0354632   0.0000000), wk =   0.1111111
        k(    3) = (   0.0000000   0.0709265   0.0000000), wk =   0.1111111
        k(    4) = (   0.0000000  -0.1063897   0.0000000), wk =   0.0555556
        k(    5) = (   0.0307121  -0.0177316   0.0000000), wk =   0.1111111
        k(    6) = (   0.0307121   0.0177316   0.0000000), wk =   0.1111111
        k(    7) = (   0.0307121   0.0531948   0.0000000), wk =   0.1111111
        k(    8) = (   0.0307121  -0.1241213   0.0000000), wk =   0.1111111
        k(    9) = (   0.0307121  -0.0886581   0.0000000), wk =   0.1111111
        k(   10) = (   0.0307121  -0.0531948   0.0000000), wk =   0.1111111
        k(   11) = (   0.0614241  -0.0354632   0.0000000), wk =   0.1111111
        k(   12) = (   0.0614241   0.0000000   0.0000000), wk =   0.1111111
        k(   13) = (   0.0614241   0.0354632   0.0000000), wk =   0.1111111
        k(   14) = (   0.0614241  -0.1418529   0.0000000), wk =   0.1111111
        k(   15) = (   0.0614241  -0.1063897   0.0000000), wk =   0.1111111
        k(   16) = (   0.0614241  -0.0709265   0.0000000), wk =   0.1111111
        k(   17) = (  -0.0921362   0.0531948   0.0000000), wk =   0.0555556
        k(   18) = (  -0.0921362   0.0886581   0.0000000), wk =   0.1111111
        k(   19) = (  -0.0921362   0.1241213   0.0000000), wk =   0.1111111
        k(   20) = (  -0.0921362  -0.0531948   0.0000000), wk =   0.0555556

     Largest allocated arrays     est. size (Mb)     dimensions
     Largest temporary arrays     est. size (Mb)     dimensions

     Initial potential from superposition of free atoms
     Check: negative starting charge=   -0.659962

     starting charge  179.99882, renormalised to  186.00000

[...]

     *
     * You are using vdW-DF for exchange-correlation in this calculation.
     * Please cite the following three references that made this development
     * possible:
     *
     *   M. Dion, H. Rydberg, E. Schroder, D. C. Langreth, and
     *   B. I. Lundqvist, Phys. Rev. Lett. 92, 246401 (2004).
     *
     *   T. Thonhauser, V. R. Cooper, S. Li, A. Puzder, P. Hyldgaard, and
     *   D. C. Langreth, Phys. Rev. B 76, 125112 (2007).
     *
     *   G. Roman-Perez and J. M. Soler, Phys. Rev. Lett. 103, 096102 (2009).
     *
     *
     * If you are using vdW-DF2, please also cite:
     *
     *   K. Lee, E. D. Murray, L. Kong, B. I. Lundqvist, and
     *   D. C. Langreth, Phys. Rev. B 82, 081101(R) (2010).
     *
     *
     * If you are calculating the stress with vdW-DF, please also cite:
     *
     *   R. Sabatini, E. Kucukbenli, B. Kolb, T. Thonhauser, and
     *   S. de Gironcoli, J. Phys.: Condens. Matter 24, 424209 (2012).
     *

     Carrying out vdW-DF run using the following parameters:

     Nqs =      20    Nr_points =    1024   r_max =   100.000
     q_mesh =
               0.00001000     0.04494208     0.09755937     0.15916263
               0.23128650     0.31572767     0.41458969     0.53033537
               0.66584808     0.82450364     1.01025438     1.22772762
               1.48234092     1.78043706     2.12944203     2.53805004
               3.01644009     3.57652955     4.23227104     5.00000000

     Gradients computed in reciprocal space

[...]

     Starting wfc are  148 randomized atomic wfcs

     Self-consistent Calculation

[...]

     total energy              =   -2098.84261970 Ry
     Harris-Foulkes estimate   =   -2098.84262448 Ry
     estimated scf accuracy    <       0.00003546 Ry

     iteration # 21     ecut=    36.75 Ry     beta=0.30
     Davidson diagonalization with overlap
     ethr =  1.58E-08,  avg # of iterations =  1.6

[...]

     negative rho (up, down):  6.954E-01 0.000E+00

     Adding external electric field

     Computed dipole along edir(3) :
        Dipole               -0.3606 Ry au,         -0.9165 Debye
        Dipole field         -0.0011 Ry au

        Potential amp.        0.0970 Ry
        Total length         45.0136 bohr

     End of self-consistent calculation

[...]

          k = 0.0614-0.0709 0.0000 ( 15838 PWs)   bands (ev):

[...]

          k =-0.0921-0.0532 0.0000 ( 15852 PWs)   bands (ev):

   -46.5158 -45.9552 -45.9238 -45.6940 -45.6839 -45.6087 -45.5923 -45.5713
   -45.5556 -45.5343 -45.5211 -45.4989 -45.4774 -45.3358 -45.3229 -45.2629
   -45.2134 -45.2131 -45.1074 -45.0934 -45.0850 -45.0710 -45.0649 -45.0511
   -45.0238 -45.0169 -44.9309 -44.9202 -44.9194 -44.9070 -44.9018 -44.8905
   -44.8871 -44.8854 -44.8836 -44.7926 -16.2184  -4.1091  -4.0026  -3.7740
    -3.6083  -3.4403  -3.4095  -3.3363  -3.2952  -3.1211  -3.0531  -2.9564
    -2.9080  -2.8552  -2.7246  -2.6114  -2.5605  -2.4734  -2.4404  -2.3112
    -2.0697  -2.0431  -1.9815  -1.8820  -1.8215  -1.6925  -1.4639  -1.4124
    -1.2364  -1.1587  -1.0388  -0.9556  -0.9166  -0.8927  -0.8312  -0.8143
    -0.8028  -0.6968  -0.6683  -0.6583  -0.6139  -0.5288  -0.2703  -0.1857
    -0.1141  -0.0191   0.0796   0.1973   0.2029   0.2731   0.3632   0.4606
     0.4944   0.5522   0.6575   0.8287   0.9441   0.9962   1.0452   1.2635
     1.4375   1.5739   1.7304   1.7414   1.7656   1.9568   1.9846

     the Fermi energy is     1.2865 ev

!    total energy              =   -2098.84261862 Ry
     Harris-Foulkes estimate   =   -2098.84264103 Ry
     estimated scf accuracy    <       0.00000474 Ry

     The total energy is the sum of the following terms:

     one-electron contribution =  -19649.82046868 Ry
     hartree contribution      =    9866.28823913 Ry
     xc contribution           =    -379.59326631 Ry
     ewald contribution        =    8064.41002764 Ry
     electric field correction =       0.00038854 Ry
     smearing contrib. (-TS)   =      -0.12753894 Ry

     convergence has been achieved in  21 iterations

 BEEF-vdW xc energy contributions
           1 :   -330.488992559888
           2 :    303.263686524287
           3 :   -256.311221605189
           4 :    201.392462960343
           5 :   -150.194642071183
           6 :    110.788258134375
           7 :   -85.8907441450808
           8 :    73.2341835823849
           9 :   -67.5848943253466
          10 :    63.4091293282924
          11 :   -57.0591672965916
          12 :    47.6930379883420
          13 :   -36.8123335938158
          14 :    26.9107626236046
          15 :   -19.9909601380550
          16 :    16.6199173287883
          17 :   -15.8548601692122
          18 :    15.9184327714094
          19 :   -15.1737219899909
          20 :    12.8788518971224
          21 :   -9.38538003374032
          22 :    5.76644185707607
          23 :   -3.14205997890531
          24 :    2.07624260125544
          25 :   -2.34030692295096
          26 :    3.11655537318131
          27 :   -3.48528566196643
          28 :    2.91289289204315
          29 :   -1.48589831846300
          30 :  -0.205689649113992
          31 :   -32.7438017007276
          32 :   -24.5082216464169

     Forces acting on atoms (Ry/au):

     negative rho (up, down):  6.954E-01 0.000E+00
     atom    1 type  1   force =    -0.00093664   -0.00058403    0.00761690
     atom    2 type  1   force =     0.00095790   -0.00054579    0.00758300
     atom    3 type  1   force =     0.00000143    0.00110419    0.00754851
     atom    4 type  1   force =    -0.00001347    0.00002594   -0.00331820
     atom    5 type  1   force =    -0.00002226   -0.00763116   -0.00240478
     atom    6 type  1   force =    -0.00000800    0.00000427   -0.01213623
     atom    7 type  1   force =     0.00663710    0.00381530   -0.00237315
     atom    8 type  1   force =    -0.00661763    0.00380332   -0.00243053
     atom    9 type  1   force =    -0.00014817   -0.00006710    0.00106495
     atom   10 type  1   force =     0.00010770   -0.00008960   -0.00006309
     atom   11 type  1   force =    -0.00005185    0.00014648   -0.00011587
     atom   12 type  1   force =     0.00010186    0.00002117   -0.00012729
     atom   13 type  2   force =    -0.00000796   -0.00000299   -0.00084420

     Total force =     0.022996     Total SCF correction =     0.008163
     SCF correction compared to forces is large: reduce conv_thr to get better values

     entering subroutine stress ...

     negative rho (up, down):  6.954E-01 0.000E+00
          total   stress  (Ry/bohr**3)                   (kbar)     P=  -27.84
  -0.00019343   0.00000000  -0.00000002        -28.45      0.00     -0.00
   0.00000000  -0.00019337  -0.00000003          0.00    -28.45     -0.00
  -0.00000002  -0.00000003  -0.00018091         -0.00     -0.00    -26.61

 !ASE

     Writing output data file calc.save

     General routines

     Parallel routines

   This run was terminated on:  22: 7:49  16Jan2018

   JOB DONE.
Job  /afs/slac/g/suncat/bin/suncat-tsmpirun -x LD_LIBRARY_PATH -wdir /scratch/qe842475_nYN6p pw.x -in pw.inp

TID   HOST_NAME   COMMAND_LINE            STATUS            TERMINATION_TIME
00000 suncat0273 pw.x -in pw.inp   Done                     01/16/2018 22:07:49
00001 suncat0273 pw.x -in pw.inp   Done                     01/16/2018 22:07:49
00002 suncat0273 pw.x -in pw.inp   Done                     01/16/2018 22:07:49
00003 suncat0273 pw.x -in pw.inp   Done                     01/16/2018 22:07:49
00004 suncat0273 pw.x -in pw.inp   Done                     01/16/2018 22:07:49
00005 suncat0273 pw.x -in pw.inp   Done                     01/16/2018 22:07:49
00006 suncat0273 pw.x -in pw.inp   Done                     01/16/2018 22:07:49
00007 suncat0273 pw.x -in pw.inp   Done                     01/16/2018 22:07:49
00008 suncat0268 pw.x -in pw.inp   Done                     01/16/2018 22:07:49
00009 suncat0268 pw.x -in pw.inp   Done                     01/16/2018 22:07:49
00010 suncat0268 pw.x -in pw.inp   Done                     01/16/2018 22:07:49
00011 suncat0268 pw.x -in pw.inp   Done                     01/16/2018 22:07:49
00012 suncat0268 pw.x -in pw.inp   Done                     01/16/2018 22:07:49
00013 suncat0268 pw.x -in pw.inp   Done                     01/16/2018 22:07:49
00014 suncat0268 pw.x -in pw.inp   Done                     01/16/2018 22:07:49
00015 suncat0268 pw.x -in pw.inp   Done                     01/16/2018 22:07:49
00016 suncat0266 pw.x -in pw.inp   Done                     01/16/2018 22:07:49
00017 suncat0266 pw.x -in pw.inp   Done                     01/16/2018 22:07:49
00018 suncat0266 pw.x -in pw.inp   Done                     01/16/2018 22:07:49
00019 suncat0266 pw.x -in pw.inp   Done                     01/16/2018 22:07:49
00020 suncat0266 pw.x -in pw.inp   Done                     01/16/2018 22:07:49
00021 suncat0266 pw.x -in pw.inp   Done                     01/16/2018 22:07:49
00022 suncat0266 pw.x -in pw.inp   Done                     01/16/2018 22:07:49
00023 suncat0266 pw.x -in pw.inp   Done                     01/16/2018 22:07:49
00024 suncat0233 pw.x -in pw.inp   Done                     01/16/2018 22:07:49
00025 suncat0233 pw.x -in pw.inp   Done                     01/16/2018 22:07:49
00026 suncat0233 pw.x -in pw.inp   Done                     01/16/2018 22:07:49
00027 suncat0233 pw.x -in pw.inp   Done                     01/16/2018 22:07:49
00028 suncat0233 pw.x -in pw.inp   Done                     01/16/2018 22:07:49
00029 suncat0233 pw.x -in pw.inp   Done                     01/16/2018 22:07:49
00030 suncat0233 pw.x -in pw.inp   Done                     01/16/2018 22:07:49
00031 suncat0233 pw.x -in pw.inp   Done                     01/16/2018 22:07:49