     Program PWSCF v.5.1rc2 (svn rev. 11289) starts on 18Jan2018 at  7:52:13

     Current dimensions of program PWSCF are:
     Max number of different atomic species (ntypx) = 10
     Max number of k-points (npk) =  40000
     Max angular momentum in pseudopotentials (lmaxx) =  3
     Presently stress not available with electric field

     IMPORTANT: XC functional enforced from input :
     Exchange-correlation      = BEEF-VDW ( 1  4 27 13 2)
     Any further DFT definition will be discarded
     Please, verify this is what you really want

     Subspace diagonalization in iterative solution of the eigenvalue problem:
     a serial algorithm will be used

     bravais-lattice index     =            0
     lattice parameter (alat)  =       1.8897  a.u.
     unit-cell volume          =    4481.2752 (a.u.)^3
     number of atoms/cell      =           13
     number of atomic types    =            2
     number of electrons       =       196.00
     number of Kohn-Sham states=          108
     kinetic-energy cutoff     =      36.7493  Ry
     charge density cutoff     =     367.4932  Ry
     convergence threshold     =      1.0E-05
     mixing beta               =       0.3000
     number of iterations used =           10  plain     mixing
     Exchange-correlation      = BEEF-VDW ( 1  4 27 13 2)
     nstep                     =           50

     celldm(1)=   1.889726  celldm(2)=   0.000000  celldm(3)=   0.000000
     celldm(4)=   0.000000  celldm(5)=   0.000000  celldm(6)=   0.000000

     crystal axes: (cart. coord. in units of alat)
               a(1) = (   5.587338   0.000000   0.000000 )
               a(2) = (   2.793669   4.838777   0.000000 )
               a(3) = (   0.000000   0.000000  24.562042 )

     reciprocal axes: (cart. coord. in units 2 pi/alat)
               b(1) = (  0.178976 -0.103332  0.000000 )
               b(2) = (  0.000000  0.206664  0.000000 )
               b(3) = (  0.000000  0.000000  0.040713 )

     PseudoPot. # 1 for Pt read from file:
     /afs/slac.stanford.edu/u/if/mamunm/psp/gbrv1.5pbe/Pt.UPF
     MD5 check sum: f09d6de1a584b5a045c4fc126da2d0c4
     Pseudo is Ultrasoft + core correction, Zval = 16.0
     Generated by new atomic code, or converted to UPF format
     Using radial grid of  985 points,  6 beta functions with:
                l(1) =   0
                l(2) =   0
                l(3) =   1
                l(4) =   1
                l(5) =   2
                l(6) =   2
     Q(r) pseudized with  8 coefficients,  rinner =    1.300   1.300   1.300
                                                       1.300   1.300

     PseudoPot. # 2 for C  read from file:
     /afs/slac.stanford.edu/u/if/mamunm/psp/gbrv1.5pbe/C.UPF
     MD5 check sum: d1aef80898a10debaa0f26306b886e00
     Pseudo is Ultrasoft + core correction, Zval =  4.0
     Generated by new atomic code, or converted to UPF format
     Using radial grid of  721 points,  4 beta functions with:
                l(1) =   0
                l(2) =   0
                l(3) =   1
                l(4) =   1
     Q(r) pseudized with  8 coefficients,  rinner =    1.100   1.100   1.100

     vdW kernel table read from file vdW_kernel_table
     MD5 check sum: 095c7af220d748ca6e76c0b4c6cfb241

     atomic species   valence    mass     pseudopotential
        Pt1           16.00   195.08400     Pt( 1.00)
        C1             4.00    12.01100     C ( 1.00)

     No symmetry found

   Cartesian axes

     site n.     atom                  positions (alat units)
         1           Pt1 tau(   1) = (   1.3968345   0.8064628  10.0000000  )
         2           Pt1 tau(   2) = (   4.1905036   0.8064628  10.0000000  )
         3           Pt1 tau(   3) = (   2.7936691   3.2258512  10.0000000  )
         4           Pt1 tau(   4) = (   5.5873381   3.2258512  10.0000000  )
         5           Pt1 tau(   5) = (   5.5873381   1.6129256  12.2810212  )
         6           Pt1 tau(   6) = (   2.7936691   1.6129256  12.2810212  )
         7           Pt1 tau(   7) = (   6.9841727   4.0323140  12.2810212  )
         8           Pt1 tau(   8) = (   4.1905036   4.0323140  12.2810212  )
         9           Pt1 tau(   9) = (   0.0000000   0.0000000  14.5620425  )
        10           Pt1 tau(  10) = (   2.7936691   0.0000000  14.5620425  )
        11           Pt1 tau(  11) = (   1.3968345   2.4193884  14.5620425  )
        12           Pt1 tau(  12) = (   4.1905036   2.4193884  14.5620425  )
        13           C1  tau(  13) = (   1.3968345   0.8064628  16.6820425  )

     number of k points=    20  Fermi-Dirac smearing, width (Ry)=  0.0110
                       cart. coord. in units 2pi/alat
        k(    1) = (   0.0000000   0.0000000   0.0000000), wk =   0.0555556
        k(    2) = (   0.0000000   0.0344440   0.0000000), wk =   0.1111111
        k(    3) = (   0.0000000   0.0688879   0.0000000), wk =   0.1111111
        k(    4) = (   0.0000000  -0.1033319   0.0000000), wk =   0.0555556
        k(    5) = (   0.0298294  -0.0172220   0.0000000), wk =   0.1111111
        k(    6) = (   0.0298294   0.0172220   0.0000000), wk =   0.1111111
        k(    7) = (   0.0298294   0.0516660   0.0000000), wk =   0.1111111
        k(    8) = (   0.0298294  -0.1205539   0.0000000), wk =   0.1111111
        k(    9) = (   0.0298294  -0.0861099   0.0000000), wk =   0.1111111
        k(   10) = (   0.0298294  -0.0516660   0.0000000), wk =   0.1111111
        k(   11) = (   0.0596587  -0.0344440   0.0000000), wk =   0.1111111
        k(   12) = (   0.0596587   0.0000000   0.0000000), wk =   0.1111111
        k(   13) = (   0.0596587   0.0344440   0.0000000), wk =   0.1111111
        k(   14) = (   0.0596587  -0.1377759   0.0000000), wk =   0.1111111
        k(   15) = (   0.0596587  -0.1033319   0.0000000), wk =   0.1111111
        k(   16) = (   0.0596587  -0.0688879   0.0000000), wk =   0.1111111
        k(   17) = (  -0.0894881   0.0516660   0.0000000), wk =   0.0555556
        k(   18) = (  -0.0894881   0.0861099   0.0000000), wk =   0.1111111
        k(   19) = (  -0.0894881   0.1205539   0.0000000), wk =   0.1111111
        k(   20) = (  -0.0894881  -0.0516660   0.0000000), wk =   0.0555556

     Largest allocated arrays     est. size (Mb)     dimensions
     Largest temporary arrays     est. size (Mb)     dimensions

     Initial potential from superposition of free atoms
     Check: negative starting charge=   -2.200744

     starting charge  189.99982, renormalised to  196.00000

     negative rho (up, down):  2.270E+00 0.000E+00

     *
     * You are using vdW-DF for exchange-correlation in this calculation.
     * Please cite the following three references that made this development
     * possible:
     *
     *   M. Dion, H. Rydberg, E. Schroder, D. C. Langreth, and
     *   B. I. Lundqvist, Phys. Rev. Lett. 92, 246401 (2004).
     *
     *   T. Thonhauser, V. R. Cooper, S. Li, A. Puzder, P. Hyldgaard, and
     *   D. C. Langreth, Phys. Rev. B 76, 125112 (2007).
     *
     *   G. Roman-Perez and J. M. Soler, Phys. Rev. Lett. 103, 096102 (2009).
     *
     *
     * If you are using vdW-DF2, please also cite:
     *
     *   K. Lee, E. D. Murray, L. Kong, B. I. Lundqvist, and
     *   D. C. Langreth, Phys. Rev. B 82, 081101(R) (2010).
     *
     *
     * If you are calculating the stress with vdW-DF, please also cite:
     *
     *   R. Sabatini, E. Kucukbenli, B. Kolb, T. Thonhauser, and
     *   S. de Gironcoli, J. Phys.: Condens. Matter 24, 424209 (2012).
     *

     Carrying out vdW-DF run using the following parameters:

     Nqs =      20    Nr_points =    1024   r_max =   100.000
     q_mesh =
               0.00001000     0.04494208     0.09755937     0.15916263
               0.23128650     0.31572767     0.41458969     0.53033537
               0.66584808     0.82450364     1.01025438     1.22772762
               1.48234092     1.78043706     2.12944203     2.53805004
               3.01644009     3.57652955     4.23227104     5.00000000

     Gradients computed in reciprocal space

     Adding external electric field

     Computed dipole along edir(3) :
        Dipole               -1.0502 Ry au,         -2.6694 Debye
        Dipole field         -0.0029 Ry au

        Potential amp.        0.2666 Ry
        Total length         45.2551 bohr

     Starting wfc are  148 randomized atomic wfcs

     Self-consistent Calculation

     iteration #  1     ecut=    36.75 Ry     beta=0.30
     Davidson diagonalization with overlap
     ethr =  1.00E-02,  avg # of iterations =  2.3

[...]

     total energy              =   -2545.10190057 Ry
     Harris-Foulkes estimate   =   -2562.86624398 Ry
     estimated scf accuracy    <      37.97743909 Ry

[...]

     End of self-consistent calculation

          k = 0.0000 0.0000 0.0000 ( 16787 PWs)   bands (ev):

   -51.2514 -51.2514 -51.2388 -51.2089 -51.1339 -51.1267 -51.1266 -51.0384
   -51.0383 -51.0245 -51.0196 -50.9837 -50.9836 -50.9232 -50.9232 -50.9014
   -50.9014 -50.8848 -50.8837 -50.8836 -50.8793 -50.8009 -50.7694 -50.7693
   -50.6669 -50.6668 -50.6590 -50.6284 -50.6284 -50.5850 -50.5850 -50.4734
   -50.4462 -50.4340 -50.4339 -50.3956  -7.4381  -6.7746  -5.1938  -4.8583
    -4.5193  -4.5193  -4.4988  -4.3267  -4.3267  -4.3127  -3.8622  -3.8622
    -3.8600  -3.7154  -3.7098  -3.7097  -2.3420  -2.3398  -2.3398  -1.9261
    -1.9261  -1.9057  -1.7570  -1.6385  -1.6385  -1.3930  -1.3930  -1.3087
    -1.2271  -1.2107  -1.2107  -1.1359  -1.1359  -0.7359  -0.7358  -0.5598
     0.1690   0.1690   0.2451   0.2537   0.3263   0.3263   0.4383   0.4383
     0.8932   0.8932   1.0339   1.1922   1.1922   1.4809   1.5079   1.5151
     1.5151   1.6507   1.6507   1.8970   1.9228   1.9229   2.0988   2.1464
     2.1483   2.1483   2.2690   2.2690   2.2907   2.3322   2.3322   2.9535
     3.3981   3.3981   3.9115   4.7006

[...]

          k =-0.0895 0.0517 0.0000 ( 16880 PWs)   bands (ev):

[...]

     the Fermi energy is     1.7576 ev

!    total energy              =   -2559.40784464 Ry
     Harris-Foulkes estimate   =   -2559.40784531 Ry
     estimated scf accuracy    <       0.00000266 Ry

     The total energy is the sum of the following terms:

     one-electron contribution =  -20398.07350299 Ry
     hartree contribution      =   10236.98807396 Ry
     xc contribution           =    -706.59679615 Ry
     ewald contribution        =    8308.37652165 Ry
     electric field correction =       0.00003208 Ry
     smearing contrib. (-TS)   =      -0.10217319 Ry

     convergence has been achieved in  16 iterations

 BEEF-vdW xc energy contributions
           1 :   -629.047570500538
           2 :    585.482549144033
           3 :   -507.348803962694
           4 :    409.474973707240
           5 :   -308.094977743157
           6 :    216.738036536212
           7 :   -143.534027286926
           8 :    90.4864406930216
           9 :   -54.6762721907571
          10 :    30.6836799416214
          11 :   -13.1878039483611
          12 :   -1.23084593850979
          13 :    13.5610457550326
          14 :   -22.9978083429622
          15 :    28.1988190739892
          16 :   -28.4994911560561
          17 :    24.5508643905708
          18 :   -18.1958087638822
[...]

[...]

   This run was terminated on:   8:19:47  18Jan2018

[...]

     Check: negative/imaginary core charge=   -0.000001    0.000000

[...]

   This run was terminated on:   8:50: 5  18Jan2018

[...]

     Total force =     0.247821     Total SCF correction =     0.007925

[...]

     Check: negative/imaginary core charge=   -0.000001    0.000000

[...]

   This run was terminated on:  10: 2:10  18Jan2018

[...]

     Program PWSCF v.5.1rc2 (svn rev. 11289) starts on 18Jan2018 at 10: 2:16

[...]

     Program PWSCF v.5.1rc2 (svn rev. 11289) starts on 18Jan2018 at 10:30:56

     Current dimensions of program PWSCF are:
     Max number of different atomic species (ntypx) = 10
     Max number of k-points (npk) =  40000
     Max angular momentum in pseudopotentials (lmaxx) =  3
     Presently stress not available with electric field

     IMPORTANT: XC functional enforced from input :
     Exchange-correlation      = BEEF-VDW ( 1  4 27 13 2)
     Any further DFT definition will be discarded
     Please, verify this is what you really want

     Subspace diagonalization in iterative solution of the eigenvalue problem:
     a serial algorithm will be used

     bravais-lattice index     =            0
     lattice parameter (alat)  =       1.8897  a.u.
     unit-cell volume          =    4481.2752 (a.u.)^3
     number of atoms/cell      =           13
     number of atomic types    =            2
     number of electrons       =       196.00
     number of Kohn-Sham states=          108
     kinetic-energy cutoff     =      36.7493  Ry
     charge density cutoff     =     367.4932  Ry
     convergence threshold     =      1.0E-05
     mixing beta               =       0.3000
     number of iterations used =           10  plain     mixing
     Exchange-correlation      = BEEF-VDW ( 1  4 27 13 2)
     nstep                     =           50

     celldm(1)=   1.889726  celldm(2)=   0.000000  celldm(3)=   0.000000
     celldm(4)=   0.000000  celldm(5)=   0.000000  celldm(6)=   0.000000

     crystal axes: (cart. coord. in units of alat)
               a(1) = (   5.587338   0.000000   0.000000 )
               a(2) = (   2.793669   4.838777   0.000000 )
               a(3) = (   0.000000   0.000000  24.562042 )

     reciprocal axes: (cart. coord. in units 2 pi/alat)
               b(1) = (  0.178976 -0.103332  0.000000 )
               b(2) = (  0.000000  0.206664  0.000000 )
               b(3) = (  0.000000  0.000000  0.040713 )

     PseudoPot. # 1 for Pt read from file:
     /afs/slac.stanford.edu/u/if/mamunm/psp/gbrv1.5pbe/Pt.UPF
     MD5 check sum: f09d6de1a584b5a045c4fc126da2d0c4
     Pseudo is Ultrasoft + core correction, Zval = 16.0
     Generated by new atomic code, or converted to UPF format
     Using radial grid of  985 points,  6 beta functions with:
                l(1) =   0
                l(2) =   0
                l(3) =   1
                l(4) =   1
                l(5) =   2
                l(6) =   2
     Q(r) pseudized with  8 coefficients,  rinner =    1.300   1.300   1.300
                                                       1.300   1.300

     PseudoPot. # 2 for C  read from file:
     /afs/slac.stanford.edu/u/if/mamunm/psp/gbrv1.5pbe/C.UPF
     MD5 check sum: d1aef80898a10debaa0f26306b886e00
     Pseudo is Ultrasoft + core correction, Zval =  4.0
     Generated by new atomic code, or converted to UPF format
     Using radial grid of  721 points,  4 beta functions with:
                l(1) =   0
                l(2) =   0
                l(3) =   1
                l(4) =   1
     Q(r) pseudized with  8 coefficients,  rinner =    1.100   1.100   1.100

     vdW kernel table read from file vdW_kernel_table
     MD5 check sum: 095c7af220d748ca6e76c0b4c6cfb241

     atomic species   valence    mass     pseudopotential
        Pt1           16.00   195.08400     Pt( 1.00)
        C1             4.00    12.01100     C ( 1.00)

     No symmetry found

   Cartesian axes

     site n.     atom                  positions (alat units)
         1           Pt1 tau(   1) = (   1.3968345   0.8064628  10.0000000  )
         2           Pt1 tau(   2) = (   4.1905036   0.8064628  10.0000000  )
         3           Pt1 tau(   3) = (   2.7936691   3.2258512  10.0000000  )
         4           Pt1 tau(   4) = (   5.5873381   3.2258512  10.0000000  )
         5           Pt1 tau(   5) = (   5.5873381   1.6129256  12.2810212  )
         6           Pt1 tau(   6) = (   2.7936691   1.6129256  12.2810212  )
         7           Pt1 tau(   7) = (   6.9841727   4.0323140  12.2810212  )
         8           Pt1 tau(   8) = (   4.1905036   4.0323140  12.2810212  )
         9           Pt1 tau(   9) = (   8.3361034   4.8130993  14.7374688  )
        10           Pt1 tau(  10) = (   5.6330080   4.8121659  14.7375545  )
        11           Pt1 tau(  11) = (   6.9837436   2.4718694  14.7373723  )
        12           Pt1 tau(  12) = (   4.1909404   2.4193021  14.5628508  )
        13           C1  tau(  13) = (   1.3961408   0.8062729  15.6867574  )

     number of k points=    20  Fermi-Dirac smearing, width (Ry)=  0.0110
                       cart. coord. in units 2pi/alat
        k(    1) = (   0.0000000   0.0000000   0.0000000), wk =   0.0555556
        k(    2) = (   0.0000000   0.0344440   0.0000000), wk =   0.1111111
        k(    3) = (   0.0000000   0.0688879   0.0000000), wk =   0.1111111
        k(    4) = (   0.0000000  -0.1033319   0.0000000), wk =   0.0555556
        k(    5) = (   0.0298294  -0.0172220   0.0000000), wk =   0.1111111
        k(    6) = (   0.0298294   0.0172220   0.0000000), wk =   0.1111111
        k(    7) = (   0.0298294   0.0516660   0.0000000), wk =   0.1111111
        k(    8) = (   0.0298294  -0.1205539   0.0000000), wk =   0.1111111
        k(    9) = (   0.0298294  -0.0861099   0.0000000), wk =   0.1111111
        k(   10) = (   0.0298294  -0.0516660   0.0000000), wk =   0.1111111
        k(   11) = (   0.0596587  -0.0344440   0.0000000), wk =   0.1111111
        k(   12) = (   0.0596587   0.0000000   0.0000000), wk =   0.1111111
        k(   13) = (   0.0596587   0.0344440   0.0000000), wk =   0.1111111
        k(   14) = (   0.0596587  -0.1377759   0.0000000), wk =   0.1111111
        k(   15) = (   0.0596587  -0.1033319   0.0000000), wk =   0.1111111
        k(   16) = (   0.0596587  -0.0688879   0.0000000), wk =   0.1111111
        k(   17) = (  -0.0894881   0.0516660   0.0000000), wk =   0.0555556
        k(   18) = (  -0.0894881   0.0861099   0.0000000), wk =   0.1111111
        k(   19) = (  -0.0894881   0.1205539   0.0000000), wk =   0.1111111
        k(   20) = (  -0.0894881  -0.0516660   0.0000000), wk =   0.0555556

     Largest allocated arrays     est. size (Mb)     dimensions
     Largest temporary arrays     est. size (Mb)     dimensions

     Initial potential from superposition of free atoms
     Check: negative starting charge=   -2.202168

     starting charge  189.99982, renormalised to  196.00000

[...]

     *
     * You are using vdW-DF for exchange-correlation in this calculation.
     * Please cite the following three references that made this development
     * possible:
     *
     *   M. Dion, H. Rydberg, E. Schroder, D. C. Langreth, and
     *   B. I. Lundqvist, Phys. Rev. Lett. 92, 246401 (2004).
     *
     *   T. Thonhauser, V. R. Cooper, S. Li, A. Puzder, P. Hyldgaard, and
     *   D. C. Langreth, Phys. Rev. B 76, 125112 (2007).
     *
     *   G. Roman-Perez and J. M. Soler, Phys. Rev. Lett. 103, 096102 (2009).
     *
     *
     * If you are using vdW-DF2, please also cite:
     *
     *   K. Lee, E. D. Murray, L. Kong, B. I. Lundqvist, and
     *   D. C. Langreth, Phys. Rev. B 82, 081101(R) (2010).
     *
     *
     * If you are calculating the stress with vdW-DF, please also cite:
     *
     *   R. Sabatini, E. Kucukbenli, B. Kolb, T. Thonhauser, and
     *   S. de Gironcoli, J. Phys.: Condens. Matter 24, 424209 (2012).
     *

     Carrying out vdW-DF run using the following parameters:

     Nqs =      20    Nr_points =    1024   r_max =   100.000
     q_mesh =
               0.00001000     0.04494208     0.09755937     0.15916263
               0.23128650     0.31572767     0.41458969     0.53033537
               0.66584808     0.82450364     1.01025438     1.22772762
               1.48234092     1.78043706     2.12944203     2.53805004
               3.01644009     3.57652955     4.23227104     5.00000000

     Gradients computed in reciprocal space

[...]

     Starting wfc are  148 randomized atomic wfcs

     Self-consistent Calculation

[...]

     total energy              =   -2559.68648732 Ry
     Harris-Foulkes estimate   =   -2559.68649036 Ry
     estimated scf accuracy    <       0.00003304 Ry

     iteration # 17     ecut=    36.75 Ry     beta=0.30
     Davidson diagonalization with overlap
     ethr =  1.69E-08,  avg # of iterations =  2.0

[...]

     negative rho (up, down):  2.118E+00 0.000E+00

     Adding external electric field

     Computed dipole along edir(3) :
        Dipole               -0.0112 Ry au,         -0.0285 Debye
        Dipole field         -0.0000 Ry au

        Potential amp.        0.0028 Ry
        Total length         45.2551 bohr

     End of self-consistent calculation

[...]

          k = 0.0597-0.0689 0.0000 ( 16875 PWs)   bands (ev):

[...]

          k =-0.0895-0.0517 0.0000 ( 16880 PWs)   bands (ev):

   -51.6593 -51.5603 -51.4823 -51.1515 -51.1398 -51.0719 -51.0051 -50.9914
   -50.9741 -50.9493 -50.9074 -50.9045 -50.8895 -50.8759 -50.8668 -50.8222
   -50.8208 -50.8194 -50.8046 -50.7625 -50.7608 -50.7111 -50.6872 -50.6543
   -50.5977 -50.5957 -50.5797 -50.5090 -50.4884 -50.4629 -50.4449 -50.3872
   -50.2948 -50.2881 -50.2819 -50.2488 -10.2794  -5.3747  -4.9755  -4.5531
    -3.8487  -3.7758  -3.6592  -3.5248  -3.3463  -3.3029  -3.2963  -3.2179
    -3.0251  -2.7956  -2.7664  -2.7417  -2.6624  -2.5101  -2.4414  -2.2651
    -2.1324  -2.0281  -1.9967  -1.9949  -1.9826  -1.8836  -1.6247  -1.5818
    -1.5305  -1.4350  -1.2227  -1.0883  -1.0859  -0.9464  -0.9141  -0.8600
    -0.8214  -0.7933  -0.7274  -0.6026  -0.5504  -0.3952  -0.1689  -0.1563
    -0.1244  -0.0816   0.0018   0.0828   0.2566   0.2751   0.3838   0.4780
     0.5167   0.7746   0.8341   0.8800   0.9774   1.0538   1.3596   1.5200
     1.6147   1.6397   1.7700   1.9947   2.0342   2.6546   3.1765   3.7319
     3.8386   4.2615   4.4662   5.0153

     the Fermi energy is     1.8455 ev

!    total energy              =   -2559.68648224 Ry
     Harris-Foulkes estimate   =   -2559.68649070 Ry
     estimated scf accuracy    <       0.00000911 Ry

     The total energy is the sum of the following terms:

     one-electron contribution =  -20278.51169020 Ry
     hartree contribution      =   10177.39501006 Ry
     xc contribution           =    -707.10630362 Ry
     ewald contribution        =    8248.62798369 Ry
     electric field correction =       0.00000035 Ry
     smearing contrib. (-TS)   =      -0.09148253 Ry

     convergence has been achieved in  17 iterations

 BEEF-vdW xc energy contributions
           1 :   -629.558618259531
           2 :    586.112107611168
           3 :   -508.113566034946
           4 :    410.292401309854
           5 :   -308.841107376127
           6 :    217.294186126624
           7 :   -143.818550753360
           8 :    90.4757092757983
           9 :   -54.4119627750674
          10 :    30.2629140433103
          11 :   -12.7366101852675
          12 :   -1.59164481866321
          13 :    13.7474633054492
          14 :   -22.9869178901931
          15 :    28.0381432353402
          16 :   -28.2915419565813
          17 :    24.4142004635069
          18 :   -18.2163770231055
          19 :    11.9527291675990
          20 :   -7.47079693257569
          21 :    5.60854369941558
          22 :   -6.07405049389877
          23 :    7.78773740703923
          24 :   -9.47626145147478
          25 :    10.2274380024182
          26 :   -9.78325263540250
          27 :    8.49344154389223
          28 :   -7.01733847728985
          29 :    5.95305342837696
          30 :   -5.57366526835881
          31 :   -51.7193653960987
          32 :   -38.3043994191303

     Forces acting on atoms (Ry/au):

     negative rho (up, down):  2.118E+00 0.000E+00
     atom    1 type  1   force =    -0.00000348   -0.00001318   -0.01072942
     atom    2 type  1   force =     0.00000273   -0.00097478   -0.02117137
     atom    3 type  1   force =    -0.00083000    0.00050296   -0.02117308
     atom    4 type  1   force =     0.00081757    0.00048009   -0.02106102
     atom    5 type  1   force =     0.00257620   -0.00150214    0.01004435
     atom    6 type  1   force =    -0.00257902   -0.00150589    0.01027653
     atom    7 type  1   force =    -0.00000114    0.00001392    0.04172726
     atom    8 type  1   force =    -0.00000281    0.00299213    0.01012259
     atom    9 type  1   force =    -0.00027414   -0.00041217    0.00040978
     atom   10 type  1   force =    -0.00053007    0.00058598    0.00079084
     atom   11 type  1   force =     0.00046045   -0.00039873    0.00071839
     atom   12 type  1   force =    -0.00032967    0.00003509    0.00095571
     atom   13 type  2   force =     0.00069337    0.00019673   -0.00091055

     Total force =     0.059496     Total SCF correction =     0.019841
     SCF correction compared to forces is large: reduce conv_thr to get better values

     entering subroutine stress ...

     negative rho (up, down):  2.118E+00 0.000E+00
          total   stress  (Ry/bohr**3)                   (kbar)     P=   -3.62
  -0.00006592   0.00000013   0.00000029         -9.70      0.02      0.04
   0.00000013  -0.00006599   0.00000005          0.02     -9.71      0.01
   0.00000029   0.00000005   0.00005802          0.04      0.01      8.54

 !ASE

     Writing output data file calc.save

     General routines

     Parallel routines

   This run was terminated on:  10:44:32  18Jan2018

   JOB DONE.
Job  /afs/slac/g/suncat/bin/suncat-tsmpirun -x LD_LIBRARY_PATH -wdir /scratch/qe842471_qkFGl pw.x -in pw.inp

TID   HOST_NAME   COMMAND_LINE            STATUS            TERMINATION_TIME
00000 suncat0264 pw.x -in pw.inp   Done                     01/18/2018 10:44:32
00001 suncat0264 pw.x -in pw.inp   Done                     01/18/2018 10:44:32
00002 suncat0264 pw.x -in pw.inp   Done                     01/18/2018 10:44:32
00003 suncat0264 pw.x -in pw.inp   Done                     01/18/2018 10:44:32
00004 suncat0264 pw.x -in pw.inp   Done                     01/18/2018 10:44:32
00005 suncat0264 pw.x -in pw.inp   Done                     01/18/2018 10:44:32
00006 suncat0264 pw.x -in pw.inp   Done                     01/18/2018 10:44:32
00007 suncat0264 pw.x -in pw.inp   Done                     01/18/2018 10:44:32
00008 suncat0259 pw.x -in pw.inp   Done                     01/18/2018 10:44:32
00009 suncat0259 pw.x -in pw.inp   Done                     01/18/2018 10:44:32
00010 suncat0259 pw.x -in pw.inp   Done                     01/18/2018 10:44:32
00011 suncat0259 pw.x -in pw.inp   Done                     01/18/2018 10:44:32
00012 suncat0259 pw.x -in pw.inp   Done                     01/18/2018 10:44:32
00013 suncat0259 pw.x -in pw.inp   Done                     01/18/2018 10:44:32
00014 suncat0259 pw.x -in pw.inp   Done                     01/18/2018 10:44:32
00015 suncat0259 pw.x -in pw.inp   Done                     01/18/2018 10:44:32
00016 suncat0258 pw.x -in pw.inp   Done                     01/18/2018 10:44:32
00017 suncat0258 pw.x -in pw.inp   Done                     01/18/2018 10:44:32
00018 suncat0258 pw.x -in pw.inp   Done                     01/18/2018 10:44:32
00019 suncat0258 pw.x -in pw.inp   Done                     01/18/2018 10:44:32
00020 suncat0258 pw.x -in pw.inp   Done                     01/18/2018 10:44:32
00021 suncat0258 pw.x -in pw.inp   Done                     01/18/2018 10:44:32
00022 suncat0258 pw.x -in pw.inp   Done                     01/18/2018 10:44:32
00023 suncat0258 pw.x -in pw.inp   Done                     01/18/2018 10:44:32
00024 suncat0256 pw.x -in pw.inp   Done                     01/18/2018 10:44:32
00025 suncat0256 pw.x -in pw.inp   Done                     01/18/2018 10:44:32
00026 suncat0256 pw.x -in pw.inp   Done                     01/18/2018 10:44:32
00027 suncat0256 pw.x -in pw.inp   Done                     01/18/2018 10:44:32
00028 suncat0256 pw.x -in pw.inp   Done                     01/18/2018 10:44:32
00029 suncat0256 pw.x -in pw.inp   Done                     01/18/2018 10:44:32
00030 suncat0256 pw.x -in pw.inp   Done                     01/18/2018 10:44:32
00031 suncat0256 pw.x -in pw.inp   Done                     01/18/2018 10:44:32