     Program PWSCF v.5.1rc2 (svn rev. 11289) starts on  4May2018 at 10:36:14

     Current dimensions of program PWSCF are:
     Max number of different atomic species (ntypx) = 10
     Max number of k-points (npk) =  40000
     Max angular momentum in pseudopotentials (lmaxx) =  3
     Presently stress not available with electric field

     IMPORTANT: XC functional enforced from input :
     Exchange-correlation      = BEEF-VDW ( 1  4 27 13 2)
     Any further DFT definition will be discarded
     Please, verify this is what you really want

     Subspace diagonalization in iterative solution of the eigenvalue problem:
     a serial algorithm will be used

     bravais-lattice index     =            0
     lattice parameter (alat)  =       1.8897  a.u.
     unit-cell volume          =    5174.6160 (a.u.)^3
     number of atoms/cell      =           13
     number of atomic types    =            2
     number of electrons       =       229.00
     number of Kohn-Sham states=          124
     kinetic-energy cutoff     =      36.7493  Ry
     charge density cutoff     =     367.4932  Ry
     convergence threshold     =      1.0E-05
     mixing beta               =       0.3000
     number of iterations used =           10  plain     mixing
     Exchange-correlation      = BEEF-VDW ( 1  4 27 13 2)
     nstep                     =           50

     celldm(1)=   1.889726  celldm(2)=   0.000000  celldm(3)=   0.000000
     celldm(4)=   0.000000  celldm(5)=   0.000000  celldm(6)=   0.000000

     crystal axes: (cart. coord. in units of alat)
               a(1) = (   5.966546   0.000000   0.000000 )
               a(2) = (   2.983273   5.167181   0.000000 )
               a(3) = (   0.000000   0.000000  24.871665 )

     reciprocal axes: (cart. coord. in units 2 pi/alat)
               b(1) = (  0.167601 -0.096765  0.000000 )
               b(2) = (  0.000000  0.193529  0.000000 )
               b(3) = (  0.000000  0.000000  0.040206 )

     PseudoPot. # 1 for Ag read from file:
     /u/if/mamunm/psp/gbrv1.5pbe/Ag.UPF
     MD5 check sum: d66d668201baa78d5eb5b04ef7011058
     Pseudo is Ultrasoft + core correction, Zval = 19.0
     Generated by new atomic code, or converted to UPF format
     Using radial grid of  887 points,  6 beta functions with:
                l(1) =   0
                l(2) =   0
                l(3) =   1
                l(4) =   1
                l(5) =   2
                l(6) =   2
     Q(r) pseudized with  6 coefficients,  rinner =    1.300   1.300   1.300
                                                       1.300   1.300

     PseudoPot. # 2 for H  read from file:
     /u/if/mamunm/psp/gbrv1.5pbe/H.UPF
     MD5 check sum: 761ae9a214b05c3daf00ab9f6b793d6f
     Pseudo is Ultrasoft, Zval =  1.0
     Generated by new atomic code, or converted to UPF format
     Using radial grid of  615 points,  2 beta functions with:
                l(1) =   0
                l(2) =   0
     Q(r) pseudized with  8 coefficients,  rinner =    0.700

     vdW kernel table read from file vdW_kernel_table
     MD5 check sum: 095c7af220d748ca6e76c0b4c6cfb241

     atomic species   valence    mass     pseudopotential
        Ag1           19.00   107.86820     Ag( 1.00)
        H1             1.00     1.00800     H ( 1.00)

     No symmetry found

   Cartesian axes

     site n.     atom                  positions (alat units)
         1           Ag1 tau(   1) = (   1.4916366   0.8611968  10.0000000  )
         2           Ag1 tau(   2) = (   4.4749098   0.8611968  10.0000000  )
         3           Ag1 tau(   3) = (   2.9832732   3.4447871  10.0000000  )
         4           Ag1 tau(   4) = (   5.9665464   3.4447871  10.0000000  )
         5           Ag1 tau(   5) = (   5.9665464   1.7223936  12.4358324  )
         6           Ag1 tau(   6) = (   2.9832732   1.7223936  12.4358324  )
         7           Ag1 tau(   7) = (   7.4581830   4.3059839  12.4358324  )
         8           Ag1 tau(   8) = (   4.4749098   4.3059839  12.4358324  )
         9           Ag1 tau(   9) = (   0.0000000   0.0000000  14.8716647  )
        10           Ag1 tau(  10) = (   2.9832732   0.0000000  14.8716647  )
        11           Ag1 tau(  11) = (   1.4916366   2.5835904  14.8716647  )
        12           Ag1 tau(  12) = (   4.4749098   2.5835904  14.8716647  )
        13           H1  tau(  13) = (   2.9832732   1.7223936  16.0156647  )

     number of k points=    20  Fermi-Dirac smearing, width (Ry)=  0.0110
                       cart. coord. in units 2pi/alat
        k(    1) = (   0.0000000   0.0000000   0.0000000), wk =   0.0555556
        k(    2) = (   0.0000000   0.0322549   0.0000000), wk =   0.1111111
        k(    3) = (   0.0000000   0.0645097   0.0000000), wk =   0.1111111
        k(    4) = (   0.0000000  -0.0967646   0.0000000), wk =   0.0555556
        k(    5) = (   0.0279335  -0.0161274   0.0000000), wk =   0.1111111
        k(    6) = (   0.0279335   0.0161274   0.0000000), wk =   0.1111111
        k(    7) = (   0.0279335   0.0483823   0.0000000), wk =   0.1111111
        k(    8) = (   0.0279335  -0.1128920   0.0000000), wk =   0.1111111
        k(    9) = (   0.0279335  -0.0806371   0.0000000), wk =   0.1111111
        k(   10) = (   0.0279335  -0.0483823   0.0000000), wk =   0.1111111
        k(   11) = (   0.0558670  -0.0322549   0.0000000), wk =   0.1111111
        k(   12) = (   0.0558670   0.0000000   0.0000000), wk =   0.1111111
        k(   13) = (   0.0558670   0.0322549   0.0000000), wk =   0.1111111
        k(   14) = (   0.0558670  -0.1290194   0.0000000), wk =   0.1111111
        k(   15) = (   0.0558670  -0.0967646   0.0000000), wk =   0.1111111
        k(   16) = (   0.0558670  -0.0645097   0.0000000), wk =   0.1111111
        k(   17) = (  -0.0838006   0.0483823   0.0000000), wk =   0.0555556
        k(   18) = (  -0.0838006   0.0806371   0.0000000), wk =   0.1111111
        k(   19) = (  -0.0838006   0.1128920   0.0000000), wk =   0.1111111
        k(   20) = (  -0.0838006  -0.0483823   0.0000000), wk =   0.0555556

     Largest allocated arrays     est. size (Mb)     dimensions
     Largest temporary arrays     est. size (Mb)     dimensions

     Initial potential from superposition of free atoms
     Check: negative starting charge=   -0.002304

     starting charge  222.99942, renormalised to  229.00000

     negative rho (up, down):  2.366E-03 0.000E+00

     *
     * You are using vdW-DF for exchange-correlation in this calculation.
     * Please cite the following three references that made this development
     * possible:
     *
     *   M. Dion, H. Rydberg, E. Schroder, D. C. Langreth, and
     *   B. I. Lundqvist, Phys. Rev. Lett. 92, 246401 (2004).
     *
     *   T. Thonhauser, V. R. Cooper, S. Li, A. Puzder, P. Hyldgaard, and
     *   D. C. Langreth, Phys. Rev. B 76, 125112 (2007).
     *
     *   G. Roman-Perez and J. M. Soler, Phys. Rev. Lett. 103, 096102 (2009).
     *
     *
     * If you are using vdW-DF2, please also cite:
     *
     *   K. Lee, E. D. Murray, L. Kong, B. I. Lundqvist, and
     *   D. C. Langreth, Phys. Rev. B 82, 081101(R) (2010).
     *
     *
     * If you are calculating the stress with vdW-DF, please also cite:
     *
     *   R. Sabatini, E. Kucukbenli, B. Kolb, T. Thonhauser, and
     *   S. de Gironcoli, J. Phys.: Condens. Matter 24, 424209 (2012).
     *

     Carrying out vdW-DF run using the following parameters:

     Nqs =      20    Nr_points =    1024   r_max =   100.000
     q_mesh =
               0.00001000     0.04494208     0.09755937     0.15916263
               0.23128650     0.31572767     0.41458969     0.53033537
               0.66584808     0.82450364     1.01025438     1.22772762
               1.48234092     1.78043706     2.12944203     2.53805004
               3.01644009     3.57652955     4.23227104     5.00000000

     Gradients computed in reciprocal space

     Adding external electric field

     Computed dipole along edir(3) :
        Dipole               -0.1820 Ry au,         -0.4625 Debye
        Dipole field         -0.0004 Ry au

        Potential amp.        0.0405 Ry
        Total length         45.8256 bohr

     Starting wfc are  157 randomized atomic wfcs

     Self-consistent Calculation

     iteration #  1     ecut=    36.75 Ry     beta=0.30
     Davidson diagonalization with overlap
     ethr =  1.00E-02,  avg # of iterations =  6.1

[...]

     total energy              =   -3557.76298015 Ry
     Harris-Foulkes estimate   =   -3564.28369431 Ry
     estimated scf accuracy    <      14.70268023 Ry

[...]

     End of self-consistent calculation

          k = 0.0000 0.0000 0.0000 ( 19435 PWs)   bands (ev):

   -90.9003 -90.8948 -90.8948 -90.8099 -90.7802 -90.7749 -90.7749 -90.6940
   -90.6691 -90.6643 -90.6643 -90.6072 -54.4371 -54.4220 -54.4220 -54.4007
   -54.3909 -54.3909 -54.3752 -54.3638 -54.3638 -54.3239 -54.3036 -54.3036
   -54.2999 -54.2999 -54.2997 -54.2641 -54.2522 -54.2522 -54.2488 -54.2392
   -54.2392 -54.2251 -54.2251 -54.2092 -54.1749 -54.1624 -54.1624 -54.1545
   -54.1460 -54.1415 -54.1415 -54.1348 -54.1348 -54.1068 -54.1068 -54.0939
    -5.5146  -5.0315  -4.6267  -4.6222  -4.6222  -4.5637  -4.4778  -4.4778
    -4.4629  -4.3962  -4.3908  -4.3908  -4.2886  -4.2259  -4.2259  -3.8825
    -3.6419  -3.6419  -3.5526  -3.5441  -3.5441  -3.4696  -3.4445  -3.4445
    -3.3051  -3.3051  -3.2620  -3.2392  -3.2392  -3.1875  -3.1875  -2.8743
    -2.7231  -2.7231  -2.6886  -2.6371  -2.6371  -2.6166  -2.5927  -2.5927
    -2.4438  -2.3810  -2.3810  -2.3525  -2.3525  -2.1464  -2.1269  -2.1269
    -2.0736  -2.0736  -2.0453  -2.0453  -2.0291  -1.9841  -1.9577  -1.9577
    -1.8569  -1.8091  -1.8091  -1.7707  -1.7707  -1.7641  -1.0495   0.6336
     1.6454   1.6454   1.6758   2.0590   2.3926   2.3926   2.6787   2.8381
     2.8381   4.6551   4.7330   4.7330

[...]

          k =-0.0838 0.0484 0.0000 ( 19500 PWs)   bands (ev):

[...]

     the Fermi energy is     1.1264 ev

!    total energy              =   -3560.98521074 Ry
     Harris-Foulkes estimate   =   -3560.98520658 Ry
     estimated scf accuracy    <       0.00000244 Ry

     The total energy is the sum of the following terms:

     one-electron contribution =  -25775.84974909 Ry
     hartree contribution      =   12878.27401181 Ry
     xc contribution           =    -361.69373084 Ry
     ewald contribution        =    9698.30478883 Ry
     electric field correction =       0.00001679 Ry
     smearing contrib. (-TS)   =      -0.02054824 Ry

     convergence has been achieved in  11 iterations

 BEEF-vdW xc energy contributions
           1 :   -313.442121190040
           2 :    283.792201692987
           3 :   -234.327851942798
           4 :    180.014650953373
           5 :   -134.465811000915
           6 :    104.985002212372
           7 :   -91.1897995832581
           8 :    87.2185254592443
           9 :   -85.8327487826754
          10 :    82.0740440823005
          11 :   -74.7999408964276
          12 :    65.8343913222647
          13 :   -57.8047096487705
          14 :    52.2151041386437
          15 :   -48.8135171153560
          16 :    46.2762771718107
          17 :   -43.4216302559409
          18 :    40.0013323588038
          19 :   -36.6218613282246
          20 :    34.0379408443646
          21 :   -32.4610655954596
          22 :    31.3954067596460
          23 :   -30.0539573360089
          24 :    27.9780271404424
          25 :   -25.3839591587722
          26 :    22.9986253924364
          27 :   -21.5311906055529
          28 :    21.1745496016225
          29 :   -21.4871353381645
          30 :    21.7150992828191
          31 :   -31.2355580162820
          32 :   -22.7131592184379

     Forces acting on atoms (Ry/au):

     negative rho (up, down):  2.205E-03 0.000E+00
     atom    1 type  1   force =     0.00184819    0.00106681    0.00047159
     atom    2 type  1   force =    -0.00184827    0.00106681    0.00047113
     atom    3 type  1   force =    -0.00000008   -0.00213404    0.00047159
     atom    4 type  1   force =     0.00000031    0.00000007   -0.00133805
     atom    5 type  1   force =     0.00000014    0.00046113    0.00244807
     atom    6 type  1   force =    -0.00000022   -0.00000005   -0.00871716
     atom    7 type  1   force =    -0.00039944   -0.00023057    0.00244790
     atom    8 type  1   force =     0.00039929   -0.00023041    0.00244749
     atom    9 type  1   force =     0.00000020    0.00000018   -0.00227230
     atom   10 type  1   force =    -0.00000037    0.00424280    0.00839132
     atom   11 type  1   force =     0.00367416   -0.00212163    0.00839176
     atom   12 type  1   force =    -0.00367398   -0.00212115    0.00839116
     atom   13 type  2   force =     0.00000006    0.00000005   -0.02160449

     Total force =     0.027151     Total SCF correction =     0.001056

     entering subroutine stress ...

     negative rho (up, down):  2.205E-03 0.000E+00
          total   stress  (Ry/bohr**3)                   (kbar)     P=   -7.13
  -0.00005803  -0.00000000  -0.00000000         -8.54     -0.00     -0.00
  -0.00000000  -0.00005803   0.00000000         -0.00     -8.54      0.00
  -0.00000000   0.00000000  -0.00002935         -0.00      0.00     -4.32

     BFGS Geometry Optimization

     number of scf cycles    =   1
     number of bfgs steps    =   0

     energy   new            =   -3560.9852107367 Ry

     new trust radius        =       0.0216044910 bohr
     new conv_thr            =       0.0000099958 Ry

ATOMIC_POSITIONS (crystal)
Ag1      0.166666667   0.166666667   0.402063960    0   0   0
Ag1      0.666666667   0.166666667   0.402063960    0   0   0
Ag1      0.166666667   0.666666667   0.402063960    0   0   0
Ag1      0.666666667   0.666666667   0.402063960    0   0   0
Ag1      0.833333333   0.333333333   0.500000000    0   0   0
Ag1      0.333333333   0.333333333   0.500000000    0   0   0
Ag1      0.833333333   0.833333333   0.500000000    0   0   0
Ag1      0.333333333   0.833333333   0.500000000    0   0   0
Ag1      0.000000009   0.000000018   0.597887694
Ag1      0.499782712   0.000434510   0.598114576
Ag1      0.000434503   0.499782722   0.598114586
Ag1      0.499782767   0.499782770   0.598114573
H1       0.333333337   0.333333338   0.643472493

     Writing output data file calc.save
     Check: negative starting charge=   -0.002304
     NEW-OLD atomic charge density approx. for the potential
     Check: negative starting charge=   -0.002304

[...]

     Threshold (ethr) on eigenvalues was too large:
     Diagonalizing with lowered threshold

     Davidson diagonalization with overlap
     ethr =  2.60E-08,  avg # of iterations =  1.0

[...]

     Total force =     0.024618     Total SCF correction =     0.007960
     SCF correction compared to forces is large: reduce conv_thr to get better values

[...]

     energy   old            =   -3560.9852107367 Ry
     energy   new            =   -3560.9859127957 Ry

     CASE: energy  _new < energy  _old

     WARNING: bfgs curvature condition failed, Theta= 0.889
     new trust radius        =       0.0237649401 bohr
     new conv_thr            =       0.0000001000 Ry

[...]

     Total force =     0.004502     Total SCF correction =     0.000429

[...]

     number of scf cycles    =  11
     number of bfgs steps    =  10

     energy   old            =   -3560.9910153632 Ry
     energy   new            =   -3560.9910547821 Ry

     CASE: energy  _new < energy  _old

     new trust radius        =       0.0078393991 bohr
     new conv_thr            =       0.0000001000 Ry

ATOMIC_POSITIONS (crystal)
Ag1      0.166666667   0.166666667   0.402063960    0   0   0
Ag1      0.666666667   0.166666667   0.402063960    0   0   0
Ag1      0.166666667   0.666666667   0.402063960    0   0   0
Ag1      0.666666667   0.666666667   0.402063960    0   0   0
Ag1      0.833333333   0.333333333   0.500000000    0   0   0
Ag1      0.333333333   0.333333333   0.500000000    0   0   0
Ag1      0.833333333   0.833333333   0.500000000    0   0   0
Ag1      0.333333333   0.833333333   0.500000000    0   0   0
Ag1     -0.000000028   0.000000040   0.596663542
Ag1      0.502782083  -0.005564311   0.600284308
Ag1     -0.005564375   0.502782163   0.600284365
Ag1      0.502782217   0.502782262   0.600284291
H1       0.333333397   0.333333393   0.634304415

     Writing output data file calc.save
     Check: negative starting charge=   -0.002325
     NEW-OLD atomic charge density approx. for the potential
     Check: negative starting charge=   -0.002327

[...]

     Self-consistent Calculation

[...]

     Threshold (ethr) on eigenvalues was too large:
     Diagonalizing with lowered threshold

     Davidson diagonalization with overlap
     ethr =  8.59E-08,  avg # of iterations =  1.0

[...]

     total energy              =   -3560.99108355 Ry
     Harris-Foulkes estimate   =   -3560.99108358 Ry
     estimated scf accuracy    <       0.00000019 Ry

     iteration #  6     ecut=    36.75 Ry     beta=0.30
     Davidson diagonalization with overlap
     ethr =  8.49E-11,  avg # of iterations =  2.4

[...]

     negative rho (up, down):  2.202E-03 0.000E+00

     Adding external electric field

     Computed dipole along edir(3) :
        Dipole               -0.0405 Ry au,         -0.1030 Debye
        Dipole field         -0.0001 Ry au

        Potential amp.        0.0090 Ry
        Total length         45.8256 bohr

     End of self-consistent calculation

[...]

          k = 0.0559-0.0645 0.0000 ( 19479 PWs)   bands (ev):

[...]

          k =-0.0838-0.0484 0.0000 ( 19500 PWs)   bands (ev):

   -90.8536 -90.8519 -90.8501 -90.7798 -90.7777 -90.7760 -90.7609 -90.6589
   -90.6300 -90.6281 -90.6265 -90.5799 -54.3784 -54.3581 -54.3534 -54.3521
   -54.3503 -54.3478 -54.3471 -54.3446 -54.3207 -54.3169 -54.2937 -54.2830
   -54.2803 -54.2772 -54.2670 -54.2604 -54.2590 -54.2573 -54.2376 -54.2311
   -54.2295 -54.1789 -54.1620 -54.1591 -54.1384 -54.1358 -54.1319 -54.1307
   -54.1175 -54.1057 -54.1045 -54.1039 -54.1020 -54.0839 -54.0800 -54.0697
    -5.3258  -4.3239  -4.2873  -4.1789  -4.1378  -4.0984  -4.0811  -4.0312
    -4.0026  -3.9318  -3.8973  -3.8838  -3.8601  -3.8203  -3.7922  -3.7134
    -3.6185  -3.5097  -3.4903  -3.4817  -3.4577  -3.4473  -3.4138  -3.3628
    -3.3522  -3.1803  -3.1562  -3.1451  -3.1105  -3.0692  -3.0548  -3.0323
    -3.0228  -2.9291  -2.8761  -2.8406  -2.8389  -2.8029  -2.7842  -2.7587
    -2.7111  -2.7031  -2.6471  -2.6298  -2.6142  -2.6119  -2.5683  -2.5485
    -2.5236  -2.5063  -2.4859  -2.4729  -2.3737  -2.3343  -2.2999  -2.2795
    -2.0569  -2.0373  -2.0321  -2.0177  -1.8959  -1.8662  -1.4478  -1.0962
     0.3617   0.9148   1.0481   1.3462   1.9492   2.1943   3.4152   3.9165
     4.1525   4.3414   6.0127   6.0720

     the Fermi energy is     1.1613 ev

!    total energy              =   -3560.99108356 Ry
     Harris-Foulkes estimate   =   -3560.99108360 Ry
     estimated scf accuracy    <       0.00000001 Ry

     The total energy is the sum of the following terms:

     one-electron contribution =  -25666.31869422 Ry
     hartree contribution      =   12823.68069916 Ry
     xc contribution           =    -361.70454582 Ry
     ewald contribution        =    9643.37161019 Ry
     electric field correction =       0.00000399 Ry
     smearing contrib. (-TS)   =      -0.02015686 Ry

     convergence has been achieved in   6 iterations

 BEEF-vdW xc energy contributions
           1 :   -313.454243438794
           2 :    283.801962691578
           3 :   -234.328772994133
           4 :    180.000004240419
           5 :   -134.433904155057
           6 :    104.939432741511
           7 :   -91.1368092869544
           8 :    87.1641235755150
           9 :   -85.7814583805045
          10 :    82.0301756116526
          11 :   -74.7687541309148
          12 :    65.8209506939353
          13 :   -57.8113267901647
          14 :    52.2389697222038
          15 :   -48.8467806651080
          16 :    46.3097719445721
          17 :   -43.4494814866425
          18 :    40.0233433534590
          19 :   -36.6413626523959
          20 :    34.0563074502304
          21 :   -32.4738377559773
          22 :    31.3942809021930
          23 :   -30.0340638129173
          24 :    27.9446337462417
          25 :   -25.3523265496214
          26 :    22.9858679093124
          27 :   -21.5455929172483
          28 :    21.2107397714265
          29 :   -21.5309833997445
          30 :    21.7547216287472
          31 :   -31.2364569584649
          32 :   -22.7121561665870

     Forces acting on atoms (Ry/au):

     negative rho (up, down):  2.202E-03 0.000E+00
     atom    1 type  1   force =     0.00149227    0.00086156    0.00075434
     atom    2 type  1   force =    -0.00149228    0.00086156    0.00075433
     atom    3 type  1   force =    -0.00000000   -0.00172313    0.00075434
     atom    4 type  1   force =    -0.00000000   -0.00000001   -0.00067630
     atom    5 type  1   force =     0.00000002    0.00137967    0.00308307
     atom    6 type  1   force =    -0.00000002    0.00000000   -0.00416823
     atom    7 type  1   force =    -0.00119484   -0.00068986    0.00308310
     atom    8 type  1   force =     0.00119483   -0.00068983    0.00308304
     atom    9 type  1   force =    -0.00000004   -0.00000004   -0.00001750
     atom   10 type  1   force =     0.00000008    0.00126896   -0.00163817
     atom   11 type  1   force =     0.00109897   -0.00063439   -0.00163825
     atom   12 type  1   force =    -0.00109900   -0.00063449   -0.00163814
     atom   13 type  2   force =     0.00000000   -0.00000001   -0.00173563

     Total force =     0.003987     Total SCF correction =     0.000529
     SCF correction compared to forces is large: reduce conv_thr to get better values

     entering subroutine stress ...

     negative rho (up, down):  2.202E-03 0.000E+00
          total   stress  (Ry/bohr**3)                   (kbar)     P=   -7.10
  -0.00005828   0.00000000   0.00000000         -8.57      0.00      0.00
   0.00000000  -0.00005828  -0.00000000          0.00     -8.57     -0.00
   0.00000000  -0.00000000  -0.00002833          0.00     -0.00     -4.17

     bfgs converged in  12 scf cycles and  11 bfgs steps
     (criteria: energy <  1.0E+00, force <  1.9E-03)

     End of BFGS Geometry Optimization

     Final energy   =   -3560.9910835566 Ry
Begin final coordinates

ATOMIC_POSITIONS (crystal)
Ag1      0.166666667   0.166666667   0.402063960    0   0   0
Ag1      0.666666667   0.166666667   0.402063960    0   0   0
Ag1      0.166666667   0.666666667   0.402063960    0   0   0
Ag1      0.666666667   0.666666667   0.402063960    0   0   0
Ag1      0.833333333   0.333333333   0.500000000    0   0   0
Ag1      0.333333333   0.333333333   0.500000000    0   0   0
Ag1      0.833333333   0.833333333   0.500000000    0   0   0
Ag1      0.333333333   0.833333333   0.500000000    0   0   0
Ag1     -0.000000028   0.000000040   0.596663542
Ag1      0.502782083  -0.005564311   0.600284308
Ag1     -0.005564375   0.502782163   0.600284365
Ag1      0.502782217   0.502782262   0.600284291
H1       0.333333397   0.333333393   0.634304415
End final coordinates

     Writing output data file calc.save

     General routines

     Parallel routines

   This run was terminated on:  11:19:59   4May2018

   JOB DONE.
Job  /afs/slac/g/suncat/bin/suncat-tsmpirun -x LD_LIBRARY_PATH -wdir /scratch/qe28862_3S0Pd pw.x -npool 3 -in pw.inp

TID   HOST_NAME   COMMAND_LINE            STATUS            TERMINATION_TIME
00000 suncat2011 pw.x -npool 3 -i  Done                     05/04/2018 11:19:59
00001 suncat2011 pw.x -npool 3 -i  Done                     05/04/2018 11:19:59
00002 suncat2011 pw.x -npool 3 -i  Done                     05/04/2018 11:19:59
00003 suncat2011 pw.x -npool 3 -i  Done                     05/04/2018 11:19:59
00004 suncat2037 pw.x -npool 3 -i  Done                     05/04/2018 11:19:59
00005 suncat2037 pw.x -npool 3 -i  Done                     05/04/2018 11:19:59
00006 suncat2037 pw.x -npool 3 -i  Done                     05/04/2018 11:19:59
00007 suncat2037 pw.x -npool 3 -i  Done                     05/04/2018 11:19:59
00008 suncat2037 pw.x -npool 3 -i  Done                     05/04/2018 11:19:59
00009 suncat2037 pw.x -npool 3 -i  Done                     05/04/2018 11:19:59
00010 suncat2037 pw.x -npool 3 -i  Done                     05/04/2018 11:19:59
00011 suncat2037 pw.x -npool 3 -i  Done                     05/04/2018 11:19:59
00012 suncat2037 pw.x -npool 3 -i  Done                     05/04/2018 11:19:59
00013 suncat2037 pw.x -npool 3 -i  Done                     05/04/2018 11:19:59
00014 suncat2037 pw.x -npool 3 -i  Done                     05/04/2018 11:19:59
00015 suncat2037 pw.x -npool 3 -i  Done                     05/04/2018 11:19:59
00016 suncat2037 pw.x -npool 3 -i  Done                     05/04/2018 11:19:59
00017 suncat2037 pw.x -npool 3 -i  Done                     05/04/2018 11:19:59
00018 suncat2037 pw.x -npool 3 -i  Done                     05/04/2018 11:19:59
00019 suncat2037 pw.x -npool 3 -i  Done                     05/04/2018 11:19:59
00020 suncat2021 pw.x -npool 3 -i  Done                     05/04/2018 11:19:59
00021 suncat2021 pw.x -npool 3 -i  Done                     05/04/2018 11:19:59
00022 suncat2021 pw.x -npool 3 -i  Done                     05/04/2018 11:19:59
00023 suncat2021 pw.x -npool 3 -i  Done                     05/04/2018 11:19:59
00024 suncat2021 pw.x -npool 3 -i  Done                     05/04/2018 11:19:59
00025 suncat2021 pw.x -npool 3 -i  Done                     05/04/2018 11:19:59
00026 suncat2021 pw.x -npool 3 -i  Done                     05/04/2018 11:19:59
00027 suncat2021 pw.x -npool 3 -i  Done                     05/04/2018 11:19:59
00028 suncat2021 pw.x -npool 3 -i  Done                     05/04/2018 11:19:59
00029 suncat2021 pw.x -npool 3 -i  Done                     05/04/2018 11:19:59
00030 suncat2021 pw.x -npool 3 -i  Done                     05/04/2018 11:19:59
00031 suncat2021 pw.x -npool 3 -i  Done                     05/04/2018 11:19:59
00032 suncat2021 pw.x -npool 3 -i  Done                     05/04/2018 11:19:59
00033 suncat2021 pw.x -npool 3 -i  Done                     05/04/2018 11:19:59
00034 suncat2021 pw.x -npool 3 -i  Done                     05/04/2018 11:19:59
00035 suncat2021 pw.x -npool 3 -i  Done                     05/04/2018 11:19:59