     Program PWSCF v.5.1rc2 (svn rev. 11289) starts on 14Jan2018 at  1:22:40

     Current dimensions of program PWSCF are:
     Max number of different atomic species (ntypx) = 10
     Max number of k-points (npk) =  40000
     Max angular momentum in pseudopotentials (lmaxx) =  3
     Presently stress not available with electric field

     IMPORTANT: XC functional enforced from input :
     Exchange-correlation      = BEEF-VDW ( 1  4 27 13 2)
     Any further DFT definition will be discarded
     Please, verify this is what you really want

     Subspace diagonalization in iterative solution of the eigenvalue problem:
     a serial algorithm will be used

     bravais-lattice index     =            0
     lattice parameter (alat)  =       1.8897  a.u.
     unit-cell volume          =    4306.9643 (a.u.)^3
     number of atoms/cell      =           13
     number of atomic types    =            2
     number of electrons       =       181.00
     number of Kohn-Sham states=          100
     kinetic-energy cutoff     =      36.7493  Ry
     charge density cutoff     =     367.4932  Ry
     convergence threshold     =      1.0E-05
     mixing beta               =       0.3000
     number of iterations used =           10  plain     mixing
     Exchange-correlation      = BEEF-VDW ( 1  4 27 13 2)
     nstep                     =           50

     celldm(1)=   1.889726  celldm(2)=   0.000000  celldm(3)=   0.000000
     celldm(4)=   0.000000  celldm(5)=   0.000000  celldm(6)=   0.000000

     crystal axes: (cart. coord. in units of alat)
               a(1) = (   5.486772   0.000000   0.000000 )
               a(2) = (   2.743386   4.751684   0.000000 )
               a(3) = (   0.000000   0.000000  24.479931 )

     reciprocal axes: (cart. coord. in units 2 pi/alat)
               b(1) = (  0.182257 -0.105226  0.000000 )
               b(2) = (  0.000000  0.210452  0.000000 )
               b(3) = (  0.000000  0.000000  0.040850 )

     PseudoPot. # 1 for Re read from file:
     /afs/slac.stanford.edu/u/if/mamunm/psp/gbrv1.5pbe/Re.UPF
     MD5 check sum: 85f993410f3e006da9d71c142b4ad953
     Pseudo is Ultrasoft + core correction, Zval = 15.0
     Generated by new atomic code, or converted to UPF format
     Using radial grid of  981 points,  8 beta functions with:
                l(1) =   0
                l(2) =   0
                l(3) =   1
                l(4) =   1
                l(5) =   2
                l(6) =   2
                l(7) =   3
                l(8) =   3
     Q(r) pseudized with  8 coefficients,  rinner =    1.150   1.150   1.150
                                                       1.150   1.150   1.150
                                                       1.150

     PseudoPot. # 2 for H  read from file:
     /afs/slac.stanford.edu/u/if/mamunm/psp/gbrv1.5pbe/H.UPF
     MD5 check sum: 761ae9a214b05c3daf00ab9f6b793d6f
     Pseudo is Ultrasoft, Zval =  1.0
     Generated by new atomic code, or converted to UPF format
     Using radial grid of  615 points,  2 beta functions with:
                l(1) =   0
                l(2) =   0
     Q(r) pseudized with  8 coefficients,  rinner =    0.700

     vdW kernel table read from file vdW_kernel_table
     MD5 check sum: 095c7af220d748ca6e76c0b4c6cfb241

     atomic species   valence    mass     pseudopotential
        Re1           15.00   186.20700     Re( 1.00)
        H1             1.00     1.00800     H ( 1.00)

     No symmetry found

   Cartesian axes

     site n.     atom                  positions (alat units)
         1           Re1 tau(   1) = (   1.3716930   0.7919474  10.0000000  )
         2           Re1 tau(   2) = (   4.1150791   0.7919474  10.0000000  )
         3           Re1 tau(   3) = (   2.7433861   3.1677894  10.0000000  )
         4           Re1 tau(   4) = (   5.4867722   3.1677894  10.0000000  )
         5           Re1 tau(   5) = (   5.4867722   1.5838947  12.2399654  )
         6           Re1 tau(   6) = (   2.7433861   1.5838947  12.2399654  )
         7           Re1 tau(   7) = (   6.8584652   3.9597368  12.2399654  )
         8           Re1 tau(   8) = (   4.1150791   3.9597368  12.2399654  )
         9           Re1 tau(   9) = (   0.0000000   0.0000000  14.4799307  )
        10           Re1 tau(  10) = (   2.7433861   0.0000000  14.4799307  )
        11           Re1 tau(  11) = (   1.3716930   2.3758421  14.4799307  )
        12           Re1 tau(  12) = (   4.1150791   2.3758421  14.4799307  )
        13           H1  tau(  13) = (   0.0000000   0.0000000  16.2999307  )

     number of k points=    20  Fermi-Dirac smearing, width (Ry)=  0.0110
                       cart. coord. in units 2pi/alat
        k(    1) = (   0.0000000   0.0000000   0.0000000), wk =   0.0555556
        k(    2) = (   0.0000000   0.0350753   0.0000000), wk =   0.1111111
        k(    3) = (   0.0000000   0.0701506   0.0000000), wk =   0.1111111
        k(    4) = (   0.0000000  -0.1052259   0.0000000), wk =   0.0555556
        k(    5) = (   0.0303761  -0.0175376   0.0000000), wk =   0.1111111
        k(    6) = (   0.0303761   0.0175376   0.0000000), wk =   0.1111111
        k(    7) = (   0.0303761   0.0526129   0.0000000), wk =   0.1111111
        k(    8) = (   0.0303761  -0.1227635   0.0000000), wk =   0.1111111
        k(    9) = (   0.0303761  -0.0876882   0.0000000), wk =   0.1111111
        k(   10) = (   0.0303761  -0.0526129   0.0000000), wk =   0.1111111
        k(   11) = (   0.0607522  -0.0350753   0.0000000), wk =   0.1111111
        k(   12) = (   0.0607522   0.0000000   0.0000000), wk =   0.1111111
        k(   13) = (   0.0607522   0.0350753   0.0000000), wk =   0.1111111
        k(   14) = (   0.0607522  -0.1403011   0.0000000), wk =   0.1111111
        k(   15) = (   0.0607522  -0.1052259   0.0000000), wk =   0.1111111
        k(   16) = (   0.0607522  -0.0701506   0.0000000), wk =   0.1111111
        k(   17) = (  -0.0911283   0.0526129   0.0000000), wk =   0.0555556
        k(   18) = (  -0.0911283   0.0876882   0.0000000), wk =   0.1111111
        k(   19) = (  -0.0911283   0.1227635   0.0000000), wk =   0.1111111
        k(   20) = (  -0.0911283  -0.0526129   0.0000000), wk =   0.0555556

     Largest allocated arrays     est. size (Mb)     dimensions
     Largest temporary arrays     est. size (Mb)     dimensions

     Initial potential from superposition of free atoms
     Check: negative starting charge=   -1.539528

     starting charge  174.99945, renormalised to  181.00000

     negative rho (up, down):  1.592E+00 0.000E+00

     *
     * You are using vdW-DF for exchange-correlation in this calculation.
     * Please cite the following three references that made this development
     * possible:
     *
     *   M. Dion, H. Rydberg, E. Schroder, D. C. Langreth, and
     *   B. I. Lundqvist, Phys. Rev. Lett. 92, 246401 (2004).
     *
     *   T. Thonhauser, V. R. Cooper, S. Li, A. Puzder, P. Hyldgaard, and
     *   D. C. Langreth, Phys. Rev. B 76, 125112 (2007).
     *
     *   G. Roman-Perez and J. M. Soler, Phys. Rev. Lett. 103, 096102 (2009).
     *
     *
     * If you are using vdW-DF2, please also cite:
     *
     *   K. Lee, E. D. Murray, L. Kong, B. I. Lundqvist, and
     *   D. C. Langreth, Phys. Rev. B 82, 081101(R) (2010).
     *
     *
     * If you are calculating the stress with vdW-DF, please also cite:
     *
     *   R. Sabatini, E. Kucukbenli, B. Kolb, T. Thonhauser, and
     *   S. de Gironcoli, J. Phys.: Condens. Matter 24, 424209 (2012).
     *

     Carrying out vdW-DF run using the following parameters:

     Nqs =      20    Nr_points =    1024   r_max =   100.000
     q_mesh =
               0.00001000     0.04494208     0.09755937     0.15916263
               0.23128650     0.31572767     0.41458969     0.53033537
               0.66584808     0.82450364     1.01025438     1.22772762
               1.48234092     1.78043706     2.12944203     2.53805004
               3.01644009     3.57652955     4.23227104     5.00000000

     Gradients computed in reciprocal space

     Adding external electric field

     Computed dipole along edir(3) :
        Dipole               -0.2630 Ry au,         -0.6685 Debye
        Dipole field         -0.0008 Ry au

        Potential amp.        0.0692 Ry
        Total length         45.1039 bohr

     Starting wfc are  157 randomized atomic wfcs

     Self-consistent Calculation

     iteration #  1     ecut=    36.75 Ry     beta=0.30
     Davidson diagonalization with overlap
     ethr =  1.00E-02,  avg # of iterations =  2.0

[...]

     total energy              =   -2306.48531770 Ry
     Harris-Foulkes estimate   =   -2307.81137024 Ry
     estimated scf accuracy    <       3.18898336 Ry

[...]

     End of self-consistent calculation

          k = 0.0000 0.0000 0.0000 ( 16091 PWs)   bands (ev):

   -77.7722 -77.6943 -77.6602 -77.6600 -77.6402 -77.6256 -77.5768 -77.5768
   -77.5629 -77.5629 -77.5511 -77.4795 -40.0286 -40.0285 -39.9969 -39.9008
   -39.8147 -39.8046 -39.8046 -39.6946 -39.6835 -39.6834 -39.4787 -39.3678
   -39.3677 -39.3440 -39.3405 -39.3404 -39.2658 -39.2597 -39.2596 -39.2560
   -39.1333 -39.1331 -39.1200 -39.0158 -39.0133 -39.0133 -39.0132 -38.9928
   -38.9928 -38.9691 -38.9545 -38.9544 -38.7804 -38.7804 -38.7647 -38.7647
    -6.3736  -4.4093  -3.8328  -3.4499  -3.4462  -3.4461  -3.1601  -3.1249
    -3.1248  -2.4528  -2.4411  -2.4411  -2.2522  -2.2319  -2.2319  -0.7393
    -0.6924  -0.6923  -0.5701   0.3593   0.3594   0.3594   0.6257   0.8826
     1.0131   1.0131   1.4806   1.4806   1.5074   1.5140   1.5141   1.5238
     1.5238   1.7585   1.7947   1.7947   2.8121   3.1028   3.1254   3.1254
     3.5182   3.5410   3.5411   3.9770   4.0942   4.0942   4.6156   4.6156
     4.6407   4.6631   4.6631   4.9958

[...]

          k =-0.0911 0.0526 0.0000 ( 16164 PWs)   bands (ev):

[...]

     the Fermi energy is     2.8597 ev

!    total energy              =   -2307.01266591 Ry
     Harris-Foulkes estimate   =   -2307.01266605 Ry
     estimated scf accuracy    <       0.00000082 Ry

     The total energy is the sum of the following terms:

     one-electron contribution =  -18481.54717923 Ry
     hartree contribution      =    9225.41927952 Ry
     xc contribution           =    -650.03319413 Ry
     ewald contribution        =    7599.21605640 Ry
     electric field correction =       0.00000346 Ry
     smearing contrib. (-TS)   =      -0.06763192 Ry

     convergence has been achieved in  15 iterations

 BEEF-vdW xc energy contributions
           1 :   -578.047245085268
           2 :    537.513042357953
           3 :   -464.693441758369
           4 :    373.355400644132
           5 :   -278.744277328948
           6 :    193.699251649637
           7 :   -126.033820589742
           8 :    77.7922963188154
           9 :   -46.3251225937527
          10 :    26.5042248267686
          11 :   -13.1120346066430
          12 :    2.54795558905630
          13 :    6.57654160464415
          14 :   -13.8850271390404
          15 :    18.2852696681857
          16 :   -19.0609313899040
          17 :    16.5416836909919
          18 :   -12.1341446484566
          19 :    7.78784822319130
[...]

     Program PWSCF v.5.1rc2 (svn rev. 11289) starts on 14Jan2018 at  2: 8: 7

[...]

     iteration #  8     ecut=    36.75 Ry     beta=0.30
     Davidson diagonalization with overlap
     c_bands:  1 eigenvalues not converged
     c_bands:  1 eigenvalues not converged
     c_bands:  1 eigenvalues not converged
     ethr =  3.59E-06,  avg # of iterations =  8.7

[...]

   This run was terminated on:   3: 4: 7  14Jan2018

[...]

     Program PWSCF v.5.1rc2 (svn rev. 11289) starts on 14Jan2018 at  3: 4:13

[...]

     Total force =     0.050993     Total SCF correction =     0.003897

[...]

     Program PWSCF v.5.1rc2 (svn rev. 11289) starts on 14Jan2018 at  3:15:40

     Current dimensions of program PWSCF are:
     Max number of different atomic species (ntypx) = 10
     Max number of k-points (npk) =  40000
     Max angular momentum in pseudopotentials (lmaxx) =  3
     Presently stress not available with electric field

     IMPORTANT: XC functional enforced from input :
     Exchange-correlation      = BEEF-VDW ( 1  4 27 13 2)
     Any further DFT definition will be discarded
     Please, verify this is what you really want

     Subspace diagonalization in iterative solution of the eigenvalue problem:
     a serial algorithm will be used

     bravais-lattice index     =            0
     lattice parameter (alat)  =       1.8897  a.u.
     unit-cell volume          =    4306.9643 (a.u.)^3
     number of atoms/cell      =           13
     number of atomic types    =            2
     number of electrons       =       181.00
     number of Kohn-Sham states=          100
     kinetic-energy cutoff     =      36.7493  Ry
     charge density cutoff     =     367.4932  Ry
     convergence threshold     =      1.0E-05
     mixing beta               =       0.3000
     number of iterations used =           10  plain     mixing
     Exchange-correlation      = BEEF-VDW ( 1  4 27 13 2)
     nstep                     =           50

     celldm(1)=   1.889726  celldm(2)=   0.000000  celldm(3)=   0.000000
     celldm(4)=   0.000000  celldm(5)=   0.000000  celldm(6)=   0.000000

     crystal axes: (cart. coord. in units of alat)
               a(1) = (   5.486772   0.000000   0.000000 )
               a(2) = (   2.743386   4.751684   0.000000 )
               a(3) = (   0.000000   0.000000  24.479931 )

     reciprocal axes: (cart. coord. in units 2 pi/alat)
               b(1) = (  0.182257 -0.105226  0.000000 )
               b(2) = (  0.000000  0.210452  0.000000 )
               b(3) = (  0.000000  0.000000  0.040850 )

     PseudoPot. # 1 for Re read from file:
     /afs/slac.stanford.edu/u/if/mamunm/psp/gbrv1.5pbe/Re.UPF
     MD5 check sum: 85f993410f3e006da9d71c142b4ad953
     Pseudo is Ultrasoft + core correction, Zval = 15.0
     Generated by new atomic code, or converted to UPF format
     Using radial grid of  981 points,  8 beta functions with:
                l(1) =   0
                l(2) =   0
                l(3) =   1
                l(4) =   1
                l(5) =   2
                l(6) =   2
                l(7) =   3
                l(8) =   3
     Q(r) pseudized with  8 coefficients,  rinner =    1.150   1.150   1.150
                                                       1.150   1.150   1.150
                                                       1.150

     PseudoPot. # 2 for H  read from file:
     /afs/slac.stanford.edu/u/if/mamunm/psp/gbrv1.5pbe/H.UPF
     MD5 check sum: 761ae9a214b05c3daf00ab9f6b793d6f
     Pseudo is Ultrasoft, Zval =  1.0
     Generated by new atomic code, or converted to UPF format
     Using radial grid of  615 points,  2 beta functions with:
                l(1) =   0
                l(2) =   0
     Q(r) pseudized with  8 coefficients,  rinner =    0.700

     vdW kernel table read from file vdW_kernel_table
     MD5 check sum: 095c7af220d748ca6e76c0b4c6cfb241

     atomic species   valence    mass     pseudopotential
        Re1           15.00   186.20700     Re( 1.00)
        H1             1.00     1.00800     H ( 1.00)

     No symmetry found

   Cartesian axes

     site n.     atom                  positions (alat units)
         1           Re1 tau(   1) = (   1.3716930   0.7919474  10.0000000  )
         2           Re1 tau(   2) = (   4.1150791   0.7919474  10.0000000  )
         3           Re1 tau(   3) = (   2.7433861   3.1677894  10.0000000  )
         4           Re1 tau(   4) = (   5.4867722   3.1677894  10.0000000  )
         5           Re1 tau(   5) = (   5.4867722   1.5838947  12.2399654  )
         6           Re1 tau(   6) = (   2.7433861   1.5838947  12.2399654  )
         7           Re1 tau(   7) = (   6.8584652   3.9597368  12.2399654  )
         8           Re1 tau(   8) = (   4.1150791   3.9597368  12.2399654  )
         9           Re1 tau(   9) = (   8.2299170   4.7516036  14.5268751  )
        10           Re1 tau(  10) = (   5.4869979   4.7483527  14.4051709  )
        11           Re1 tau(  11) = (   6.8556019   2.3776916  14.4052476  )
        12           Re1 tau(  12) = (   4.1178190   2.3774304  14.4053526  )
        13           H1  tau(  13) = (   2.7433850   4.7516782  16.2381593  )

     number of k points=    20  Fermi-Dirac smearing, width (Ry)=  0.0110
                       cart. coord. in units 2pi/alat
        k(    1) = (   0.0000000   0.0000000   0.0000000), wk =   0.0555556
        k(    2) = (   0.0000000   0.0350753   0.0000000), wk =   0.1111111
        k(    3) = (   0.0000000   0.0701506   0.0000000), wk =   0.1111111
        k(    4) = (   0.0000000  -0.1052259   0.0000000), wk =   0.0555556
        k(    5) = (   0.0303761  -0.0175376   0.0000000), wk =   0.1111111
        k(    6) = (   0.0303761   0.0175376   0.0000000), wk =   0.1111111
        k(    7) = (   0.0303761   0.0526129   0.0000000), wk =   0.1111111
        k(    8) = (   0.0303761  -0.1227635   0.0000000), wk =   0.1111111
        k(    9) = (   0.0303761  -0.0876882   0.0000000), wk =   0.1111111
        k(   10) = (   0.0303761  -0.0526129   0.0000000), wk =   0.1111111
        k(   11) = (   0.0607522  -0.0350753   0.0000000), wk =   0.1111111
        k(   12) = (   0.0607522   0.0000000   0.0000000), wk =   0.1111111
        k(   13) = (   0.0607522   0.0350753   0.0000000), wk =   0.1111111
        k(   14) = (   0.0607522  -0.1403011   0.0000000), wk =   0.1111111
        k(   15) = (   0.0607522  -0.1052259   0.0000000), wk =   0.1111111
        k(   16) = (   0.0607522  -0.0701506   0.0000000), wk =   0.1111111
        k(   17) = (  -0.0911283   0.0526129   0.0000000), wk =   0.0555556
        k(   18) = (  -0.0911283   0.0876882   0.0000000), wk =   0.1111111
        k(   19) = (  -0.0911283   0.1227635   0.0000000), wk =   0.1111111
        k(   20) = (  -0.0911283  -0.0526129   0.0000000), wk =   0.0555556

     Largest allocated arrays     est. size (Mb)     dimensions
     Largest temporary arrays     est. size (Mb)     dimensions

     Initial potential from superposition of free atoms
     Check: negative starting charge=   -1.540153

     starting charge  174.99945, renormalised to  181.00000

[...]

     *
     * You are using vdW-DF for exchange-correlation in this calculation.
     * Please cite the following three references that made this development
     * possible:
     *
     *   M. Dion, H. Rydberg, E. Schroder, D. C. Langreth, and
     *   B. I. Lundqvist, Phys. Rev. Lett. 92, 246401 (2004).
     *
     *   T. Thonhauser, V. R. Cooper, S. Li, A. Puzder, P. Hyldgaard, and
     *   D. C. Langreth, Phys. Rev. B 76, 125112 (2007).
     *
     *   G. Roman-Perez and J. M. Soler, Phys. Rev. Lett. 103, 096102 (2009).
     *
     *
     * If you are using vdW-DF2, please also cite:
     *
     *   K. Lee, E. D. Murray, L. Kong, B. I. Lundqvist, and
     *   D. C. Langreth, Phys. Rev. B 82, 081101(R) (2010).
     *
     *
     * If you are calculating the stress with vdW-DF, please also cite:
     *
     *   R. Sabatini, E. Kucukbenli, B. Kolb, T. Thonhauser, and
     *   S. de Gironcoli, J. Phys.: Condens. Matter 24, 424209 (2012).
     *

     Carrying out vdW-DF run using the following parameters:

     Nqs =      20    Nr_points =    1024   r_max =   100.000
     q_mesh =
               0.00001000     0.04494208     0.09755937     0.15916263
               0.23128650     0.31572767     0.41458969     0.53033537
               0.66584808     0.82450364     1.01025438     1.22772762
               1.48234092     1.78043706     2.12944203     2.53805004
               3.01644009     3.57652955     4.23227104     5.00000000

     Gradients computed in reciprocal space

[...]

     Starting wfc are  157 randomized atomic wfcs

     Self-consistent Calculation

[...]

     total energy              =   -2307.02448963 Ry
     Harris-Foulkes estimate   =   -2307.02449406 Ry
     estimated scf accuracy    <       0.00003813 Ry

     iteration # 13     ecut=    36.75 Ry     beta=0.30
     Davidson diagonalization with overlap
     ethr =  2.11E-08,  avg # of iterations =  4.8

[...]

     negative rho (up, down):  1.623E+00 0.000E+00

     Adding external electric field

     Computed dipole along edir(3) :
        Dipole               -0.0390 Ry au,         -0.0990 Debye
        Dipole field         -0.0001 Ry au

        Potential amp.        0.0103 Ry
        Total length         45.1039 bohr

     End of self-consistent calculation

[...]

          k = 0.0608-0.0702 0.0000 ( 16218 PWs)   bands (ev):

[...]

          k =-0.0911-0.0526 0.0000 ( 16164 PWs)   bands (ev):

   -77.7402 -77.7290 -77.6886 -77.6832 -77.6434 -77.6321 -77.6089 -77.5899
   -77.5768 -77.5738 -77.5564 -77.4525 -39.8997 -39.8825 -39.8291 -39.7699
   -39.7401 -39.7089 -39.6582 -39.6456 -39.5869 -39.5518 -39.5258 -39.5191
   -39.3550 -39.3306 -39.3119 -39.2961 -39.2890 -39.2702 -39.2695 -39.2567
   -39.2504 -39.2285 -39.2086 -39.1866 -39.1756 -39.1706 -39.1499 -39.1281
   -39.0534 -39.0407 -39.0072 -39.0003 -38.9305 -38.9075 -38.8700 -38.8434
    -4.4140  -4.4033  -2.8520  -2.8084  -2.3325  -2.2730  -2.2692  -2.2451
    -2.2035  -2.1018  -1.5181  -1.4693  -1.1552  -1.0940  -0.9760  -0.8735
    -0.8332  -0.5730  -0.5444  -0.5092  -0.0394  -0.0033   0.1666   0.4537
     0.6182   0.7810   0.8598   0.8872   0.9245   0.9538   0.9677   1.0441
     1.2124   1.2461   1.3897   1.4282   1.5025   1.6346   1.8768   1.8782
     1.9974   2.7484   2.8135   2.8824   2.9598   3.0474   3.2136   3.4354
     3.4741   3.8534   3.9079   3.9220

     the Fermi energy is     2.8387 ev

!    total energy              =   -2307.02449288 Ry
     Harris-Foulkes estimate   =   -2307.02449537 Ry
     estimated scf accuracy    <       0.00000364 Ry

     The total energy is the sum of the following terms:

     one-electron contribution =  -18600.91861053 Ry
     hartree contribution      =    9285.02319740 Ry
     xc contribution           =    -650.20648398 Ry
     ewald contribution        =    7659.14424382 Ry
     electric field correction =       0.00000443 Ry
     smearing contrib. (-TS)   =      -0.06684402 Ry

     convergence has been achieved in  13 iterations

 BEEF-vdW xc energy contributions
           1 :   -578.218283436779
           2 :    537.724518658272
           3 :   -464.960441779469
           4 :    373.653492284714
           5 :   -279.016659357622
           6 :    193.883941990845
           7 :   -126.096678800701
           8 :    77.7477542104369
           9 :   -46.2326663339393
          10 :    26.4416885482340
          11 :   -13.1391089762419
          12 :    2.67776190974951
          13 :    6.38353807910505
          14 :   -13.7018477192167
          15 :    18.1843213865271
          16 :   -19.0813682461395
          17 :    16.6719796546435
          18 :   -12.3173561828631
          19 :    7.94693811428772
          20 :   -5.27520739546344
          21 :    5.13177007079889
          22 :   -7.20193080442868
          23 :    10.2651955344222
          24 :   -12.7950838159727
          25 :    13.6341001593844
          26 :   -12.4473176175500
          27 :    9.77676615514110
          28 :   -6.71149543704109
          29 :    4.35679166311047
          30 :   -3.35882823742600
          31 :   -48.0204435911285
          32 :   -35.6547618687168

     Forces acting on atoms (Ry/au):

     negative rho (up, down):  1.623E+00 0.000E+00
     atom    1 type  1   force =    -0.00075613   -0.00045189    0.01772691
     atom    2 type  1   force =     0.00075960   -0.00037890    0.01772929
     atom    3 type  1   force =     0.00006554    0.00085921    0.01770444
     atom    4 type  1   force =    -0.00007481   -0.00002549    0.01986826
     atom    5 type  1   force =    -0.00004827   -0.00414359   -0.01822738
     atom    6 type  1   force =     0.00003778    0.00001854   -0.01645333
     atom    7 type  1   force =     0.00359743    0.00208875   -0.01825877
     atom    8 type  1   force =    -0.00360769    0.00202251   -0.01819403
     atom    9 type  1   force =     0.00024096    0.00010129   -0.00099407
     atom   10 type  1   force =    -0.00025973   -0.00075891   -0.00026696
     atom   11 type  1   force =    -0.00073593    0.00017817   -0.00029162
     atom   12 type  1   force =     0.00077962    0.00048734   -0.00038042
     atom   13 type  2   force =     0.00000163    0.00000298    0.00003768

     Total force =     0.051588     Total SCF correction =     0.009029
     SCF correction compared to forces is large: reduce conv_thr to get better values

     entering subroutine stress ...

     negative rho (up, down):  1.623E+00 0.000E+00
          total   stress  (Ry/bohr**3)                   (kbar)     P=  -17.93
  -0.00013289   0.00000001   0.00000004        -19.55      0.00      0.01
   0.00000001  -0.00013286   0.00000001          0.00    -19.54      0.00
   0.00000004   0.00000001  -0.00009989          0.01      0.00    -14.69

 !ASE

     Writing output data file calc.save

     General routines

     Parallel routines

   This run was terminated on:   3:27:16  14Jan2018

   JOB DONE.
Job  /afs/slac/g/suncat/bin/suncat-tsmpirun -x LD_LIBRARY_PATH -wdir /scratch/qe842473_lYe8H pw.x -in pw.inp

TID   HOST_NAME   COMMAND_LINE            STATUS            TERMINATION_TIME
00000 suncat0050 pw.x -in pw.inp   Done                     01/14/2018 03:27:16
00001 suncat0050 pw.x -in pw.inp   Done                     01/14/2018 03:27:16
00002 suncat0050 pw.x -in pw.inp   Done                     01/14/2018 03:27:16
00003 suncat0050 pw.x -in pw.inp   Done                     01/14/2018 03:27:16
00004 suncat0050 pw.x -in pw.inp   Done                     01/14/2018 03:27:16
00005 suncat0050 pw.x -in pw.inp   Done                     01/14/2018 03:27:16
00006 suncat0050 pw.x -in pw.inp   Done                     01/14/2018 03:27:16
00007 suncat0050 pw.x -in pw.inp   Done                     01/14/2018 03:27:16
00008 suncat0242 pw.x -in pw.inp   Done                     01/14/2018 03:27:16
00009 suncat0242 pw.x -in pw.inp   Done                     01/14/2018 03:27:16
00010 suncat0242 pw.x -in pw.inp   Done                     01/14/2018 03:27:16
00011 suncat0242 pw.x -in pw.inp   Done                     01/14/2018 03:27:16
00012 suncat0242 pw.x -in pw.inp   Done                     01/14/2018 03:27:16
00013 suncat0242 pw.x -in pw.inp   Done                     01/14/2018 03:27:16
00014 suncat0242 pw.x -in pw.inp   Done                     01/14/2018 03:27:16
00015 suncat0242 pw.x -in pw.inp   Done                     01/14/2018 03:27:16
00016 suncat0241 pw.x -in pw.inp   Done                     01/14/2018 03:27:16
00017 suncat0241 pw.x -in pw.inp   Done                     01/14/2018 03:27:16
00018 suncat0241 pw.x -in pw.inp   Done                     01/14/2018 03:27:16
00019 suncat0241 pw.x -in pw.inp   Done                     01/14/2018 03:27:16
00020 suncat0241 pw.x -in pw.inp   Done                     01/14/2018 03:27:16
00021 suncat0241 pw.x -in pw.inp   Done                     01/14/2018 03:27:16
00022 suncat0241 pw.x -in pw.inp   Done                     01/14/2018 03:27:16
00023 suncat0241 pw.x -in pw.inp   Done                     01/14/2018 03:27:16
00024 suncat0240 pw.x -in pw.inp   Done                     01/14/2018 03:27:16
00025 suncat0240 pw.x -in pw.inp   Done                     01/14/2018 03:27:16
00026 suncat0240 pw.x -in pw.inp   Done                     01/14/2018 03:27:16
00027 suncat0240 pw.x -in pw.inp   Done                     01/14/2018 03:27:16
00028 suncat0240 pw.x -in pw.inp   Done                     01/14/2018 03:27:16
00029 suncat0240 pw.x -in pw.inp   Done                     01/14/2018 03:27:16
00030 suncat0240 pw.x -in pw.inp   Done                     01/14/2018 03:27:16
00031 suncat0240 pw.x -in pw.inp   Done                     01/14/2018 03:27:16