     Program PWSCF v.5.1rc2 (svn rev. 11289) starts on 21Apr2018 at 16:29:25

     Current dimensions of program PWSCF are:
     Max number of different atomic species (ntypx) = 10
     Max number of k-points (npk) =  40000
     Max angular momentum in pseudopotentials (lmaxx) =  3
     Presently stress not available with electric field

     IMPORTANT: XC functional enforced from input :
     Exchange-correlation      = BEEF-VDW ( 1  4 27 13 2)
     Any further DFT definition will be discarded
     Please, verify this is what you really want

     Subspace diagonalization in iterative solution of the eigenvalue problem:
     a serial algorithm will be used

     bravais-lattice index     =            0
     lattice parameter (alat)  =       1.8897  a.u.
     unit-cell volume          =    7171.5276 (a.u.)^3
     number of atoms/cell      =           14
     number of atomic types    =            3
     number of electrons       =       175.00
     number of Kohn-Sham states=           97
     kinetic-energy cutoff     =      36.7493  Ry
     charge density cutoff     =     367.4932  Ry
     convergence threshold     =      1.0E-05
     mixing beta               =       0.3000
     number of iterations used =           10  plain     mixing
     Exchange-correlation      = BEEF-VDW ( 1  4 27 13 2)
     nstep                     =           50

     celldm(1)=   1.889726  celldm(2)=   0.000000  celldm(3)=   0.000000
     celldm(4)=   0.000000  celldm(5)=   0.000000  celldm(6)=   0.000000

     crystal axes: (cart. coord. in units of alat)
               a(1) = (   6.917003   0.000000   0.000000 )
               a(2) = (   3.458501   5.990300   0.000000 )
               a(3) = (   0.000000   0.000000  25.647709 )

     reciprocal axes: (cart. coord. in units 2 pi/alat)
               b(1) = (  0.144571 -0.083468  0.000000 )
               b(2) = (  0.000000  0.166937  0.000000 )
               b(3) = (  0.000000  0.000000  0.038990 )

     PseudoPot. # 1 for Pb read from file:
     /u/if/mamunm/psp/gbrv1.5pbe/Pb.UPF
     MD5 check sum: 3d1c1779aa92214d1e8f3a7db79003e2
     Pseudo is Ultrasoft + core correction, Zval = 14.0
     Generated by new atomic code, or converted to UPF format
     Using radial grid of  899 points,  6 beta functions with:
                l(1) =   0
                l(2) =   0
                l(3) =   1
                l(4) =   1
                l(5) =   2
                l(6) =   2
     Q(r) pseudized with  6 coefficients,  rinner =    1.000   1.000   1.000
                                                       1.000   1.000

     PseudoPot. # 2 for S  read from file:
     /u/if/mamunm/psp/gbrv1.5pbe/S.UPF
     MD5 check sum: 88d86576ff6df21479756cfb9bdac1df
     Pseudo is Ultrasoft + core correction, Zval =  6.0
     Generated by new atomic code, or converted to UPF format
     Using radial grid of  907 points,  6 beta functions with:
                l(1) =   0
                l(2) =   0
                l(3) =   1
                l(4) =   1
                l(5) =   2
                l(6) =   2
     Q(r) pseudized with  8 coefficients,  rinner =    1.300   1.300   1.300
                                                       1.300   1.300

     PseudoPot. # 3 for H  read from file:
     /u/if/mamunm/psp/gbrv1.5pbe/H.UPF
     MD5 check sum: 761ae9a214b05c3daf00ab9f6b793d6f
     Pseudo is Ultrasoft, Zval =  1.0
     Generated by new atomic code, or converted to UPF format
     Using radial grid of  615 points,  2 beta functions with:
                l(1) =   0
                l(2) =   0
     Q(r) pseudized with  8 coefficients,  rinner =    0.700

     vdW kernel table read from file vdW_kernel_table
     MD5 check sum: 095c7af220d748ca6e76c0b4c6cfb241

     atomic species   valence    mass     pseudopotential
        Pb1           14.00   207.20000     Pb( 1.00)
        S1             6.00    32.06000     S ( 1.00)
        H1             1.00     1.00800     H ( 1.00)

     No symmetry found

   Cartesian axes

     site n.     atom                  positions (alat units)
         1           Pb1 tau(   1) = (   1.7292506   0.9983833  10.0000000  )
         2           Pb1 tau(   2) = (   5.1877519   0.9983833  10.0000000  )
         3           Pb1 tau(   3) = (   3.4585013   3.9935333  10.0000000  )
         4           Pb1 tau(   4) = (   6.9170025   3.9935333  10.0000000  )
         5           Pb1 tau(   5) = (   6.9170025   1.9967666  12.8238544  )
         6           Pb1 tau(   6) = (   3.4585013   1.9967666  12.8238544  )
         7           Pb1 tau(   7) = (   8.6462531   4.9919166  12.8238544  )
         8           Pb1 tau(   8) = (   5.1877519   4.9919166  12.8238544  )
         9           Pb1 tau(   9) = (   0.0000000   0.0000000  15.6477089  )
        10           Pb1 tau(  10) = (   3.4585013   0.0000000  15.6477089  )
        11           Pb1 tau(  11) = (   1.7292506   2.9951499  15.6477089  )
        12           Pb1 tau(  12) = (   5.1877519   2.9951499  15.6477089  )
        13           S1  tau(  13) = (   1.7292506   0.9983833  17.2792089  )
        14           H1  tau(  14) = (   1.7292506   0.9983833  18.5292089  )

     number of k points=    20  Fermi-Dirac smearing, width (Ry)=  0.0110
                       cart. coord. in units 2pi/alat
        k(    1) = (   0.0000000   0.0000000   0.0000000), wk =   0.0555556
        k(    2) = (   0.0000000   0.0278228   0.0000000), wk =   0.1111111
        k(    3) = (   0.0000000   0.0556455   0.0000000), wk =   0.1111111
        k(    4) = (   0.0000000  -0.0834683   0.0000000), wk =   0.0555556
        k(    5) = (   0.0240952  -0.0139114   0.0000000), wk =   0.1111111
        k(    6) = (   0.0240952   0.0139114   0.0000000), wk =   0.1111111
        k(    7) = (   0.0240952   0.0417341   0.0000000), wk =   0.1111111
        k(    8) = (   0.0240952  -0.0973797   0.0000000), wk =   0.1111111
        k(    9) = (   0.0240952  -0.0695569   0.0000000), wk =   0.1111111
        k(   10) = (   0.0240952  -0.0417341   0.0000000), wk =   0.1111111
        k(   11) = (   0.0481904  -0.0278228   0.0000000), wk =   0.1111111
        k(   12) = (   0.0481904   0.0000000   0.0000000), wk =   0.1111111
        k(   13) = (   0.0481904   0.0278228   0.0000000), wk =   0.1111111
        k(   14) = (   0.0481904  -0.1112910   0.0000000), wk =   0.1111111
        k(   15) = (   0.0481904  -0.0834683   0.0000000), wk =   0.1111111
        k(   16) = (   0.0481904  -0.0556455   0.0000000), wk =   0.1111111
        k(   17) = (  -0.0722856   0.0417341   0.0000000), wk =   0.0555556
        k(   18) = (  -0.0722856   0.0695569   0.0000000), wk =   0.1111111
        k(   19) = (  -0.0722856   0.0973797   0.0000000), wk =   0.1111111
        k(   20) = (  -0.0722856  -0.0417341   0.0000000), wk =   0.0555556

     Largest allocated arrays     est. size (Mb)     dimensions
     Largest temporary arrays     est. size (Mb)     dimensions

     Check: negative/imaginary core charge=   -0.000001    0.000000

     Initial potential from superposition of free atoms
     Check: negative starting charge=   -0.197704

     starting charge  174.97174, renormalised to  175.00000

     negative rho (up, down):  1.977E-01 0.000E+00

     *
     * You are using vdW-DF for exchange-correlation in this calculation.
     * Please cite the following three references that made this development
     * possible:
     *
     *   M. Dion, H. Rydberg, E. Schroder, D. C. Langreth, and
     *   B. I. Lundqvist, Phys. Rev. Lett. 92, 246401 (2004).
     *
     *   T. Thonhauser, V. R. Cooper, S. Li, A. Puzder, P. Hyldgaard, and
     *   D. C. Langreth, Phys. Rev. B 76, 125112 (2007).
     *
     *   G. Roman-Perez and J. M. Soler, Phys. Rev. Lett. 103, 096102 (2009).
     *
     *
     * If you are using vdW-DF2, please also cite:
     *
     *   K. Lee, E. D. Murray, L. Kong, B. I. Lundqvist, and
     *   D. C. Langreth, Phys. Rev. B 82, 081101(R) (2010).
     *
     *
     * If you are calculating the stress with vdW-DF, please also cite:
     *
     *   R. Sabatini, E. Kucukbenli, B. Kolb, T. Thonhauser, and
     *   S. de Gironcoli, J. Phys.: Condens. Matter 24, 424209 (2012).
     *

     Carrying out vdW-DF run using the following parameters:

     Nqs =      20    Nr_points =    1024   r_max =   100.000
     q_mesh =
               0.00001000     0.04494208     0.09755937     0.15916263
               0.23128650     0.31572767     0.41458969     0.53033537
               0.66584808     0.82450364     1.01025438     1.22772762
               1.48234092     1.78043706     2.12944203     2.53805004
               3.01644009     3.57652955     4.23227104     5.00000000

     Gradients computed in reciprocal space

     Adding external electric field

     Computed dipole along edir(3) :
        Dipole               -0.0095 Ry au,         -0.0241 Debye
        Dipole field         -0.0000 Ry au

        Potential amp.        0.0016 Ry
        Total length         47.2555 bohr

     Starting wfc are  113 randomized atomic wfcs

     Self-consistent Calculation

     iteration #  1     ecut=    36.75 Ry     beta=0.30
     Davidson diagonalization with overlap
     ethr =  1.00E-02,  avg # of iterations =  2.0

     Threshold (ethr) on eigenvalues was too large:
     Diagonalizing with lowered threshold

     Davidson diagonalization with overlap
     ethr =  1.31E-04,  avg # of iterations =  4.0

[...]

     total energy              =   -2017.71345663 Ry
     Harris-Foulkes estimate   =   -2017.80694239 Ry
     estimated scf accuracy    <       0.25762328 Ry

[...]

     End of self-consistent calculation

          k = 0.0000 0.0000 0.0000 ( 27033 PWs)   bands (ev):

   -16.4208 -16.1105 -16.1105 -16.1077 -16.0594 -16.0594 -15.9978 -15.9822
   -15.9822 -15.9817 -15.9579 -15.9579 -15.9202 -15.9202 -15.9128 -15.9088
   -15.9038 -15.9038 -15.8971 -15.8836 -15.8768 -15.8768 -15.8613 -15.8613
   -15.8487 -15.8440 -15.8440 -15.8321 -15.8162 -15.8162 -15.7888 -15.7888
   -15.7879 -15.7761 -15.7761 -15.7458 -15.7292 -15.7292 -15.6893 -15.6893
   -15.6728 -15.6533 -15.6533 -15.6351 -15.6351 -15.6256 -15.6204 -15.6204
   -15.6191 -15.6030 -15.6030 -15.5957 -15.5767 -15.5767 -15.5719 -15.5647
   -15.5647 -15.5392 -15.5374 -15.5374 -13.5879  -9.9844  -8.9991  -7.6288
    -6.7430  -6.7430  -6.4748  -6.3078  -6.2273  -6.2273  -5.6809  -5.4987
    -5.4987  -4.7651  -2.7921  -2.7921  -2.0740  -1.6559  -1.6559  -1.5573
    -1.1491  -1.1491  -1.0389  -0.4913  -0.4913  -0.0401   1.4164   2.6726
     2.7230   2.7230   3.1045   3.4211   3.4211   3.5887   4.1459   4.1820
     4.1820

[...]

          k =-0.0723 0.0417 0.0000 ( 26962 PWs)   bands (ev):

[...]

     the Fermi energy is     1.6365 ev

!    total energy              =   -2017.75482720 Ry
     Harris-Foulkes estimate   =   -2017.75484960 Ry
     estimated scf accuracy    <       0.00000252 Ry

     The total energy is the sum of the following terms:

     one-electron contribution =   -9694.65864337 Ry
     hartree contribution      =    4921.19361615 Ry
     xc contribution           =    -793.70119692 Ry
     ewald contribution        =    3549.45419909 Ry
     electric field correction =       0.00007199 Ry
     smearing contrib. (-TS)   =      -0.04287415 Ry

     convergence has been achieved in   9 iterations

 BEEF-vdW xc energy contributions
           1 :   -707.177488360508
           2 :    656.608321967722
           3 :   -567.578468094897
           4 :    459.578458809502
           5 :   -352.713506099849
           6 :    261.747490665426
           7 :   -192.915218982238
           8 :    144.265234273602
           9 :   -108.898979841768
          10 :    79.3550153934710
          11 :   -51.1120699805565
          12 :    23.8392229680570
          13 :  -0.271615693765398
          14 :   -16.2724656193238
          15 :    24.2298544407909
          16 :   -24.8104248107677
          17 :    21.3652985480768
          18 :   -17.6668446348094
          19 :    16.1465262775846
          20 :   -17.0310333183186
          21 :    18.7320442247628
          22 :   -19.1401800732373
          23 :    17.0217656268219
          24 :   -12.7453583491171
          25 :    8.00545682812083
          26 :   -4.79550406638680
          27 :    4.27172923553383
          28 :   -6.15388232515397
          29 :    8.95815088056270
          30 :   -10.8781043798438
          31 :   -56.8642959480161
          32 :   -41.6702954363149

     Forces acting on atoms (Ry/au):

     negative rho (up, down):  2.149E-01 0.000E+00
     atom    1 type  1   force =     0.00000329   -0.00003870   -0.01143806
     atom    2 type  1   force =    -0.00000845   -0.00285972   -0.00564064
     atom    3 type  1   force =    -0.00245739    0.00143324   -0.00559588
     atom    4 type  1   force =     0.00247336    0.00145888   -0.00564261
     atom    5 type  1   force =     0.00068552   -0.00040620   -0.00322431
     atom    6 type  1   force =    -0.00071689   -0.00039935   -0.00320484
     atom    7 type  1   force =    -0.00001189    0.00000521   -0.02323405
     atom    8 type  1   force =    -0.00000707    0.00078186   -0.00324220
     atom    9 type  1   force =    -0.05130669   -0.02962401   -0.03118977
     atom   10 type  1   force =     0.05132806   -0.02963965   -0.03119313
     atom   11 type  1   force =     0.00001684    0.05927290   -0.03119315
     atom   12 type  1   force =    -0.00000900    0.00000477    0.00559119
     atom   13 type  2   force =     0.00000508    0.00000558    0.00853260
     atom   14 type  3   force =     0.00000522    0.00000520    0.14067485

     Total force =     0.182616     Total SCF correction =     0.003413

     entering subroutine stress ...

     negative rho (up, down):  2.149E-01 0.000E+00
          total   stress  (Ry/bohr**3)                   (kbar)     P=   22.56
   0.00014112   0.00000000  -0.00000000         20.76      0.00     -0.00
   0.00000000   0.00014112  -0.00000000          0.00     20.76     -0.00
  -0.00000000  -0.00000000   0.00017786         -0.00     -0.00     26.16

     BFGS Geometry Optimization

     number of scf cycles    =   1
     number of bfgs steps    =   0

     energy   new            =   -2017.7548271998 Ry

     new trust radius        =       0.1406748467 bohr
     new conv_thr            =       0.0000099958 Ry

ATOMIC_POSITIONS (crystal)
Pb1      0.166666667   0.166666667   0.389898374    0   0   0
Pb1      0.666666667   0.166666667   0.389898374    0   0   0
Pb1      0.166666667   0.666666667   0.389898374    0   0   0
Pb1      0.666666667   0.666666667   0.389898374    0   0   0
Pb1      0.833333333   0.333333333   0.500000000    0   0   0
Pb1      0.333333333   0.333333333   0.500000000    0   0   0
Pb1      0.833333333   0.833333333   0.500000000    0   0   0
Pb1      0.333333333   0.833333333   0.500000000    0   0   0
Pb1     -0.002616680  -0.002616956   0.609458102
Pb1      0.505235962  -0.002618338   0.609458032
Pb1     -0.002616766   0.505236109   0.609458032
Pb1      0.499999101   0.500000421   0.610216986
S1       0.166666808   0.166667160   0.673889595
H1       0.166666837   0.166667126   0.725353321

     Writing output data file calc.save
     Check: negative starting charge=   -0.197704
     NEW-OLD atomic charge density approx. for the potential

     Check: negative/imaginary core charge=   -0.000001    0.000000
     Check: negative starting charge=   -0.197338

[...]

     energy   old            =   -2017.7548271998 Ry
     energy   new            =   -2017.7798748820 Ry

     CASE: energy  _new < energy  _old

[...]

     iteration #  1     ecut=    36.75 Ry     beta=0.30
     Davidson diagonalization with overlap
     c_bands:  1 eigenvalues not converged
     c_bands:  1 eigenvalues not converged
     ethr =  1.00E-06,  avg # of iterations = 13.6

[...]

     Total force =     0.023411     Total SCF correction =     0.002493
     SCF correction compared to forces is large: reduce conv_thr to get better values

[...]

     WARNING: bfgs curvature condition failed, Theta= 0.715
     new trust radius        =       0.0357238294 bohr
     new conv_thr            =       0.0000001000 Ry

[...]

     CASE: energy  _new > energy  _old

[...]

     WARNING: info= 39 for Hessian
     new trust radius        =       0.0172843716 bohr
     new conv_thr            =       0.0000001000 Ry

[...]

     WARNING: info= 39 for Hessian

[...]

     WARNING: info= 36 for Hessian
     new trust radius        =       0.0285192131 bohr
     new conv_thr            =       0.0000001000 Ry

[...]

     WARNING: info= 36 for Hessian
     uphill step: resetting bfgs history

[...]

     WARNING: bfgs curvature condition failed, Theta= 0.945
     new trust radius        =       0.0219174725 bohr
     new conv_thr            =       0.0000001000 Ry

[...]

     CASE: energy  _new > energy  _old

[...]

     Total force =     0.005647     Total SCF correction =     0.000538

[...]

     number of scf cycles    =  46
     number of bfgs steps    =  40

     energy   old            =   -2017.8620872659 Ry
     energy   new            =   -2017.8621056447 Ry

     CASE: energy  _new < energy  _old

     new trust radius        =       0.0091867308 bohr
     new conv_thr            =       0.0000001000 Ry

ATOMIC_POSITIONS (crystal)
Pb1      0.166666667   0.166666667   0.389898374    0   0   0
Pb1      0.666666667   0.166666667   0.389898374    0   0   0
Pb1      0.166666667   0.666666667   0.389898374    0   0   0
Pb1      0.666666667   0.666666667   0.389898374    0   0   0
Pb1      0.833333333   0.333333333   0.500000000    0   0   0
Pb1      0.333333333   0.333333333   0.500000000    0   0   0
Pb1      0.833333333   0.833333333   0.500000000    0   0   0
Pb1      0.333333333   0.833333333   0.500000000    0   0   0
Pb1     -0.003051658  -0.003053262   0.623918687
Pb1      0.506108779  -0.003055900   0.623917883
Pb1     -0.003054963   0.506108512   0.623917105
Pb1      0.500000620   0.500000302   0.614123202
S1       0.166665671   0.166667379   0.710632835
H1       0.166669683   0.166669119   0.763465983

     Writing output data file calc.save
     Check: negative starting charge=   -0.196483
     NEW-OLD atomic charge density approx. for the potential

     Check: negative/imaginary core charge=   -0.000001    0.000000
     Check: negative starting charge=   -0.196551

[...]

     Self-consistent Calculation

[...]

     Threshold (ethr) on eigenvalues was too large:
     Diagonalizing with lowered threshold

     Davidson diagonalization with overlap
     ethr =  2.50E-08,  avg # of iterations =  4.0

[...]

     total energy              =   -2017.86211705 Ry
     Harris-Foulkes estimate   =   -2017.86211722 Ry
     estimated scf accuracy    <       0.00000046 Ry

     iteration #  6     ecut=    36.75 Ry     beta=0.30
     Davidson diagonalization with overlap
     ethr =  2.63E-10,  avg # of iterations =  3.1

[...]

     negative rho (up, down):  2.129E-01 0.000E+00

     Adding external electric field

     Computed dipole along edir(3) :
        Dipole               -0.2065 Ry au,         -0.5248 Debye
        Dipole field         -0.0004 Ry au

        Potential amp.        0.0342 Ry
        Total length         47.2555 bohr

     End of self-consistent calculation

[...]

          k = 0.0482-0.0556 0.0000 ( 26956 PWs)   bands (ev):

[...]

          k =-0.0723-0.0417 0.0000 ( 26962 PWs)   bands (ev):

   -16.3825 -16.3398 -16.3250 -16.3218 -16.3089 -16.2954 -16.2760 -16.2742
   -16.2733 -16.2651 -16.2631 -16.2602 -16.2556 -16.2514 -16.2469 -16.2422
   -16.2392 -16.2376 -16.2374 -16.2309 -16.2259 -16.2197 -16.2147 -16.2058
   -16.2035 -16.1990 -16.1973 -16.1908 -16.1743 -16.1685 -16.1602 -16.1558
   -16.1552 -16.1422 -16.1341 -16.1260 -16.1122 -16.1109 -16.1107 -16.0966
   -16.0955 -16.0929 -16.0895 -16.0749 -16.0594 -16.0588 -16.0527 -16.0511
   -16.0497 -16.0440 -16.0435 -16.0419 -16.0392 -16.0206 -16.0117 -16.0004
   -15.9929 -15.9837 -15.9481 -15.9390 -11.9141  -9.0982  -9.0418  -8.2083
    -8.1070  -7.1355  -7.1081  -7.0456  -6.9923  -6.4706  -6.4385  -5.7464
    -5.7009  -4.1405  -1.5170  -1.1154  -0.7899  -0.7137  -0.6625  -0.5821
    -0.4601  -0.3955   0.0089   0.2577   0.7705   0.8459   1.1509   1.2347
     1.8636   1.9161   2.1412   2.2057   2.2398   2.3086   2.4850   2.5882
     2.6246

     the Fermi energy is     1.2410 ev

!    total energy              =   -2017.86211688 Ry
     Harris-Foulkes estimate   =   -2017.86211749 Ry
     estimated scf accuracy    <       0.00000008 Ry

     The total energy is the sum of the following terms:

     one-electron contribution =   -9120.69988077 Ry
     hartree contribution      =    4632.54466434 Ry
     xc contribution           =    -793.21502789 Ry
     ewald contribution        =    3263.55212644 Ry
     electric field correction =       0.00007469 Ry
     smearing contrib. (-TS)   =      -0.04407370 Ry

     convergence has been achieved in   6 iterations

 BEEF-vdW xc energy contributions
           1 :   -706.668594786828
           2 :    655.846068227373
           3 :   -566.538659014969
           4 :    458.501922735747
           5 :   -351.956975613740
           6 :    261.561242850035
           7 :   -193.279562017793
           8 :    144.885898118844
           9 :   -109.364555485980
          10 :    79.3659885160004
          11 :   -50.6469366451472
          12 :    23.1588526754371
          13 :   0.240780634935163
          14 :   -16.3401620711838
          15 :    23.8437064947007
          16 :   -24.2279333990364
          17 :    20.9515455321034
          18 :   -17.6748283651436
          19 :    16.5679671787267
          20 :   -17.6046847112752
          21 :    19.1025041075355
          22 :   -19.0710399958327
          23 :    16.5360588528318
          24 :   -12.1113266639579
          25 :    7.57806611156070
          26 :   -4.80881668836378
          27 :    4.70432334569648
          28 :   -6.74484232323948
          29 :    9.36223961429255
          30 :   -10.8672611995112
          31 :   -56.8226109854838
          32 :   -41.5673169843644

     Forces acting on atoms (Ry/au):

     negative rho (up, down):  2.129E-01 0.000E+00
     atom    1 type  1   force =     0.00000005    0.00000009   -0.00835968
     atom    2 type  1   force =     0.00000003    0.00047181   -0.00509267
     atom    3 type  1   force =     0.00040860   -0.00023600   -0.00509283
     atom    4 type  1   force =    -0.00040868   -0.00023598   -0.00509295
     atom    5 type  1   force =     0.00126766   -0.00073216    0.00723234
     atom    6 type  1   force =    -0.00126781   -0.00073204    0.00723252
     atom    7 type  1   force =     0.00000019    0.00000028    0.00371192
     atom    8 type  1   force =    -0.00000027    0.00146388    0.00723285
     atom    9 type  1   force =     0.00018693    0.00010826   -0.00042895
     atom   10 type  1   force =    -0.00018866    0.00011095   -0.00042680
     atom   11 type  1   force =     0.00000146   -0.00021893   -0.00042725
     atom   12 type  1   force =    -0.00000061   -0.00000052   -0.00141869
     atom   13 type  2   force =     0.00000171    0.00000103   -0.00056278
     atom   14 type  3   force =    -0.00000060   -0.00000070    0.00149296

     Total force =     0.002291     Total SCF correction =     0.000729
     SCF correction compared to forces is large: reduce conv_thr to get better values

     entering subroutine stress ...

     negative rho (up, down):  2.129E-01 0.000E+00
          total   stress  (Ry/bohr**3)                   (kbar)     P=    7.28
   0.00006530   0.00000000   0.00000000          9.61      0.00      0.00
   0.00000000   0.00006530   0.00000000          0.00      9.61      0.00
   0.00000000   0.00000000   0.00001779          0.00      0.00      2.62

     bfgs converged in  47 scf cycles and  41 bfgs steps
     (criteria: energy <  1.0E+00, force <  1.9E-03)

     End of BFGS Geometry Optimization

     Final energy   =   -2017.8621168818 Ry
Begin final coordinates

ATOMIC_POSITIONS (crystal)
Pb1      0.166666667   0.166666667   0.389898374    0   0   0
Pb1      0.666666667   0.166666667   0.389898374    0   0   0
Pb1      0.166666667   0.666666667   0.389898374    0   0   0
Pb1      0.666666667   0.666666667   0.389898374    0   0   0
Pb1      0.833333333   0.333333333   0.500000000    0   0   0
Pb1      0.333333333   0.333333333   0.500000000    0   0   0
Pb1      0.833333333   0.833333333   0.500000000    0   0   0
Pb1      0.333333333   0.833333333   0.500000000    0   0   0
Pb1     -0.003051658  -0.003053262   0.623918687
Pb1      0.506108779  -0.003055900   0.623917883
Pb1     -0.003054963   0.506108512   0.623917105
Pb1      0.500000620   0.500000302   0.614123202
S1       0.166665671   0.166667379   0.710632835
H1       0.166669683   0.166669119   0.763465983
End final coordinates

     Writing output data file calc.save

     General routines

     Parallel routines

   This run was terminated on:  23: 6: 2  21Apr2018

   JOB DONE.
Job  /afs/slac/g/suncat/bin/suncat-tsmpirun -x LD_LIBRARY_PATH -wdir /scratch/qe318042_KA2vI pw.x -npool 4 -in pw.inp

TID   HOST_NAME   COMMAND_LINE            STATUS            TERMINATION_TIME
00000 suncat0080 pw.x -npool 4 -i  Done                     04/21/2018 23:06:02
00001 suncat0080 pw.x -npool 4 -i  Done                     04/21/2018 23:06:02
00002 suncat0080 pw.x -npool 4 -i  Done                     04/21/2018 23:06:02
00003 suncat0080 pw.x -npool 4 -i  Done                     04/21/2018 23:06:02
00004 suncat0080 pw.x -npool 4 -i  Done                     04/21/2018 23:06:02
00005 suncat0080 pw.x -npool 4 -i  Done                     04/21/2018 23:06:02
00006 suncat0080 pw.x -npool 4 -i  Done                     04/21/2018 23:06:02
00007 suncat0080 pw.x -npool 4 -i  Done                     04/21/2018 23:06:02
00008 suncat0021 pw.x -npool 4 -i  Done                     04/21/2018 23:06:02
00009 suncat0021 pw.x -npool 4 -i  Done                     04/21/2018 23:06:02
00010 suncat0021 pw.x -npool 4 -i  Done                     04/21/2018 23:06:02
00011 suncat0021 pw.x -npool 4 -i  Done                     04/21/2018 23:06:02
00012 suncat0021 pw.x -npool 4 -i  Done                     04/21/2018 23:06:02
00013 suncat0021 pw.x -npool 4 -i  Done                     04/21/2018 23:06:02
00014 suncat0021 pw.x -npool 4 -i  Done                     04/21/2018 23:06:02
00015 suncat0021 pw.x -npool 4 -i  Done                     04/21/2018 23:06:02
00016 suncat0180 pw.x -npool 4 -i  Done                     04/21/2018 23:06:02
00017 suncat0180 pw.x -npool 4 -i  Done                     04/21/2018 23:06:02
00018 suncat0180 pw.x -npool 4 -i  Done                     04/21/2018 23:06:02
00019 suncat0180 pw.x -npool 4 -i  Done                     04/21/2018 23:06:02
00020 suncat0180 pw.x -npool 4 -i  Done                     04/21/2018 23:06:02
00021 suncat0180 pw.x -npool 4 -i  Done                     04/21/2018 23:06:02
00022 suncat0180 pw.x -npool 4 -i  Done                     04/21/2018 23:06:02
00023 suncat0180 pw.x -npool 4 -i  Done                     04/21/2018 23:06:02
00024 suncat0171 pw.x -npool 4 -i  Done                     04/21/2018 23:06:02
00025 suncat0171 pw.x -npool 4 -i  Done                     04/21/2018 23:06:02
00026 suncat0171 pw.x -npool 4 -i  Done                     04/21/2018 23:06:02
00027 suncat0171 pw.x -npool 4 -i  Done                     04/21/2018 23:06:02
00028 suncat0171 pw.x -npool 4 -i  Done                     04/21/2018 23:06:02
00029 suncat0171 pw.x -npool 4 -i  Done                     04/21/2018 23:06:02
00030 suncat0171 pw.x -npool 4 -i  Done                     04/21/2018 23:06:02
00031 suncat0171 pw.x -npool 4 -i  Done                     04/21/2018 23:06:02