     Program PWSCF v.5.1rc2 (svn rev. 11289) starts on 11Jan2019 at 21:39:38

     Current dimensions of program PWSCF are:
     Max number of different atomic species (ntypx) = 10
     Max number of k-points (npk) =  40000
     Max angular momentum in pseudopotentials (lmaxx) =  3

     IMPORTANT: XC functional enforced from input :
     Exchange-correlation      = BEEF-VDW ( 1  4 27 13 2)
     Any further DFT definition will be discarded
     Please, verify this is what you really want

     Subspace diagonalization in iterative solution of the eigenvalue problem:
     a serial algorithm will be used

     bravais-lattice index     =            0
     lattice parameter (alat)  =      12.6383  a.u.
     unit-cell volume          =    6655.4372 (a.u.)^3
     number of atoms/cell      =           13
     number of atomic types    =            2
     number of electrons       =       157.00
     number of Kohn-Sham states=           88
     kinetic-energy cutoff     =      36.7493  Ry
     charge density cutoff     =     367.4933  Ry
     convergence threshold     =      1.0E-04
     mixing beta               =       0.2000
     number of iterations used =            8  plain     mixing
     Exchange-correlation      = BEEF-VDW ( 1  4 27 13 2)
     nstep                     =           50

     celldm(1)=  12.638304  celldm(2)=   0.000000  celldm(3)=   0.000000
     celldm(4)=   0.000000  celldm(5)=   0.000000  celldm(6)=   0.000000

     crystal axes: (cart. coord. in units of alat)
               a(1) = (   1.000000   0.000000   0.000000 )
               a(2) = (   0.500000   0.866025   0.000000 )
               a(3) = (   0.000000   0.000000   3.806971 )

     reciprocal axes: (cart. coord. in units 2 pi/alat)
               b(1) = (  1.000000 -0.577350  0.000000 )
               b(2) = (  0.000000  1.154701  0.000000 )
               b(3) = (  0.000000  0.000000  0.262676 )

     PseudoPot. # 1 for Tl read from file:
     /u/if/jboes/code/decaf-espresso/gbrv15pbe/Tl.UPF
     MD5 check sum: b76cf1f7e72655a2b2c53cf6385d7059
     Pseudo is Ultrasoft + core correction, Zval = 13.0
     Generated by new atomic code, or converted to UPF format
     Using radial grid of  899 points,  6 beta functions with:
                l(1) =   0
                l(2) =   0
                l(3) =   1
                l(4) =   1
                l(5) =   2
                l(6) =   2
     Q(r) pseudized with  6 coefficients,  rinner =    1.100   1.100   1.100
                                                       1.100   1.100

     PseudoPot. # 2 for H  read from file:
     /u/if/jboes/code/decaf-espresso/gbrv15pbe/H.UPF
     MD5 check sum: 761ae9a214b05c3daf00ab9f6b793d6f
     Pseudo is Ultrasoft, Zval =  1.0
     Generated by new atomic code, or converted to UPF format
     Using radial grid of  615 points,  2 beta functions with:
                l(1) =   0
                l(2) =   0
     Q(r) pseudized with  8 coefficients,  rinner =    0.700

     vdW kernel table read from file vdW_kernel_table
     MD5 check sum: 095c7af220d748ca6e76c0b4c6cfb241

     atomic species   valence    mass     pseudopotential
        Tl            13.00   204.38000     Tl( 1.00)
        H              1.00     1.00800     H ( 1.00)

     No symmetry found

   Cartesian axes

     site n.     atom                  positions (alat units)
         1           Tl  tau(   1) = (   0.2500000   0.1443376   1.4952371  )
         2           Tl  tau(   2) = (   0.7500000   0.1443376   1.4952371  )
         3           Tl  tau(   3) = (   0.5000000   0.5773503   1.4952371  )
         4           Tl  tau(   4) = (   1.0000000   0.5773503   1.4952371  )
         5           Tl  tau(   5) = (   1.0000000   0.2886751   1.9034854  )
         6           Tl  tau(   6) = (   0.5000000   0.2886751   1.9034854  )
         7           Tl  tau(   7) = (   1.2500000   0.7216878   1.9034854  )
         8           Tl  tau(   8) = (   0.7500000   0.7216878   1.9034854  )
         9           Tl  tau(   9) = (  -0.0066327  -0.0114778   2.4842616  )
        10           Tl  tau(  10) = (   0.5066612  -0.0114987   2.4842961  )
        11           Tl  tau(  11) = (   0.2500004   0.4196860   2.3619291  )
        12           Tl  tau(  12) = (   0.7499984   0.4328556   2.3446889  )
        13           H   tau(  13) = (   0.2499938   0.1187452   2.6358367  )

     number of k points=    20  Fermi-Dirac smearing, width (Ry)=  0.0110
                       cart. coord. in units 2pi/alat
        k(    1) = (   0.0000000   0.0000000   0.0000000), wk =   0.0555556
        k(    2) = (   0.0000000   0.1924501   0.0000000), wk =   0.1111111
        k(    3) = (   0.0000000   0.3849002   0.0000000), wk =   0.1111111
        k(    4) = (   0.0000000  -0.5773503   0.0000000), wk =   0.0555556
        k(    5) = (   0.1666667  -0.0962250   0.0000000), wk =   0.1111111
        k(    6) = (   0.1666667   0.0962250   0.0000000), wk =   0.1111111
        k(    7) = (   0.1666667   0.2886751   0.0000000), wk =   0.1111111
        k(    8) = (   0.1666667  -0.6735753   0.0000000), wk =   0.1111111
        k(    9) = (   0.1666667  -0.4811252   0.0000000), wk =   0.1111111
        k(   10) = (   0.1666667  -0.2886751   0.0000000), wk =   0.1111111
        k(   11) = (   0.3333333  -0.1924501   0.0000000), wk =   0.1111111
        k(   12) = (   0.3333333  -0.0000000   0.0000000), wk =   0.1111111
        k(   13) = (   0.3333333   0.1924501   0.0000000), wk =   0.1111111
        k(   14) = (   0.3333333  -0.7698004   0.0000000), wk =   0.1111111
        k(   15) = (   0.3333333  -0.5773503   0.0000000), wk =   0.1111111
        k(   16) = (   0.3333333  -0.3849002   0.0000000), wk =   0.1111111
        k(   17) = (  -0.5000000   0.2886751   0.0000000), wk =   0.0555556
        k(   18) = (  -0.5000000   0.4811252   0.0000000), wk =   0.1111111
        k(   19) = (  -0.5000000   0.6735753   0.0000000), wk =   0.1111111
        k(   20) = (  -0.5000000  -0.2886751   0.0000000), wk =   0.0555556

     Largest allocated arrays     est. size (Mb)     dimensions
     Largest temporary arrays     est. size (Mb)     dimensions

     Check: negative/imaginary core charge=   -0.000001    0.000000

     Initial potential from superposition of free atoms
     Check: negative starting charge=   -0.603453

     starting charge  156.94160, renormalised to  157.00000

     negative rho (up, down):  6.037E-01 0.000E+00

     *
     * You are using vdW-DF for exchange-correlation in this calculation.
     * Please cite the following three references that made this development
     * possible:
     *
     *   M. Dion, H. Rydberg, E. Schroder, D. C. Langreth, and
     *   B. I. Lundqvist, Phys. Rev. Lett. 92, 246401 (2004).
     *
     *   T. Thonhauser, V. R. Cooper, S. Li, A. Puzder, P. Hyldgaard, and
     *   D. C. Langreth, Phys. Rev. B 76, 125112 (2007).
     *
     *   G. Roman-Perez and J. M. Soler, Phys. Rev. Lett. 103, 096102 (2009).
     *
     *
     * If you are using vdW-DF2, please also cite:
     *
     *   K. Lee, E. D. Murray, L. Kong, B. I. Lundqvist, and
     *   D. C. Langreth, Phys. Rev. B 82, 081101(R) (2010).
     *
     *
     * If you are calculating the stress with vdW-DF, please also cite:
     *
     *   R. Sabatini, E. Kucukbenli, B. Kolb, T. Thonhauser, and
     *   S. de Gironcoli, J. Phys.: Condens. Matter 24, 424209 (2012).
     *

     Carrying out vdW-DF run using the following parameters:

     Nqs =      20    Nr_points =    1024   r_max =   100.000
     q_mesh =
               0.00001000     0.04494208     0.09755937     0.15916263
               0.23128650     0.31572767     0.41458969     0.53033537
               0.66584808     0.82450364     1.01025438     1.22772762
               1.48234092     1.78043706     2.12944203     2.53805004
               3.01644009     3.57652955     4.23227104     5.00000000

     Gradients computed in reciprocal space

     Adding external electric field

     Computed dipole along edir(3) :
        Dipole               -0.0032 Ry au,         -0.0081 Debye
        Dipole field         -0.0000 Ry au

        Potential amp.        0.0005 Ry
        Total length         43.3023 bohr

     Starting wfc are  109 randomized atomic wfcs

     Self-consistent Calculation

     iteration #  1     ecut=    36.75 Ry     beta=0.20
     Davidson diagonalization with overlap
     ethr =  1.00E-02,  avg # of iterations =  2.0

     Threshold (ethr) on eigenvalues was too large:
     Diagonalizing with lowered threshold

     Davidson diagonalization with overlap
     ethr =  1.24E-04,  avg # of iterations =  4.0

[...]

     total energy              =   -1762.68338786 Ry
     Harris-Foulkes estimate   =   -1762.74074999 Ry
     estimated scf accuracy    <       0.23056859 Ry

[...]

     End of self-consistent calculation

          k = 0.0000 0.0000 0.0000 ( 24957 PWs)   bands (ev):

   -11.1863 -11.1848 -11.1841 -11.0749 -11.0631 -11.0505 -11.0419 -11.0401
   -11.0315 -11.0275 -11.0213 -10.9561 -10.9502 -10.9204 -10.8936 -10.8678
   -10.8662 -10.8459 -10.8406 -10.8401 -10.8081 -10.8054 -10.7938 -10.7908
   -10.7558 -10.7449 -10.7330 -10.7164 -10.7142 -10.7029 -10.6327 -10.6276
   -10.6135 -10.5867 -10.5594 -10.5564 -10.5478 -10.5429 -10.5318 -10.4970
   -10.4427 -10.4331 -10.4326 -10.4084 -10.4050 -10.3976 -10.3801 -10.3790
   -10.3630 -10.3411 -10.3398 -10.3337 -10.3019 -10.3006 -10.2819 -10.2792
   -10.2690 -10.2310 -10.2270 -10.2251  -8.6280  -7.3299  -5.9946  -4.1272
    -4.0057  -4.0055  -3.9676  -3.6323  -3.3333  -3.1050  -3.0862  -2.8987
    -1.8191  -1.0419  -0.9549  -0.8111  -0.6266  -0.0070  -0.0004   0.0765
     0.1104   0.1268   1.0976   2.7131   3.3149   3.6842   3.7564   3.8737

[...]

          k =-0.5000 0.2887 0.0000 ( 25090 PWs)   bands (ev):

[...]

     the Fermi energy is     1.1953 ev

!    total energy              =   -1762.69014603 Ry
     Harris-Foulkes estimate   =   -1762.69015496 Ry
     estimated scf accuracy    <       0.00007186 Ry

     The total energy is the sum of the following terms:

     one-electron contribution =   -7811.65716029 Ry
     hartree contribution      =    3988.79697807 Ry
     xc contribution           =    -768.93744207 Ry
     ewald contribution        =    2829.14786899 Ry
     electric field correction =       0.00004018 Ry
     smearing contrib. (-TS)   =      -0.04043090 Ry

     convergence has been achieved in   9 iterations

     Forces acting on atoms (Ry/au):

     negative rho (up, down):  6.287E-01 0.000E+00
     atom    1 type  1   force =    -0.00000315    0.00108387   -0.02104502
     atom    2 type  1   force =    -0.00001468    0.00042652   -0.02120633
     atom    3 type  1   force =    -0.00080736    0.00019426   -0.02254584
     atom    4 type  1   force =     0.00080764    0.00017836   -0.02252169
     atom    5 type  1   force =    -0.00029125   -0.00221806    0.02318126
     atom    6 type  1   force =     0.00028117   -0.00222029    0.02316257
     atom    7 type  1   force =    -0.00000728    0.00258337    0.02574685
     atom    8 type  1   force =     0.00000352    0.00350655    0.02792731
     atom    9 type  1   force =    -0.00740804   -0.00311157   -0.00325349
     atom   10 type  1   force =     0.00744966   -0.00312135   -0.00324994
     atom   11 type  1   force =    -0.00001340    0.00100209   -0.00980683
     atom   12 type  1   force =     0.00000117    0.00120717   -0.00301554
     atom   13 type  2   force =     0.00000199    0.00048910    0.00662670

     Total force =     0.017402     Total SCF correction =     0.039803
     SCF correction compared to forces is large: reduce conv_thr to get better values

     BFGS Geometry Optimization

     number of scf cycles    =   1
     number of bfgs steps    =   0

     energy   new            =   -1762.6901460283 Ry

     new trust radius        =       0.0098579042 bohr
     new conv_thr            =       0.0001000000 Ry

ATOMIC_POSITIONS (angstrom)
Tl       1.671975640   0.965315586  10.000000000    0   0   0
Tl       5.015926920   0.965315586  10.000000000    0   0   0
Tl       3.343951280   3.861262344  10.000000000    0   0   0
Tl       6.687902560   3.861262344  10.000000000    0   0   0
Tl       6.687902560   1.930631172  12.730324787    0   0   0
Tl       3.343951280   1.930631172  12.730324787    0   0   0
Tl       8.359878201   4.826577929  12.730324787    0   0   0
Tl       5.015926920   4.826577929  12.730324787    0   0   0
Tl      -0.048279236  -0.078408652  16.612777642
Tl       3.392442619  -0.078554101  16.613010775
Tl       1.671971229   2.807349258  15.791162289
Tl       5.015916693   2.895534577  15.679454938
H        1.671935243   0.794415045  17.631725514

     Writing output data file calc.save
     Check: negative starting charge=   -0.603453
     NEW-OLD atomic charge density approx. for the potential

     Check: negative/imaginary core charge=   -0.000001    0.000000
     Check: negative starting charge=   -0.603257

[...]

     energy   old            =   -1762.6901460283 Ry
     energy   new            =   -1762.6901128705 Ry

     CASE: energy  _new > energy  _old

[...]

     CASE: energy  _new < energy  _old

[...]

     WARNING: bfgs curvature condition failed, Theta= 0.722
     new trust radius        =       0.0052324186 bohr
     new conv_thr            =       0.0000010000 Ry

[...]

     WARNING: info= 36 for Hessian
     new trust radius        =       0.0078486280 bohr
     new conv_thr            =       0.0000010000 Ry

[...]

     WARNING: info= 36 for Hessian

     WARNING: bfgs curvature condition failed, Theta= 0.061
     uphill step: resetting bfgs history

[...]

     WARNING: bfgs curvature condition failed, Theta= 0.241
     new trust radius        =       0.0556942233 bohr
     new conv_thr            =       0.0000010000 Ry

[...]

     number of scf cycles    =  17
     number of bfgs steps    =  15

     energy   old            =   -1762.6907296337 Ry
     energy   new            =   -1762.6907565216 Ry

     CASE: energy  _new < energy  _old

     new trust radius        =       0.0066432795 bohr
     new conv_thr            =       0.0000010000 Ry

ATOMIC_POSITIONS (angstrom)
Tl       1.671975640   0.965315586  10.000000000    0   0   0
Tl       5.015926920   0.965315586  10.000000000    0   0   0
Tl       3.343951280   3.861262344  10.000000000    0   0   0
Tl       6.687902560   3.861262344  10.000000000    0   0   0
Tl       6.687902560   1.930631172  12.730324787    0   0   0
Tl       3.343951280   1.930631172  12.730324787    0   0   0
Tl       8.359878201   4.826577929  12.730324787    0   0   0
Tl       5.015926920   4.826577929  12.730324787    0   0   0
Tl      -0.044262972  -0.057999703  16.620382508
Tl       3.388219352  -0.057994144  16.620932412
Tl       1.672006520   2.784591179  15.646948262
Tl       5.015934513   2.921644002  15.670811090
H        1.672106817   0.773984173  17.626724800

     Writing output data file calc.save
     Check: negative starting charge=   -0.602857
     NEW-OLD atomic charge density approx. for the potential

     Check: negative/imaginary core charge=   -0.000001    0.000000
     Check: negative starting charge=   -0.602655

[...]

     Self-consistent Calculation

[...]

     Threshold (ethr) on eigenvalues was too large:
     Diagonalizing with lowered threshold

     Davidson diagonalization with overlap
     ethr =  7.59E-08,  avg # of iterations =  1.2

[...]

     total energy              =   -1762.69065937 Ry
     Harris-Foulkes estimate   =   -1762.69089125 Ry
     estimated scf accuracy    <       0.00382880 Ry

     iteration #  3     ecut=    36.75 Ry     beta=0.20
     Davidson diagonalization with overlap
     ethr =  7.76E-08,  avg # of iterations =  4.9

     negative rho (up, down):  6.281E-01 0.000E+00

     Adding external electric field

     Computed dipole along edir(3) :
        Dipole               -0.0563 Ry au,         -0.1432 Debye
        Dipole field         -0.0001 Ry au

        Potential amp.        0.0092 Ry
        Total length         43.3023 bohr

     End of self-consistent calculation

[...]

          k = 0.3333-0.3849 0.0000 ( 25036 PWs)   bands (ev):

[...]

          k =-0.5000-0.2887 0.0000 ( 25090 PWs)   bands (ev):

   -11.0740 -11.0627 -10.9750 -10.9709 -10.9680 -10.9577 -10.9452 -10.9410
   -10.9037 -10.9020 -10.8569 -10.8453 -10.8425 -10.8358 -10.8275 -10.8144
   -10.8061 -10.7913 -10.7854 -10.7828 -10.7720 -10.7662 -10.7521 -10.7414
   -10.7213 -10.7148 -10.6947 -10.6881 -10.6804 -10.6741 -10.6502 -10.6412
   -10.6362 -10.6293 -10.6241 -10.6119 -10.5931 -10.5839 -10.5804 -10.5706
   -10.5676 -10.5519 -10.5397 -10.5354 -10.5121 -10.5102 -10.5060 -10.5015
   -10.4950 -10.4893 -10.4848 -10.4681 -10.4631 -10.4582 -10.3982 -10.3945
   -10.3849 -10.3784 -10.2949 -10.2929  -7.3670  -7.3434  -6.2951  -6.0142
    -5.0936  -4.9043  -4.7885  -4.7836  -4.0271  -3.9329  -2.9479  -2.9053
    -0.4456   0.3677   0.7564   0.9255   0.9593   1.3952   1.4624   1.8028
     1.9597   2.3525   2.4494   2.6053   3.3562   3.4877   3.4952   3.7376

     the Fermi energy is     1.1842 ev

!    total energy              =   -1762.69076926 Ry
     Harris-Foulkes estimate   =   -1762.69077064 Ry
     estimated scf accuracy    <       0.00000033 Ry

     The total energy is the sum of the following terms:

     one-electron contribution =   -7849.57591641 Ry
     hartree contribution      =    4007.91324260 Ry
     xc contribution           =    -768.95215646 Ry
     ewald contribution        =    2847.96414298 Ry
     electric field correction =       0.00000599 Ry
     smearing contrib. (-TS)   =      -0.04008796 Ry

     convergence has been achieved in   3 iterations

     Forces acting on atoms (Ry/au):

     negative rho (up, down):  6.281E-01 0.000E+00
     atom    1 type  1   force =     0.00000057    0.00063738   -0.02207364
     atom    2 type  1   force =     0.00000005    0.00007966   -0.02205125
     atom    3 type  1   force =    -0.00085224   -0.00023541   -0.02390463
     atom    4 type  1   force =     0.00085154   -0.00023521   -0.02390517
     atom    5 type  1   force =    -0.00200879   -0.00328742    0.01960339
     atom    6 type  1   force =     0.00200692   -0.00328792    0.01960375
     atom    7 type  1   force =     0.00000100    0.00311550    0.02445010
     atom    8 type  1   force =    -0.00000081    0.00292278    0.02625898
     atom    9 type  1   force =    -0.00084767   -0.00046934   -0.00055597
     atom   10 type  1   force =     0.00086277   -0.00047355   -0.00056945
     atom   11 type  1   force =    -0.00000482    0.00155216    0.00133112
     atom   12 type  1   force =     0.00000151   -0.00024455    0.00038689
     atom   13 type  2   force =    -0.00001002   -0.00007407    0.00142589

     Total force =     0.002995     Total SCF correction =     0.002584
     SCF correction compared to forces is large: reduce conv_thr to get better values

     bfgs converged in  18 scf cycles and  16 bfgs steps
     (criteria: energy <  1.0E+12, force <  1.9E-03)

     End of BFGS Geometry Optimization

     Final energy   =   -1762.6907692558 Ry
Begin final coordinates

ATOMIC_POSITIONS (angstrom)
Tl       1.671975640   0.965315586  10.000000000    0   0   0
Tl       5.015926920   0.965315586  10.000000000    0   0   0
Tl       3.343951280   3.861262344  10.000000000    0   0   0
Tl       6.687902560   3.861262344  10.000000000    0   0   0
Tl       6.687902560   1.930631172  12.730324787    0   0   0
Tl       3.343951280   1.930631172  12.730324787    0   0   0
Tl       8.359878201   4.826577929  12.730324787    0   0   0
Tl       5.015926920   4.826577929  12.730324787    0   0   0
Tl      -0.044262972  -0.057999703  16.620382508
Tl       3.388219352  -0.057994144  16.620932412
Tl       1.672006520   2.784591179  15.646948262
Tl       5.015934513   2.921644002  15.670811090
H        1.672106817   0.773984173  17.626724800
End final coordinates

     Writing output data file calc.save

     General routines

     Parallel routines

   This run was terminated on:  22: 5:39  11Jan2019

   JOB DONE.
Job  /afs/slac/g/suncat/bin/suncat-tsmpirun -x LD_LIBRARY_PATH -wdir /tmp/qe_673398tl5dwu0n_scratch pw.x -npool 2 -in pw.pwi

TID   HOST_NAME   COMMAND_LINE            STATUS            TERMINATION_TIME
00000 suncat2060 pw.x -npool 2 -i  Done                     01/11/2019 22:05:39
00001 suncat2060 pw.x -npool 2 -i  Done                     01/11/2019 22:05:39
00002 suncat2060 pw.x -npool 2 -i  Done                     01/11/2019 22:05:39
00003 suncat2060 pw.x -npool 2 -i  Done                     01/11/2019 22:05:39
00004 suncat2060 pw.x -npool 2 -i  Done                     01/11/2019 22:05:39
00005 suncat2060 pw.x -npool 2 -i  Done                     01/11/2019 22:05:39
00006 suncat2060 pw.x -npool 2 -i  Done                     01/11/2019 22:05:39
00007 suncat2060 pw.x -npool 2 -i  Done                     01/11/2019 22:05:39
00008 suncat2060 pw.x -npool 2 -i  Done                     01/11/2019 22:05:39
00009 suncat2060 pw.x -npool 2 -i  Done                     01/11/2019 22:05:39
00010 suncat2060 pw.x -npool 2 -i  Done                     01/11/2019 22:05:39
00011 suncat2060 pw.x -npool 2 -i  Done                     01/11/2019 22:05:39
00012 suncat2060 pw.x -npool 2 -i  Done                     01/11/2019 22:05:39
00013 suncat2060 pw.x -npool 2 -i  Done                     01/11/2019 22:05:39
00014 suncat2060 pw.x -npool 2 -i  Done                     01/11/2019 22:05:39
00015 suncat2060 pw.x -npool 2 -i  Done                     01/11/2019 22:05:39
00016 suncat2055 pw.x -npool 2 -i  Done                     01/11/2019 22:05:39
00017 suncat2055 pw.x -npool 2 -i  Done                     01/11/2019 22:05:39
00018 suncat2055 pw.x -npool 2 -i  Done                     01/11/2019 22:05:39
00019 suncat2055 pw.x -npool 2 -i  Done                     01/11/2019 22:05:39
00020 suncat2055 pw.x -npool 2 -i  Done                     01/11/2019 22:05:39
00021 suncat2055 pw.x -npool 2 -i  Done                     01/11/2019 22:05:39
00022 suncat2055 pw.x -npool 2 -i  Done                     01/11/2019 22:05:39
00023 suncat2055 pw.x -npool 2 -i  Done                     01/11/2019 22:05:39
00024 suncat2055 pw.x -npool 2 -i  Done                     01/11/2019 22:05:39
00025 suncat2055 pw.x -npool 2 -i  Done                     01/11/2019 22:05:39
00026 suncat2055 pw.x -npool 2 -i  Done                     01/11/2019 22:05:39
00027 suncat2055 pw.x -npool 2 -i  Done                     01/11/2019 22:05:39
00028 suncat2055 pw.x -npool 2 -i  Done                     01/11/2019 22:05:39
00029 suncat2055 pw.x -npool 2 -i  Done                     01/11/2019 22:05:39
00030 suncat2055 pw.x -npool 2 -i  Done                     01/11/2019 22:05:39
00031 suncat2055 pw.x -npool 2 -i  Done                     01/11/2019 22:05:39