     Program PWSCF v.5.1rc2 (svn rev. 11289) starts on  2May2018 at 16:30: 5

     Current dimensions of program PWSCF are:
     Max number of different atomic species (ntypx) = 10
     Max number of k-points (npk) =  40000
     Max angular momentum in pseudopotentials (lmaxx) =  3
     Presently stress not available with electric field

     IMPORTANT: XC functional enforced from input :
     Exchange-correlation      = BEEF-VDW ( 1  4 27 13 2)
     Any further DFT definition will be discarded
     Please, verify this is what you really want

     Subspace diagonalization in iterative solution of the eigenvalue problem:
     a serial algorithm will be used

     bravais-lattice index     =            0
     lattice parameter (alat)  =       1.8897  a.u.
     unit-cell volume          =    4301.6107 (a.u.)^3
     number of atoms/cell      =           13
     number of atomic types    =            2
     number of electrons       =       185.00
     number of Kohn-Sham states=          102
     kinetic-energy cutoff     =      36.7493  Ry
     charge density cutoff     =     367.4932  Ry
     convergence threshold     =      1.0E-05
     mixing beta               =       0.3000
     number of iterations used =           10  plain     mixing
     Exchange-correlation      = BEEF-VDW ( 1  4 27 13 2)
     nstep                     =           50

     celldm(1)=   1.889726  celldm(2)=   0.000000  celldm(3)=   0.000000
     celldm(4)=   0.000000  celldm(5)=   0.000000  celldm(6)=   0.000000

     crystal axes: (cart. coord. in units of alat)
               a(1) = (   5.483647   0.000000   0.000000 )
               a(2) = (   2.741823   4.748977   0.000000 )
               a(3) = (   0.000000   0.000000  24.477379 )

     reciprocal axes: (cart. coord. in units 2 pi/alat)
               b(1) = (  0.182360 -0.105286  0.000000 )
               b(2) = (  0.000000  0.210572  0.000000 )
               b(3) = (  0.000000  0.000000  0.040854 )

     PseudoPot. # 1 for Tc read from file:
     /u/if/mamunm/psp/gbrv1.5pbe/Tc.UPF
     MD5 check sum: 9eb49e5b028550b2339a02317eb7b844
     Pseudo is Ultrasoft + core correction, Zval = 15.0
     Generated by new atomic code, or converted to UPF format
     Using radial grid of  965 points,  6 beta functions with:
                l(1) =   0
                l(2) =   0
                l(3) =   1
                l(4) =   1
                l(5) =   2
                l(6) =   2
     Q(r) pseudized with  8 coefficients,  rinner =    1.300   1.300   1.300
                                                       1.300   1.300

     PseudoPot. # 2 for N  read from file:
     /u/if/mamunm/psp/gbrv1.5pbe/N.UPF
     MD5 check sum: 95339753478d7afb44899504a8723017
     Pseudo is Ultrasoft + core correction, Zval =  5.0
     Generated by new atomic code, or converted to UPF format
     Using radial grid of  729 points,  4 beta functions with:
                l(1) =   0
                l(2) =   0
                l(3) =   1
                l(4) =   1
     Q(r) pseudized with  8 coefficients,  rinner =    0.900   0.900   0.900

     vdW kernel table read from file vdW_kernel_table
     MD5 check sum: 095c7af220d748ca6e76c0b4c6cfb241

     atomic species   valence    mass     pseudopotential
        Tc1           15.00    97.90721     Tc( 1.00)
        N1             5.00    14.00700     N ( 1.00)

     No symmetry found

   Cartesian axes

     site n.     atom                  positions (alat units)
         1           Tc1 tau(   1) = (   1.3709117   0.7914962  10.0000000  )
         2           Tc1 tau(   2) = (   4.1127351   0.7914962  10.0000000  )
         3           Tc1 tau(   3) = (   2.7418234   3.1659850  10.0000000  )
         4           Tc1 tau(   4) = (   5.4836469   3.1659850  10.0000000  )
         5           Tc1 tau(   5) = (   5.4836469   1.5829925  12.2386895  )
         6           Tc1 tau(   6) = (   2.7418234   1.5829925  12.2386895  )
         7           Tc1 tau(   7) = (   6.8545586   3.9574812  12.2386895  )
         8           Tc1 tau(   8) = (   4.1127351   3.9574812  12.2386895  )
         9           Tc1 tau(   9) = (   0.0000000   0.0000000  14.4773789  )
        10           Tc1 tau(  10) = (   2.7418234   0.0000000  14.4773789  )
        11           Tc1 tau(  11) = (   1.3709117   2.3744887  14.4773789  )
        12           Tc1 tau(  12) = (   4.1127351   2.3744887  14.4773789  )
        13           N1  tau(  13) = (   0.0000000   0.0000000  16.3303789  )

     number of k points=    20  Fermi-Dirac smearing, width (Ry)=  0.0110
                       cart. coord. in units 2pi/alat
        k(    1) = (   0.0000000   0.0000000   0.0000000), wk =   0.0555556
        k(    2) = (   0.0000000   0.0350953   0.0000000), wk =   0.1111111
        k(    3) = (   0.0000000   0.0701905   0.0000000), wk =   0.1111111
        k(    4) = (   0.0000000  -0.1052858   0.0000000), wk =   0.0555556
        k(    5) = (   0.0303934  -0.0175476   0.0000000), wk =   0.1111111
        k(    6) = (   0.0303934   0.0175476   0.0000000), wk =   0.1111111
        k(    7) = (   0.0303934   0.0526429   0.0000000), wk =   0.1111111
        k(    8) = (   0.0303934  -0.1228335   0.0000000), wk =   0.1111111
        k(    9) = (   0.0303934  -0.0877382   0.0000000), wk =   0.1111111
        k(   10) = (   0.0303934  -0.0526429   0.0000000), wk =   0.1111111
        k(   11) = (   0.0607868  -0.0350953   0.0000000), wk =   0.1111111
        k(   12) = (   0.0607868   0.0000000   0.0000000), wk =   0.1111111
        k(   13) = (   0.0607868   0.0350953   0.0000000), wk =   0.1111111
        k(   14) = (   0.0607868  -0.1403811   0.0000000), wk =   0.1111111
        k(   15) = (   0.0607868  -0.1052858   0.0000000), wk =   0.1111111
        k(   16) = (   0.0607868  -0.0701905   0.0000000), wk =   0.1111111
        k(   17) = (  -0.0911802   0.0526429   0.0000000), wk =   0.0555556
        k(   18) = (  -0.0911802   0.0877382   0.0000000), wk =   0.1111111
        k(   19) = (  -0.0911802   0.1228335   0.0000000), wk =   0.1111111
        k(   20) = (  -0.0911802  -0.0526429   0.0000000), wk =   0.0555556

     Largest allocated arrays     est. size (Mb)     dimensions
     Largest temporary arrays     est. size (Mb)     dimensions

     Check: negative/imaginary core charge=   -0.000022    0.000000

     Initial potential from superposition of free atoms
     Check: negative starting charge=   -1.504904

     starting charge  172.99966, renormalised to  185.00000

     negative rho (up, down):  1.609E+00 0.000E+00

     *
     * You are using vdW-DF for exchange-correlation in this calculation.
     * Please cite the following three references that made this development
     * possible:
     *
     *   M. Dion, H. Rydberg, E. Schroder, D. C. Langreth, and
     *   B. I. Lundqvist, Phys. Rev. Lett. 92, 246401 (2004).
     *
     *   T. Thonhauser, V. R. Cooper, S. Li, A. Puzder, P. Hyldgaard, and
     *   D. C. Langreth, Phys. Rev. B 76, 125112 (2007).
     *
     *   G. Roman-Perez and J. M. Soler, Phys. Rev. Lett. 103, 096102 (2009).
     *
     *
     * If you are using vdW-DF2, please also cite:
     *
     *   K. Lee, E. D. Murray, L. Kong, B. I. Lundqvist, and
     *   D. C. Langreth, Phys. Rev. B 82, 081101(R) (2010).
     *
     *
     * If you are calculating the stress with vdW-DF, please also cite:
     *
     *   R. Sabatini, E. Kucukbenli, B. Kolb, T. Thonhauser, and
     *   S. de Gironcoli, J. Phys.: Condens. Matter 24, 424209 (2012).
     *

     Carrying out vdW-DF run using the following parameters:

     Nqs =      20    Nr_points =    1024   r_max =   100.000
     q_mesh =
               0.00001000     0.04494208     0.09755937     0.15916263
               0.23128650     0.31572767     0.41458969     0.53033537
               0.66584808     0.82450364     1.01025438     1.22772762
               1.48234092     1.78043706     2.12944203     2.53805004
               3.01644009     3.57652955     4.23227104     5.00000000

     Gradients computed in reciprocal space

     Adding external electric field

     Computed dipole along edir(3) :
        Dipole               -2.6817 Ry au,         -6.8162 Debye
        Dipole field         -0.0078 Ry au

        Potential amp.        0.7066 Ry
        Total length         45.0992 bohr

     Starting wfc are  160 randomized atomic wfcs

     Self-consistent Calculation

     iteration #  1     ecut=    36.75 Ry     beta=0.30
     Davidson diagonalization with overlap
     ethr =  1.00E-02,  avg # of iterations =  6.8

[...]

     total energy              =   -1970.51822632 Ry
     Harris-Foulkes estimate   =   -2123.32248666 Ry
     estimated scf accuracy    <     320.33622548 Ry

[...]

     End of self-consistent calculation

          k = 0.0000 0.0000 0.0000 ( 16073 PWs)   bands (ev):

   -65.2641 -65.1550 -65.0277 -64.9731 -64.9721 -64.9222 -64.8693 -64.8081
   -64.7946 -64.7940 -64.7834 -64.7831 -37.6817 -37.6076 -37.6072 -37.5220
   -37.4978 -37.4977 -37.4453 -37.3322 -37.3319 -37.2879 -37.2736 -36.9589
   -36.9426 -36.9421 -36.9085 -36.8678 -36.8676 -36.8507 -36.8226 -36.8224
   -36.7613 -36.7265 -36.7264 -36.6778 -36.6775 -36.6283 -36.6223 -36.6222
   -36.6149 -36.5843 -36.5840 -36.5734 -36.4455 -36.4454 -36.3901 -36.3901
   -10.7473  -4.3737  -3.1511  -3.1509  -3.1040  -3.0595  -2.9775  -2.6889
    -2.6553  -2.6551  -2.5633  -2.5633  -2.4894  -2.1646  -2.1646  -2.1415
    -1.4039  -1.4039  -0.9507  -0.7250  -0.2748  -0.2748  -0.0284   0.1877
     0.4214   0.4214   0.6032   0.6033   0.6035   0.7293   0.7294   0.8475
     0.9644   0.9644   1.0918   1.0920   1.4420   1.4421   1.9417   2.4025
     2.4453   2.4454   2.4785   2.7166   2.8071   2.8072   3.1073   3.1074
     3.4309   3.4311   3.4751   3.8856   3.8857   4.1816

[...]

          k =-0.0912 0.0526 0.0000 ( 16164 PWs)   bands (ev):

[...]

     the Fermi energy is     2.1056 ev

!    total energy              =   -2123.56562682 Ry
     Harris-Foulkes estimate   =   -2123.56562261 Ry
     estimated scf accuracy    <       0.00000382 Ry

     The total energy is the sum of the following terms:

     one-electron contribution =  -18964.99813843 Ry
     hartree contribution      =    9481.51875601 Ry
     xc contribution           =    -402.28403781 Ry
     ewald contribution        =    7762.28850754 Ry
     electric field correction =       0.00028539 Ry
     smearing contrib. (-TS)   =      -0.09099953 Ry

     convergence has been achieved in  25 iterations

 BEEF-vdW xc energy contributions
           1 :   -352.361657220636
           2 :    323.798422020246
           3 :   -273.101043515069
           4 :    210.535365244546
           5 :   -146.940258339898
           6 :    90.7675617452775
           7 :   -46.4957695846710
           8 :    14.5635240229827
           9 :    7.36925433322511
          10 :   -22.5952721689243
          11 :    33.7015201974926
          12 :   -41.7122439899804
          13 :    46.1533860419304
          14 :   -45.8496468064014
          15 :    39.9606931022105
          16 :   -28.7968125720653
          17 :    14.0647015141131
          18 :    1.51222284976166
          19 :   -15.0168276279816
          20 :    24.2160913977823
          21 :   -28.1360135401806
          22 :    27.1225008405914
          23 :   -22.4427980274749
          24 :    15.6587846016608
          25 :   -8.07659235321552
          26 :   0.487945195617385
          27 :    6.74494963652813
          28 :   -13.3955454415977
          29 :    19.0840871039895
          30 :   -23.1731889270440
          31 :   -33.6155747610640
          32 :   -24.6384294227434

     Forces acting on atoms (Ry/au):

     negative rho (up, down):  1.589E+00 0.000E+00
     atom    1 type  1   force =    -0.00032983   -0.00016688    0.02775037
     atom    2 type  1   force =     0.00032539   -0.00018415    0.02773983
     atom    3 type  1   force =    -0.00003117    0.00036926    0.02770815
     atom    4 type  1   force =     0.00003871   -0.00001711    0.04274380
     atom    5 type  1   force =    -0.00011168    0.02352057   -0.01686647
     atom    6 type  1   force =     0.00010998    0.00003927   -0.00480441
     atom    7 type  1   force =    -0.02034799   -0.01171716   -0.01696247
     atom    8 type  1   force =     0.02033636   -0.01185585   -0.01685444
     atom    9 type  1   force =    -0.00001834    0.00001748    0.19905043
     atom   10 type  1   force =     0.00002819   -0.00292706   -0.03745144
     atom   11 type  1   force =    -0.00254812    0.00147830   -0.03753365
     atom   12 type  1   force =     0.00255105    0.00144190   -0.03738944
     atom   13 type  2   force =    -0.00000256    0.00000143   -0.15713026

     Total force =     0.261813     Total SCF correction =     0.002694

     entering subroutine stress ...

     negative rho (up, down):  1.589E+00 0.000E+00
          total   stress  (Ry/bohr**3)                   (kbar)     P=  -35.17
  -0.00019115   0.00000003  -0.00000001        -28.12      0.00     -0.00
   0.00000003  -0.00019115   0.00000001          0.00    -28.12      0.00
  -0.00000001   0.00000001  -0.00033504         -0.00      0.00    -49.29

     BFGS Geometry Optimization

     number of scf cycles    =   1
     number of bfgs steps    =   0

     energy   new            =   -2123.5656268224 Ry

     new trust radius        =       0.1990504339 bohr
     new conv_thr            =       0.0000099958 Ry

ATOMIC_POSITIONS (crystal)
Tc1      0.166666667   0.166666667   0.408540475    0   0   0
Tc1      0.666666667   0.166666667   0.408540475    0   0   0
Tc1      0.166666667   0.666666667   0.408540475    0   0   0
Tc1      0.666666667   0.666666667   0.408540475    0   0   0
Tc1      0.833333333   0.333333333   0.500000000    0   0   0
Tc1      0.333333333   0.333333333   0.500000000    0   0   0
Tc1      0.833333333   0.833333333   0.500000000    0   0   0
Tc1      0.333333333   0.833333333   0.500000000    0   0   0
Tc1     -0.000002744   0.000001948   0.595762803
Tc1      0.500165801  -0.000326162   0.590649861
Tc1     -0.000328259   0.500164726   0.590648084
Tc1      0.500165844   0.500160670   0.590651202
N1      -0.000000327   0.000000160   0.663765071

     Writing output data file calc.save
     Check: negative starting charge=   -1.504904
     NEW-OLD atomic charge density approx. for the potential

     Check: negative/imaginary core charge=   -0.000022    0.000000
     Check: negative starting charge=   -1.510935

[...]

     iteration #  1     ecut=    36.75 Ry     beta=0.30
     Davidson diagonalization with overlap
     c_bands:  1 eigenvalues not converged
     c_bands:  1 eigenvalues not converged
     ethr =  1.00E-06,  avg # of iterations = 16.0

[...]

     energy   old            =   -2123.5656268224 Ry
     energy   new            =   -2123.6108989633 Ry

     CASE: energy  _new < energy  _old

[...]

     iteration #  1     ecut=    36.75 Ry     beta=0.30
     Davidson diagonalization with overlap
     c_bands:  1 eigenvalues not converged
     c_bands:  1 eigenvalues not converged
     ethr =  1.00E-06,  avg # of iterations = 15.2

[...]

     Total force =     0.005063     Total SCF correction =     0.000471

[...]

     number of scf cycles    =  11
     number of bfgs steps    =  10

     energy   old            =   -2123.6486303377 Ry
     energy   new            =   -2123.6486983393 Ry

     CASE: energy  _new < energy  _old

     new trust radius        =       0.0062870173 bohr
     new conv_thr            =       0.0000001000 Ry

ATOMIC_POSITIONS (crystal)
Tc1      0.166666667   0.166666667   0.408540475    0   0   0
Tc1      0.666666667   0.166666667   0.408540475    0   0   0
Tc1      0.166666667   0.666666667   0.408540475    0   0   0
Tc1      0.666666667   0.666666667   0.408540475    0   0   0
Tc1      0.833333333   0.333333333   0.500000000    0   0   0
Tc1      0.333333333   0.333333333   0.500000000    0   0   0
Tc1      0.833333333   0.833333333   0.500000000    0   0   0
Tc1      0.333333333   0.833333333   0.500000000    0   0   0
Tc1     -0.000003058   0.000003935   0.610254804
Tc1      0.500972326  -0.001943239   0.586474905
Tc1     -0.001946521   0.500969417   0.586474105
Tc1      0.500977949   0.500968620   0.586474249
N1      -0.000000623   0.000002963   0.677378730

     Writing output data file calc.save
     Check: negative starting charge=   -1.510684
     NEW-OLD atomic charge density approx. for the potential

     Check: negative/imaginary core charge=   -0.000022    0.000000
     Check: negative starting charge=   -1.509499

[...]

     Self-consistent Calculation

[...]

     total energy              =   -2123.64873066 Ry
     Harris-Foulkes estimate   =   -2123.64873069 Ry
     estimated scf accuracy    <       0.00000022 Ry

     iteration # 12     ecut=    36.75 Ry     beta=0.30
     Davidson diagonalization with overlap
     ethr =  1.19E-10,  avg # of iterations =  5.0

[...]

     negative rho (up, down):  1.593E+00 0.000E+00

     Adding external electric field

     Computed dipole along edir(3) :
        Dipole               -0.3214 Ry au,         -0.8170 Debye
        Dipole field         -0.0009 Ry au

        Potential amp.        0.0847 Ry
        Total length         45.0992 bohr

     End of self-consistent calculation

[...]

          k = 0.0608-0.0702 0.0000 ( 16203 PWs)   bands (ev):

[...]

          k =-0.0912-0.0526 0.0000 ( 16164 PWs)   bands (ev):

   -65.1654 -65.1412 -65.1072 -65.0467 -65.0312 -64.8857 -64.8698 -64.8317
   -64.8228 -64.8021 -64.7875 -64.7744 -37.8297 -37.5147 -37.4872 -37.4385
   -37.3648 -37.3265 -37.3059 -37.2556 -37.2239 -37.1826 -37.1340 -37.1311
   -37.0837 -36.9960 -36.9386 -36.8857 -36.8811 -36.8617 -36.8547 -36.8513
   -36.8334 -36.8241 -36.8053 -36.7812 -36.7739 -36.7523 -36.7443 -36.7287
   -36.6818 -36.6379 -36.5949 -36.5867 -36.5763 -36.5206 -36.4948 -36.4715
   -10.9538  -2.8751  -2.8463  -2.3406  -2.2532  -2.1640  -2.0767  -2.0159
    -1.9960  -1.8221  -1.6960  -1.5717  -1.5562  -1.5250  -1.3476  -1.1926
    -1.1140  -1.0553  -0.8820  -0.7891  -0.6205  -0.5437  -0.5384  -0.3716
    -0.2446  -0.1453   0.2253   0.2690   0.3092   0.4523   0.6168   0.6516
     0.7072   0.7381   0.7546   0.8227   0.9006   0.9137   0.9887   1.0728
     1.1106   1.2337   1.7291   1.8876   1.9066   2.1113   2.1114   2.2835
     2.3278   2.5543   2.6655   2.6835   2.7671   2.8062

     the Fermi energy is     2.0781 ev

!    total energy              =   -2123.64873067 Ry
     Harris-Foulkes estimate   =   -2123.64873067 Ry
     estimated scf accuracy    <       0.00000003 Ry

     The total energy is the sum of the following terms:

     one-electron contribution =  -18818.73333306 Ry
     hartree contribution      =    9408.21585633 Ry
     xc contribution           =    -402.48511990 Ry
     ewald contribution        =    7689.43878233 Ry
     electric field correction =       0.00030182 Ry
     smearing contrib. (-TS)   =      -0.08521820 Ry

     convergence has been achieved in  12 iterations

 BEEF-vdW xc energy contributions
           1 :   -352.553330982266
           2 :    323.980698048514
           3 :   -273.286116886625
           4 :    210.735419859398
           5 :   -147.142952774631
           6 :    90.9388608971835
           7 :   -46.5925537488175
           8 :    14.5470499962975
           9 :    7.52020479094847
          10 :   -22.8724563879931
          11 :    34.0622484543738
          12 :   -42.0875343727567
          13 :    46.4741484225387
          14 :   -46.0788397538693
          15 :    40.1113788037851
          16 :   -28.9246747261388
          17 :    14.2354848208396
          18 :    1.26565852757392
          19 :   -14.7216247922344
          20 :    23.9502080573689
          21 :   -27.9840835011322
          22 :    27.1238339872252
          23 :   -22.5641547934227
          24 :    15.8052213321124
          25 :   -8.13936481678303
          26 :   0.404897472689072
          27 :    6.95246596262342
          28 :   -13.6308331291464
          29 :    19.2223394072167
          30 :   -23.1254631310054
          31 :   -33.6243443640483
          32 :   -24.6432120326075

     Forces acting on atoms (Ry/au):

     negative rho (up, down):  1.593E+00 0.000E+00
     atom    1 type  1   force =    -0.00125541   -0.00072517    0.02529555
     atom    2 type  1   force =     0.00125471   -0.00072873    0.02529001
     atom    3 type  1   force =    -0.00000372    0.00145100    0.02529362
     atom    4 type  1   force =     0.00000345    0.00000219    0.04277593
     atom    5 type  1   force =    -0.00000637    0.01741378   -0.02854302
     atom    6 type  1   force =     0.00000599   -0.00000081   -0.03364864
     atom    7 type  1   force =    -0.01508376   -0.00870352   -0.02854291
     atom    8 type  1   force =     0.01508388   -0.00871073   -0.02853495
     atom    9 type  1   force =     0.00000038   -0.00001502   -0.00159473
     atom   10 type  1   force =     0.00000157   -0.00123823    0.00031317
     atom   11 type  1   force =    -0.00105760    0.00062838    0.00032338
     atom   12 type  1   force =     0.00105754    0.00062649    0.00032254
     atom   13 type  2   force =    -0.00000066    0.00000038    0.00125006

     Total force =     0.002995     Total SCF correction =     0.000478
     SCF correction compared to forces is large: reduce conv_thr to get better values

     entering subroutine stress ...

     negative rho (up, down):  1.593E+00 0.000E+00
          total   stress  (Ry/bohr**3)                   (kbar)     P=  -26.36
  -0.00020258  -0.00000000   0.00000000        -29.80     -0.00      0.00
  -0.00000000  -0.00020259  -0.00000000         -0.00    -29.80     -0.00
   0.00000000  -0.00000000  -0.00013233          0.00     -0.00    -19.47

     bfgs converged in  12 scf cycles and  11 bfgs steps
     (criteria: energy <  1.0E+00, force <  1.9E-03)

     End of BFGS Geometry Optimization

     Final energy   =   -2123.6487306746 Ry
Begin final coordinates

ATOMIC_POSITIONS (crystal)
Tc1      0.166666667   0.166666667   0.408540475    0   0   0
Tc1      0.666666667   0.166666667   0.408540475    0   0   0
Tc1      0.166666667   0.666666667   0.408540475    0   0   0
Tc1      0.666666667   0.666666667   0.408540475    0   0   0
Tc1      0.833333333   0.333333333   0.500000000    0   0   0
Tc1      0.333333333   0.333333333   0.500000000    0   0   0
Tc1      0.833333333   0.833333333   0.500000000    0   0   0
Tc1      0.333333333   0.833333333   0.500000000    0   0   0
Tc1     -0.000003058   0.000003935   0.610254804
Tc1      0.500972326  -0.001943239   0.586474905
Tc1     -0.001946521   0.500969417   0.586474105
Tc1      0.500977949   0.500968620   0.586474249
N1      -0.000000623   0.000002963   0.677378730
End final coordinates

     Writing output data file calc.save

     General routines

     Parallel routines

   This run was terminated on:  18: 0:25   2May2018

   JOB DONE.
Job  /afs/slac/g/suncat/bin/suncat-tsmpirun -x LD_LIBRARY_PATH -wdir /scratch/qe798541_ajv4U pw.x -npool 4 -in pw.inp

TID   HOST_NAME   COMMAND_LINE            STATUS            TERMINATION_TIME
00000 suncat0074 pw.x -npool 4 -i  Done                     05/02/2018 18:00:25
00001 suncat0074 pw.x -npool 4 -i  Done                     05/02/2018 18:00:25
00002 suncat0074 pw.x -npool 4 -i  Done                     05/02/2018 18:00:25
00003 suncat0074 pw.x -npool 4 -i  Done                     05/02/2018 18:00:25
00004 suncat0074 pw.x -npool 4 -i  Done                     05/02/2018 18:00:25
00005 suncat0074 pw.x -npool 4 -i  Done                     05/02/2018 18:00:25
00006 suncat0074 pw.x -npool 4 -i  Done                     05/02/2018 18:00:25
00007 suncat0074 pw.x -npool 4 -i  Done                     05/02/2018 18:00:25
00008 suncat0064 pw.x -npool 4 -i  Done                     05/02/2018 18:00:25
00009 suncat0064 pw.x -npool 4 -i  Done                     05/02/2018 18:00:25
00010 suncat0064 pw.x -npool 4 -i  Done                     05/02/2018 18:00:25
00011 suncat0064 pw.x -npool 4 -i  Done                     05/02/2018 18:00:25
00012 suncat0064 pw.x -npool 4 -i  Done                     05/02/2018 18:00:25
00013 suncat0064 pw.x -npool 4 -i  Done                     05/02/2018 18:00:25
00014 suncat0064 pw.x -npool 4 -i  Done                     05/02/2018 18:00:25
00015 suncat0064 pw.x -npool 4 -i  Done                     05/02/2018 18:00:25
00016 suncat0041 pw.x -npool 4 -i  Done                     05/02/2018 18:00:25
00017 suncat0041 pw.x -npool 4 -i  Done                     05/02/2018 18:00:25
00018 suncat0041 pw.x -npool 4 -i  Done                     05/02/2018 18:00:25
00019 suncat0041 pw.x -npool 4 -i  Done                     05/02/2018 18:00:25
00020 suncat0041 pw.x -npool 4 -i  Done                     05/02/2018 18:00:25
00021 suncat0041 pw.x -npool 4 -i  Done                     05/02/2018 18:00:25
00022 suncat0041 pw.x -npool 4 -i  Done                     05/02/2018 18:00:25
00023 suncat0041 pw.x -npool 4 -i  Done                     05/02/2018 18:00:25
00024 suncat0029 pw.x -npool 4 -i  Done                     05/02/2018 18:00:25
00025 suncat0029 pw.x -npool 4 -i  Done                     05/02/2018 18:00:25
00026 suncat0029 pw.x -npool 4 -i  Done                     05/02/2018 18:00:25
00027 suncat0029 pw.x -npool 4 -i  Done                     05/02/2018 18:00:25
00028 suncat0029 pw.x -npool 4 -i  Done                     05/02/2018 18:00:25
00029 suncat0029 pw.x -npool 4 -i  Done                     05/02/2018 18:00:25
00030 suncat0029 pw.x -npool 4 -i  Done                     05/02/2018 18:00:25
00031 suncat0029 pw.x -npool 4 -i  Done                     05/02/2018 18:00:25