     Program PWSCF v.5.1rc2 (svn rev. 11289) starts on 25Apr2018 at  4:39:17

     Current dimensions of program PWSCF are:
     Max number of different atomic species (ntypx) = 10
     Max number of k-points (npk) =  40000
     Max angular momentum in pseudopotentials (lmaxx) =  3
     Presently stress not available with electric field

     IMPORTANT: XC functional enforced from input :
     Exchange-correlation      = BEEF-VDW ( 1  4 27 13 2)
     Any further DFT definition will be discarded
     Please, verify this is what you really want

     Subspace diagonalization in iterative solution of the eigenvalue problem:
     a serial algorithm will be used

     bravais-lattice index     =            0
     lattice parameter (alat)  =       1.8897  a.u.
     unit-cell volume          =    4515.4205 (a.u.)^3
     number of atoms/cell      =           14
     number of atomic types    =            3
     number of electrons       =       247.00
     number of Kohn-Sham states=          133
     kinetic-energy cutoff     =      36.7493  Ry
     charge density cutoff     =     367.4932  Ry
     convergence threshold     =      1.0E-05
     mixing beta               =       0.3000
     number of iterations used =           10  plain     mixing
     Exchange-correlation      = BEEF-VDW ( 1  4 27 13 2)
     nstep                     =           50

     celldm(1)=   1.889726  celldm(2)=   0.000000  celldm(3)=   0.000000
     celldm(4)=   0.000000  celldm(5)=   0.000000  celldm(6)=   0.000000

     crystal axes: (cart. coord. in units of alat)
               a(1) = (   5.606773   0.000000   0.000000 )
               a(2) = (   2.803387   4.855608   0.000000 )
               a(3) = (   0.000000   0.000000  24.577911 )

     reciprocal axes: (cart. coord. in units 2 pi/alat)
               b(1) = (  0.178356 -0.102974  0.000000 )
               b(2) = (  0.000000  0.205947  0.000000 )
               b(3) = (  0.000000  0.000000  0.040687 )

     PseudoPot. # 1 for Zn read from file:
     /u/if/mamunm/psp/gbrv1.5pbe/Zn.UPF
     MD5 check sum: df62231357ef9e81f77b2b3087fa5675
     Pseudo is Ultrasoft, Zval = 20.0
     Generated by new atomic code, or converted to UPF format
     Using radial grid of  943 points,  6 beta functions with:
                l(1) =   0
                l(2) =   0
                l(3) =   1
                l(4) =   1
                l(5) =   2
                l(6) =   2
     Q(r) pseudized with  8 coefficients,  rinner =    1.100   1.100   1.100
                                                       1.100   1.100

     PseudoPot. # 2 for S  read from file:
     /u/if/mamunm/psp/gbrv1.5pbe/S.UPF
     MD5 check sum: 88d86576ff6df21479756cfb9bdac1df
     Pseudo is Ultrasoft + core correction, Zval =  6.0
     Generated by new atomic code, or converted to UPF format
     Using radial grid of  907 points,  6 beta functions with:
                l(1) =   0
                l(2) =   0
                l(3) =   1
                l(4) =   1
                l(5) =   2
                l(6) =   2
     Q(r) pseudized with  8 coefficients,  rinner =    1.300   1.300   1.300
                                                       1.300   1.300

     PseudoPot. # 3 for H  read from file:
     /u/if/mamunm/psp/gbrv1.5pbe/H.UPF
     MD5 check sum: 761ae9a214b05c3daf00ab9f6b793d6f
     Pseudo is Ultrasoft, Zval =  1.0
     Generated by new atomic code, or converted to UPF format
     Using radial grid of  615 points,  2 beta functions with:
                l(1) =   0
                l(2) =   0
     Q(r) pseudized with  8 coefficients,  rinner =    0.700

     vdW kernel table read from file vdW_kernel_table
     MD5 check sum: 095c7af220d748ca6e76c0b4c6cfb241

     atomic species   valence    mass     pseudopotential
        Zn1           20.00    65.38000     Zn( 1.00)
        S1             6.00    32.06000     S ( 1.00)
        H1             1.00     1.00800     H ( 1.00)

     No symmetry found

   Cartesian axes

     site n.     atom                  positions (alat units)
         1           Zn1 tau(   1) = (   1.4016933   0.8092680  10.0000000  )
         2           Zn1 tau(   2) = (   4.2050800   0.8092680  10.0000000  )
         3           Zn1 tau(   3) = (   2.8033867   3.2370721  10.0000000  )
         4           Zn1 tau(   4) = (   5.6067733   3.2370721  10.0000000  )
         5           Zn1 tau(   5) = (   5.6067733   1.6185360  12.2889556  )
         6           Zn1 tau(   6) = (   2.8033867   1.6185360  12.2889556  )
         7           Zn1 tau(   7) = (   7.0084667   4.0463401  12.2889556  )
         8           Zn1 tau(   8) = (   4.2050800   4.0463401  12.2889556  )
         9           Zn1 tau(   9) = (   0.0000000   0.0000000  14.5779113  )
        10           Zn1 tau(  10) = (   2.8033867   0.0000000  14.5779113  )
        11           Zn1 tau(  11) = (   1.4016933   2.4278041  14.5779113  )
        12           Zn1 tau(  12) = (   4.2050800   2.4278041  14.5779113  )
        13           S1  tau(  13) = (   0.0000000   0.0000000  16.5074113  )
        14           H1  tau(  14) = (   0.0000000   0.0000000  17.7574113  )

     number of k points=    20  Fermi-Dirac smearing, width (Ry)=  0.0110
                       cart. coord. in units 2pi/alat
        k(    1) = (   0.0000000   0.0000000   0.0000000), wk =   0.0555556
        k(    2) = (   0.0000000   0.0343246   0.0000000), wk =   0.1111111
        k(    3) = (   0.0000000   0.0686491   0.0000000), wk =   0.1111111
        k(    4) = (   0.0000000  -0.1029737   0.0000000), wk =   0.0555556
        k(    5) = (   0.0297260  -0.0171623   0.0000000), wk =   0.1111111
        k(    6) = (   0.0297260   0.0171623   0.0000000), wk =   0.1111111
        k(    7) = (   0.0297260   0.0514869   0.0000000), wk =   0.1111111
        k(    8) = (   0.0297260  -0.1201360   0.0000000), wk =   0.1111111
        k(    9) = (   0.0297260  -0.0858114   0.0000000), wk =   0.1111111
        k(   10) = (   0.0297260  -0.0514869   0.0000000), wk =   0.1111111
        k(   11) = (   0.0594519  -0.0343246   0.0000000), wk =   0.1111111
        k(   12) = (   0.0594519   0.0000000   0.0000000), wk =   0.1111111
        k(   13) = (   0.0594519   0.0343246   0.0000000), wk =   0.1111111
        k(   14) = (   0.0594519  -0.1372983   0.0000000), wk =   0.1111111
        k(   15) = (   0.0594519  -0.1029737   0.0000000), wk =   0.1111111
        k(   16) = (   0.0594519  -0.0686491   0.0000000), wk =   0.1111111
        k(   17) = (  -0.0891779   0.0514869   0.0000000), wk =   0.0555556
        k(   18) = (  -0.0891779   0.0858114   0.0000000), wk =   0.1111111
        k(   19) = (  -0.0891779   0.1201360   0.0000000), wk =   0.1111111
        k(   20) = (  -0.0891779  -0.0514869   0.0000000), wk =   0.0555556

     Largest allocated arrays     est. size (Mb)     dimensions
     Largest temporary arrays     est. size (Mb)     dimensions

     Initial potential from superposition of free atoms
     Check: negative starting charge=   -0.000698

     starting charge  246.99826, renormalised to  247.00000

     negative rho (up, down):  6.984E-04 0.000E+00

     *
     * You are using vdW-DF for exchange-correlation in this calculation.
     * Please cite the following three references that made this development
     * possible:
     *
     *   M. Dion, H. Rydberg, E. Schroder, D. C. Langreth, and
     *   B. I. Lundqvist, Phys. Rev. Lett. 92, 246401 (2004).
     *
     *   T. Thonhauser, V. R. Cooper, S. Li, A. Puzder, P. Hyldgaard, and
     *   D. C. Langreth, Phys. Rev. B 76, 125112 (2007).
     *
     *   G. Roman-Perez and J. M. Soler, Phys. Rev. Lett. 103, 096102 (2009).
     *
     *
     * If you are using vdW-DF2, please also cite:
     *
     *   K. Lee, E. D. Murray, L. Kong, B. I. Lundqvist, and
     *   D. C. Langreth, Phys. Rev. B 82, 081101(R) (2010).
     *
     *
     * If you are calculating the stress with vdW-DF, please also cite:
     *
     *   R. Sabatini, E. Kucukbenli, B. Kolb, T. Thonhauser, and
     *   S. de Gironcoli, J. Phys.: Condens. Matter 24, 424209 (2012).
     *

     Carrying out vdW-DF run using the following parameters:

     Nqs =      20    Nr_points =    1024   r_max =   100.000
     q_mesh =
               0.00001000     0.04494208     0.09755937     0.15916263
               0.23128650     0.31572767     0.41458969     0.53033537
               0.66584808     0.82450364     1.01025438     1.22772762
               1.48234092     1.78043706     2.12944203     2.53805004
               3.01644009     3.57652955     4.23227104     5.00000000

     Gradients computed in reciprocal space

     Adding external electric field

     Computed dipole along edir(3) :
        Dipole               -0.0000 Ry au,         -0.0001 Debye
        Dipole field         -0.0000 Ry au

        Potential amp.        0.0000 Ry
        Total length         45.2844 bohr

     Starting wfc are  161 randomized atomic wfcs

     Self-consistent Calculation

     iteration #  1     ecut=    36.75 Ry     beta=0.30
     Davidson diagonalization with overlap
     ethr =  1.00E-02,  avg # of iterations =  2.9

     Threshold (ethr) on eigenvalues was too large:
     Diagonalizing with lowered threshold

     Davidson diagonalization with overlap
     ethr =  2.10E-04,  avg # of iterations =  4.8

[...]

     total energy              =   -5578.63248411 Ry
     Harris-Foulkes estimate   =   -5578.84982759 Ry
     estimated scf accuracy    <       0.56561798 Ry

[...]

     End of self-consistent calculation

          k = 0.0000 0.0000 0.0000 ( 16931 PWs)   bands (ev):

  -126.3998-125.9495-125.9310-125.9301-125.9301-125.7525-125.7516-125.7516
  -125.7491-125.7164-125.7155-125.7155 -80.6539 -80.5535 -80.5535 -80.1342
   -80.1257 -80.1257 -80.1138 -80.1086 -80.1082 -80.1082 -80.1074 -80.1074
   -80.1036 -80.1005 -80.1005 -79.9442 -79.9442 -79.9424 -79.9405 -79.9396
   -79.9396 -79.9393 -79.9211 -79.9211 -79.9177 -79.9061 -79.9061 -79.9050
   -79.9042 -79.9042 -79.8949 -79.8907 -79.8907 -79.8858 -79.8822 -79.8822
   -13.5922  -8.7981  -8.3797  -7.6643  -7.6643  -7.6218  -7.5806  -7.5806
    -7.4784  -7.4757  -7.4757  -7.4600  -7.3687  -7.3152  -7.3039  -7.3039
    -7.2041  -7.2041  -7.1847  -6.9595  -6.9595  -6.9484  -6.9484  -6.9259
    -6.9056  -6.8833  -6.8791  -6.8791  -6.8553  -6.8553  -6.8363  -6.7456
    -6.7456  -6.6803  -6.6803  -6.5734  -6.5734  -6.5250  -6.5250  -6.4961
    -6.4660  -6.4659  -6.4535  -6.4276  -6.4203  -6.4202  -6.3780  -6.3780
    -6.3691  -6.3492  -6.3492  -6.3395  -6.3395  -6.3209  -6.3168  -6.3099
    -6.3099  -6.2610  -6.2610  -6.1775  -6.1436  -6.1436  -6.1321  -5.2189
    -2.8096  -2.3667  -2.3667  -1.7423  -1.6911  -1.6911  -1.3806  -1.0498
    -1.0498  -0.4031  -0.1219   0.0662   0.0662   0.8539   0.8539   0.9761
     2.5404   2.5404   2.6354   2.9787   3.2148

[...]

          k =-0.0892 0.0515 0.0000 ( 17028 PWs)   bands (ev):

[...]

     the Fermi energy is     0.8191 ev

!    total energy              =   -5578.76295417 Ry
     Harris-Foulkes estimate   =   -5578.76295049 Ry
     estimated scf accuracy    <       0.00000376 Ry

     The total energy is the sum of the following terms:

     one-electron contribution =  -35960.09211690 Ry
     hartree contribution      =   17963.56309043 Ry
     xc contribution           =    -530.59444030 Ry
     ewald contribution        =   12948.38669642 Ry
     electric field correction =       0.00001275 Ry
     smearing contrib. (-TS)   =      -0.02619658 Ry

     convergence has been achieved in  10 iterations

 BEEF-vdW xc energy contributions
           1 :   -471.051762555547
           2 :    426.625336355461
           3 :   -352.160633905016
           4 :    269.265405694950
           5 :   -197.005106384037
           6 :    144.834869502987
           7 :   -111.358180403158
           8 :    88.5991902596971
           9 :   -68.5072799625879
          10 :    47.6307212248415
          11 :   -27.6570641921466
          12 :    12.4286639627350
          13 :   -4.15857252911746
          14 :    1.59171601402528
          15 :   -1.05662558631860
          16 :  -0.818857041355727
          17 :    4.94111691292295
          18 :   -9.63670684037800
          19 :    12.4077318022111
          20 :   -12.0449136582823
          21 :    9.50648290614936
          22 :   -7.05849268913738
          23 :    6.50391450637375
          24 :   -7.91947924958293
          25 :    9.79777077354373
          26 :   -10.3588713606223
          27 :    8.94038585958856
          28 :   -6.41596498323025
          29 :    4.41403598649907
          30 :   -4.03069942824862
          31 :   -36.7776648240647
          32 :   -25.0740511442359

     Forces acting on atoms (Ry/au):

     negative rho (up, down):  9.465E-04 0.000E+00
     atom    1 type  1   force =    -0.00208522   -0.00120594   -0.00750636
     atom    2 type  1   force =     0.00208667   -0.00120696   -0.00750595
     atom    3 type  1   force =    -0.00000253    0.00241096   -0.00750575
     atom    4 type  1   force =     0.00000252    0.00000126   -0.00881192
     atom    5 type  1   force =    -0.00000050   -0.00306093    0.00146662
     atom    6 type  1   force =     0.00000083    0.00000053   -0.00529680
     atom    7 type  1   force =     0.00265143    0.00153141    0.00146291
     atom    8 type  1   force =    -0.00265240    0.00152827    0.00146091
     atom    9 type  1   force =     0.00000069    0.00000086   -0.22017711
     atom   10 type  1   force =    -0.00000302   -0.00367541    0.00212842
     atom   11 type  1   force =    -0.00318524    0.00183649    0.00212784
     atom   12 type  1   force =     0.00318659    0.00183875    0.00212597
     atom   13 type  2   force =     0.00000002    0.00000058    0.12297296
     atom   14 type  3   force =     0.00000015    0.00000013    0.12305824

     Total force =     0.280709     Total SCF correction =     0.015625

     entering subroutine stress ...

     negative rho (up, down):  9.465E-04 0.000E+00
          total   stress  (Ry/bohr**3)                   (kbar)     P=    7.83
  -0.00007589   0.00000000   0.00000000        -11.16      0.00      0.00
   0.00000000  -0.00007589   0.00000000          0.00    -11.16      0.00
   0.00000000   0.00000000   0.00031148          0.00      0.00     45.82

     BFGS Geometry Optimization

     number of scf cycles    =   1
     number of bfgs steps    =   0

     energy   new            =   -5578.7629541693 Ry

     new trust radius        =       0.2201771068 bohr
     new conv_thr            =       0.0000099958 Ry

ATOMIC_POSITIONS (crystal)
Zn1      0.166666667   0.166666667   0.406869400    0   0   0
Zn1      0.666666667   0.166666667   0.406869400    0   0   0
Zn1      0.166666667   0.666666667   0.406869400    0   0   0
Zn1      0.666666667   0.666666667   0.406869400    0   0   0
Zn1      0.833333333   0.333333333   0.500000000    0   0   0
Zn1      0.333333333   0.333333333   0.500000000    0   0   0
Zn1      0.833333333   0.833333333   0.500000000    0   0   0
Zn1      0.333333333   0.833333333   0.500000000    0   0   0
Zn1      0.000000019   0.000000093   0.588390055
Zn1      0.500199994  -0.000400557   0.593176427
Zn1     -0.000400701   0.500200146   0.593176414
Zn1      0.500200560   0.500200392   0.593176374
S1      -0.000000030   0.000000063   0.674283733
H1       0.000000007   0.000000014   0.725144244

     Writing output data file calc.save
     Check: negative starting charge=   -0.000698
     NEW-OLD atomic charge density approx. for the potential
     Check: negative starting charge=   -0.000694

[...]

     energy   old            =   -5578.7629541693 Ry
     energy   new            =   -5578.8147770078 Ry

     CASE: energy  _new < energy  _old

[...]

     Total force =     0.028110     Total SCF correction =     0.003471
     SCF correction compared to forces is large: reduce conv_thr to get better values

[...]

     Total force =     0.011074     Total SCF correction =     0.000816

[...]

     number of scf cycles    =  12
     number of bfgs steps    =  11

     energy   old            =   -5578.8578354709 Ry
     energy   new            =   -5578.8591095752 Ry

     CASE: energy  _new < energy  _old

     new trust radius        =       0.0816620842 bohr
     new conv_thr            =       0.0000001000 Ry

ATOMIC_POSITIONS (crystal)
Zn1      0.166666667   0.166666667   0.406869400    0   0   0
Zn1      0.666666667   0.166666667   0.406869400    0   0   0
Zn1      0.166666667   0.666666667   0.406869400    0   0   0
Zn1      0.666666667   0.666666667   0.406869400    0   0   0
Zn1      0.833333333   0.333333333   0.500000000    0   0   0
Zn1      0.333333333   0.333333333   0.500000000    0   0   0
Zn1      0.833333333   0.833333333   0.500000000    0   0   0
Zn1      0.333333333   0.833333333   0.500000000    0   0   0
Zn1     -0.000000181  -0.000000299   0.591449519
Zn1      0.501877354  -0.003755214   0.606467866
Zn1     -0.003755321   0.501877395   0.606467961
Zn1      0.501877308   0.501877623   0.606467928
S1       0.000000422   0.000001507   0.694986507
H1      -0.000000034  -0.000000585   0.750174071

     Writing output data file calc.save
     Check: negative starting charge=   -0.000616
     NEW-OLD atomic charge density approx. for the potential
     Check: negative starting charge=   -0.000619

[...]

     Self-consistent Calculation

[...]

     total energy              =   -5578.85969059 Ry
     Harris-Foulkes estimate   =   -5578.85968983 Ry
     estimated scf accuracy    <       0.00000018 Ry

     iteration #  8     ecut=    36.75 Ry     beta=0.30
     Davidson diagonalization with overlap
     ethr =  7.14E-11,  avg # of iterations =  2.0

[...]

     negative rho (up, down):  8.109E-04 0.000E+00

     Adding external electric field

     Computed dipole along edir(3) :
        Dipole               -0.2542 Ry au,         -0.6462 Debye
        Dipole field         -0.0007 Ry au

        Potential amp.        0.0641 Ry
        Total length         45.2844 bohr

     End of self-consistent calculation

[...]

          k = 0.0595-0.0686 0.0000 ( 16986 PWs)   bands (ev):

[...]

          k =-0.0892-0.0515 0.0000 ( 17028 PWs)   bands (ev):

  -126.3530-126.3527-126.3524-126.3309-126.2150-126.2100-126.2050-126.2047
  -126.2044-126.0018-126.0015-126.0012 -80.5352 -80.5329 -80.5319 -80.5312
   -80.5292 -80.5287 -80.5284 -80.5280 -80.5237 -80.5132 -80.5066 -80.5054
   -80.4010 -80.3980 -80.3979 -80.3951 -80.3947 -80.3942 -80.3938 -80.3845
   -80.3817 -80.3814 -80.3771 -80.3767 -80.3765 -80.3736 -80.3717 -80.1895
   -80.1877 -80.1876 -80.1872 -80.1868 -80.1864 -80.1739 -80.1701 -80.1661
   -11.9256  -7.8527  -7.7873  -7.6577  -7.6565  -7.6339  -7.6233  -7.5815
    -7.5746  -7.5413  -7.5331  -7.5228  -7.5004  -7.4397  -7.4069  -7.4001
    -7.3661  -7.3347  -7.3107  -7.2957  -7.2872  -7.2772  -7.2388  -7.2244
    -7.2142  -7.2021  -7.1814  -7.1561  -7.1462  -7.1360  -7.1320  -7.0694
    -7.0660  -7.0645  -7.0602  -7.0561  -7.0480  -7.0286  -7.0058  -6.9569
    -6.9547  -6.9483  -6.9302  -6.8998  -6.8978  -6.8816  -6.8755  -6.8590
    -6.8542  -6.8529  -6.8343  -6.8281  -6.8170  -6.7786  -6.7545  -6.7451
    -6.7202  -6.7101  -6.7048  -6.6743  -6.6223  -6.6114  -6.5975  -5.5817
    -5.1312  -4.2435  -3.4227  -3.4129  -2.7561  -2.2752  -1.9776  -1.5534
    -0.7434  -0.6092   0.5083   0.8699   1.2217   1.3236   3.0144   3.0655
     3.2050   3.3052   3.8901   4.1234   4.2466

     the Fermi energy is     0.3937 ev

!    total energy              =   -5578.85969063 Ry
     Harris-Foulkes estimate   =   -5578.85969098 Ry
     estimated scf accuracy    <       0.00000003 Ry

     The total energy is the sum of the following terms:

     one-electron contribution =  -34641.34888061 Ry
     hartree contribution      =   17301.90007043 Ry
     xc contribution           =    -530.21308508 Ry
     ewald contribution        =   12290.82851370 Ry
     electric field correction =       0.00017989 Ry
     smearing contrib. (-TS)   =      -0.02648896 Ry

     convergence has been achieved in   8 iterations

 BEEF-vdW xc energy contributions
           1 :   -470.648194904647
           2 :    426.008038714447
           3 :   -351.311717086082
           4 :    268.388045583345
           5 :   -196.363923056057
           6 :    144.548425689983
           7 :   -111.311228144507
           8 :    88.5428381233024
           9 :   -68.2610703140934
          10 :    47.2225586403802
          11 :   -27.2901575363272
          12 :    12.3073426159875
          13 :   -4.31735646833499
          14 :    1.86506932041050
          15 :   -1.21138671694445
          16 :  -0.896341972808955
          17 :    5.15528001038615
          18 :   -9.76388764193746
          19 :    12.2822836315742
          20 :   -11.6988858681697
          21 :    9.15009426298229
          22 :   -6.91718883457258
          23 :    6.64259762892664
          24 :   -8.19314792801168
          25 :    9.96693246692178
          26 :   -10.2778767629130
          27 :    8.67138320349903
          28 :   -6.18200980664460
          29 :    4.43049697644562
          30 :   -4.34608243848822
          31 :   -36.7443594454531
          32 :   -24.9921885355967

     Forces acting on atoms (Ry/au):

     negative rho (up, down):  8.109E-04 0.000E+00
     atom    1 type  1   force =    -0.00016694   -0.00009638   -0.00930143
     atom    2 type  1   force =     0.00016697   -0.00009633   -0.00930152
     atom    3 type  1   force =     0.00000005    0.00019275   -0.00930156
     atom    4 type  1   force =    -0.00000006   -0.00000004   -0.01062385
     atom    5 type  1   force =    -0.00000001    0.00350234    0.00968970
     atom    6 type  1   force =    -0.00000001   -0.00000001    0.01116306
     atom    7 type  1   force =    -0.00303315   -0.00175121    0.00968951
     atom    8 type  1   force =     0.00303313   -0.00175119    0.00968968
     atom    9 type  1   force =    -0.00000028   -0.00000024    0.00012112
     atom   10 type  1   force =     0.00000000    0.00176747    0.00025951
     atom   11 type  1   force =     0.00153062   -0.00088375    0.00025939
     atom   12 type  1   force =    -0.00153070   -0.00088385    0.00025934
     atom   13 type  2   force =     0.00000078    0.00000088   -0.00131321
     atom   14 type  3   force =    -0.00000039   -0.00000046   -0.00128974

     Total force =     0.003602     Total SCF correction =     0.000563
     SCF correction compared to forces is large: reduce conv_thr to get better values

     entering subroutine stress ...

     negative rho (up, down):  8.109E-04 0.000E+00
          total   stress  (Ry/bohr**3)                   (kbar)     P=  -18.64
  -0.00017994   0.00000000   0.00000000        -26.47      0.00      0.00
   0.00000000  -0.00017994   0.00000000          0.00    -26.47      0.00
   0.00000000   0.00000000  -0.00002029          0.00      0.00     -2.99

     bfgs converged in  13 scf cycles and  12 bfgs steps
     (criteria: energy <  1.0E+00, force <  1.9E-03)

     End of BFGS Geometry Optimization

     Final energy   =   -5578.8596906313 Ry
Begin final coordinates

ATOMIC_POSITIONS (crystal)
Zn1      0.166666667   0.166666667   0.406869400    0   0   0
Zn1      0.666666667   0.166666667   0.406869400    0   0   0
Zn1      0.166666667   0.666666667   0.406869400    0   0   0
Zn1      0.666666667   0.666666667   0.406869400    0   0   0
Zn1      0.833333333   0.333333333   0.500000000    0   0   0
Zn1      0.333333333   0.333333333   0.500000000    0   0   0
Zn1      0.833333333   0.833333333   0.500000000    0   0   0
Zn1      0.333333333   0.833333333   0.500000000    0   0   0
Zn1     -0.000000181  -0.000000299   0.591449519
Zn1      0.501877354  -0.003755214   0.606467866
Zn1     -0.003755321   0.501877395   0.606467961
Zn1      0.501877308   0.501877623   0.606467928
S1       0.000000422   0.000001507   0.694986507
H1      -0.000000034  -0.000000585   0.750174071
End final coordinates

     Writing output data file calc.save

     General routines

     Parallel routines

   This run was terminated on:   5:51:52  25Apr2018

   JOB DONE.
Job  /afs/slac/g/suncat/bin/suncat-tsmpirun -x LD_LIBRARY_PATH -wdir /scratch/qe317401_UoJSq pw.x -npool 4 -in pw.inp

TID   HOST_NAME   COMMAND_LINE            STATUS            TERMINATION_TIME
00000 suncat0225 pw.x -npool 4 -i  Done                     04/25/2018 05:51:52
00001 suncat0225 pw.x -npool 4 -i  Done                     04/25/2018 05:51:52
00002 suncat0225 pw.x -npool 4 -i  Done                     04/25/2018 05:51:52
00003 suncat0225 pw.x -npool 4 -i  Done                     04/25/2018 05:51:52
00004 suncat0225 pw.x -npool 4 -i  Done                     04/25/2018 05:51:52
00005 suncat0225 pw.x -npool 4 -i  Done                     04/25/2018 05:51:52
00006 suncat0225 pw.x -npool 4 -i  Done                     04/25/2018 05:51:52
00007 suncat0225 pw.x -npool 4 -i  Done                     04/25/2018 05:51:52
00008 suncat0224 pw.x -npool 4 -i  Done                     04/25/2018 05:51:52
00009 suncat0224 pw.x -npool 4 -i  Done                     04/25/2018 05:51:52
00010 suncat0224 pw.x -npool 4 -i  Done                     04/25/2018 05:51:52
00011 suncat0224 pw.x -npool 4 -i  Done                     04/25/2018 05:51:52
00012 suncat0224 pw.x -npool 4 -i  Done                     04/25/2018 05:51:52
00013 suncat0224 pw.x -npool 4 -i  Done                     04/25/2018 05:51:52
00014 suncat0224 pw.x -npool 4 -i  Done                     04/25/2018 05:51:52
00015 suncat0224 pw.x -npool 4 -i  Done                     04/25/2018 05:51:52
00016 suncat0221 pw.x -npool 4 -i  Done                     04/25/2018 05:51:52
00017 suncat0221 pw.x -npool 4 -i  Done                     04/25/2018 05:51:52
00018 suncat0221 pw.x -npool 4 -i  Done                     04/25/2018 05:51:52
00019 suncat0221 pw.x -npool 4 -i  Done                     04/25/2018 05:51:52
00020 suncat0221 pw.x -npool 4 -i  Done                     04/25/2018 05:51:52
00021 suncat0221 pw.x -npool 4 -i  Done                     04/25/2018 05:51:52
00022 suncat0221 pw.x -npool 4 -i  Done                     04/25/2018 05:51:52
00023 suncat0221 pw.x -npool 4 -i  Done                     04/25/2018 05:51:52
00024 suncat0219 pw.x -npool 4 -i  Done                     04/25/2018 05:51:52
00025 suncat0219 pw.x -npool 4 -i  Done                     04/25/2018 05:51:52
00026 suncat0219 pw.x -npool 4 -i  Done                     04/25/2018 05:51:52
00027 suncat0219 pw.x -npool 4 -i  Done                     04/25/2018 05:51:52
00028 suncat0219 pw.x -npool 4 -i  Done                     04/25/2018 05:51:52
00029 suncat0219 pw.x -npool 4 -i  Done                     04/25/2018 05:51:52
00030 suncat0219 pw.x -npool 4 -i  Done                     04/25/2018 05:51:52
00031 suncat0219 pw.x -npool 4 -i  Done                     04/25/2018 05:51:52