     Program PWSCF v.5.1rc2 (svn rev. 11289) starts on 11Jan2019 at 12:38:21

     Current dimensions of program PWSCF are:
     Max number of different atomic species (ntypx) = 10
     Max number of k-points (npk) =  40000
     Max angular momentum in pseudopotentials (lmaxx) =  3

     IMPORTANT: XC functional enforced from input :
     Exchange-correlation      = BEEF-VDW ( 1  4 27 13 2)
     Any further DFT definition will be discarded
     Please, verify this is what you really want

     Subspace diagonalization in iterative solution of the eigenvalue problem:
     a serial algorithm will be used

     Generating pointlists ...
     new r_m :   0.1796 (alat units)  1.7571 (a.u.) for type    1
     new r_m :   0.1093 (alat units)  1.0697 (a.u.) for type    2
     new r_m :   0.1093 (alat units)  1.0697 (a.u.) for type    3

     bravais-lattice index     =            0
     lattice parameter (alat)  =       9.7861  a.u.
     unit-cell volume          =    3797.2498 (a.u.)^3
     number of atoms/cell      =           14
     number of atomic types    =            3
     number of electrons       =       199.00
     number of Kohn-Sham states=          109
     kinetic-energy cutoff     =      36.7493  Ry
     charge density cutoff     =     367.4933  Ry
     convergence threshold     =      1.0E-04
     mixing beta               =       0.1000
     number of iterations used =            8  plain     mixing
     Exchange-correlation      = BEEF-VDW ( 1  4 27 13 2)
     nstep                     =           50

     celldm(1)=   9.786074  celldm(2)=   0.000000  celldm(3)=   0.000000
     celldm(4)=   0.000000  celldm(5)=   0.000000  celldm(6)=   0.000000

     crystal axes: (cart. coord. in units of alat)
               a(1) = (   1.000000   0.000000   0.000000 )
               a(2) = (   0.500000   0.866025   0.000000 )
               a(3) = (   0.000000   0.000000   4.678568 )

     reciprocal axes: (cart. coord. in units 2 pi/alat)
               b(1) = (  1.000000 -0.577350  0.000000 )
               b(2) = (  0.000000  1.154701  0.000000 )
               b(3) = (  0.000000  0.000000  0.213741 )

     PseudoPot. # 1 for Fe read from file:
     /u/if/jboes/code/decaf-espresso/gbrv15pbe/Fe.UPF
     MD5 check sum: a130daea23fe5165f5d574ae7f82ed95
     Pseudo is Ultrasoft + core correction, Zval = 16.0
     Generated by new atomic code, or converted to UPF format
     Using radial grid of  861 points,  6 beta functions with:
                l(1) =   0
                l(2) =   0
                l(3) =   1
                l(4) =   1
                l(5) =   2
                l(6) =   2
     Q(r) pseudized with  8 coefficients,  rinner =    1.000   1.000   1.000
                                                       1.000   1.000

     PseudoPot. # 2 for S  read from file:
     /u/if/jboes/code/decaf-espresso/gbrv15pbe/S.UPF
     MD5 check sum: 88d86576ff6df21479756cfb9bdac1df
     Pseudo is Ultrasoft + core correction, Zval =  6.0
     Generated by new atomic code, or converted to UPF format
     Using radial grid of  907 points,  6 beta functions with:
                l(1) =   0
                l(2) =   0
                l(3) =   1
                l(4) =   1
                l(5) =   2
                l(6) =   2
     Q(r) pseudized with  8 coefficients,  rinner =    1.300   1.300   1.300
                                                       1.300   1.300

     PseudoPot. # 3 for H  read from file:
     /u/if/jboes/code/decaf-espresso/gbrv15pbe/H.UPF
     MD5 check sum: 761ae9a214b05c3daf00ab9f6b793d6f
     Pseudo is Ultrasoft, Zval =  1.0
     Generated by new atomic code, or converted to UPF format
     Using radial grid of  615 points,  2 beta functions with:
                l(1) =   0
                l(2) =   0
     Q(r) pseudized with  8 coefficients,  rinner =    0.700

     vdW kernel table read from file vdW_kernel_table
     MD5 check sum: 095c7af220d748ca6e76c0b4c6cfb241

     atomic species   valence    mass     pseudopotential
        Fe            16.00    55.84500     Fe( 1.00)
        S              6.00    32.06000     S ( 1.00)
        H              1.00     1.00800     H ( 1.00)

     Starting magnetic structure
     atomic species   magnetization
        Fe           0.188
        S            0.000
        H            0.000

     No symmetry found

   Cartesian axes

     site n.     atom                  positions (alat units)
         1           Fe  tau(   1) = (   0.2500000   0.1443376   1.9310359  )
         2           Fe  tau(   2) = (   0.7500000   0.1443376   1.9310359  )
         3           Fe  tau(   3) = (   0.5000000   0.5773503   1.9310359  )
         4           Fe  tau(   4) = (   1.0000000   0.5773503   1.9310359  )
         5           Fe  tau(   5) = (   1.0000000   0.2886751   2.3392842  )
         6           Fe  tau(   6) = (   0.5000000   0.2886751   2.3392842  )
         7           Fe  tau(   7) = (   1.2500000   0.7216878   2.3392842  )
         8           Fe  tau(   8) = (   0.7500000   0.7216878   2.3392842  )
         9           Fe  tau(   9) = (  -0.0041145  -0.0023764   2.7339552  )
        10           Fe  tau(  10) = (   0.5041059  -0.0023784   2.7339542  )
        11           Fe  tau(  11) = (   0.2499937   0.4377653   2.7339548  )
        12           Fe  tau(  12) = (   0.7500083   0.4330149   2.7309790  )
        13           S   tau(  13) = (   0.2500007   0.1443397   3.0554688  )
        14           H   tau(  14) = (   0.2500059   0.1443384   3.3204614  )

     number of k points=    40  Fermi-Dirac smearing, width (Ry)=  0.0110
                       cart. coord. in units 2pi/alat
        k(    1) = (   0.0000000   0.0000000   0.0000000), wk =   0.0277778
        k(    2) = (   0.0000000   0.1924501   0.0000000), wk =   0.0555556
        k(    3) = (   0.0000000   0.3849002   0.0000000), wk =   0.0555556
        k(    4) = (   0.0000000  -0.5773503   0.0000000), wk =   0.0277778
        k(    5) = (   0.1666667  -0.0962250   0.0000000), wk =   0.0555556
        k(    6) = (   0.1666667   0.0962250   0.0000000), wk =   0.0555556
        k(    7) = (   0.1666667   0.2886751   0.0000000), wk =   0.0555556
        k(    8) = (   0.1666667  -0.6735753   0.0000000), wk =   0.0555556
        k(    9) = (   0.1666667  -0.4811252   0.0000000), wk =   0.0555556
        k(   10) = (   0.1666667  -0.2886751   0.0000000), wk =   0.0555556
        k(   11) = (   0.3333333  -0.1924501   0.0000000), wk =   0.0555556
        k(   12) = (   0.3333333   0.0000000   0.0000000), wk =   0.0555556
        k(   13) = (   0.3333333   0.1924501   0.0000000), wk =   0.0555556
        k(   14) = (   0.3333333  -0.7698004   0.0000000), wk =   0.0555556
        k(   15) = (   0.3333333  -0.5773503   0.0000000), wk =   0.0555556
        k(   16) = (   0.3333333  -0.3849002   0.0000000), wk =   0.0555556
        k(   17) = (  -0.5000000   0.2886751   0.0000000), wk =   0.0277778
        k(   18) = (  -0.5000000   0.4811252   0.0000000), wk =   0.0555556
        k(   19) = (  -0.5000000   0.6735753   0.0000000), wk =   0.0555556
        k(   20) = (  -0.5000000  -0.2886751   0.0000000), wk =   0.0277778
        k(   21) = (   0.0000000   0.0000000   0.0000000), wk =   0.0277778
        k(   22) = (   0.0000000   0.1924501   0.0000000), wk =   0.0555556
        k(   23) = (   0.0000000   0.3849002   0.0000000), wk =   0.0555556
        k(   24) = (   0.0000000  -0.5773503   0.0000000), wk =   0.0277778
        k(   25) = (   0.1666667  -0.0962250   0.0000000), wk =   0.0555556
        k(   26) = (   0.1666667   0.0962250   0.0000000), wk =   0.0555556
        k(   27) = (   0.1666667   0.2886751   0.0000000), wk =   0.0555556
        k(   28) = (   0.1666667  -0.6735753   0.0000000), wk =   0.0555556
        k(   29) = (   0.1666667  -0.4811252   0.0000000), wk =   0.0555556
        k(   30) = (   0.1666667  -0.2886751   0.0000000), wk =   0.0555556
        k(   31) = (   0.3333333  -0.1924501   0.0000000), wk =   0.0555556
        k(   32) = (   0.3333333   0.0000000   0.0000000), wk =   0.0555556
        k(   33) = (   0.3333333   0.1924501   0.0000000), wk =   0.0555556
        k(   34) = (   0.3333333  -0.7698004   0.0000000), wk =   0.0555556
        k(   35) = (   0.3333333  -0.5773503   0.0000000), wk =   0.0555556
        k(   36) = (   0.3333333  -0.3849002   0.0000000), wk =   0.0555556
        k(   37) = (  -0.5000000   0.2886751   0.0000000), wk =   0.0277778
        k(   38) = (  -0.5000000   0.4811252   0.0000000), wk =   0.0555556
        k(   39) = (  -0.5000000   0.6735753   0.0000000), wk =   0.0555556
        k(   40) = (  -0.5000000  -0.2886751   0.0000000), wk =   0.0277778

     Largest allocated arrays     est. size (Mb)     dimensions
     Largest temporary arrays     est. size (Mb)     dimensions

     Check: negative/imaginary core charge=   -0.000008    0.000000

     Initial potential from superposition of free atoms

     starting charge  186.99989, renormalised to  199.00000

     negative rho (up, down):  9.989E-05 6.801E-05

     *
     * You are using vdW-DF for exchange-correlation in this calculation.
     * Please cite the following three references that made this development
     * possible:
     *
     *   M. Dion, H. Rydberg, E. Schroder, D. C. Langreth, and
     *   B. I. Lundqvist, Phys. Rev. Lett. 92, 246401 (2004).
     *
     *   T. Thonhauser, V. R. Cooper, S. Li, A. Puzder, P. Hyldgaard, and
     *   D. C. Langreth, Phys. Rev. B 76, 125112 (2007).
     *
     *   G. Roman-Perez and J. M. Soler, Phys. Rev. Lett. 103, 096102 (2009).
     *
     *
     * If you are using vdW-DF2, please also cite:
     *
     *   K. Lee, E. D. Murray, L. Kong, B. I. Lundqvist, and
     *   D. C. Langreth, Phys. Rev. B 82, 081101(R) (2010).
     *
     *
     * If you are calculating the stress with vdW-DF, please also cite:
     *
     *   R. Sabatini, E. Kucukbenli, B. Kolb, T. Thonhauser, and
     *   S. de Gironcoli, J. Phys.: Condens. Matter 24, 424209 (2012).
     *

     Carrying out vdW-DF run using the following parameters:

     Nqs =      20    Nr_points =    1024   r_max =   100.000
     q_mesh =
               0.00001000     0.04494208     0.09755937     0.15916263
               0.23128650     0.31572767     0.41458969     0.53033537
               0.66584808     0.82450364     1.01025438     1.22772762
               1.48234092     1.78043706     2.12944203     2.53805004
               3.01644009     3.57652955     4.23227104     5.00000000

     Gradients computed in reciprocal space

     Adding external electric field

     Computed dipole along edir(3) :
        Dipole               -3.3353 Ry au,         -8.4776 Debye
        Dipole field         -0.0110 Ry au

        Potential amp.        0.9096 Ry
        Total length         41.2063 bohr

[...]

     Starting wfc are  161 randomized atomic wfcs

     Self-consistent Calculation

     iteration #  1     ecut=    36.75 Ry     beta=0.10
     Davidson diagonalization with overlap
     ethr =  1.00E-02,  avg # of iterations =  6.1

[...]

     Magnetic moment per site:
     atom:    1    charge:   14.2350    magn:    2.4488    constr:    0.0000
[...]
     atom:   14    charge:    0.5667    magn:   -0.0010    constr:    0.0000

     total energy              =   -2939.63997305 Ry
     Harris-Foulkes estimate   =   -3052.54542901 Ry
     estimated scf accuracy    <     609.94105294 Ry

     total magnetization       =    12.25 Bohr mag/cell
     absolute magnetization    =    14.19 Bohr mag/cell

[...]

     iteration #122     ecut=    36.75 Ry     beta=0.10
     Davidson diagonalization with overlap
     c_bands:  1 eigenvalues not converged
     ethr =  1.18E-05,  avg # of iterations =  6.0

[...]

     End of self-consistent calculation

 ------ SPIN UP ------------

          k = 0.0000 0.0000 0.0000 ( 14285 PWs)   bands (ev):

   -87.0424 -86.9650 -86.9277 -86.9087 -86.9078 -86.8799 -86.8247 -86.8063
   -86.8008 -84.1907 -84.1658 -84.1477 -53.1178 -53.0920 -53.0902 -53.0844
   -53.0706 -53.0702 -53.0311 -53.0149 -53.0145 -53.0047 -52.9668 -52.9651
   -52.9281 -52.8747 -52.8586 -52.8548 -52.8286 -52.8256 -52.8242 -52.7935
   -52.7905 -52.7884 -52.7619 -52.7616 -52.7608 -52.6638 -52.6602 -50.4232
   -50.3403 -50.3280 -50.2854 -50.2749 -50.2711 -50.1801 -50.1188 -50.1053
   -12.8857  -6.5093  -5.5278  -3.8104  -3.0580  -3.0565  -2.9173  -2.8546
    -2.8538  -2.8524  -2.6478  -2.5313  -2.5310  -2.3658  -2.3392  -2.3391
    -1.7532  -1.7509  -1.6722  -1.4477  -1.4473  -1.0852  -1.0232  -0.9817
    -0.9795  -0.7747  -0.7746  -0.6954  -0.6889  -0.6887  -0.6219  -0.6113
    -0.6096  -0.5698  -0.2249  -0.2245   0.0040   0.0046   0.0505   0.1712
     0.1722   0.3202   0.4166   0.4173   0.5419   0.5443   0.5518   0.9286
     0.9323   0.9397   1.0331   1.0342   1.0570   1.1072   1.1089   1.1299
     1.5583   1.7213   1.7239   1.7946   1.7966

[...]

          k =-0.5000 0.2887 0.0000 ( 14254 PWs)   bands (ev):

[...]

 ------ SPIN DOWN ----------

[...]

     the Fermi energy is     1.7131 ev

!    total energy              =   -3041.60361201 Ry
     Harris-Foulkes estimate   =   -3041.60358770 Ry
     estimated scf accuracy    <       0.00008658 Ry

     The total energy is the sum of the following terms:

     one-electron contribution =  -26375.00858058 Ry
     hartree contribution      =   13192.43503190 Ry
     xc contribution           =    -372.95417477 Ry
     ewald contribution        =   10514.01651536 Ry
     electric field correction =       0.00022252 Ry
     smearing contrib. (-TS)   =      -0.09262644 Ry

[...]

     convergence has been achieved in 142 iterations

     Forces acting on atoms (Ry/au):

     negative rho (up, down):  5.544E-04 6.821E-04
     atom    1 type  1   force =     0.00021291    0.00003768    0.00420806
     atom    2 type  1   force =    -0.00016035   -0.00088494   -0.00112051
     atom    3 type  1   force =    -0.00071123    0.00029689   -0.00129523
     atom    4 type  1   force =     0.00077611    0.00053767   -0.00132475
     atom    5 type  1   force =    -0.00180105    0.00085874    0.00372667
     atom    6 type  1   force =     0.00181614    0.00076764    0.00373100
     atom    7 type  1   force =     0.00001271    0.00025924    0.00777503
     atom    8 type  1   force =     0.00006191   -0.00182038    0.00394036
     atom    9 type  1   force =    -0.00430270   -0.00259845    0.00258793
     atom   10 type  1   force =     0.00389630   -0.00206637    0.00156778
     atom   11 type  1   force =     0.00022579    0.00437036    0.00119863
     atom   12 type  1   force =    -0.00029323   -0.00002127   -0.02893917
     atom   13 type  2   force =     0.00022410    0.00021943    0.00334118
     atom   14 type  3   force =     0.00004257    0.00004376    0.00060302

     Total force =     0.030392     Total SCF correction =     0.005972
     SCF correction compared to forces is large: reduce conv_thr to get better values

     BFGS Geometry Optimization

     number of scf cycles    =   1
     number of bfgs steps    =   0

     energy   new            =   -3041.6036120122 Ry

     new trust radius        =       0.0289406642 bohr
     new conv_thr            =       0.0001000000 Ry

ATOMIC_POSITIONS (angstrom)
Fe       1.294641895   0.747461846  10.000000000    0   0   0
Fe       3.883925684   0.747461846  10.000000000    0   0   0
Fe       2.589283790   2.989847386  10.000000000    0   0   0
Fe       5.178567579   2.989847386  10.000000000    0   0   0
Fe       5.178567579   1.494923693  12.114141361    0   0   0
Fe       2.589283790   1.494923693  12.114141361    0   0   0
Fe       6.473209474   3.737309232  12.114141361    0   0   0
Fe       3.883925684   3.737309232  12.114141361    0   0   0
Fe      -0.023584319  -0.013681592  14.159341023
Fe       2.612608435  -0.013410246  14.158796218
Fe       1.294728687   2.269309796  14.158603826
Fe       3.883813278   2.242385922  14.127245383
S        1.294764025   0.747589108  15.824719497
H        1.294694799   0.747489476  17.195552754

     Writing output data file calc.save
     Check: negative starting charge=(component1):   -0.000158
     NEW-OLD atomic charge density approx. for the potential

     Check: negative/imaginary core charge=   -0.000008    0.000000
     Check: negative starting charge=(component1):   -0.000159

[...]

     energy   old            =   -3041.6036120122 Ry
     energy   new            =   -3041.6045388586 Ry

     CASE: energy  _new < energy  _old

     WARNING: bfgs curvature condition failed, Theta= 0.904
     new trust radius        =       0.0434109962 bohr
     new conv_thr            =       0.0000010000 Ry

[...]

     Total force =     0.014537     Total SCF correction =     0.000733

[...]

     iteration #  1     ecut=    36.75 Ry     beta=0.10
     Davidson diagonalization with overlap
     c_bands:  1 eigenvalues not converged
     c_bands:  1 eigenvalues not converged
     c_bands:  1 eigenvalues not converged
     ethr =  1.00E-06,  avg # of iterations =  7.9

[...]

     number of scf cycles    =  13
     number of bfgs steps    =  12

     energy   old            =   -3041.6102969472 Ry
     energy   new            =   -3041.6103628533 Ry

     CASE: energy  _new < energy  _old

     new trust radius        =       0.0250927821 bohr
     new conv_thr            =       0.0000010000 Ry

ATOMIC_POSITIONS (angstrom)
Fe       1.294641895   0.747461846  10.000000000    0   0   0
Fe       3.883925684   0.747461846  10.000000000    0   0   0
Fe       2.589283790   2.989847386  10.000000000    0   0   0
Fe       5.178567579   2.989847386  10.000000000    0   0   0
Fe       5.178567579   1.494923693  12.114141361    0   0   0
Fe       2.589283789   1.494923693  12.114141361    0   0   0
Fe       6.473209474   3.737309232  12.114141361    0   0   0
Fe       3.883925684   3.737309232  12.114141361    0   0   0
Fe      -0.027043457  -0.015706083  14.203812532
Fe       2.616453570  -0.015873964  14.203842572
Fe       1.294534950   2.273989539  14.203576225
Fe       3.883677437   2.242109009  13.948236240
S        1.294709271   0.747397202  15.885954741
H        1.295106777   0.747929916  17.257153896

     Writing output data file calc.save
     Check: negative starting charge=(component1):   -0.000157
     NEW-OLD atomic charge density approx. for the potential

     Check: negative/imaginary core charge=   -0.000008    0.000000
     Check: negative starting charge=(component1):   -0.000157

[...]

     Self-consistent Calculation

[...]

     total energy              =   -3041.61040884 Ry
     Harris-Foulkes estimate   =   -3041.61040768 Ry
     estimated scf accuracy    <       0.00000393 Ry

[...]

     iteration # 16     ecut=    36.75 Ry     beta=0.10
     Davidson diagonalization with overlap
     ethr =  1.98E-09,  avg # of iterations =  2.1

     negative rho (up, down):  5.392E-04 7.030E-04

[...]

     Adding external electric field

     Computed dipole along edir(3) :
        Dipole                0.2353 Ry au,          0.5981 Debye
        Dipole field          0.0008 Ry au

        Potential amp.       -0.0642 Ry
        Total length         41.2063 bohr

     Magnetic moment per site:
     atom:    1    charge:   13.8643    magn:    2.7319    constr:    0.0000
     atom:    2    charge:   13.8675    magn:    2.7085    constr:    0.0000
     atom:    3    charge:   13.8675    magn:    2.7085    constr:    0.0000
     atom:    4    charge:   13.8676    magn:    2.7085    constr:    0.0000
     atom:    5    charge:   13.9137    magn:    2.3387    constr:    0.0000
     atom:    6    charge:   13.9137    magn:    2.3385    constr:    0.0000
     atom:    7    charge:   13.8942    magn:    2.4235    constr:    0.0000
     atom:    8    charge:   13.9136    magn:    2.3391    constr:    0.0000
     atom:    9    charge:   13.8982    magn:   -2.3355    constr:    0.0000
     atom:   10    charge:   13.8976    magn:   -2.3358    constr:    0.0000
     atom:   11    charge:   13.8974    magn:   -2.3358    constr:    0.0000
     atom:   12    charge:   13.7548    magn:    2.1585    constr:    0.0000
     atom:   13    charge:    0.9640    magn:   -0.0134    constr:    0.0000
     atom:   14    charge:    0.7067    magn:   -0.0081    constr:    0.0000

     End of self-consistent calculation

 ------ SPIN UP ------------

[...]

 ------ SPIN DOWN ----------

[...]

          k = 0.3333-0.3849 0.0000 ( 14261 PWs)   bands (ev):

[...]

          k =-0.5000-0.2887 0.0000 ( 14254 PWs)   bands (ev):

   -87.0795 -87.0694 -87.0609 -84.0701 -83.9108 -83.8759 -83.8652 -83.8586
   -83.5633 -83.5621 -83.5443 -83.5433 -53.2543 -53.2445 -53.2356 -53.1460
   -53.1197 -53.0889 -52.9610 -52.8930 -52.8293 -50.2215 -50.2143 -50.2126
   -50.0782 -50.0534 -50.0518 -50.0196 -50.0077 -49.9784 -49.9711 -49.9309
   -49.9275 -49.8692 -49.8642 -49.8278 -49.7441 -49.7415 -49.6674 -49.6640
   -49.6513 -49.6489 -49.6468 -49.6467 -49.6392 -49.6375 -49.5659 -49.5652
   -12.9124  -6.2369  -4.2678  -3.9560  -3.2334  -3.0021  -2.3737  -2.3440
    -1.9675  -1.8538  -1.7468  -1.6796  -1.5394  -1.4629  -1.1779  -1.1207
    -1.0687  -1.0074  -0.9462  -0.8706  -0.7426  -0.7240  -0.4881  -0.2107
    -0.0321  -0.0020   0.0802   0.1218   0.2425   0.2746   0.3840   0.4080
     0.5921   0.6689   0.7540   0.8777   0.9294   1.0625   1.0908   1.1171
     1.2146   1.3183   1.5237   1.5549   1.6094   1.6601   1.6659   2.0063
     2.0848   2.2525   2.3023   2.3762   2.4684   2.6493   2.6608   2.7769
     2.8002   2.8100   2.9728   2.9994   3.0460

     the Fermi energy is     1.6603 ev

!    total energy              =   -3041.61041638 Ry
     Harris-Foulkes estimate   =   -3041.61041147 Ry
     estimated scf accuracy    <       0.00000093 Ry

     The total energy is the sum of the following terms:

     one-electron contribution =  -26384.56191025 Ry
     hartree contribution      =   13197.11775362 Ry
     xc contribution           =    -372.99155746 Ry
     ewald contribution        =   10518.91697069 Ry
     electric field correction =       0.00018326 Ry
     smearing contrib. (-TS)   =      -0.09185624 Ry

     total magnetization       =    15.55 Bohr mag/cell
     absolute magnetization    =    31.45 Bohr mag/cell

     convergence has been achieved in  16 iterations

     Forces acting on atoms (Ry/au):

     negative rho (up, down):  5.392E-04 7.030E-04
     atom    1 type  1   force =    -0.00000323   -0.00000975    0.00372563
     atom    2 type  1   force =     0.00000884   -0.00044024   -0.00260708
     atom    3 type  1   force =    -0.00037427    0.00023199   -0.00260103
     atom    4 type  1   force =     0.00038217    0.00022790   -0.00259285
     atom    5 type  1   force =     0.00401405   -0.00224450   -0.00421547
     atom    6 type  1   force =    -0.00401149   -0.00230434   -0.00419437
     atom    7 type  1   force =    -0.00004331   -0.00003621    0.01332785
     atom    8 type  1   force =     0.00005192    0.00459956   -0.00422143
     atom    9 type  1   force =    -0.00073147   -0.00041088    0.00029868
     atom   10 type  1   force =     0.00067922   -0.00038095    0.00031773
     atom   11 type  1   force =     0.00000063    0.00071023    0.00037254
     atom   12 type  1   force =     0.00002626    0.00000793    0.00184150
     atom   13 type  2   force =     0.00000307    0.00005833    0.00005078
     atom   14 type  3   force =    -0.00000239   -0.00000906    0.00049751

     Total force =     0.002406     Total SCF correction =     0.002417
     SCF correction compared to forces is large: reduce conv_thr to get better values

     bfgs converged in  14 scf cycles and  13 bfgs steps
     (criteria: energy <  1.0E+12, force <  1.9E-03)

     End of BFGS Geometry Optimization

     Final energy   =   -3041.6104163777 Ry
Begin final coordinates

ATOMIC_POSITIONS (angstrom)
Fe       1.294641895   0.747461846  10.000000000    0   0   0
Fe       3.883925684   0.747461846  10.000000000    0   0   0
Fe       2.589283790   2.989847386  10.000000000    0   0   0
Fe       5.178567579   2.989847386  10.000000000    0   0   0
Fe       5.178567579   1.494923693  12.114141361    0   0   0
Fe       2.589283789   1.494923693  12.114141361    0   0   0
Fe       6.473209474   3.737309232  12.114141361    0   0   0
Fe       3.883925684   3.737309232  12.114141361    0   0   0
Fe      -0.027043457  -0.015706083  14.203812532
Fe       2.616453570  -0.015873964  14.203842572
Fe       1.294534950   2.273989539  14.203576225
Fe       3.883677437   2.242109009  13.948236240
S        1.294709271   0.747397202  15.885954741
H        1.295106777   0.747929916  17.257153896
End final coordinates

     Writing output data file calc.save

     General routines

     Parallel routines

   This run was terminated on:  15:58:44  11Jan2019

   JOB DONE.
Job  /afs/slac/g/suncat/bin/suncat-tsmpirun -x LD_LIBRARY_PATH -wdir /tmp/qe_623120oyjmdxss_scratch pw.x -npool 3 -in pw.pwi

TID   HOST_NAME   COMMAND_LINE            STATUS            TERMINATION_TIME
00000 suncat1059 pw.x -npool 3 -i  Done                     01/11/2019 15:58:44
00001 suncat1059 pw.x -npool 3 -i  Done                     01/11/2019 15:58:44
00002 suncat1059 pw.x -npool 3 -i  Done                     01/11/2019 15:58:44
00003 suncat1059 pw.x -npool 3 -i  Done                     01/11/2019 15:58:44
00004 suncat1059 pw.x -npool 3 -i  Done                     01/11/2019 15:58:44
00005 suncat1059 pw.x -npool 3 -i  Done                     01/11/2019 15:58:44
00006 suncat1059 pw.x -npool 3 -i  Done                     01/11/2019 15:58:44
00007 suncat1059 pw.x -npool 3 -i  Done                     01/11/2019 15:58:44
00008 suncat1059 pw.x -npool 3 -i  Done                     01/11/2019 15:58:44
00009 suncat1059 pw.x -npool 3 -i  Done                     01/11/2019 15:58:44
00010 suncat1059 pw.x -npool 3 -i  Done                     01/11/2019 15:58:44
00011 suncat1059 pw.x -npool 3 -i  Done                     01/11/2019 15:58:44
00012 suncat1058 pw.x -npool 3 -i  Done                     01/11/2019 15:58:44
00013 suncat1058 pw.x -npool 3 -i  Done                     01/11/2019 15:58:44
00014 suncat1058 pw.x -npool 3 -i  Done                     01/11/2019 15:58:44
00015 suncat1058 pw.x -npool 3 -i  Done                     01/11/2019 15:58:44
00016 suncat1058 pw.x -npool 3 -i  Done                     01/11/2019 15:58:44
00017 suncat1058 pw.x -npool 3 -i  Done                     01/11/2019 15:58:44
00018 suncat1058 pw.x -npool 3 -i  Done                     01/11/2019 15:58:44
00019 suncat1058 pw.x -npool 3 -i  Done                     01/11/2019 15:58:44
00020 suncat1058 pw.x -npool 3 -i  Done                     01/11/2019 15:58:44
00021 suncat1058 pw.x -npool 3 -i  Done                     01/11/2019 15:58:44
00022 suncat1058 pw.x -npool 3 -i  Done                     01/11/2019 15:58:44
00023 suncat1058 pw.x -npool 3 -i  Done                     01/11/2019 15:58:44
00024 suncat1055 pw.x -npool 3 -i  Done                     01/11/2019 15:58:44
00025 suncat1055 pw.x -npool 3 -i  Done                     01/11/2019 15:58:44
00026 suncat1055 pw.x -npool 3 -i  Done                     01/11/2019 15:58:44
00027 suncat1055 pw.x -npool 3 -i  Done                     01/11/2019 15:58:44
00028 suncat1055 pw.x -npool 3 -i  Done                     01/11/2019 15:58:44
00029 suncat1055 pw.x -npool 3 -i  Done                     01/11/2019 15:58:44
00030 suncat1055 pw.x -npool 3 -i  Done                     01/11/2019 15:58:44
00031 suncat1055 pw.x -npool 3 -i  Done                     01/11/2019 15:58:44
00032 suncat1055 pw.x -npool 3 -i  Done                     01/11/2019 15:58:44
00033 suncat1055 pw.x -npool 3 -i  Done                     01/11/2019 15:58:44
00034 suncat1055 pw.x -npool 3 -i  Done                     01/11/2019 15:58:44
00035 suncat1055 pw.x -npool 3 -i  Done                     01/11/2019 15:58:44