     Program PWSCF v.5.1rc2 (svn rev. ) starts on 18Apr2018 at  2:33:52

     Current dimensions of program PWSCF are:
     Max number of different atomic species (ntypx) = 10
     Max number of k-points (npk) =  40000
     Max angular momentum in pseudopotentials (lmaxx) =  3
     Presently stress not available with electric field

     IMPORTANT: XC functional enforced from input :
     Exchange-correlation      = BEEF-VDW ( 1  4 27 13 2)
     Any further DFT definition will be discarded
     Please, verify this is what you really want

     Subspace diagonalization in iterative solution of the eigenvalue problem:
     a serial algorithm will be used

     bravais-lattice index     =            0
     lattice parameter (alat)  =       1.8897  a.u.
     unit-cell volume          =    6024.3322 (a.u.)^3
     number of atoms/cell      =           14
     number of atomic types    =            3
     number of electrons       =       150.00
     number of Kohn-Sham states=           85
     kinetic-energy cutoff     =      36.7493  Ry
     charge density cutoff     =     367.4932  Ry
     convergence threshold     =      1.0E-05
     mixing beta               =       0.3000
     number of iterations used =           10  plain     mixing
     Exchange-correlation      = BEEF-VDW ( 1  4 27 13 2)
     nstep                     =           50

     celldm(1)=   1.889726  celldm(2)=   0.000000  celldm(3)=   0.000000
     celldm(4)=   0.000000  celldm(5)=   0.000000  celldm(6)=   0.000000

     crystal axes: (cart. coord. in units of alat)
               a(1) = (   6.393197   0.000000   0.000000 )
               a(2) = (   3.196599   5.536671   0.000000 )
               a(3) = (   0.000000   0.000000  25.220024 )

     reciprocal axes: (cart. coord. in units 2 pi/alat)
               b(1) = (  0.156416 -0.090307  0.000000 )
               b(2) = (  0.000000  0.180614  0.000000 )
               b(3) = (  0.000000  0.000000  0.039651 )

     PseudoPot. # 1 for Hf read from file:
     /home/mamunm/src/pseudo/gbrv1.5pbe/Hf.UPF
     MD5 check sum: 8ee9378dfe14276e333edf04c5e4aa26
     Pseudo is Ultrasoft + core correction, Zval = 12.0
     Generated by new atomic code, or converted to UPF format
     Using radial grid of  921 points,  8 beta functions with:
                l(1) =   0
                l(2) =   0
                l(3) =   0
                l(4) =   1
                l(5) =   1
                l(6) =   2
                l(7) =   2
                l(8) =   3
     Q(r) pseudized with  6 coefficients,  rinner =    1.200   1.200   1.200
                                                       1.200   1.200   1.200
                                                       1.200

     PseudoPot. # 2 for N  read from file:
     /home/mamunm/src/pseudo/gbrv1.5pbe/N.UPF
     MD5 check sum: 95339753478d7afb44899504a8723017
     Pseudo is Ultrasoft + core correction, Zval =  5.0
     Generated by new atomic code, or converted to UPF format
     Using radial grid of  729 points,  4 beta functions with:
                l(1) =   0
                l(2) =   0
                l(3) =   1
                l(4) =   1
     Q(r) pseudized with  8 coefficients,  rinner =    0.900   0.900   0.900

     PseudoPot. # 3 for H  read from file:
     /home/mamunm/src/pseudo/gbrv1.5pbe/H.UPF
     MD5 check sum: 761ae9a214b05c3daf00ab9f6b793d6f
     Pseudo is Ultrasoft, Zval =  1.0
     Generated by new atomic code, or converted to UPF format
     Using radial grid of  615 points,  2 beta functions with:
                l(1) =   0
                l(2) =   0
     Q(r) pseudized with  8 coefficients,  rinner =    0.700

     vdW kernel table read from file vdW_kernel_table
     MD5 check sum: 095c7af220d748ca6e76c0b4c6cfb241

     atomic species   valence    mass     pseudopotential
        Hf1           12.00   178.49000     Hf( 1.00)
        N1             5.00    14.00700     N ( 1.00)
        H1             1.00     1.00800     H ( 1.00)

     No symmetry found

   Cartesian axes

     site n.     atom                  positions (alat units)
         1           Hf1 tau(   1) = (   1.5982993   0.9227785  10.0000000  )
         2           Hf1 tau(   2) = (   4.7948978   0.9227785  10.0000000  )
         3           Hf1 tau(   3) = (   3.1965986   3.6911141  10.0000000  )
         4           Hf1 tau(   4) = (   6.3931971   3.6911141  10.0000000  )
         5           Hf1 tau(   5) = (   6.3931971   1.8455570  12.6100118  )
         6           Hf1 tau(   6) = (   3.1965986   1.8455570  12.6100118  )
         7           Hf1 tau(   7) = (   7.9914964   4.6138926  12.6100118  )
         8           Hf1 tau(   8) = (   4.7948978   4.6138926  12.6100118  )
         9           Hf1 tau(   9) = (   0.0000000   0.0000000  15.2200236  )
        10           Hf1 tau(  10) = (   3.1965986   0.0000000  15.2200236  )
        11           Hf1 tau(  11) = (   1.5982993   2.7683356  15.2200236  )
        12           Hf1 tau(  12) = (   4.7948978   2.7683356  15.2200236  )
        13           N1  tau(  13) = (   3.1965986   1.8455570  16.8190236  )
        14           H1  tau(  14) = (   3.1965986   1.8455570  17.8690236  )

     number of k points=    20  Fermi-Dirac smearing, width (Ry)=  0.0110
                       cart. coord. in units 2pi/alat
        k(    1) = (   0.0000000   0.0000000   0.0000000), wk =   0.0555556
        k(    2) = (   0.0000000   0.0301023   0.0000000), wk =   0.1111111
        k(    3) = (   0.0000000   0.0602046   0.0000000), wk =   0.1111111
        k(    4) = (   0.0000000  -0.0903070   0.0000000), wk =   0.0555556
        k(    5) = (   0.0260694  -0.0150512   0.0000000), wk =   0.1111111
        k(    6) = (   0.0260694   0.0150512   0.0000000), wk =   0.1111111
        k(    7) = (   0.0260694   0.0451535   0.0000000), wk =   0.1111111
        k(    8) = (   0.0260694  -0.1053581   0.0000000), wk =   0.1111111
        k(    9) = (   0.0260694  -0.0752558   0.0000000), wk =   0.1111111
        k(   10) = (   0.0260694  -0.0451535   0.0000000), wk =   0.1111111
        k(   11) = (   0.0521388  -0.0301023   0.0000000), wk =   0.1111111
        k(   12) = (   0.0521388   0.0000000   0.0000000), wk =   0.1111111
        k(   13) = (   0.0521388   0.0301023   0.0000000), wk =   0.1111111
        k(   14) = (   0.0521388  -0.1204093   0.0000000), wk =   0.1111111
        k(   15) = (   0.0521388  -0.0903070   0.0000000), wk =   0.1111111
        k(   16) = (   0.0521388  -0.0602046   0.0000000), wk =   0.1111111
        k(   17) = (  -0.0782081   0.0451535   0.0000000), wk =   0.0555556
        k(   18) = (  -0.0782081   0.0752558   0.0000000), wk =   0.1111111
        k(   19) = (  -0.0782081   0.1053581   0.0000000), wk =   0.1111111
        k(   20) = (  -0.0782081  -0.0451535   0.0000000), wk =   0.0555556

     Largest allocated arrays     est. size (Mb)     dimensions
     Largest temporary arrays     est. size (Mb)     dimensions

     Check: negative/imaginary core charge=   -0.000003    0.000000

     Initial potential from superposition of free atoms
     Check: negative starting charge=   -1.301362

     starting charge  125.99996, renormalised to  150.00000

     negative rho (up, down):  1.549E+00 0.000E+00

     *
     * You are using vdW-DF for exchange-correlation in this calculation.
     * Please cite the following three references that made this development
     * possible:
     *
     *   M. Dion, H. Rydberg, E. Schroder, D. C. Langreth, and
     *   B. I. Lundqvist, Phys. Rev. Lett. 92, 246401 (2004).
     *
     *   T. Thonhauser, V. R. Cooper, S. Li, A. Puzder, P. Hyldgaard, and
     *   D. C. Langreth, Phys. Rev. B 76, 125112 (2007).
     *
     *   G. Roman-Perez and J. M. Soler, Phys. Rev. Lett. 103, 096102 (2009).
     *
     *
     * If you are using vdW-DF2, please also cite:
     *
     *   K. Lee, E. D. Murray, L. Kong, B. I. Lundqvist, and
     *   D. C. Langreth, Phys. Rev. B 82, 081101(R) (2010).
     *
     *
     * If you are calculating the stress with vdW-DF, please also cite:
     *
     *   R. Sabatini, E. Kucukbenli, B. Kolb, T. Thonhauser, and
     *   S. de Gironcoli, J. Phys.: Condens. Matter 24, 424209 (2012).
     *

     Carrying out vdW-DF run using the following parameters:

     Nqs =      20    Nr_points =    1024   r_max =   100.000
     q_mesh =
               0.00001000     0.04494208     0.09755937     0.15916263
               0.23128650     0.31572767     0.41458969     0.53033537
               0.66584808     0.82450364     1.01025438     1.22772762
               1.48234092     1.78043706     2.12944203     2.53805004
               3.01644009     3.57652955     4.23227104     5.00000000

     Gradients computed in reciprocal space

     Adding external electric field

     Computed dipole along edir(3) :
        Dipole               -9.4679 Ry au,        -24.0651 Debye
        Dipole field         -0.0197 Ry au

        Potential amp.        1.8354 Ry
        Total length         46.4675 bohr

     Starting wfc are  161 randomized atomic wfcs

     Self-consistent Calculation

     iteration #  1     ecut=    36.75 Ry     beta=0.30
     Davidson diagonalization with overlap
     ethr =  1.00E-02,  avg # of iterations =  9.7

[...]

     total energy              =   -1287.48057731 Ry
     Harris-Foulkes estimate   =   -1939.21141999 Ry
     estimated scf accuracy    <    1398.31878106 Ry

     iteration #  2     ecut=    36.75 Ry     beta=0.30
     Davidson diagonalization with overlap
     c_bands:  5 eigenvalues not converged
     c_bands:  5 eigenvalues not converged
     ethr =  1.00E-02,  avg # of iterations = 21.5

[...]

     End of self-consistent calculation

          k = 0.0000 0.0000 0.0000 ( 22729 PWs)   bands (ev):

   -61.0876 -61.0288 -61.0236 -61.0071 -61.0069 -60.9918 -60.9914 -60.9828
   -60.6064 -60.5782 -60.5775 -60.5400 -29.8258 -29.8257 -29.7988 -29.7676
   -29.7670 -29.7668 -29.7507 -29.6680 -29.6095 -29.6092 -29.6001 -29.5489
   -29.5248 -29.5245 -29.4005 -29.4002 -29.4001 -29.3620 -29.3605 -29.3604
   -29.3062 -29.2983 -29.2980 -29.2643 -29.2642 -29.2332 -29.2332 -29.0683
   -29.0613 -29.0606 -29.0151 -28.9744 -28.9541 -28.9537 -28.8378 -28.8378
   -13.0010  -5.1250  -4.4484  -3.2530  -2.1742  -1.7570  -1.7569  -1.4114
    -1.2154  -1.2154  -1.0267  -1.0187  -1.0187  -0.4105  -0.2939  -0.2939
    -0.0995  -0.0350  -0.0350   0.7825   0.7826   0.7864   1.6117   1.7388
     1.9718   1.9909   1.9910   2.0718   2.2541   2.2542   2.4501   2.5413
     2.7467   2.7468   2.8031   2.9151   2.9153

[...]

          k =-0.0782 0.0452 0.0000 ( 22668 PWs)   bands (ev):

[...]

     the Fermi energy is     1.6116 ev

!    total energy              =   -1948.27455552 Ry
     Harris-Foulkes estimate   =   -1948.27457777 Ry
     estimated scf accuracy    <       0.00000607 Ry

     The total energy is the sum of the following terms:

     one-electron contribution =   -8583.23591318 Ry
     hartree contribution      =    4277.85048731 Ry
     xc contribution           =    -933.94864971 Ry
     ewald contribution        =    3291.17479043 Ry
     electric field correction =       0.00006376 Ry
     smearing contrib. (-TS)   =      -0.11533413 Ry

     convergence has been achieved in  30 iterations

 BEEF-vdW xc energy contributions
           1 :   -844.287827033577
           2 :    784.496233958125
           3 :   -678.608568216572
           4 :    548.586002621863
           5 :   -417.092656704993
           6 :    301.139188653629
           7 :   -209.322255620657
           8 :    142.765424569144
           9 :   -98.1970344928654
          10 :    70.9440265801431
          11 :   -56.4918395034132
          12 :    50.5623878290747
          13 :   -48.7010839790222
          14 :    46.3633220497550
          15 :   -39.8334151923888
          16 :    27.4568408934089
          17 :   -10.3444163907842
          18 :   -8.05518726880712
          19 :    23.4169070566911
          20 :   -32.3414139044197
          21 :    33.6086075235481
          22 :   -28.3640946421505
          23 :    19.3192756389420
          24 :   -9.55060351049417
          25 :    1.54276855973865
          26 :    3.18517350060836
          27 :   -3.99034779482565
          28 :   0.907067122575199
          29 :    5.39178156601076
          30 :   -13.5104383953343
          31 :   -60.8564045046454
          32 :   -43.7328223541085

     Forces acting on atoms (Ry/au):

     negative rho (up, down):  1.380E+00 0.000E+00
     atom    1 type  1   force =    -0.00003892    0.00003243    0.02458488
     atom    2 type  1   force =     0.00003855    0.00012571    0.02449543
     atom    3 type  1   force =     0.00007838   -0.00006141    0.02445453
     atom    4 type  1   force =    -0.00008070   -0.00010948    0.02529935
     atom    5 type  1   force =     0.00002705   -0.00086033   -0.00484978
     atom    6 type  1   force =    -0.00003612   -0.00002435    0.00081064
     atom    7 type  1   force =     0.00074606    0.00042533   -0.00485170
     atom    8 type  1   force =    -0.00073213    0.00046261   -0.00487196
     atom    9 type  1   force =     0.00011215    0.00012999   -0.04589100
     atom   10 type  1   force =    -0.00010669    0.03835026    0.03487283
     atom   11 type  1   force =     0.03308975   -0.01930057    0.03480771
     atom   12 type  1   force =    -0.03310694   -0.01918393    0.03472737
     atom   13 type  2   force =     0.00000750    0.00001106   -0.09832613
     atom   14 type  3   force =     0.00000205    0.00000268   -0.04526215

     Total force =     0.147847     Total SCF correction =     0.001642

     entering subroutine stress ...

     negative rho (up, down):  1.380E+00 0.000E+00
          total   stress  (Ry/bohr**3)                   (kbar)     P=  -29.70
  -0.00017479   0.00000000   0.00000001        -25.71      0.00      0.00
   0.00000000  -0.00017479   0.00000001          0.00    -25.71      0.00
   0.00000001   0.00000001  -0.00025605          0.00      0.00    -37.67

     BFGS Geometry Optimization

     number of scf cycles    =   1
     number of bfgs steps    =   0

     energy   new            =   -1948.2745555179 Ry

     new trust radius        =       0.0983261350 bohr
     new conv_thr            =       0.0000099958 Ry

ATOMIC_POSITIONS (crystal)
Hf1      0.166666667   0.166666667   0.396510335    0   0   0
Hf1      0.666666667   0.166666667   0.396510335    0   0   0
Hf1      0.166666667   0.666666667   0.396510335    0   0   0
Hf1      0.666666667   0.666666667   0.396510335    0   0   0
Hf1      0.833333333   0.333333333   0.500000000    0   0   0
Hf1      0.333333333   0.333333333   0.500000000    0   0   0
Hf1      0.833333333   0.833333333   0.500000000    0   0   0
Hf1      0.333333333   0.833333333   0.500000000    0   0   0
Hf1      0.000003071   0.000012424   0.602526761
Hf1      0.498158472   0.003665394   0.604221382
Hf1      0.003661246   0.498155313   0.604220015
Hf1      0.498176444   0.498166462   0.604218330
N1       0.333333426   0.333334390   0.664828547
H1       0.333333375   0.333333589   0.707575543

     Writing output data file calc.save
     Check: negative starting charge=   -1.301362
     NEW-OLD atomic charge density approx. for the potential

     Check: negative/imaginary core charge=   -0.000003    0.000000
     Check: negative starting charge=   -1.298726

[...]

     energy   old            =   -1948.2745555179 Ry
     energy   new            =   -1948.2939412515 Ry

     CASE: energy  _new < energy  _old

[...]

     iteration #  1     ecut=    36.75 Ry     beta=0.30
     Davidson diagonalization with overlap
     c_bands:  1 eigenvalues not converged
     c_bands:  1 eigenvalues not converged
     c_bands:  1 eigenvalues not converged
     ethr =  1.00E-06,  avg # of iterations = 14.3

[...]

     Total force =     0.005819     Total SCF correction =     0.000713
     SCF correction compared to forces is large: reduce conv_thr to get better values

[...]

     Total force =     0.007242     Total SCF correction =     0.000521

[...]

     number of scf cycles    =  18
     number of bfgs steps    =  17

     energy   old            =   -1948.3594336623 Ry
     energy   new            =   -1948.3594790567 Ry

     CASE: energy  _new < energy  _old

     new trust radius        =       0.0026416125 bohr
     new conv_thr            =       0.0000001000 Ry

ATOMIC_POSITIONS (crystal)
Hf1      0.166666667   0.166666667   0.396510335    0   0   0
Hf1      0.666666667   0.166666667   0.396510335    0   0   0
Hf1      0.166666667   0.666666667   0.396510335    0   0   0
Hf1      0.666666667   0.666666667   0.396510335    0   0   0
Hf1      0.833333333   0.333333333   0.500000000    0   0   0
Hf1      0.333333333   0.333333333   0.500000000    0   0   0
Hf1      0.833333333   0.833333333   0.500000000    0   0   0
Hf1      0.333333333   0.833333333   0.500000000    0   0   0
Hf1      0.000000555   0.000003562   0.593036335
Hf1      0.499305134   0.001386100   0.600689239
Hf1      0.001386670   0.499304232   0.600688919
Hf1      0.499306730   0.499305535   0.600688415
N1       0.333332995   0.333335262   0.646929533
H1       0.333333550   0.333340582   0.687670881

     Writing output data file calc.save
     Check: negative starting charge=   -1.299735
     NEW-OLD atomic charge density approx. for the potential

     Check: negative/imaginary core charge=   -0.000003    0.000000
     Check: negative starting charge=   -1.299595

[...]

     Self-consistent Calculation

[...]

     total energy              =   -1948.35948878 Ry
     Harris-Foulkes estimate   =   -1948.35948887 Ry
     estimated scf accuracy    <       0.00000019 Ry

     iteration #  8     ecut=    36.75 Ry     beta=0.30
     Davidson diagonalization with overlap
     ethr =  1.29E-10,  avg # of iterations =  3.8

[...]

     negative rho (up, down):  1.377E+00 0.000E+00

     Adding external electric field

     Computed dipole along edir(3) :
        Dipole                0.3050 Ry au,          0.7753 Debye
        Dipole field          0.0006 Ry au

        Potential amp.       -0.0591 Ry
        Total length         46.4675 bohr

     End of self-consistent calculation

[...]

          k = 0.0521-0.0602 0.0000 ( 22643 PWs)   bands (ev):

[...]

          k =-0.0782-0.0452 0.0000 ( 22668 PWs)   bands (ev):

   -60.8899 -60.8892 -60.8728 -60.8720 -60.7526 -60.7437 -60.7344 -60.5952
   -60.3491 -60.3472 -60.3329 -60.3297 -29.5589 -29.5551 -29.5031 -29.5012
   -29.4980 -29.4442 -29.4428 -29.4246 -29.4124 -29.4050 -29.3772 -29.3675
   -29.3622 -29.3577 -29.3291 -29.3256 -29.3183 -29.2789 -29.2637 -29.1813
   -29.1783 -29.1635 -29.0804 -29.0211 -29.0000 -28.9667 -28.8687 -28.8608
   -28.8335 -28.8329 -28.8020 -28.8015 -28.7967 -28.7677 -28.6788 -28.6702
   -14.0329  -5.4424  -3.4003  -3.0859  -2.5452  -2.3570  -1.7865  -1.4137
    -0.8779  -0.8580  -0.5550  -0.3508  -0.2702  -0.2433   0.5462   0.5710
     0.7153   0.7549   0.8742   0.9160   1.0909   1.1533   1.1985   1.2767
     1.2888   1.4302   1.6017   1.6427   1.6701   1.7018   1.7273   1.8754
     2.0215   2.0430   2.2224   2.4550   2.6919

     the Fermi energy is     1.7305 ev

!    total energy              =   -1948.35948875 Ry
     Harris-Foulkes estimate   =   -1948.35948803 Ry
     estimated scf accuracy    <       0.00000007 Ry

     The total energy is the sum of the following terms:

     one-electron contribution =   -8822.34160697 Ry
     hartree contribution      =    4398.18960836 Ry
     xc contribution           =    -934.43686724 Ry
     ewald contribution        =    3410.34225298 Ry
     electric field correction =       0.00019410 Ry
     smearing contrib. (-TS)   =      -0.11306999 Ry

     convergence has been achieved in   8 iterations

 BEEF-vdW xc energy contributions
           1 :   -844.777519777918
           2 :    785.121426518030
           3 :   -679.357759381299
           4 :    549.288545923558
           5 :   -417.534243167648
           6 :    301.206885572297
           7 :   -209.078818066474
           8 :    142.403741384449
           9 :   -97.9124493747554
          10 :    70.8208719561158
          11 :   -56.4804971880551
          12 :    50.5509296199150
          13 :   -48.6191792371684
          14 :    46.2379149850133
          15 :   -39.7600047375207
          16 :    27.5160280792900
          17 :   -10.5296845679777
          18 :   -7.84415706483549
          19 :    23.3110877388910
          20 :   -32.4165437411384
          21 :    33.8352635887245
          22 :   -28.6263557894109
          23 :    19.4878685242670
          24 :   -9.56112225299819
          25 :    1.42725300380653
          26 :    3.33231983774408
          27 :   -4.08503309572575
          28 :   0.932976844394489
          29 :    5.38225467019504
          30 :   -13.4502474704700
          31 :   -60.8889480099741
          32 :   -43.7888472032208

     Forces acting on atoms (Ry/au):

     negative rho (up, down):  1.377E+00 0.000E+00
     atom    1 type  1   force =    -0.00026409   -0.00015266    0.02033687
     atom    2 type  1   force =     0.00026408   -0.00015281    0.02033701
     atom    3 type  1   force =    -0.00000014    0.00030522    0.02033717
     atom    4 type  1   force =     0.00000012    0.00000020    0.01848888
     atom    5 type  1   force =     0.00000031    0.00765535   -0.02105698
     atom    6 type  1   force =    -0.00000092   -0.00000104   -0.01543937
     atom    7 type  1   force =    -0.00662853   -0.00382678   -0.02105158
     atom    8 type  1   force =     0.00662939   -0.00382692   -0.02105510
     atom    9 type  1   force =    -0.00000419   -0.00000528   -0.00013786
     atom   10 type  1   force =     0.00000185    0.00016461   -0.00008680
     atom   11 type  1   force =     0.00014140   -0.00007860   -0.00008688
     atom   12 type  1   force =    -0.00013834   -0.00007898   -0.00008660
     atom   13 type  2   force =     0.00000004   -0.00000087   -0.00150533
     atom   14 type  3   force =    -0.00000097   -0.00000144    0.00100657

     Total force =     0.001844     Total SCF correction =     0.000776
     SCF correction compared to forces is large: reduce conv_thr to get better values

     entering subroutine stress ...

     negative rho (up, down):  1.377E+00 0.000E+00
          total   stress  (Ry/bohr**3)                   (kbar)     P=  -15.81
  -0.00011624   0.00000000  -0.00000000        -17.10      0.00     -0.00
   0.00000000  -0.00011624  -0.00000000          0.00    -17.10     -0.00
  -0.00000000  -0.00000000  -0.00008997         -0.00     -0.00    -13.23

     bfgs converged in  19 scf cycles and  18 bfgs steps
     (criteria: energy <  1.0E+00, force <  1.9E-03)

     End of BFGS Geometry Optimization

     Final energy   =   -1948.3594887488 Ry
Begin final coordinates

ATOMIC_POSITIONS (crystal)
Hf1      0.166666667   0.166666667   0.396510335    0   0   0
Hf1      0.666666667   0.166666667   0.396510335    0   0   0
Hf1      0.166666667   0.666666667   0.396510335    0   0   0
Hf1      0.666666667   0.666666667   0.396510335    0   0   0
Hf1      0.833333333   0.333333333   0.500000000    0   0   0
Hf1      0.333333333   0.333333333   0.500000000    0   0   0
Hf1      0.833333333   0.833333333   0.500000000    0   0   0
Hf1      0.333333333   0.833333333   0.500000000    0   0   0
Hf1      0.000000555   0.000003562   0.593036335
Hf1      0.499305134   0.001386100   0.600689239
Hf1      0.001386670   0.499304232   0.600688919
Hf1      0.499306730   0.499305535   0.600688415
N1       0.333332995   0.333335262   0.646929533
H1       0.333333550   0.333340582   0.687670881
End final coordinates

     Writing output data file calc.save

     General routines

     Parallel routines

   This run was terminated on:   4:35:25  18Apr2018

   JOB DONE.