     Program PWSCF v.5.1rc2 (svn rev. 11289) starts on 17Jan2018 at 10:49:29

     Current dimensions of program PWSCF are:
     Max number of different atomic species (ntypx) = 10
     Max number of k-points (npk) =  40000
     Max angular momentum in pseudopotentials (lmaxx) =  3
     Presently stress not available with electric field

     IMPORTANT: XC functional enforced from input :
     Exchange-correlation      = BEEF-VDW ( 1  4 27 13 2)
     Any further DFT definition will be discarded
     Please, verify this is what you really want

     Subspace diagonalization in iterative solution of the eigenvalue problem:
     a serial algorithm will be used

     bravais-lattice index     =            0
     lattice parameter (alat)  =       1.8897  a.u.
     unit-cell volume          =    4204.8134 (a.u.)^3
     number of atoms/cell      =           13
     number of atomic types    =            2
     number of electrons       =       185.00
     number of Kohn-Sham states=          102
     kinetic-energy cutoff     =      36.7493  Ry
     charge density cutoff     =     367.4932  Ry
     convergence threshold     =      1.0E-05
     mixing beta               =       0.3000
     number of iterations used =           10  plain     mixing
     Exchange-correlation      = BEEF-VDW ( 1  4 27 13 2)
     nstep                     =           50

     celldm(1)=   1.889726  celldm(2)=   0.000000  celldm(3)=   0.000000
     celldm(4)=   0.000000  celldm(5)=   0.000000  celldm(6)=   0.000000

     crystal axes: (cart. coord. in units of alat)
               a(1) = (   5.426750   0.000000   0.000000 )
               a(2) = (   2.713375   4.699703   0.000000 )
               a(3) = (   0.000000   0.000000  24.430923 )

     reciprocal axes: (cart. coord. in units 2 pi/alat)
               b(1) = (  0.184272 -0.106390  0.000000 )
               b(2) = (  0.000000  0.212779  0.000000 )
               b(3) = (  0.000000  0.000000  0.040932 )

     PseudoPot. # 1 for Rh read from file:
     /afs/slac.stanford.edu/u/if/mamunm/psp/gbrv1.5pbe/Rh.UPF
     MD5 check sum: 761627e959a2e3a1f56b0b5fe687810e
     Pseudo is Ultrasoft + core correction, Zval = 15.0
     Generated by new atomic code, or converted to UPF format
     Using radial grid of  969 points,  7 beta functions with:
                l(1) =   0
                l(2) =   0
                l(3) =   1
                l(4) =   1
                l(5) =   2
                l(6) =   2
                l(7) =   2
     Q(r) pseudized with  8 coefficients,  rinner =    1.200   1.200   1.200
                                                       1.200   1.200

     PseudoPot. # 2 for N  read from file:
     /afs/slac.stanford.edu/u/if/mamunm/psp/gbrv1.5pbe/N.UPF
     MD5 check sum: 95339753478d7afb44899504a8723017
     Pseudo is Ultrasoft + core correction, Zval =  5.0
     Generated by new atomic code, or converted to UPF format
     Using radial grid of  729 points,  4 beta functions with:
                l(1) =   0
                l(2) =   0
                l(3) =   1
                l(4) =   1
     Q(r) pseudized with  8 coefficients,  rinner =    0.900   0.900   0.900

     vdW kernel table read from file vdW_kernel_table
     MD5 check sum: 095c7af220d748ca6e76c0b4c6cfb241

     atomic species   valence    mass     pseudopotential
        Rh1           15.00   102.90550     Rh( 1.00)
        N1             5.00    14.00700     N ( 1.00)

     No symmetry found

   Cartesian axes

     site n.     atom                  positions (alat units)
         1           Rh1 tau(   1) = (   1.3566875   0.7832839  10.0000000  )
         2           Rh1 tau(   2) = (   4.0700625   0.7832839  10.0000000  )
         3           Rh1 tau(   3) = (   2.7133750   3.1331356  10.0000000  )
         4           Rh1 tau(   4) = (   5.4267500   3.1331356  10.0000000  )
         5           Rh1 tau(   5) = (   5.4267500   1.5665678  12.2154614  )
         6           Rh1 tau(   6) = (   2.7133750   1.5665678  12.2154614  )
         7           Rh1 tau(   7) = (   6.7834375   3.9164194  12.2154614  )
         8           Rh1 tau(   8) = (   4.0700625   3.9164194  12.2154614  )
         9           Rh1 tau(   9) = (   0.0000000   0.0000000  14.4309228  )
        10           Rh1 tau(  10) = (   2.7133750   0.0000000  14.4309228  )
        11           Rh1 tau(  11) = (   1.3566875   2.3498517  14.4309228  )
        12           Rh1 tau(  12) = (   4.0700625   2.3498517  14.4309228  )
        13           N1  tau(  13) = (   0.0000000   0.0000000  16.5609228  )

     number of k points=    20  Fermi-Dirac smearing, width (Ry)=  0.0110
                       cart. coord. in units 2pi/alat
        k(    1) = (   0.0000000   0.0000000   0.0000000), wk =   0.0555556
        k(    2) = (   0.0000000   0.0354632   0.0000000), wk =   0.1111111
        k(    3) = (   0.0000000   0.0709265   0.0000000), wk =   0.1111111
        k(    4) = (   0.0000000  -0.1063897   0.0000000), wk =   0.0555556
        k(    5) = (   0.0307121  -0.0177316   0.0000000), wk =   0.1111111
        k(    6) = (   0.0307121   0.0177316   0.0000000), wk =   0.1111111
        k(    7) = (   0.0307121   0.0531948   0.0000000), wk =   0.1111111
        k(    8) = (   0.0307121  -0.1241213   0.0000000), wk =   0.1111111
        k(    9) = (   0.0307121  -0.0886581   0.0000000), wk =   0.1111111
        k(   10) = (   0.0307121  -0.0531948   0.0000000), wk =   0.1111111
        k(   11) = (   0.0614241  -0.0354632   0.0000000), wk =   0.1111111
        k(   12) = (   0.0614241   0.0000000   0.0000000), wk =   0.1111111
        k(   13) = (   0.0614241   0.0354632   0.0000000), wk =   0.1111111
        k(   14) = (   0.0614241  -0.1418529   0.0000000), wk =   0.1111111
        k(   15) = (   0.0614241  -0.1063897   0.0000000), wk =   0.1111111
        k(   16) = (   0.0614241  -0.0709265   0.0000000), wk =   0.1111111
        k(   17) = (  -0.0921362   0.0531948   0.0000000), wk =   0.0555556
        k(   18) = (  -0.0921362   0.0886581   0.0000000), wk =   0.1111111
        k(   19) = (  -0.0921362   0.1241213   0.0000000), wk =   0.1111111
        k(   20) = (  -0.0921362  -0.0531948   0.0000000), wk =   0.0555556

     Largest allocated arrays     est. size (Mb)     dimensions
     Largest temporary arrays     est. size (Mb)     dimensions

     Initial potential from superposition of free atoms
     Check: negative starting charge=   -0.652777

     starting charge  178.99881, renormalised to  185.00000

     negative rho (up, down):  6.747E-01 0.000E+00

     *
     * You are using vdW-DF for exchange-correlation in this calculation.
     * Please cite the following three references that made this development
     * possible:
     *
     *   M. Dion, H. Rydberg, E. Schroder, D. C. Langreth, and
     *   B. I. Lundqvist, Phys. Rev. Lett. 92, 246401 (2004).
     *
     *   T. Thonhauser, V. R. Cooper, S. Li, A. Puzder, P. Hyldgaard, and
     *   D. C. Langreth, Phys. Rev. B 76, 125112 (2007).
     *
     *   G. Roman-Perez and J. M. Soler, Phys. Rev. Lett. 103, 096102 (2009).
     *
     *
     * If you are using vdW-DF2, please also cite:
     *
     *   K. Lee, E. D. Murray, L. Kong, B. I. Lundqvist, and
     *   D. C. Langreth, Phys. Rev. B 82, 081101(R) (2010).
     *
     *
     * If you are calculating the stress with vdW-DF, please also cite:
     *
     *   R. Sabatini, E. Kucukbenli, B. Kolb, T. Thonhauser, and
     *   S. de Gironcoli, J. Phys.: Condens. Matter 24, 424209 (2012).
     *

     Carrying out vdW-DF run using the following parameters:

     Nqs =      20    Nr_points =    1024   r_max =   100.000
     q_mesh =
               0.00001000     0.04494208     0.09755937     0.15916263
               0.23128650     0.31572767     0.41458969     0.53033537
               0.66584808     0.82450364     1.01025438     1.22772762
               1.48234092     1.78043706     2.12944203     2.53805004
               3.01644009     3.57652955     4.23227104     5.00000000

     Gradients computed in reciprocal space

     Adding external electric field

     Computed dipole along edir(3) :
        Dipole               -1.3765 Ry au,         -3.4987 Debye
        Dipole field         -0.0041 Ry au

        Potential amp.        0.3703 Ry
        Total length         45.0136 bohr

     Starting wfc are  148 randomized atomic wfcs

     Self-consistent Calculation

     iteration #  1     ecut=    36.75 Ry     beta=0.30
     Davidson diagonalization with overlap
     ethr =  1.00E-02,  avg # of iterations =  2.0

[...]

     total energy              =   -2049.13121917 Ry
     Harris-Foulkes estimate   =   -2087.62098888 Ry
     estimated scf accuracy    <      79.40208587 Ry

[...]

     End of self-consistent calculation

          k = 0.0000 0.0000 0.0000 ( 15785 PWs)   bands (ev):

   -45.9073 -45.8258 -45.8255 -45.7796 -45.7508 -45.7506 -45.6361 -45.5928
   -45.5681 -45.5677 -45.4434 -45.4212 -45.4210 -45.4079 -45.3486 -45.3481
   -45.3266 -45.3047 -45.3047 -45.1446 -45.1443 -45.0286 -45.0064 -45.0057
   -45.0027 -44.9885 -44.9519 -44.9511 -44.9378 -44.9373 -44.9277 -44.9145
   -44.9136 -44.8929 -44.8927 -44.8494 -11.0070  -5.4710  -4.2395  -4.2394
    -4.2341  -4.1899  -4.0525  -3.9496  -3.9322  -3.9321  -3.7496  -3.7495
    -3.6973  -3.4120  -3.4119  -3.3878  -2.4206  -2.4205  -2.2473  -1.9578
    -1.8485  -1.8484  -1.6864  -1.5288  -1.5288  -1.3248  -1.2362  -1.2362
    -1.1521  -1.1521  -1.1131  -0.9945  -0.9945  -0.8000  -0.3288  -0.3286
    -0.0650  -0.0649   0.3633   0.3678   0.3680   0.3819   0.3822   0.3988
     0.6176   0.9036   0.9039   1.2092   1.2095   1.3302   1.4751   1.4834
     1.4835   1.5411   1.5412   1.6081   1.6081   1.8396   1.8398   1.8428
     2.0874   2.0880   2.1947   2.2015   2.2430   2.2433

[...]

          k =-0.0921 0.0532 0.0000 ( 15852 PWs)   bands (ev):

[...]

     the Fermi energy is     1.2337 ev

!    total energy              =   -2086.44118207 Ry
     Harris-Foulkes estimate   =   -2086.44116721 Ry
     estimated scf accuracy    <       0.00000612 Ry

     The total energy is the sum of the following terms:

     one-electron contribution =  -19379.87217482 Ry
     hartree contribution      =    9730.44259187 Ry
     xc contribution           =    -377.19865766 Ry
     ewald contribution        =    7940.31819273 Ry
     electric field correction =       0.00052748 Ry
     smearing contrib. (-TS)   =      -0.13166168 Ry

     convergence has been achieved in  23 iterations

 BEEF-vdW xc energy contributions
           1 :   -328.384399312449
           2 :    301.357902757301
           3 :   -254.728867096311
           4 :    200.178403860389
           5 :   -149.347983659844
           6 :    110.281033615204
           7 :   -85.6639655289659
           8 :    73.1923121372124
           9 :   -67.6078519172067
          10 :    63.3819024184378
          11 :   -56.9083951297858
          12 :    47.4173962537010
          13 :   -36.4823292722874
          14 :    26.6262410752411
          15 :   -19.8259737927637
          16 :    16.5892693396576
          17 :   -15.9119173771767
          18 :    15.9809224075431
[...]

[...]

   This run was terminated on:  11:21:23  17Jan2018

[...]

     Program PWSCF v.5.1rc2 (svn rev. 11289) starts on 17Jan2018 at 12: 9:20

[...]

   This run was terminated on:  12:58: 8  17Jan2018

[...]

     Program PWSCF v.5.1rc2 (svn rev. 11289) starts on 17Jan2018 at 13:14:43

[...]

     Program PWSCF v.5.1rc2 (svn rev. 11289) starts on 17Jan2018 at 13:30: 4

[...]

     Total force =     0.033908     Total SCF correction =     0.002017

[...]

   This run was terminated on:  13:46:57  17Jan2018

[...]

     Program PWSCF v.5.1rc2 (svn rev. 11289) starts on 17Jan2018 at 13:47: 2

     Current dimensions of program PWSCF are:
     Max number of different atomic species (ntypx) = 10
     Max number of k-points (npk) =  40000
     Max angular momentum in pseudopotentials (lmaxx) =  3
     Presently stress not available with electric field

     IMPORTANT: XC functional enforced from input :
     Exchange-correlation      = BEEF-VDW ( 1  4 27 13 2)
     Any further DFT definition will be discarded
     Please, verify this is what you really want

     Subspace diagonalization in iterative solution of the eigenvalue problem:
     a serial algorithm will be used

     bravais-lattice index     =            0
     lattice parameter (alat)  =       1.8897  a.u.
     unit-cell volume          =    4204.8134 (a.u.)^3
     number of atoms/cell      =           13
     number of atomic types    =            2
     number of electrons       =       185.00
     number of Kohn-Sham states=          102
     kinetic-energy cutoff     =      36.7493  Ry
     charge density cutoff     =     367.4932  Ry
     convergence threshold     =      1.0E-05
     mixing beta               =       0.3000
     number of iterations used =           10  plain     mixing
     Exchange-correlation      = BEEF-VDW ( 1  4 27 13 2)
     nstep                     =           50

     celldm(1)=   1.889726  celldm(2)=   0.000000  celldm(3)=   0.000000
     celldm(4)=   0.000000  celldm(5)=   0.000000  celldm(6)=   0.000000

     crystal axes: (cart. coord. in units of alat)
               a(1) = (   5.426750   0.000000   0.000000 )
               a(2) = (   2.713375   4.699703   0.000000 )
               a(3) = (   0.000000   0.000000  24.430923 )

     reciprocal axes: (cart. coord. in units 2 pi/alat)
               b(1) = (  0.184272 -0.106390  0.000000 )
               b(2) = (  0.000000  0.212779  0.000000 )
               b(3) = (  0.000000  0.000000  0.040932 )

     PseudoPot. # 1 for Rh read from file:
     /afs/slac.stanford.edu/u/if/mamunm/psp/gbrv1.5pbe/Rh.UPF
     MD5 check sum: 761627e959a2e3a1f56b0b5fe687810e
     Pseudo is Ultrasoft + core correction, Zval = 15.0
     Generated by new atomic code, or converted to UPF format
     Using radial grid of  969 points,  7 beta functions with:
                l(1) =   0
                l(2) =   0
                l(3) =   1
                l(4) =   1
                l(5) =   2
                l(6) =   2
                l(7) =   2
     Q(r) pseudized with  8 coefficients,  rinner =    1.200   1.200   1.200
                                                       1.200   1.200

     PseudoPot. # 2 for N  read from file:
     /afs/slac.stanford.edu/u/if/mamunm/psp/gbrv1.5pbe/N.UPF
     MD5 check sum: 95339753478d7afb44899504a8723017
     Pseudo is Ultrasoft + core correction, Zval =  5.0
     Generated by new atomic code, or converted to UPF format
     Using radial grid of  729 points,  4 beta functions with:
                l(1) =   0
                l(2) =   0
                l(3) =   1
                l(4) =   1
     Q(r) pseudized with  8 coefficients,  rinner =    0.900   0.900   0.900

     vdW kernel table read from file vdW_kernel_table
     MD5 check sum: 095c7af220d748ca6e76c0b4c6cfb241

     atomic species   valence    mass     pseudopotential
        Rh1           15.00   102.90550     Rh( 1.00)
        N1             5.00    14.00700     N ( 1.00)

     No symmetry found

   Cartesian axes

     site n.     atom                  positions (alat units)
         1           Rh1 tau(   1) = (   1.3566875   0.7832839  10.0000000  )
         2           Rh1 tau(   2) = (   4.0700625   0.7832839  10.0000000  )
         3           Rh1 tau(   3) = (   2.7133750   3.1331356  10.0000000  )
         4           Rh1 tau(   4) = (   5.4267500   3.1331356  10.0000000  )
         5           Rh1 tau(   5) = (   5.4267500   1.5665678  12.2154614  )
         6           Rh1 tau(   6) = (   2.7133750   1.5665678  12.2154614  )
         7           Rh1 tau(   7) = (   6.7834375   3.9164194  12.2154614  )
         8           Rh1 tau(   8) = (   4.0700625   3.9164194  12.2154614  )
         9           Rh1 tau(   9) = (   0.0001816   0.0000758  14.8310210  )
        10           Rh1 tau(  10) = (   2.7133947   0.0052150  14.3815035  )
        11           Rh1 tau(  11) = (   1.3612725   2.3472099  14.3814512  )
        12           Rh1 tau(  12) = (   4.0656604   2.3472776  14.3814356  )
        13           N1  tau(  13) = (   8.1400179   4.6996773  16.4855328  )

     number of k points=    20  Fermi-Dirac smearing, width (Ry)=  0.0110
                       cart. coord. in units 2pi/alat
        k(    1) = (   0.0000000   0.0000000   0.0000000), wk =   0.0555556
        k(    2) = (   0.0000000   0.0354632   0.0000000), wk =   0.1111111
        k(    3) = (   0.0000000   0.0709265   0.0000000), wk =   0.1111111
        k(    4) = (   0.0000000  -0.1063897   0.0000000), wk =   0.0555556
        k(    5) = (   0.0307121  -0.0177316   0.0000000), wk =   0.1111111
        k(    6) = (   0.0307121   0.0177316   0.0000000), wk =   0.1111111
        k(    7) = (   0.0307121   0.0531948   0.0000000), wk =   0.1111111
        k(    8) = (   0.0307121  -0.1241213   0.0000000), wk =   0.1111111
        k(    9) = (   0.0307121  -0.0886581   0.0000000), wk =   0.1111111
        k(   10) = (   0.0307121  -0.0531948   0.0000000), wk =   0.1111111
        k(   11) = (   0.0614241  -0.0354632   0.0000000), wk =   0.1111111
        k(   12) = (   0.0614241   0.0000000   0.0000000), wk =   0.1111111
        k(   13) = (   0.0614241   0.0354632   0.0000000), wk =   0.1111111
        k(   14) = (   0.0614241  -0.1418529   0.0000000), wk =   0.1111111
        k(   15) = (   0.0614241  -0.1063897   0.0000000), wk =   0.1111111
        k(   16) = (   0.0614241  -0.0709265   0.0000000), wk =   0.1111111
        k(   17) = (  -0.0921362   0.0531948   0.0000000), wk =   0.0555556
        k(   18) = (  -0.0921362   0.0886581   0.0000000), wk =   0.1111111
        k(   19) = (  -0.0921362   0.1241213   0.0000000), wk =   0.1111111
        k(   20) = (  -0.0921362  -0.0531948   0.0000000), wk =   0.0555556

     Largest allocated arrays     est. size (Mb)     dimensions
     Largest temporary arrays     est. size (Mb)     dimensions

     Initial potential from superposition of free atoms
     Check: negative starting charge=   -0.658909

     starting charge  178.99881, renormalised to  185.00000

[...]

     *
     * You are using vdW-DF for exchange-correlation in this calculation.
     * Please cite the following three references that made this development
     * possible:
     *
     *   M. Dion, H. Rydberg, E. Schroder, D. C. Langreth, and
     *   B. I. Lundqvist, Phys. Rev. Lett. 92, 246401 (2004).
     *
     *   T. Thonhauser, V. R. Cooper, S. Li, A. Puzder, P. Hyldgaard, and
     *   D. C. Langreth, Phys. Rev. B 76, 125112 (2007).
     *
     *   G. Roman-Perez and J. M. Soler, Phys. Rev. Lett. 103, 096102 (2009).
     *
     *
     * If you are using vdW-DF2, please also cite:
     *
     *   K. Lee, E. D. Murray, L. Kong, B. I. Lundqvist, and
     *   D. C. Langreth, Phys. Rev. B 82, 081101(R) (2010).
     *
     *
     * If you are calculating the stress with vdW-DF, please also cite:
     *
     *   R. Sabatini, E. Kucukbenli, B. Kolb, T. Thonhauser, and
     *   S. de Gironcoli, J. Phys.: Condens. Matter 24, 424209 (2012).
     *

     Carrying out vdW-DF run using the following parameters:

     Nqs =      20    Nr_points =    1024   r_max =   100.000
     q_mesh =
               0.00001000     0.04494208     0.09755937     0.15916263
               0.23128650     0.31572767     0.41458969     0.53033537
               0.66584808     0.82450364     1.01025438     1.22772762
               1.48234092     1.78043706     2.12944203     2.53805004
               3.01644009     3.57652955     4.23227104     5.00000000

     Gradients computed in reciprocal space

[...]

     Starting wfc are  148 randomized atomic wfcs

     Self-consistent Calculation

[...]

     total energy              =   -2086.56560715 Ry
     Harris-Foulkes estimate   =   -2086.56561345 Ry
     estimated scf accuracy    <       0.00002801 Ry

     iteration # 23     ecut=    36.75 Ry     beta=0.30
     Davidson diagonalization with overlap
     ethr =  1.51E-08,  avg # of iterations =  1.3

[...]

     negative rho (up, down):  6.943E-01 0.000E+00

     Adding external electric field

     Computed dipole along edir(3) :
        Dipole               -0.1837 Ry au,         -0.4670 Debye
        Dipole field         -0.0005 Ry au

        Potential amp.        0.0494 Ry
        Total length         45.0136 bohr

     End of self-consistent calculation

[...]

          k = 0.0614-0.0709 0.0000 ( 15838 PWs)   bands (ev):

[...]

          k =-0.0921-0.0532 0.0000 ( 15852 PWs)   bands (ev):

   -47.2220 -46.0315 -46.0168 -45.3945 -45.3381 -45.3224 -45.2553 -45.2199
   -45.2139 -45.1824 -45.1515 -45.1450 -45.0825 -45.0293 -44.9924 -44.9564
   -44.9289 -44.9178 -44.8445 -44.8179 -44.8108 -44.7932 -44.7902 -44.7840
   -44.7654 -44.7517 -44.6541 -44.6522 -44.6424 -44.6251 -44.6250 -44.6239
   -44.6077 -44.6042 -44.6021 -44.5577 -12.8325  -3.8124  -3.7839  -3.6935
    -3.5499  -3.4639  -3.1087  -3.0345  -2.9726  -2.8326  -2.7739  -2.6424
    -2.6315  -2.5832  -2.4342  -2.3355  -2.2521  -2.1539  -2.1470  -2.0508
    -1.7624  -1.7379  -1.7146  -1.6493  -1.6065  -1.4181  -1.3057  -1.1277
    -1.0813  -0.8716  -0.7418  -0.6961  -0.6577  -0.6556  -0.5768  -0.4988
    -0.4948  -0.4238  -0.4188  -0.4017  -0.3212  -0.2309   0.0161   0.1423
     0.1657   0.2296   0.3975   0.4583   0.5006   0.5443   0.7115   0.7293
     0.8238   0.8665   1.0100   1.2734   1.2986   1.3813   1.4638   1.6219
     1.8055   1.8193   2.0378   2.1111   2.1477   2.3168

     the Fermi energy is     1.5674 ev

!    total energy              =   -2086.56560433 Ry
     Harris-Foulkes estimate   =   -2086.56561208 Ry
     estimated scf accuracy    <       0.00000457 Ry

     The total energy is the sum of the following terms:

     one-electron contribution =  -19239.69580152 Ry
     hartree contribution      =    9661.60903126 Ry
     xc contribution           =    -377.40056159 Ry
     ewald contribution        =    7869.04950829 Ry
     electric field correction =       0.00010088 Ry
     smearing contrib. (-TS)   =      -0.12788165 Ry

     convergence has been achieved in  23 iterations

 BEEF-vdW xc energy contributions
           1 :   -328.590304664012
           2 :    301.606683725771
           3 :   -255.032437997828
           4 :    200.504685759137
           5 :   -149.644121767852
           6 :    110.507670564774
           7 :   -85.8040403499939
           8 :    73.2372365035296
           9 :   -67.5485980505158
          10 :    63.2195925665159
          11 :   -56.6731208591710
          12 :    47.1708788671867
          13 :   -36.2950922464078
          14 :    26.5451460194359
          15 :   -19.8516930279567
          16 :    16.6753011465440
          17 :   -15.9895361500878
          18 :    15.9982443261852
          19 :   -15.1177186767945
          20 :    12.7006229393497
          21 :   -9.18049074400534
          22 :    5.65226508919125
          23 :   -3.18985183445028
          24 :    2.27724636957112
          25 :   -2.61724775879850
          26 :    3.36864202078124
          27 :   -3.64075076407812
          28 :    2.96011286645921
          29 :   -1.47210560391022
          30 :  -0.206052540714381
          31 :   -32.5805880460071
          32 :   -24.4060015186981

     Forces acting on atoms (Ry/au):

     negative rho (up, down):  6.943E-01 0.000E+00
     atom    1 type  1   force =    -0.00018463   -0.00011802    0.00792523
     atom    2 type  1   force =     0.00019166   -0.00014402    0.00781528
     atom    3 type  1   force =    -0.00003269    0.00023485    0.00786213
     atom    4 type  1   force =     0.00002686    0.00001525   -0.00143508
     atom    5 type  1   force =     0.00002174   -0.01513338   -0.00295146
     atom    6 type  1   force =    -0.00000747   -0.00001837   -0.01293507
     atom    7 type  1   force =     0.01306855    0.00756065   -0.00290139
     atom    8 type  1   force =    -0.01307221    0.00758587   -0.00292156
     atom    9 type  1   force =    -0.00004894   -0.00003016    0.00010710
     atom   10 type  1   force =     0.00005089   -0.00029926    0.00000126
     atom   11 type  1   force =    -0.00024677    0.00022024   -0.00003419
     atom   12 type  1   force =     0.00023792    0.00013581    0.00000943
     atom   13 type  2   force =    -0.00000489   -0.00000944   -0.00054168

     Total force =     0.032663     Total SCF correction =     0.004364
     SCF correction compared to forces is large: reduce conv_thr to get better values

     entering subroutine stress ...

     negative rho (up, down):  6.943E-01 0.000E+00
          total   stress  (Ry/bohr**3)                   (kbar)     P=  -30.50
  -0.00022103  -0.00000002  -0.00000004        -32.51     -0.00     -0.01
  -0.00000002  -0.00022110   0.00000001         -0.00    -32.53      0.00
  -0.00000004   0.00000001  -0.00017996         -0.01      0.00    -26.47

 !ASE

     Writing output data file calc.save

     General routines

     Parallel routines

   This run was terminated on:  14: 2:54  17Jan2018

   JOB DONE.
Job  /afs/slac/g/suncat/bin/suncat-tsmpirun -x LD_LIBRARY_PATH -wdir /scratch/qe842475_q6Ow0 pw.x -in pw.inp

TID   HOST_NAME   COMMAND_LINE            STATUS            TERMINATION_TIME
00000 suncat0273 pw.x -in pw.inp   Done                     01/17/2018 14:02:54
00001 suncat0273 pw.x -in pw.inp   Done                     01/17/2018 14:02:54
00002 suncat0273 pw.x -in pw.inp   Done                     01/17/2018 14:02:54
00003 suncat0273 pw.x -in pw.inp   Done                     01/17/2018 14:02:54
00004 suncat0273 pw.x -in pw.inp   Done                     01/17/2018 14:02:54
00005 suncat0273 pw.x -in pw.inp   Done                     01/17/2018 14:02:54
00006 suncat0273 pw.x -in pw.inp   Done                     01/17/2018 14:02:54
00007 suncat0273 pw.x -in pw.inp   Done                     01/17/2018 14:02:54
00008 suncat0268 pw.x -in pw.inp   Done                     01/17/2018 14:02:54
00009 suncat0268 pw.x -in pw.inp   Done                     01/17/2018 14:02:54
00010 suncat0268 pw.x -in pw.inp   Done                     01/17/2018 14:02:54
00011 suncat0268 pw.x -in pw.inp   Done                     01/17/2018 14:02:54
00012 suncat0268 pw.x -in pw.inp   Done                     01/17/2018 14:02:54
00013 suncat0268 pw.x -in pw.inp   Done                     01/17/2018 14:02:54
00014 suncat0268 pw.x -in pw.inp   Done                     01/17/2018 14:02:54
00015 suncat0268 pw.x -in pw.inp   Done                     01/17/2018 14:02:54
00016 suncat0266 pw.x -in pw.inp   Done                     01/17/2018 14:02:54
00017 suncat0266 pw.x -in pw.inp   Done                     01/17/2018 14:02:54
00018 suncat0266 pw.x -in pw.inp   Done                     01/17/2018 14:02:54
00019 suncat0266 pw.x -in pw.inp   Done                     01/17/2018 14:02:54
00020 suncat0266 pw.x -in pw.inp   Done                     01/17/2018 14:02:54
00021 suncat0266 pw.x -in pw.inp   Done                     01/17/2018 14:02:54
00022 suncat0266 pw.x -in pw.inp   Done                     01/17/2018 14:02:54
00023 suncat0266 pw.x -in pw.inp   Done                     01/17/2018 14:02:54
00024 suncat0233 pw.x -in pw.inp   Done                     01/17/2018 14:02:54
00025 suncat0233 pw.x -in pw.inp   Done                     01/17/2018 14:02:54
00026 suncat0233 pw.x -in pw.inp   Done                     01/17/2018 14:02:54
00027 suncat0233 pw.x -in pw.inp   Done                     01/17/2018 14:02:54
00028 suncat0233 pw.x -in pw.inp   Done                     01/17/2018 14:02:54
00029 suncat0233 pw.x -in pw.inp   Done                     01/17/2018 14:02:54
00030 suncat0233 pw.x -in pw.inp   Done                     01/17/2018 14:02:54
00031 suncat0233 pw.x -in pw.inp   Done                     01/17/2018 14:02:54