     Program PWSCF v.5.1rc2 starts on 27Apr2018 at 11:28: 4

     Current dimensions of program PWSCF are:
     Max number of different atomic species (ntypx) = 10
     Max number of k-points (npk) =  40000
     Max angular momentum in pseudopotentials (lmaxx) =  3
     Presently stress not available with electric field

     IMPORTANT: XC functional enforced from input :
     Exchange-correlation      = BEEF-VDW ( 1  4 27 13 2)
     Any further DFT definition will be discarded
     Please, verify this is what you really want

     bravais-lattice index     =            0
     lattice parameter (alat)  =       1.8897  a.u.
     unit-cell volume          =    7276.7660 (a.u.)^3
     number of atoms/cell      =           14
     number of atomic types    =            3
     number of electrons       =       186.00
     number of Kohn-Sham states=          103
     kinetic-energy cutoff     =      36.7493  Ry
     charge density cutoff     =     367.4932  Ry
     convergence threshold     =      1.0E-05
     mixing beta               =       0.3000
     number of iterations used =           10  plain     mixing
     Exchange-correlation      = BEEF-VDW ( 1  4 27 13 2)
     nstep                     =           50

     celldm(1)=   1.889726  celldm(2)=   0.000000  celldm(3)=   0.000000
     celldm(4)=   0.000000  celldm(5)=   0.000000  celldm(6)=   0.000000

     crystal axes: (cart. coord. in units of alat)
               a(1) = (   6.962526   0.000000   0.000000 )
               a(2) = (   3.481263   6.029724   0.000000 )
               a(3) = (   0.000000   0.000000  25.684879 )

     reciprocal axes: (cart. coord. in units 2 pi/alat)
               b(1) = (  0.143626 -0.082923  0.000000 )
               b(2) = (  0.000000  0.165845  0.000000 )
               b(3) = (  0.000000  0.000000  0.038933 )

     PseudoPot. # 1 for Bi read from file:
     /home/users/mamunm/src/pseudo/gbrv1.5pbe/Bi.UPF
     MD5 check sum: 81103212dc04adf40945787f699eab19
     Pseudo is Ultrasoft + core correction, Zval = 15.0
     Generated by new atomic code, or converted to UPF format
     Using radial grid of  899 points,  6 beta functions with:
                l(1) =   0
                l(2) =   0
                l(3) =   1
                l(4) =   1
                l(5) =   2
                l(6) =   2
     Q(r) pseudized with  6 coefficients,  rinner =    1.000   1.000   1.000
                                                       1.000   1.000

     PseudoPot. # 2 for N  read from file:
     /home/users/mamunm/src/pseudo/gbrv1.5pbe/N.UPF
     MD5 check sum: 95339753478d7afb44899504a8723017
     Pseudo is Ultrasoft + core correction, Zval =  5.0
     Generated by new atomic code, or converted to UPF format
     Using radial grid of  729 points,  4 beta functions with:
                l(1) =   0
                l(2) =   0
                l(3) =   1
                l(4) =   1
     Q(r) pseudized with  8 coefficients,  rinner =    0.900   0.900   0.900

     PseudoPot. # 3 for H  read from file:
     /home/users/mamunm/src/pseudo/gbrv1.5pbe/H.UPF
     MD5 check sum: 761ae9a214b05c3daf00ab9f6b793d6f
     Pseudo is Ultrasoft, Zval =  1.0
     Generated by new atomic code, or converted to UPF format
     Using radial grid of  615 points,  2 beta functions with:
                l(1) =   0
                l(2) =   0
     Q(r) pseudized with  8 coefficients,  rinner =    0.700

     vdW kernel table read from file vdW_kernel_table
     MD5 check sum: 095c7af220d748ca6e76c0b4c6cfb241

     atomic species   valence    mass     pseudopotential
        Bi1           15.00   208.98040     Bi( 1.00)
        N1             5.00    14.00700     N ( 1.00)
        H1             1.00     1.00800     H ( 1.00)

     No symmetry found

   Cartesian axes

     site n.     atom                  positions (alat units)
         1           Bi1 tau(   1) = (   1.7406315   1.0049541  10.0000000  )
         2           Bi1 tau(   2) = (   5.2218945   1.0049541  10.0000000  )
         3           Bi1 tau(   3) = (   3.4812630   4.0198163  10.0000000  )
         4           Bi1 tau(   4) = (   6.9625260   4.0198163  10.0000000  )
         5           Bi1 tau(   5) = (   6.9625260   2.0099081  12.8424393  )
         6           Bi1 tau(   6) = (   3.4812630   2.0099081  12.8424393  )
         7           Bi1 tau(   7) = (   8.7031575   5.0247703  12.8424393  )
         8           Bi1 tau(   8) = (   5.2218945   5.0247703  12.8424393  )
         9           Bi1 tau(   9) = (   0.0000000   0.0000000  15.6848787  )
        10           Bi1 tau(  10) = (   3.4812630   0.0000000  15.6848787  )
        11           Bi1 tau(  11) = (   1.7406315   3.0148622  15.6848787  )
        12           Bi1 tau(  12) = (   5.2218945   3.0148622  15.6848787  )
        13           N1  tau(  13) = (   3.4812630   2.0099081  17.1083787  )
        14           H1  tau(  14) = (   3.4812630   2.0099081  18.1583787  )

     number of k points=    20  Fermi-Dirac smearing, width (Ry)=  0.0110
                       cart. coord. in units 2pi/alat
        k(    1) = (   0.0000000   0.0000000   0.0000000), wk =   0.0555556
        k(    2) = (   0.0000000   0.0276408   0.0000000), wk =   0.1111111
        k(    3) = (   0.0000000   0.0552817   0.0000000), wk =   0.1111111
        k(    4) = (   0.0000000  -0.0829225   0.0000000), wk =   0.0555556
        k(    5) = (   0.0239377  -0.0138204   0.0000000), wk =   0.1111111
        k(    6) = (   0.0239377   0.0138204   0.0000000), wk =   0.1111111
        k(    7) = (   0.0239377   0.0414613   0.0000000), wk =   0.1111111
        k(    8) = (   0.0239377  -0.0967430   0.0000000), wk =   0.1111111
        k(    9) = (   0.0239377  -0.0691021   0.0000000), wk =   0.1111111
        k(   10) = (   0.0239377  -0.0414613   0.0000000), wk =   0.1111111
        k(   11) = (   0.0478753  -0.0276408   0.0000000), wk =   0.1111111
        k(   12) = (   0.0478753  -0.0000000   0.0000000), wk =   0.1111111
        k(   13) = (   0.0478753   0.0276408   0.0000000), wk =   0.1111111
        k(   14) = (   0.0478753  -0.1105634   0.0000000), wk =   0.1111111
        k(   15) = (   0.0478753  -0.0829225   0.0000000), wk =   0.1111111
        k(   16) = (   0.0478753  -0.0552817   0.0000000), wk =   0.1111111
        k(   17) = (  -0.0718130   0.0414613   0.0000000), wk =   0.0555556
        k(   18) = (  -0.0718130   0.0691021   0.0000000), wk =   0.1111111
        k(   19) = (  -0.0718130   0.0967430   0.0000000), wk =   0.1111111
        k(   20) = (  -0.0718130  -0.0414613   0.0000000), wk =   0.0555556

     Largest allocated arrays     est. size (Mb)     dimensions
     Largest temporary arrays     est. size (Mb)     dimensions

     Check: negative/imaginary core charge=   -0.000001    0.000000

     Initial potential from superposition of free atoms
     Check: negative starting charge=   -0.503073

     starting charge  173.99948, renormalised to  186.00000

     negative rho (up, down):  5.378E-01 0.000E+00

     *
     * You are using vdW-DF for exchange-correlation in this calculation.
     * Please cite the following three references that made this development
     * possible:
     *
     *   M. Dion, H. Rydberg, E. Schroder, D. C. Langreth, and
     *   B. I. Lundqvist, Phys. Rev. Lett. 92, 246401 (2004).
     *
     *   T. Thonhauser, V. R. Cooper, S. Li, A. Puzder, P. Hyldgaard, and
     *   D. C. Langreth, Phys. Rev. B 76, 125112 (2007).
     *
     *   G. Roman-Perez and J. M. Soler, Phys. Rev. Lett. 103, 096102 (2009).
     *
     *
     * If you are using vdW-DF2, please also cite:
     *
     *   K. Lee, E. D. Murray, L. Kong, B. I. Lundqvist, and
     *   D. C. Langreth, Phys. Rev. B 82, 081101(R) (2010).
     *
     *
     * If you are calculating the stress with vdW-DF, please also cite:
     *
     *   R. Sabatini, E. Kucukbenli, B. Kolb, T. Thonhauser, and
     *   S. de Gironcoli, J. Phys.: Condens. Matter 24, 424209 (2012).
     *

     Carrying out vdW-DF run using the following parameters:

     Nqs =      20    Nr_points =    1024   r_max =   100.000
     q_mesh =
               0.00001000     0.04494208     0.09755937     0.15916263
               0.23128650     0.31572767     0.41458969     0.53033537
               0.66584808     0.82450364     1.01025438     1.22772762
               1.48234092     1.78043706     2.12944203     2.53805004
               3.01644009     3.57652955     4.23227104     5.00000000

     Gradients computed in reciprocal space

     Adding external electric field

     Computed dipole along edir(3) :
        Dipole               -3.4726 Ry au,         -8.8265 Debye
        Dipole field         -0.0060 Ry au

        Potential amp.        0.5676 Ry
        Total length         47.3240 bohr

     Starting wfc are  113 randomized atomic wfcs

     Self-consistent Calculation

     iteration #  1     ecut=    36.75 Ry     beta=0.30
     Davidson diagonalization with overlap
     ethr =  1.00E-02,  avg # of iterations =  7.7

[...]

     total energy              =   -2228.56111621 Ry
     Harris-Foulkes estimate   =   -2270.06644843 Ry
     estimated scf accuracy    <      87.75982237 Ry

[...]

     End of self-consistent calculation

          k = 0.0000 0.0000 0.0000 ( 27441 PWs)   bands (ev):

   -22.2486 -22.2486 -22.2436 -22.2134 -22.2134 -22.1759 -22.1659 -22.1658
   -22.1377 -22.1212 -22.1100 -22.1100 -22.0978 -22.0940 -22.0940 -22.0827
   -22.0659 -22.0659 -22.0635 -22.0635 -22.0459 -22.0289 -22.0289 -22.0190
   -22.0140 -22.0140 -22.0071 -21.9987 -21.9987 -21.9863 -21.9828 -21.9828
   -21.9741 -21.9741 -21.9734 -21.9536 -21.9536 -21.9429 -21.9383 -21.9383
   -21.9172 -21.9157 -21.9156 -21.8954 -21.8647 -21.8646 -21.8511 -21.8418
   -21.8417 -21.8416 -21.8188 -21.8187 -21.8017 -21.8017 -21.7948 -21.7859
   -21.7859 -21.7746 -21.7746 -21.7731 -13.6808 -11.9781 -10.8331  -9.7776
    -9.2267  -9.2267  -9.2198  -8.7620  -8.7620  -8.6324  -8.3194  -8.3193
    -8.2650  -4.7878  -3.4846  -3.4846  -3.2377  -2.8540  -2.8322  -2.8321
    -2.5222  -2.3970  -2.3970  -1.0014  -0.6716  -0.6716   0.0314   1.1279
     1.1279   1.1943   1.6870   1.6870   1.9158   2.2851   2.3831   2.3831
     2.9009   3.2969   3.3623   3.3624   3.4257   4.0478   4.0478

[...]

          k =-0.0718 0.0415 0.0000 ( 27378 PWs)   bands (ev):

[...]

     the Fermi energy is     1.5416 ev

!    total energy              =   -2267.27371319 Ry
     Harris-Foulkes estimate   =   -2267.27371880 Ry
     estimated scf accuracy    <       0.00000611 Ry

     The total energy is the sum of the following terms:

     one-electron contribution =  -11013.32214321 Ry
     hartree contribution      =    5564.11294858 Ry
     xc contribution           =    -805.25716685 Ry
     ewald contribution        =    3987.24520731 Ry
     electric field correction =       0.00000127 Ry
     smearing contrib. (-TS)   =      -0.05256028 Ry

     convergence has been achieved in  16 iterations

 BEEF-vdW xc energy contributions
           1 :   -717.796442558001
           2 :    667.026456178045
           3 :   -577.476732010725
           4 :    468.619536463170
           5 :   -360.892750070027
           6 :    269.766596015519
           7 :   -202.260230632415
           8 :    156.787704668069
           9 :   -126.002151626175
          10 :    101.168715401503
          11 :   -76.1265136619875
          12 :    49.2769662817916
          13 :   -23.1001535632131
          14 :    1.85120019387750
          15 :    11.1969288885430
          16 :   -15.5993227492152
          17 :    13.9098020865297
          18 :   -10.3127477931714
          19 :    8.57374575315760
          20 :   -10.3956829962995
          21 :    14.9494400501281
          22 :   -19.7012612222723
          23 :    21.9973868171332
          24 :   -20.5374610842459
          25 :    16.0003710036494
          26 :   -10.5827460418064
          27 :    6.77706262691515
          28 :   -6.07610540892097
          29 :    8.27497589185600
          30 :   -11.6928758439925
          31 :   -57.4548002822405
          32 :   -42.2797923644086

     Forces acting on atoms (Ry/au):

     negative rho (up, down):  5.265E-01 0.000E+00
     atom    1 type  1   force =     0.00189771    0.00107844   -0.01123713
     atom    2 type  1   force =    -0.00188374    0.00107733   -0.01119852
     atom    3 type  1   force =    -0.00000851   -0.00216387   -0.01122200
     atom    4 type  1   force =     0.00001955    0.00001377   -0.00164130
     atom    5 type  1   force =    -0.00002933    0.00098281   -0.01087600
     atom    6 type  1   force =     0.00003166   -0.00000140    0.00231976
     atom    7 type  1   force =    -0.00085946   -0.00048466   -0.01089644
     atom    8 type  1   force =     0.00084573   -0.00052067   -0.01088154
     atom    9 type  1   force =    -0.00000123    0.00000648    0.00650498
     atom   10 type  1   force =     0.00000437    0.01068250    0.03191292
     atom   11 type  1   force =     0.00923689   -0.00532834    0.03192450
     atom   12 type  1   force =    -0.00924861   -0.00534767    0.03192040
     atom   13 type  2   force =    -0.00000243    0.00000288   -0.00985216
     atom   14 type  3   force =    -0.00000261    0.00000239   -0.02677747

     Total force =     0.065230     Total SCF correction =     0.000595

     entering subroutine stress ...

     negative rho (up, down):  5.265E-01 0.000E+00
          total   stress  (Ry/bohr**3)                   (kbar)     P=    5.65
   0.00004378  -0.00000000  -0.00000000          6.44     -0.00     -0.00
  -0.00000000   0.00004378  -0.00000000         -0.00      6.44     -0.00
  -0.00000000  -0.00000000   0.00002776         -0.00     -0.00      4.08

     BFGS Geometry Optimization

     number of scf cycles    =   1
     number of bfgs steps    =   0

     energy   new            =   -2267.2737131880 Ry

     new trust radius        =       0.0336607497 bohr
     new conv_thr            =       0.0000099958 Ry

ATOMIC_POSITIONS (crystal)
Bi1      0.166666667   0.166666667   0.389334134    0   0   0
Bi1      0.666666667   0.166666667   0.389334134    0   0   0
Bi1      0.166666667   0.666666667   0.389334134    0   0   0
Bi1      0.666666667   0.666666667   0.389334134    0   0   0
Bi1      0.833333333   0.333333333   0.500000000    0   0   0
Bi1      0.333333333   0.333333333   0.500000000    0   0   0
Bi1      0.833333333   0.833333333   0.500000000    0   0   0
Bi1      0.333333333   0.833333333   0.500000000    0   0   0
Bi1     -0.000000378   0.000000568   0.610799886
Bi1      0.499531577   0.000937512   0.611323357
Bi1      0.000935849   0.499532377   0.611323596
Bi1      0.499531732   0.499530681   0.611323511
N1       0.333333022   0.333333586   0.665884599
H1       0.333333030   0.333333543   0.706415976

     Writing output data file calc.save
     Check: negative starting charge=   -0.503073
     NEW-OLD atomic charge density approx. for the potential

     Check: negative/imaginary core charge=   -0.000001    0.000000
     Check: negative starting charge=   -0.502796

[...]

     energy   old            =   -2267.2737131880 Ry
     energy   new            =   -2267.2775544012 Ry

     CASE: energy  _new < energy  _old

     WARNING: bfgs curvature condition failed, Theta= 0.921
     new trust radius        =       0.0370268246 bohr
     new conv_thr            =       0.0000001000 Ry

[...]

     WARNING: bfgs curvature condition failed, Theta= 0.987
     new trust radius        =       0.0367012379 bohr
     new conv_thr            =       0.0000001000 Ry

[...]

     Total force =     0.011294     Total SCF correction =     0.001154
     SCF correction compared to forces is large: reduce conv_thr to get better values

[...]

     Total force =     0.009256     Total SCF correction =     0.000731

[...]

     number of scf cycles    =  21
     number of bfgs steps    =  20

     energy   old            =   -2267.2995204530 Ry
     energy   new            =   -2267.2995382598 Ry

     CASE: energy  _new < energy  _old

     new trust radius        =       0.0225726416 bohr
     new conv_thr            =       0.0000001000 Ry

ATOMIC_POSITIONS (crystal)
Bi1      0.166666667   0.166666667   0.389334134    0   0   0
Bi1      0.666666667   0.166666667   0.389334134    0   0   0
Bi1      0.166666667   0.666666667   0.389334134    0   0   0
Bi1      0.666666667   0.666666667   0.389334134    0   0   0
Bi1      0.833333333   0.333333333   0.500000000    0   0   0
Bi1      0.333333333   0.333333333   0.500000000    0   0   0
Bi1      0.833333333   0.833333333   0.500000000    0   0   0
Bi1      0.333333333   0.833333333   0.500000000    0   0   0
Bi1      0.000005018  -0.000000240   0.616460684
Bi1      0.499297422   0.001385353   0.627230671
Bi1      0.001379113   0.499315077   0.627231694
Bi1      0.499305703   0.499310572   0.627230117
N1       0.333333163   0.333334293   0.675419174
H1       0.333333511   0.333332642   0.715469326

     Writing output data file calc.save
     Check: negative starting charge=   -0.502743
     NEW-OLD atomic charge density approx. for the potential

     Check: negative/imaginary core charge=   -0.000001    0.000000
     Check: negative starting charge=   -0.502190

[...]

     Self-consistent Calculation

[...]

     total energy              =   -2267.29954486 Ry
     Harris-Foulkes estimate   =   -2267.29954501 Ry
     estimated scf accuracy    <       0.00000071 Ry

     iteration #  8     ecut=    36.75 Ry     beta=0.30
     Davidson diagonalization with overlap
     ethr =  3.83E-10,  avg # of iterations =  3.0

[...]

     negative rho (up, down):  5.254E-01 0.000E+00

     Adding external electric field

     Computed dipole along edir(3) :
        Dipole                0.1020 Ry au,          0.2591 Debye
        Dipole field          0.0002 Ry au

        Potential amp.       -0.0167 Ry
        Total length         47.3240 bohr

     End of self-consistent calculation

[...]

          k = 0.0479-0.0553 0.0000 ( 27352 PWs)   bands (ev):

[...]

          k =-0.0718-0.0415 0.0000 ( 27378 PWs)   bands (ev):

   -22.0804 -22.0487 -22.0428 -22.0397 -22.0392 -22.0341 -22.0333 -22.0064
   -21.9935 -21.9889 -21.9769 -21.9726 -21.9703 -21.9695 -21.9657 -21.9651
   -21.9633 -21.9547 -21.9542 -21.9538 -21.9471 -21.9432 -21.9386 -21.9307
   -21.9239 -21.9209 -21.9201 -21.9093 -21.9075 -21.8987 -21.8938 -21.8913
   -21.8891 -21.8888 -21.8814 -21.8645 -21.8620 -21.8583 -21.8435 -21.8364
   -21.8356 -21.8290 -21.8238 -21.8166 -21.8159 -21.8158 -21.8148 -21.8123
   -21.8086 -21.8050 -21.8015 -21.7938 -21.7845 -21.7611 -21.7518 -21.7137
   -21.7032 -21.6863 -21.6849 -21.6745 -14.4047 -10.7768 -10.7366  -9.9631
    -9.7230  -9.2138  -9.1836  -9.1579  -9.1018  -8.7787  -8.5621  -8.2235
    -8.1731  -4.5031  -2.6426  -1.9972  -1.7971  -1.6854  -1.6698  -1.6359
    -1.5377  -1.4391  -1.1025  -0.3578  -0.3016  -0.1659  -0.0232   0.3112
     0.6697   0.9228   0.9274   0.9864   1.1483   1.2228   1.3021   1.6486
     1.7396   1.8868   1.9454   2.3721   2.6192   3.3178   3.4707

     the Fermi energy is     1.6092 ev

!    total energy              =   -2267.29954488 Ry
     Harris-Foulkes estimate   =   -2267.29954463 Ry
     estimated scf accuracy    <       0.00000007 Ry

     The total energy is the sum of the following terms:

     one-electron contribution =  -10467.18500585 Ry
     hartree contribution      =    5291.46093320 Ry
     xc contribution           =    -805.11145987 Ry
     ewald contribution        =    3713.58756921 Ry
     electric field correction =       0.00001795 Ry
     smearing contrib. (-TS)   =      -0.05159953 Ry

     convergence has been achieved in   8 iterations

 BEEF-vdW xc energy contributions
           1 :   -717.640620164481
           2 :    666.742857658529
           3 :   -577.014510116801
           4 :    468.047204925139
           5 :   -360.373779629299
           6 :    269.472049770267
           7 :   -202.267009353398
           8 :    157.025011438462
           9 :   -126.282108011258
          10 :    101.286347017728
          11 :   -75.9726427872959
          12 :    48.9006120272834
          13 :   -22.6851896430360
          14 :    1.61768416144230
          15 :    11.1149184559772
          16 :   -15.2309778879563
          17 :    13.4357584676422
          18 :   -9.97104560153184
          19 :    8.53370932225607
          20 :   -10.6673697283165
          21 :    15.3783359093334
          22 :   -20.0516831208886
          23 :    22.0787982299763
          24 :   -20.3053926766970
          25 :    15.5780901984513
          26 :   -10.1929943339177
          27 :    6.62170799887178
          28 :   -6.22871583891197
          29 :    8.64366108868944
          30 :   -12.0722593974410
          31 :   -57.4381420716031
          32 :   -42.2256149727618

     Forces acting on atoms (Ry/au):

     negative rho (up, down):  5.254E-01 0.000E+00
     atom    1 type  1   force =     0.00209160    0.00120753   -0.00539837
     atom    2 type  1   force =    -0.00209084    0.00120703   -0.00539729
     atom    3 type  1   force =    -0.00000018   -0.00241507   -0.00539796
     atom    4 type  1   force =    -0.00000002   -0.00000007    0.00164771
     atom    5 type  1   force =     0.00000014    0.00259706    0.00219585
     atom    6 type  1   force =    -0.00000031    0.00000022    0.00801690
     atom    7 type  1   force =    -0.00224903   -0.00129880    0.00219554
     atom    8 type  1   force =     0.00224871   -0.00129840    0.00219698
     atom    9 type  1   force =     0.00000047    0.00000013   -0.00179211
     atom   10 type  1   force =     0.00000049   -0.00138169   -0.00002446
     atom   11 type  1   force =    -0.00119759    0.00069294   -0.00002243
     atom   12 type  1   force =     0.00119700    0.00068825   -0.00002386
     atom   13 type  2   force =    -0.00000120    0.00000043    0.00073376
     atom   14 type  3   force =     0.00000074    0.00000043    0.00106974

     Total force =     0.003260     Total SCF correction =     0.001134
     SCF correction compared to forces is large: reduce conv_thr to get better values

     entering subroutine stress ...

     negative rho (up, down):  5.254E-01 0.000E+00
          total   stress  (Ry/bohr**3)                   (kbar)     P=    1.45
   0.00001664  -0.00000000   0.00000000          2.45     -0.00      0.00
  -0.00000000   0.00001664   0.00000000         -0.00      2.45      0.00
   0.00000000   0.00000000  -0.00000362          0.00      0.00     -0.53

     bfgs converged in  22 scf cycles and  21 bfgs steps
     (criteria: energy <  1.0E+00, force <  1.9E-03)

     End of BFGS Geometry Optimization

     Final energy   =   -2267.2995448796 Ry
Begin final coordinates

ATOMIC_POSITIONS (crystal)
Bi1      0.166666667   0.166666667   0.389334134    0   0   0
Bi1      0.666666667   0.166666667   0.389334134    0   0   0
Bi1      0.166666667   0.666666667   0.389334134    0   0   0
Bi1      0.666666667   0.666666667   0.389334134    0   0   0
Bi1      0.833333333   0.333333333   0.500000000    0   0   0
Bi1      0.333333333   0.333333333   0.500000000    0   0   0
Bi1      0.833333333   0.833333333   0.500000000    0   0   0
Bi1      0.333333333   0.833333333   0.500000000    0   0   0
Bi1      0.000005018  -0.000000240   0.616460684
Bi1      0.499297422   0.001385353   0.627230671
Bi1      0.001379113   0.499315077   0.627231694
Bi1      0.499305703   0.499310572   0.627230117
N1       0.333333163   0.333334293   0.675419174
H1       0.333333511   0.333332642   0.715469326
End final coordinates

     Writing output data file calc.save

     General routines

     Parallel routines

   This run was terminated on:  12:50: 5  27Apr2018

   JOB DONE.