     Program PWSCF v.5.1rc2 (svn rev. 11289) starts on 20Jan2018 at  5:20:38

     Current dimensions of program PWSCF are:
     Max number of different atomic species (ntypx) = 10
     Max number of k-points (npk) =  40000
     Max angular momentum in pseudopotentials (lmaxx) =  3
     Presently stress not available with electric field

     IMPORTANT: XC functional enforced from input :
     Exchange-correlation      = BEEF-VDW ( 1  4 27 13 2)
     Any further DFT definition will be discarded
     Please, verify this is what you really want

     Subspace diagonalization in iterative solution of the eigenvalue problem:
     a serial algorithm will be used

     bravais-lattice index     =            0
     lattice parameter (alat)  =       1.8897  a.u.
     unit-cell volume          =    7171.5276 (a.u.)^3
     number of atoms/cell      =           13
     number of atomic types    =            2
     number of electrons       =       173.00
     number of Kohn-Sham states=           96
     kinetic-energy cutoff     =      36.7493  Ry
     charge density cutoff     =     367.4932  Ry
     convergence threshold     =      1.0E-05
     mixing beta               =       0.3000
     number of iterations used =           10  plain     mixing
     Exchange-correlation      = BEEF-VDW ( 1  4 27 13 2)
     nstep                     =           50

     celldm(1)=   1.889726  celldm(2)=   0.000000  celldm(3)=   0.000000
     celldm(4)=   0.000000  celldm(5)=   0.000000  celldm(6)=   0.000000

     crystal axes: (cart. coord. in units of alat)
               a(1) = (   6.917003   0.000000   0.000000 )
               a(2) = (   3.458501   5.990300   0.000000 )
               a(3) = (   0.000000   0.000000  25.647709 )

     reciprocal axes: (cart. coord. in units 2 pi/alat)
               b(1) = (  0.144571 -0.083468  0.000000 )
               b(2) = (  0.000000  0.166937  0.000000 )
               b(3) = (  0.000000  0.000000  0.038990 )

     PseudoPot. # 1 for Pb read from file:
     /afs/slac.stanford.edu/u/if/mamunm/psp/gbrv1.5pbe/Pb.UPF
     MD5 check sum: 3d1c1779aa92214d1e8f3a7db79003e2
     Pseudo is Ultrasoft + core correction, Zval = 14.0
     Generated by new atomic code, or converted to UPF format
     Using radial grid of  899 points,  6 beta functions with:
                l(1) =   0
                l(2) =   0
                l(3) =   1
                l(4) =   1
                l(5) =   2
                l(6) =   2
     Q(r) pseudized with  6 coefficients,  rinner =    1.000   1.000   1.000
                                                       1.000   1.000

     PseudoPot. # 2 for N  read from file:
     /afs/slac.stanford.edu/u/if/mamunm/psp/gbrv1.5pbe/N.UPF
     MD5 check sum: 95339753478d7afb44899504a8723017
     Pseudo is Ultrasoft + core correction, Zval =  5.0
     Generated by new atomic code, or converted to UPF format
     Using radial grid of  729 points,  4 beta functions with:
                l(1) =   0
                l(2) =   0
                l(3) =   1
                l(4) =   1
     Q(r) pseudized with  8 coefficients,  rinner =    0.900   0.900   0.900

     vdW kernel table read from file vdW_kernel_table
     MD5 check sum: 095c7af220d748ca6e76c0b4c6cfb241

     atomic species   valence    mass     pseudopotential
        Pb1           14.00   207.20000     Pb( 1.00)
        N1             5.00    14.00700     N ( 1.00)

     No symmetry found

   Cartesian axes

     site n.     atom                  positions (alat units)
         1           Pb1 tau(   1) = (   1.7292506   0.9983833  10.0000000  )
         2           Pb1 tau(   2) = (   5.1877519   0.9983833  10.0000000  )
         3           Pb1 tau(   3) = (   3.4585013   3.9935333  10.0000000  )
         4           Pb1 tau(   4) = (   6.9170025   3.9935333  10.0000000  )
         5           Pb1 tau(   5) = (   6.9170025   1.9967666  12.8238544  )
         6           Pb1 tau(   6) = (   3.4585013   1.9967666  12.8238544  )
         7           Pb1 tau(   7) = (   8.6462531   4.9919166  12.8238544  )
         8           Pb1 tau(   8) = (   5.1877519   4.9919166  12.8238544  )
         9           Pb1 tau(   9) = (   0.0000000   0.0000000  15.6477089  )
        10           Pb1 tau(  10) = (   3.4585013   0.0000000  15.6477089  )
        11           Pb1 tau(  11) = (   1.7292506   2.9951499  15.6477089  )
        12           Pb1 tau(  12) = (   5.1877519   2.9951499  15.6477089  )
        13           N1  tau(  13) = (   0.0000000   0.0000000  17.8177089  )

     number of k points=    20  Fermi-Dirac smearing, width (Ry)=  0.0110
                       cart. coord. in units 2pi/alat
        k(    1) = (   0.0000000   0.0000000   0.0000000), wk =   0.0555556
        k(    2) = (   0.0000000   0.0278228   0.0000000), wk =   0.1111111
        k(    3) = (   0.0000000   0.0556455   0.0000000), wk =   0.1111111
        k(    4) = (   0.0000000  -0.0834683   0.0000000), wk =   0.0555556
        k(    5) = (   0.0240952  -0.0139114   0.0000000), wk =   0.1111111
        k(    6) = (   0.0240952   0.0139114   0.0000000), wk =   0.1111111
        k(    7) = (   0.0240952   0.0417341   0.0000000), wk =   0.1111111
        k(    8) = (   0.0240952  -0.0973797   0.0000000), wk =   0.1111111
        k(    9) = (   0.0240952  -0.0695569   0.0000000), wk =   0.1111111
        k(   10) = (   0.0240952  -0.0417341   0.0000000), wk =   0.1111111
        k(   11) = (   0.0481904  -0.0278228   0.0000000), wk =   0.1111111
        k(   12) = (   0.0481904   0.0000000   0.0000000), wk =   0.1111111
        k(   13) = (   0.0481904   0.0278228   0.0000000), wk =   0.1111111
        k(   14) = (   0.0481904  -0.1112910   0.0000000), wk =   0.1111111
        k(   15) = (   0.0481904  -0.0834683   0.0000000), wk =   0.1111111
        k(   16) = (   0.0481904  -0.0556455   0.0000000), wk =   0.1111111
        k(   17) = (  -0.0722856   0.0417341   0.0000000), wk =   0.0555556
        k(   18) = (  -0.0722856   0.0695569   0.0000000), wk =   0.1111111
        k(   19) = (  -0.0722856   0.0973797   0.0000000), wk =   0.1111111
        k(   20) = (  -0.0722856  -0.0417341   0.0000000), wk =   0.0555556

     Largest allocated arrays     est. size (Mb)     dimensions
     Largest temporary arrays     est. size (Mb)     dimensions

     Check: negative/imaginary core charge=   -0.000001    0.000000

     Initial potential from superposition of free atoms
     Check: negative starting charge=   -0.198116

     starting charge  172.97177, renormalised to  173.00000

     negative rho (up, down):  1.981E-01 0.000E+00

     *
     * You are using vdW-DF for exchange-correlation in this calculation.
     * Please cite the following three references that made this development
     * possible:
     *
     *   M. Dion, H. Rydberg, E. Schroder, D. C. Langreth, and
     *   B. I. Lundqvist, Phys. Rev. Lett. 92, 246401 (2004).
     *
     *   T. Thonhauser, V. R. Cooper, S. Li, A. Puzder, P. Hyldgaard, and
     *   D. C. Langreth, Phys. Rev. B 76, 125112 (2007).
     *
     *   G. Roman-Perez and J. M. Soler, Phys. Rev. Lett. 103, 096102 (2009).
     *
     *
     * If you are using vdW-DF2, please also cite:
     *
     *   K. Lee, E. D. Murray, L. Kong, B. I. Lundqvist, and
     *   D. C. Langreth, Phys. Rev. B 82, 081101(R) (2010).
     *
     *
     * If you are calculating the stress with vdW-DF, please also cite:
     *
     *   R. Sabatini, E. Kucukbenli, B. Kolb, T. Thonhauser, and
     *   S. de Gironcoli, J. Phys.: Condens. Matter 24, 424209 (2012).
     *

     Carrying out vdW-DF run using the following parameters:

     Nqs =      20    Nr_points =    1024   r_max =   100.000
     q_mesh =
               0.00001000     0.04494208     0.09755937     0.15916263
               0.23128650     0.31572767     0.41458969     0.53033537
               0.66584808     0.82450364     1.01025438     1.22772762
               1.48234092     1.78043706     2.12944203     2.53805004
               3.01644009     3.57652955     4.23227104     5.00000000

     Gradients computed in reciprocal space

     Adding external electric field

     Computed dipole along edir(3) :
        Dipole               -0.0076 Ry au,         -0.0193 Debye
        Dipole field         -0.0000 Ry au

        Potential amp.        0.0013 Ry
        Total length         47.2555 bohr

     Starting wfc are  112 randomized atomic wfcs

     Self-consistent Calculation

     iteration #  1     ecut=    36.75 Ry     beta=0.30
     Davidson diagonalization with overlap
     ethr =  1.00E-02,  avg # of iterations =  2.0

[...]

     total energy              =   -2010.27385840 Ry
     Harris-Foulkes estimate   =   -2012.56040214 Ry
     estimated scf accuracy    <       4.88113247 Ry

[...]

     End of self-consistent calculation

          k = 0.0000 0.0000 0.0000 ( 27033 PWs)   bands (ev):

   -17.1212 -17.1129 -17.1129 -17.0686 -17.0600 -17.0600 -17.0396 -17.0337
   -17.0192 -17.0192 -16.9913 -16.9913 -16.9886 -16.9804 -16.9602 -16.9602
   -16.9565 -16.9534 -16.9494 -16.9494 -16.9384 -16.9384 -16.9303 -16.9282
   -16.9282 -16.9231 -16.9231 -16.9023 -16.8858 -16.8858 -16.8575 -16.8510
   -16.8510 -16.8122 -16.8122 -16.7996 -16.7996 -16.7706 -16.7316 -16.7316
   -16.7293 -16.7155 -16.7155 -16.7107 -16.6911 -16.6911 -16.6770 -16.6709
   -16.6709 -16.6682 -16.6682 -16.6610 -16.6303 -16.6239 -16.6239 -16.4846
   -16.4261 -16.4261 -16.2879 -16.2879 -11.6685 -10.9463  -9.7740  -8.3209
    -7.5125  -7.5125  -7.4376  -7.0824  -7.0824  -6.8298  -6.4410  -6.4410
    -6.1042  -3.2117  -3.2070  -3.2070  -2.5993  -2.1811  -2.1630  -2.1630
    -2.0566  -2.0566  -2.0374  -0.1977   0.3763   0.3763   0.4265   1.6958
     1.7778   1.7778   1.8374   1.8374   2.8396   3.0926   3.1454   3.1454

[...]

          k =-0.0723 0.0417 0.0000 ( 26962 PWs)   bands (ev):

[...]

     the Fermi energy is     0.5470 ev

!    total energy              =   -2012.22326048 Ry
     Harris-Foulkes estimate   =   -2012.22338110 Ry
     estimated scf accuracy    <       0.00000950 Ry

     The total energy is the sum of the following terms:

     one-electron contribution =   -9541.55378183 Ry
     hartree contribution      =    4839.43312208 Ry
     xc contribution           =    -789.12082195 Ry
     ewald contribution        =    3479.06854298 Ry
     electric field correction =       0.00125215 Ry
     smearing contrib. (-TS)   =      -0.05157392 Ry

     convergence has been achieved in  15 iterations

 BEEF-vdW xc energy contributions
           1 :   -703.267913240591
           2 :    653.059695628984
           3 :   -564.760729727028
           4 :    457.789916361968
           5 :   -352.052066348836
           6 :    262.039055315668
           7 :   -193.766504901162
           8 :    145.213034419762
           9 :   -109.581059670387
          10 :    79.6255905641669
          11 :   -51.0570333933929
          12 :    23.6929555310994
          13 :  -0.275459000963338
          14 :   -16.0048777468758
          15 :    23.7700876788585
          16 :   -24.3654224565253
          17 :    21.1555599922582
          18 :   -17.8050477399845
          19 :    16.5791382114958
[...]
00031 suncat1040 pw.x -in pw.inp   Done                     01/20/2018 05:37:53

     Program PWSCF v.5.1rc2 (svn rev. 11289) starts on 20Jan2018 at  5:38: 1

[...]

   This run was terminated on:   6:33: 9  20Jan2018

[...]

   This run was terminated on:   6:51: 3  20Jan2018

[...]

     Program PWSCF v.5.1rc2 (svn rev. 11289) starts on 20Jan2018 at  6:51: 9

[...]

   This run was terminated on:   7: 8:46  20Jan2018

[...]

     Program PWSCF v.5.1rc2 (svn rev. 11289) starts on 20Jan2018 at  7: 8:51

[...]

   This run was terminated on:   7:44:37  20Jan2018

[...]

     Program PWSCF v.5.1rc2 (svn rev. 11289) starts on 20Jan2018 at  7:44:42

     Current dimensions of program PWSCF are:
     Max number of different atomic species (ntypx) = 10
     Max number of k-points (npk) =  40000
     Max angular momentum in pseudopotentials (lmaxx) =  3
     Presently stress not available with electric field

     IMPORTANT: XC functional enforced from input :
     Exchange-correlation      = BEEF-VDW ( 1  4 27 13 2)
     Any further DFT definition will be discarded
     Please, verify this is what you really want

     Subspace diagonalization in iterative solution of the eigenvalue problem:
     a serial algorithm will be used

     bravais-lattice index     =            0
     lattice parameter (alat)  =       1.8897  a.u.
     unit-cell volume          =    7171.5276 (a.u.)^3
     number of atoms/cell      =           13
     number of atomic types    =            2
     number of electrons       =       173.00
     number of Kohn-Sham states=           96
     kinetic-energy cutoff     =      36.7493  Ry
     charge density cutoff     =     367.4932  Ry
     convergence threshold     =      1.0E-05
     mixing beta               =       0.3000
     number of iterations used =           10  plain     mixing
     Exchange-correlation      = BEEF-VDW ( 1  4 27 13 2)
     nstep                     =           50

     celldm(1)=   1.889726  celldm(2)=   0.000000  celldm(3)=   0.000000
     celldm(4)=   0.000000  celldm(5)=   0.000000  celldm(6)=   0.000000

     crystal axes: (cart. coord. in units of alat)
               a(1) = (   6.917003   0.000000   0.000000 )
               a(2) = (   3.458501   5.990300   0.000000 )
               a(3) = (   0.000000   0.000000  25.647709 )

     reciprocal axes: (cart. coord. in units 2 pi/alat)
               b(1) = (  0.144571 -0.083468  0.000000 )
               b(2) = (  0.000000  0.166937  0.000000 )
               b(3) = (  0.000000  0.000000  0.038990 )

     PseudoPot. # 1 for Pb read from file:
     /afs/slac.stanford.edu/u/if/mamunm/psp/gbrv1.5pbe/Pb.UPF
     MD5 check sum: 3d1c1779aa92214d1e8f3a7db79003e2
     Pseudo is Ultrasoft + core correction, Zval = 14.0
     Generated by new atomic code, or converted to UPF format
     Using radial grid of  899 points,  6 beta functions with:
                l(1) =   0
                l(2) =   0
                l(3) =   1
                l(4) =   1
                l(5) =   2
                l(6) =   2
     Q(r) pseudized with  6 coefficients,  rinner =    1.000   1.000   1.000
                                                       1.000   1.000

     PseudoPot. # 2 for N  read from file:
     /afs/slac.stanford.edu/u/if/mamunm/psp/gbrv1.5pbe/N.UPF
     MD5 check sum: 95339753478d7afb44899504a8723017
     Pseudo is Ultrasoft + core correction, Zval =  5.0
     Generated by new atomic code, or converted to UPF format
     Using radial grid of  729 points,  4 beta functions with:
                l(1) =   0
                l(2) =   0
                l(3) =   1
                l(4) =   1
     Q(r) pseudized with  8 coefficients,  rinner =    0.900   0.900   0.900

     vdW kernel table read from file vdW_kernel_table
     MD5 check sum: 095c7af220d748ca6e76c0b4c6cfb241

     atomic species   valence    mass     pseudopotential
        Pb1           14.00   207.20000     Pb( 1.00)
        N1             5.00    14.00700     N ( 1.00)

     No symmetry found

   Cartesian axes

     site n.     atom                  positions (alat units)
         1           Pb1 tau(   1) = (   1.7292506   0.9983833  10.0000000  )
         2           Pb1 tau(   2) = (   5.1877519   0.9983833  10.0000000  )
         3           Pb1 tau(   3) = (   3.4585013   3.9935333  10.0000000  )
         4           Pb1 tau(   4) = (   6.9170025   3.9935333  10.0000000  )
         5           Pb1 tau(   5) = (   6.9170025   1.9967666  12.8238544  )
         6           Pb1 tau(   6) = (   3.4585013   1.9967666  12.8238544  )
         7           Pb1 tau(   7) = (   8.6462531   4.9919166  12.8238544  )
         8           Pb1 tau(   8) = (   5.1877519   4.9919166  12.8238544  )
         9           Pb1 tau(   9) = (   6.9170262   0.0002033  15.8019278  )
        10           Pb1 tau(  10) = (   6.9172023   5.9790405  15.9379314  )
        11           Pb1 tau(  11) = (   8.6364320   3.0008589  15.9378291  )
        12           Pb1 tau(  12) = (   5.1974448   3.0007441  15.9379730  )
        13           N1  tau(  13) = (  10.3753751   5.9901556  17.8780889  )

     number of k points=    20  Fermi-Dirac smearing, width (Ry)=  0.0110
                       cart. coord. in units 2pi/alat
        k(    1) = (   0.0000000   0.0000000   0.0000000), wk =   0.0555556
        k(    2) = (   0.0000000   0.0278228   0.0000000), wk =   0.1111111
        k(    3) = (   0.0000000   0.0556455   0.0000000), wk =   0.1111111
        k(    4) = (   0.0000000  -0.0834683   0.0000000), wk =   0.0555556
        k(    5) = (   0.0240952  -0.0139114   0.0000000), wk =   0.1111111
        k(    6) = (   0.0240952   0.0139114   0.0000000), wk =   0.1111111
        k(    7) = (   0.0240952   0.0417341   0.0000000), wk =   0.1111111
        k(    8) = (   0.0240952  -0.0973797   0.0000000), wk =   0.1111111
        k(    9) = (   0.0240952  -0.0695569   0.0000000), wk =   0.1111111
        k(   10) = (   0.0240952  -0.0417341   0.0000000), wk =   0.1111111
        k(   11) = (   0.0481904  -0.0278228   0.0000000), wk =   0.1111111
        k(   12) = (   0.0481904   0.0000000   0.0000000), wk =   0.1111111
        k(   13) = (   0.0481904   0.0278228   0.0000000), wk =   0.1111111
        k(   14) = (   0.0481904  -0.1112910   0.0000000), wk =   0.1111111
        k(   15) = (   0.0481904  -0.0834683   0.0000000), wk =   0.1111111
        k(   16) = (   0.0481904  -0.0556455   0.0000000), wk =   0.1111111
        k(   17) = (  -0.0722856   0.0417341   0.0000000), wk =   0.0555556
        k(   18) = (  -0.0722856   0.0695569   0.0000000), wk =   0.1111111
        k(   19) = (  -0.0722856   0.0973797   0.0000000), wk =   0.1111111
        k(   20) = (  -0.0722856  -0.0417341   0.0000000), wk =   0.0555556

     Largest allocated arrays     est. size (Mb)     dimensions
     Largest temporary arrays     est. size (Mb)     dimensions

     Check: negative/imaginary core charge=   -0.000001    0.000000

     Initial potential from superposition of free atoms
     Check: negative starting charge=   -0.194884

     starting charge  172.97177, renormalised to  173.00000

[...]

     *
     * You are using vdW-DF for exchange-correlation in this calculation.
     * Please cite the following three references that made this development
     * possible:
     *
     *   M. Dion, H. Rydberg, E. Schroder, D. C. Langreth, and
     *   B. I. Lundqvist, Phys. Rev. Lett. 92, 246401 (2004).
     *
     *   T. Thonhauser, V. R. Cooper, S. Li, A. Puzder, P. Hyldgaard, and
     *   D. C. Langreth, Phys. Rev. B 76, 125112 (2007).
     *
     *   G. Roman-Perez and J. M. Soler, Phys. Rev. Lett. 103, 096102 (2009).
     *
     *
     * If you are using vdW-DF2, please also cite:
     *
     *   K. Lee, E. D. Murray, L. Kong, B. I. Lundqvist, and
     *   D. C. Langreth, Phys. Rev. B 82, 081101(R) (2010).
     *
     *
     * If you are calculating the stress with vdW-DF, please also cite:
     *
     *   R. Sabatini, E. Kucukbenli, B. Kolb, T. Thonhauser, and
     *   S. de Gironcoli, J. Phys.: Condens. Matter 24, 424209 (2012).
     *

     Carrying out vdW-DF run using the following parameters:

     Nqs =      20    Nr_points =    1024   r_max =   100.000
     q_mesh =
               0.00001000     0.04494208     0.09755937     0.15916263
               0.23128650     0.31572767     0.41458969     0.53033537
               0.66584808     0.82450364     1.01025438     1.22772762
               1.48234092     1.78043706     2.12944203     2.53805004
               3.01644009     3.57652955     4.23227104     5.00000000

     Gradients computed in reciprocal space

[...]

     Starting wfc are  112 randomized atomic wfcs

     Self-consistent Calculation

[...]

     total energy              =   -2012.23836729 Ry
     Harris-Foulkes estimate   =   -2012.23836790 Ry
     estimated scf accuracy    <       0.00001247 Ry

     iteration # 15     ecut=    36.75 Ry     beta=0.30
     Davidson diagonalization with overlap
     ethr =  7.21E-09,  avg # of iterations =  4.5

[...]

     negative rho (up, down):  2.113E-01 0.000E+00

     Adding external electric field

     Computed dipole along edir(3) :
        Dipole               -0.7986 Ry au,         -2.0299 Debye
        Dipole field         -0.0014 Ry au

        Potential amp.        0.1323 Ry
        Total length         47.2555 bohr

     End of self-consistent calculation

[...]

          k = 0.0482-0.0556 0.0000 ( 26956 PWs)   bands (ev):

[...]

          k =-0.0723-0.0417 0.0000 ( 26962 PWs)   bands (ev):

   -17.0405 -16.9671 -16.9649 -16.9560 -16.9489 -16.9434 -16.9370 -16.9294
   -16.9291 -16.9184 -16.9183 -16.9110 -16.9106 -16.8969 -16.8857 -16.8790
   -16.8776 -16.8760 -16.8686 -16.8667 -16.8580 -16.8539 -16.8530 -16.8432
   -16.8347 -16.8299 -16.8131 -16.8120 -16.8099 -16.8069 -16.7853 -16.7837
   -16.7832 -16.7788 -16.7703 -16.7438 -16.7434 -16.7390 -16.7361 -16.7249
   -16.7222 -16.7024 -16.6967 -16.6959 -16.6915 -16.6870 -16.6826 -16.6769
   -16.6718 -16.6449 -16.6418 -16.6355 -16.6291 -16.5957 -16.5857 -16.5397
   -16.3611 -16.3434 -16.1802 -16.1767 -11.7265  -9.7076  -9.6689  -8.7680
    -8.4563  -7.7496  -7.7322  -7.6197  -7.4794  -7.0445  -6.6709  -6.3366
    -6.0506  -1.4947  -1.4665  -1.3915  -1.3771  -1.3050  -1.2252  -0.8085
    -0.6943  -0.3314  -0.0774   0.0877   0.2977   0.4810   0.7121   0.8663
     1.2817   1.3337   1.4074   1.6565   1.6919   1.7484   1.9636   2.1634

     the Fermi energy is     0.6031 ev

!    total energy              =   -2012.23836729 Ry
     Harris-Foulkes estimate   =   -2012.23835727 Ry
     estimated scf accuracy    <       0.00000335 Ry

     The total energy is the sum of the following terms:

     one-electron contribution =   -9210.98442096 Ry
     hartree contribution      =    4674.35466449 Ry
     xc contribution           =    -789.01077064 Ry
     ewald contribution        =    3313.45059815 Ry
     electric field correction =       0.00111758 Ry
     smearing contrib. (-TS)   =      -0.04955592 Ry

     convergence has been achieved in  15 iterations

 BEEF-vdW xc energy contributions
           1 :   -703.147843876264
           2 :    652.848038297616
           3 :   -564.433448662997
           4 :    457.426765311678
           5 :   -351.800176968891
           6 :    262.014454550244
           7 :   -193.964261831887
           8 :    145.493581560314
           9 :   -109.746014687822
          10 :    79.5364716668909
          11 :   -50.7224055306924
          12 :    23.2690701605922
          13 :   2.140905398505311E-002
          14 :   -16.0237770171657
          15 :    23.5153672730931
          16 :   -23.9965734160631
          17 :    20.8943022410831
          18 :   -17.8047103758893
          19 :    16.8347097303615
          20 :   -17.9218042702731
          21 :    19.3855429933171
          22 :   -19.2705286750937
          23 :    16.6515038708386
          24 :   -12.1808816433854
          25 :    7.64997862912878
          26 :   -4.91120225239615
          27 :    4.82947220221922
          28 :   -6.85407654292885
          29 :    9.40675797316931
          30 :   -10.8154275654374
          31 :   -56.3707914704185
          32 :   -41.2727293082235

     Forces acting on atoms (Ry/au):

     negative rho (up, down):  2.113E-01 0.000E+00
     atom    1 type  1   force =    -0.00130242   -0.00072626   -0.00788143
     atom    2 type  1   force =     0.00130574   -0.00075170   -0.00786938
     atom    3 type  1   force =    -0.00000284    0.00148954   -0.00787056
     atom    4 type  1   force =    -0.00000076   -0.00000645   -0.00537017
     atom    5 type  1   force =    -0.00000770    0.00173108    0.00590536
     atom    6 type  1   force =     0.00000085   -0.00000854    0.01387614
     atom    7 type  1   force =    -0.00151591   -0.00087040    0.00591461
     atom    8 type  1   force =     0.00151979   -0.00087531    0.00592598
     atom    9 type  1   force =     0.00000906    0.00001438   -0.00133575
     atom   10 type  1   force =     0.00000550    0.00016208   -0.00012216
     atom   11 type  1   force =     0.00013886   -0.00007989   -0.00012803
     atom   12 type  1   force =    -0.00013730   -0.00006667   -0.00014700
     atom   13 type  2   force =    -0.00001287   -0.00001188   -0.00089761

     Total force =     0.023041     Total SCF correction =     0.007886
     SCF correction compared to forces is large: reduce conv_thr to get better values

     entering subroutine stress ...

     negative rho (up, down):  2.113E-01 0.000E+00
          total   stress  (Ry/bohr**3)                   (kbar)     P=    5.71
   0.00005151  -0.00000000  -0.00000001          7.58     -0.00     -0.00
  -0.00000000   0.00005151  -0.00000001         -0.00      7.58     -0.00
  -0.00000001  -0.00000001   0.00001343         -0.00     -0.00      1.98

 !ASE

     Writing output data file calc.save

     General routines

     Parallel routines

   This run was terminated on:   8: 2: 5  20Jan2018

   JOB DONE.
Job  /afs/slac/g/suncat/bin/suncat-tsmpirun -x LD_LIBRARY_PATH -wdir /scratch/qe864359_ZgWZi pw.x -in pw.inp

TID   HOST_NAME   COMMAND_LINE            STATUS            TERMINATION_TIME
00000 suncat1043 pw.x -in pw.inp   Done                     01/20/2018 08:02:05
00001 suncat1043 pw.x -in pw.inp   Done                     01/20/2018 08:02:05
00002 suncat1043 pw.x -in pw.inp   Done                     01/20/2018 08:02:05
00003 suncat1043 pw.x -in pw.inp   Done                     01/20/2018 08:02:05
00004 suncat1043 pw.x -in pw.inp   Done                     01/20/2018 08:02:05
00005 suncat1043 pw.x -in pw.inp   Done                     01/20/2018 08:02:05
00006 suncat1043 pw.x -in pw.inp   Done                     01/20/2018 08:02:05
00007 suncat1043 pw.x -in pw.inp   Done                     01/20/2018 08:02:05
00008 suncat1041 pw.x -in pw.inp   Done                     01/20/2018 08:02:05
00009 suncat1041 pw.x -in pw.inp   Done                     01/20/2018 08:02:05
00010 suncat1041 pw.x -in pw.inp   Done                     01/20/2018 08:02:05
00011 suncat1041 pw.x -in pw.inp   Done                     01/20/2018 08:02:05
00012 suncat1041 pw.x -in pw.inp   Done                     01/20/2018 08:02:05
00013 suncat1041 pw.x -in pw.inp   Done                     01/20/2018 08:02:05
00014 suncat1041 pw.x -in pw.inp   Done                     01/20/2018 08:02:05
00015 suncat1041 pw.x -in pw.inp   Done                     01/20/2018 08:02:05
00016 suncat1041 pw.x -in pw.inp   Done                     01/20/2018 08:02:05
00017 suncat1041 pw.x -in pw.inp   Done                     01/20/2018 08:02:05
00018 suncat1041 pw.x -in pw.inp   Done                     01/20/2018 08:02:05
00019 suncat1041 pw.x -in pw.inp   Done                     01/20/2018 08:02:05
00020 suncat1040 pw.x -in pw.inp   Done                     01/20/2018 08:02:05
00021 suncat1040 pw.x -in pw.inp   Done                     01/20/2018 08:02:05
00022 suncat1040 pw.x -in pw.inp   Done                     01/20/2018 08:02:05
00023 suncat1040 pw.x -in pw.inp   Done                     01/20/2018 08:02:05
00024 suncat1040 pw.x -in pw.inp   Done                     01/20/2018 08:02:05
00025 suncat1040 pw.x -in pw.inp   Done                     01/20/2018 08:02:05
00026 suncat1040 pw.x -in pw.inp   Done                     01/20/2018 08:02:05
00027 suncat1040 pw.x -in pw.inp   Done                     01/20/2018 08:02:05
00028 suncat1040 pw.x -in pw.inp   Done                     01/20/2018 08:02:05
00029 suncat1040 pw.x -in pw.inp   Done                     01/20/2018 08:02:05
00030 suncat1040 pw.x -in pw.inp   Done                     01/20/2018 08:02:05
00031 suncat1040 pw.x -in pw.inp   Done                     01/20/2018 08:02:05