     Program PWSCF v.5.1rc2 (svn rev. 11289) starts on 16Apr2018 at  9:58:15

     Current dimensions of program PWSCF are:
     Max number of different atomic species (ntypx) = 10
     Max number of k-points (npk) =  40000
     Max angular momentum in pseudopotentials (lmaxx) =  3
     Presently stress not available with electric field

     IMPORTANT: XC functional enforced from input :
     Exchange-correlation      = BEEF-VDW ( 1  4 27 13 2)
     Any further DFT definition will be discarded
     Please, verify this is what you really want

     Subspace diagonalization in iterative solution of the eigenvalue problem:
     a serial algorithm will be used

     bravais-lattice index     =            0
     lattice parameter (alat)  =       1.8897  a.u.
     unit-cell volume          =    5174.6160 (a.u.)^3
     number of atoms/cell      =           14
     number of atomic types    =            3
     number of electrons       =       235.00
     number of Kohn-Sham states=          127
     kinetic-energy cutoff     =      36.7493  Ry
     charge density cutoff     =     367.4932  Ry
     convergence threshold     =      1.0E-05
     mixing beta               =       0.3000
     number of iterations used =           10  plain     mixing
     Exchange-correlation      = BEEF-VDW ( 1  4 27 13 2)
     nstep                     =           50

     celldm(1)=   1.889726  celldm(2)=   0.000000  celldm(3)=   0.000000
     celldm(4)=   0.000000  celldm(5)=   0.000000  celldm(6)=   0.000000

     crystal axes: (cart. coord. in units of alat)
               a(1) = (   5.966546   0.000000   0.000000 )
               a(2) = (   2.983273   5.167181   0.000000 )
               a(3) = (   0.000000   0.000000  24.871665 )

     reciprocal axes: (cart. coord. in units 2 pi/alat)
               b(1) = (  0.167601 -0.096765  0.000000 )
               b(2) = (  0.000000  0.193529  0.000000 )
               b(3) = (  0.000000  0.000000  0.040206 )

     PseudoPot. # 1 for Ag read from file:
     /u/if/mamunm/psp/gbrv1.5pbe/Ag.UPF
     MD5 check sum: d66d668201baa78d5eb5b04ef7011058
     Pseudo is Ultrasoft + core correction, Zval = 19.0
     Generated by new atomic code, or converted to UPF format
     Using radial grid of  887 points,  6 beta functions with:
                l(1) =   0
                l(2) =   0
                l(3) =   1
                l(4) =   1
                l(5) =   2
                l(6) =   2
     Q(r) pseudized with  6 coefficients,  rinner =    1.300   1.300   1.300
                                                       1.300   1.300

     PseudoPot. # 2 for O  read from file:
     /u/if/mamunm/psp/gbrv1.5pbe/O.UPF
     MD5 check sum: 734c27235a0248c51dbae37a1fbe46ec
     Pseudo is Ultrasoft + core correction, Zval =  6.0
     Generated by new atomic code, or converted to UPF format
     Using radial grid of  737 points,  5 beta functions with:
                l(1) =   0
                l(2) =   0
                l(3) =   1
                l(4) =   1
                l(5) =   2
     Q(r) pseudized with  8 coefficients,  rinner =    0.900   0.900   0.900
                                                       0.900   0.900

     PseudoPot. # 3 for H  read from file:
     /u/if/mamunm/psp/gbrv1.5pbe/H.UPF
     MD5 check sum: 761ae9a214b05c3daf00ab9f6b793d6f
     Pseudo is Ultrasoft, Zval =  1.0
     Generated by new atomic code, or converted to UPF format
     Using radial grid of  615 points,  2 beta functions with:
                l(1) =   0
                l(2) =   0
     Q(r) pseudized with  8 coefficients,  rinner =    0.700

     vdW kernel table read from file vdW_kernel_table
     MD5 check sum: 095c7af220d748ca6e76c0b4c6cfb241

     atomic species   valence    mass     pseudopotential
        Ag1           19.00   107.86820     Ag( 1.00)
        O1             6.00    15.99900     O ( 1.00)
        H1             1.00     1.00800     H ( 1.00)

     No symmetry found

   Cartesian axes

     site n.     atom                  positions (alat units)
         1           Ag1 tau(   1) = (   1.4916366   0.8611968  10.0000000  )
         2           Ag1 tau(   2) = (   4.4749098   0.8611968  10.0000000  )
         3           Ag1 tau(   3) = (   2.9832732   3.4447871  10.0000000  )
         4           Ag1 tau(   4) = (   5.9665464   3.4447871  10.0000000  )
         5           Ag1 tau(   5) = (   5.9665464   1.7223936  12.4358324  )
         6           Ag1 tau(   6) = (   2.9832732   1.7223936  12.4358324  )
         7           Ag1 tau(   7) = (   7.4581830   4.3059839  12.4358324  )
         8           Ag1 tau(   8) = (   4.4749098   4.3059839  12.4358324  )
         9           Ag1 tau(   9) = (   0.0000000   0.0000000  14.8716647  )
        10           Ag1 tau(  10) = (   2.9832732   0.0000000  14.8716647  )
        11           Ag1 tau(  11) = (   1.4916366   2.5835904  14.8716647  )
        12           Ag1 tau(  12) = (   4.4749098   2.5835904  14.8716647  )
        13           O1  tau(  13) = (   0.0000000   0.0000000  16.6651647  )
        14           H1  tau(  14) = (   0.0000000   0.0000000  17.6151647  )

     number of k points=    20  Fermi-Dirac smearing, width (Ry)=  0.0110
                       cart. coord. in units 2pi/alat
        k(    1) = (   0.0000000   0.0000000   0.0000000), wk =   0.0555556
        k(    2) = (   0.0000000   0.0322549   0.0000000), wk =   0.1111111
        k(    3) = (   0.0000000   0.0645097   0.0000000), wk =   0.1111111
        k(    4) = (   0.0000000  -0.0967646   0.0000000), wk =   0.0555556
        k(    5) = (   0.0279335  -0.0161274   0.0000000), wk =   0.1111111
        k(    6) = (   0.0279335   0.0161274   0.0000000), wk =   0.1111111
        k(    7) = (   0.0279335   0.0483823   0.0000000), wk =   0.1111111
        k(    8) = (   0.0279335  -0.1128920   0.0000000), wk =   0.1111111
        k(    9) = (   0.0279335  -0.0806371   0.0000000), wk =   0.1111111
        k(   10) = (   0.0279335  -0.0483823   0.0000000), wk =   0.1111111
        k(   11) = (   0.0558670  -0.0322549   0.0000000), wk =   0.1111111
        k(   12) = (   0.0558670   0.0000000   0.0000000), wk =   0.1111111
        k(   13) = (   0.0558670   0.0322549   0.0000000), wk =   0.1111111
        k(   14) = (   0.0558670  -0.1290194   0.0000000), wk =   0.1111111
        k(   15) = (   0.0558670  -0.0967646   0.0000000), wk =   0.1111111
        k(   16) = (   0.0558670  -0.0645097   0.0000000), wk =   0.1111111
        k(   17) = (  -0.0838006   0.0483823   0.0000000), wk =   0.0555556
        k(   18) = (  -0.0838006   0.0806371   0.0000000), wk =   0.1111111
        k(   19) = (  -0.0838006   0.1128920   0.0000000), wk =   0.1111111
        k(   20) = (  -0.0838006  -0.0483823   0.0000000), wk =   0.0555556

     Largest allocated arrays     est. size (Mb)     dimensions
     Largest temporary arrays     est. size (Mb)     dimensions

     Initial potential from superposition of free atoms
     Check: negative starting charge=   -0.002004

     starting charge  228.99942, renormalised to  235.00000

     negative rho (up, down):  2.056E-03 0.000E+00

     *
     * You are using vdW-DF for exchange-correlation in this calculation.
     * Please cite the following three references that made this development
     * possible:
     *
     *   M. Dion, H. Rydberg, E. Schroder, D. C. Langreth, and
     *   B. I. Lundqvist, Phys. Rev. Lett. 92, 246401 (2004).
     *
     *   T. Thonhauser, V. R. Cooper, S. Li, A. Puzder, P. Hyldgaard, and
     *   D. C. Langreth, Phys. Rev. B 76, 125112 (2007).
     *
     *   G. Roman-Perez and J. M. Soler, Phys. Rev. Lett. 103, 096102 (2009).
     *
     *
     * If you are using vdW-DF2, please also cite:
     *
     *   K. Lee, E. D. Murray, L. Kong, B. I. Lundqvist, and
     *   D. C. Langreth, Phys. Rev. B 82, 081101(R) (2010).
     *
     *
     * If you are calculating the stress with vdW-DF, please also cite:
     *
     *   R. Sabatini, E. Kucukbenli, B. Kolb, T. Thonhauser, and
     *   S. de Gironcoli, J. Phys.: Condens. Matter 24, 424209 (2012).
     *

     Carrying out vdW-DF run using the following parameters:

     Nqs =      20    Nr_points =    1024   r_max =   100.000
     q_mesh =
               0.00001000     0.04494208     0.09755937     0.15916263
               0.23128650     0.31572767     0.41458969     0.53033537
               0.66584808     0.82450364     1.01025438     1.22772762
               1.48234092     1.78043706     2.12944203     2.53805004
               3.01644009     3.57652955     4.23227104     5.00000000

     Gradients computed in reciprocal space

     Adding external electric field

     Computed dipole along edir(3) :
        Dipole               -1.5129 Ry au,         -3.8454 Debye
        Dipole field         -0.0037 Ry au

        Potential amp.        0.3367 Ry
        Total length         45.8256 bohr

     Starting wfc are  161 randomized atomic wfcs

     Self-consistent Calculation

     iteration #  1     ecut=    36.75 Ry     beta=0.30
     Davidson diagonalization with overlap
     ethr =  1.00E-02,  avg # of iterations =  5.1

[...]

     total energy              =   -3578.38728742 Ry
     Harris-Foulkes estimate   =   -3596.54756229 Ry
     estimated scf accuracy    <      38.96112568 Ry

[...]

     End of self-consistent calculation

          k = 0.0000 0.0000 0.0000 ( 19435 PWs)   bands (ev):

   -90.7577 -90.7298 -90.7248 -90.7247 -90.6579 -90.5607 -90.5283 -90.5234
   -90.5232 -90.5166 -90.5114 -90.5114 -54.2844 -54.2844 -54.2708 -54.2571
   -54.2458 -54.2184 -54.2184 -54.2180 -54.2180 -54.2152 -54.2107 -54.1888
   -54.1888 -54.1379 -54.1379 -54.0882 -54.0881 -54.0739 -54.0692 -54.0401
   -54.0275 -54.0275 -54.0241 -54.0241 -54.0131 -54.0063 -54.0005 -54.0004
   -53.9981 -53.9948 -53.9948 -53.9944 -53.9936 -53.9936 -53.9922 -53.9922
   -17.6267  -7.0510  -5.1410  -4.4914  -4.4914  -4.4715  -4.4379  -4.3469
    -4.3469  -4.2827  -4.2791  -4.2791  -4.2695  -4.2194  -4.0696  -4.0696
    -4.0587  -3.7323  -3.7323  -3.4763  -3.4039  -3.4039  -3.3702  -3.3005
    -3.3005  -3.2569  -3.1434  -3.1434  -3.1315  -3.1315  -3.0854  -3.0299
    -3.0299  -2.6791  -2.6791  -2.5412  -2.5412  -2.5311  -2.4642  -2.4642
    -2.4258  -2.3108  -2.3108  -2.2687  -2.1979  -2.1979  -2.1156  -2.0283
    -2.0282  -1.9668  -1.9328  -1.9328  -1.8786  -1.8786  -1.8287  -1.8287
    -1.8149  -1.6569  -1.6569  -1.6389  -1.6318  -1.6317  -1.6179  -0.9431
    -0.2596  -0.2596   0.6453   1.8042   1.9004   1.9004   2.2693   2.5395
     2.7089   2.7089   2.9820   3.2839   3.2839   4.7955   4.9993

[...]

          k =-0.0838 0.0484 0.0000 ( 19500 PWs)   bands (ev):

[...]

     the Fermi energy is     1.2906 ev

!    total energy              =   -3593.46647789 Ry
     Harris-Foulkes estimate   =   -3593.46647524 Ry
     estimated scf accuracy    <       0.00000878 Ry

     The total energy is the sum of the following terms:

     one-electron contribution =  -26229.63516395 Ry
     hartree contribution      =   13109.54351773 Ry
     xc contribution           =    -369.47101087 Ry
     ewald contribution        =    9896.12326695 Ry
     electric field correction =       0.00000025 Ry
     smearing contrib. (-TS)   =      -0.02708801 Ry

     convergence has been achieved in  15 iterations

 BEEF-vdW xc energy contributions
           1 :   -320.027221302291
           2 :    289.452399357453
           3 :   -238.585846221690
           4 :    182.891986352640
           5 :   -136.244428612897
           6 :    105.978946178637
           7 :   -91.6533099948938
           8 :    87.3496548531132
           9 :   -85.7937112305831
          10 :    81.9890125923474
          11 :   -74.7396212045361
          12 :    65.8108776084853
          13 :   -57.7867532452329
          14 :    52.1548360446808
          15 :   -48.6752927869351
          16 :    46.0608857375815
          17 :   -43.1689052850676
          18 :    39.7630558280614
          19 :   -36.4277819619228
          20 :    33.8853875504864
          21 :   -32.3320933140660
          22 :    31.2790307691610
          23 :   -29.9533071604536
          24 :    27.9015048230411
          25 :   -25.3335388201924
          26 :    22.9663396976363
          27 :   -21.5037524225801
          28 :    21.1408719330570
          29 :   -21.4455159344944
          30 :    21.6744974722698
          31 :   -31.9983243157988
          32 :   -23.2078327603423

     Forces acting on atoms (Ry/au):

     negative rho (up, down):  2.119E-03 0.000E+00
     atom    1 type  1   force =    -0.00073653   -0.00043471   -0.00008310
     atom    2 type  1   force =     0.00073754   -0.00042045   -0.00008510
     atom    3 type  1   force =     0.00001303    0.00085290   -0.00008139
     atom    4 type  1   force =    -0.00001317    0.00000211    0.00256482
     atom    5 type  1   force =    -0.00000749   -0.00301757    0.00269555
     atom    6 type  1   force =     0.00000709   -0.00000494    0.00238180
     atom    7 type  1   force =     0.00260846    0.00151594    0.00269869
     atom    8 type  1   force =    -0.00260852    0.00150705    0.00269494
     atom    9 type  1   force =    -0.00000387    0.00000160   -0.25534229
     atom   10 type  1   force =     0.00000340    0.00046391   -0.00540403
     atom   11 type  1   force =     0.00040068   -0.00023082   -0.00540397
     atom   12 type  1   force =    -0.00040064   -0.00023518   -0.00540268
     atom   13 type  2   force =     0.00000001    0.00000030    0.21849466
     atom   14 type  3   force =     0.00000001   -0.00000015    0.04027210

     Total force =     0.338600     Total SCF correction =     0.005369

     entering subroutine stress ...

     negative rho (up, down):  2.119E-03 0.000E+00
          total   stress  (Ry/bohr**3)                   (kbar)     P=    1.44
  -0.00005681   0.00000000   0.00000000         -8.36      0.00      0.00
   0.00000000  -0.00005681   0.00000000          0.00     -8.36      0.00
   0.00000000   0.00000000   0.00014298          0.00      0.00     21.03

     BFGS Geometry Optimization

     number of scf cycles    =   1
     number of bfgs steps    =   0

     energy   new            =   -3593.4664778927 Ry

     new trust radius        =       0.2553422867 bohr
     new conv_thr            =       0.0000099958 Ry

ATOMIC_POSITIONS (crystal)
Ag1      0.166666667   0.166666667   0.402063960    0   0   0
Ag1      0.666666667   0.166666667   0.402063960    0   0   0
Ag1      0.166666667   0.666666667   0.402063960    0   0   0
Ag1      0.666666667   0.666666667   0.402063960    0   0   0
Ag1      0.833333333   0.333333333   0.500000000    0   0   0
Ag1      0.333333333   0.333333333   0.500000000    0   0   0
Ag1      0.833333333   0.833333333   0.500000000    0   0   0
Ag1      0.333333333   0.833333333   0.500000000    0   0   0
Ag1     -0.000000425   0.000000164   0.592503299
Ag1      0.499976547   0.000047510   0.597821062
Ag1      0.000047356   0.499976361   0.597821064
Ag1      0.499976509   0.499975915   0.597821091
O1      -0.000000015   0.000000031   0.674694971
H1       0.000000009  -0.000000015   0.709099129

     Writing output data file calc.save
     Check: negative starting charge=   -0.002004
     NEW-OLD atomic charge density approx. for the potential
     Check: negative starting charge=   -0.002017

[...]

     energy   old            =   -3593.4664778927 Ry
     energy   new            =   -3593.4906807097 Ry

     CASE: energy  _new < energy  _old

[...]

     Total force =     0.013672     Total SCF correction =     0.001492
     SCF correction compared to forces is large: reduce conv_thr to get better values

[...]

     Threshold (ethr) on eigenvalues was too large:
     Diagonalizing with lowered threshold

     Davidson diagonalization with overlap
     ethr =  1.92E-08,  avg # of iterations =  1.6

[...]

     Total force =     0.014348     Total SCF correction =     0.000974

[...]

     number of scf cycles    =  12
     number of bfgs steps    =  11

     energy   old            =   -3593.5268502793 Ry
     energy   new            =   -3593.5268684843 Ry

     CASE: energy  _new < energy  _old

     new trust radius        =       0.0055080865 bohr
     new conv_thr            =       0.0000001000 Ry

ATOMIC_POSITIONS (crystal)
Ag1      0.166666667   0.166666667   0.402063960    0   0   0
Ag1      0.666666667   0.166666667   0.402063960    0   0   0
Ag1      0.166666667   0.666666667   0.402063960    0   0   0
Ag1      0.666666667   0.666666667   0.402063960    0   0   0
Ag1      0.833333333   0.333333333   0.500000000    0   0   0
Ag1      0.333333333   0.333333333   0.500000000    0   0   0
Ag1      0.833333333   0.833333333   0.500000000    0   0   0
Ag1      0.333333333   0.833333333   0.500000000    0   0   0
Ag1      0.000000663  -0.000000380   0.592977912
Ag1      0.499735887   0.000526886   0.597386848
Ag1      0.000527245   0.499736258   0.597386843
Ag1      0.499735994   0.499737154   0.597386829
O1       0.000000648   0.000000082   0.678229802
H1      -0.000000325  -0.000000054   0.717243209

     Writing output data file calc.save
     Check: negative starting charge=   -0.001973
     NEW-OLD atomic charge density approx. for the potential
     Check: negative starting charge=   -0.001974

[...]

     Self-consistent Calculation

[...]

     Threshold (ethr) on eigenvalues was too large:
     Diagonalizing with lowered threshold

     Davidson diagonalization with overlap
     ethr =  6.89E-09,  avg # of iterations =  2.0

[...]

     total energy              =   -3593.52687449 Ry
     Harris-Foulkes estimate   =   -3593.52687432 Ry
     estimated scf accuracy    <       0.00000012 Ry

     iteration #  6     ecut=    36.75 Ry     beta=0.30
     Davidson diagonalization with overlap
     ethr =  4.99E-11,  avg # of iterations =  2.0

[...]

     negative rho (up, down):  2.110E-03 0.000E+00

     Adding external electric field

     Computed dipole along edir(3) :
        Dipole               -0.1969 Ry au,         -0.5006 Debye
        Dipole field         -0.0005 Ry au

        Potential amp.        0.0438 Ry
        Total length         45.8256 bohr

     End of self-consistent calculation

[...]

          k = 0.0559-0.0645 0.0000 ( 19479 PWs)   bands (ev):

[...]

          k =-0.0838-0.0484 0.0000 ( 19500 PWs)   bands (ev):

   -91.0488 -91.0341 -91.0322 -91.0306 -90.8409 -90.8170 -90.8151 -90.8135
   -90.7703 -90.7686 -90.7668 -90.6795 -54.5683 -54.5579 -54.5468 -54.5460
   -54.5342 -54.5311 -54.5294 -54.5290 -54.5266 -54.5253 -54.5098 -54.5002
   -54.3612 -54.3461 -54.3433 -54.3218 -54.3195 -54.3180 -54.3174 -54.3132
   -54.3015 -54.2942 -54.2923 -54.2912 -54.2901 -54.2884 -54.2793 -54.2756
   -54.2752 -54.2528 -54.2471 -54.2453 -54.2434 -54.1990 -54.1897 -54.1253
   -16.6187  -5.3381  -4.5216  -4.4875  -4.3545  -4.3518  -4.3340  -4.3091
    -4.2179  -4.2117  -4.1263  -4.1100  -4.0815  -4.0408  -3.9730  -3.9404
    -3.8987  -3.8795  -3.6664  -3.6591  -3.6314  -3.6211  -3.6086  -3.5924
    -3.5279  -3.4419  -3.3167  -3.3111  -3.2912  -3.2646  -3.2509  -3.2319
    -3.1894  -3.1380  -3.0184  -3.0167  -2.9972  -2.9950  -2.9855  -2.9702
    -2.9688  -2.8868  -2.8018  -2.7954  -2.7810  -2.7061  -2.6976  -2.6975
    -2.6597  -2.6544  -2.6537  -2.6236  -2.5809  -2.5788  -2.4839  -2.4607
    -2.4163  -2.3652  -2.1700  -2.1596  -2.1262  -2.0716  -2.0266  -1.8178
    -1.2760  -0.7442  -0.0702   0.1332   0.7693   0.8721   1.5300   1.7202
     2.2865   2.3433   4.0777   4.1316   4.5210   4.8628   6.0837

     the Fermi energy is     0.9967 ev

!    total energy              =   -3593.52687451 Ry
     Harris-Foulkes estimate   =   -3593.52687443 Ry
     estimated scf accuracy    <       0.00000003 Ry

     The total energy is the sum of the following terms:

     one-electron contribution =  -26264.40763128 Ry
     hartree contribution      =   13125.26308026 Ry
     xc contribution           =    -369.36511494 Ry
     ewald contribution        =    9915.01056054 Ry
     electric field correction =       0.00009419 Ry
     smearing contrib. (-TS)   =      -0.02786328 Ry

     convergence has been achieved in   6 iterations

 BEEF-vdW xc energy contributions
           1 :   -319.907877750342
           2 :    289.273518372016
           3 :   -238.352834603896
           4 :    182.673716118129
           5 :   -136.118046254955
           6 :    105.974400516547
           7 :   -91.7385125244996
           8 :    87.4602932787569
           9 :   -85.8762199066906
          10 :    82.0258502182652
          11 :   -74.7455804469628
          12 :    65.8100194910136
          13 :   -57.7912662753524
          14 :    52.1611199235656
          15 :   -48.6756413703976
          16 :    46.0575789406452
          17 :   -43.1763305719712
          18 :    39.7952723103802
          19 :   -36.4834949868603
          20 :    33.9457008978220
          21 :   -32.3732752888026
          22 :    31.2898569024410
          23 :   -29.9430676238678
          24 :    27.8916346499459
          25 :   -25.3396856866018
          26 :    22.9857867606274
          27 :   -21.5186059723804
          28 :    21.1356646177653
          29 :   -21.4255362137519
          30 :    21.6683612369873
          31 :   -31.9911900850756
          32 :   -23.1896274658936

     Forces acting on atoms (Ry/au):

     negative rho (up, down):  2.110E-03 0.000E+00
     atom    1 type  1   force =    -0.00035643   -0.00020578   -0.00013033
     atom    2 type  1   force =     0.00035643   -0.00020579   -0.00013030
     atom    3 type  1   force =    -0.00000001    0.00041157   -0.00013032
     atom    4 type  1   force =     0.00000001   -0.00000000    0.00205187
     atom    5 type  1   force =    -0.00000005    0.00083439   -0.00145944
     atom    6 type  1   force =     0.00000003   -0.00000003    0.00174754
     atom    7 type  1   force =    -0.00072264   -0.00041717   -0.00145941
     atom    8 type  1   force =     0.00072263   -0.00041721   -0.00145981
     atom    9 type  1   force =    -0.00000102    0.00000037    0.00055977
     atom   10 type  1   force =     0.00000092   -0.00032768    0.00028751
     atom   11 type  1   force =    -0.00028413    0.00016416    0.00028751
     atom   12 type  1   force =     0.00028413    0.00016308    0.00028753
     atom   13 type  2   force =     0.00000037    0.00000016    0.00060849
     atom   14 type  3   force =    -0.00000024   -0.00000008   -0.00106061

     Total force =     0.001542     Total SCF correction =     0.001020
     SCF correction compared to forces is large: reduce conv_thr to get better values

     entering subroutine stress ...

     negative rho (up, down):  2.110E-03 0.000E+00
          total   stress  (Ry/bohr**3)                   (kbar)     P=   -6.10
  -0.00005082   0.00000000   0.00000000         -7.48      0.00      0.00
   0.00000000  -0.00005082   0.00000000          0.00     -7.48      0.00
   0.00000000   0.00000000  -0.00002286          0.00      0.00     -3.36

     bfgs converged in  13 scf cycles and  12 bfgs steps
     (criteria: energy <  1.0E+00, force <  1.9E-03)

     End of BFGS Geometry Optimization

     Final energy   =   -3593.5268745126 Ry
Begin final coordinates

ATOMIC_POSITIONS (crystal)
Ag1      0.166666667   0.166666667   0.402063960    0   0   0
Ag1      0.666666667   0.166666667   0.402063960    0   0   0
Ag1      0.166666667   0.666666667   0.402063960    0   0   0
Ag1      0.666666667   0.666666667   0.402063960    0   0   0
Ag1      0.833333333   0.333333333   0.500000000    0   0   0
Ag1      0.333333333   0.333333333   0.500000000    0   0   0
Ag1      0.833333333   0.833333333   0.500000000    0   0   0
Ag1      0.333333333   0.833333333   0.500000000    0   0   0
Ag1      0.000000663  -0.000000380   0.592977912
Ag1      0.499735887   0.000526886   0.597386848
Ag1      0.000527245   0.499736258   0.597386843
Ag1      0.499735994   0.499737154   0.597386829
O1       0.000000648   0.000000082   0.678229802
H1      -0.000000325  -0.000000054   0.717243209
End final coordinates

     Writing output data file calc.save

     General routines

     Parallel routines

   This run was terminated on:  11:17:21  16Apr2018

   JOB DONE.
Job  /afs/slac/g/suncat/bin/suncat-tsmpirun -x LD_LIBRARY_PATH -wdir /scratch/qe100449_2ZE3W pw.x -npool 4 -in pw.inp

TID   HOST_NAME   COMMAND_LINE            STATUS            TERMINATION_TIME
00000 suncat0094 pw.x -npool 4 -i  Done                     04/16/2018 11:17:21
00001 suncat0094 pw.x -npool 4 -i  Done                     04/16/2018 11:17:21
00002 suncat0094 pw.x -npool 4 -i  Done                     04/16/2018 11:17:21
00003 suncat0094 pw.x -npool 4 -i  Done                     04/16/2018 11:17:21
00004 suncat0094 pw.x -npool 4 -i  Done                     04/16/2018 11:17:21
00005 suncat0094 pw.x -npool 4 -i  Done                     04/16/2018 11:17:21
00006 suncat0094 pw.x -npool 4 -i  Done                     04/16/2018 11:17:21
00007 suncat0094 pw.x -npool 4 -i  Done                     04/16/2018 11:17:21
00008 suncat0087 pw.x -npool 4 -i  Done                     04/16/2018 11:17:21
00009 suncat0087 pw.x -npool 4 -i  Done                     04/16/2018 11:17:21
00010 suncat0087 pw.x -npool 4 -i  Done                     04/16/2018 11:17:21
00011 suncat0087 pw.x -npool 4 -i  Done                     04/16/2018 11:17:21
00012 suncat0087 pw.x -npool 4 -i  Done                     04/16/2018 11:17:21
00013 suncat0087 pw.x -npool 4 -i  Done                     04/16/2018 11:17:21
00014 suncat0087 pw.x -npool 4 -i  Done                     04/16/2018 11:17:21
00015 suncat0087 pw.x -npool 4 -i  Done                     04/16/2018 11:17:21
00016 suncat0071 pw.x -npool 4 -i  Done                     04/16/2018 11:17:21
00017 suncat0071 pw.x -npool 4 -i  Done                     04/16/2018 11:17:21
00018 suncat0071 pw.x -npool 4 -i  Done                     04/16/2018 11:17:21
00019 suncat0071 pw.x -npool 4 -i  Done                     04/16/2018 11:17:21
00020 suncat0071 pw.x -npool 4 -i  Done                     04/16/2018 11:17:21
00021 suncat0071 pw.x -npool 4 -i  Done                     04/16/2018 11:17:21
00022 suncat0071 pw.x -npool 4 -i  Done                     04/16/2018 11:17:21
00023 suncat0071 pw.x -npool 4 -i  Done                     04/16/2018 11:17:21
00024 suncat0068 pw.x -npool 4 -i  Done                     04/16/2018 11:17:21
00025 suncat0068 pw.x -npool 4 -i  Done                     04/16/2018 11:17:21
00026 suncat0068 pw.x -npool 4 -i  Done                     04/16/2018 11:17:21
00027 suncat0068 pw.x -npool 4 -i  Done                     04/16/2018 11:17:21
00028 suncat0068 pw.x -npool 4 -i  Done                     04/16/2018 11:17:21
00029 suncat0068 pw.x -npool 4 -i  Done                     04/16/2018 11:17:21
00030 suncat0068 pw.x -npool 4 -i  Done                     04/16/2018 11:17:21
00031 suncat0068 pw.x -npool 4 -i  Done                     04/16/2018 11:17:21