     Program PWSCF v.5.1rc2 (svn rev. 11289) starts on 24Apr2018 at 19:14:45

     Current dimensions of program PWSCF are:
     Max number of different atomic species (ntypx) = 10
     Max number of k-points (npk) =  40000
     Max angular momentum in pseudopotentials (lmaxx) =  3
     Presently stress not available with electric field

     IMPORTANT: XC functional enforced from input :
     Exchange-correlation      = BEEF-VDW ( 1  4 27 13 2)
     Any further DFT definition will be discarded
     Please, verify this is what you really want

     Subspace diagonalization in iterative solution of the eigenvalue problem:
     a serial algorithm will be used

     bravais-lattice index     =            0
     lattice parameter (alat)  =       1.8897  a.u.
     unit-cell volume          =    7725.1200 (a.u.)^3
     number of atoms/cell      =           14
     number of atomic types    =            3
     number of electrons       =       139.00
     number of Kohn-Sham states=           79
     kinetic-energy cutoff     =      36.7493  Ry
     charge density cutoff     =     367.4932  Ry
     convergence threshold     =      1.0E-05
     mixing beta               =       0.3000
     number of iterations used =           10  plain     mixing
     Exchange-correlation      = BEEF-VDW ( 1  4 27 13 2)
     nstep                     =           50

     celldm(1)=   1.889726  celldm(2)=   0.000000  celldm(3)=   0.000000
     celldm(4)=   0.000000  celldm(5)=   0.000000  celldm(6)=   0.000000

     crystal axes: (cart. coord. in units of alat)
               a(1) = (   7.152277   0.000000   0.000000 )
               a(2) = (   3.576139   6.194054   0.000000 )
               a(3) = (   0.000000   0.000000  25.839810 )

     reciprocal axes: (cart. coord. in units 2 pi/alat)
               b(1) = (  0.139816 -0.080723  0.000000 )
               b(2) = (  0.000000  0.161445  0.000000 )
               b(3) = (  0.000000  0.000000  0.038700 )

     PseudoPot. # 1 for Y  read from file:
     /u/if/mamunm/psp/gbrv1.5pbe/Y.UPF
     MD5 check sum: d034151ed7554c50b6e82763ed42c788
     Pseudo is Ultrasoft + core correction, Zval = 11.0
     Generated by new atomic code, or converted to UPF format
     Using radial grid of  885 points,  6 beta functions with:
                l(1) =   0
                l(2) =   0
                l(3) =   1
                l(4) =   1
                l(5) =   2
                l(6) =   2
     Q(r) pseudized with  8 coefficients,  rinner =    1.200   1.200   1.200
                                                       1.200   1.200

     PseudoPot. # 2 for O  read from file:
     /u/if/mamunm/psp/gbrv1.5pbe/O.UPF
     MD5 check sum: 734c27235a0248c51dbae37a1fbe46ec
     Pseudo is Ultrasoft + core correction, Zval =  6.0
     Generated by new atomic code, or converted to UPF format
     Using radial grid of  737 points,  5 beta functions with:
                l(1) =   0
                l(2) =   0
                l(3) =   1
                l(4) =   1
                l(5) =   2
     Q(r) pseudized with  8 coefficients,  rinner =    0.900   0.900   0.900
                                                       0.900   0.900

     PseudoPot. # 3 for H  read from file:
     /u/if/mamunm/psp/gbrv1.5pbe/H.UPF
     MD5 check sum: 761ae9a214b05c3daf00ab9f6b793d6f
     Pseudo is Ultrasoft, Zval =  1.0
     Generated by new atomic code, or converted to UPF format
     Using radial grid of  615 points,  2 beta functions with:
                l(1) =   0
                l(2) =   0
     Q(r) pseudized with  8 coefficients,  rinner =    0.700

     vdW kernel table read from file vdW_kernel_table
     MD5 check sum: 095c7af220d748ca6e76c0b4c6cfb241

     atomic species   valence    mass     pseudopotential
        Y1            11.00    88.90584     Y ( 1.00)
        O1             6.00    15.99900     O ( 1.00)
        H1             1.00     1.00800     H ( 1.00)

     No symmetry found

   Cartesian axes

     site n.     atom                  positions (alat units)
         1           Y1  tau(   1) = (   1.7880693   1.0323423  10.0000000  )
         2           Y1  tau(   2) = (   5.3642080   1.0323423  10.0000000  )
         3           Y1  tau(   3) = (   3.5761386   4.1293692  10.0000000  )
         4           Y1  tau(   4) = (   7.1522773   4.1293692  10.0000000  )
         5           Y1  tau(   5) = (   7.1522773   2.0646846  12.9199050  )
         6           Y1  tau(   6) = (   3.5761386   2.0646846  12.9199050  )
         7           Y1  tau(   7) = (   8.9403466   5.1617115  12.9199050  )
         8           Y1  tau(   8) = (   5.3642080   5.1617115  12.9199050  )
         9           Y1  tau(   9) = (   0.0000000   0.0000000  15.8398100  )
        10           Y1  tau(  10) = (   3.5761386   0.0000000  15.8398100  )
        11           Y1  tau(  11) = (   1.7880693   3.0970269  15.8398100  )
        12           Y1  tau(  12) = (   5.3642080   3.0970269  15.8398100  )
        13           O1  tau(  13) = (   1.7880693   1.0323423  17.5038100  )
        14           H1  tau(  14) = (   1.7880693   1.0323423  18.4538100  )

     number of k points=    20  Fermi-Dirac smearing, width (Ry)=  0.0110
                       cart. coord. in units 2pi/alat
        k(    1) = (   0.0000000   0.0000000   0.0000000), wk =   0.0555556
        k(    2) = (   0.0000000   0.0269075   0.0000000), wk =   0.1111111
        k(    3) = (   0.0000000   0.0538151   0.0000000), wk =   0.1111111
        k(    4) = (   0.0000000  -0.0807226   0.0000000), wk =   0.0555556
        k(    5) = (   0.0233026  -0.0134538   0.0000000), wk =   0.1111111
        k(    6) = (   0.0233026   0.0134538   0.0000000), wk =   0.1111111
        k(    7) = (   0.0233026   0.0403613   0.0000000), wk =   0.1111111
        k(    8) = (   0.0233026  -0.0941763   0.0000000), wk =   0.1111111
        k(    9) = (   0.0233026  -0.0672688   0.0000000), wk =   0.1111111
        k(   10) = (   0.0233026  -0.0403613   0.0000000), wk =   0.1111111
        k(   11) = (   0.0466052  -0.0269075   0.0000000), wk =   0.1111111
        k(   12) = (   0.0466052   0.0000000   0.0000000), wk =   0.1111111
        k(   13) = (   0.0466052   0.0269075   0.0000000), wk =   0.1111111
        k(   14) = (   0.0466052  -0.1076301   0.0000000), wk =   0.1111111
        k(   15) = (   0.0466052  -0.0807226   0.0000000), wk =   0.1111111
        k(   16) = (   0.0466052  -0.0538151   0.0000000), wk =   0.1111111
        k(   17) = (  -0.0699078   0.0403613   0.0000000), wk =   0.0555556
        k(   18) = (  -0.0699078   0.0672688   0.0000000), wk =   0.1111111
        k(   19) = (  -0.0699078   0.0941763   0.0000000), wk =   0.1111111
        k(   20) = (  -0.0699078  -0.0403613   0.0000000), wk =   0.0555556

     Largest allocated arrays     est. size (Mb)     dimensions
     Largest temporary arrays     est. size (Mb)     dimensions

     Initial potential from superposition of free atoms
     Check: negative starting charge=   -0.000622

     starting charge  138.94636, renormalised to  139.00000

     negative rho (up, down):  6.219E-04 0.000E+00

     *
     * You are using vdW-DF for exchange-correlation in this calculation.
     * Please cite the following three references that made this development
     * possible:
     *
     *   M. Dion, H. Rydberg, E. Schroder, D. C. Langreth, and
     *   B. I. Lundqvist, Phys. Rev. Lett. 92, 246401 (2004).
     *
     *   T. Thonhauser, V. R. Cooper, S. Li, A. Puzder, P. Hyldgaard, and
     *   D. C. Langreth, Phys. Rev. B 76, 125112 (2007).
     *
     *   G. Roman-Perez and J. M. Soler, Phys. Rev. Lett. 103, 096102 (2009).
     *
     *
     * If you are using vdW-DF2, please also cite:
     *
     *   K. Lee, E. D. Murray, L. Kong, B. I. Lundqvist, and
     *   D. C. Langreth, Phys. Rev. B 82, 081101(R) (2010).
     *
     *
     * If you are calculating the stress with vdW-DF, please also cite:
     *
     *   R. Sabatini, E. Kucukbenli, B. Kolb, T. Thonhauser, and
     *   S. de Gironcoli, J. Phys.: Condens. Matter 24, 424209 (2012).
     *

     Carrying out vdW-DF run using the following parameters:

     Nqs =      20    Nr_points =    1024   r_max =   100.000
     q_mesh =
               0.00001000     0.04494208     0.09755937     0.15916263
               0.23128650     0.31572767     0.41458969     0.53033537
               0.66584808     0.82450364     1.01025438     1.22772762
               1.48234092     1.78043706     2.12944203     2.53805004
               3.01644009     3.57652955     4.23227104     5.00000000

     Gradients computed in reciprocal space

     Adding external electric field

     Computed dipole along edir(3) :
        Dipole               -0.0240 Ry au,         -0.0610 Debye
        Dipole field         -0.0000 Ry au

        Potential amp.        0.0037 Ry
        Total length         47.6094 bohr

     Starting wfc are  161 randomized atomic wfcs

     Self-consistent Calculation

     iteration #  1     ecut=    36.75 Ry     beta=0.30
     Davidson diagonalization with overlap
     ethr =  1.00E-02,  avg # of iterations =  2.0

[...]

     total energy              =   -1156.31157701 Ry
     Harris-Foulkes estimate   =   -1158.79398428 Ry
     estimated scf accuracy    <       5.34720057 Ry

[...]

     End of self-consistent calculation

          k = 0.0000 0.0000 0.0000 ( 28997 PWs)   bands (ev):

   -42.1299 -42.0908 -42.0907 -42.0854 -42.0741 -42.0430 -42.0429 -42.0419
   -41.5209 -41.4831 -41.4830 -41.4585 -22.2722 -22.2214 -22.2214 -22.1911
   -22.1871 -22.1870 -22.1779 -22.1069 -22.1030 -22.0848 -22.0848 -22.0407
   -22.0394 -22.0393 -21.9042 -21.9001 -21.9001 -21.8664 -21.8663 -21.8647
   -21.8010 -21.8010 -21.7668 -21.7668 -21.6462 -21.6354 -21.6354 -21.4323
   -21.4067 -21.4067 -21.3788 -21.3433 -21.3373 -21.3372 -21.2407 -21.2406
   -19.0961  -6.8084  -3.0468  -3.0468  -2.9830  -2.0329  -1.0267  -0.3454
    -0.3454  -0.2874  -0.2378  -0.1866  -0.1866   0.1226   0.1226   0.1415
     0.5782   0.5782   0.6387   1.0193   1.0194   1.1500   1.4308   1.5333
     1.8563   1.9596   1.9597   1.9668   2.0421   2.0421   2.3416

[...]

          k =-0.0699 0.0404 0.0000 ( 29048 PWs)   bands (ev):

[...]

     the Fermi energy is     1.2591 ev

!    total energy              =   -1158.21617367 Ry
     Harris-Foulkes estimate   =   -1158.21618378 Ry
     estimated scf accuracy    <       0.00000198 Ry

     The total energy is the sum of the following terms:

     one-electron contribution =   -5621.73989703 Ry
     hartree contribution      =    2806.78565220 Ry
     xc contribution           =    -347.24593476 Ry
     ewald contribution        =    2004.11352134 Ry
     electric field correction =       0.00007511 Ry
     smearing contrib. (-TS)   =      -0.12959053 Ry

     convergence has been achieved in  15 iterations

 BEEF-vdW xc energy contributions
           1 :   -302.717672997650
           2 :    271.625603746297
           3 :   -218.215069531972
           4 :    155.742516443498
           5 :   -96.4330850594952
           6 :    47.8568577462261
           7 :   -12.4620745001634
           8 :   -10.5646327664472
           9 :    22.9720520492502
          10 :   -26.1875105149180
          11 :    21.4747813706036
          12 :   -10.8025861817168
          13 :   -2.63060423712608
          14 :    14.8441784885528
          15 :   -22.3403042061794
          16 :    23.3996555700586
          17 :   -18.5807453164166
          18 :    10.1437332489490
          19 :  -0.847390654026867
          20 :   -7.11394719416739
          21 :    12.5299520905862
          22 :   -15.0002634295497
          23 :    14.5776289962963
          24 :   -11.5991499498946
          25 :    6.75447803546257
          26 :   -1.16343750494127
          27 :   -3.78739499237884
          28 :    6.87932926853534
          29 :   -7.54363893819601
          30 :    6.07626452925848
          31 :   -29.0692446692815
          32 :   -19.8473922428012

     Forces acting on atoms (Ry/au):

     negative rho (up, down):  2.881E-04 0.000E+00
     atom    1 type  1   force =     0.00004144    0.00001058    0.00417466
     atom    2 type  1   force =    -0.00003828   -0.00015638    0.00456983
     atom    3 type  1   force =    -0.00014171    0.00005502    0.00457658
     atom    4 type  1   force =     0.00014654    0.00009909    0.00456706
     atom    5 type  1   force =    -0.00110344    0.00062875    0.00284237
     atom    6 type  1   force =     0.00109848    0.00069490    0.00284997
     atom    7 type  1   force =     0.00005204   -0.00002013   -0.00557367
     atom    8 type  1   force =    -0.00005730   -0.00130331    0.00284622
     atom    9 type  1   force =     0.01761669    0.01015394    0.02152264
     atom   10 type  1   force =    -0.01760344    0.01018098    0.02151671
     atom   11 type  1   force =     0.00002619   -0.02034193    0.02150871
     atom   12 type  1   force =    -0.00003448    0.00000283   -0.01679905
     atom   13 type  2   force =    -0.00000233   -0.00000305   -0.11481541
     atom   14 type  3   force =    -0.00000040   -0.00000129    0.04621339

     Total force =     0.135019     Total SCF correction =     0.002264

     entering subroutine stress ...

     negative rho (up, down):  2.881E-04 0.000E+00
          total   stress  (Ry/bohr**3)                   (kbar)     P=   -4.73
  -0.00002528  -0.00000000  -0.00000000         -3.72     -0.00     -0.00
  -0.00000000  -0.00002528  -0.00000000         -0.00     -3.72     -0.00
  -0.00000000  -0.00000000  -0.00004599         -0.00     -0.00     -6.77

     BFGS Geometry Optimization

     number of scf cycles    =   1
     number of bfgs steps    =   0

     energy   new            =   -1158.2161736699 Ry

     new trust radius        =       0.1148154110 bohr
     new conv_thr            =       0.0000099958 Ry

ATOMIC_POSITIONS (crystal)
Y1       0.166666667   0.166666667   0.386999750    0   0   0
Y1       0.666666667   0.166666667   0.386999750    0   0   0
Y1       0.166666667   0.666666667   0.386999750    0   0   0
Y1       0.666666667   0.666666667   0.386999750    0   0   0
Y1       0.833333333   0.333333333   0.500000000    0   0   0
Y1       0.333333333   0.333333333   0.500000000    0   0   0
Y1       0.833333333   0.833333333   0.500000000    0   0   0
Y1       0.333333333   0.833333333   0.500000000    0   0   0
Y1       0.000869669   0.000867483   0.613441015
Y1       0.498262674   0.000869793   0.613440894
Y1       0.000870875   0.498262126   0.613440730
Y1       0.499997328   0.500000242   0.612656219
O1       0.166666625   0.166666406   0.675045687
H1       0.166666692   0.166666556   0.715108395

     Writing output data file calc.save
     Check: negative starting charge=   -0.000622
     NEW-OLD atomic charge density approx. for the potential
     Check: negative starting charge=   -0.000614

[...]

     energy   old            =   -1158.2161736699 Ry
     energy   new            =   -1158.2205811737 Ry

     CASE: energy  _new < energy  _old

[...]

     iteration #  1     ecut=    36.75 Ry     beta=0.30
     Davidson diagonalization with overlap
     c_bands:  1 eigenvalues not converged
     ethr =  1.00E-06,  avg # of iterations = 13.7

[...]

     iteration #  7     ecut=    36.75 Ry     beta=0.30
     Davidson diagonalization with overlap
     c_bands:  1 eigenvalues not converged
     ethr =  2.24E-08,  avg # of iterations =  9.8

[...]

     Threshold (ethr) on eigenvalues was too large:
     Diagonalizing with lowered threshold

     Davidson diagonalization with overlap
     ethr =  5.70E-08,  avg # of iterations =  3.0

[...]

     Total force =     0.004308     Total SCF correction =     0.001071
     SCF correction compared to forces is large: reduce conv_thr to get better values

[...]

     Total force =     0.003782     Total SCF correction =     0.000229

[...]

     number of scf cycles    =  22
     number of bfgs steps    =  21

     energy   old            =   -1158.2554980894 Ry
     energy   new            =   -1158.2555208081 Ry

     CASE: energy  _new < energy  _old

     new trust radius        =       0.0174676532 bohr
     new conv_thr            =       0.0000001000 Ry

ATOMIC_POSITIONS (crystal)
Y1       0.166666667   0.166666667   0.386999750    0   0   0
Y1       0.666666667   0.166666667   0.386999750    0   0   0
Y1       0.166666667   0.666666667   0.386999750    0   0   0
Y1       0.666666667   0.666666667   0.386999750    0   0   0
Y1       0.833333333   0.333333333   0.500000000    0   0   0
Y1       0.333333333   0.333333333   0.500000000    0   0   0
Y1       0.833333333   0.833333333   0.500000000    0   0   0
Y1       0.333333333   0.833333333   0.500000000    0   0   0
Y1       0.001858859   0.001857718   0.613197991
Y1       0.496286361   0.001857253   0.613198237
Y1       0.001859149   0.496283915   0.613198200
Y1       0.500000324   0.499998962   0.605150091
O1       0.166666623   0.166666222   0.660055721
H1       0.166666439   0.166666518   0.697892244

     Writing output data file calc.save
     Check: negative starting charge=   -0.000638
     NEW-OLD atomic charge density approx. for the potential
     Check: negative starting charge=   -0.000638

[...]

     Self-consistent Calculation

[...]

     Threshold (ethr) on eigenvalues was too large:
     Diagonalizing with lowered threshold

     Davidson diagonalization with overlap
     ethr =  5.78E-08,  avg # of iterations =  5.0

[...]

     total energy              =   -1158.25553858 Ry
     Harris-Foulkes estimate   =   -1158.25553856 Ry
     estimated scf accuracy    <       0.00000117 Ry

     iteration # 10     ecut=    36.75 Ry     beta=0.30
     Davidson diagonalization with overlap
     ethr =  8.39E-10,  avg # of iterations =  6.8

[...]

     negative rho (up, down):  2.608E-04 0.000E+00

     Adding external electric field

     Computed dipole along edir(3) :
        Dipole                0.2587 Ry au,          0.6577 Debye
        Dipole field          0.0004 Ry au

        Potential amp.       -0.0401 Ry
        Total length         47.6094 bohr

     End of self-consistent calculation

[...]

          k = 0.0466-0.0538 0.0000 ( 29098 PWs)   bands (ev):

[...]

          k =-0.0699-0.0404 0.0000 ( 29048 PWs)   bands (ev):

   -42.0431 -42.0357 -42.0329 -42.0228 -42.0167 -42.0116 -42.0115 -41.8341
   -41.4529 -41.4143 -41.4014 -41.3932 -22.4837 -22.0868 -22.0825 -22.0719
   -22.0588 -22.0559 -22.0385 -22.0248 -22.0189 -22.0152 -22.0073 -21.9969
   -21.9606 -21.9507 -21.9357 -21.9253 -21.9200 -21.9171 -21.8970 -21.7975
   -21.7914 -21.7856 -21.7644 -21.6762 -21.5137 -21.4785 -21.4049 -21.3691
   -21.3678 -21.3441 -21.3397 -21.3261 -21.3156 -21.3152 -21.2325 -21.2082
   -19.9205  -7.9554  -4.5308  -4.4797  -1.7635  -1.7169  -0.9027  -0.7906
    -0.0897  -0.0750   0.0885   0.1463   0.3508   0.3634   0.9873   1.0305
     1.0490   1.0704   1.1279   1.1496   1.2747   1.2768   1.3492   1.3988
     1.4473   1.4604   1.4828   1.6477   1.7293   1.7995   1.8349

     the Fermi energy is     1.2928 ev

!    total energy              =   -1158.25553869 Ry
     Harris-Foulkes estimate   =   -1158.25553894 Ry
     estimated scf accuracy    <       0.00000008 Ry

     The total energy is the sum of the following terms:

     one-electron contribution =   -5731.21320963 Ry
     hartree contribution      =    2861.49498832 Ry
     xc contribution           =    -347.37064588 Ry
     ewald contribution        =    2058.96283597 Ry
     electric field correction =       0.00010891 Ry
     smearing contrib. (-TS)   =      -0.12961637 Ry

     convergence has been achieved in  10 iterations

 BEEF-vdW xc energy contributions
           1 :   -302.856814345755
           2 :    271.845025459763
           3 :   -218.490141688199
           4 :    155.965054774982
           5 :   -96.5099229869437
           6 :    47.7828875118555
           7 :   -12.3181724758131
           8 :   -10.6779093019720
           9 :    23.0041747527004
          10 :   -26.1569018662308
          11 :    21.4370054558669
          12 :   -10.8035286395757
          13 :   -2.58275488954064
          14 :    14.7776006447021
          15 :   -22.2972025753919
          16 :    23.4074039777834
          17 :   -18.6346149399982
          18 :    10.2137921643196
          19 :  -0.901325359470320
          20 :   -7.09141860978616
          21 :    12.5329619135852
          22 :   -15.0119668073389
          23 :    14.5840870114167
          24 :   -11.5953940444194
          25 :    6.74172271561815
          26 :   -1.14540076102674
          27 :   -3.80571227735982
          28 :    6.89359119158803
          29 :   -7.55218434230471
          30 :    6.07944294336511
          31 :   -29.0790046198307
          32 :   -19.8721678526373

     Forces acting on atoms (Ry/au):

     negative rho (up, down):  2.608E-04 0.000E+00
     atom    1 type  1   force =     0.00000022    0.00000041    0.00441518
     atom    2 type  1   force =    -0.00000028   -0.00131146    0.00446873
     atom    3 type  1   force =    -0.00113597    0.00065526    0.00446843
     atom    4 type  1   force =     0.00113609    0.00065549    0.00446844
     atom    5 type  1   force =     0.00105126   -0.00060702   -0.00391009
     atom    6 type  1   force =    -0.00105109   -0.00060705   -0.00390993
     atom    7 type  1   force =     0.00000043   -0.00000023   -0.00589013
     atom    8 type  1   force =     0.00000013    0.00121364   -0.00390981
     atom    9 type  1   force =    -0.00004789   -0.00002717   -0.00013171
     atom   10 type  1   force =     0.00004497   -0.00002617   -0.00013155
     atom   11 type  1   force =    -0.00000052    0.00005370   -0.00013253
     atom   12 type  1   force =     0.00000142    0.00000087    0.00006379
     atom   13 type  2   force =     0.00000128   -0.00000011    0.00086165
     atom   14 type  3   force =    -0.00000006   -0.00000016   -0.00073048

     Total force =     0.001158     Total SCF correction =     0.000280
     SCF correction compared to forces is large: reduce conv_thr to get better values

     entering subroutine stress ...

     negative rho (up, down):  2.608E-04 0.000E+00
          total   stress  (Ry/bohr**3)                   (kbar)     P=   -1.35
  -0.00000639   0.00000000  -0.00000000         -0.94      0.00     -0.00
   0.00000000  -0.00000639  -0.00000000          0.00     -0.94     -0.00
  -0.00000000  -0.00000000  -0.00001479         -0.00     -0.00     -2.18

     bfgs converged in  23 scf cycles and  22 bfgs steps
     (criteria: energy <  1.0E+00, force <  1.9E-03)

     End of BFGS Geometry Optimization

     Final energy   =   -1158.2555386869 Ry
Begin final coordinates

ATOMIC_POSITIONS (crystal)
Y1       0.166666667   0.166666667   0.386999750    0   0   0
Y1       0.666666667   0.166666667   0.386999750    0   0   0
Y1       0.166666667   0.666666667   0.386999750    0   0   0
Y1       0.666666667   0.666666667   0.386999750    0   0   0
Y1       0.833333333   0.333333333   0.500000000    0   0   0
Y1       0.333333333   0.333333333   0.500000000    0   0   0
Y1       0.833333333   0.833333333   0.500000000    0   0   0
Y1       0.333333333   0.833333333   0.500000000    0   0   0
Y1       0.001858859   0.001857718   0.613197991
Y1       0.496286361   0.001857253   0.613198237
Y1       0.001859149   0.496283915   0.613198200
Y1       0.500000324   0.499998962   0.605150091
O1       0.166666623   0.166666222   0.660055721
H1       0.166666439   0.166666518   0.697892244
End final coordinates

     Writing output data file calc.save

     General routines

     Parallel routines

   This run was terminated on:  23:17:33  24Apr2018

   JOB DONE.
Job  /afs/slac/g/suncat/bin/suncat-tsmpirun -x LD_LIBRARY_PATH -wdir /scratch/qe207121_czWoY pw.x -npool 4 -in pw.inp

TID   HOST_NAME   COMMAND_LINE            STATUS            TERMINATION_TIME
00000 suncat0055 pw.x -npool 4 -i  Done                     04/24/2018 23:17:33
00001 suncat0055 pw.x -npool 4 -i  Done                     04/24/2018 23:17:33
00002 suncat0055 pw.x -npool 4 -i  Done                     04/24/2018 23:17:33
00003 suncat0055 pw.x -npool 4 -i  Done                     04/24/2018 23:17:33
00004 suncat0055 pw.x -npool 4 -i  Done                     04/24/2018 23:17:33
00005 suncat0055 pw.x -npool 4 -i  Done                     04/24/2018 23:17:33
00006 suncat0055 pw.x -npool 4 -i  Done                     04/24/2018 23:17:33
00007 suncat0055 pw.x -npool 4 -i  Done                     04/24/2018 23:17:33
00008 suncat0195 pw.x -npool 4 -i  Done                     04/24/2018 23:17:33
00009 suncat0195 pw.x -npool 4 -i  Done                     04/24/2018 23:17:33
00010 suncat0195 pw.x -npool 4 -i  Done                     04/24/2018 23:17:33
00011 suncat0195 pw.x -npool 4 -i  Done                     04/24/2018 23:17:33
00012 suncat0195 pw.x -npool 4 -i  Done                     04/24/2018 23:17:33
00013 suncat0195 pw.x -npool 4 -i  Done                     04/24/2018 23:17:33
00014 suncat0195 pw.x -npool 4 -i  Done                     04/24/2018 23:17:33
00015 suncat0195 pw.x -npool 4 -i  Done                     04/24/2018 23:17:33
00016 suncat0183 pw.x -npool 4 -i  Done                     04/24/2018 23:17:33
00017 suncat0183 pw.x -npool 4 -i  Done                     04/24/2018 23:17:33
00018 suncat0183 pw.x -npool 4 -i  Done                     04/24/2018 23:17:33
00019 suncat0183 pw.x -npool 4 -i  Done                     04/24/2018 23:17:33
00020 suncat0183 pw.x -npool 4 -i  Done                     04/24/2018 23:17:33
00021 suncat0183 pw.x -npool 4 -i  Done                     04/24/2018 23:17:33
00022 suncat0183 pw.x -npool 4 -i  Done                     04/24/2018 23:17:33
00023 suncat0183 pw.x -npool 4 -i  Done                     04/24/2018 23:17:33
00024 suncat0177 pw.x -npool 4 -i  Done                     04/24/2018 23:17:33
00025 suncat0177 pw.x -npool 4 -i  Done                     04/24/2018 23:17:33
00026 suncat0177 pw.x -npool 4 -i  Done                     04/24/2018 23:17:33
00027 suncat0177 pw.x -npool 4 -i  Done                     04/24/2018 23:17:33
00028 suncat0177 pw.x -npool 4 -i  Done                     04/24/2018 23:17:33
00029 suncat0177 pw.x -npool 4 -i  Done                     04/24/2018 23:17:33
00030 suncat0177 pw.x -npool 4 -i  Done                     04/24/2018 23:17:33
00031 suncat0177 pw.x -npool 4 -i  Done                     04/24/2018 23:17:33