     Program PWSCF v.5.1rc2 (svn rev. 11289) starts on  2May2018 at 15:56:38

     Current dimensions of program PWSCF are:
     Max number of different atomic species (ntypx) = 10
     Max number of k-points (npk) =  40000
     Max angular momentum in pseudopotentials (lmaxx) =  3
     Presently stress not available with electric field

     IMPORTANT: XC functional enforced from input :
     Exchange-correlation      = BEEF-VDW ( 1  4 27 13 2)
     Any further DFT definition will be discarded
     Please, verify this is what you really want

     Subspace diagonalization in iterative solution of the eigenvalue problem:
     a serial algorithm will be used

     bravais-lattice index     =            0
     lattice parameter (alat)  =       1.8897  a.u.
     unit-cell volume          =    6116.8020 (a.u.)^3
     number of atoms/cell      =           13
     number of atomic types    =            2
     number of electrons       =       138.00
     number of Kohn-Sham states=           79
     kinetic-energy cutoff     =      36.7493  Ry
     charge density cutoff     =     367.4932  Ry
     convergence threshold     =      1.0E-05
     mixing beta               =       0.3000
     number of iterations used =           10  plain     mixing
     Exchange-correlation      = BEEF-VDW ( 1  4 27 13 2)
     nstep                     =           50

     celldm(1)=   1.889726  celldm(2)=   0.000000  celldm(3)=   0.000000
     celldm(4)=   0.000000  celldm(5)=   0.000000  celldm(6)=   0.000000

     crystal axes: (cart. coord. in units of alat)
               a(1) = (   6.437465   0.000000   0.000000 )
               a(2) = (   3.218732   5.575008   0.000000 )
               a(3) = (   0.000000   0.000000  25.256168 )

     reciprocal axes: (cart. coord. in units 2 pi/alat)
               b(1) = (  0.155341 -0.089686  0.000000 )
               b(2) = (  0.000000  0.179372  0.000000 )
               b(3) = (  0.000000  0.000000  0.039594 )

     PseudoPot. # 1 for Sc read from file:
     /u/if/mamunm/psp/gbrv1.5pbe/Sc.UPF
     MD5 check sum: db30a2753ba66ef00f23801d899b7e7f
     Pseudo is Ultrasoft + core correction, Zval = 11.0
     Generated by new atomic code, or converted to UPF format
     Using radial grid of  849 points,  6 beta functions with:
                l(1) =   0
                l(2) =   0
                l(3) =   1
                l(4) =   1
                l(5) =   2
                l(6) =   2
     Q(r) pseudized with  6 coefficients,  rinner =    1.200   1.200   1.200
                                                       1.200   1.200

     PseudoPot. # 2 for S  read from file:
     /u/if/mamunm/psp/gbrv1.5pbe/S.UPF
     MD5 check sum: 88d86576ff6df21479756cfb9bdac1df
     Pseudo is Ultrasoft + core correction, Zval =  6.0
     Generated by new atomic code, or converted to UPF format
     Using radial grid of  907 points,  6 beta functions with:
                l(1) =   0
                l(2) =   0
                l(3) =   1
                l(4) =   1
                l(5) =   2
                l(6) =   2
     Q(r) pseudized with  8 coefficients,  rinner =    1.300   1.300   1.300
                                                       1.300   1.300

     vdW kernel table read from file vdW_kernel_table
     MD5 check sum: 095c7af220d748ca6e76c0b4c6cfb241

     atomic species   valence    mass     pseudopotential
        Sc1           11.00    44.95591     Sc( 1.00)
        S1             6.00    32.06000     S ( 1.00)

     No symmetry found

   Cartesian axes

     site n.     atom                  positions (alat units)
         1           Sc1 tau(   1) = (   1.6093662   0.9291680  10.0000000  )
         2           Sc1 tau(   2) = (   4.8280986   0.9291680  10.0000000  )
         3           Sc1 tau(   3) = (   3.2187324   3.7166720  10.0000000  )
         4           Sc1 tau(   4) = (   6.4374648   3.7166720  10.0000000  )
         5           Sc1 tau(   5) = (   6.4374648   1.8583360  12.6280840  )
         6           Sc1 tau(   6) = (   3.2187324   1.8583360  12.6280840  )
         7           Sc1 tau(   7) = (   8.0468310   4.6458400  12.6280840  )
         8           Sc1 tau(   8) = (   4.8280986   4.6458400  12.6280840  )
         9           Sc1 tau(   9) = (   0.0000000   0.0000000  15.2561680  )
        10           Sc1 tau(  10) = (   3.2187324   0.0000000  15.2561680  )
        11           Sc1 tau(  11) = (   1.6093662   2.7875040  15.2561680  )
        12           Sc1 tau(  12) = (   4.8280986   2.7875040  15.2561680  )
        13           S1  tau(  13) = (   1.6093662   0.9291680  17.0436680  )

     number of k points=    20  Fermi-Dirac smearing, width (Ry)=  0.0110
                       cart. coord. in units 2pi/alat
        k(    1) = (   0.0000000   0.0000000   0.0000000), wk =   0.0555556
        k(    2) = (   0.0000000   0.0298953   0.0000000), wk =   0.1111111
        k(    3) = (   0.0000000   0.0597906   0.0000000), wk =   0.1111111
        k(    4) = (   0.0000000  -0.0896860   0.0000000), wk =   0.0555556
        k(    5) = (   0.0258901  -0.0149477   0.0000000), wk =   0.1111111
        k(    6) = (   0.0258901   0.0149477   0.0000000), wk =   0.1111111
        k(    7) = (   0.0258901   0.0448430   0.0000000), wk =   0.1111111
        k(    8) = (   0.0258901  -0.1046336   0.0000000), wk =   0.1111111
        k(    9) = (   0.0258901  -0.0747383   0.0000000), wk =   0.1111111
        k(   10) = (   0.0258901  -0.0448430   0.0000000), wk =   0.1111111
        k(   11) = (   0.0517802  -0.0298953   0.0000000), wk =   0.1111111
        k(   12) = (   0.0517802   0.0000000   0.0000000), wk =   0.1111111
        k(   13) = (   0.0517802   0.0298953   0.0000000), wk =   0.1111111
        k(   14) = (   0.0517802  -0.1195813   0.0000000), wk =   0.1111111
        k(   15) = (   0.0517802  -0.0896860   0.0000000), wk =   0.1111111
        k(   16) = (   0.0517802  -0.0597906   0.0000000), wk =   0.1111111
        k(   17) = (  -0.0776703   0.0448430   0.0000000), wk =   0.0555556
        k(   18) = (  -0.0776703   0.0747383   0.0000000), wk =   0.1111111
        k(   19) = (  -0.0776703   0.1046336   0.0000000), wk =   0.1111111
        k(   20) = (  -0.0776703  -0.0448430   0.0000000), wk =   0.0555556

     Largest allocated arrays     est. size (Mb)     dimensions
     Largest temporary arrays     est. size (Mb)     dimensions

     Initial potential from superposition of free atoms
     Check: negative starting charge=   -0.000264

     starting charge  137.97114, renormalised to  138.00000

     negative rho (up, down):  2.636E-04 0.000E+00

     *
     * You are using vdW-DF for exchange-correlation in this calculation.
     * Please cite the following three references that made this development
     * possible:
     *
     *   M. Dion, H. Rydberg, E. Schroder, D. C. Langreth, and
     *   B. I. Lundqvist, Phys. Rev. Lett. 92, 246401 (2004).
     *
     *   T. Thonhauser, V. R. Cooper, S. Li, A. Puzder, P. Hyldgaard, and
     *   D. C. Langreth, Phys. Rev. B 76, 125112 (2007).
     *
     *   G. Roman-Perez and J. M. Soler, Phys. Rev. Lett. 103, 096102 (2009).
     *
     *
     * If you are using vdW-DF2, please also cite:
     *
     *   K. Lee, E. D. Murray, L. Kong, B. I. Lundqvist, and
     *   D. C. Langreth, Phys. Rev. B 82, 081101(R) (2010).
     *
     *
     * If you are calculating the stress with vdW-DF, please also cite:
     *
     *   R. Sabatini, E. Kucukbenli, B. Kolb, T. Thonhauser, and
     *   S. de Gironcoli, J. Phys.: Condens. Matter 24, 424209 (2012).
     *

     Carrying out vdW-DF run using the following parameters:

     Nqs =      20    Nr_points =    1024   r_max =   100.000
     q_mesh =
               0.00001000     0.04494208     0.09755937     0.15916263
               0.23128650     0.31572767     0.41458969     0.53033537
               0.66584808     0.82450364     1.01025438     1.22772762
               1.48234092     1.78043706     2.12944203     2.53805004
               3.01644009     3.57652955     4.23227104     5.00000000

     Gradients computed in reciprocal space

     Adding external electric field

     Computed dipole along edir(3) :
        Dipole               -0.0102 Ry au,         -0.0258 Debye
        Dipole field         -0.0000 Ry au

        Potential amp.        0.0019 Ry
        Total length         46.5341 bohr

     Starting wfc are  160 randomized atomic wfcs

     Self-consistent Calculation

     iteration #  1     ecut=    36.75 Ry     beta=0.30
     Davidson diagonalization with overlap
     ethr =  1.00E-02,  avg # of iterations =  2.0

[...]

     total energy              =   -1159.85131775 Ry
     Harris-Foulkes estimate   =   -1162.73466902 Ry
     estimated scf accuracy    <       6.09883956 Ry

[...]

     End of self-consistent calculation

          k = 0.0000 0.0000 0.0000 ( 23031 PWs)   bands (ev):

   -49.5795 -49.5308 -49.4856 -49.4846 -49.4845 -49.4101 -49.3776 -49.3771
   -49.0752 -49.0323 -49.0300 -49.0290 -28.3151 -28.2453 -28.2447 -28.2443
   -28.2254 -28.2252 -28.2112 -28.1578 -28.1541 -28.1532 -28.1508 -28.0685
   -28.0468 -28.0464 -27.9850 -27.9845 -27.9826 -27.9408 -27.9407 -27.9054
   -27.9054 -27.8966 -27.8149 -27.8146 -27.7992 -27.7894 -27.7890 -27.6328
   -27.6140 -27.6092 -27.6083 -27.5608 -27.5604 -27.5579 -27.4833 -27.4833
   -11.8830  -4.3172  -3.3303  -2.6697  -2.6695  -2.4761  -1.7450  -1.0642
    -1.0641  -1.0331  -0.9066  -0.8919  -0.8918  -0.4931  -0.4838  -0.4837
    -0.1443  -0.1442  -0.0863   0.1668   0.1670   0.3528   0.5117   0.8979
     1.0361   1.0524   1.0525   1.1159   1.1750   1.1751   1.5361

[...]

          k =-0.0777 0.0448 0.0000 ( 23032 PWs)   bands (ev):

[...]

     the Fermi energy is     0.4190 ev

!    total energy              =   -1162.28753612 Ry
     Harris-Foulkes estimate   =   -1162.28752796 Ry
     estimated scf accuracy    <       0.00000443 Ry

     The total energy is the sum of the following terms:

     one-electron contribution =   -7370.42507161 Ry
     hartree contribution      =    3669.11034567 Ry
     xc contribution           =    -175.28782184 Ry
     ewald contribution        =    2714.44475085 Ry
     electric field correction =       0.00017956 Ry
     smearing contrib. (-TS)   =      -0.12991875 Ry

     convergence has been achieved in  18 iterations

 BEEF-vdW xc energy contributions
           1 :   -148.543119897095
           2 :    130.661141952695
           3 :   -102.707394528810
           4 :    75.3538693847887
           5 :   -56.1663691693785
           6 :    46.6026670110567
           7 :   -43.2286886743029
           8 :    41.3960385968961
           9 :   -38.4255995620250
          10 :    34.4216407805879
          11 :   -30.9203709790030
          12 :    28.9733452105872
          13 :   -28.2346093816029
          14 :    27.4974367412217
          15 :   -25.9143912063258
          16 :    23.7175026429842
          17 :   -21.8666050218197
          18 :    21.0705407292367
          19 :   -21.1341413782200
          20 :    21.1846639511253
          21 :   -20.4866327482790
          22 :    19.0614733190752
          23 :   -17.5888308795410
          24 :    16.7514217526611
          25 :   -16.6494357646919
          26 :    16.7798820821995
          27 :   -16.5363926179354
          28 :    15.7396935544600
          29 :   -14.7352686061979
          30 :    14.0210538193024
          31 :   -17.5551512189029
          32 :   -12.5531127932418

     Forces acting on atoms (Ry/au):

     negative rho (up, down):  1.196E-04 0.000E+00
     atom    1 type  1   force =    -0.00005310   -0.00007138    0.00066566
     atom    2 type  1   force =     0.00005895   -0.00076699    0.00128339
     atom    3 type  1   force =    -0.00060453    0.00044623    0.00134430
     atom    4 type  1   force =     0.00060395    0.00038367    0.00131348
     atom    5 type  1   force =    -0.00223426    0.00127929    0.00243268
     atom    6 type  1   force =     0.00222491    0.00126386    0.00244933
     atom    7 type  1   force =    -0.00001464    0.00001429   -0.01098380
     atom    8 type  1   force =     0.00000784   -0.00256064    0.00245262
     atom    9 type  1   force =     0.01682395    0.00968175    0.01069443
     atom   10 type  1   force =    -0.01682085    0.00962521    0.01072442
     atom   11 type  1   force =    -0.00004296   -0.01935824    0.01073930
     atom   12 type  1   force =     0.00004250    0.00005914   -0.00730413
     atom   13 type  2   force =     0.00000825    0.00000380   -0.02581168

     Total force =     0.046813     Total SCF correction =     0.000772

     entering subroutine stress ...

     negative rho (up, down):  1.196E-04 0.000E+00
          total   stress  (Ry/bohr**3)                   (kbar)     P=    2.28
   0.00003402  -0.00000000   0.00000001          5.00     -0.00      0.00
  -0.00000000   0.00003405  -0.00000001         -0.00      5.01     -0.00
   0.00000001  -0.00000001  -0.00002158          0.00     -0.00     -3.17

     BFGS Geometry Optimization

     number of scf cycles    =   1
     number of bfgs steps    =   0

     energy   new            =   -1162.2875361209 Ry

     new trust radius        =       0.0258116812 bohr
     new conv_thr            =       0.0000099958 Ry

ATOMIC_POSITIONS (crystal)
Sc1      0.166666667   0.166666667   0.395942884    0   0   0
Sc1      0.666666667   0.166666667   0.395942884    0   0   0
Sc1      0.166666667   0.666666667   0.395942884    0   0   0
Sc1      0.666666667   0.666666667   0.395942884    0   0   0
Sc1      0.833333333   0.333333333   0.500000000    0   0   0
Sc1      0.333333333   0.333333333   0.500000000    0   0   0
Sc1      0.833333333   0.833333333   0.500000000    0   0   0
Sc1      0.333333333   0.833333333   0.500000000    0   0   0
Sc1      0.000923481   0.000918987   0.604281189
Sc1      0.498160470   0.000913620   0.604281818
Sc1      0.000915206   0.498162524   0.604282130
Sc1      0.500000687   0.500005613   0.603904077
S1       0.166667165   0.166667027   0.674291090

     Writing output data file calc.save
     Check: negative starting charge=   -0.000264
     NEW-OLD atomic charge density approx. for the potential
     Check: negative starting charge=   -0.000264

[...]

     energy   old            =   -1162.2875361209 Ry
     energy   new            =   -1162.2894142231 Ry

     CASE: energy  _new < energy  _old

[...]

     Threshold (ethr) on eigenvalues was too large:
     Diagonalizing with lowered threshold

     Davidson diagonalization with overlap
     ethr =  1.73E-08,  avg # of iterations =  8.3

[...]

     WARNING: bfgs curvature condition failed, Theta= 0.845
     new trust radius        =       0.0135029307 bohr
     new conv_thr            =       0.0000001000 Ry

[...]

     Threshold (ethr) on eigenvalues was too large:
     Diagonalizing with lowered threshold

     Davidson diagonalization with overlap
     ethr =  5.85E-08,  avg # of iterations =  6.8

[...]

     Total force =     0.003015     Total SCF correction =     0.000352
     SCF correction compared to forces is large: reduce conv_thr to get better values

[...]

     number of scf cycles    =   9
     number of bfgs steps    =   8

     energy   old            =   -1162.2918143515 Ry
     energy   new            =   -1162.2919890643 Ry

     CASE: energy  _new < energy  _old

     new trust radius        =       0.0505547568 bohr
     new conv_thr            =       0.0000001000 Ry

ATOMIC_POSITIONS (crystal)
Sc1      0.166666667   0.166666667   0.395942884    0   0   0
Sc1      0.666666667   0.166666667   0.395942884    0   0   0
Sc1      0.166666667   0.666666667   0.395942884    0   0   0
Sc1      0.666666667   0.666666667   0.395942884    0   0   0
Sc1      0.833333333   0.333333333   0.500000000    0   0   0
Sc1      0.333333333   0.333333333   0.500000000    0   0   0
Sc1      0.833333333   0.833333333   0.500000000    0   0   0
Sc1      0.333333333   0.833333333   0.500000000    0   0   0
Sc1      0.003717508   0.003716640   0.604879522
Sc1      0.492569150   0.003769134   0.604888373
Sc1      0.003769305   0.492569597   0.604888856
Sc1      0.500007144   0.500009492   0.599667917
S1       0.166648322   0.166649087   0.673729328

     Writing output data file calc.save
     Check: negative starting charge=   -0.000259
     NEW-OLD atomic charge density approx. for the potential
     Check: negative starting charge=   -0.000257

[...]

     Self-consistent Calculation

[...]

     total energy              =   -1162.29206438 Ry
     Harris-Foulkes estimate   =   -1162.29206440 Ry
     estimated scf accuracy    <       0.00000018 Ry

     iteration # 13     ecut=    36.75 Ry     beta=0.30
     Davidson diagonalization with overlap
     ethr =  1.30E-10,  avg # of iterations =  8.6

[...]

     negative rho (up, down):  1.229E-04 0.000E+00

     Adding external electric field

     Computed dipole along edir(3) :
        Dipole               -0.2504 Ry au,         -0.6365 Debye
        Dipole field         -0.0005 Ry au

        Potential amp.        0.0479 Ry
        Total length         46.5341 bohr

     End of self-consistent calculation

[...]

          k = 0.0518-0.0598 0.0000 ( 23012 PWs)   bands (ev):

[...]

          k =-0.0777-0.0448 0.0000 ( 23032 PWs)   bands (ev):

   -49.4796 -49.4737 -49.4546 -49.4507 -49.4500 -49.3749 -49.3579 -49.3489
   -49.0533 -48.9943 -48.9813 -48.9719 -28.2023 -28.1523 -28.1502 -28.1474
   -28.1452 -28.1203 -28.1161 -28.0901 -28.0858 -28.0489 -28.0462 -28.0348
   -28.0266 -28.0201 -28.0184 -28.0085 -27.9943 -27.9730 -27.9280 -27.9144
   -27.9109 -27.9105 -27.8469 -27.8103 -27.7174 -27.6812 -27.6413 -27.6251
   -27.5909 -27.5719 -27.5676 -27.5602 -27.5537 -27.5495 -27.4942 -27.4628
   -12.0401  -3.3075  -3.1366  -2.8148  -2.7123  -2.6785  -1.7676  -1.6430
    -1.0620  -1.0311  -0.6795  -0.6170  -0.4715  -0.4623   0.1853   0.1878
     0.2347   0.2683   0.2858   0.3332   0.5135   0.5174   0.5571   0.5979
     0.6432   0.7392   0.8099   0.8543   0.9049   0.9396   1.0046

     the Fermi energy is     0.4533 ev

!    total energy              =   -1162.29206438 Ry
     Harris-Foulkes estimate   =   -1162.29206423 Ry
     estimated scf accuracy    <       0.00000004 Ry

     The total energy is the sum of the following terms:

     one-electron contribution =   -7388.63826003 Ry
     hartree contribution      =    3678.34796459 Ry
     xc contribution           =    -175.34328332 Ry
     ewald contribution        =    2723.47042118 Ry
     electric field correction =       0.00012883 Ry
     smearing contrib. (-TS)   =      -0.12903564 Ry

     convergence has been achieved in  13 iterations

 BEEF-vdW xc energy contributions
           1 :   -148.598796080961
           2 :    130.733265769651
           3 :   -102.794727687983
           4 :    75.4379698164998
           5 :   -56.2277203532880
           6 :    46.6347196868318
           7 :   -43.2385529613268
           8 :    41.3959696382509
           9 :   -38.4238242357991
          10 :    34.4167390633217
          11 :   -30.9023684278565
          12 :    28.9333914515041
          13 :   -28.1765597444212
          14 :    27.4388789138146
          15 :   -25.8737516959128
          16 :    23.6990982882737
          17 :   -21.8579254822865
          18 :    21.0532618211760
          19 :   -21.0978786010300
          20 :    21.1327463442427
          21 :   -20.4315552487699
          22 :    19.0144339410878
          23 :   -17.5512467489480
          24 :    16.7157450908634
          25 :   -16.6090613043082
          26 :    16.7379193722376
          27 :   -16.5027658700580
          28 :    15.7186754878245
          29 :   -14.7163739910258
          30 :    13.9825624955644
          31 :   -17.5591595349663
          32 :   -12.5604401431160

     Forces acting on atoms (Ry/au):

     negative rho (up, down):  1.229E-04 0.000E+00
     atom    1 type  1   force =    -0.00001512   -0.00000590    0.00079497
     atom    2 type  1   force =     0.00001259   -0.00145478    0.00139370
     atom    3 type  1   force =    -0.00125628    0.00073646    0.00139347
     atom    4 type  1   force =     0.00125307    0.00072034    0.00140155
     atom    5 type  1   force =    -0.00073402    0.00042260    0.00042881
     atom    6 type  1   force =     0.00073584    0.00042747    0.00043859
     atom    7 type  1   force =    -0.00000038   -0.00000290   -0.00646725
     atom    8 type  1   force =    -0.00000320   -0.00084808    0.00042678
     atom    9 type  1   force =    -0.00048448   -0.00027604    0.00039438
     atom   10 type  1   force =     0.00048020   -0.00029791    0.00039956
     atom   11 type  1   force =    -0.00002095    0.00056557    0.00039582
     atom   12 type  1   force =     0.00003783    0.00001781   -0.00036435
     atom   13 type  2   force =    -0.00000509   -0.00000463   -0.00063602

     Total force =     0.001401     Total SCF correction =     0.000103

     entering subroutine stress ...

     negative rho (up, down):  1.229E-04 0.000E+00
          total   stress  (Ry/bohr**3)                   (kbar)     P=    3.71
   0.00004159  -0.00000001  -0.00000000          6.12     -0.00     -0.00
  -0.00000001   0.00004160  -0.00000000         -0.00      6.12     -0.00
  -0.00000000  -0.00000000  -0.00000756         -0.00     -0.00     -1.11

     bfgs converged in  10 scf cycles and   9 bfgs steps
     (criteria: energy <  1.0E+00, force <  1.9E-03)

     End of BFGS Geometry Optimization

     Final energy   =   -1162.2920643841 Ry
Begin final coordinates

ATOMIC_POSITIONS (crystal)
Sc1      0.166666667   0.166666667   0.395942884    0   0   0
Sc1      0.666666667   0.166666667   0.395942884    0   0   0
Sc1      0.166666667   0.666666667   0.395942884    0   0   0
Sc1      0.666666667   0.666666667   0.395942884    0   0   0
Sc1      0.833333333   0.333333333   0.500000000    0   0   0
Sc1      0.333333333   0.333333333   0.500000000    0   0   0
Sc1      0.833333333   0.833333333   0.500000000    0   0   0
Sc1      0.333333333   0.833333333   0.500000000    0   0   0
Sc1      0.003717508   0.003716640   0.604879522
Sc1      0.492569150   0.003769134   0.604888373
Sc1      0.003769305   0.492569597   0.604888856
Sc1      0.500007144   0.500009492   0.599667917
S1       0.166648322   0.166649087   0.673729328
End final coordinates

     Writing output data file calc.save

     General routines

     Parallel routines

   This run was terminated on:  17:22:38   2May2018

   JOB DONE.
Job  /afs/slac/g/suncat/bin/suncat-tsmpirun -x LD_LIBRARY_PATH -wdir /scratch/qe784509_qWHwo pw.x -npool 4 -in pw.inp

TID   HOST_NAME   COMMAND_LINE            STATUS            TERMINATION_TIME
00000 suncat0076 pw.x -npool 4 -i  Done                     05/02/2018 17:22:38
00001 suncat0076 pw.x -npool 4 -i  Done                     05/02/2018 17:22:38
00002 suncat0076 pw.x -npool 4 -i  Done                     05/02/2018 17:22:38
00003 suncat0076 pw.x -npool 4 -i  Done                     05/02/2018 17:22:38
00004 suncat0076 pw.x -npool 4 -i  Done                     05/02/2018 17:22:38
00005 suncat0076 pw.x -npool 4 -i  Done                     05/02/2018 17:22:38
00006 suncat0076 pw.x -npool 4 -i  Done                     05/02/2018 17:22:38
00007 suncat0076 pw.x -npool 4 -i  Done                     05/02/2018 17:22:38
00008 suncat0073 pw.x -npool 4 -i  Done                     05/02/2018 17:22:38
00009 suncat0073 pw.x -npool 4 -i  Done                     05/02/2018 17:22:38
00010 suncat0073 pw.x -npool 4 -i  Done                     05/02/2018 17:22:38
00011 suncat0073 pw.x -npool 4 -i  Done                     05/02/2018 17:22:38
00012 suncat0073 pw.x -npool 4 -i  Done                     05/02/2018 17:22:38
00013 suncat0073 pw.x -npool 4 -i  Done                     05/02/2018 17:22:38
00014 suncat0073 pw.x -npool 4 -i  Done                     05/02/2018 17:22:38
00015 suncat0073 pw.x -npool 4 -i  Done                     05/02/2018 17:22:38
00016 suncat0071 pw.x -npool 4 -i  Done                     05/02/2018 17:22:38
00017 suncat0071 pw.x -npool 4 -i  Done                     05/02/2018 17:22:38
00018 suncat0071 pw.x -npool 4 -i  Done                     05/02/2018 17:22:38
00019 suncat0071 pw.x -npool 4 -i  Done                     05/02/2018 17:22:38
00020 suncat0071 pw.x -npool 4 -i  Done                     05/02/2018 17:22:38
00021 suncat0071 pw.x -npool 4 -i  Done                     05/02/2018 17:22:38
00022 suncat0071 pw.x -npool 4 -i  Done                     05/02/2018 17:22:38
00023 suncat0071 pw.x -npool 4 -i  Done                     05/02/2018 17:22:38
00024 suncat0068 pw.x -npool 4 -i  Done                     05/02/2018 17:22:38
00025 suncat0068 pw.x -npool 4 -i  Done                     05/02/2018 17:22:38
00026 suncat0068 pw.x -npool 4 -i  Done                     05/02/2018 17:22:38
00027 suncat0068 pw.x -npool 4 -i  Done                     05/02/2018 17:22:38
00028 suncat0068 pw.x -npool 4 -i  Done                     05/02/2018 17:22:38
00029 suncat0068 pw.x -npool 4 -i  Done                     05/02/2018 17:22:38
00030 suncat0068 pw.x -npool 4 -i  Done                     05/02/2018 17:22:38
00031 suncat0068 pw.x -npool 4 -i  Done                     05/02/2018 17:22:38