     Program PWSCF v.5.1rc2 (svn rev. 11289) starts on  2May2018 at 21:54:56

     Current dimensions of program PWSCF are:
     Max number of different atomic species (ntypx) = 10
     Max number of k-points (npk) =  40000
     Max angular momentum in pseudopotentials (lmaxx) =  3
     Presently stress not available with electric field

     IMPORTANT: XC functional enforced from input :
     Exchange-correlation      = BEEF-VDW ( 1  4 27 13 2)
     Any further DFT definition will be discarded
     Please, verify this is what you really want

     Subspace diagonalization in iterative solution of the eigenvalue problem:
     a serial algorithm will be used

     bravais-lattice index     =            0
     lattice parameter (alat)  =       1.8897  a.u.
     unit-cell volume          =    4515.4205 (a.u.)^3
     number of atoms/cell      =           13
     number of atomic types    =            2
     number of electrons       =       241.00
     number of Kohn-Sham states=          130
     kinetic-energy cutoff     =      36.7493  Ry
     charge density cutoff     =     367.4932  Ry
     convergence threshold     =      1.0E-05
     mixing beta               =       0.3000
     number of iterations used =           10  plain     mixing
     Exchange-correlation      = BEEF-VDW ( 1  4 27 13 2)
     nstep                     =           50

     celldm(1)=   1.889726  celldm(2)=   0.000000  celldm(3)=   0.000000
     celldm(4)=   0.000000  celldm(5)=   0.000000  celldm(6)=   0.000000

     crystal axes: (cart. coord. in units of alat)
               a(1) = (   5.606773   0.000000   0.000000 )
               a(2) = (   2.803387   4.855608   0.000000 )
               a(3) = (   0.000000   0.000000  24.577911 )

     reciprocal axes: (cart. coord. in units 2 pi/alat)
               b(1) = (  0.178356 -0.102974  0.000000 )
               b(2) = (  0.000000  0.205947  0.000000 )
               b(3) = (  0.000000  0.000000  0.040687 )

     PseudoPot. # 1 for Zn read from file:
     /u/if/mamunm/psp/gbrv1.5pbe/Zn.UPF
     MD5 check sum: df62231357ef9e81f77b2b3087fa5675
     Pseudo is Ultrasoft, Zval = 20.0
     Generated by new atomic code, or converted to UPF format
     Using radial grid of  943 points,  6 beta functions with:
                l(1) =   0
                l(2) =   0
                l(3) =   1
                l(4) =   1
                l(5) =   2
                l(6) =   2
     Q(r) pseudized with  8 coefficients,  rinner =    1.100   1.100   1.100
                                                       1.100   1.100

     PseudoPot. # 2 for H  read from file:
     /u/if/mamunm/psp/gbrv1.5pbe/H.UPF
     MD5 check sum: 761ae9a214b05c3daf00ab9f6b793d6f
     Pseudo is Ultrasoft, Zval =  1.0
     Generated by new atomic code, or converted to UPF format
     Using radial grid of  615 points,  2 beta functions with:
                l(1) =   0
                l(2) =   0
     Q(r) pseudized with  8 coefficients,  rinner =    0.700

     vdW kernel table read from file vdW_kernel_table
     MD5 check sum: 095c7af220d748ca6e76c0b4c6cfb241

     atomic species   valence    mass     pseudopotential
        Zn1           20.00    65.38000     Zn( 1.00)
        H1             1.00     1.00800     H ( 1.00)

     No symmetry found

   Cartesian axes

     site n.     atom                  positions (alat units)
         1           Zn1 tau(   1) = (   1.4016933   0.8092680  10.0000000  )
         2           Zn1 tau(   2) = (   4.2050800   0.8092680  10.0000000  )
         3           Zn1 tau(   3) = (   2.8033867   3.2370721  10.0000000  )
         4           Zn1 tau(   4) = (   5.6067733   3.2370721  10.0000000  )
         5           Zn1 tau(   5) = (   5.6067733   1.6185360  12.2889556  )
         6           Zn1 tau(   6) = (   2.8033867   1.6185360  12.2889556  )
         7           Zn1 tau(   7) = (   7.0084667   4.0463401  12.2889556  )
         8           Zn1 tau(   8) = (   4.2050800   4.0463401  12.2889556  )
         9           Zn1 tau(   9) = (   0.0000000   0.0000000  14.5779113  )
        10           Zn1 tau(  10) = (   2.8033867   0.0000000  14.5779113  )
        11           Zn1 tau(  11) = (   1.4016933   2.4278041  14.5779113  )
        12           Zn1 tau(  12) = (   4.2050800   2.4278041  14.5779113  )
        13           H1  tau(  13) = (   1.4016933   0.8092680  15.5724113  )

     number of k points=    20  Fermi-Dirac smearing, width (Ry)=  0.0110
                       cart. coord. in units 2pi/alat
        k(    1) = (   0.0000000   0.0000000   0.0000000), wk =   0.0555556
        k(    2) = (   0.0000000   0.0343246   0.0000000), wk =   0.1111111
        k(    3) = (   0.0000000   0.0686491   0.0000000), wk =   0.1111111
        k(    4) = (   0.0000000  -0.1029737   0.0000000), wk =   0.0555556
        k(    5) = (   0.0297260  -0.0171623   0.0000000), wk =   0.1111111
        k(    6) = (   0.0297260   0.0171623   0.0000000), wk =   0.1111111
        k(    7) = (   0.0297260   0.0514869   0.0000000), wk =   0.1111111
        k(    8) = (   0.0297260  -0.1201360   0.0000000), wk =   0.1111111
        k(    9) = (   0.0297260  -0.0858114   0.0000000), wk =   0.1111111
        k(   10) = (   0.0297260  -0.0514869   0.0000000), wk =   0.1111111
        k(   11) = (   0.0594519  -0.0343246   0.0000000), wk =   0.1111111
        k(   12) = (   0.0594519   0.0000000   0.0000000), wk =   0.1111111
        k(   13) = (   0.0594519   0.0343246   0.0000000), wk =   0.1111111
        k(   14) = (   0.0594519  -0.1372983   0.0000000), wk =   0.1111111
        k(   15) = (   0.0594519  -0.1029737   0.0000000), wk =   0.1111111
        k(   16) = (   0.0594519  -0.0686491   0.0000000), wk =   0.1111111
        k(   17) = (  -0.0891779   0.0514869   0.0000000), wk =   0.0555556
        k(   18) = (  -0.0891779   0.0858114   0.0000000), wk =   0.1111111
        k(   19) = (  -0.0891779   0.1201360   0.0000000), wk =   0.1111111
        k(   20) = (  -0.0891779  -0.0514869   0.0000000), wk =   0.0555556

     Largest allocated arrays     est. size (Mb)     dimensions
     Largest temporary arrays     est. size (Mb)     dimensions

     Initial potential from superposition of free atoms
     Check: negative starting charge=   -0.000863

     starting charge  240.99830, renormalised to  241.00000

     negative rho (up, down):  8.626E-04 0.000E+00

     *
     * You are using vdW-DF for exchange-correlation in this calculation.
     * Please cite the following three references that made this development
     * possible:
     *
     *   M. Dion, H. Rydberg, E. Schroder, D. C. Langreth, and
     *   B. I. Lundqvist, Phys. Rev. Lett. 92, 246401 (2004).
     *
     *   T. Thonhauser, V. R. Cooper, S. Li, A. Puzder, P. Hyldgaard, and
     *   D. C. Langreth, Phys. Rev. B 76, 125112 (2007).
     *
     *   G. Roman-Perez and J. M. Soler, Phys. Rev. Lett. 103, 096102 (2009).
     *
     *
     * If you are using vdW-DF2, please also cite:
     *
     *   K. Lee, E. D. Murray, L. Kong, B. I. Lundqvist, and
     *   D. C. Langreth, Phys. Rev. B 82, 081101(R) (2010).
     *
     *
     * If you are calculating the stress with vdW-DF, please also cite:
     *
     *   R. Sabatini, E. Kucukbenli, B. Kolb, T. Thonhauser, and
     *   S. de Gironcoli, J. Phys.: Condens. Matter 24, 424209 (2012).
     *

     Carrying out vdW-DF run using the following parameters:

     Nqs =      20    Nr_points =    1024   r_max =   100.000
     q_mesh =
               0.00001000     0.04494208     0.09755937     0.15916263
               0.23128650     0.31572767     0.41458969     0.53033537
               0.66584808     0.82450364     1.01025438     1.22772762
               1.48234092     1.78043706     2.12944203     2.53805004
               3.01644009     3.57652955     4.23227104     5.00000000

     Gradients computed in reciprocal space

     Adding external electric field

     Computed dipole along edir(3) :
        Dipole                0.0000 Ry au,          0.0000 Debye
        Dipole field          0.0000 Ry au

        Potential amp.       -0.0000 Ry
        Total length         45.2844 bohr

     Starting wfc are  157 randomized atomic wfcs

     Self-consistent Calculation

     iteration #  1     ecut=    36.75 Ry     beta=0.30
     Davidson diagonalization with overlap
     ethr =  1.00E-02,  avg # of iterations =  2.0

     Threshold (ethr) on eigenvalues was too large:
     Diagonalizing with lowered threshold

     Davidson diagonalization with overlap
     ethr =  8.97E-05,  avg # of iterations =  3.5

[...]

     total energy              =   -5554.39628784 Ry
     Harris-Foulkes estimate   =   -5554.45390407 Ry
     estimated scf accuracy    <       0.23079386 Ry

[...]

     End of self-consistent calculation

          k = 0.0000 0.0000 0.0000 ( 16931 PWs)   bands (ev):

  -126.3367-126.3117-126.3108-126.3108-126.2431-126.2422-126.2422-126.1047
  -126.1038-126.1038-126.0830-126.0685 -80.5213 -80.5136 -80.5136 -80.4921
   -80.4921 -80.4912 -80.4883 -80.4864 -80.4857 -80.4856 -80.4787 -80.4787
   -80.4298 -80.4278 -80.4278 -80.4238 -80.4216 -80.4216 -80.4155 -80.4123
   -80.4123 -80.2955 -80.2946 -80.2946 -80.2820 -80.2803 -80.2803 -80.2734
   -80.2696 -80.2696 -80.2683 -80.2552 -80.2552 -80.2483 -80.2431 -80.2431
    -9.1675  -8.2736  -7.8796  -7.8796  -7.8765  -7.8528  -7.8088  -7.7982
    -7.7982  -7.7756  -7.7173  -7.7173  -7.6050  -7.5802  -7.5802  -7.4173
    -7.3489  -7.3489  -7.3322  -7.3322  -7.3286  -7.2978  -7.2978  -7.2917
    -7.2387  -7.2387  -7.2343  -7.2160  -7.2160  -7.1090  -7.1090  -6.9622
    -6.9622  -6.9592  -6.9592  -6.9467  -6.9325  -6.9130  -6.9130  -6.8708
    -6.8351  -6.8351  -6.7964  -6.7964  -6.7547  -6.7543  -6.7543  -6.7246
    -6.7172  -6.7172  -6.7167  -6.6915  -6.6915  -6.6804  -6.6804  -6.6625
    -6.6447  -6.5948  -6.5948  -6.5190  -6.5074  -6.5074  -4.6380  -2.8404
    -2.1368  -2.1368  -1.9804  -1.7715  -1.7715  -1.4978  -0.8421  -0.7544
    -0.7544  -0.1479   0.3026   0.3026   1.5306   2.1256   2.1256   2.5778
     2.6206   2.6206

[...]

          k =-0.0892 0.0515 0.0000 ( 17028 PWs)   bands (ev):

[...]

     the Fermi energy is     0.4265 ev

!    total energy              =   -5554.42337668 Ry
     Harris-Foulkes estimate   =   -5554.42337247 Ry
     estimated scf accuracy    <       0.00000762 Ry

     The total energy is the sum of the following terms:

     one-electron contribution =  -35535.03860374 Ry
     hartree contribution      =   17746.27032637 Ry
     xc contribution           =    -521.60957988 Ry
     ewald contribution        =   12755.97977162 Ry
     electric field correction =       0.00000046 Ry
     smearing contrib. (-TS)   =      -0.02529151 Ry

     convergence has been achieved in   8 iterations

 BEEF-vdW xc energy contributions
           1 :   -463.487180454019
           2 :    420.071401761095
           3 :   -347.258560310623
           4 :    266.192825753421
           5 :   -195.569925635108
           6 :    144.600558533758
           7 :   -111.780222791762
           8 :    89.1777603681702
           9 :   -68.9251935001812
          10 :    47.8184779724941
          11 :   -27.7456631824797
          12 :    12.6150616120034
          13 :   -4.56158331380510
          14 :    2.17753672485526
          15 :   -1.66793792096229
          16 :  -0.359469113834962
          17 :    4.72617935693432
          18 :   -9.63473417657258
          19 :    12.5065714255181
          20 :   -12.1364871369821
          21 :    9.54946377786086
          22 :   -7.08033060705520
          23 :    6.55254642323450
          24 :   -8.01146456487675
          25 :    9.90549887070927
          26 :   -10.4417922023330
          27 :    8.98705318483286
          28 :   -6.45658536110909
          29 :    4.49086394270887
          30 :   -4.15244842221875
          31 :   -35.8208993089916
          32 :   -24.4267904104022

     Forces acting on atoms (Ry/au):

     atom    1 type  1   force =     0.00000375    0.00000109   -0.00365129
     atom    2 type  1   force =    -0.00000205   -0.00010284   -0.00889753
     atom    3 type  1   force =    -0.00008989    0.00005016   -0.00890076
     atom    4 type  1   force =     0.00009097    0.00005424   -0.00890157
     atom    5 type  1   force =     0.00504749   -0.00291617    0.00396318
     atom    6 type  1   force =    -0.00504582   -0.00291365    0.00396432
     atom    7 type  1   force =     0.00000118   -0.00000207   -0.00528599
     atom    8 type  1   force =    -0.00000229    0.00582648    0.00396524
     atom    9 type  1   force =    -0.00976850   -0.00564070    0.00816957
     atom   10 type  1   force =     0.00976765   -0.00563890    0.00817107
     atom   11 type  1   force =     0.00000167    0.01128053    0.00817075
     atom   12 type  1   force =    -0.00000405    0.00000143    0.00254105
     atom   13 type  2   force =    -0.00000013    0.00000040   -0.00330805

     Total force =     0.024482     Total SCF correction =     0.016334
     SCF correction compared to forces is large: reduce conv_thr to get better values

     entering subroutine stress ...

          total   stress  (Ry/bohr**3)                   (kbar)     P=   -7.06
  -0.00009749  -0.00000000   0.00000000        -14.34     -0.00      0.00
  -0.00000000  -0.00009749   0.00000000         -0.00    -14.34      0.00
   0.00000000   0.00000000   0.00005094          0.00      0.00      7.49

     BFGS Geometry Optimization

     number of scf cycles    =   1
     number of bfgs steps    =   0

     energy   new            =   -5554.4233766785 Ry

     new trust radius        =       0.0139287982 bohr
     new conv_thr            =       0.0000099958 Ry

ATOMIC_POSITIONS (crystal)
Zn1      0.166666667   0.166666667   0.406869400    0   0   0
Zn1      0.666666667   0.166666667   0.406869400    0   0   0
Zn1      0.166666667   0.666666667   0.406869400    0   0   0
Zn1      0.666666667   0.666666667   0.406869400    0   0   0
Zn1      0.833333333   0.333333333   0.500000000    0   0   0
Zn1      0.333333333   0.333333333   0.500000000    0   0   0
Zn1      0.833333333   0.833333333   0.500000000    0   0   0
Zn1      0.333333333   0.833333333   0.500000000    0   0   0
Zn1     -0.000614599  -0.000614738   0.593306496
Zn1      0.501229160  -0.000614543   0.593306528
Zn1     -0.000614533   0.501229382   0.593306521
Zn1      0.499999540   0.500000155   0.593185311
H1       0.166666632   0.166666710   0.633522538

     Writing output data file calc.save
     Check: negative starting charge=   -0.000863
     NEW-OLD atomic charge density approx. for the potential
     Check: negative starting charge=   -0.000865

[...]

     energy   old            =   -5554.4233766785 Ry
     energy   new            =   -5554.4238137677 Ry

     CASE: energy  _new < energy  _old

[...]

     Total force =     0.017206     Total SCF correction =     0.000259

[...]

     WARNING: bfgs curvature condition failed, Theta= 0.559
     uphill step: resetting bfgs history

[...]

     WARNING: bfgs curvature condition failed, Theta= 0.872
     new trust radius        =       0.0146927843 bohr
     new conv_thr            =       0.0000001000 Ry

[...]

     Total force =     0.011353     Total SCF correction =     0.000505

[...]

     WARNING: bfgs curvature condition failed, Theta= 0.782
     new trust radius        =       0.0178996442 bohr
     new conv_thr            =       0.0000001000 Ry

[...]

     number of scf cycles    =  17
     number of bfgs steps    =  16

     energy   old            =   -5554.4280418056 Ry
     energy   new            =   -5554.4280769935 Ry

     CASE: energy  _new < energy  _old

     new trust radius        =       0.0268494664 bohr
     new conv_thr            =       0.0000001000 Ry

ATOMIC_POSITIONS (crystal)
Zn1      0.166666667   0.166666667   0.406869400    0   0   0
Zn1      0.666666667   0.166666667   0.406869400    0   0   0
Zn1      0.166666667   0.666666667   0.406869400    0   0   0
Zn1      0.666666667   0.666666667   0.406869400    0   0   0
Zn1      0.833333333   0.333333333   0.500000000    0   0   0
Zn1      0.333333333   0.333333333   0.500000000    0   0   0
Zn1      0.833333333   0.833333333   0.500000000    0   0   0
Zn1      0.333333333   0.833333333   0.500000000    0   0   0
Zn1     -0.005001684  -0.005002351   0.599118716
Zn1      0.510003640  -0.005002033   0.599118697
Zn1     -0.005001979   0.510004233   0.599118751
Zn1      0.499999340   0.500000594   0.592558144
H1       0.166666612   0.166666753   0.634085876

     Writing output data file calc.save
     Check: negative starting charge=   -0.000853
     NEW-OLD atomic charge density approx. for the potential
     Check: negative starting charge=   -0.000853

[...]

     Self-consistent Calculation

[...]

     Threshold (ethr) on eigenvalues was too large:
     Diagonalizing with lowered threshold

     Davidson diagonalization with overlap
     ethr =  8.59E-09,  avg # of iterations =  1.8

[...]

     total energy              =   -5554.42813078 Ry
     Harris-Foulkes estimate   =   -5554.42813075 Ry
     estimated scf accuracy    <       0.00000015 Ry

     iteration #  6     ecut=    36.75 Ry     beta=0.30
     Davidson diagonalization with overlap
     ethr =  6.11E-11,  avg # of iterations =  2.0

[...]

     negative rho (up, down):  1.039E-03 0.000E+00

     Adding external electric field

     Computed dipole along edir(3) :
        Dipole                0.0283 Ry au,          0.0719 Debye
        Dipole field          0.0001 Ry au

        Potential amp.       -0.0071 Ry
        Total length         45.2844 bohr

     End of self-consistent calculation

[...]

          k = 0.0595-0.0686 0.0000 ( 16986 PWs)   bands (ev):

[...]

          k =-0.0892-0.0515 0.0000 ( 17028 PWs)   bands (ev):

  -126.2707-126.2583-126.2580-126.2577-126.1701-126.1696-126.1693-126.0751
  -126.0748-126.0745-126.0459-126.0392 -80.4553 -80.4483 -80.4459 -80.4407
   -80.4375 -80.4360 -80.4343 -80.4333 -80.4329 -80.4324 -80.4312 -80.4269
   -80.3572 -80.3565 -80.3561 -80.3513 -80.3472 -80.3460 -80.3439 -80.3435
   -80.3402 -80.2663 -80.2659 -80.2655 -80.2509 -80.2488 -80.2473 -80.2467
   -80.2443 -80.2399 -80.2304 -80.2204 -80.2183 -80.2180 -80.2148 -80.2140
    -8.0182  -7.7717  -7.7232  -7.5702  -7.5678  -7.5601  -7.5493  -7.4958
    -7.4829  -7.4751  -7.4691  -7.4582  -7.4250  -7.3699  -7.3554  -7.3386
    -7.3371  -7.2670  -7.2487  -7.2472  -7.2335  -7.2220  -7.2085  -7.1947
    -7.1811  -7.1454  -7.1026  -7.0958  -7.0826  -7.0812  -7.0666  -7.0613
    -7.0121  -7.0029  -6.9963  -6.9905  -6.9815  -6.9575  -6.9278  -6.9260
    -6.9160  -6.9039  -6.8931  -6.8857  -6.8604  -6.8444  -6.8379  -6.8295
    -6.7984  -6.7913  -6.7843  -6.7645  -6.7567  -6.7451  -6.7044  -6.6815
    -6.6772  -6.6430  -6.6263  -6.6204  -6.6059  -6.5900  -5.6415  -5.1631
    -3.7810  -3.4130  -3.1316  -2.5237  -2.0093  -1.8239  -0.2394   0.6519
     0.7443   0.8888   2.7325   3.0453   3.0829   3.2278   3.5855   3.9613
     4.0239   4.1448

     the Fermi energy is     0.4717 ev

!    total energy              =   -5554.42813081 Ry
     Harris-Foulkes estimate   =   -5554.42813076 Ry
     estimated scf accuracy    <       0.00000003 Ry

     The total energy is the sum of the following terms:

     one-electron contribution =  -35059.15358405 Ry
     hartree contribution      =   17508.62115420 Ry
     xc contribution           =    -521.55267956 Ry
     ewald contribution        =   12517.68243254 Ry
     electric field correction =       0.00000222 Ry
     smearing contrib. (-TS)   =      -0.02545616 Ry

     convergence has been achieved in   6 iterations

 BEEF-vdW xc energy contributions
           1 :   -463.425621469287
           2 :    419.964051709993
           3 :   -347.096113426096
           4 :    266.009857179268
           5 :   -195.416574671184
           6 :    144.501962484428
           7 :   -111.717801151295
           8 :    89.1077034500349
           9 :   -68.8186721125762
          10 :    47.6897292176186
          11 :   -27.6435487116991
          12 :    12.5838974963713
          13 :   -4.60256780880758
          14 :    2.24265198870785
          15 :   -1.69330012636601
          16 :  -0.405696883932819
          17 :    4.81923751273700
          18 :   -9.71271148348512
          19 :    12.5192624909574
          20 :   -12.0857008462248
          21 :    9.48878679159202
          22 :   -7.07279565130261
          23 :    6.61868170902460
          24 :   -8.10894883295902
          25 :    9.95807564641234
          26 :   -10.3966825916687
          27 :    8.85729267489228
          28 :   -6.31625571573528
          29 :    4.42720351125473
          30 :   -4.21050700342778
          31 :   -35.8153518669803
          32 :   -24.4098325445499

     Forces acting on atoms (Ry/au):

     atom    1 type  1   force =    -0.00000003   -0.00000005   -0.00538884
     atom    2 type  1   force =    -0.00000002   -0.00052295   -0.00977970
     atom    3 type  1   force =    -0.00045281    0.00026150   -0.00978002
     atom    4 type  1   force =     0.00045280    0.00026150   -0.00977987
     atom    5 type  1   force =     0.00534304   -0.00308474    0.01029674
     atom    6 type  1   force =    -0.00534306   -0.00308474    0.01029663
     atom    7 type  1   force =    -0.00000001    0.00000003    0.00130286
     atom    8 type  1   force =    -0.00000002    0.00616963    0.01029651
     atom    9 type  1   force =    -0.00111562   -0.00064363    0.00027109
     atom   10 type  1   force =     0.00111571   -0.00064393    0.00027107
     atom   11 type  1   force =    -0.00000022    0.00128780    0.00027100
     atom   12 type  1   force =     0.00000032   -0.00000050    0.00015378
     atom   13 type  2   force =    -0.00000007    0.00000008    0.00156875

     Total force =     0.002772     Total SCF correction =     0.000740
     SCF correction compared to forces is large: reduce conv_thr to get better values

     entering subroutine stress ...

          total   stress  (Ry/bohr**3)                   (kbar)     P=  -16.90
  -0.00016486   0.00000000  -0.00000000        -24.25      0.00     -0.00
   0.00000000  -0.00016486   0.00000000          0.00    -24.25      0.00
  -0.00000000   0.00000000  -0.00001502         -0.00      0.00     -2.21

     bfgs converged in  18 scf cycles and  17 bfgs steps
     (criteria: energy <  1.0E+00, force <  1.9E-03)

     End of BFGS Geometry Optimization

     Final energy   =   -5554.4281308105 Ry
Begin final coordinates

ATOMIC_POSITIONS (crystal)
Zn1      0.166666667   0.166666667   0.406869400    0   0   0
Zn1      0.666666667   0.166666667   0.406869400    0   0   0
Zn1      0.166666667   0.666666667   0.406869400    0   0   0
Zn1      0.666666667   0.666666667   0.406869400    0   0   0
Zn1      0.833333333   0.333333333   0.500000000    0   0   0
Zn1      0.333333333   0.333333333   0.500000000    0   0   0
Zn1      0.833333333   0.833333333   0.500000000    0   0   0
Zn1      0.333333333   0.833333333   0.500000000    0   0   0
Zn1     -0.005001684  -0.005002351   0.599118716
Zn1      0.510003640  -0.005002033   0.599118697
Zn1     -0.005001979   0.510004233   0.599118751
Zn1      0.499999340   0.500000594   0.592558144
H1       0.166666612   0.166666753   0.634085876
End final coordinates

     Writing output data file calc.save

     General routines

     Parallel routines

   This run was terminated on:  23:11: 6   2May2018

   JOB DONE.
Job  /afs/slac/g/suncat/bin/suncat-tsmpirun -x LD_LIBRARY_PATH -wdir /scratch/qe270404_Do6Lz pw.x -npool 4 -in pw.inp

TID   HOST_NAME   COMMAND_LINE            STATUS            TERMINATION_TIME
00000 suncat0010 pw.x -npool 4 -i  Done                     05/02/2018 23:11:06
00001 suncat0010 pw.x -npool 4 -i  Done                     05/02/2018 23:11:06
00002 suncat0010 pw.x -npool 4 -i  Done                     05/02/2018 23:11:06
00003 suncat0010 pw.x -npool 4 -i  Done                     05/02/2018 23:11:06
00004 suncat0010 pw.x -npool 4 -i  Done                     05/02/2018 23:11:06
00005 suncat0010 pw.x -npool 4 -i  Done                     05/02/2018 23:11:06
00006 suncat0010 pw.x -npool 4 -i  Done                     05/02/2018 23:11:06
00007 suncat0010 pw.x -npool 4 -i  Done                     05/02/2018 23:11:06
00008 suncat0191 pw.x -npool 4 -i  Done                     05/02/2018 23:11:06
00009 suncat0191 pw.x -npool 4 -i  Done                     05/02/2018 23:11:06
00010 suncat0191 pw.x -npool 4 -i  Done                     05/02/2018 23:11:06
00011 suncat0191 pw.x -npool 4 -i  Done                     05/02/2018 23:11:06
00012 suncat0191 pw.x -npool 4 -i  Done                     05/02/2018 23:11:06
00013 suncat0191 pw.x -npool 4 -i  Done                     05/02/2018 23:11:06
00014 suncat0191 pw.x -npool 4 -i  Done                     05/02/2018 23:11:06
00015 suncat0191 pw.x -npool 4 -i  Done                     05/02/2018 23:11:06
00016 suncat0145 pw.x -npool 4 -i  Done                     05/02/2018 23:11:06
00017 suncat0145 pw.x -npool 4 -i  Done                     05/02/2018 23:11:06
00018 suncat0145 pw.x -npool 4 -i  Done                     05/02/2018 23:11:06
00019 suncat0145 pw.x -npool 4 -i  Done                     05/02/2018 23:11:06
00020 suncat0145 pw.x -npool 4 -i  Done                     05/02/2018 23:11:06
00021 suncat0145 pw.x -npool 4 -i  Done                     05/02/2018 23:11:06
00022 suncat0145 pw.x -npool 4 -i  Done                     05/02/2018 23:11:06
00023 suncat0145 pw.x -npool 4 -i  Done                     05/02/2018 23:11:06
00024 suncat0143 pw.x -npool 4 -i  Done                     05/02/2018 23:11:06
00025 suncat0143 pw.x -npool 4 -i  Done                     05/02/2018 23:11:06
00026 suncat0143 pw.x -npool 4 -i  Done                     05/02/2018 23:11:06
00027 suncat0143 pw.x -npool 4 -i  Done                     05/02/2018 23:11:06
00028 suncat0143 pw.x -npool 4 -i  Done                     05/02/2018 23:11:06
00029 suncat0143 pw.x -npool 4 -i  Done                     05/02/2018 23:11:06
00030 suncat0143 pw.x -npool 4 -i  Done                     05/02/2018 23:11:06
00031 suncat0143 pw.x -npool 4 -i  Done                     05/02/2018 23:11:06