     Program PWSCF v.5.1rc2 (svn rev. 11289) starts on  2May2018 at 15:43:43

     Current dimensions of program PWSCF are:
     Max number of different atomic species (ntypx) = 10
     Max number of k-points (npk) =  40000
     Max angular momentum in pseudopotentials (lmaxx) =  3
     Presently stress not available with electric field

     IMPORTANT: XC functional enforced from input :
     Exchange-correlation      = BEEF-VDW ( 1  4 27 13 2)
     Any further DFT definition will be discarded
     Please, verify this is what you really want

     Subspace diagonalization in iterative solution of the eigenvalue problem:
     a serial algorithm will be used

     bravais-lattice index     =            0
     lattice parameter (alat)  =       1.8897  a.u.
     unit-cell volume          =    6116.8020 (a.u.)^3
     number of atoms/cell      =           13
     number of atomic types    =            2
     number of electrons       =       138.00
     number of Kohn-Sham states=           79
     kinetic-energy cutoff     =      36.7493  Ry
     charge density cutoff     =     367.4932  Ry
     convergence threshold     =      1.0E-05
     mixing beta               =       0.3000
     number of iterations used =           10  plain     mixing
     Exchange-correlation      = BEEF-VDW ( 1  4 27 13 2)
     nstep                     =           50

     celldm(1)=   1.889726  celldm(2)=   0.000000  celldm(3)=   0.000000
     celldm(4)=   0.000000  celldm(5)=   0.000000  celldm(6)=   0.000000

     crystal axes: (cart. coord. in units of alat)
               a(1) = (   6.437465   0.000000   0.000000 )
               a(2) = (   3.218732   5.575008   0.000000 )
               a(3) = (   0.000000   0.000000  25.256168 )

     reciprocal axes: (cart. coord. in units 2 pi/alat)
               b(1) = (  0.155341 -0.089686  0.000000 )
               b(2) = (  0.000000  0.179372  0.000000 )
               b(3) = (  0.000000  0.000000  0.039594 )

     PseudoPot. # 1 for Sc read from file:
     /u/if/mamunm/psp/gbrv1.5pbe/Sc.UPF
     MD5 check sum: db30a2753ba66ef00f23801d899b7e7f
     Pseudo is Ultrasoft + core correction, Zval = 11.0
     Generated by new atomic code, or converted to UPF format
     Using radial grid of  849 points,  6 beta functions with:
                l(1) =   0
                l(2) =   0
                l(3) =   1
                l(4) =   1
                l(5) =   2
                l(6) =   2
     Q(r) pseudized with  6 coefficients,  rinner =    1.200   1.200   1.200
                                                       1.200   1.200

     PseudoPot. # 2 for O  read from file:
     /u/if/mamunm/psp/gbrv1.5pbe/O.UPF
     MD5 check sum: 734c27235a0248c51dbae37a1fbe46ec
     Pseudo is Ultrasoft + core correction, Zval =  6.0
     Generated by new atomic code, or converted to UPF format
     Using radial grid of  737 points,  5 beta functions with:
                l(1) =   0
                l(2) =   0
                l(3) =   1
                l(4) =   1
                l(5) =   2
     Q(r) pseudized with  8 coefficients,  rinner =    0.900   0.900   0.900
                                                       0.900   0.900

     vdW kernel table read from file vdW_kernel_table
     MD5 check sum: 095c7af220d748ca6e76c0b4c6cfb241

     atomic species   valence    mass     pseudopotential
        Sc1           11.00    44.95591     Sc( 1.00)
        O1             6.00    15.99900     O ( 1.00)

     No symmetry found

   Cartesian axes

     site n.     atom                  positions (alat units)
         1           Sc1 tau(   1) = (   1.6093662   0.9291680  10.0000000  )
         2           Sc1 tau(   2) = (   4.8280986   0.9291680  10.0000000  )
         3           Sc1 tau(   3) = (   3.2187324   3.7166720  10.0000000  )
         4           Sc1 tau(   4) = (   6.4374648   3.7166720  10.0000000  )
         5           Sc1 tau(   5) = (   6.4374648   1.8583360  12.6280840  )
         6           Sc1 tau(   6) = (   3.2187324   1.8583360  12.6280840  )
         7           Sc1 tau(   7) = (   8.0468310   4.6458400  12.6280840  )
         8           Sc1 tau(   8) = (   4.8280986   4.6458400  12.6280840  )
         9           Sc1 tau(   9) = (   0.0000000   0.0000000  15.2561680  )
        10           Sc1 tau(  10) = (   3.2187324   0.0000000  15.2561680  )
        11           Sc1 tau(  11) = (   1.6093662   2.7875040  15.2561680  )
        12           Sc1 tau(  12) = (   4.8280986   2.7875040  15.2561680  )
        13           O1  tau(  13) = (   3.2187324   1.8583360  16.7901680  )

     number of k points=    20  Fermi-Dirac smearing, width (Ry)=  0.0110
                       cart. coord. in units 2pi/alat
        k(    1) = (   0.0000000   0.0000000   0.0000000), wk =   0.0555556
        k(    2) = (   0.0000000   0.0298953   0.0000000), wk =   0.1111111
        k(    3) = (   0.0000000   0.0597906   0.0000000), wk =   0.1111111
        k(    4) = (   0.0000000  -0.0896860   0.0000000), wk =   0.0555556
        k(    5) = (   0.0258901  -0.0149477   0.0000000), wk =   0.1111111
        k(    6) = (   0.0258901   0.0149477   0.0000000), wk =   0.1111111
        k(    7) = (   0.0258901   0.0448430   0.0000000), wk =   0.1111111
        k(    8) = (   0.0258901  -0.1046336   0.0000000), wk =   0.1111111
        k(    9) = (   0.0258901  -0.0747383   0.0000000), wk =   0.1111111
        k(   10) = (   0.0258901  -0.0448430   0.0000000), wk =   0.1111111
        k(   11) = (   0.0517802  -0.0298953   0.0000000), wk =   0.1111111
        k(   12) = (   0.0517802   0.0000000   0.0000000), wk =   0.1111111
        k(   13) = (   0.0517802   0.0298953   0.0000000), wk =   0.1111111
        k(   14) = (   0.0517802  -0.1195813   0.0000000), wk =   0.1111111
        k(   15) = (   0.0517802  -0.0896860   0.0000000), wk =   0.1111111
        k(   16) = (   0.0517802  -0.0597906   0.0000000), wk =   0.1111111
        k(   17) = (  -0.0776703   0.0448430   0.0000000), wk =   0.0555556
        k(   18) = (  -0.0776703   0.0747383   0.0000000), wk =   0.1111111
        k(   19) = (  -0.0776703   0.1046336   0.0000000), wk =   0.1111111
        k(   20) = (  -0.0776703  -0.0448430   0.0000000), wk =   0.0555556

     Largest allocated arrays     est. size (Mb)     dimensions
     Largest temporary arrays     est. size (Mb)     dimensions

     Initial potential from superposition of free atoms
     Check: negative starting charge=   -0.000421

     starting charge  137.97117, renormalised to  138.00000

     negative rho (up, down):  4.206E-04 0.000E+00

     *
     * You are using vdW-DF for exchange-correlation in this calculation.
     * Please cite the following three references that made this development
     * possible:
     *
     *   M. Dion, H. Rydberg, E. Schroder, D. C. Langreth, and
     *   B. I. Lundqvist, Phys. Rev. Lett. 92, 246401 (2004).
     *
     *   T. Thonhauser, V. R. Cooper, S. Li, A. Puzder, P. Hyldgaard, and
     *   D. C. Langreth, Phys. Rev. B 76, 125112 (2007).
     *
     *   G. Roman-Perez and J. M. Soler, Phys. Rev. Lett. 103, 096102 (2009).
     *
     *
     * If you are using vdW-DF2, please also cite:
     *
     *   K. Lee, E. D. Murray, L. Kong, B. I. Lundqvist, and
     *   D. C. Langreth, Phys. Rev. B 82, 081101(R) (2010).
     *
     *
     * If you are calculating the stress with vdW-DF, please also cite:
     *
     *   R. Sabatini, E. Kucukbenli, B. Kolb, T. Thonhauser, and
     *   S. de Gironcoli, J. Phys.: Condens. Matter 24, 424209 (2012).
     *

     Carrying out vdW-DF run using the following parameters:

     Nqs =      20    Nr_points =    1024   r_max =   100.000
     q_mesh =
               0.00001000     0.04494208     0.09755937     0.15916263
               0.23128650     0.31572767     0.41458969     0.53033537
               0.66584808     0.82450364     1.01025438     1.22772762
               1.48234092     1.78043706     2.12944203     2.53805004
               3.01644009     3.57652955     4.23227104     5.00000000

     Gradients computed in reciprocal space

     Adding external electric field

     Computed dipole along edir(3) :
        Dipole               -0.0098 Ry au,         -0.0250 Debye
        Dipole field         -0.0000 Ry au

        Potential amp.        0.0019 Ry
        Total length         46.5341 bohr

     Starting wfc are  160 randomized atomic wfcs

     Self-consistent Calculation

     iteration #  1     ecut=    36.75 Ry     beta=0.30
     Davidson diagonalization with overlap
     ethr =  1.00E-02,  avg # of iterations =  2.0

[...]

     total energy              =   -1167.81466323 Ry
     Harris-Foulkes estimate   =   -1170.97335277 Ry
     estimated scf accuracy    <       6.72636313 Ry

[...]

     End of self-consistent calculation

          k = 0.0000 0.0000 0.0000 ( 23031 PWs)   bands (ev):

   -49.8196 -49.7078 -49.7018 -49.6712 -49.6708 -49.6650 -49.6600 -49.6598
   -49.2627 -49.2197 -49.2192 -49.2144 -28.5587 -28.4826 -28.4824 -28.4334
   -28.4206 -28.4205 -28.4158 -28.3887 -28.3370 -28.3365 -28.3362 -28.3197
   -28.3117 -28.3114 -28.2018 -28.2017 -28.1879 -28.1607 -28.1606 -28.1602
   -28.0819 -28.0819 -28.0792 -28.0790 -27.9815 -27.9812 -27.9802 -27.8300
   -27.8074 -27.8069 -27.8051 -27.7493 -27.7397 -27.7394 -27.6663 -27.6663
   -16.3276  -4.4909  -3.4085  -2.4363  -2.4363  -2.3896  -1.9231  -1.2491
    -1.2198  -1.2198  -1.1055  -1.1054  -1.0568  -0.7642  -0.7642  -0.5212
    -0.3160  -0.3160  -0.2777  -0.0247   0.0126   0.0127   0.3315   0.7062
     0.8532   0.8645   0.8645   1.0708   1.1285   1.1286   1.3634

[...]

          k =-0.0777 0.0448 0.0000 ( 23032 PWs)   bands (ev):

[...]

     the Fermi energy is     0.2397 ev

!    total energy              =   -1170.35949743 Ry
     Harris-Foulkes estimate   =   -1170.35950679 Ry
     estimated scf accuracy    <       0.00000386 Ry

     The total energy is the sum of the following terms:

     one-electron contribution =   -7437.25300701 Ry
     hartree contribution      =    3702.69407113 Ry
     xc contribution           =    -173.90078556 Ry
     ewald contribution        =    2738.22608802 Ry
     electric field correction =       0.00020703 Ry
     smearing contrib. (-TS)   =      -0.12607104 Ry

     convergence has been achieved in  18 iterations

 BEEF-vdW xc energy contributions
           1 :   -147.387595742317
           2 :    129.566991878256
           3 :   -101.817303732935
           4 :    74.8590294495270
           5 :   -56.1766424170025
           6 :    47.0575888719364
           7 :   -43.9404802854885
           8 :    42.1651668518999
           9 :   -39.1255987212630
          10 :    35.0104921920841
          11 :   -31.4069051272822
          12 :    29.3795504446632
          13 :   -28.5710873580117
          14 :    27.7548637854460
          15 :   -26.0720605707403
          16 :    23.7592655486729
          17 :   -21.7880248784457
          18 :    20.8764599849408
          19 :   -20.8426210840449
          20 :    20.8377967169206
          21 :   -20.1469438510493
          22 :    18.7830640257056
          23 :   -17.3835536142364
          24 :    16.5804891500413
          25 :   -16.4502818092100
          26 :    16.5088539311175
          27 :   -16.1984662123555
          28 :    15.3880391602189
          29 :   -14.4412820375726
          30 :    13.8329666967063
          31 :   -17.3533555379317
          32 :   -12.3830936713439

     Forces acting on atoms (Ry/au):

     negative rho (up, down):  2.900E-04 0.000E+00
     atom    1 type  1   force =     0.00012385    0.00012615    0.00188718
     atom    2 type  1   force =    -0.00012050    0.00010740    0.00193838
     atom    3 type  1   force =    -0.00001788   -0.00018587    0.00187282
     atom    4 type  1   force =     0.00001601   -0.00005156    0.00156898
     atom    5 type  1   force =    -0.00001020   -0.00322270    0.00471790
     atom    6 type  1   force =     0.00001150    0.00001599   -0.01560398
     atom    7 type  1   force =     0.00280675    0.00160585    0.00470900
     atom    8 type  1   force =    -0.00280010    0.00159663    0.00472749
     atom    9 type  1   force =    -0.00000662    0.00004118   -0.01076624
     atom   10 type  1   force =     0.00000418    0.05385456    0.05268794
     atom   11 type  1   force =     0.04661024   -0.02694739    0.05265472
     atom   12 type  1   force =    -0.04661016   -0.02695353    0.05266592
     atom   13 type  2   force =    -0.00000706    0.00001329   -0.15306010

     Total force =     0.201404     Total SCF correction =     0.001821

     entering subroutine stress ...

     negative rho (up, down):  2.900E-04 0.000E+00
          total   stress  (Ry/bohr**3)                   (kbar)     P=   -4.99
  -0.00000729   0.00000000   0.00000001         -1.07      0.00      0.00
   0.00000000  -0.00000729  -0.00000000          0.00     -1.07     -0.00
   0.00000001  -0.00000000  -0.00008715          0.00     -0.00    -12.82

     BFGS Geometry Optimization

     number of scf cycles    =   1
     number of bfgs steps    =   0

     energy   new            =   -1170.3594974291 Ry

     new trust radius        =       0.1530601050 bohr
     new conv_thr            =       0.0000099958 Ry

ATOMIC_POSITIONS (crystal)
Sc1      0.166666667   0.166666667   0.395942884    0   0   0
Sc1      0.666666667   0.166666667   0.395942884    0   0   0
Sc1      0.166666667   0.666666667   0.395942884    0   0   0
Sc1      0.666666667   0.666666667   0.395942884    0   0   0
Sc1      0.833333333   0.333333333   0.500000000    0   0   0
Sc1      0.333333333   0.333333333   0.500000000    0   0   0
Sc1      0.833333333   0.833333333   0.500000000    0   0   0
Sc1      0.333333333   0.833333333   0.500000000    0   0   0
Sc1     -0.000002498   0.000003909   0.603831537
Sc1      0.497444419   0.005111850   0.605161054
Sc1      0.005110406   0.497442166   0.605160358
Sc1      0.497447726   0.497441583   0.605160593
O1       0.333332123   0.333334595   0.661587778

     Writing output data file calc.save
     Check: negative starting charge=   -0.000421
     NEW-OLD atomic charge density approx. for the potential
     Check: negative starting charge=   -0.000416

[...]

     energy   old            =   -1170.3594974291 Ry
     energy   new            =   -1170.3979923578 Ry

     CASE: energy  _new < energy  _old

     WARNING: bfgs curvature condition failed, Theta= 0.898
     new trust radius        =       0.1683661155 bohr
     new conv_thr            =       0.0000001000 Ry

[...]

     iteration #  1     ecut=    36.75 Ry     beta=0.30
     Davidson diagonalization with overlap
     c_bands:  1 eigenvalues not converged
     c_bands:  1 eigenvalues not converged
     ethr =  1.00E-06,  avg # of iterations = 16.6

[...]

     iteration # 14     ecut=    36.75 Ry     beta=0.30
     Davidson diagonalization with overlap
     c_bands:  1 eigenvalues not converged
     ethr =  8.59E-11,  avg # of iterations =  9.1

[...]

     Total force =     0.006047     Total SCF correction =     0.000620
     SCF correction compared to forces is large: reduce conv_thr to get better values

[...]

     Threshold (ethr) on eigenvalues was too large:
     Diagonalizing with lowered threshold

     Davidson diagonalization with overlap
     ethr =  3.31E-08,  avg # of iterations =  5.6

[...]

     Total force =     0.004424     Total SCF correction =     0.000557
     SCF correction compared to forces is large: reduce conv_thr to get better values

[...]

     number of scf cycles    =  20
     number of bfgs steps    =  19

     energy   old            =   -1170.4892247534 Ry
     energy   new            =   -1170.4892854071 Ry

     CASE: energy  _new < energy  _old

     new trust radius        =       0.0298788593 bohr
     new conv_thr            =       0.0000001000 Ry

ATOMIC_POSITIONS (crystal)
Sc1      0.166666667   0.166666667   0.395942884    0   0   0
Sc1      0.666666667   0.166666667   0.395942884    0   0   0
Sc1      0.166666667   0.666666667   0.395942884    0   0   0
Sc1      0.666666667   0.666666667   0.395942884    0   0   0
Sc1      0.833333333   0.333333333   0.500000000    0   0   0
Sc1      0.333333333   0.333333333   0.500000000    0   0   0
Sc1      0.833333333   0.833333333   0.500000000    0   0   0
Sc1      0.333333333   0.833333333   0.500000000    0   0   0
Sc1     -0.000010576   0.000019946   0.597105509
Sc1      0.500649888  -0.001297164   0.607321514
Sc1     -0.001313471   0.500642821   0.607321997
Sc1      0.500668625   0.500638627   0.607320448
O1       0.333333760   0.333330545   0.636844356

     Writing output data file calc.save
     Check: negative starting charge=   -0.000403
     NEW-OLD atomic charge density approx. for the potential
     Check: negative starting charge=   -0.000402

[...]

     Self-consistent Calculation

[...]

     total energy              =   -1170.48933521 Ry
     Harris-Foulkes estimate   =   -1170.48933524 Ry
     estimated scf accuracy    <       0.00000013 Ry

     iteration # 13     ecut=    36.75 Ry     beta=0.30
     Davidson diagonalization with overlap
     ethr =  9.10E-11,  avg # of iterations =  3.8

[...]

     negative rho (up, down):  2.609E-04 0.000E+00

     Adding external electric field

     Computed dipole along edir(3) :
        Dipole               -0.0122 Ry au,         -0.0310 Debye
        Dipole field         -0.0000 Ry au

        Potential amp.        0.0023 Ry
        Total length         46.5341 bohr

     End of self-consistent calculation

[...]

          k = 0.0518-0.0598 0.0000 ( 23012 PWs)   bands (ev):

[...]

          k =-0.0777-0.0448 0.0000 ( 23032 PWs)   bands (ev):

   -49.3887 -49.3817 -49.3762 -49.3703 -49.3619 -49.3530 -49.3473 -49.2891
   -49.0537 -48.9199 -48.9080 -48.8977 -28.2151 -28.0807 -28.0671 -28.0549
   -28.0528 -28.0447 -28.0401 -28.0392 -28.0276 -28.0211 -28.0203 -28.0128
   -27.9931 -27.9506 -27.9464 -27.9394 -27.9371 -27.9171 -27.9140 -27.8492
   -27.8251 -27.8159 -27.8058 -27.7746 -27.6811 -27.6657 -27.6185 -27.5995
   -27.5144 -27.4934 -27.4924 -27.4864 -27.4793 -27.4763 -27.4369 -27.3821
   -18.1318  -4.6492  -4.4911  -4.1776  -2.8279  -2.7550  -1.8091  -1.6180
    -0.9506  -0.9188  -0.6570  -0.5128  -0.4160  -0.3608   0.2552   0.2679
     0.3093   0.3168   0.3874   0.4543   0.6001   0.6076   0.6355   0.6774
     0.7858   0.8097   0.9088   0.9429   1.0155   1.0850   1.1302

     the Fermi energy is     0.5463 ev

!    total energy              =   -1170.48933520 Ry
     Harris-Foulkes estimate   =   -1170.48933521 Ry
     estimated scf accuracy    <       0.00000002 Ry

     The total energy is the sum of the following terms:

     one-electron contribution =   -7554.36146819 Ry
     hartree contribution      =    3762.21550662 Ry
     xc contribution           =    -174.16204331 Ry
     ewald contribution        =    2795.94954919 Ry
     electric field correction =       0.00000031 Ry
     smearing contrib. (-TS)   =      -0.13087981 Ry

     convergence has been achieved in  13 iterations

 BEEF-vdW xc energy contributions
           1 :   -147.664231238334
           2 :    129.940948997735
           3 :   -102.249898586435
           4 :    75.2107398019642
           5 :   -56.3331709293153
           6 :    47.0009719008695
           7 :   -43.7340107177493
           8 :    41.9032685494067
           9 :   -38.8954613511687
          10 :    34.8665352746439
          11 :   -31.3481210198617
          12 :    29.3497939099179
          13 :   -28.5028690778284
          14 :    27.6269569755380
          15 :   -25.9220041113442
          16 :    23.6371652833223
          17 :   -21.7030093804628
          18 :    20.7883222136227
          19 :   -20.6998992375392
          20 :    20.6243769268280
          21 :   -19.8990102214794
          22 :    18.5644493121004
          23 :   -17.2390599779098
          24 :    16.5042144948681
          25 :   -16.3943033495854
          26 :    16.4237328830377
          27 :   -16.0689060571405
          28 :    15.2330812777435
          29 :   -14.2860922890581
          30 :    13.6857889574413
          31 :   -17.3688643153211
          32 :   -12.4150046834348

     Forces acting on atoms (Ry/au):

     negative rho (up, down):  2.609E-04 0.000E+00
     atom    1 type  1   force =     0.00182832    0.00105426    0.00179239
     atom    2 type  1   force =    -0.00182812    0.00105444    0.00179166
     atom    3 type  1   force =     0.00000030   -0.00211033    0.00179381
     atom    4 type  1   force =    -0.00000013    0.00000076    0.00238666
     atom    5 type  1   force =     0.00000016    0.00163750    0.00166938
     atom    6 type  1   force =    -0.00000058   -0.00000235   -0.01211850
     atom    7 type  1   force =    -0.00141726   -0.00081721    0.00167702
     atom    8 type  1   force =     0.00141732   -0.00081706    0.00167595
     atom    9 type  1   force =     0.00000142   -0.00003055   -0.00026821
     atom   10 type  1   force =    -0.00000363    0.00113337    0.00024341
     atom   11 type  1   force =     0.00102916   -0.00056487    0.00025019
     atom   12 type  1   force =    -0.00102466   -0.00055819    0.00025235
     atom   13 type  2   force =    -0.00000230    0.00002021   -0.00114612

     Total force =     0.002366     Total SCF correction =     0.000164

     entering subroutine stress ...

     negative rho (up, down):  2.609E-04 0.000E+00
          total   stress  (Ry/bohr**3)                   (kbar)     P=    4.08
   0.00004722   0.00000000  -0.00000000          6.95      0.00     -0.00
   0.00000000   0.00004723   0.00000001          0.00      6.95      0.00
  -0.00000000   0.00000001  -0.00001126         -0.00      0.00     -1.66

     bfgs converged in  21 scf cycles and  20 bfgs steps
     (criteria: energy <  1.0E+00, force <  1.9E-03)

     End of BFGS Geometry Optimization

     Final energy   =   -1170.4893352029 Ry
Begin final coordinates

ATOMIC_POSITIONS (crystal)
Sc1      0.166666667   0.166666667   0.395942884    0   0   0
Sc1      0.666666667   0.166666667   0.395942884    0   0   0
Sc1      0.166666667   0.666666667   0.395942884    0   0   0
Sc1      0.666666667   0.666666667   0.395942884    0   0   0
Sc1      0.833333333   0.333333333   0.500000000    0   0   0
Sc1      0.333333333   0.333333333   0.500000000    0   0   0
Sc1      0.833333333   0.833333333   0.500000000    0   0   0
Sc1      0.333333333   0.833333333   0.500000000    0   0   0
Sc1     -0.000010576   0.000019946   0.597105509
Sc1      0.500649888  -0.001297164   0.607321514
Sc1     -0.001313471   0.500642821   0.607321997
Sc1      0.500668625   0.500638627   0.607320448
O1       0.333333760   0.333330545   0.636844356
End final coordinates

     Writing output data file calc.save

     General routines

     Parallel routines

   This run was terminated on:  18:54:50   2May2018

   JOB DONE.
Job  /afs/slac/g/suncat/bin/suncat-tsmpirun -x LD_LIBRARY_PATH -wdir /scratch/qe781883_fabnG pw.x -npool 4 -in pw.inp

TID   HOST_NAME   COMMAND_LINE            STATUS            TERMINATION_TIME
00000 suncat0176 pw.x -npool 4 -i  Done                     05/02/2018 18:54:50
00001 suncat0176 pw.x -npool 4 -i  Done                     05/02/2018 18:54:50
00002 suncat0176 pw.x -npool 4 -i  Done                     05/02/2018 18:54:50
00003 suncat0176 pw.x -npool 4 -i  Done                     05/02/2018 18:54:50
00004 suncat0176 pw.x -npool 4 -i  Done                     05/02/2018 18:54:50
00005 suncat0176 pw.x -npool 4 -i  Done                     05/02/2018 18:54:50
00006 suncat0176 pw.x -npool 4 -i  Done                     05/02/2018 18:54:50
00007 suncat0176 pw.x -npool 4 -i  Done                     05/02/2018 18:54:50
00008 suncat0114 pw.x -npool 4 -i  Done                     05/02/2018 18:54:50
00009 suncat0114 pw.x -npool 4 -i  Done                     05/02/2018 18:54:50
00010 suncat0114 pw.x -npool 4 -i  Done                     05/02/2018 18:54:50
00011 suncat0114 pw.x -npool 4 -i  Done                     05/02/2018 18:54:50
00012 suncat0114 pw.x -npool 4 -i  Done                     05/02/2018 18:54:50
00013 suncat0114 pw.x -npool 4 -i  Done                     05/02/2018 18:54:50
00014 suncat0114 pw.x -npool 4 -i  Done                     05/02/2018 18:54:50
00015 suncat0114 pw.x -npool 4 -i  Done                     05/02/2018 18:54:50
00016 suncat0110 pw.x -npool 4 -i  Done                     05/02/2018 18:54:50
00017 suncat0110 pw.x -npool 4 -i  Done                     05/02/2018 18:54:50
00018 suncat0110 pw.x -npool 4 -i  Done                     05/02/2018 18:54:50
00019 suncat0110 pw.x -npool 4 -i  Done                     05/02/2018 18:54:50
00020 suncat0110 pw.x -npool 4 -i  Done                     05/02/2018 18:54:50
00021 suncat0110 pw.x -npool 4 -i  Done                     05/02/2018 18:54:50
00022 suncat0110 pw.x -npool 4 -i  Done                     05/02/2018 18:54:50
00023 suncat0110 pw.x -npool 4 -i  Done                     05/02/2018 18:54:50
00024 suncat0241 pw.x -npool 4 -i  Done                     05/02/2018 18:54:50
00025 suncat0241 pw.x -npool 4 -i  Done                     05/02/2018 18:54:50
00026 suncat0241 pw.x -npool 4 -i  Done                     05/02/2018 18:54:50
00027 suncat0241 pw.x -npool 4 -i  Done                     05/02/2018 18:54:50
00028 suncat0241 pw.x -npool 4 -i  Done                     05/02/2018 18:54:50
00029 suncat0241 pw.x -npool 4 -i  Done                     05/02/2018 18:54:50
00030 suncat0241 pw.x -npool 4 -i  Done                     05/02/2018 18:54:50
00031 suncat0241 pw.x -npool 4 -i  Done                     05/02/2018 18:54:50