     Program PWSCF v.5.1rc2 (svn rev. 11289) starts on 16Apr2018 at 11: 6:19

     Current dimensions of program PWSCF are:
     Max number of different atomic species (ntypx) = 10
     Max number of k-points (npk) =  40000
     Max angular momentum in pseudopotentials (lmaxx) =  3
     Presently stress not available with electric field

     IMPORTANT: XC functional enforced from input :
     Exchange-correlation      = BEEF-VDW ( 1  4 27 13 2)
     Any further DFT definition will be discarded
     Please, verify this is what you really want

     Subspace diagonalization in iterative solution of the eigenvalue problem:
     a serial algorithm will be used

     bravais-lattice index     =            0
     lattice parameter (alat)  =       1.8897  a.u.
     unit-cell volume          =    4650.5773 (a.u.)^3
     number of atoms/cell      =           14
     number of atomic types    =            3
     number of electrons       =        41.00
     number of Kohn-Sham states=           30
     kinetic-energy cutoff     =      36.7493  Ry
     charge density cutoff     =     367.4932  Ry
     convergence threshold     =      1.0E-05
     mixing beta               =       0.3000
     number of iterations used =           10  plain     mixing
     Exchange-correlation      = BEEF-VDW ( 1  4 27 13 2)
     nstep                     =           50

     celldm(1)=   1.889726  celldm(2)=   0.000000  celldm(3)=   0.000000
     celldm(4)=   0.000000  celldm(5)=   0.000000  celldm(6)=   0.000000

     crystal axes: (cart. coord. in units of alat)
               a(1) = (   5.682886   0.000000   0.000000 )
               a(2) = (   2.841443   4.921524   0.000000 )
               a(3) = (   0.000000   0.000000  24.640057 )

     reciprocal axes: (cart. coord. in units 2 pi/alat)
               b(1) = (  0.175967 -0.101595  0.000000 )
               b(2) = (  0.000000  0.203189  0.000000 )
               b(3) = (  0.000000  0.000000  0.040584 )

     PseudoPot. # 1 for Al read from file:
     /u/if/mamunm/psp/gbrv1.5pbe/Al.UPF
     MD5 check sum: 0a6289f5291fc8f409219462bc851e1f
     Pseudo is Ultrasoft + core correction, Zval =  3.0
     Generated by new atomic code, or converted to UPF format
     Using radial grid of  893 points,  3 beta functions with:
                l(1) =   0
                l(2) =   1
                l(3) =   2
     Q(r) pseudized with  8 coefficients,  rinner =    0.900   0.900   0.900
                                                       0.900   0.900

     PseudoPot. # 2 for C  read from file:
     /u/if/mamunm/psp/gbrv1.5pbe/C.UPF
     MD5 check sum: d1aef80898a10debaa0f26306b886e00
     Pseudo is Ultrasoft + core correction, Zval =  4.0
     Generated by new atomic code, or converted to UPF format
     Using radial grid of  721 points,  4 beta functions with:
                l(1) =   0
                l(2) =   0
                l(3) =   1
                l(4) =   1
     Q(r) pseudized with  8 coefficients,  rinner =    1.100   1.100   1.100

     PseudoPot. # 3 for H  read from file:
     /u/if/mamunm/psp/gbrv1.5pbe/H.UPF
     MD5 check sum: 761ae9a214b05c3daf00ab9f6b793d6f
     Pseudo is Ultrasoft, Zval =  1.0
     Generated by new atomic code, or converted to UPF format
     Using radial grid of  615 points,  2 beta functions with:
                l(1) =   0
                l(2) =   0
     Q(r) pseudized with  8 coefficients,  rinner =    0.700

     vdW kernel table read from file vdW_kernel_table
     MD5 check sum: 095c7af220d748ca6e76c0b4c6cfb241

     atomic species   valence    mass     pseudopotential
        Al1            3.00    26.98154     Al( 1.00)
        C1             4.00    12.01100     C ( 1.00)
        H1             1.00     1.00800     H ( 1.00)

     No symmetry found

   Cartesian axes

     site n.     atom                  positions (alat units)
         1           Al1 tau(   1) = (   1.4207216   0.8202540  10.0000000  )
         2           Al1 tau(   2) = (   4.2621647   0.8202540  10.0000000  )
         3           Al1 tau(   3) = (   2.8414431   3.2810159  10.0000000  )
         4           Al1 tau(   4) = (   5.6828862   3.2810159  10.0000000  )
         5           Al1 tau(   5) = (   5.6828862   1.6405079  12.3200286  )
         6           Al1 tau(   6) = (   2.8414431   1.6405079  12.3200286  )
         7           Al1 tau(   7) = (   7.1036078   4.1012699  12.3200286  )
         8           Al1 tau(   8) = (   4.2621647   4.1012699  12.3200286  )
         9           Al1 tau(   9) = (   0.0000000   0.0000000  14.6400572  )
        10           Al1 tau(  10) = (   2.8414431   0.0000000  14.6400572  )
        11           Al1 tau(  11) = (   1.4207216   2.4607619  14.6400572  )
        12           Al1 tau(  12) = (   4.2621647   2.4607619  14.6400572  )
        13           C1  tau(  13) = (   0.0000000   0.0000000  16.3145572  )
        14           H1  tau(  14) = (   0.0000000   0.0000000  17.4145572  )

     number of k points=    20  Fermi-Dirac smearing, width (Ry)=  0.0110
                       cart. coord. in units 2pi/alat
        k(    1) = (   0.0000000   0.0000000   0.0000000), wk =   0.0555556
        k(    2) = (   0.0000000   0.0338648   0.0000000), wk =   0.1111111
        k(    3) = (   0.0000000   0.0677297   0.0000000), wk =   0.1111111
        k(    4) = (   0.0000000  -0.1015945   0.0000000), wk =   0.0555556
        k(    5) = (   0.0293278  -0.0169324   0.0000000), wk =   0.1111111
        k(    6) = (   0.0293278   0.0169324   0.0000000), wk =   0.1111111
        k(    7) = (   0.0293278   0.0507973   0.0000000), wk =   0.1111111
        k(    8) = (   0.0293278  -0.1185270   0.0000000), wk =   0.1111111
        k(    9) = (   0.0293278  -0.0846621   0.0000000), wk =   0.1111111
        k(   10) = (   0.0293278  -0.0507973   0.0000000), wk =   0.1111111
        k(   11) = (   0.0586556  -0.0338648   0.0000000), wk =   0.1111111
        k(   12) = (   0.0586556   0.0000000   0.0000000), wk =   0.1111111
        k(   13) = (   0.0586556   0.0338648   0.0000000), wk =   0.1111111
        k(   14) = (   0.0586556  -0.1354594   0.0000000), wk =   0.1111111
        k(   15) = (   0.0586556  -0.1015945   0.0000000), wk =   0.1111111
        k(   16) = (   0.0586556  -0.0677297   0.0000000), wk =   0.1111111
        k(   17) = (  -0.0879835   0.0507973   0.0000000), wk =   0.0555556
        k(   18) = (  -0.0879835   0.0846621   0.0000000), wk =   0.1111111
        k(   19) = (  -0.0879835   0.1185270   0.0000000), wk =   0.1111111
        k(   20) = (  -0.0879835  -0.0507973   0.0000000), wk =   0.0555556

     Largest allocated arrays     est. size (Mb)     dimensions
     Largest temporary arrays     est. size (Mb)     dimensions

     Initial potential from superposition of free atoms
     Check: negative starting charge=   -0.000160

     starting charge   40.97037, renormalised to   41.00000

     negative rho (up, down):  1.603E-04 0.000E+00

     *
     * You are using vdW-DF for exchange-correlation in this calculation.
     * Please cite the following three references that made this development
     * possible:
     *
     *   M. Dion, H. Rydberg, E. Schroder, D. C. Langreth, and
     *   B. I. Lundqvist, Phys. Rev. Lett. 92, 246401 (2004).
     *
     *   T. Thonhauser, V. R. Cooper, S. Li, A. Puzder, P. Hyldgaard, and
     *   D. C. Langreth, Phys. Rev. B 76, 125112 (2007).
     *
     *   G. Roman-Perez and J. M. Soler, Phys. Rev. Lett. 103, 096102 (2009).
     *
     *
     * If you are using vdW-DF2, please also cite:
     *
     *   K. Lee, E. D. Murray, L. Kong, B. I. Lundqvist, and
     *   D. C. Langreth, Phys. Rev. B 82, 081101(R) (2010).
     *
     *
     * If you are calculating the stress with vdW-DF, please also cite:
     *
     *   R. Sabatini, E. Kucukbenli, B. Kolb, T. Thonhauser, and
     *   S. de Gironcoli, J. Phys.: Condens. Matter 24, 424209 (2012).
     *

     Carrying out vdW-DF run using the following parameters:

     Nqs =      20    Nr_points =    1024   r_max =   100.000
     q_mesh =
               0.00001000     0.04494208     0.09755937     0.15916263
               0.23128650     0.31572767     0.41458969     0.53033537
               0.66584808     0.82450364     1.01025438     1.22772762
               1.48234092     1.78043706     2.12944203     2.53805004
               3.01644009     3.57652955     4.23227104     5.00000000

     Gradients computed in reciprocal space

     Adding external electric field

     Computed dipole along edir(3) :
        Dipole               -0.0284 Ry au,         -0.0722 Debye
        Dipole field         -0.0001 Ry au

        Potential amp.        0.0070 Ry
        Total length         45.3989 bohr

     Starting wfc are   53 randomized atomic wfcs

     Self-consistent Calculation

     iteration #  1     ecut=    36.75 Ry     beta=0.30
     Davidson diagonalization with overlap
     ethr =  1.00E-02,  avg # of iterations =  3.0

[...]

     total energy              =     -93.86011298 Ry
     Harris-Foulkes estimate   =     -95.29890542 Ry
     estimated scf accuracy    <       3.23267634 Ry

[...]

     End of self-consistent calculation

          k = 0.0000 0.0000 0.0000 ( 17579 PWs)   bands (ev):

   -11.9508 -11.2092  -9.5318  -7.1623  -5.9274  -5.4517  -5.4517  -5.4046
    -5.3933  -5.3933  -5.1357  -4.1766  -4.1766  -4.0244  -3.6380  -3.5242
    -3.5242  -2.8077  -1.7866  -1.7866  -1.0716  -1.0716  -0.9968  -0.3749
     0.0600   0.0600   0.5366   1.9106   1.9110   1.9110

[...]

          k =-0.0880 0.0508 0.0000 ( 17464 PWs)   bands (ev):

[...]

     the Fermi energy is    -0.6994 ev

!    total energy              =     -94.93544213 Ry
     Harris-Foulkes estimate   =     -94.93544183 Ry
     estimated scf accuracy    <       0.00000088 Ry

     The total energy is the sum of the following terms:

     one-electron contribution =    -720.04694277 Ry
     hartree contribution      =     368.43575268 Ry
     xc contribution           =     -57.52465785 Ry
     ewald contribution        =     314.23533388 Ry
     electric field correction =       0.00001999 Ry
     smearing contrib. (-TS)   =      -0.03494806 Ry

     convergence has been achieved in  11 iterations

 BEEF-vdW xc energy contributions
           1 :   -47.2311386565975
           2 :    40.5406628401038
           3 :   -30.3046795594234
           4 :    20.5841772937530
           5 :   -13.9518079620689
           6 :    10.5509367796329
           7 :   -8.87731614687606
           8 :    7.37875447886515
           9 :   -5.56655613934049
          10 :    3.94665709409093
          11 :   -3.14163786244882
          12 :    3.14343676615538
          13 :   -3.33262731438604
          14 :    3.09421675400447
          15 :   -2.35139184360116
          16 :    1.53005488707446
          17 :   -1.07060816230199
          18 :    1.00663689189821
          19 :  -0.998997085277772
          20 :   0.724165523771859
          21 :  -0.193493882547550
          22 :  -0.294866334068359
          23 :   0.477238261573568
          24 :  -0.376865525816292
          25 :   0.252717521053633
          26 :  -0.327878690864850
          27 :   0.580713532500923
          28 :  -0.792825853826933
          29 :   0.781722267868865
          30 :  -0.577618320471039
          31 :   -7.06948110431332
          32 :   -5.15570278604446

     Forces acting on atoms (Ry/au):

     negative rho (up, down):  4.367E-04 0.000E+00
     atom    1 type  1   force =    -0.00028659   -0.00016613   -0.00103634
     atom    2 type  1   force =     0.00028664   -0.00016611   -0.00103615
     atom    3 type  1   force =     0.00000015    0.00033144   -0.00103623
     atom    4 type  1   force =     0.00000021    0.00000029    0.00038560
     atom    5 type  1   force =    -0.00000005   -0.00266075    0.00479896
     atom    6 type  1   force =     0.00000016    0.00000017   -0.00170064
     atom    7 type  1   force =     0.00230419    0.00133022    0.00479865
     atom    8 type  1   force =    -0.00230431    0.00133027    0.00479865
     atom    9 type  1   force =    -0.00000008   -0.00000005   -0.18557057
     atom   10 type  1   force =    -0.00000003   -0.00499565    0.00288200
     atom   11 type  1   force =    -0.00432632    0.00249766    0.00288167
     atom   12 type  1   force =     0.00432645    0.00249771    0.00288157
     atom   13 type  2   force =    -0.00000031    0.00000117    0.18679978
     atom   14 type  3   force =    -0.00000010   -0.00000023   -0.01984696

     Total force =     0.264243     Total SCF correction =     0.000865

     entering subroutine stress ...

     negative rho (up, down):  4.367E-04 0.000E+00
          total   stress  (Ry/bohr**3)                   (kbar)     P=   -0.97
  -0.00005878   0.00000000   0.00000000         -8.65      0.00      0.00
   0.00000000  -0.00005878   0.00000000          0.00     -8.65      0.00
   0.00000000   0.00000000   0.00009780          0.00      0.00     14.39

     BFGS Geometry Optimization

     number of scf cycles    =   1
     number of bfgs steps    =   0

     energy   new            =     -94.9354421271 Ry

     new trust radius        =       0.1867997845 bohr
     new conv_thr            =       0.0000099958 Ry

ATOMIC_POSITIONS (crystal)
Al1      0.166666667   0.166666667   0.405843214    0   0   0
Al1      0.666666667   0.166666667   0.405843214    0   0   0
Al1      0.166666667   0.666666667   0.405843214    0   0   0
Al1      0.666666667   0.666666667   0.405843214    0   0   0
Al1      0.833333333   0.333333333   0.500000000    0   0   0
Al1      0.333333333   0.333333333   0.500000000    0   0   0
Al1      0.833333333   0.833333333   0.500000000    0   0   0
Al1      0.333333333   0.833333333   0.500000000    0   0   0
Al1     -0.000000005  -0.000000005   0.590171417
Al1      0.500268571  -0.000537148   0.594218681
Al1     -0.000537135   0.500268556   0.594218674
Al1      0.500268588   0.500268562   0.594218671
C1      -0.000000092   0.000000126   0.666127000
H1       0.000000004  -0.000000025   0.706331746

     Writing output data file calc.save
     Check: negative starting charge=   -0.000160
     NEW-OLD atomic charge density approx. for the potential
     Check: negative starting charge=   -0.000156

[...]

     energy   old            =     -94.9354421271 Ry
     energy   new            =     -94.9415187901 Ry

     CASE: energy  _new < energy  _old

[...]

     number of scf cycles    =  13
     number of bfgs steps    =  12

     energy   old            =     -94.9605027895 Ry
     energy   new            =     -94.9605505900 Ry

     CASE: energy  _new < energy  _old

     new trust radius        =       0.0085868719 bohr
     new conv_thr            =       0.0000001000 Ry

ATOMIC_POSITIONS (crystal)
Al1      0.166666667   0.166666667   0.405843214    0   0   0
Al1      0.666666667   0.166666667   0.405843214    0   0   0
Al1      0.166666667   0.666666667   0.405843214    0   0   0
Al1      0.666666667   0.666666667   0.405843214    0   0   0
Al1      0.833333333   0.333333333   0.500000000    0   0   0
Al1      0.333333333   0.333333333   0.500000000    0   0   0
Al1      0.833333333   0.833333333   0.500000000    0   0   0
Al1      0.333333333   0.833333333   0.500000000    0   0   0
Al1      0.000000123  -0.000000148   0.586527996
Al1      0.501057072  -0.002114069   0.596901931
Al1     -0.002113978   0.501056913   0.596901936
Al1      0.501057110   0.501056893   0.596901935
C1      -0.000000329   0.000000413   0.660404998
H1      -0.000000144   0.000000186   0.704594682

     Writing output data file calc.save
     Check: negative starting charge=   -0.000153
     NEW-OLD atomic charge density approx. for the potential
     Check: negative starting charge=   -0.000153

[...]

     Self-consistent Calculation

[...]

     total energy              =     -94.96057581 Ry
     Harris-Foulkes estimate   =     -94.96057570 Ry
     estimated scf accuracy    <       0.00000017 Ry

     iteration #  7     ecut=    36.75 Ry     beta=0.30
     Davidson diagonalization with overlap
     ethr =  4.12E-10,  avg # of iterations =  2.0

[...]

     negative rho (up, down):  3.919E-04 0.000E+00

     Adding external electric field

     Computed dipole along edir(3) :
        Dipole               -0.0595 Ry au,         -0.1511 Debye
        Dipole field         -0.0002 Ry au

        Potential amp.        0.0146 Ry
        Total length         45.3989 bohr

     End of self-consistent calculation

[...]

          k = 0.0587-0.0677 0.0000 ( 17495 PWs)   bands (ev):

[...]

          k =-0.0880-0.0508 0.0000 ( 17464 PWs)   bands (ev):

   -11.7865  -9.8022  -9.7561  -8.1698  -8.1195  -6.8685  -6.8126  -6.2973
    -5.5495  -5.2795  -5.2451  -4.0713  -2.9770  -2.6952  -2.5816  -1.4302
    -1.2434  -1.2433  -0.9094  -0.8407  -0.4951  -0.4245   0.3179   0.5537
     0.7100   0.9567   1.0619   1.4737   1.4976   1.9944

     the Fermi energy is    -0.6343 ev

!    total energy              =     -94.96057581 Ry
     Harris-Foulkes estimate   =     -94.96057586 Ry
     estimated scf accuracy    <       0.00000002 Ry

     The total energy is the sum of the following terms:

     one-electron contribution =    -721.20516530 Ry
     hartree contribution      =     369.03166083 Ry
     xc contribution           =     -57.44040291 Ry
     ewald contribution        =     314.68900938 Ry
     electric field correction =       0.00000955 Ry
     smearing contrib. (-TS)   =      -0.03568736 Ry

     convergence has been achieved in   7 iterations

 BEEF-vdW xc energy contributions
           1 :   -47.1534459404287
           2 :    40.4676132796188
           3 :   -30.2367540230440
           4 :    20.5225774183341
           5 :   -13.9008249961388
           6 :    10.5133356953679
           7 :   -8.84904596924426
           8 :    7.34854165762823
           9 :   -5.52080321600278
          10 :    3.87589239032179
          11 :   -3.04380579645178
          12 :    3.02312557568339
          13 :   -3.19793610778604
          14 :    2.95332415427691
          15 :   -2.21020988429196
          16 :    1.39142530235740
          17 :  -0.935045609095241
          18 :   0.873830155198377
          19 :  -0.868531580743834
          20 :   0.594685392290891
          21 :  -6.110924898052872E-002
          22 :  -0.436240835361701
          23 :   0.632494458991260
          24 :  -0.545054797122226
          25 :   0.425082966005938
          26 :  -0.491278100300534
          27 :   0.724613007128184
          28 :  -0.914861807444694
          29 :   0.887429919916826
          30 :  -0.674672180473912
          31 :   -7.06452582574725
          32 :   -5.15244409465163

     Forces acting on atoms (Ry/au):

     negative rho (up, down):  3.919E-04 0.000E+00
     atom    1 type  1   force =    -0.00043060   -0.00024861   -0.00066327
     atom    2 type  1   force =     0.00043061   -0.00024862   -0.00066326
     atom    3 type  1   force =     0.00000000    0.00049722   -0.00066328
     atom    4 type  1   force =    -0.00000000    0.00000000    0.00016615
     atom    5 type  1   force =     0.00000000    0.00601257    0.00113640
     atom    6 type  1   force =    -0.00000000   -0.00000001    0.00487587
     atom    7 type  1   force =    -0.00520705   -0.00300631    0.00113635
     atom    8 type  1   force =     0.00520707   -0.00300631    0.00113632
     atom    9 type  1   force =     0.00000001   -0.00000006   -0.00116972
     atom   10 type  1   force =     0.00000002   -0.00124320   -0.00126416
     atom   11 type  1   force =    -0.00107662    0.00062155   -0.00126418
     atom   12 type  1   force =     0.00107665    0.00062154   -0.00126417
     atom   13 type  2   force =    -0.00000006    0.00000018   -0.00037672
     atom   14 type  3   force =    -0.00000002    0.00000007   -0.00112233

     Total force =     0.003493     Total SCF correction =     0.000120

     entering subroutine stress ...

     negative rho (up, down):  3.919E-04 0.000E+00
          total   stress  (Ry/bohr**3)                   (kbar)     P=   -6.04
  -0.00005864   0.00000000  -0.00000000         -8.63      0.00     -0.00
   0.00000000  -0.00005864   0.00000000          0.00     -8.63      0.00
  -0.00000000   0.00000000  -0.00000595         -0.00      0.00     -0.87

     bfgs converged in  14 scf cycles and  13 bfgs steps
     (criteria: energy <  1.0E+00, force <  1.9E-03)

     End of BFGS Geometry Optimization

     Final energy   =     -94.9605758096 Ry
Begin final coordinates

ATOMIC_POSITIONS (crystal)
Al1      0.166666667   0.166666667   0.405843214    0   0   0
Al1      0.666666667   0.166666667   0.405843214    0   0   0
Al1      0.166666667   0.666666667   0.405843214    0   0   0
Al1      0.666666667   0.666666667   0.405843214    0   0   0
Al1      0.833333333   0.333333333   0.500000000    0   0   0
Al1      0.333333333   0.333333333   0.500000000    0   0   0
Al1      0.833333333   0.833333333   0.500000000    0   0   0
Al1      0.333333333   0.833333333   0.500000000    0   0   0
Al1      0.000000123  -0.000000148   0.586527996
Al1      0.501057072  -0.002114069   0.596901931
Al1     -0.002113978   0.501056913   0.596901936
Al1      0.501057110   0.501056893   0.596901935
C1      -0.000000329   0.000000413   0.660404998
H1      -0.000000144   0.000000186   0.704594682
End final coordinates

     Writing output data file calc.save

     General routines

     Parallel routines

   This run was terminated on:  11:35:54  16Apr2018

   JOB DONE.
Job  /afs/slac/g/suncat/bin/suncat-tsmpirun -x LD_LIBRARY_PATH -wdir /scratch/qe110142_hO1mS pw.x -npool 4 -in pw.inp

TID   HOST_NAME   COMMAND_LINE            STATUS            TERMINATION_TIME
00000 suncat0054 pw.x -npool 4 -i  Done                     04/16/2018 11:35:54
00001 suncat0054 pw.x -npool 4 -i  Done                     04/16/2018 11:35:54
00002 suncat0054 pw.x -npool 4 -i  Done                     04/16/2018 11:35:54
00003 suncat0054 pw.x -npool 4 -i  Done                     04/16/2018 11:35:54
00004 suncat0054 pw.x -npool 4 -i  Done                     04/16/2018 11:35:54
00005 suncat0054 pw.x -npool 4 -i  Done                     04/16/2018 11:35:54
00006 suncat0054 pw.x -npool 4 -i  Done                     04/16/2018 11:35:54
00007 suncat0054 pw.x -npool 4 -i  Done                     04/16/2018 11:35:54
00008 suncat0035 pw.x -npool 4 -i  Done                     04/16/2018 11:35:54
00009 suncat0035 pw.x -npool 4 -i  Done                     04/16/2018 11:35:54
00010 suncat0035 pw.x -npool 4 -i  Done                     04/16/2018 11:35:54
00011 suncat0035 pw.x -npool 4 -i  Done                     04/16/2018 11:35:54
00012 suncat0035 pw.x -npool 4 -i  Done                     04/16/2018 11:35:54
00013 suncat0035 pw.x -npool 4 -i  Done                     04/16/2018 11:35:54
00014 suncat0035 pw.x -npool 4 -i  Done                     04/16/2018 11:35:54
00015 suncat0035 pw.x -npool 4 -i  Done                     04/16/2018 11:35:54
00016 suncat0016 pw.x -npool 4 -i  Done                     04/16/2018 11:35:54
00017 suncat0016 pw.x -npool 4 -i  Done                     04/16/2018 11:35:54
00018 suncat0016 pw.x -npool 4 -i  Done                     04/16/2018 11:35:54
00019 suncat0016 pw.x -npool 4 -i  Done                     04/16/2018 11:35:54
00020 suncat0016 pw.x -npool 4 -i  Done                     04/16/2018 11:35:54
00021 suncat0016 pw.x -npool 4 -i  Done                     04/16/2018 11:35:54
00022 suncat0016 pw.x -npool 4 -i  Done                     04/16/2018 11:35:54
00023 suncat0016 pw.x -npool 4 -i  Done                     04/16/2018 11:35:54
00024 suncat0014 pw.x -npool 4 -i  Done                     04/16/2018 11:35:54
00025 suncat0014 pw.x -npool 4 -i  Done                     04/16/2018 11:35:54
00026 suncat0014 pw.x -npool 4 -i  Done                     04/16/2018 11:35:54
00027 suncat0014 pw.x -npool 4 -i  Done                     04/16/2018 11:35:54
00028 suncat0014 pw.x -npool 4 -i  Done                     04/16/2018 11:35:54
00029 suncat0014 pw.x -npool 4 -i  Done                     04/16/2018 11:35:54
00030 suncat0014 pw.x -npool 4 -i  Done                     04/16/2018 11:35:54
00031 suncat0014 pw.x -npool 4 -i  Done                     04/16/2018 11:35:54