     Program PWSCF v.5.1rc2 (svn rev. 11289) starts on 11Jan2019 at 13: 7:14

     Current dimensions of program PWSCF are:
     Max number of different atomic species (ntypx) = 10
     Max number of k-points (npk) =  40000
     Max angular momentum in pseudopotentials (lmaxx) =  3

     IMPORTANT: XC functional enforced from input :
     Exchange-correlation      = BEEF-VDW ( 1  4 27 13 2)
     Any further DFT definition will be discarded
     Please, verify this is what you really want

     Subspace diagonalization in iterative solution of the eigenvalue problem:
     a serial algorithm will be used

     Generating pointlists ...
     new r_m :   0.1459 (alat units)  1.3821 (a.u.) for type    1
     new r_m :   0.1459 (alat units)  1.3821 (a.u.) for type    2

     bravais-lattice index     =            0
     lattice parameter (alat)  =       9.4723  a.u.
     unit-cell volume          =    3537.7769 (a.u.)^3
     number of atoms/cell      =           13
     number of atomic types    =            2
     number of electrons       =       208.00
     number of Kohn-Sham states=          114
     kinetic-energy cutoff     =      36.7493  Ry
     charge density cutoff     =     367.4933  Ry
     convergence threshold     =      1.0E-04
     mixing beta               =       0.1000
     number of iterations used =            8  plain     mixing
     Exchange-correlation      = BEEF-VDW ( 1  4 27 13 2)
     nstep                     =           50

     celldm(1)=   9.472344  celldm(2)=   0.000000  celldm(3)=   0.000000
     celldm(4)=   0.000000  celldm(5)=   0.000000  celldm(6)=   0.000000

     crystal axes: (cart. coord. in units of alat)
               a(1) = (   1.000000   0.000000   0.000000 )
               a(2) = (   0.500000   0.866025   0.000000 )
               a(3) = (   0.000000   0.000000   4.806483 )

     reciprocal axes: (cart. coord. in units 2 pi/alat)
               b(1) = (  1.000000 -0.577350  0.000000 )
               b(2) = (  0.000000  1.154701  0.000000 )
               b(3) = (  0.000000  0.000000  0.208052 )

     PseudoPot. # 1 for Co read from file:
     /u/if/jboes/code/decaf-espresso/gbrv15pbe/Co.UPF
     MD5 check sum: 5f91765df6ddd3222702df6e7b74a16d
     Pseudo is Ultrasoft + core correction, Zval = 17.0
     Generated by new atomic code, or converted to UPF format
     Using radial grid of  863 points,  6 beta functions with:
                l(1) =   0
                l(2) =   0
                l(3) =   1
                l(4) =   1
                l(5) =   2
                l(6) =   2
     Q(r) pseudized with  8 coefficients,  rinner =    1.200   1.200   1.200
                                                       1.200   1.200

     PseudoPot. # 2 for C  read from file:
     /u/if/jboes/code/decaf-espresso/gbrv15pbe/C.UPF
     MD5 check sum: d1aef80898a10debaa0f26306b886e00
     Pseudo is Ultrasoft + core correction, Zval =  4.0
     Generated by new atomic code, or converted to UPF format
     Using radial grid of  721 points,  4 beta functions with:
                l(1) =   0
                l(2) =   0
                l(3) =   1
                l(4) =   1
     Q(r) pseudized with  8 coefficients,  rinner =    1.100   1.100   1.100

     vdW kernel table read from file vdW_kernel_table
     MD5 check sum: 095c7af220d748ca6e76c0b4c6cfb241

     atomic species   valence    mass     pseudopotential
        Co            17.00    58.93319     Co( 1.00)
        C              4.00    12.01100     C ( 1.00)

     Starting magnetic structure
     atomic species   magnetization
        Co           0.118
        C            0.000

     No symmetry found

   Cartesian axes

     site n.     atom                  positions (alat units)
         1           Co  tau(   1) = (   0.2500000   0.1443376   1.9949931  )
         2           Co  tau(   2) = (   0.7500000   0.1443376   1.9949931  )
         3           Co  tau(   3) = (   0.5000000   0.5773503   1.9949931  )
         4           Co  tau(   4) = (   1.0000000   0.5773503   1.9949931  )
         5           Co  tau(   5) = (   1.0000000   0.2886751   2.4032414  )
         6           Co  tau(   6) = (   0.5000000   0.2886751   2.4032414  )
         7           Co  tau(   7) = (   1.2500000   0.7216878   2.4032414  )
         8           Co  tau(   8) = (   0.7500000   0.7216878   2.4032414  )
         9           Co  tau(   9) = (  -0.0084047   0.0067252   2.8105210  )
        10           Co  tau(  10) = (   0.5083382   0.0067293   2.8105249  )
        11           Co  tau(  11) = (   0.2500285   0.4351632   2.8026803  )
        12           Co  tau(  12) = (   0.7500577   0.4242079   2.8097559  )
        13           C   tau(  13) = (   0.2499621  -0.1430371   3.0000792  )

     number of k points=    40  Fermi-Dirac smearing, width (Ry)=  0.0110
                       cart. coord. in units 2pi/alat
        k(    1) = (   0.0000000   0.0000000   0.0000000), wk =   0.0277778
        k(    2) = (   0.0000000   0.1924501   0.0000000), wk =   0.0555556
        k(    3) = (   0.0000000   0.3849002   0.0000000), wk =   0.0555556
        k(    4) = (   0.0000000  -0.5773503   0.0000000), wk =   0.0277778
        k(    5) = (   0.1666667  -0.0962250   0.0000000), wk =   0.0555556
        k(    6) = (   0.1666667   0.0962250   0.0000000), wk =   0.0555556
        k(    7) = (   0.1666667   0.2886751   0.0000000), wk =   0.0555556
        k(    8) = (   0.1666667  -0.6735753   0.0000000), wk =   0.0555556
        k(    9) = (   0.1666667  -0.4811252   0.0000000), wk =   0.0555556
        k(   10) = (   0.1666667  -0.2886751   0.0000000), wk =   0.0555556
        k(   11) = (   0.3333333  -0.1924501   0.0000000), wk =   0.0555556
        k(   12) = (   0.3333333  -0.0000000   0.0000000), wk =   0.0555556
        k(   13) = (   0.3333333   0.1924501   0.0000000), wk =   0.0555556
        k(   14) = (   0.3333333  -0.7698004   0.0000000), wk =   0.0555556
        k(   15) = (   0.3333333  -0.5773503   0.0000000), wk =   0.0555556
        k(   16) = (   0.3333333  -0.3849002   0.0000000), wk =   0.0555556
        k(   17) = (  -0.5000000   0.2886751   0.0000000), wk =   0.0277778
        k(   18) = (  -0.5000000   0.4811252   0.0000000), wk =   0.0555556
        k(   19) = (  -0.5000000   0.6735753   0.0000000), wk =   0.0555556
        k(   20) = (  -0.5000000  -0.2886751   0.0000000), wk =   0.0277778
        k(   21) = (   0.0000000   0.0000000   0.0000000), wk =   0.0277778
        k(   22) = (   0.0000000   0.1924501   0.0000000), wk =   0.0555556
        k(   23) = (   0.0000000   0.3849002   0.0000000), wk =   0.0555556
        k(   24) = (   0.0000000  -0.5773503   0.0000000), wk =   0.0277778
        k(   25) = (   0.1666667  -0.0962250   0.0000000), wk =   0.0555556
        k(   26) = (   0.1666667   0.0962250   0.0000000), wk =   0.0555556
        k(   27) = (   0.1666667   0.2886751   0.0000000), wk =   0.0555556
        k(   28) = (   0.1666667  -0.6735753   0.0000000), wk =   0.0555556
        k(   29) = (   0.1666667  -0.4811252   0.0000000), wk =   0.0555556
        k(   30) = (   0.1666667  -0.2886751   0.0000000), wk =   0.0555556
        k(   31) = (   0.3333333  -0.1924501   0.0000000), wk =   0.0555556
        k(   32) = (   0.3333333  -0.0000000   0.0000000), wk =   0.0555556
        k(   33) = (   0.3333333   0.1924501   0.0000000), wk =   0.0555556
        k(   34) = (   0.3333333  -0.7698004   0.0000000), wk =   0.0555556
        k(   35) = (   0.3333333  -0.5773503   0.0000000), wk =   0.0555556
        k(   36) = (   0.3333333  -0.3849002   0.0000000), wk =   0.0555556
        k(   37) = (  -0.5000000   0.2886751   0.0000000), wk =   0.0277778
        k(   38) = (  -0.5000000   0.4811252   0.0000000), wk =   0.0555556
        k(   39) = (  -0.5000000   0.6735753   0.0000000), wk =   0.0555556
        k(   40) = (  -0.5000000  -0.2886751   0.0000000), wk =   0.0277778

     Largest allocated arrays     est. size (Mb)     dimensions
     Largest temporary arrays     est. size (Mb)     dimensions

     Check: negative/imaginary core charge=   -0.000007    0.000000

     Initial potential from superposition of free atoms
     Check: negative starting charge=(component1):   -0.000200
     Check: negative starting charge=(component2):   -0.000159

     starting charge  195.99988, renormalised to  208.00000

     negative rho (up, down):  2.120E-04 1.687E-04

     *
     * You are using vdW-DF for exchange-correlation in this calculation.
     * Please cite the following three references that made this development
     * possible:
     *
     *   M. Dion, H. Rydberg, E. Schroder, D. C. Langreth, and
     *   B. I. Lundqvist, Phys. Rev. Lett. 92, 246401 (2004).
     *
     *   T. Thonhauser, V. R. Cooper, S. Li, A. Puzder, P. Hyldgaard, and
     *   D. C. Langreth, Phys. Rev. B 76, 125112 (2007).
     *
     *   G. Roman-Perez and J. M. Soler, Phys. Rev. Lett. 103, 096102 (2009).
     *
     *
     * If you are using vdW-DF2, please also cite:
     *
     *   K. Lee, E. D. Murray, L. Kong, B. I. Lundqvist, and
     *   D. C. Langreth, Phys. Rev. B 82, 081101(R) (2010).
     *
     *
     * If you are calculating the stress with vdW-DF, please also cite:
     *
     *   R. Sabatini, E. Kucukbenli, B. Kolb, T. Thonhauser, and
     *   S. de Gironcoli, J. Phys.: Condens. Matter 24, 424209 (2012).
     *

     Carrying out vdW-DF run using the following parameters:

     Nqs =      20    Nr_points =    1024   r_max =   100.000
     q_mesh =
               0.00001000     0.04494208     0.09755937     0.15916263
               0.23128650     0.31572767     0.41458969     0.53033537
               0.66584808     0.82450364     1.01025438     1.22772762
               1.48234092     1.78043706     2.12944203     2.53805004
               3.01644009     3.57652955     4.23227104     5.00000000

     Gradients computed in reciprocal space

     Adding external electric field

     Computed dipole along edir(3) :
        Dipole               -1.3867 Ry au,         -3.5246 Debye
        Dipole field         -0.0049 Ry au

        Potential amp.        0.4037 Ry
        Total length         40.9758 bohr

[...]

     Starting wfc are  160 randomized atomic wfcs

     Self-consistent Calculation

     iteration #  1     ecut=    36.75 Ry     beta=0.10
     Davidson diagonalization with overlap
     ethr =  1.00E-02,  avg # of iterations =  7.8

[...]

     Magnetic moment per site:
     atom:    1    charge:   14.1730    magn:    1.6124    constr:    0.0000
     atom:    2    charge:   14.1738    magn:    1.6131    constr:    0.0000
     atom:    3    charge:   14.1727    magn:    1.6126    constr:    0.0000
     atom:    4    charge:   14.1730    magn:    1.6125    constr:    0.0000
     atom:    5    charge:   14.0852    magn:    1.6007    constr:    0.0000
     atom:    6    charge:   14.0852    magn:    1.6007    constr:    0.0000
     atom:    7    charge:   14.0850    magn:    1.6006    constr:    0.0000
     atom:    8    charge:   14.0777    magn:    1.5937    constr:    0.0000
     atom:    9    charge:   13.9769    magn:    1.5648    constr:    0.0000
     atom:   10    charge:   13.9769    magn:    1.5647    constr:    0.0000
     atom:   11    charge:   13.9283    magn:    1.5725    constr:    0.0000
     atom:   12    charge:   13.9768    magn:    1.5649    constr:    0.0000
     atom:   13    charge:    2.4934    magn:    0.0174    constr:    0.0000

     total energy              =   -3515.34288005 Ry
     Harris-Foulkes estimate   =   -3631.14796559 Ry
     estimated scf accuracy    <     644.56164818 Ry

     total magnetization       =     9.19 Bohr mag/cell
     absolute magnetization    =     9.98 Bohr mag/cell

[...]

     End of self-consistent calculation

 ------ SPIN UP ------------

          k = 0.0000 0.0000 0.0000 ( 13257 PWs)   bands (ev):

   -95.8803 -95.7913 -95.7684 -95.7670 -95.7349 -95.6545 -95.6253 -95.6111
   -95.6101 -95.2557 -95.2295 -95.2281 -59.2014 -59.2010 -59.1798 -59.1642
   -59.0845 -59.0664 -59.0648 -59.0426 -59.0152 -59.0148 -58.9995 -58.9666
   -58.9655 -58.9620 -58.9392 -58.9390 -58.9386 -58.9304 -58.9303 -58.9293
   -58.9142 -58.9140 -58.7941 -58.7928 -58.7924 -58.7831 -58.7365 -58.7365
   -58.6350 -58.6348 -58.4549 -58.4447 -58.4432 -58.3897 -58.3885 -58.3720
   -10.4267  -7.1196  -5.0580  -4.3911  -4.3887  -4.3474  -4.2176  -4.2164
    -4.1629  -3.9808  -3.8755  -3.8551  -3.8533  -3.6067  -3.6053  -3.5351
    -3.0223  -3.0189  -2.6998  -2.5616  -2.5612  -2.3872  -2.3412  -2.3341
    -2.2619  -2.1246  -2.1224  -2.0150  -1.9172  -1.9170  -1.9052  -1.8594
    -1.8575  -1.7172  -1.6533  -1.6504  -1.3601  -1.3577  -1.1463  -1.1447
    -1.0345  -1.0140  -1.0117  -1.0007  -0.8120  -0.8107  -0.6706  -0.6692
    -0.5351  -0.4527  -0.4486  -0.4032  -0.3757  -0.3723  -0.2910  -0.2907
    -0.2230  -0.0598  -0.0594  -0.0439   0.0511   0.0513   0.1429   0.1920
     0.5434   1.2629

[...]

          k =-0.5000 0.2887 0.0000 ( 13378 PWs)   bands (ev):

[...]

 ------ SPIN DOWN ----------

[...]

     the Fermi energy is     0.7126 ev

!    total energy              =   -3605.80955614 Ry
     Harris-Foulkes estimate   =   -3605.80954656 Ry
     estimated scf accuracy    <       0.00008712 Ry

     The total energy is the sum of the following terms:

     one-electron contribution =  -31912.83274118 Ry
     hartree contribution      =   15962.68808828 Ry
     xc contribution           =    -408.91740835 Ry
     ewald contribution        =   12753.32985362 Ry
     electric field correction =       0.00006301 Ry
     smearing contrib. (-TS)   =      -0.07741152 Ry

[...]

     convergence has been achieved in  32 iterations

     Forces acting on atoms (Ry/au):

     negative rho (up, down):  6.470E-04 3.488E-04
     atom    1 type  1   force =    -0.00000945   -0.00108148    0.01690635
     atom    2 type  1   force =     0.00000927    0.00014306    0.01660231
     atom    3 type  1   force =     0.00098257    0.00059815    0.01698648
     atom    4 type  1   force =    -0.00099076    0.00057283    0.01696110
     atom    5 type  1   force =     0.00170062    0.00100914   -0.01548068
     atom    6 type  1   force =    -0.00167206    0.00101169   -0.01545682
     atom    7 type  1   force =    -0.00000723   -0.00101153   -0.01458748
     atom    8 type  1   force =    -0.00000200    0.00051131   -0.02054924
     atom    9 type  1   force =     0.00014308   -0.00104585   -0.00084844
     atom   10 type  1   force =    -0.00006385   -0.00103670   -0.00082379
     atom   11 type  1   force =    -0.00003618   -0.00091251   -0.00674577
     atom   12 type  1   force =    -0.00005423    0.00196492    0.00080286
     atom   13 type  2   force =     0.00000022   -0.00072304    0.00623312

     Total force =     0.009686     Total SCF correction =     0.011954
     SCF correction compared to forces is large: reduce conv_thr to get better values

     BFGS Geometry Optimization

     number of scf cycles    =   1
     number of bfgs steps    =   0

     energy   new            =   -3605.8095561382 Ry

     new trust radius        =       0.0068073029 bohr
     new conv_thr            =       0.0001000000 Ry

ATOMIC_POSITIONS (angstrom)
Co       1.253137179   0.723499087  10.000000000    0   0   0
Co       3.759411536   0.723499087  10.000000000    0   0   0
Co       2.506274357   2.893996350  10.000000000    0   0   0
Co       5.012548715   2.893996350  10.000000000    0   0   0
Co       5.012548715   1.446998175  12.046364444    0   0   0
Co       2.506274357   1.446998175  12.046364444    0   0   0
Co       6.265685894   3.617495438  12.046364444    0   0   0
Co       3.759411536   3.617495438  12.046364444    0   0   0
Co      -0.042053333   0.033157018  14.087424658
Co       2.548036014   0.033182234  14.087456976
Co       1.253260910   2.180793838  14.045001817
Co       3.759672093   2.127402370  14.084463284
C        1.252947399  -0.717362857  15.041341627

     Writing output data file calc.save
     Check: negative starting charge=(component1):   -0.000359
     NEW-OLD atomic charge density approx. for the potential

     Check: negative/imaginary core charge=   -0.000007    0.000000
     Check: negative starting charge=(component1):   -0.000358

[...]

     energy   old            =   -3605.8095561382 Ry
     energy   new            =   -3605.8096134888 Ry

     CASE: energy  _new < energy  _old

[...]

     WARNING: bfgs curvature condition failed, Theta= 0.867
     new trust radius        =       0.0073246771 bohr
     new conv_thr            =       0.0000010000 Ry

[...]

     number of scf cycles    =   6
     number of bfgs steps    =   5

     energy   old            =   -3605.8097162171 Ry
     energy   new            =   -3605.8097454225 Ry

     CASE: energy  _new < energy  _old

     new trust radius        =       0.0160451082 bohr
     new conv_thr            =       0.0000010000 Ry

ATOMIC_POSITIONS (angstrom)
Co       1.253137179   0.723499087  10.000000000    0   0   0
Co       3.759411536   0.723499087  10.000000000    0   0   0
Co       2.506274358   2.893996350  10.000000000    0   0   0
Co       5.012548715   2.893996350  10.000000000    0   0   0
Co       5.012548715   1.446998175  12.046364444    0   0   0
Co       2.506274358   1.446998175  12.046364444    0   0   0
Co       6.265685894   3.617495438  12.046364444    0   0   0
Co       3.759411536   3.617495438  12.046364444    0   0   0
Co      -0.044005959   0.027151037  14.081239176
Co       2.550232606   0.027217127  14.081261536
Co       1.253206123   2.170767302  14.025225789
Co       3.758854781   2.127247179  14.083735039
C        1.253119376  -0.717555332  15.044851524

     Writing output data file calc.save
     Check: negative starting charge=(component1):   -0.000356
     NEW-OLD atomic charge density approx. for the potential

     Check: negative/imaginary core charge=   -0.000007    0.000000
     Check: negative starting charge=(component1):   -0.000356

[...]

     Self-consistent Calculation

[...]

     total energy              =   -3605.80977943 Ry
     Harris-Foulkes estimate   =   -3605.80977869 Ry
     estimated scf accuracy    <       0.00000187 Ry

[...]

     iteration # 11     ecut=    36.75 Ry     beta=0.10
     Davidson diagonalization with overlap
     ethr =  8.98E-10,  avg # of iterations =  1.1

     negative rho (up, down):  6.456E-04 3.483E-04

[...]

     Adding external electric field

     Computed dipole along edir(3) :
        Dipole               -0.1163 Ry au,         -0.2956 Debye
        Dipole field         -0.0004 Ry au

        Potential amp.        0.0339 Ry
        Total length         40.9758 bohr

     Magnetic moment per site:
     atom:    1    charge:   13.7430    magn:    1.7150    constr:    0.0000
     atom:    2    charge:   13.7422    magn:    1.7261    constr:    0.0000
     atom:    3    charge:   13.7430    magn:    1.7151    constr:    0.0000
     atom:    4    charge:   13.7430    magn:    1.7151    constr:    0.0000
     atom:    5    charge:   13.7428    magn:    1.6721    constr:    0.0000
     atom:    6    charge:   13.7429    magn:    1.6720    constr:    0.0000
     atom:    7    charge:   13.7430    magn:    1.6718    constr:    0.0000
     atom:    8    charge:   13.7395    magn:    1.7563    constr:    0.0000
     atom:    9    charge:   13.7671    magn:    1.0253    constr:    0.0000
     atom:   10    charge:   13.7675    magn:    1.0250    constr:    0.0000
     atom:   11    charge:   13.7429    magn:    1.7609    constr:    0.0000
     atom:   12    charge:   13.7676    magn:    1.0248    constr:    0.0000
     atom:   13    charge:    2.4625    magn:   -0.1414    constr:    0.0000

     End of self-consistent calculation

 ------ SPIN UP ------------

[...]

 ------ SPIN DOWN ----------

[...]

          k = 0.3333-0.3849 0.0000 ( 13313 PWs)   bands (ev):

[...]

          k =-0.5000-0.2887 0.0000 ( 13378 PWs)   bands (ev):

   -93.7532 -93.7398 -93.7313 -93.3710 -93.3651 -93.3530 -93.3380 -93.2045
   -93.1692 -93.1628 -93.1494 -93.1458 -57.4810 -57.4105 -57.3618 -56.9782
   -56.9705 -56.9192 -56.9174 -56.8944 -56.8645 -56.7978 -56.7799 -56.7515
   -56.7407 -56.7262 -56.7232 -56.7109 -56.7026 -56.6952 -56.6900 -56.6256
   -56.6208 -56.5893 -56.5834 -56.5596 -56.5410 -56.5397 -56.5193 -56.5178
   -56.5048 -56.5013 -56.4915 -56.4821 -56.4784 -56.4783 -56.4325 -56.4279
   -10.3573  -5.6677  -5.3766  -4.2298  -3.5444  -3.4135  -3.2180  -2.8436
    -2.8205  -2.5846  -2.4832  -2.3411  -2.2356  -2.0461  -1.8461  -1.8372
    -1.7164  -1.6636  -1.4481  -1.3581  -1.2697  -1.2176  -1.1818  -1.0862
    -1.0823  -0.9999  -0.7553  -0.7255  -0.7179  -0.6172  -0.5655  -0.5611
    -0.4576  -0.3745  -0.3314  -0.1527  -0.1369  -0.1298  -0.1277  -0.0836
     0.0530   0.1689   0.3808   0.4353   0.4776   0.5500   0.6127   0.7024
     0.7340   0.7621   0.7988   0.8941   0.9907   1.0123   1.1170   1.1482
     1.1842   1.2705   1.4533   1.4607   1.6452   1.6977   1.7010   1.7969
     1.8275   2.1372

     the Fermi energy is     0.6966 ev

!    total energy              =   -3605.80978042 Ry
     Harris-Foulkes estimate   =   -3605.80978117 Ry
     estimated scf accuracy    <       0.00000068 Ry

     The total energy is the sum of the following terms:

     one-electron contribution =  -31947.95113753 Ry
     hartree contribution      =   15980.17978621 Ry
     xc contribution           =    -408.91996393 Ry
     ewald contribution        =   12770.95866564 Ry
     electric field correction =       0.00004805 Ry
     smearing contrib. (-TS)   =      -0.07717886 Ry

     total magnetization       =    18.57 Bohr mag/cell
     absolute magnetization    =    21.24 Bohr mag/cell

     convergence has been achieved in  11 iterations

     Forces acting on atoms (Ry/au):

     negative rho (up, down):  6.456E-04 3.483E-04
     atom    1 type  1   force =    -0.00001239   -0.00095625    0.00928795
     atom    2 type  1   force =     0.00000224    0.00007916    0.00848825
     atom    3 type  1   force =     0.00093551    0.00059549    0.00923685
     atom    4 type  1   force =    -0.00094084    0.00058619    0.00923640
     atom    5 type  1   force =     0.00027611    0.00043628   -0.00874412
     atom    6 type  1   force =    -0.00031392    0.00049187   -0.00887714
     atom    7 type  1   force =     0.00005459   -0.00057193   -0.00898271
     atom    8 type  1   force =    -0.00006800    0.00016338   -0.01062786
     atom    9 type  1   force =     0.00180737   -0.00099883    0.00095368
     atom   10 type  1   force =    -0.00180255   -0.00112381    0.00098262
     atom   11 type  1   force =    -0.00011655    0.00036697    0.00028994
     atom   12 type  1   force =     0.00017197    0.00050816    0.00026776
     atom   13 type  2   force =     0.00000644    0.00042332   -0.00151162

     Total force =     0.003702     Total SCF correction =     0.002934
     SCF correction compared to forces is large: reduce conv_thr to get better values

     bfgs converged in   7 scf cycles and   6 bfgs steps
     (criteria: energy <  1.0E+12, force <  1.9E-03)

     End of BFGS Geometry Optimization

     Final energy   =   -3605.8097804222 Ry
Begin final coordinates

ATOMIC_POSITIONS (angstrom)
Co       1.253137179   0.723499087  10.000000000    0   0   0
Co       3.759411536   0.723499087  10.000000000    0   0   0
Co       2.506274358   2.893996350  10.000000000    0   0   0
Co       5.012548715   2.893996350  10.000000000    0   0   0
Co       5.012548715   1.446998175  12.046364444    0   0   0
Co       2.506274358   1.446998175  12.046364444    0   0   0
Co       6.265685894   3.617495438  12.046364444    0   0   0
Co       3.759411536   3.617495438  12.046364444    0   0   0
Co      -0.044005959   0.027151037  14.081239176
Co       2.550232606   0.027217127  14.081261536
Co       1.253206123   2.170767302  14.025225789
Co       3.758854781   2.127247179  14.083735039
C        1.253119376  -0.717555332  15.044851524
End final coordinates

     Writing output data file calc.save

     General routines

     Parallel routines

   This run was terminated on:  13:50:37  11Jan2019

   JOB DONE.
Job  /afs/slac/g/suncat/bin/suncat-tsmpirun -x LD_LIBRARY_PATH -wdir /tmp/qe_6235985z6608mp_scratch pw.x -npool 3 -in pw.pwi

TID   HOST_NAME   COMMAND_LINE            STATUS            TERMINATION_TIME
00000 suncat1014 pw.x -npool 3 -i  Done                     01/11/2019 13:50:37
00001 suncat1014 pw.x -npool 3 -i  Done                     01/11/2019 13:50:37
00002 suncat1014 pw.x -npool 3 -i  Done                     01/11/2019 13:50:37
00003 suncat1014 pw.x -npool 3 -i  Done                     01/11/2019 13:50:37
00004 suncat1014 pw.x -npool 3 -i  Done                     01/11/2019 13:50:37
00005 suncat1014 pw.x -npool 3 -i  Done                     01/11/2019 13:50:37
00006 suncat1014 pw.x -npool 3 -i  Done                     01/11/2019 13:50:37
00007 suncat1014 pw.x -npool 3 -i  Done                     01/11/2019 13:50:37
00008 suncat1014 pw.x -npool 3 -i  Done                     01/11/2019 13:50:37
00009 suncat1014 pw.x -npool 3 -i  Done                     01/11/2019 13:50:37
00010 suncat1014 pw.x -npool 3 -i  Done                     01/11/2019 13:50:37
00011 suncat1014 pw.x -npool 3 -i  Done                     01/11/2019 13:50:37
00012 suncat1012 pw.x -npool 3 -i  Done                     01/11/2019 13:50:37
00013 suncat1012 pw.x -npool 3 -i  Done                     01/11/2019 13:50:37
00014 suncat1012 pw.x -npool 3 -i  Done                     01/11/2019 13:50:37
00015 suncat1012 pw.x -npool 3 -i  Done                     01/11/2019 13:50:37
00016 suncat1012 pw.x -npool 3 -i  Done                     01/11/2019 13:50:37
00017 suncat1012 pw.x -npool 3 -i  Done                     01/11/2019 13:50:37
00018 suncat1012 pw.x -npool 3 -i  Done                     01/11/2019 13:50:37
00019 suncat1012 pw.x -npool 3 -i  Done                     01/11/2019 13:50:37
00020 suncat1012 pw.x -npool 3 -i  Done                     01/11/2019 13:50:37
00021 suncat1012 pw.x -npool 3 -i  Done                     01/11/2019 13:50:37
00022 suncat1012 pw.x -npool 3 -i  Done                     01/11/2019 13:50:37
00023 suncat1012 pw.x -npool 3 -i  Done                     01/11/2019 13:50:37
00024 suncat1011 pw.x -npool 3 -i  Done                     01/11/2019 13:50:37
00025 suncat1011 pw.x -npool 3 -i  Done                     01/11/2019 13:50:37
00026 suncat1011 pw.x -npool 3 -i  Done                     01/11/2019 13:50:37
00027 suncat1011 pw.x -npool 3 -i  Done                     01/11/2019 13:50:37
00028 suncat1011 pw.x -npool 3 -i  Done                     01/11/2019 13:50:37
00029 suncat1011 pw.x -npool 3 -i  Done                     01/11/2019 13:50:37
00030 suncat1011 pw.x -npool 3 -i  Done                     01/11/2019 13:50:37
00031 suncat1011 pw.x -npool 3 -i  Done                     01/11/2019 13:50:37
00032 suncat1011 pw.x -npool 3 -i  Done                     01/11/2019 13:50:37
00033 suncat1011 pw.x -npool 3 -i  Done                     01/11/2019 13:50:37
00034 suncat1011 pw.x -npool 3 -i  Done                     01/11/2019 13:50:37
00035 suncat1011 pw.x -npool 3 -i  Done                     01/11/2019 13:50:37