     Program PWSCF v.5.1rc2 (svn rev. 11289) starts on  2May2018 at 15:40:52

     Current dimensions of program PWSCF are:
     Max number of different atomic species (ntypx) = 10
     Max number of k-points (npk) =  40000
     Max angular momentum in pseudopotentials (lmaxx) =  3
     Presently stress not available with electric field

     IMPORTANT: XC functional enforced from input :
     Exchange-correlation      = BEEF-VDW ( 1  4 27 13 2)
     Any further DFT definition will be discarded
     Please, verify this is what you really want

     Subspace diagonalization in iterative solution of the eigenvalue problem:
     a serial algorithm will be used

     bravais-lattice index     =            0
     lattice parameter (alat)  =       1.8897  a.u.
     unit-cell volume          =    6116.8020 (a.u.)^3
     number of atoms/cell      =           13
     number of atomic types    =            2
     number of electrons       =       138.00
     number of Kohn-Sham states=           79
     kinetic-energy cutoff     =      36.7493  Ry
     charge density cutoff     =     367.4932  Ry
     convergence threshold     =      1.0E-05
     mixing beta               =       0.3000
     number of iterations used =           10  plain     mixing
     Exchange-correlation      = BEEF-VDW ( 1  4 27 13 2)
     nstep                     =           50

     celldm(1)=   1.889726  celldm(2)=   0.000000  celldm(3)=   0.000000
     celldm(4)=   0.000000  celldm(5)=   0.000000  celldm(6)=   0.000000

     crystal axes: (cart. coord. in units of alat)
               a(1) = (   6.437465   0.000000   0.000000 )
               a(2) = (   3.218732   5.575008   0.000000 )
               a(3) = (   0.000000   0.000000  25.256168 )

     reciprocal axes: (cart. coord. in units 2 pi/alat)
               b(1) = (  0.155341 -0.089686  0.000000 )
               b(2) = (  0.000000  0.179372  0.000000 )
               b(3) = (  0.000000  0.000000  0.039594 )

     PseudoPot. # 1 for Sc read from file:
     /u/if/mamunm/psp/gbrv1.5pbe/Sc.UPF
     MD5 check sum: db30a2753ba66ef00f23801d899b7e7f
     Pseudo is Ultrasoft + core correction, Zval = 11.0
     Generated by new atomic code, or converted to UPF format
     Using radial grid of  849 points,  6 beta functions with:
                l(1) =   0
                l(2) =   0
                l(3) =   1
                l(4) =   1
                l(5) =   2
                l(6) =   2
     Q(r) pseudized with  6 coefficients,  rinner =    1.200   1.200   1.200
                                                       1.200   1.200

     PseudoPot. # 2 for O  read from file:
     /u/if/mamunm/psp/gbrv1.5pbe/O.UPF
     MD5 check sum: 734c27235a0248c51dbae37a1fbe46ec
     Pseudo is Ultrasoft + core correction, Zval =  6.0
     Generated by new atomic code, or converted to UPF format
     Using radial grid of  737 points,  5 beta functions with:
                l(1) =   0
                l(2) =   0
                l(3) =   1
                l(4) =   1
                l(5) =   2
     Q(r) pseudized with  8 coefficients,  rinner =    0.900   0.900   0.900
                                                       0.900   0.900

     vdW kernel table read from file vdW_kernel_table
     MD5 check sum: 095c7af220d748ca6e76c0b4c6cfb241

     atomic species   valence    mass     pseudopotential
        Sc1           11.00    44.95591     Sc( 1.00)
        O1             6.00    15.99900     O ( 1.00)

     No symmetry found

   Cartesian axes

     site n.     atom                  positions (alat units)
         1           Sc1 tau(   1) = (   1.6093662   0.9291680  10.0000000  )
         2           Sc1 tau(   2) = (   4.8280986   0.9291680  10.0000000  )
         3           Sc1 tau(   3) = (   3.2187324   3.7166720  10.0000000  )
         4           Sc1 tau(   4) = (   6.4374648   3.7166720  10.0000000  )
         5           Sc1 tau(   5) = (   6.4374648   1.8583360  12.6280840  )
         6           Sc1 tau(   6) = (   3.2187324   1.8583360  12.6280840  )
         7           Sc1 tau(   7) = (   8.0468310   4.6458400  12.6280840  )
         8           Sc1 tau(   8) = (   4.8280986   4.6458400  12.6280840  )
         9           Sc1 tau(   9) = (   0.0000000   0.0000000  15.2561680  )
        10           Sc1 tau(  10) = (   3.2187324   0.0000000  15.2561680  )
        11           Sc1 tau(  11) = (   1.6093662   2.7875040  15.2561680  )
        12           Sc1 tau(  12) = (   4.8280986   2.7875040  15.2561680  )
        13           O1  tau(  13) = (   1.6093662   0.9291680  16.7901680  )

     number of k points=    20  Fermi-Dirac smearing, width (Ry)=  0.0110
                       cart. coord. in units 2pi/alat
        k(    1) = (   0.0000000   0.0000000   0.0000000), wk =   0.0555556
        k(    2) = (   0.0000000   0.0298953   0.0000000), wk =   0.1111111
        k(    3) = (   0.0000000   0.0597906   0.0000000), wk =   0.1111111
        k(    4) = (   0.0000000  -0.0896860   0.0000000), wk =   0.0555556
        k(    5) = (   0.0258901  -0.0149477   0.0000000), wk =   0.1111111
        k(    6) = (   0.0258901   0.0149477   0.0000000), wk =   0.1111111
        k(    7) = (   0.0258901   0.0448430   0.0000000), wk =   0.1111111
        k(    8) = (   0.0258901  -0.1046336   0.0000000), wk =   0.1111111
        k(    9) = (   0.0258901  -0.0747383   0.0000000), wk =   0.1111111
        k(   10) = (   0.0258901  -0.0448430   0.0000000), wk =   0.1111111
        k(   11) = (   0.0517802  -0.0298953   0.0000000), wk =   0.1111111
        k(   12) = (   0.0517802   0.0000000   0.0000000), wk =   0.1111111
        k(   13) = (   0.0517802   0.0298953   0.0000000), wk =   0.1111111
        k(   14) = (   0.0517802  -0.1195813   0.0000000), wk =   0.1111111
        k(   15) = (   0.0517802  -0.0896860   0.0000000), wk =   0.1111111
        k(   16) = (   0.0517802  -0.0597906   0.0000000), wk =   0.1111111
        k(   17) = (  -0.0776703   0.0448430   0.0000000), wk =   0.0555556
        k(   18) = (  -0.0776703   0.0747383   0.0000000), wk =   0.1111111
        k(   19) = (  -0.0776703   0.1046336   0.0000000), wk =   0.1111111
        k(   20) = (  -0.0776703  -0.0448430   0.0000000), wk =   0.0555556

     Largest allocated arrays     est. size (Mb)     dimensions
     Largest temporary arrays     est. size (Mb)     dimensions

     Initial potential from superposition of free atoms
     Check: negative starting charge=   -0.000420

     starting charge  137.97117, renormalised to  138.00000

     negative rho (up, down):  4.206E-04 0.000E+00

     *
     * You are using vdW-DF for exchange-correlation in this calculation.
     * Please cite the following three references that made this development
     * possible:
     *
     *   M. Dion, H. Rydberg, E. Schroder, D. C. Langreth, and
     *   B. I. Lundqvist, Phys. Rev. Lett. 92, 246401 (2004).
     *
     *   T. Thonhauser, V. R. Cooper, S. Li, A. Puzder, P. Hyldgaard, and
     *   D. C. Langreth, Phys. Rev. B 76, 125112 (2007).
     *
     *   G. Roman-Perez and J. M. Soler, Phys. Rev. Lett. 103, 096102 (2009).
     *
     *
     * If you are using vdW-DF2, please also cite:
     *
     *   K. Lee, E. D. Murray, L. Kong, B. I. Lundqvist, and
     *   D. C. Langreth, Phys. Rev. B 82, 081101(R) (2010).
     *
     *
     * If you are calculating the stress with vdW-DF, please also cite:
     *
     *   R. Sabatini, E. Kucukbenli, B. Kolb, T. Thonhauser, and
     *   S. de Gironcoli, J. Phys.: Condens. Matter 24, 424209 (2012).
     *

     Carrying out vdW-DF run using the following parameters:

     Nqs =      20    Nr_points =    1024   r_max =   100.000
     q_mesh =
               0.00001000     0.04494208     0.09755937     0.15916263
               0.23128650     0.31572767     0.41458969     0.53033537
               0.66584808     0.82450364     1.01025438     1.22772762
               1.48234092     1.78043706     2.12944203     2.53805004
               3.01644009     3.57652955     4.23227104     5.00000000

     Gradients computed in reciprocal space

     Adding external electric field

     Computed dipole along edir(3) :
        Dipole               -0.0098 Ry au,         -0.0250 Debye
        Dipole field         -0.0000 Ry au

        Potential amp.        0.0019 Ry
        Total length         46.5341 bohr

     Starting wfc are  160 randomized atomic wfcs

     Self-consistent Calculation

     iteration #  1     ecut=    36.75 Ry     beta=0.30
     Davidson diagonalization with overlap
     ethr =  1.00E-02,  avg # of iterations =  2.0

[...]

     total energy              =   -1167.78692976 Ry
     Harris-Foulkes estimate   =   -1170.97581522 Ry
     estimated scf accuracy    <       6.79073975 Ry

[...]

     End of self-consistent calculation

          k = 0.0000 0.0000 0.0000 ( 23031 PWs)   bands (ev):

   -49.7861 -49.7307 -49.6904 -49.6870 -49.6839 -49.6830 -49.6606 -49.6604
   -49.2729 -49.2329 -49.2246 -49.2239 -28.5168 -28.4667 -28.4667 -28.4444
   -28.4415 -28.4411 -28.4246 -28.4061 -28.3549 -28.3544 -28.3539 -28.3129
   -28.3127 -28.3080 -28.1858 -28.1855 -28.1830 -28.1830 -28.1819 -28.1785
   -28.1051 -28.1051 -28.0633 -28.0632 -27.9935 -27.9918 -27.9915 -27.8356
   -27.8167 -27.8071 -27.8064 -27.7575 -27.7572 -27.7526 -27.6789 -27.6789
   -16.2267  -4.5041  -3.4111  -2.3568  -2.3568  -2.3245  -1.9169  -1.2673
    -1.2672  -1.2379  -1.0968  -1.0933  -1.0932  -0.7014  -0.7014  -0.6441
    -0.3465  -0.3464  -0.2686  -0.0489  -0.0488   0.1330   0.3126   0.6960
     0.8376   0.8517   0.8517   0.9526   1.1007   1.1008   1.3761

[...]

          k =-0.0777 0.0448 0.0000 ( 23032 PWs)   bands (ev):

[...]

     the Fermi energy is     0.2183 ev

!    total energy              =   -1170.35657394 Ry
     Harris-Foulkes estimate   =   -1170.35658223 Ry
     estimated scf accuracy    <       0.00000807 Ry

     The total energy is the sum of the following terms:

     one-electron contribution =   -7437.26739619 Ry
     hartree contribution      =    3702.72973485 Ry
     xc contribution           =    -173.89945890 Ry
     ewald contribution        =    2738.20967355 Ry
     electric field correction =       0.00023460 Ry
     smearing contrib. (-TS)   =      -0.12936185 Ry

     convergence has been achieved in  20 iterations

 BEEF-vdW xc energy contributions
           1 :   -147.387847601747
           2 :    129.572000354439
           3 :   -101.825285008152
           4 :    74.8637913465515
           5 :   -56.1767055347599
           6 :    47.0609965537849
           7 :   -43.9580926052357
           8 :    42.1989402282680
           9 :   -39.1654083986079
          10 :    35.0441593555431
          11 :   -31.4328077830666
          12 :    29.4082537291182
          13 :   -28.6150050767895
          14 :    27.8167948999959
          15 :   -26.1430556258256
          16 :    23.8268598666420
          17 :   -21.8472011305550
          18 :    20.9339822329340
          19 :   -20.9107238151708
          20 :    20.9221440068280
          21 :   -20.2400117184532
          22 :    18.8704887417188
          23 :   -17.4580432749411
          24 :    16.6492425224932
          25 :   -16.5281499194540
          26 :    16.6039419939054
          27 :   -16.3038131454772
          28 :    15.4866760373897
          29 :   -14.5201037853494
          30 :    13.8935079160636
          31 :   -17.3533629382038
          32 :   -12.3840333077486

     Forces acting on atoms (Ry/au):

     negative rho (up, down):  2.908E-04 0.000E+00
     atom    1 type  1   force =     0.00004201   -0.00001348    0.00100201
     atom    2 type  1   force =    -0.00004424   -0.00068124    0.00144039
     atom    3 type  1   force =    -0.00058958    0.00032198    0.00144362
     atom    4 type  1   force =     0.00058174    0.00037458    0.00140080
     atom    5 type  1   force =    -0.00278298    0.00159892    0.00162717
     atom    6 type  1   force =     0.00278272    0.00164092    0.00159341
     atom    7 type  1   force =     0.00003873   -0.00001455   -0.01024758
     atom    8 type  1   force =    -0.00003762   -0.00322245    0.00160049
     atom    9 type  1   force =     0.05636419    0.03251257    0.05394615
     atom   10 type  1   force =    -0.05635972    0.03255927    0.05392219
     atom   11 type  1   force =     0.00004136   -0.06507766    0.05392876
     atom   12 type  1   force =    -0.00004264    0.00000611   -0.00995210
     atom   13 type  2   force =     0.00000604   -0.00000496   -0.15170529

     Total force =     0.211057     Total SCF correction =     0.002174

     entering subroutine stress ...

     negative rho (up, down):  2.908E-04 0.000E+00
          total   stress  (Ry/bohr**3)                   (kbar)     P=   -4.28
  -0.00000464  -0.00000000   0.00000000         -0.68     -0.00      0.00
  -0.00000000  -0.00000464   0.00000000         -0.00     -0.68      0.00
   0.00000000   0.00000000  -0.00007802          0.00      0.00    -11.48

     BFGS Geometry Optimization

     number of scf cycles    =   1
     number of bfgs steps    =   0

     energy   new            =   -1170.3565739360 Ry

     new trust radius        =       0.1517052952 bohr
     new conv_thr            =       0.0000099958 Ry

ATOMIC_POSITIONS (crystal)
Sc1      0.166666667   0.166666667   0.395942884    0   0   0
Sc1      0.666666667   0.166666667   0.395942884    0   0   0
Sc1      0.166666667   0.666666667   0.395942884    0   0   0
Sc1      0.666666667   0.666666667   0.395942884    0   0   0
Sc1      0.833333333   0.333333333   0.500000000    0   0   0
Sc1      0.333333333   0.333333333   0.500000000    0   0   0
Sc1      0.833333333   0.833333333   0.500000000    0   0   0
Sc1      0.333333333   0.833333333   0.500000000    0   0   0
Sc1      0.003090251   0.003086078   0.605187417
Sc1      0.493821821   0.003090511   0.605186915
Sc1      0.003091971   0.493822858   0.605187052
Sc1      0.499996205   0.500000580   0.603848595
O1       0.166667399   0.166666195   0.661616165

     Writing output data file calc.save
     Check: negative starting charge=   -0.000420
     NEW-OLD atomic charge density approx. for the potential
     Check: negative starting charge=   -0.000414

[...]

     energy   old            =   -1170.3565739360 Ry
     energy   new            =   -1170.3986773569 Ry

     CASE: energy  _new < energy  _old

     WARNING: bfgs curvature condition failed, Theta= 0.908
     new trust radius        =       0.1668758247 bohr
     new conv_thr            =       0.0000001000 Ry

[...]

     iteration #  7     ecut=    36.75 Ry     beta=0.30
     Davidson diagonalization with overlap
     c_bands:  1 eigenvalues not converged
     ethr =  3.22E-07,  avg # of iterations =  9.2

[...]

     number of scf cycles    =  14
     number of bfgs steps    =  13

     energy   old            =   -1170.4847263035 Ry
     energy   new            =   -1170.4848843350 Ry

     CASE: energy  _new < energy  _old

     new trust radius        =       0.0135127719 bohr
     new conv_thr            =       0.0000001000 Ry

ATOMIC_POSITIONS (crystal)
Sc1      0.166666667   0.166666667   0.395942884    0   0   0
Sc1      0.666666667   0.166666667   0.395942884    0   0   0
Sc1      0.166666667   0.666666667   0.395942884    0   0   0
Sc1      0.666666667   0.666666667   0.395942884    0   0   0
Sc1      0.833333333   0.333333333   0.500000000    0   0   0
Sc1      0.333333333   0.333333333   0.500000000    0   0   0
Sc1      0.833333333   0.833333333   0.500000000    0   0   0
Sc1      0.333333333   0.833333333   0.500000000    0   0   0
Sc1      0.005671321   0.005670431   0.609453976
Sc1      0.488620020   0.005717554   0.609453577
Sc1      0.005718150   0.488620087   0.609453287
Sc1      0.500001777   0.500001388   0.596613609
O1       0.166656253   0.166653948   0.645106134

     Writing output data file calc.save
     Check: negative starting charge=   -0.000406
     NEW-OLD atomic charge density approx. for the potential
     Check: negative starting charge=   -0.000406

[...]

     Self-consistent Calculation

[...]

     total energy              =   -1170.48493284 Ry
     Harris-Foulkes estimate   =   -1170.48493285 Ry
     estimated scf accuracy    <       0.00000017 Ry

     iteration # 10     ecut=    36.75 Ry     beta=0.30
     Davidson diagonalization with overlap
     ethr =  1.25E-10,  avg # of iterations =  6.2

[...]

     negative rho (up, down):  2.705E-04 0.000E+00

     Adding external electric field

     Computed dipole along edir(3) :
        Dipole               -0.0255 Ry au,         -0.0648 Debye
        Dipole field         -0.0001 Ry au

        Potential amp.        0.0049 Ry
        Total length         46.5341 bohr

     End of self-consistent calculation

[...]

          k = 0.0518-0.0598 0.0000 ( 23012 PWs)   bands (ev):

[...]

          k =-0.0777-0.0448 0.0000 ( 23032 PWs)   bands (ev):

   -49.4034 -49.3864 -49.3721 -49.3701 -49.3634 -49.3487 -49.3383 -49.2399
   -49.0557 -48.9350 -48.9230 -48.9130 -28.2237 -28.0785 -28.0708 -28.0637
   -28.0578 -28.0459 -28.0355 -28.0279 -28.0160 -28.0146 -28.0026 -27.9900
   -27.9788 -27.9651 -27.9568 -27.9372 -27.9305 -27.9152 -27.8882 -27.8343
   -27.8249 -27.8053 -27.8015 -27.7398 -27.6989 -27.6374 -27.6275 -27.6142
   -27.5318 -27.5094 -27.5054 -27.4982 -27.4883 -27.4880 -27.4556 -27.3980
   -17.9145  -4.4143  -4.2700  -3.9384  -2.8375  -2.7714  -1.8210  -1.6484
    -0.9430  -0.9426  -0.6393  -0.5649  -0.3866  -0.3530   0.2464   0.2877
     0.3314   0.3440   0.3934   0.4328   0.5619   0.6007   0.6521   0.6989
     0.7211   0.7651   0.7757   0.8934   1.0569   1.0923   1.0931

     the Fermi energy is     0.5281 ev

!    total energy              =   -1170.48493282 Ry
     Harris-Foulkes estimate   =   -1170.48493280 Ry
     estimated scf accuracy    <       0.00000007 Ry

     The total energy is the sum of the following terms:

     one-electron contribution =   -7487.58989638 Ry
     hartree contribution      =    3728.88317414 Ry
     xc contribution           =    -174.13407099 Ry
     ewald contribution        =    2762.49015347 Ry
     electric field correction =       0.00000133 Ry
     smearing contrib. (-TS)   =      -0.13429440 Ry

     convergence has been achieved in  10 iterations

 BEEF-vdW xc energy contributions
           1 :   -147.637751577838
           2 :    129.911125143355
           3 :   -102.230545613134
           4 :    75.2213031042617
           5 :   -56.3777117092575
           6 :    47.0627325319930
           7 :   -43.7866865031980
           8 :    41.9286191801202
           9 :   -38.8964254704788
          10 :    34.8670352271093
          11 :   -31.3775252775512
          12 :    29.4206767352367
          13 :   -28.5994646449398
          14 :    27.7165827506207
          15 :   -25.9817542161262
          16 :    23.6712480473102
          17 :   -21.7340423053649
          18 :    20.8333395414240
          19 :   -20.7564249236046
          20 :    20.6778381149069
          21 :   -19.9398762731805
          22 :    18.5960921922457
          23 :   -17.2699641561336
          24 :    16.5348767746336
          25 :   -16.4142258463089
          26 :    16.4225080697996
          27 :   -16.0495746467587
          28 :    15.2124596667033
          29 :   -14.2799531030076
          30 :    13.6933232944246
          31 :   -17.3665676663622
          32 :   -12.4138523825391

     Forces acting on atoms (Ry/au):

     negative rho (up, down):  2.705E-04 0.000E+00
     atom    1 type  1   force =    -0.00000721   -0.00001279    0.00281072
     atom    2 type  1   force =     0.00000963   -0.00216891    0.00202893
     atom    3 type  1   force =    -0.00186602    0.00109617    0.00201537
     atom    4 type  1   force =     0.00186854    0.00108629    0.00202143
     atom    5 type  1   force =    -0.00030533    0.00019355   -0.00287330
     atom    6 type  1   force =     0.00029786    0.00019718   -0.00286758
     atom    7 type  1   force =     0.00000445   -0.00002203    0.00164751
     atom    8 type  1   force =    -0.00000676   -0.00037392   -0.00289348
     atom    9 type  1   force =    -0.00085242   -0.00050015   -0.00131176
     atom   10 type  1   force =     0.00086129   -0.00053078   -0.00131435
     atom   11 type  1   force =    -0.00002252    0.00101153   -0.00131227
     atom   12 type  1   force =     0.00001339    0.00001758    0.00098521
     atom   13 type  2   force =     0.00000511    0.00000628    0.00106355

     Total force =     0.003209     Total SCF correction =     0.000224

     entering subroutine stress ...

     negative rho (up, down):  2.705E-04 0.000E+00
          total   stress  (Ry/bohr**3)                   (kbar)     P=    3.16
   0.00003822  -0.00000000  -0.00000000          5.62     -0.00     -0.00
  -0.00000000   0.00003821  -0.00000000         -0.00      5.62     -0.00
  -0.00000000  -0.00000000  -0.00001208         -0.00     -0.00     -1.78

     bfgs converged in  15 scf cycles and  14 bfgs steps
     (criteria: energy <  1.0E+00, force <  1.9E-03)

     End of BFGS Geometry Optimization

     Final energy   =   -1170.4849328229 Ry
Begin final coordinates

ATOMIC_POSITIONS (crystal)
Sc1      0.166666667   0.166666667   0.395942884    0   0   0
Sc1      0.666666667   0.166666667   0.395942884    0   0   0
Sc1      0.166666667   0.666666667   0.395942884    0   0   0
Sc1      0.666666667   0.666666667   0.395942884    0   0   0
Sc1      0.833333333   0.333333333   0.500000000    0   0   0
Sc1      0.333333333   0.333333333   0.500000000    0   0   0
Sc1      0.833333333   0.833333333   0.500000000    0   0   0
Sc1      0.333333333   0.833333333   0.500000000    0   0   0
Sc1      0.005671321   0.005670431   0.609453976
Sc1      0.488620020   0.005717554   0.609453577
Sc1      0.005718150   0.488620087   0.609453287
Sc1      0.500001777   0.500001388   0.596613609
O1       0.166656253   0.166653948   0.645106134
End final coordinates

     Writing output data file calc.save

     General routines

     Parallel routines

   This run was terminated on:  17:55:28   2May2018

   JOB DONE.
Job  /afs/slac/g/suncat/bin/suncat-tsmpirun -x LD_LIBRARY_PATH -wdir /scratch/qe780271_PuHk6 pw.x -npool 4 -in pw.inp

TID   HOST_NAME   COMMAND_LINE            STATUS            TERMINATION_TIME
00000 suncat0095 pw.x -npool 4 -i  Done                     05/02/2018 17:55:28
00001 suncat0095 pw.x -npool 4 -i  Done                     05/02/2018 17:55:28
00002 suncat0095 pw.x -npool 4 -i  Done                     05/02/2018 17:55:28
00003 suncat0095 pw.x -npool 4 -i  Done                     05/02/2018 17:55:28
00004 suncat0095 pw.x -npool 4 -i  Done                     05/02/2018 17:55:28
00005 suncat0095 pw.x -npool 4 -i  Done                     05/02/2018 17:55:28
00006 suncat0095 pw.x -npool 4 -i  Done                     05/02/2018 17:55:28
00007 suncat0095 pw.x -npool 4 -i  Done                     05/02/2018 17:55:28
00008 suncat0059 pw.x -npool 4 -i  Done                     05/02/2018 17:55:28
00009 suncat0059 pw.x -npool 4 -i  Done                     05/02/2018 17:55:28
00010 suncat0059 pw.x -npool 4 -i  Done                     05/02/2018 17:55:28
00011 suncat0059 pw.x -npool 4 -i  Done                     05/02/2018 17:55:28
00012 suncat0059 pw.x -npool 4 -i  Done                     05/02/2018 17:55:28
00013 suncat0059 pw.x -npool 4 -i  Done                     05/02/2018 17:55:28
00014 suncat0059 pw.x -npool 4 -i  Done                     05/02/2018 17:55:28
00015 suncat0059 pw.x -npool 4 -i  Done                     05/02/2018 17:55:28
00016 suncat0142 pw.x -npool 4 -i  Done                     05/02/2018 17:55:28
00017 suncat0142 pw.x -npool 4 -i  Done                     05/02/2018 17:55:28
00018 suncat0142 pw.x -npool 4 -i  Done                     05/02/2018 17:55:28
00019 suncat0142 pw.x -npool 4 -i  Done                     05/02/2018 17:55:28
00020 suncat0142 pw.x -npool 4 -i  Done                     05/02/2018 17:55:28
00021 suncat0142 pw.x -npool 4 -i  Done                     05/02/2018 17:55:28
00022 suncat0142 pw.x -npool 4 -i  Done                     05/02/2018 17:55:28
00023 suncat0142 pw.x -npool 4 -i  Done                     05/02/2018 17:55:28
00024 suncat0126 pw.x -npool 4 -i  Done                     05/02/2018 17:55:28
00025 suncat0126 pw.x -npool 4 -i  Done                     05/02/2018 17:55:28
00026 suncat0126 pw.x -npool 4 -i  Done                     05/02/2018 17:55:28
00027 suncat0126 pw.x -npool 4 -i  Done                     05/02/2018 17:55:28
00028 suncat0126 pw.x -npool 4 -i  Done                     05/02/2018 17:55:28
00029 suncat0126 pw.x -npool 4 -i  Done                     05/02/2018 17:55:28
00030 suncat0126 pw.x -npool 4 -i  Done                     05/02/2018 17:55:28
00031 suncat0126 pw.x -npool 4 -i  Done                     05/02/2018 17:55:28