     Program PWSCF v.5.1rc2 (svn rev. 11289) starts on 22Apr2018 at 23:26:47

     Current dimensions of program PWSCF are:
     Max number of different atomic species (ntypx) = 10
     Max number of k-points (npk) =  40000
     Max angular momentum in pseudopotentials (lmaxx) =  3
     Presently stress not available with electric field

     IMPORTANT: XC functional enforced from input :
     Exchange-correlation      = BEEF-VDW ( 1  4 27 13 2)
     Any further DFT definition will be discarded
     Please, verify this is what you really want

     Subspace diagonalization in iterative solution of the eigenvalue problem:
     a serial algorithm will be used

     bravais-lattice index     =            0
     lattice parameter (alat)  =       1.8897  a.u.
     unit-cell volume          =    6116.8020 (a.u.)^3
     number of atoms/cell      =           15
     number of atomic types    =            3
     number of electrons       =       138.00
     number of Kohn-Sham states=           79
     kinetic-energy cutoff     =      36.7493  Ry
     charge density cutoff     =     367.4932  Ry
     convergence threshold     =      1.0E-05
     mixing beta               =       0.3000
     number of iterations used =           10  plain     mixing
     Exchange-correlation      = BEEF-VDW ( 1  4 27 13 2)
     nstep                     =           50

     celldm(1)=   1.889726  celldm(2)=   0.000000  celldm(3)=   0.000000
     celldm(4)=   0.000000  celldm(5)=   0.000000  celldm(6)=   0.000000

     crystal axes: (cart. coord. in units of alat)
               a(1) = (   6.437465   0.000000   0.000000 )
               a(2) = (   3.218732   5.575008   0.000000 )
               a(3) = (   0.000000   0.000000  25.256168 )

     reciprocal axes: (cart. coord. in units 2 pi/alat)
               b(1) = (  0.155341 -0.089686  0.000000 )
               b(2) = (  0.000000  0.179372  0.000000 )
               b(3) = (  0.000000  0.000000  0.039594 )

     PseudoPot. # 1 for Sc read from file:
     /u/if/mamunm/psp/gbrv1.5pbe/Sc.UPF
     MD5 check sum: db30a2753ba66ef00f23801d899b7e7f
     Pseudo is Ultrasoft + core correction, Zval = 11.0
     Generated by new atomic code, or converted to UPF format
     Using radial grid of  849 points,  6 beta functions with:
                l(1) =   0
                l(2) =   0
                l(3) =   1
                l(4) =   1
                l(5) =   2
                l(6) =   2
     Q(r) pseudized with  6 coefficients,  rinner =    1.200   1.200   1.200
                                                       1.200   1.200

     PseudoPot. # 2 for C  read from file:
     /u/if/mamunm/psp/gbrv1.5pbe/C.UPF
     MD5 check sum: d1aef80898a10debaa0f26306b886e00
     Pseudo is Ultrasoft + core correction, Zval =  4.0
     Generated by new atomic code, or converted to UPF format
     Using radial grid of  721 points,  4 beta functions with:
                l(1) =   0
                l(2) =   0
                l(3) =   1
                l(4) =   1
     Q(r) pseudized with  8 coefficients,  rinner =    1.100   1.100   1.100

     PseudoPot. # 3 for H  read from file:
     /u/if/mamunm/psp/gbrv1.5pbe/H.UPF
     MD5 check sum: 761ae9a214b05c3daf00ab9f6b793d6f
     Pseudo is Ultrasoft, Zval =  1.0
     Generated by new atomic code, or converted to UPF format
     Using radial grid of  615 points,  2 beta functions with:
                l(1) =   0
                l(2) =   0
     Q(r) pseudized with  8 coefficients,  rinner =    0.700

     vdW kernel table read from file vdW_kernel_table
     MD5 check sum: 095c7af220d748ca6e76c0b4c6cfb241

     atomic species   valence    mass     pseudopotential
        Sc1           11.00    44.95591     Sc( 1.00)
        C1             4.00    12.01100     C ( 1.00)
        H1             1.00     1.00800     H ( 1.00)

     No symmetry found

   Cartesian axes

     site n.     atom                  positions (alat units)
         1           Sc1 tau(   1) = (   1.6093662   0.9291680  10.0000000  )
         2           Sc1 tau(   2) = (   4.8280986   0.9291680  10.0000000  )
         3           Sc1 tau(   3) = (   3.2187324   3.7166720  10.0000000  )
         4           Sc1 tau(   4) = (   6.4374648   3.7166720  10.0000000  )
         5           Sc1 tau(   5) = (   6.4374648   1.8583360  12.6280840  )
         6           Sc1 tau(   6) = (   3.2187324   1.8583360  12.6280840  )
         7           Sc1 tau(   7) = (   8.0468310   4.6458400  12.6280840  )
         8           Sc1 tau(   8) = (   4.8280986   4.6458400  12.6280840  )
         9           Sc1 tau(   9) = (   0.0000000   0.0000000  15.2561680  )
        10           Sc1 tau(  10) = (   3.2187324   0.0000000  15.2561680  )
        11           Sc1 tau(  11) = (   1.6093662   2.7875040  15.2561680  )
        12           Sc1 tau(  12) = (   4.8280986   2.7875040  15.2561680  )
        13           C1  tau(  13) = (   3.2187324   1.8583360  16.8551680  )
        14           H1  tau(  14) = (   3.8487324   2.4883360  17.4851680  )
        15           H1  tau(  15) = (   2.5887324   1.2283360  17.4851680  )

     number of k points=    20  Fermi-Dirac smearing, width (Ry)=  0.0110
                       cart. coord. in units 2pi/alat
        k(    1) = (   0.0000000   0.0000000   0.0000000), wk =   0.0555556
        k(    2) = (   0.0000000   0.0298953   0.0000000), wk =   0.1111111
        k(    3) = (   0.0000000   0.0597906   0.0000000), wk =   0.1111111
        k(    4) = (   0.0000000  -0.0896860   0.0000000), wk =   0.0555556
        k(    5) = (   0.0258901  -0.0149477   0.0000000), wk =   0.1111111
        k(    6) = (   0.0258901   0.0149477   0.0000000), wk =   0.1111111
        k(    7) = (   0.0258901   0.0448430   0.0000000), wk =   0.1111111
        k(    8) = (   0.0258901  -0.1046336   0.0000000), wk =   0.1111111
        k(    9) = (   0.0258901  -0.0747383   0.0000000), wk =   0.1111111
        k(   10) = (   0.0258901  -0.0448430   0.0000000), wk =   0.1111111
        k(   11) = (   0.0517802  -0.0298953   0.0000000), wk =   0.1111111
        k(   12) = (   0.0517802   0.0000000   0.0000000), wk =   0.1111111
        k(   13) = (   0.0517802   0.0298953   0.0000000), wk =   0.1111111
        k(   14) = (   0.0517802  -0.1195813   0.0000000), wk =   0.1111111
        k(   15) = (   0.0517802  -0.0896860   0.0000000), wk =   0.1111111
        k(   16) = (   0.0517802  -0.0597906   0.0000000), wk =   0.1111111
        k(   17) = (  -0.0776703   0.0448430   0.0000000), wk =   0.0555556
        k(   18) = (  -0.0776703   0.0747383   0.0000000), wk =   0.1111111
        k(   19) = (  -0.0776703   0.1046336   0.0000000), wk =   0.1111111
        k(   20) = (  -0.0776703  -0.0448430   0.0000000), wk =   0.0555556

     Largest allocated arrays     est. size (Mb)     dimensions
     Largest temporary arrays     est. size (Mb)     dimensions

     Initial potential from superposition of free atoms
     Check: negative starting charge=   -0.000271

     starting charge  137.97111, renormalised to  138.00000

     negative rho (up, down):  2.709E-04 0.000E+00

     *
     * You are using vdW-DF for exchange-correlation in this calculation.
     * Please cite the following three references that made this development
     * possible:
     *
     *   M. Dion, H. Rydberg, E. Schroder, D. C. Langreth, and
     *   B. I. Lundqvist, Phys. Rev. Lett. 92, 246401 (2004).
     *
     *   T. Thonhauser, V. R. Cooper, S. Li, A. Puzder, P. Hyldgaard, and
     *   D. C. Langreth, Phys. Rev. B 76, 125112 (2007).
     *
     *   G. Roman-Perez and J. M. Soler, Phys. Rev. Lett. 103, 096102 (2009).
     *
     *
     * If you are using vdW-DF2, please also cite:
     *
     *   K. Lee, E. D. Murray, L. Kong, B. I. Lundqvist, and
     *   D. C. Langreth, Phys. Rev. B 82, 081101(R) (2010).
     *
     *
     * If you are calculating the stress with vdW-DF, please also cite:
     *
     *   R. Sabatini, E. Kucukbenli, B. Kolb, T. Thonhauser, and
     *   S. de Gironcoli, J. Phys.: Condens. Matter 24, 424209 (2012).
     *

     Carrying out vdW-DF run using the following parameters:

     Nqs =      20    Nr_points =    1024   r_max =   100.000
     q_mesh =
               0.00001000     0.04494208     0.09755937     0.15916263
               0.23128650     0.31572767     0.41458969     0.53033537
               0.66584808     0.82450364     1.01025438     1.22772762
               1.48234092     1.78043706     2.12944203     2.53805004
               3.01644009     3.57652955     4.23227104     5.00000000

     Gradients computed in reciprocal space

     Adding external electric field

     Computed dipole along edir(3) :
        Dipole               -0.0100 Ry au,         -0.0255 Debye
        Dipole field         -0.0000 Ry au

        Potential amp.        0.0019 Ry
        Total length         46.5341 bohr

     Starting wfc are  162 randomized atomic wfcs

     Self-consistent Calculation

     iteration #  1     ecut=    36.75 Ry     beta=0.30
     Davidson diagonalization with overlap
     ethr =  1.00E-02,  avg # of iterations =  2.0

[...]

     total energy              =   -1149.15530613 Ry
     Harris-Foulkes estimate   =   -1152.38828600 Ry
     estimated scf accuracy    <       6.94961091 Ry

[...]

     End of self-consistent calculation

          k = 0.0000 0.0000 0.0000 ( 23031 PWs)   bands (ev):

   -49.4298 -49.3543 -49.3119 -49.3061 -49.3058 -49.2765 -49.2407 -49.2057
   -48.9073 -48.8641 -48.8634 -48.8600 -28.1628 -28.0818 -28.0788 -28.0655
   -28.0645 -28.0640 -28.0363 -27.9976 -27.9797 -27.9758 -27.9741 -27.9348
   -27.8996 -27.8613 -27.8078 -27.8074 -27.8063 -27.7998 -27.7826 -27.7488
   -27.7284 -27.7283 -27.6577 -27.6439 -27.6253 -27.6227 -27.6155 -27.4703
   -27.4499 -27.4487 -27.4476 -27.3936 -27.3858 -27.3849 -27.3122 -27.3114
   -11.5116  -5.8423  -4.1938  -3.3366  -2.4433  -1.5748  -1.3225  -0.8977
    -0.8753  -0.8473  -0.7815  -0.6981  -0.6942  -0.4817  -0.2183  -0.1469
     0.0312   0.0527   0.0571   0.3317   0.3495   0.4264   0.6859   1.0293
     1.1830   1.2118   1.2149   1.2707   1.4125   1.5644   1.7369

[...]

          k =-0.0777 0.0448 0.0000 ( 23032 PWs)   bands (ev):

[...]

     the Fermi energy is     0.5937 ev

!    total energy              =   -1151.68530411 Ry
     Harris-Foulkes estimate   =   -1151.68530710 Ry
     estimated scf accuracy    <       0.00000387 Ry

     The total energy is the sum of the following terms:

     one-electron contribution =   -7371.40050588 Ry
     hartree contribution      =    3670.20552977 Ry
     xc contribution           =    -171.65623804 Ry
     ewald contribution        =    2721.29415124 Ry
     electric field correction =       0.00000046 Ry
     smearing contrib. (-TS)   =      -0.12824165 Ry

     convergence has been achieved in  18 iterations

 BEEF-vdW xc energy contributions
           1 :   -145.401187011477
           2 :    127.905850337483
           3 :   -100.664947949742
           4 :    74.2137992030295
           5 :   -55.9133775552099
           6 :    47.0157758062469
           7 :   -43.9703011154551
           8 :    42.1495749323578
           9 :   -39.0101829325938
          10 :    34.8232341811156
          11 :   -31.2342637631219
          12 :    29.3092471023079
          13 :   -28.6472629471847
          14 :    27.9711089840740
          15 :   -26.3864494643914
          16 :    24.1129488302030
          17 :   -22.1274565156505
          18 :    21.1733775349448
          19 :   -21.0946004749908
          20 :    21.0517883175932
          21 :   -20.3278780424107
          22 :    18.9374591886273
          23 :   -17.5246664971216
          24 :    16.7225671542140
          25 :   -16.5981110760172
          26 :    16.6560808110321
          27 :   -16.3356910863548
          28 :    15.5106799936912
          29 :   -14.5521427453100
          30 :    13.9411366783538
          31 :   -17.2500287653154
          32 :   -12.3598346625542

     Forces acting on atoms (Ry/au):

     negative rho (up, down):  2.005E-04 0.000E+00
     atom    1 type  1   force =     0.00002088   -0.00015273    0.00178061
     atom    2 type  1   force =    -0.00011555    0.00027094    0.00162505
     atom    3 type  1   force =     0.00031215   -0.00011190    0.00169512
     atom    4 type  1   force =    -0.00049406   -0.00002804    0.00135198
     atom    5 type  1   force =     0.00000416   -0.00300568    0.00328553
     atom    6 type  1   force =     0.00045192    0.00009071   -0.01592936
     atom    7 type  1   force =     0.00285850    0.00159172    0.00398164
     atom    8 type  1   force =    -0.00241354    0.00132210    0.00243200
     atom    9 type  1   force =    -0.01000497    0.00002617   -0.00973388
     atom   10 type  1   force =     0.00364343    0.03083462    0.02253072
     atom   11 type  1   force =     0.01780819   -0.00829931    0.01430671
     atom   12 type  1   force =    -0.03593855   -0.02281397    0.02941646
     atom   13 type  2   force =     0.02226191    0.00135520   -0.08616179
     atom   14 type  3   force =     0.00698215    0.00561828    0.01481905
     atom   15 type  3   force =    -0.00537662   -0.00669812    0.01460015

     Total force =     0.115943     Total SCF correction =     0.001924

     entering subroutine stress ...

     negative rho (up, down):  2.005E-04 0.000E+00
          total   stress  (Ry/bohr**3)                   (kbar)     P=   -0.02
   0.00001540  -0.00000276   0.00001173          2.26     -0.41      1.73
  -0.00000276   0.00001508  -0.00000006         -0.41      2.22     -0.01
   0.00001173  -0.00000006  -0.00003089          1.73     -0.01     -4.54

     BFGS Geometry Optimization

     number of scf cycles    =   1
     number of bfgs steps    =   0

     energy   new            =   -1151.6853041073 Ry

     new trust radius        =       0.0890015896 bohr
     new conv_thr            =       0.0000099958 Ry

ATOMIC_POSITIONS (crystal)
Sc1      0.166666667   0.166666667   0.395942884    0   0   0
Sc1      0.666666667   0.166666667   0.395942884    0   0   0
Sc1      0.166666667   0.666666667   0.395942884    0   0   0
Sc1      0.666666667   0.666666667   0.395942884    0   0   0
Sc1      0.833333333   0.333333333   0.500000000    0   0   0
Sc1      0.333333333   0.333333333   0.500000000    0   0   0
Sc1      0.833333333   0.833333333   0.500000000    0   0   0
Sc1      0.333333333   0.833333333   0.500000000    0   0   0
Sc1     -0.000823678   0.000002484   0.603853167
Sc1      0.498836096   0.002926808   0.604529188
Sc1      0.001857765   0.499212233   0.604356875
Sc1      0.498128499   0.497834508   0.604673461
C1       0.335099005   0.333461969   0.665563087
H1       0.375003095   0.446870939   0.692623279
H1       0.291846799   0.219693229   0.692618693

     Writing output data file calc.save
     Check: negative starting charge=   -0.000271
     NEW-OLD atomic charge density approx. for the potential
     Check: negative starting charge=   -0.000269

[...]

     energy   old            =   -1151.6853041073 Ry
     energy   new            =   -1151.6947281497 Ry

     CASE: energy  _new < energy  _old

[...]

     iteration #  1     ecut=    36.75 Ry     beta=0.30
     Davidson diagonalization with overlap
     c_bands:  1 eigenvalues not converged
     ethr =  1.00E-06,  avg # of iterations = 16.0

[...]

     Threshold (ethr) on eigenvalues was too large:
     Diagonalizing with lowered threshold

     Davidson diagonalization with overlap
     c_bands:  1 eigenvalues not converged
     ethr =  4.04E-08,  avg # of iterations = 10.3

[...]

     iteration #  7     ecut=    36.75 Ry     beta=0.30
     Davidson diagonalization with overlap
     c_bands:  1 eigenvalues not converged
     ethr =  1.08E-08,  avg # of iterations =  6.7

[...]

     Threshold (ethr) on eigenvalues was too large:
     Diagonalizing with lowered threshold

     Davidson diagonalization with overlap
     ethr =  7.15E-08,  avg # of iterations =  5.3

[...]

     Total force =     0.004363     Total SCF correction =     0.000308

[...]

     number of scf cycles    =  36
     number of bfgs steps    =  35

     energy   old            =   -1151.7133821053 Ry
     energy   new            =   -1151.7134474296 Ry

     CASE: energy  _new < energy  _old

     new trust radius        =       0.0462800346 bohr
     new conv_thr            =       0.0000001000 Ry

ATOMIC_POSITIONS (crystal)
Sc1      0.166666667   0.166666667   0.395942884    0   0   0
Sc1      0.666666667   0.166666667   0.395942884    0   0   0
Sc1      0.166666667   0.666666667   0.395942884    0   0   0
Sc1      0.666666667   0.666666667   0.395942884    0   0   0
Sc1      0.833333333   0.333333333   0.500000000    0   0   0
Sc1      0.333333333   0.333333333   0.500000000    0   0   0
Sc1      0.833333333   0.833333333   0.500000000    0   0   0
Sc1      0.333333333   0.833333333   0.500000000    0   0   0
Sc1     -0.012043372   0.007331285   0.601454192
Sc1      0.499375368   0.009036744   0.605833770
Sc1      0.014892441   0.494549675   0.605791098
Sc1      0.499325545   0.495587629   0.605374101
C1       0.397130417   0.303897117   0.661836131
H1       0.381940349   0.447807106   0.688510060
H1       0.390242707   0.171853568   0.688922133

     Writing output data file calc.save
     Check: negative starting charge=   -0.000266
     NEW-OLD atomic charge density approx. for the potential
     Check: negative starting charge=   -0.000266

[...]

     Self-consistent Calculation

[...]

     total energy              =   -1151.71347304 Ry
     Harris-Foulkes estimate   =   -1151.71347309 Ry
     estimated scf accuracy    <       0.00000019 Ry

     iteration # 12     ecut=    36.75 Ry     beta=0.30
     Davidson diagonalization with overlap
     ethr =  1.37E-10,  avg # of iterations =  8.4

[...]

     negative rho (up, down):  1.957E-04 0.000E+00

     Adding external electric field

     Computed dipole along edir(3) :
        Dipole                0.0837 Ry au,          0.2128 Debye
        Dipole field          0.0002 Ry au

        Potential amp.       -0.0160 Ry
        Total length         46.5341 bohr

     End of self-consistent calculation

[...]

          k = 0.0518-0.0598 0.0000 ( 23012 PWs)   bands (ev):

[...]

          k =-0.0777-0.0448 0.0000 ( 23032 PWs)   bands (ev):

   -49.2828 -49.2481 -49.2348 -49.2300 -49.2099 -49.2068 -49.0838 -49.0745
   -48.8116 -48.7896 -48.7759 -48.7641 -28.0093 -27.9311 -27.9095 -27.9090
   -27.9042 -27.8997 -27.8968 -27.8756 -27.8717 -27.8690 -27.8228 -27.8188
   -27.8027 -27.7998 -27.7773 -27.7750 -27.7659 -27.7544 -27.6710 -27.6705
   -27.6670 -27.6308 -27.6049 -27.5774 -27.4825 -27.4766 -27.4002 -27.3881
   -27.3769 -27.3675 -27.3617 -27.3556 -27.3523 -27.3416 -27.2636 -27.2576
   -11.9315  -6.1594  -3.5604  -2.7360  -2.6141  -1.9413  -1.5572  -1.3704
    -0.8186  -0.7977  -0.4872  -0.3736  -0.2503  -0.2279   0.4254   0.4322
     0.4630   0.4847   0.5010   0.5905   0.7344   0.7827   0.7934   0.8337
     0.8744   0.9185   1.0848   1.1482   1.1907   1.2044   1.2162

     the Fermi energy is     0.6922 ev

!    total energy              =   -1151.71347303 Ry
     Harris-Foulkes estimate   =   -1151.71347308 Ry
     estimated scf accuracy    <       0.00000007 Ry

     The total energy is the sum of the following terms:

     one-electron contribution =   -7385.46859984 Ry
     hartree contribution      =    3677.54788269 Ry
     xc contribution           =    -171.71442831 Ry
     ewald contribution        =    2728.05192926 Ry
     electric field correction =       0.00001440 Ry
     smearing contrib. (-TS)   =      -0.13027123 Ry

     convergence has been achieved in  12 iterations

 BEEF-vdW xc energy contributions
           1 :   -145.466513378930
           2 :    128.010539018606
           3 :   -100.806643049084
           4 :    74.3543571593126
           5 :   -56.0152992951447
           6 :    47.0667319456762
           7 :   -43.9792190721078
           8 :    42.1303895307796
           9 :   -38.9750199659479
          10 :    34.7845046726419
          11 :   -31.2025378165773
          12 :    29.2863830988163
          13 :   -28.6267924997357
          14 :    27.9493678173019
          15 :   -26.3715234750357
          16 :    24.1187691349591
          17 :   -22.1579413527356
          18 :    21.2140402240462
          19 :   -21.1217333698050
          20 :    21.0511028046544
          21 :   -20.3059055655001
          22 :    18.9163115173911
          23 :   -17.5249174007176
          24 :    16.7480604416933
          25 :   -16.6345298370279
          26 :    16.6839046393994
          27 :   -16.3456364584669
          28 :    15.5075671901493
          29 :   -14.5447385320463
          30 :    13.9296583052472
          31 :   -17.2544655633781
          32 :   -12.3731123072891

     Forces acting on atoms (Ry/au):

     negative rho (up, down):  1.957E-04 0.000E+00
     atom    1 type  1   force =     0.00045938   -0.00035475    0.00216402
     atom    2 type  1   force =    -0.00061432    0.00029345    0.00127121
     atom    3 type  1   force =     0.00049945   -0.00022078    0.00208683
     atom    4 type  1   force =    -0.00056170    0.00035312    0.00263559
     atom    5 type  1   force =     0.00150410   -0.00087191    0.00253517
     atom    6 type  1   force =     0.00055707   -0.00008316   -0.01287348
     atom    7 type  1   force =     0.00172467   -0.00037024    0.00291904
     atom    8 type  1   force =    -0.00402833    0.00266152   -0.00031119
     atom    9 type  1   force =     0.00071257    0.00022815   -0.00054334
     atom   10 type  1   force =    -0.00071632    0.00002076   -0.00075483
     atom   11 type  1   force =    -0.00021026   -0.00087456    0.00036416
     atom   12 type  1   force =     0.00011994    0.00002449    0.00050600
     atom   13 type  2   force =    -0.00048801    0.00010478   -0.00008864
     atom   14 type  3   force =     0.00088940   -0.00068808   -0.00010953
     atom   15 type  3   force =     0.00015237   -0.00022278    0.00019899

     Total force =     0.002190     Total SCF correction =     0.000407
     SCF correction compared to forces is large: reduce conv_thr to get better values

     entering subroutine stress ...

     negative rho (up, down):  1.957E-04 0.000E+00
          total   stress  (Ry/bohr**3)                   (kbar)     P=    1.67
   0.00002144   0.00000116   0.00000100          3.15      0.17      0.15
   0.00000116   0.00002337  -0.00000176          0.17      3.44     -0.26
   0.00000100  -0.00000176  -0.00001078          0.15     -0.26     -1.59

     bfgs converged in  37 scf cycles and  36 bfgs steps
     (criteria: energy <  1.0E+00, force <  1.9E-03)

     End of BFGS Geometry Optimization

     Final energy   =   -1151.7134730254 Ry
Begin final coordinates

ATOMIC_POSITIONS (crystal)
Sc1      0.166666667   0.166666667   0.395942884    0   0   0
Sc1      0.666666667   0.166666667   0.395942884    0   0   0
Sc1      0.166666667   0.666666667   0.395942884    0   0   0
Sc1      0.666666667   0.666666667   0.395942884    0   0   0
Sc1      0.833333333   0.333333333   0.500000000    0   0   0
Sc1      0.333333333   0.333333333   0.500000000    0   0   0
Sc1      0.833333333   0.833333333   0.500000000    0   0   0
Sc1      0.333333333   0.833333333   0.500000000    0   0   0
Sc1     -0.012043372   0.007331285   0.601454192
Sc1      0.499375368   0.009036744   0.605833770
Sc1      0.014892441   0.494549675   0.605791098
Sc1      0.499325545   0.495587629   0.605374101
C1       0.397130417   0.303897117   0.661836131
H1       0.381940349   0.447807106   0.688510060
H1       0.390242707   0.171853568   0.688922133
End final coordinates

     Writing output data file calc.save

     General routines

     Parallel routines

   This run was terminated on:   4:39: 2  23Apr2018

   JOB DONE.
Job  /afs/slac/g/suncat/bin/suncat-tsmpirun -x LD_LIBRARY_PATH -wdir /scratch/qe355907_d7Ck3 pw.x -npool 4 -in pw.inp

TID   HOST_NAME   COMMAND_LINE            STATUS            TERMINATION_TIME
00000 suncat0016 pw.x -npool 4 -i  Done                     04/23/2018 04:39:02
00001 suncat0016 pw.x -npool 4 -i  Done                     04/23/2018 04:39:02
00002 suncat0016 pw.x -npool 4 -i  Done                     04/23/2018 04:39:02
00003 suncat0016 pw.x -npool 4 -i  Done                     04/23/2018 04:39:02
00004 suncat0016 pw.x -npool 4 -i  Done                     04/23/2018 04:39:02
00005 suncat0016 pw.x -npool 4 -i  Done                     04/23/2018 04:39:02
00006 suncat0016 pw.x -npool 4 -i  Done                     04/23/2018 04:39:02
00007 suncat0016 pw.x -npool 4 -i  Done                     04/23/2018 04:39:02
00008 suncat0010 pw.x -npool 4 -i  Done                     04/23/2018 04:39:02
00009 suncat0010 pw.x -npool 4 -i  Done                     04/23/2018 04:39:02
00010 suncat0010 pw.x -npool 4 -i  Done                     04/23/2018 04:39:02
00011 suncat0010 pw.x -npool 4 -i  Done                     04/23/2018 04:39:02
00012 suncat0010 pw.x -npool 4 -i  Done                     04/23/2018 04:39:02
00013 suncat0010 pw.x -npool 4 -i  Done                     04/23/2018 04:39:02
00014 suncat0010 pw.x -npool 4 -i  Done                     04/23/2018 04:39:02
00015 suncat0010 pw.x -npool 4 -i  Done                     04/23/2018 04:39:02
00016 suncat0176 pw.x -npool 4 -i  Done                     04/23/2018 04:39:02
00017 suncat0176 pw.x -npool 4 -i  Done                     04/23/2018 04:39:02
00018 suncat0176 pw.x -npool 4 -i  Done                     04/23/2018 04:39:02
00019 suncat0176 pw.x -npool 4 -i  Done                     04/23/2018 04:39:02
00020 suncat0176 pw.x -npool 4 -i  Done                     04/23/2018 04:39:02
00021 suncat0176 pw.x -npool 4 -i  Done                     04/23/2018 04:39:02
00022 suncat0176 pw.x -npool 4 -i  Done                     04/23/2018 04:39:02
00023 suncat0176 pw.x -npool 4 -i  Done                     04/23/2018 04:39:02
00024 suncat0174 pw.x -npool 4 -i  Done                     04/23/2018 04:39:02
00025 suncat0174 pw.x -npool 4 -i  Done                     04/23/2018 04:39:02
00026 suncat0174 pw.x -npool 4 -i  Done                     04/23/2018 04:39:02
00027 suncat0174 pw.x -npool 4 -i  Done                     04/23/2018 04:39:02
00028 suncat0174 pw.x -npool 4 -i  Done                     04/23/2018 04:39:02
00029 suncat0174 pw.x -npool 4 -i  Done                     04/23/2018 04:39:02
00030 suncat0174 pw.x -npool 4 -i  Done                     04/23/2018 04:39:02
00031 suncat0174 pw.x -npool 4 -i  Done                     04/23/2018 04:39:02