     Program PWSCF v.5.1rc2 (svn rev. ) starts on 23Apr2018 at  3:18:59

     Current dimensions of program PWSCF are:
     Max number of different atomic species (ntypx) = 10
     Max number of k-points (npk) =  40000
     Max angular momentum in pseudopotentials (lmaxx) =  3
     Presently stress not available with electric field

     IMPORTANT: XC functional enforced from input :
     Exchange-correlation      = BEEF-VDW ( 1  4 27 13 2)
     Any further DFT definition will be discarded
     Please, verify this is what you really want

     Subspace diagonalization in iterative solution of the eigenvalue problem:
     a serial algorithm will be used

     bravais-lattice index     =            0
     lattice parameter (alat)  =       1.8897  a.u.
     unit-cell volume          =    6741.9070 (a.u.)^3
     number of atoms/cell      =           14
     number of atomic types    =            3
     number of electrons       =       175.00
     number of Kohn-Sham states=           97
     kinetic-energy cutoff     =      36.7493  Ry
     charge density cutoff     =     367.4932  Ry
     convergence threshold     =      1.0E-05
     mixing beta               =       0.3000
     number of iterations used =           10  plain     mixing
     Exchange-correlation      = BEEF-VDW ( 1  4 27 13 2)
     nstep                     =           50

     celldm(1)=   1.889726  celldm(2)=   0.000000  celldm(3)=   0.000000
     celldm(4)=   0.000000  celldm(5)=   0.000000  celldm(6)=   0.000000

     crystal axes: (cart. coord. in units of alat)
               a(1) = (   6.726993   0.000000   0.000000 )
               a(2) = (   3.363497   5.825747   0.000000 )
               a(3) = (   0.000000   0.000000  25.492567 )

     reciprocal axes: (cart. coord. in units 2 pi/alat)
               b(1) = (  0.148655 -0.085826  0.000000 )
               b(2) = (  0.000000  0.171652  0.000000 )
               b(3) = (  0.000000  0.000000  0.039227 )

     PseudoPot. # 1 for Sn read from file:
     /home/mamunm/src/pseudo/gbrv1.5pbe/Sn.UPF
     MD5 check sum: 469debedee59599fedebd795477fea03
     Pseudo is Ultrasoft + core correction, Zval = 14.0
     Generated by new atomic code, or converted to UPF format
     Using radial grid of  891 points,  6 beta functions with:
                l(1) =   0
                l(2) =   0
                l(3) =   1
                l(4) =   1
                l(5) =   2
                l(6) =   2
     Q(r) pseudized with  8 coefficients,  rinner =    1.350   1.350   1.350
                                                       1.350   1.350

     PseudoPot. # 2 for O  read from file:
     /home/mamunm/src/pseudo/gbrv1.5pbe/O.UPF
     MD5 check sum: 734c27235a0248c51dbae37a1fbe46ec
     Pseudo is Ultrasoft + core correction, Zval =  6.0
     Generated by new atomic code, or converted to UPF format
     Using radial grid of  737 points,  5 beta functions with:
                l(1) =   0
                l(2) =   0
                l(3) =   1
                l(4) =   1
                l(5) =   2
     Q(r) pseudized with  8 coefficients,  rinner =    0.900   0.900   0.900
                                                       0.900   0.900

     PseudoPot. # 3 for H  read from file:
     /home/mamunm/src/pseudo/gbrv1.5pbe/H.UPF
     MD5 check sum: 761ae9a214b05c3daf00ab9f6b793d6f
     Pseudo is Ultrasoft, Zval =  1.0
     Generated by new atomic code, or converted to UPF format
     Using radial grid of  615 points,  2 beta functions with:
                l(1) =   0
                l(2) =   0
     Q(r) pseudized with  8 coefficients,  rinner =    0.700

     vdW kernel table read from file vdW_kernel_table
     MD5 check sum: 095c7af220d748ca6e76c0b4c6cfb241

     atomic species   valence    mass     pseudopotential
        Sn1           14.00   118.71000     Sn( 1.00)
        O1             6.00    15.99900     O ( 1.00)
        H1             1.00     1.00800     H ( 1.00)

     No symmetry found

   Cartesian axes

     site n.     atom                  positions (alat units)
         1           Sn1 tau(   1) = (   1.6817483   0.9709578  10.0000000  )
         2           Sn1 tau(   2) = (   5.0452448   0.9709578  10.0000000  )
         3           Sn1 tau(   3) = (   3.3634965   3.8838312  10.0000000  )
         4           Sn1 tau(   4) = (   6.7269931   3.8838312  10.0000000  )
         5           Sn1 tau(   5) = (   6.7269931   1.9419156  12.7462834  )
         6           Sn1 tau(   6) = (   3.3634965   1.9419156  12.7462834  )
         7           Sn1 tau(   7) = (   8.4087413   4.8547891  12.7462834  )
         8           Sn1 tau(   8) = (   5.0452448   4.8547891  12.7462834  )
         9           Sn1 tau(   9) = (   0.0000000   0.0000000  15.4925668  )
        10           Sn1 tau(  10) = (   3.3634965   0.0000000  15.4925668  )
        11           Sn1 tau(  11) = (   1.6817483   2.9128734  15.4925668  )
        12           Sn1 tau(  12) = (   5.0452448   2.9128734  15.4925668  )
        13           O1  tau(  13) = (   1.6817483   0.0000000  17.0300668  )
        14           H1  tau(  14) = (   1.6817483   0.0000000  17.9800668  )

     number of k points=    20  Fermi-Dirac smearing, width (Ry)=  0.0110
                       cart. coord. in units 2pi/alat
        k(    1) = (   0.0000000   0.0000000   0.0000000), wk =   0.0555556
        k(    2) = (   0.0000000   0.0286086   0.0000000), wk =   0.1111111
        k(    3) = (   0.0000000   0.0572173   0.0000000), wk =   0.1111111
        k(    4) = (   0.0000000  -0.0858259   0.0000000), wk =   0.0555556
        k(    5) = (   0.0247758  -0.0143043   0.0000000), wk =   0.1111111
        k(    6) = (   0.0247758   0.0143043   0.0000000), wk =   0.1111111
        k(    7) = (   0.0247758   0.0429130   0.0000000), wk =   0.1111111
        k(    8) = (   0.0247758  -0.1001302   0.0000000), wk =   0.1111111
        k(    9) = (   0.0247758  -0.0715216   0.0000000), wk =   0.1111111
        k(   10) = (   0.0247758  -0.0429130   0.0000000), wk =   0.1111111
        k(   11) = (   0.0495516  -0.0286086   0.0000000), wk =   0.1111111
        k(   12) = (   0.0495516   0.0000000   0.0000000), wk =   0.1111111
        k(   13) = (   0.0495516   0.0286086   0.0000000), wk =   0.1111111
        k(   14) = (   0.0495516  -0.1144345   0.0000000), wk =   0.1111111
        k(   15) = (   0.0495516  -0.0858259   0.0000000), wk =   0.1111111
        k(   16) = (   0.0495516  -0.0572173   0.0000000), wk =   0.1111111
        k(   17) = (  -0.0743274   0.0429130   0.0000000), wk =   0.0555556
        k(   18) = (  -0.0743274   0.0715216   0.0000000), wk =   0.1111111
        k(   19) = (  -0.0743274   0.1001302   0.0000000), wk =   0.1111111
        k(   20) = (  -0.0743274  -0.0429130   0.0000000), wk =   0.0555556

     Largest allocated arrays     est. size (Mb)     dimensions
     Largest temporary arrays     est. size (Mb)     dimensions

     Initial potential from superposition of free atoms
     Check: negative starting charge=   -0.001417

     starting charge  162.99945, renormalised to  175.00000

     negative rho (up, down):  1.521E-03 0.000E+00

     *
     * You are using vdW-DF for exchange-correlation in this calculation.
     * Please cite the following three references that made this development
     * possible:
     *
     *   M. Dion, H. Rydberg, E. Schroder, D. C. Langreth, and
     *   B. I. Lundqvist, Phys. Rev. Lett. 92, 246401 (2004).
     *
     *   T. Thonhauser, V. R. Cooper, S. Li, A. Puzder, P. Hyldgaard, and
     *   D. C. Langreth, Phys. Rev. B 76, 125112 (2007).
     *
     *   G. Roman-Perez and J. M. Soler, Phys. Rev. Lett. 103, 096102 (2009).
     *
     *
     * If you are using vdW-DF2, please also cite:
     *
     *   K. Lee, E. D. Murray, L. Kong, B. I. Lundqvist, and
     *   D. C. Langreth, Phys. Rev. B 82, 081101(R) (2010).
     *
     *
     * If you are calculating the stress with vdW-DF, please also cite:
     *
     *   R. Sabatini, E. Kucukbenli, B. Kolb, T. Thonhauser, and
     *   S. de Gironcoli, J. Phys.: Condens. Matter 24, 424209 (2012).
     *

     Carrying out vdW-DF run using the following parameters:

     Nqs =      20    Nr_points =    1024   r_max =   100.000
     q_mesh =
               0.00001000     0.04494208     0.09755937     0.15916263
               0.23128650     0.31572767     0.41458969     0.53033537
               0.66584808     0.82450364     1.01025438     1.22772762
               1.48234092     1.78043706     2.12944203     2.53805004
               3.01644009     3.57652955     4.23227104     5.00000000

     Gradients computed in reciprocal space

     Adding external electric field

     Computed dipole along edir(3) :
        Dipole               -4.3040 Ry au,        -10.9397 Debye
        Dipole field         -0.0080 Ry au

        Potential amp.        0.7536 Ry
        Total length         46.9696 bohr

     Starting wfc are  113 randomized atomic wfcs

     Self-consistent Calculation

     iteration #  1     ecut=    36.75 Ry     beta=0.30
     Davidson diagonalization with overlap
     ethr =  1.00E-02,  avg # of iterations =  8.2

[...]

     total energy              =   -1879.66197358 Ry
     Harris-Foulkes estimate   =   -1965.02608815 Ry
     estimated scf accuracy    <     181.62535830 Ry

     iteration #  2     ecut=    36.75 Ry     beta=0.30
     Davidson diagonalization with overlap
     c_bands:  1 eigenvalues not converged
     c_bands:  2 eigenvalues not converged
     c_bands:  1 eigenvalues not converged
     c_bands:  1 eigenvalues not converged
     c_bands:  2 eigenvalues not converged
     c_bands:  1 eigenvalues not converged
     c_bands:  1 eigenvalues not converged
     c_bands:  1 eigenvalues not converged
     ethr =  1.00E-02,  avg # of iterations = 19.1

[...]

     End of self-consistent calculation

          k = 0.0000 0.0000 0.0000 ( 25377 PWs)   bands (ev):

   -21.2551 -21.1445 -21.1298 -21.1159 -21.0841 -21.0788 -21.0785 -21.0612
   -21.0581 -21.0468 -21.0414 -21.0407 -21.0294 -21.0257 -21.0065 -21.0055
   -20.9980 -20.9970 -20.9878 -20.9848 -20.9839 -20.9826 -20.9800 -20.9761
   -20.9759 -20.9751 -20.9689 -20.9647 -20.9621 -20.9564 -20.9475 -20.9443
   -20.9388 -20.9378 -20.9276 -20.9236 -20.9211 -20.9185 -20.9120 -20.9032
   -20.9019 -20.8967 -20.8789 -20.8717 -20.8620 -20.8559 -20.8505 -20.8464
   -20.8442 -20.8429 -20.8362 -20.8348 -20.8327 -20.8281 -20.8222 -20.8215
   -20.8104 -20.8067 -20.8003 -20.7988 -19.1075  -9.7757  -8.7195  -7.4544
    -6.3785  -5.9122  -5.6606  -5.5926  -5.4780  -5.2088  -5.0126  -4.6199
    -4.3155  -4.1478  -3.2901  -3.1594  -2.8394  -2.6792  -2.5028  -2.2641
    -1.6990  -1.6248  -1.5913  -1.1497  -1.0485  -0.8010   0.6300   1.9744
     2.0000   2.0277   2.2075   2.5360   2.6720   3.0754   3.5525   3.5834
     3.6059

[...]

          k =-0.0743 0.0429 0.0000 ( 25386 PWs)   bands (ev):

[...]

     the Fermi energy is     1.0427 ev

!    total energy              =   -1962.08813394 Ry
     Harris-Foulkes estimate   =   -1962.08815118 Ry
     estimated scf accuracy    <       0.00000375 Ry

     The total energy is the sum of the following terms:

     one-electron contribution =  -10724.83649736 Ry
     hartree contribution      =    5429.98169083 Ry
     xc contribution           =    -542.33226691 Ry
     ewald contribution        =    3875.14137530 Ry
     electric field correction =       0.00006955 Ry
     smearing contrib. (-TS)   =      -0.04250534 Ry

     convergence has been achieved in  18 iterations

 BEEF-vdW xc energy contributions
           1 :   -476.350773663964
           2 :    435.774246454159
           3 :   -367.033652254204
           4 :    289.326507000019
           5 :   -220.775982696700
           6 :    172.087540546802
           7 :   -144.215954624115
           8 :    130.483454174522
           9 :   -121.581987257915
          10 :    110.666972474243
          11 :   -96.0549252583073
          12 :    80.5820311089748
          13 :   -68.5998750289018
          14 :    62.7102046706097
          15 :   -62.1682269350404
          16 :    63.6219177869220
          17 :   -63.3937875233134
          18 :    59.6980217865549
          19 :   -53.4510328723863
          20 :    47.3388835014681
          21 :   -43.9036864333007
          22 :    43.9266865589825
          23 :   -46.0824500137251
          24 :    47.9481453387825
          25 :   -47.6053345588522
          26 :    44.7731700259170
          27 :   -40.8110037295532
          28 :    37.6953274131780
          29 :   -36.7142088677170
          30 :    37.7237082176754
          31 :   -41.8283111556939
          32 :   -30.3955769230087

     Forces acting on atoms (Ry/au):

     negative rho (up, down):  5.710E-04 0.000E+00
     atom    1 type  1   force =     0.00001380   -0.00367763   -0.00387574
     atom    2 type  1   force =     0.00001890   -0.00008923    0.00030769
     atom    3 type  1   force =    -0.00156923    0.00173521    0.00026261
     atom    4 type  1   force =     0.00158102    0.00174011    0.00025198
     atom    5 type  1   force =    -0.00045332    0.00010913   -0.00382761
     atom    6 type  1   force =     0.00044605    0.00009641   -0.00382936
     atom    7 type  1   force =    -0.00001339   -0.00299195   -0.01263948
     atom    8 type  1   force =     0.00001001    0.00443464   -0.00090919
     atom    9 type  1   force =    -0.00891943   -0.00105896    0.00354063
     atom   10 type  1   force =     0.00890665   -0.00107091    0.00353981
     atom   11 type  1   force =    -0.00000448    0.00890038   -0.00351530
     atom   12 type  1   force =    -0.00000403   -0.00766526   -0.00315988
     atom   13 type  2   force =    -0.00000638   -0.00018398   -0.03396073
     atom   14 type  3   force =    -0.00000618   -0.00027795    0.05781458

     Total force =     0.069588     Total SCF correction =     0.001021

     entering subroutine stress ...

     negative rho (up, down):  5.710E-04 0.000E+00
          total   stress  (Ry/bohr**3)                   (kbar)     P=    6.53
   0.00005235  -0.00000000  -0.00000000          7.70     -0.00     -0.00
  -0.00000000   0.00004119  -0.00000116         -0.00      6.06     -0.17
  -0.00000000  -0.00000116   0.00003958         -0.00     -0.17      5.82

     BFGS Geometry Optimization

     number of scf cycles    =   1
     number of bfgs steps    =   0

     energy   new            =   -1962.0881339365 Ry

     new trust radius        =       0.0578152511 bohr
     new conv_thr            =       0.0000099958 Ry

ATOMIC_POSITIONS (crystal)
Sn1      0.166666667   0.166666667   0.392271209    0   0   0
Sn1      0.666666667   0.166666667   0.392271209    0   0   0
Sn1      0.166666667   0.666666667   0.392271209    0   0   0
Sn1      0.666666667   0.666666667   0.392271209    0   0   0
Sn1      0.833333333   0.333333333   0.500000000    0   0   0
Sn1      0.333333333   0.333333333   0.500000000    0   0   0
Sn1      0.833333333   0.833333333   0.500000000    0   0   0
Sn1      0.333333333   0.833333333   0.500000000    0   0   0
Sn1     -0.000653550  -0.000096190   0.607802288
Sn1      0.500749277  -0.000097276   0.607802271
Sn1     -0.000404582   0.500808459   0.607655820
Sn1      0.500347817   0.499303732   0.607663198
O1       0.250007854  -0.000016711   0.667335529
H1       0.250012138  -0.000025248   0.706506375

     Writing output data file calc.save
     Check: negative starting charge=   -0.001417
     NEW-OLD atomic charge density approx. for the potential
     Check: negative starting charge=   -0.001414

[...]

     Total force =     0.077104     Total SCF correction =     0.008480
     SCF correction compared to forces is large: reduce conv_thr to get better values

[...]

     energy   old            =   -1962.0881339365 Ry
     energy   new            =   -1962.0882127636 Ry

     CASE: energy  _new < energy  _old

[...]

     iteration #  1     ecut=    36.75 Ry     beta=0.30
     Davidson diagonalization with overlap
     c_bands:  1 eigenvalues not converged
     c_bands:  1 eigenvalues not converged
     ethr =  1.00E-06,  avg # of iterations = 11.7

[...]

     Total force =     0.010050     Total SCF correction =     0.000429

[...]

     number of scf cycles    =  26
     number of bfgs steps    =  25

     energy   old            =   -1962.1007783699 Ry
     energy   new            =   -1962.1008264723 Ry

     CASE: energy  _new < energy  _old

     new trust radius        =       0.0241101524 bohr
     new conv_thr            =       0.0000001000 Ry

ATOMIC_POSITIONS (crystal)
Sn1      0.166666667   0.166666667   0.392271209    0   0   0
Sn1      0.666666667   0.166666667   0.392271209    0   0   0
Sn1      0.166666667   0.666666667   0.392271209    0   0   0
Sn1      0.666666667   0.666666667   0.392271209    0   0   0
Sn1      0.833333333   0.333333333   0.500000000    0   0   0
Sn1      0.333333333   0.333333333   0.500000000    0   0   0
Sn1      0.833333333   0.833333333   0.500000000    0   0   0
Sn1      0.333333333   0.833333333   0.500000000    0   0   0
Sn1      0.010587644  -0.004373189   0.622407907
Sn1      0.493779108  -0.004372320   0.622407850
Sn1     -0.011310087   0.522616673   0.606502893
Sn1      0.510418996   0.479155377   0.606545698
O1       0.248344412   0.003307393   0.686399823
H1       0.254707806  -0.009421625   0.724521182

     Writing output data file calc.save
     Check: negative starting charge=   -0.001336
     NEW-OLD atomic charge density approx. for the potential
     Check: negative starting charge=   -0.001334

[...]

     Self-consistent Calculation

[...]

     total energy              =   -1962.10085468 Ry
     Harris-Foulkes estimate   =   -1962.10085409 Ry
     estimated scf accuracy    <       0.00000037 Ry

     iteration #  8     ecut=    36.75 Ry     beta=0.30
     Davidson diagonalization with overlap
     ethr =  2.11E-10,  avg # of iterations =  3.0

[...]

     negative rho (up, down):  5.577E-04 0.000E+00

     Adding external electric field

     Computed dipole along edir(3) :
        Dipole                0.1776 Ry au,          0.4514 Debye
        Dipole field          0.0003 Ry au

        Potential amp.       -0.0311 Ry
        Total length         46.9696 bohr

     End of self-consistent calculation

[...]

          k = 0.0496-0.0572 0.0000 ( 25368 PWs)   bands (ev):

[...]

          k =-0.0743-0.0429 0.0000 ( 25386 PWs)   bands (ev):

   -21.2645 -21.1695 -21.1590 -21.1508 -21.1459 -21.1395 -21.1346 -21.1258
   -21.1167 -21.1045 -21.0645 -21.0504 -21.0323 -21.0272 -21.0263 -21.0253
   -21.0224 -21.0190 -21.0135 -21.0104 -21.0048 -21.0026 -21.0002 -20.9945
   -20.9913 -20.9877 -20.9813 -20.9790 -20.9777 -20.9703 -20.9669 -20.9600
   -20.9571 -20.9548 -20.9519 -20.9469 -20.9415 -20.9376 -20.9324 -20.9311
   -20.9293 -20.9269 -20.9247 -20.9196 -20.9188 -20.9171 -20.9136 -20.9107
   -20.9094 -20.9049 -20.9015 -20.9001 -20.8945 -20.8933 -20.8887 -20.8786
   -20.8755 -20.8658 -20.8595 -20.8469 -18.7984  -8.5529  -8.5224  -7.9338
    -7.4252  -6.8688  -6.2745  -6.1841  -5.9662  -5.5210  -5.2339  -4.7495
    -4.2535  -3.8341  -3.0153  -2.4130  -1.2442  -1.1513  -1.0800  -1.0362
    -0.7901  -0.7073   0.0456   0.0989   0.2454   0.3437   1.0409   1.1745
     1.3380   1.5197   1.6207   1.7695   1.9997   2.2007   2.2267   2.2883
     2.4444

     the Fermi energy is     1.0041 ev

!    total energy              =   -1962.10085472 Ry
     Harris-Foulkes estimate   =   -1962.10085506 Ry
     estimated scf accuracy    <       0.00000004 Ry

     The total energy is the sum of the following terms:

     one-electron contribution =  -10382.25975937 Ry
     hartree contribution      =    5258.46625210 Ry
     xc contribution           =    -542.17013344 Ry
     ewald contribution        =    3703.90411938 Ry
     electric field correction =       0.00005878 Ry
     smearing contrib. (-TS)   =      -0.04139218 Ry

     convergence has been achieved in   8 iterations

 BEEF-vdW xc energy contributions
           1 :   -476.184304418233
           2 :    435.516174851844
           3 :   -366.663796368740
           4 :    288.902777414055
           5 :   -220.391794587115
           6 :    171.820173365364
           7 :   -144.089604814245
           8 :    130.463522961074
           9 :   -121.600100551181
          10 :    110.660803868820
          11 :   -95.9994957177959
          12 :    80.4954814366776
          13 :   -68.5226345543257
          14 :    62.6732668382772
          15 :   -62.1725454426312
          16 :    63.6425538936652
          17 :   -63.4024335510125
          18 :    59.6854832027436
          19 :   -53.4341063932440
          20 :    47.3474693794336
          21 :   -43.9571578945942
          22 :    44.0165793404003
          23 :   -46.1742156338049
          24 :    48.0015559699556
          25 :   -47.5996429234038
          26 :    44.7203145372520
          27 :   -40.7479121874881
          28 :    37.6610523169313
          29 :   -36.7276957298560
          30 :    37.7752432245376
          31 :   -41.8141932845647
          32 :   -30.3557540516074

     Forces acting on atoms (Ry/au):

     negative rho (up, down):  5.577E-04 0.000E+00
     atom    1 type  1   force =    -0.00000036   -0.00439902   -0.00278747
     atom    2 type  1   force =     0.00000010    0.00096694    0.00183698
     atom    3 type  1   force =    -0.00011218    0.00149090    0.00217775
     atom    4 type  1   force =     0.00011244    0.00149158    0.00217718
     atom    5 type  1   force =    -0.00048328   -0.00442237   -0.00046479
     atom    6 type  1   force =     0.00048269   -0.00442083   -0.00046438
     atom    7 type  1   force =     0.00000050    0.00257365   -0.00138126
     atom    8 type  1   force =    -0.00000061    0.00656711    0.00123292
     atom    9 type  1   force =     0.00015063    0.00058954   -0.00001452
     atom   10 type  1   force =    -0.00014855    0.00058900   -0.00001487
     atom   11 type  1   force =    -0.00000168   -0.00094543   -0.00068428
     atom   12 type  1   force =     0.00000090   -0.00023994   -0.00155208
     atom   13 type  2   force =    -0.00000128    0.00193525    0.00012132
     atom   14 type  3   force =     0.00000067   -0.00177637   -0.00018249

     Total force =     0.003394     Total SCF correction =     0.000560
     SCF correction compared to forces is large: reduce conv_thr to get better values

     entering subroutine stress ...

     negative rho (up, down):  5.577E-04 0.000E+00
          total   stress  (Ry/bohr**3)                   (kbar)     P=   -0.96
   0.00000386   0.00000000   0.00000000          0.57      0.00      0.00
   0.00000000  -0.00000059   0.00000018          0.00     -0.09      0.03
   0.00000000   0.00000018  -0.00002278          0.00      0.03     -3.35

     bfgs converged in  27 scf cycles and  26 bfgs steps
     (criteria: energy <  1.0E+00, force <  1.9E-03)

     End of BFGS Geometry Optimization

     Final energy   =   -1962.1008547241 Ry
Begin final coordinates

ATOMIC_POSITIONS (crystal)
Sn1      0.166666667   0.166666667   0.392271209    0   0   0
Sn1      0.666666667   0.166666667   0.392271209    0   0   0
Sn1      0.166666667   0.666666667   0.392271209    0   0   0
Sn1      0.666666667   0.666666667   0.392271209    0   0   0
Sn1      0.833333333   0.333333333   0.500000000    0   0   0
Sn1      0.333333333   0.333333333   0.500000000    0   0   0
Sn1      0.833333333   0.833333333   0.500000000    0   0   0
Sn1      0.333333333   0.833333333   0.500000000    0   0   0
Sn1      0.010587644  -0.004373189   0.622407907
Sn1      0.493779108  -0.004372320   0.622407850
Sn1     -0.011310087   0.522616673   0.606502893
Sn1      0.510418996   0.479155377   0.606545698
O1       0.248344412   0.003307393   0.686399823
H1       0.254707806  -0.009421625   0.724521182
End final coordinates

     Writing output data file calc.save

     General routines

     Parallel routines

   This run was terminated on:   5:31:32  23Apr2018

   JOB DONE.