     Program PWSCF v.5.1rc2 (svn rev. 11289) starts on  3May2018 at 18:11:11

     Current dimensions of program PWSCF are:
     Max number of different atomic species (ntypx) = 10
     Max number of k-points (npk) =  40000
     Max angular momentum in pseudopotentials (lmaxx) =  3
     Presently stress not available with electric field

     IMPORTANT: XC functional enforced from input :
     Exchange-correlation      = BEEF-VDW ( 1  4 27 13 2)
     Any further DFT definition will be discarded
     Please, verify this is what you really want

     Subspace diagonalization in iterative solution of the eigenvalue problem:
     a serial algorithm will be used

     bravais-lattice index     =            0
     lattice parameter (alat)  =       1.8897  a.u.
     unit-cell volume          =    5409.9593 (a.u.)^3
     number of atoms/cell      =           13
     number of atomic types    =            2
     number of electrons       =       232.00
     number of Kohn-Sham states=          126
     kinetic-energy cutoff     =      36.7493  Ry
     charge density cutoff     =     367.4932  Ry
     convergence threshold     =      1.0E-05
     mixing beta               =       0.3000
     number of iterations used =           10  plain     mixing
     Exchange-correlation      = BEEF-VDW ( 1  4 27 13 2)
     nstep                     =           50

     celldm(1)=   1.889726  celldm(2)=   0.000000  celldm(3)=   0.000000
     celldm(4)=   0.000000  celldm(5)=   0.000000  celldm(6)=   0.000000

     crystal axes: (cart. coord. in units of alat)
               a(1) = (   6.088539   0.000000   0.000000 )
               a(2) = (   3.044269   5.272829   0.000000 )
               a(3) = (   0.000000   0.000000  24.971271 )

     reciprocal axes: (cart. coord. in units 2 pi/alat)
               b(1) = (  0.164243 -0.094826  0.000000 )
               b(2) = (  0.000000  0.189652  0.000000 )
               b(3) = (  0.000000  0.000000  0.040046 )

     PseudoPot. # 1 for Ga read from file:
     /u/if/mamunm/psp/gbrv1.5pbe/Ga.UPF
     MD5 check sum: ccd671392a58a050fbb373893b4fcd66
     Pseudo is Ultrasoft + core correction, Zval = 19.0
     Generated by new atomic code, or converted to UPF format
     Using radial grid of  871 points,  6 beta functions with:
                l(1) =   0
                l(2) =   0
                l(3) =   1
                l(4) =   1
                l(5) =   2
                l(6) =   2
     Q(r) pseudized with  8 coefficients,  rinner =    1.250   1.250   1.250
                                                       1.250   1.250

     PseudoPot. # 2 for C  read from file:
     /u/if/mamunm/psp/gbrv1.5pbe/C.UPF
     MD5 check sum: d1aef80898a10debaa0f26306b886e00
     Pseudo is Ultrasoft + core correction, Zval =  4.0
     Generated by new atomic code, or converted to UPF format
     Using radial grid of  721 points,  4 beta functions with:
                l(1) =   0
                l(2) =   0
                l(3) =   1
                l(4) =   1
     Q(r) pseudized with  8 coefficients,  rinner =    1.100   1.100   1.100

     vdW kernel table read from file vdW_kernel_table
     MD5 check sum: 095c7af220d748ca6e76c0b4c6cfb241

     atomic species   valence    mass     pseudopotential
        Ga1           19.00    69.72300     Ga( 1.00)
        C1             4.00    12.01100     C ( 1.00)

     No symmetry found

   Cartesian axes

     site n.     atom                  positions (alat units)
         1           Ga1 tau(   1) = (   1.5221346   0.8788048  10.0000000  )
         2           Ga1 tau(   2) = (   4.5664039   0.8788048  10.0000000  )
         3           Ga1 tau(   3) = (   3.0442693   3.5152194  10.0000000  )
         4           Ga1 tau(   4) = (   6.0885386   3.5152194  10.0000000  )
         5           Ga1 tau(   5) = (   6.0885386   1.7576097  12.4856355  )
         6           Ga1 tau(   6) = (   3.0442693   1.7576097  12.4856355  )
         7           Ga1 tau(   7) = (   7.6106732   4.3940242  12.4856355  )
         8           Ga1 tau(   8) = (   4.5664039   4.3940242  12.4856355  )
         9           Ga1 tau(   9) = (   0.0000000   0.0000000  14.9712709  )
        10           Ga1 tau(  10) = (   3.0442693   0.0000000  14.9712709  )
        11           Ga1 tau(  11) = (   1.5221346   2.6364145  14.9712709  )
        12           Ga1 tau(  12) = (   4.5664039   2.6364145  14.9712709  )
        13           C1  tau(  13) = (   3.0442693   1.7576097  16.2582709  )

     number of k points=    20  Fermi-Dirac smearing, width (Ry)=  0.0110
                       cart. coord. in units 2pi/alat
        k(    1) = (   0.0000000   0.0000000   0.0000000), wk =   0.0555556
        k(    2) = (   0.0000000   0.0316086   0.0000000), wk =   0.1111111
        k(    3) = (   0.0000000   0.0632172   0.0000000), wk =   0.1111111
        k(    4) = (   0.0000000  -0.0948258   0.0000000), wk =   0.0555556
        k(    5) = (   0.0273738  -0.0158043   0.0000000), wk =   0.1111111
        k(    6) = (   0.0273738   0.0158043   0.0000000), wk =   0.1111111
        k(    7) = (   0.0273738   0.0474129   0.0000000), wk =   0.1111111
        k(    8) = (   0.0273738  -0.1106300   0.0000000), wk =   0.1111111
        k(    9) = (   0.0273738  -0.0790215   0.0000000), wk =   0.1111111
        k(   10) = (   0.0273738  -0.0474129   0.0000000), wk =   0.1111111
        k(   11) = (   0.0547477  -0.0316086   0.0000000), wk =   0.1111111
        k(   12) = (   0.0547477   0.0000000   0.0000000), wk =   0.1111111
        k(   13) = (   0.0547477   0.0316086   0.0000000), wk =   0.1111111
        k(   14) = (   0.0547477  -0.1264343   0.0000000), wk =   0.1111111
        k(   15) = (   0.0547477  -0.0948258   0.0000000), wk =   0.1111111
        k(   16) = (   0.0547477  -0.0632172   0.0000000), wk =   0.1111111
        k(   17) = (  -0.0821215   0.0474129   0.0000000), wk =   0.0555556
        k(   18) = (  -0.0821215   0.0790215   0.0000000), wk =   0.1111111
        k(   19) = (  -0.0821215   0.1106300   0.0000000), wk =   0.1111111
        k(   20) = (  -0.0821215  -0.0474129   0.0000000), wk =   0.0555556

     Largest allocated arrays     est. size (Mb)     dimensions
     Largest temporary arrays     est. size (Mb)     dimensions

     Initial potential from superposition of free atoms
     Check: negative starting charge=   -0.001203

     starting charge  219.99995, renormalised to  232.00000

     negative rho (up, down):  1.268E-03 0.000E+00

     *
     * You are using vdW-DF for exchange-correlation in this calculation.
     * Please cite the following three references that made this development
     * possible:
     *
     *   M. Dion, H. Rydberg, E. Schroder, D. C. Langreth, and
     *   B. I. Lundqvist, Phys. Rev. Lett. 92, 246401 (2004).
     *
     *   T. Thonhauser, V. R. Cooper, S. Li, A. Puzder, P. Hyldgaard, and
     *   D. C. Langreth, Phys. Rev. B 76, 125112 (2007).
     *
     *   G. Roman-Perez and J. M. Soler, Phys. Rev. Lett. 103, 096102 (2009).
     *
     *
     * If you are using vdW-DF2, please also cite:
     *
     *   K. Lee, E. D. Murray, L. Kong, B. I. Lundqvist, and
     *   D. C. Langreth, Phys. Rev. B 82, 081101(R) (2010).
     *
     *
     * If you are calculating the stress with vdW-DF, please also cite:
     *
     *   R. Sabatini, E. Kucukbenli, B. Kolb, T. Thonhauser, and
     *   S. de Gironcoli, J. Phys.: Condens. Matter 24, 424209 (2012).
     *

     Carrying out vdW-DF run using the following parameters:

     Nqs =      20    Nr_points =    1024   r_max =   100.000
     q_mesh =
               0.00001000     0.04494208     0.09755937     0.15916263
               0.23128650     0.31572767     0.41458969     0.53033537
               0.66584808     0.82450364     1.01025438     1.22772762
               1.48234092     1.78043706     2.12944203     2.53805004
               3.01644009     3.57652955     4.23227104     5.00000000

     Gradients computed in reciprocal space

     Adding external electric field

     Computed dipole along edir(3) :
        Dipole               -1.5552 Ry au,         -3.9529 Debye
        Dipole field         -0.0036 Ry au

        Potential amp.        0.3324 Ry
        Total length         46.0091 bohr

     Starting wfc are  148 randomized atomic wfcs

     Self-consistent Calculation

     iteration #  1     ecut=    36.75 Ry     beta=0.30
     Davidson diagonalization with overlap
     ethr =  1.00E-02,  avg # of iterations =  7.7

[...]

     total energy              =   -4849.99401237 Ry
     Harris-Foulkes estimate   =   -5028.34677948 Ry
     estimated scf accuracy    <     375.81831086 Ry

     iteration #  2     ecut=    36.75 Ry     beta=0.30
     Davidson diagonalization with overlap
     c_bands:  3 eigenvalues not converged
     c_bands:  2 eigenvalues not converged
     ethr =  1.00E-02,  avg # of iterations = 18.8

[...]

     End of self-consistent calculation

          k = 0.0000 0.0000 0.0000 ( 20347 PWs)   bands (ev):

   -95.0614 -95.0439 -95.0439 -95.0432 -95.0272 -95.0272 -95.0221 -95.0200
   -95.0199 -95.0199 -95.0165 -95.0165 -95.0034 -95.0033 -95.0028 -95.0018
   -95.0003 -95.0002 -94.9567 -94.9554 -94.9554 -94.9538 -94.9538 -94.9535
   -94.9437 -94.9434 -94.9434 -94.9431 -94.9426 -94.9426 -94.9394 -94.9394
   -94.9389 -94.8576 -94.8566 -94.8566 -15.4983 -15.4953 -15.4953 -15.4640
   -15.4566 -15.4566 -15.4552 -15.4551 -15.4450 -15.4439 -15.4298 -15.4298
   -15.4175 -15.4095 -15.4003 -15.4003 -15.3942 -15.3942 -15.3842 -15.3808
   -15.3807 -15.3724 -15.3593 -15.3593 -15.3465 -15.3465 -15.3401 -15.3392
   -15.3239 -15.3239 -15.2919 -15.2919 -15.2847 -15.2847 -15.2794 -15.2662
   -15.2600 -15.2599 -15.2492 -15.2492 -15.2254 -15.2109 -15.2109 -15.2097
   -15.2097 -15.2074 -15.2035 -15.2030 -15.2030 -15.1905 -15.1836 -15.1835
   -15.1742 -15.1742 -15.1654 -15.1653 -15.1598 -15.1216 -15.1216 -15.1040
   -10.9648  -9.9487  -8.1731  -6.0953  -5.1998  -5.1998  -5.0382  -4.9938
    -4.9938  -4.6990  -3.9589  -3.9589  -3.5088  -3.0223  -3.0106  -3.0106
    -2.0628  -1.9116  -1.9116  -1.3719  -1.1609  -1.0447  -1.0447   0.8695
     0.8695   1.0693   1.7874   2.7960   2.7960   2.8070

[...]

          k =-0.0821 0.0474 0.0000 ( 20384 PWs)   bands (ev):

[...]

     the Fermi energy is    -0.2703 ev

!    total energy              =   -5010.39628022 Ry
     Harris-Foulkes estimate   =   -5010.39626292 Ry
     estimated scf accuracy    <       0.00000107 Ry

     The total energy is the sum of the following terms:

     one-electron contribution =  -27459.90742208 Ry
     hartree contribution      =   13732.47479362 Ry
     xc contribution           =    -599.94878674 Ry
     ewald contribution        =    9317.01669816 Ry
     electric field correction =       0.00038284 Ry
     smearing contrib. (-TS)   =      -0.03194602 Ry

     convergence has been achieved in  18 iterations

 BEEF-vdW xc energy contributions
           1 :   -536.299135609141
           2 :    486.928005870471
           3 :   -404.124753788738
           4 :    311.929066047161
           5 :   -231.646069998461
           6 :    173.840954424264
           7 :   -136.810051772806
           8 :    111.321481889879
           9 :   -88.0378546220525
          10 :    63.0023112294201
          11 :   -38.4147184742603
          12 :    19.2088746337388
          13 :   -8.48302498425983
          14 :    5.06145687392950
          15 :   -4.52322765718600
          16 :    2.45644114621177
          17 :    2.67402802462470
          18 :   -9.04219543024010
          19 :    13.4147474383371
          20 :   -13.8588509456633
          21 :    11.1616662533131
          22 :   -8.06743083503034
          23 :    7.11290572770440
          24 :   -8.79906555597063
          25 :    11.4312981364949
          26 :   -12.6154629721955
          27 :    11.1636394656229
          28 :   -7.95315070844902
          29 :    5.16575856642748
          30 :   -4.58422755669039
          31 :   -39.6739482944965
          32 :   -26.9717512458379

     Forces acting on atoms (Ry/au):

     negative rho (up, down):  1.020E-03 0.000E+00
     atom    1 type  1   force =     0.00001877   -0.00000283   -0.00349666
     atom    2 type  1   force =    -0.00001919    0.00001249   -0.00349565
     atom    3 type  1   force =     0.00001104   -0.00001502   -0.00348672
     atom    4 type  1   force =    -0.00001663    0.00000156    0.00000460
     atom    5 type  1   force =    -0.00000408    0.00052465    0.00429247
     atom    6 type  1   force =     0.00000442   -0.00000417    0.00446644
     atom    7 type  1   force =    -0.00045793   -0.00025951    0.00438579
     atom    8 type  1   force =     0.00046375   -0.00026264    0.00432325
     atom    9 type  1   force =    -0.00000128   -0.00000113    0.00063268
     atom   10 type  1   force =     0.00000254    0.00409076    0.02370574
     atom   11 type  1   force =     0.00353841   -0.00204121    0.02370436
     atom   12 type  1   force =    -0.00353969   -0.00204297    0.02368659
     atom   13 type  2   force =    -0.00000014    0.00000002   -0.07872289

     Total force =     0.089066     Total SCF correction =     0.002574

     entering subroutine stress ...

     negative rho (up, down):  1.020E-03 0.000E+00
          total   stress  (Ry/bohr**3)                   (kbar)     P=   -8.36
  -0.00006612  -0.00000000  -0.00000000         -9.73     -0.00     -0.00
  -0.00000000  -0.00006611  -0.00000000         -0.00     -9.73     -0.00
  -0.00000000  -0.00000000  -0.00003834         -0.00     -0.00     -5.64

     BFGS Geometry Optimization

     number of scf cycles    =   1
     number of bfgs steps    =   0

     energy   new            =   -5010.3962802240 Ry

     new trust radius        =       0.0787228914 bohr
     new conv_thr            =       0.0000099958 Ry

ATOMIC_POSITIONS (crystal)
Ga1      0.166666667   0.166666667   0.400460194    0   0   0
Ga1      0.666666667   0.166666667   0.400460194    0   0   0
Ga1      0.166666667   0.666666667   0.400460194    0   0   0
Ga1      0.666666667   0.666666667   0.400460194    0   0   0
Ga1      0.833333333   0.333333333   0.500000000    0   0   0
Ga1      0.333333333   0.333333333   0.500000000    0   0   0
Ga1      0.833333333   0.833333333   0.500000000    0   0   0
Ga1      0.333333333   0.833333333   0.500000000    0   0   0
Ga1     -0.000000054  -0.000000114   0.599553213
Ga1      0.499794948   0.000410546   0.600042165
Ga1      0.000409963   0.499795146   0.600042135
Ga1      0.499794868   0.499794969   0.600041759
C1       0.333333321   0.333333335   0.649410781

     Writing output data file calc.save
     Check: negative starting charge=   -0.001203
     NEW-OLD atomic charge density approx. for the potential
     Check: negative starting charge=   -0.001192

[...]

     energy   old            =   -5010.3962802240 Ry
     energy   new            =   -5010.4037689600 Ry

     CASE: energy  _new < energy  _old

     WARNING: bfgs curvature condition failed, Theta= 0.900
     new trust radius        =       0.0865951805 bohr
     new conv_thr            =       0.0000001000 Ry

[...]

     iteration #  1     ecut=    36.75 Ry     beta=0.30
     Davidson diagonalization with overlap
     c_bands:  1 eigenvalues not converged
     ethr =  1.00E-06,  avg # of iterations =  9.4

[...]

     CASE: energy  _new > energy  _old

[...]

     Total force =     0.006542     Total SCF correction =     0.000546

[...]

     Total force =     0.003138     Total SCF correction =     0.000631
     SCF correction compared to forces is large: reduce conv_thr to get better values

[...]

     Threshold (ethr) on eigenvalues was too large:
     Diagonalizing with lowered threshold

     Davidson diagonalization with overlap
     ethr =  3.45E-09,  avg # of iterations =  3.6

[...]

     WARNING: bfgs curvature condition failed, Theta= 0.006
     new trust radius        =       0.0062014538 bohr
     new conv_thr            =       0.0000001000 Ry

[...]

     number of scf cycles    =  31
     number of bfgs steps    =  29

     energy   old            =   -5010.4797880373 Ry
     energy   new            =   -5010.4798021599 Ry

     CASE: energy  _new < energy  _old

     new trust radius        =       0.0093021807 bohr
     new conv_thr            =       0.0000001000 Ry

ATOMIC_POSITIONS (crystal)
Ga1      0.166666667   0.166666667   0.400460194    0   0   0
Ga1      0.666666667   0.166666667   0.400460194    0   0   0
Ga1      0.166666667   0.666666667   0.400460194    0   0   0
Ga1      0.666666667   0.666666667   0.400460194    0   0   0
Ga1      0.833333333   0.333333333   0.500000000    0   0   0
Ga1      0.333333333   0.333333333   0.500000000    0   0   0
Ga1      0.833333333   0.833333333   0.500000000    0   0   0
Ga1      0.333333333   0.833333333   0.500000000    0   0   0
Ga1     -0.000001214   0.000000903   0.601053265
Ga1      0.520959325  -0.041916562   0.598394500
Ga1     -0.041926438   0.520965809   0.598390649
Ga1      0.520963094   0.520969253   0.598390418
C1       0.333334213   0.333335791   0.586035515

     Writing output data file calc.save
     Check: negative starting charge=   -0.001359
     NEW-OLD atomic charge density approx. for the potential
     Check: negative starting charge=   -0.001358

[...]

     Self-consistent Calculation

[...]

     Threshold (ethr) on eigenvalues was too large:
     Diagonalizing with lowered threshold

     Davidson diagonalization with overlap
     ethr =  6.45E-08,  avg # of iterations =  1.2

[...]

     total energy              =   -5010.47981995 Ry
     Harris-Foulkes estimate   =   -5010.47981994 Ry
     estimated scf accuracy    <       0.00000013 Ry

     iteration #  6     ecut=    36.75 Ry     beta=0.30
     Davidson diagonalization with overlap
     ethr =  5.68E-11,  avg # of iterations =  2.0

[...]

     negative rho (up, down):  1.038E-03 0.000E+00

     Adding external electric field

     Computed dipole along edir(3) :
        Dipole                0.0383 Ry au,          0.0973 Debye
        Dipole field          0.0001 Ry au

        Potential amp.       -0.0082 Ry
        Total length         46.0091 bohr

     End of self-consistent calculation

[...]

          k = 0.0547-0.0632 0.0000 ( 20377 PWs)   bands (ev):

[...]

          k =-0.0821-0.0474 0.0000 ( 20384 PWs)   bands (ev):

   -94.6476 -94.6470 -94.6470 -94.6234 -94.6234 -94.6209 -94.5520 -94.5520
   -94.5490 -94.5429 -94.5428 -94.5422 -94.4369 -94.4368 -94.4368 -94.4211
   -94.4211 -94.4166 -94.4161 -94.4156 -94.4096 -94.4094 -94.4092 -94.3694
   -94.3689 -94.3684 -94.3649 -94.3647 -94.3645 -94.3581 -94.3581 -94.3580
   -94.3517 -94.3352 -94.3205 -94.3205 -15.2670 -15.1012 -15.0672 -15.0571
   -15.0530 -15.0325 -15.0202 -15.0156 -14.9656 -14.9621 -14.9430 -14.9320
   -14.9079 -14.8916 -14.8854 -14.8780 -14.8690 -14.8582 -14.8570 -14.8537
   -14.8329 -14.8180 -14.8087 -14.8050 -14.8022 -14.8002 -14.7890 -14.7815
   -14.7790 -14.7783 -14.7656 -14.7618 -14.7575 -14.7515 -14.7482 -14.7384
   -14.7343 -14.7263 -14.7150 -14.7064 -14.7053 -14.7034 -14.6930 -14.6866
   -14.6782 -14.6775 -14.6757 -14.6669 -14.6647 -14.6576 -14.6528 -14.6399
   -14.6341 -14.6334 -14.6286 -14.6208 -14.6122 -14.6021 -14.5843 -14.5795
   -11.1972  -8.8617  -7.9369  -7.4400  -6.4982  -6.3236  -5.4594  -5.0782
    -4.8827  -4.7882  -3.0084  -2.9042  -2.8298  -2.0175  -1.2617  -1.0405
    -0.8668   0.1230   0.1771   0.6260   0.8338   1.0093   1.4285   1.6602
     1.7909   2.0285   2.2121   2.4057   2.9372   3.1981

     the Fermi energy is     0.3841 ev

!    total energy              =   -5010.47982074 Ry
     Harris-Foulkes estimate   =   -5010.47982000 Ry
     estimated scf accuracy    <       0.00000002 Ry

     The total energy is the sum of the following terms:

     one-electron contribution =  -27852.33370444 Ry
     hartree contribution      =   13932.62805601 Ry
     xc contribution           =    -600.32769168 Ry
     ewald contribution        =    9509.58442327 Ry
     electric field correction =       0.00000340 Ry
     smearing contrib. (-TS)   =      -0.03090731 Ry

     convergence has been achieved in   6 iterations

 BEEF-vdW xc energy contributions
           1 :   -536.685151055641
           2 :    487.438695733382
           3 :   -404.748112198360
           4 :    312.520086661730
           5 :   -232.033628645967
           6 :    173.934039373489
           7 :   -136.645524210345
           8 :    111.036900633103
           9 :   -87.7911571476034
          10 :    62.8877880986799
          11 :   -38.4244244393349
          12 :    19.2595139074140
          13 :   -8.48665309785724
          14 :    4.98891207055703
          15 :   -4.41562021075788
          16 :    2.38138898947318
          17 :    2.68041789397694
          18 :   -9.00032795930133
          19 :    13.3777367642642
          20 :   -13.8622133467732
          21 :    11.1883007230027
          22 :   -8.05834811868408
          23 :    7.01777689525647
          24 :   -8.62661478177756
          25 :    11.2570627407208
          26 :   -12.5354540614060
          27 :    11.2245117534376
          28 :   -8.11000205473670
          29 :    5.30106044163927
          30 :   -4.57789756750572
          31 :   -39.7030183884594
          32 :   -27.0249917032214

     Forces acting on atoms (Ry/au):

     negative rho (up, down):  1.038E-03 0.000E+00
     atom    1 type  1   force =    -0.00115050   -0.00066419    0.00679745
     atom    2 type  1   force =     0.00115041   -0.00066436    0.00679749
     atom    3 type  1   force =    -0.00000020    0.00132848    0.00679753
     atom    4 type  1   force =     0.00000008   -0.00000013    0.00106947
     atom    5 type  1   force =     0.00000018   -0.00175195   -0.00828957
     atom    6 type  1   force =     0.00000016   -0.00000113    0.00230738
     atom    7 type  1   force =     0.00151652    0.00087622   -0.00828814
     atom    8 type  1   force =    -0.00151663    0.00087663   -0.00828775
     atom    9 type  1   force =     0.00000171    0.00000128    0.00191066
     atom   10 type  1   force =    -0.00000006    0.00041019   -0.00010522
     atom   11 type  1   force =     0.00036392   -0.00020966   -0.00010450
     atom   12 type  1   force =    -0.00036711   -0.00021113   -0.00010504
     atom   13 type  2   force =     0.00000151    0.00000972   -0.00049977

     Total force =     0.002111     Total SCF correction =     0.000556
     SCF correction compared to forces is large: reduce conv_thr to get better values

     entering subroutine stress ...

     negative rho (up, down):  1.038E-03 0.000E+00
          total   stress  (Ry/bohr**3)                   (kbar)     P=   -3.10
  -0.00001968  -0.00000000  -0.00000000         -2.90     -0.00     -0.00
  -0.00000000  -0.00001967  -0.00000000         -0.00     -2.89     -0.00
  -0.00000000  -0.00000000  -0.00002383         -0.00     -0.00     -3.51

     bfgs converged in  32 scf cycles and  30 bfgs steps
     (criteria: energy <  1.0E+00, force <  1.9E-03)

     End of BFGS Geometry Optimization

     Final energy   =   -5010.4798207377 Ry
Begin final coordinates

ATOMIC_POSITIONS (crystal)
Ga1      0.166666667   0.166666667   0.400460194    0   0   0
Ga1      0.666666667   0.166666667   0.400460194    0   0   0
Ga1      0.166666667   0.666666667   0.400460194    0   0   0
Ga1      0.666666667   0.666666667   0.400460194    0   0   0
Ga1      0.833333333   0.333333333   0.500000000    0   0   0
Ga1      0.333333333   0.333333333   0.500000000    0   0   0
Ga1      0.833333333   0.833333333   0.500000000    0   0   0
Ga1      0.333333333   0.833333333   0.500000000    0   0   0
Ga1     -0.000001214   0.000000903   0.601053265
Ga1      0.520959325  -0.041916562   0.598394500
Ga1     -0.041926438   0.520965809   0.598390649
Ga1      0.520963094   0.520969253   0.598390418
C1       0.333334213   0.333335791   0.586035515
End final coordinates

     Writing output data file calc.save

     General routines

     Parallel routines

   This run was terminated on:  21:34:15   3May2018

   JOB DONE.
Job  /afs/slac/g/suncat/bin/suncat-tsmpirun -x LD_LIBRARY_PATH -wdir /scratch/qe800013_5sGFO pw.x -npool 4 -in pw.inp

TID   HOST_NAME   COMMAND_LINE            STATUS            TERMINATION_TIME
00000 suncat0087 pw.x -npool 4 -i  Done                     05/03/2018 21:34:15
00001 suncat0087 pw.x -npool 4 -i  Done                     05/03/2018 21:34:15
00002 suncat0087 pw.x -npool 4 -i  Done                     05/03/2018 21:34:15
00003 suncat0087 pw.x -npool 4 -i  Done                     05/03/2018 21:34:15
00004 suncat0087 pw.x -npool 4 -i  Done                     05/03/2018 21:34:15
00005 suncat0087 pw.x -npool 4 -i  Done                     05/03/2018 21:34:15
00006 suncat0087 pw.x -npool 4 -i  Done                     05/03/2018 21:34:15
00007 suncat0087 pw.x -npool 4 -i  Done                     05/03/2018 21:34:15
00008 suncat0283 pw.x -npool 4 -i  Done                     05/03/2018 21:34:15
00009 suncat0283 pw.x -npool 4 -i  Done                     05/03/2018 21:34:15
00010 suncat0283 pw.x -npool 4 -i  Done                     05/03/2018 21:34:15
00011 suncat0283 pw.x -npool 4 -i  Done                     05/03/2018 21:34:15
00012 suncat0283 pw.x -npool 4 -i  Done                     05/03/2018 21:34:15
00013 suncat0283 pw.x -npool 4 -i  Done                     05/03/2018 21:34:15
00014 suncat0283 pw.x -npool 4 -i  Done                     05/03/2018 21:34:15
00015 suncat0283 pw.x -npool 4 -i  Done                     05/03/2018 21:34:15
00016 suncat0268 pw.x -npool 4 -i  Done                     05/03/2018 21:34:15
00017 suncat0268 pw.x -npool 4 -i  Done                     05/03/2018 21:34:15
00018 suncat0268 pw.x -npool 4 -i  Done                     05/03/2018 21:34:15
00019 suncat0268 pw.x -npool 4 -i  Done                     05/03/2018 21:34:15
00020 suncat0268 pw.x -npool 4 -i  Done                     05/03/2018 21:34:15
00021 suncat0268 pw.x -npool 4 -i  Done                     05/03/2018 21:34:15
00022 suncat0268 pw.x -npool 4 -i  Done                     05/03/2018 21:34:15
00023 suncat0268 pw.x -npool 4 -i  Done                     05/03/2018 21:34:15
00024 suncat0253 pw.x -npool 4 -i  Done                     05/03/2018 21:34:15
00025 suncat0253 pw.x -npool 4 -i  Done                     05/03/2018 21:34:15
00026 suncat0253 pw.x -npool 4 -i  Done                     05/03/2018 21:34:15
00027 suncat0253 pw.x -npool 4 -i  Done                     05/03/2018 21:34:15
00028 suncat0253 pw.x -npool 4 -i  Done                     05/03/2018 21:34:15
00029 suncat0253 pw.x -npool 4 -i  Done                     05/03/2018 21:34:15
00030 suncat0253 pw.x -npool 4 -i  Done                     05/03/2018 21:34:15
00031 suncat0253 pw.x -npool 4 -i  Done                     05/03/2018 21:34:15