     Program PWSCF v.5.1rc2 (svn rev. 11289) starts on 17Jan2018 at 17:36: 8

     Current dimensions of program PWSCF are:
     Max number of different atomic species (ntypx) = 10
     Max number of k-points (npk) =  40000
     Max angular momentum in pseudopotentials (lmaxx) =  3
     Presently stress not available with electric field

     IMPORTANT: XC functional enforced from input :
     Exchange-correlation      = BEEF-VDW ( 1  4 27 13 2)
     Any further DFT definition will be discarded
     Please, verify this is what you really want

     Subspace diagonalization in iterative solution of the eigenvalue problem:
     a serial algorithm will be used

     bravais-lattice index     =            0
     lattice parameter (alat)  =       1.8897  a.u.
     unit-cell volume          =    6501.5726 (a.u.)^3
     number of atoms/cell      =           13
     number of atomic types    =            2
     number of electrons       =       161.00
     number of Kohn-Sham states=           90
     kinetic-energy cutoff     =      36.7493  Ry
     charge density cutoff     =     367.4932  Ry
     convergence threshold     =      1.0E-05
     mixing beta               =       0.3000
     number of iterations used =           10  plain     mixing
     Exchange-correlation      = BEEF-VDW ( 1  4 27 13 2)
     nstep                     =           50

     celldm(1)=   1.889726  celldm(2)=   0.000000  celldm(3)=   0.000000
     celldm(4)=   0.000000  celldm(5)=   0.000000  celldm(6)=   0.000000

     crystal axes: (cart. coord. in units of alat)
               a(1) = (   6.617606   0.000000   0.000000 )
               a(2) = (   3.308803   5.731015   0.000000 )
               a(3) = (   0.000000   0.000000  25.403253 )

     reciprocal axes: (cart. coord. in units 2 pi/alat)
               b(1) = (  0.151112 -0.087245  0.000000 )
               b(2) = (  0.000000  0.174489  0.000000 )
               b(3) = (  0.000000  0.000000  0.039365 )

     PseudoPot. # 1 for In read from file:
     /afs/slac.stanford.edu/u/if/mamunm/psp/gbrv1.5pbe/In.UPF
     MD5 check sum: 90777abd96fbb83f2e67db2a40c566b9
     Pseudo is Ultrasoft + core correction, Zval = 13.0
     Generated by new atomic code, or converted to UPF format
     Using radial grid of  889 points,  6 beta functions with:
                l(1) =   0
                l(2) =   0
                l(3) =   1
                l(4) =   1
                l(5) =   2
                l(6) =   2
     Q(r) pseudized with  6 coefficients,  rinner =    1.400   1.400   1.400
                                                       1.400   1.400

     PseudoPot. # 2 for N  read from file:
     /afs/slac.stanford.edu/u/if/mamunm/psp/gbrv1.5pbe/N.UPF
     MD5 check sum: 95339753478d7afb44899504a8723017
     Pseudo is Ultrasoft + core correction, Zval =  5.0
     Generated by new atomic code, or converted to UPF format
     Using radial grid of  729 points,  4 beta functions with:
                l(1) =   0
                l(2) =   0
                l(3) =   1
                l(4) =   1
     Q(r) pseudized with  8 coefficients,  rinner =    0.900   0.900   0.900

     vdW kernel table read from file vdW_kernel_table
     MD5 check sum: 095c7af220d748ca6e76c0b4c6cfb241

     atomic species   valence    mass     pseudopotential
        In1           13.00   114.81800     In( 1.00)
        N1             5.00    14.00700     N ( 1.00)

     No symmetry found

   Cartesian axes

     site n.     atom                  positions (alat units)
         1           In1 tau(   1) = (   1.6544016   0.9551692  10.0000000  )
         2           In1 tau(   2) = (   4.9632047   0.9551692  10.0000000  )
         3           In1 tau(   3) = (   3.3088031   3.8206768  10.0000000  )
         4           In1 tau(   4) = (   6.6176063   3.8206768  10.0000000  )
         5           In1 tau(   5) = (   6.6176063   1.9103384  12.7016265  )
         6           In1 tau(   6) = (   3.3088031   1.9103384  12.7016265  )
         7           In1 tau(   7) = (   8.2720078   4.7758460  12.7016265  )
         8           In1 tau(   8) = (   4.9632047   4.7758460  12.7016265  )
         9           In1 tau(   9) = (   0.0000000   0.0000000  15.4032529  )
        10           In1 tau(  10) = (   3.3088031   0.0000000  15.4032529  )
        11           In1 tau(  11) = (   1.6544016   2.8655076  15.4032529  )
        12           In1 tau(  12) = (   4.9632047   2.8655076  15.4032529  )
        13           N1  tau(  13) = (   3.3088031   1.9103384  17.5332529  )

     number of k points=    20  Fermi-Dirac smearing, width (Ry)=  0.0110
                       cart. coord. in units 2pi/alat
        k(    1) = (   0.0000000   0.0000000   0.0000000), wk =   0.0555556
        k(    2) = (   0.0000000   0.0290815   0.0000000), wk =   0.1111111
        k(    3) = (   0.0000000   0.0581631   0.0000000), wk =   0.1111111
        k(    4) = (   0.0000000  -0.0872446   0.0000000), wk =   0.0555556
        k(    5) = (   0.0251853  -0.0145408   0.0000000), wk =   0.1111111
        k(    6) = (   0.0251853   0.0145408   0.0000000), wk =   0.1111111
        k(    7) = (   0.0251853   0.0436223   0.0000000), wk =   0.1111111
        k(    8) = (   0.0251853  -0.1017853   0.0000000), wk =   0.1111111
        k(    9) = (   0.0251853  -0.0727038   0.0000000), wk =   0.1111111
        k(   10) = (   0.0251853  -0.0436223   0.0000000), wk =   0.1111111
        k(   11) = (   0.0503707  -0.0290815   0.0000000), wk =   0.1111111
        k(   12) = (   0.0503707   0.0000000   0.0000000), wk =   0.1111111
        k(   13) = (   0.0503707   0.0290815   0.0000000), wk =   0.1111111
        k(   14) = (   0.0503707  -0.1163261   0.0000000), wk =   0.1111111
        k(   15) = (   0.0503707  -0.0872446   0.0000000), wk =   0.1111111
        k(   16) = (   0.0503707  -0.0581631   0.0000000), wk =   0.1111111
        k(   17) = (  -0.0755560   0.0436223   0.0000000), wk =   0.0555556
        k(   18) = (  -0.0755560   0.0727038   0.0000000), wk =   0.1111111
        k(   19) = (  -0.0755560   0.1017853   0.0000000), wk =   0.1111111
        k(   20) = (  -0.0755560  -0.0436223   0.0000000), wk =   0.0555556

     Largest allocated arrays     est. size (Mb)     dimensions
     Largest temporary arrays     est. size (Mb)     dimensions

     Initial potential from superposition of free atoms
     Check: negative starting charge=   -0.000172

     starting charge  142.99999, renormalised to  161.00000

     negative rho (up, down):  1.942E-04 0.000E+00

     *
     * You are using vdW-DF for exchange-correlation in this calculation.
     * Please cite the following three references that made this development
     * possible:
     *
     *   M. Dion, H. Rydberg, E. Schroder, D. C. Langreth, and
     *   B. I. Lundqvist, Phys. Rev. Lett. 92, 246401 (2004).
     *
     *   T. Thonhauser, V. R. Cooper, S. Li, A. Puzder, P. Hyldgaard, and
     *   D. C. Langreth, Phys. Rev. B 76, 125112 (2007).
     *
     *   G. Roman-Perez and J. M. Soler, Phys. Rev. Lett. 103, 096102 (2009).
     *
     *
     * If you are using vdW-DF2, please also cite:
     *
     *   K. Lee, E. D. Murray, L. Kong, B. I. Lundqvist, and
     *   D. C. Langreth, Phys. Rev. B 82, 081101(R) (2010).
     *
     *
     * If you are calculating the stress with vdW-DF, please also cite:
     *
     *   R. Sabatini, E. Kucukbenli, B. Kolb, T. Thonhauser, and
     *   S. de Gironcoli, J. Phys.: Condens. Matter 24, 424209 (2012).
     *

     Carrying out vdW-DF run using the following parameters:

     Nqs =      20    Nr_points =    1024   r_max =   100.000
     q_mesh =
               0.00001000     0.04494208     0.09755937     0.15916263
               0.23128650     0.31572767     0.41458969     0.53033537
               0.66584808     0.82450364     1.01025438     1.22772762
               1.48234092     1.78043706     2.12944203     2.53805004
               3.01644009     3.57652955     4.23227104     5.00000000

     Gradients computed in reciprocal space

     Adding external electric field

     Computed dipole along edir(3) :
        Dipole               -5.7464 Ry au,        -14.6058 Debye
        Dipole field         -0.0111 Ry au

        Potential amp.        1.0397 Ry
        Total length         46.8051 bohr

     Starting wfc are  112 randomized atomic wfcs

     Self-consistent Calculation

     iteration #  1     ecut=    36.75 Ry     beta=0.30
     Davidson diagonalization with overlap
     ethr =  1.00E-02,  avg # of iterations =  8.0

[...]

     total energy              =   -1337.47908469 Ry
     Harris-Foulkes estimate   =   -1637.75175583 Ry
     estimated scf accuracy    <     645.18561046 Ry

     iteration #  2     ecut=    36.75 Ry     beta=0.30
     Davidson diagonalization with overlap
     c_bands:  5 eigenvalues not converged
     c_bands:  1 eigenvalues not converged
     c_bands:  2 eigenvalues not converged
     c_bands:  2 eigenvalues not converged
     c_bands:  2 eigenvalues not converged
     c_bands:  4 eigenvalues not converged
     c_bands:  4 eigenvalues not converged
     ethr =  1.00E-02,  avg # of iterations = 21.1

[...]

     End of self-consistent calculation

          k = 0.0000 0.0000 0.0000 ( 24345 PWs)   bands (ev):

   -15.2577 -15.2572 -15.2572 -15.1669 -15.1669 -15.1598 -15.1507 -15.1507
   -15.1470 -15.1415 -15.1023 -15.1023 -15.1020 -15.0960 -15.0790 -15.0790
   -15.0638 -15.0638 -15.0629 -15.0387 -15.0387 -15.0260 -15.0260 -15.0177
   -15.0068 -15.0068 -15.0034 -14.9772 -14.9772 -14.9737 -14.9058 -14.9058
   -14.8771 -14.8771 -14.8622 -14.8475 -14.8320 -14.8320 -14.8230 -14.8230
   -14.7969 -14.7969 -14.7871 -14.7782 -14.7782 -14.7716 -14.7578 -14.7578
   -14.7529 -14.7454 -14.7377 -14.7377 -14.7269 -14.7269 -14.7168 -14.6981
   -14.6981 -14.6638 -14.6638 -14.6499 -11.7119  -9.2582  -7.8141  -5.6740
    -4.4341  -4.4312  -4.4312  -4.1477  -4.1434  -4.1434  -2.9188  -2.9188
    -2.8709  -2.6573  -2.6250  -2.6250  -2.1482  -1.2617  -1.2617  -1.1012
    -0.9622  -0.7386  -0.7386   0.0980   0.0980   0.3803   1.2010   2.6420
     2.6420   2.7095

[...]

          k =-0.0756 0.0436 0.0000 ( 24448 PWs)   bands (ev):

[...]

     the Fermi energy is    -0.0782 ev

!    total energy              =   -1637.30967706 Ry
     Harris-Foulkes estimate   =   -1637.30975753 Ry
     estimated scf accuracy    <       0.00000774 Ry

     The total energy is the sum of the following terms:

     one-electron contribution =   -9336.64838133 Ry
     hartree contribution      =    4746.79302482 Ry
     xc contribution           =    -474.69300224 Ry
     ewald contribution        =    3427.28472391 Ry
     electric field correction =       0.00123688 Ry
     smearing contrib. (-TS)   =      -0.04727911 Ry

     convergence has been achieved in  21 iterations

 BEEF-vdW xc energy contributions
           1 :   -415.687156389319
           2 :    379.731791273019
           3 :   -319.113236444768
           4 :    250.962719526124
           5 :   -190.838213680505
           6 :    147.106090563435
           7 :   -119.406998883783
           8 :    101.307748291649
           9 :   -85.2071117503330
[...]

   This run was terminated on:  18: 9:29  17Jan2018

[...]

     Program PWSCF v.5.1rc2 (svn rev. 11289) starts on 17Jan2018 at 18: 9:34

[...]

     Total force =     0.076225     Total SCF correction =     0.011457
     SCF correction compared to forces is large: reduce conv_thr to get better values

[...]

     Total force =     0.040425     Total SCF correction =     0.009493
     SCF correction compared to forces is large: reduce conv_thr to get better values

[...]

     Program PWSCF v.5.1rc2 (svn rev. 11289) starts on 17Jan2018 at 19:12:34

     Current dimensions of program PWSCF are:
     Max number of different atomic species (ntypx) = 10
     Max number of k-points (npk) =  40000
     Max angular momentum in pseudopotentials (lmaxx) =  3
     Presently stress not available with electric field

     IMPORTANT: XC functional enforced from input :
     Exchange-correlation      = BEEF-VDW ( 1  4 27 13 2)
     Any further DFT definition will be discarded
     Please, verify this is what you really want

     Subspace diagonalization in iterative solution of the eigenvalue problem:
     a serial algorithm will be used

     bravais-lattice index     =            0
     lattice parameter (alat)  =       1.8897  a.u.
     unit-cell volume          =    6501.5726 (a.u.)^3
     number of atoms/cell      =           13
     number of atomic types    =            2
     number of electrons       =       161.00
     number of Kohn-Sham states=           90
     kinetic-energy cutoff     =      36.7493  Ry
     charge density cutoff     =     367.4932  Ry
     convergence threshold     =      1.0E-05
     mixing beta               =       0.3000
     number of iterations used =           10  plain     mixing
     Exchange-correlation      = BEEF-VDW ( 1  4 27 13 2)
     nstep                     =           50

     celldm(1)=   1.889726  celldm(2)=   0.000000  celldm(3)=   0.000000
     celldm(4)=   0.000000  celldm(5)=   0.000000  celldm(6)=   0.000000

     crystal axes: (cart. coord. in units of alat)
               a(1) = (   6.617606   0.000000   0.000000 )
               a(2) = (   3.308803   5.731015   0.000000 )
               a(3) = (   0.000000   0.000000  25.403253 )

     reciprocal axes: (cart. coord. in units 2 pi/alat)
               b(1) = (  0.151112 -0.087245  0.000000 )
               b(2) = (  0.000000  0.174489  0.000000 )
               b(3) = (  0.000000  0.000000  0.039365 )

     PseudoPot. # 1 for In read from file:
     /afs/slac.stanford.edu/u/if/mamunm/psp/gbrv1.5pbe/In.UPF
     MD5 check sum: 90777abd96fbb83f2e67db2a40c566b9
     Pseudo is Ultrasoft + core correction, Zval = 13.0
     Generated by new atomic code, or converted to UPF format
     Using radial grid of  889 points,  6 beta functions with:
                l(1) =   0
                l(2) =   0
                l(3) =   1
                l(4) =   1
                l(5) =   2
                l(6) =   2
     Q(r) pseudized with  6 coefficients,  rinner =    1.400   1.400   1.400
                                                       1.400   1.400

     PseudoPot. # 2 for N  read from file:
     /afs/slac.stanford.edu/u/if/mamunm/psp/gbrv1.5pbe/N.UPF
     MD5 check sum: 95339753478d7afb44899504a8723017
     Pseudo is Ultrasoft + core correction, Zval =  5.0
     Generated by new atomic code, or converted to UPF format
     Using radial grid of  729 points,  4 beta functions with:
                l(1) =   0
                l(2) =   0
                l(3) =   1
                l(4) =   1
     Q(r) pseudized with  8 coefficients,  rinner =    0.900   0.900   0.900

     vdW kernel table read from file vdW_kernel_table
     MD5 check sum: 095c7af220d748ca6e76c0b4c6cfb241

     atomic species   valence    mass     pseudopotential
        In1           13.00   114.81800     In( 1.00)
        N1             5.00    14.00700     N ( 1.00)

     No symmetry found

   Cartesian axes

     site n.     atom                  positions (alat units)
         1           In1 tau(   1) = (   1.6544016   0.9551692  10.0000000  )
         2           In1 tau(   2) = (   4.9632047   0.9551692  10.0000000  )
         3           In1 tau(   3) = (   3.3088031   3.8206768  10.0000000  )
         4           In1 tau(   4) = (   6.6176063   3.8206768  10.0000000  )
         5           In1 tau(   5) = (   6.6176063   1.9103384  12.7016265  )
         6           In1 tau(   6) = (   3.3088031   1.9103384  12.7016265  )
         7           In1 tau(   7) = (   8.2720078   4.7758460  12.7016265  )
         8           In1 tau(   8) = (   4.9632047   4.7758460  12.7016265  )
         9           In1 tau(   9) = (   0.0000114   0.0000159  15.5043830  )
        10           In1 tau(  10) = (   6.6175894   5.6208521  15.7935818  )
        11           In1 tau(  11) = (   8.1765727   2.9206138  15.7936244  )
        12           In1 tau(  12) = (   5.0586432   2.9206187  15.7936181  )
        13           N1  tau(  13) = (   3.3087882   1.9103289  16.4779625  )

     number of k points=    20  Fermi-Dirac smearing, width (Ry)=  0.0110
                       cart. coord. in units 2pi/alat
        k(    1) = (   0.0000000   0.0000000   0.0000000), wk =   0.0555556
        k(    2) = (   0.0000000   0.0290815   0.0000000), wk =   0.1111111
        k(    3) = (   0.0000000   0.0581631   0.0000000), wk =   0.1111111
        k(    4) = (   0.0000000  -0.0872446   0.0000000), wk =   0.0555556
        k(    5) = (   0.0251853  -0.0145408   0.0000000), wk =   0.1111111
        k(    6) = (   0.0251853   0.0145408   0.0000000), wk =   0.1111111
        k(    7) = (   0.0251853   0.0436223   0.0000000), wk =   0.1111111
        k(    8) = (   0.0251853  -0.1017853   0.0000000), wk =   0.1111111
        k(    9) = (   0.0251853  -0.0727038   0.0000000), wk =   0.1111111
        k(   10) = (   0.0251853  -0.0436223   0.0000000), wk =   0.1111111
        k(   11) = (   0.0503707  -0.0290815   0.0000000), wk =   0.1111111
        k(   12) = (   0.0503707   0.0000000   0.0000000), wk =   0.1111111
        k(   13) = (   0.0503707   0.0290815   0.0000000), wk =   0.1111111
        k(   14) = (   0.0503707  -0.1163261   0.0000000), wk =   0.1111111
        k(   15) = (   0.0503707  -0.0872446   0.0000000), wk =   0.1111111
        k(   16) = (   0.0503707  -0.0581631   0.0000000), wk =   0.1111111
        k(   17) = (  -0.0755560   0.0436223   0.0000000), wk =   0.0555556
        k(   18) = (  -0.0755560   0.0727038   0.0000000), wk =   0.1111111
        k(   19) = (  -0.0755560   0.1017853   0.0000000), wk =   0.1111111
        k(   20) = (  -0.0755560  -0.0436223   0.0000000), wk =   0.0555556

     Largest allocated arrays     est. size (Mb)     dimensions
     Largest temporary arrays     est. size (Mb)     dimensions

     Initial potential from superposition of free atoms
     Check: negative starting charge=   -0.000193

     starting charge  142.99999, renormalised to  161.00000

[...]

     *
     * You are using vdW-DF for exchange-correlation in this calculation.
     * Please cite the following three references that made this development
     * possible:
     *
     *   M. Dion, H. Rydberg, E. Schroder, D. C. Langreth, and
     *   B. I. Lundqvist, Phys. Rev. Lett. 92, 246401 (2004).
     *
     *   T. Thonhauser, V. R. Cooper, S. Li, A. Puzder, P. Hyldgaard, and
     *   D. C. Langreth, Phys. Rev. B 76, 125112 (2007).
     *
     *   G. Roman-Perez and J. M. Soler, Phys. Rev. Lett. 103, 096102 (2009).
     *
     *
     * If you are using vdW-DF2, please also cite:
     *
     *   K. Lee, E. D. Murray, L. Kong, B. I. Lundqvist, and
     *   D. C. Langreth, Phys. Rev. B 82, 081101(R) (2010).
     *
     *
     * If you are calculating the stress with vdW-DF, please also cite:
     *
     *   R. Sabatini, E. Kucukbenli, B. Kolb, T. Thonhauser, and
     *   S. de Gironcoli, J. Phys.: Condens. Matter 24, 424209 (2012).
     *

     Carrying out vdW-DF run using the following parameters:

     Nqs =      20    Nr_points =    1024   r_max =   100.000
     q_mesh =
               0.00001000     0.04494208     0.09755937     0.15916263
               0.23128650     0.31572767     0.41458969     0.53033537
               0.66584808     0.82450364     1.01025438     1.22772762
               1.48234092     1.78043706     2.12944203     2.53805004
               3.01644009     3.57652955     4.23227104     5.00000000

     Gradients computed in reciprocal space

[...]

     Starting wfc are  112 randomized atomic wfcs

     Self-consistent Calculation

[...]

     iteration #  2     ecut=    36.75 Ry     beta=0.30
     Davidson diagonalization with overlap
     c_bands:  2 eigenvalues not converged
     c_bands:  3 eigenvalues not converged
     c_bands:  5 eigenvalues not converged
     c_bands:  4 eigenvalues not converged
     ethr =  1.00E-02,  avg # of iterations = 22.5

[...]

     total energy              =   -1637.51233011 Ry
     Harris-Foulkes estimate   =   -1637.51232945 Ry
     estimated scf accuracy    <       0.00002227 Ry

     iteration # 35     ecut=    36.75 Ry     beta=0.30
     Davidson diagonalization with overlap
     ethr =  1.38E-08,  avg # of iterations =  3.0

[...]

     negative rho (up, down):  1.264E-03 0.000E+00

     Adding external electric field

     Computed dipole along edir(3) :
        Dipole               -0.1256 Ry au,         -0.3192 Debye
        Dipole field         -0.0002 Ry au

        Potential amp.        0.0227 Ry
        Total length         46.8051 bohr

     End of self-consistent calculation

[...]

          k = 0.0504-0.0582 0.0000 ( 24479 PWs)   bands (ev):

[...]

          k =-0.0756-0.0436 0.0000 ( 24448 PWs)   bands (ev):

   -15.2513 -14.5567 -14.5232 -14.5116 -14.4819 -14.4811 -14.4742 -14.4697
   -14.4643 -14.4514 -14.4485 -14.4459 -14.4378 -14.4341 -14.4288 -14.4194
   -14.4104 -14.4081 -14.3949 -14.3933 -14.3841 -14.3826 -14.3687 -14.3617
   -14.3599 -14.3538 -14.3525 -14.3407 -14.3395 -14.3339 -14.3301 -14.3238
   -14.3135 -14.3083 -14.2995 -14.2854 -14.2746 -14.2727 -14.2621 -14.2598
   -14.2591 -14.2557 -14.2528 -14.2371 -14.2357 -14.2303 -14.2281 -14.2237
   -14.2222 -14.2176 -14.2117 -14.1956 -14.1862 -14.1599 -14.1599 -14.1531
   -14.1491 -14.1149 -14.1105 -14.0810 -12.0623  -7.2440  -7.0967  -6.2488
    -5.4485  -4.8560  -4.6427  -4.4431  -4.2386  -3.9843  -2.8273  -2.4182
    -2.2577  -1.7757  -0.5653  -0.4202  -0.3158   0.0100   0.2592   0.3911
     0.7753   1.0385   1.5613   1.6518   2.0594   2.0858   2.3966   2.6565
     2.6661   3.0074

     the Fermi energy is     0.5989 ev

!    total energy              =   -1637.51233425 Ry
     Harris-Foulkes estimate   =   -1637.51233617 Ry
     estimated scf accuracy    <       0.00000034 Ry

     The total energy is the sum of the following terms:

     one-electron contribution =   -9134.52569539 Ry
     hartree contribution      =    4648.70324495 Ry
     xc contribution           =    -475.01946053 Ry
     ewald contribution        =    3323.36541798 Ry
     electric field correction =       0.00003048 Ry
     smearing contrib. (-TS)   =      -0.03587174 Ry

     convergence has been achieved in  35 iterations

 BEEF-vdW xc energy contributions
           1 :   -416.019509571523
           2 :    380.109870708926
           3 :   -319.482010212086
           4 :    251.214789257973
           5 :   -190.903646614776
           6 :    146.974326280693
           7 :   -119.108187881883
           8 :    100.899873226755
           9 :   -84.7733300938613
          10 :    66.2753474732119
          11 :   -45.6365899640356
          12 :    26.3159465357460
          13 :   -11.9899065000108
          14 :    4.06143666523008
          15 :   -1.06701190411678
          16 :  -4.679484425986402E-002
          17 :    1.92472004626370
          18 :   -5.44734791620624
          19 :    9.71383277854659
          20 :   -13.0968340396085
          21 :    14.4902005673263
          22 :   -13.9375097651514
          23 :    12.3887544777338
          24 :   -10.9450952431899
          25 :    10.1973672602803
          26 :   -10.0604309331300
          27 :    10.0740972761246
          28 :   -9.83783393423244
          29 :    9.24497992156392
          30 :   -8.42308437158528
          31 :   -37.8731592017020
          32 :   -27.4695299755139

     Forces acting on atoms (Ry/au):

     negative rho (up, down):  1.264E-03 0.000E+00
     atom    1 type  1   force =    -0.00111398   -0.00064385   -0.01256572
     atom    2 type  1   force =     0.00111626   -0.00064873   -0.01256229
     atom    3 type  1   force =     0.00000000    0.00128933   -0.01256637
     atom    4 type  1   force =     0.00000186    0.00000250   -0.01111614
     atom    5 type  1   force =    -0.00000157    0.00174359    0.01426820
     atom    6 type  1   force =     0.00000061   -0.00000015    0.01441555
     atom    7 type  1   force =    -0.00151113   -0.00087125    0.01427006
     atom    8 type  1   force =     0.00151064   -0.00087228    0.01426960
     atom    9 type  1   force =    -0.00000217   -0.00000147   -0.00187229
     atom   10 type  1   force =     0.00000118    0.00008983   -0.00165759
     atom   11 type  1   force =     0.00008516   -0.00004635   -0.00165470
     atom   12 type  1   force =    -0.00009361   -0.00005252   -0.00165302
     atom   13 type  2   force =     0.00000675    0.00001135   -0.00157529

     Total force =     0.038002     Total SCF correction =     0.002279

     entering subroutine stress ...

     negative rho (up, down):  1.264E-03 0.000E+00
          total   stress  (Ry/bohr**3)                   (kbar)     P=    5.78
   0.00004696  -0.00000000   0.00000000          6.91     -0.00      0.00
  -0.00000000   0.00004697   0.00000000         -0.00      6.91      0.00
   0.00000000   0.00000000   0.00002397          0.00      0.00      3.53

 !ASE

     Writing output data file calc.save

     General routines

     Parallel routines

   This run was terminated on:  19:25:16  17Jan2018

   JOB DONE.
Job  /afs/slac/g/suncat/bin/suncat-tsmpirun -x LD_LIBRARY_PATH -wdir /scratch/qe842449_iykY0 pw.x -in pw.inp

TID   HOST_NAME   COMMAND_LINE            STATUS            TERMINATION_TIME
00000 suncat2070 pw.x -in pw.inp   Done                     01/17/2018 19:25:16
00001 suncat2070 pw.x -in pw.inp   Done                     01/17/2018 19:25:16
00002 suncat2070 pw.x -in pw.inp   Done                     01/17/2018 19:25:16
00003 suncat2070 pw.x -in pw.inp   Done                     01/17/2018 19:25:16
00004 suncat2070 pw.x -in pw.inp   Done                     01/17/2018 19:25:16
00005 suncat2070 pw.x -in pw.inp   Done                     01/17/2018 19:25:16
00006 suncat2070 pw.x -in pw.inp   Done                     01/17/2018 19:25:16
00007 suncat2070 pw.x -in pw.inp   Done                     01/17/2018 19:25:16
00008 suncat2070 pw.x -in pw.inp   Done                     01/17/2018 19:25:16
00009 suncat2070 pw.x -in pw.inp   Done                     01/17/2018 19:25:16
00010 suncat2070 pw.x -in pw.inp   Done                     01/17/2018 19:25:16
00011 suncat2070 pw.x -in pw.inp   Done                     01/17/2018 19:25:16
00012 suncat2070 pw.x -in pw.inp   Done                     01/17/2018 19:25:16
00013 suncat2070 pw.x -in pw.inp   Done                     01/17/2018 19:25:16
00014 suncat2070 pw.x -in pw.inp   Done                     01/17/2018 19:25:16
00015 suncat2070 pw.x -in pw.inp   Done                     01/17/2018 19:25:16
00016 suncat2062 pw.x -in pw.inp   Done                     01/17/2018 19:25:16
00017 suncat2062 pw.x -in pw.inp   Done                     01/17/2018 19:25:16
00018 suncat2062 pw.x -in pw.inp   Done                     01/17/2018 19:25:16
00019 suncat2062 pw.x -in pw.inp   Done                     01/17/2018 19:25:16
00020 suncat2062 pw.x -in pw.inp   Done                     01/17/2018 19:25:16
00021 suncat2062 pw.x -in pw.inp   Done                     01/17/2018 19:25:16
00022 suncat2062 pw.x -in pw.inp   Done                     01/17/2018 19:25:16
00023 suncat2062 pw.x -in pw.inp   Done                     01/17/2018 19:25:16
00024 suncat2062 pw.x -in pw.inp   Done                     01/17/2018 19:25:16
00025 suncat2062 pw.x -in pw.inp   Done                     01/17/2018 19:25:16
00026 suncat2062 pw.x -in pw.inp   Done                     01/17/2018 19:25:16
00027 suncat2062 pw.x -in pw.inp   Done                     01/17/2018 19:25:16
00028 suncat2062 pw.x -in pw.inp   Done                     01/17/2018 19:25:16
00029 suncat2062 pw.x -in pw.inp   Done                     01/17/2018 19:25:16
00030 suncat2062 pw.x -in pw.inp   Done                     01/17/2018 19:25:16
00031 suncat2062 pw.x -in pw.inp   Done                     01/17/2018 19:25:16