     Program PWSCF v.5.1rc2 (svn rev. 11289) starts on  2May2018 at 23:11:15

     Current dimensions of program PWSCF are:
     Max number of different atomic species (ntypx) = 10
     Max number of k-points (npk) =  40000
     Max angular momentum in pseudopotentials (lmaxx) =  3
     Presently stress not available with electric field

     IMPORTANT: XC functional enforced from input :
     Exchange-correlation      = BEEF-VDW ( 1  4 27 13 2)
     Any further DFT definition will be discarded
     Please, verify this is what you really want

     Subspace diagonalization in iterative solution of the eigenvalue problem:
     a serial algorithm will be used

     bravais-lattice index     =            0
     lattice parameter (alat)  =       1.8897  a.u.
     unit-cell volume          =    4515.4205 (a.u.)^3
     number of atoms/cell      =           13
     number of atomic types    =            2
     number of electrons       =       246.00
     number of Kohn-Sham states=          133
     kinetic-energy cutoff     =      36.7493  Ry
     charge density cutoff     =     367.4932  Ry
     convergence threshold     =      1.0E-05
     mixing beta               =       0.3000
     number of iterations used =           10  plain     mixing
     Exchange-correlation      = BEEF-VDW ( 1  4 27 13 2)
     nstep                     =           50

     celldm(1)=   1.889726  celldm(2)=   0.000000  celldm(3)=   0.000000
     celldm(4)=   0.000000  celldm(5)=   0.000000  celldm(6)=   0.000000

     crystal axes: (cart. coord. in units of alat)
               a(1) = (   5.606773   0.000000   0.000000 )
               a(2) = (   2.803387   4.855608   0.000000 )
               a(3) = (   0.000000   0.000000  24.577911 )

     reciprocal axes: (cart. coord. in units 2 pi/alat)
               b(1) = (  0.178356 -0.102974  0.000000 )
               b(2) = (  0.000000  0.205947  0.000000 )
               b(3) = (  0.000000  0.000000  0.040687 )

     PseudoPot. # 1 for Zn read from file:
     /u/if/mamunm/psp/gbrv1.5pbe/Zn.UPF
     MD5 check sum: df62231357ef9e81f77b2b3087fa5675
     Pseudo is Ultrasoft, Zval = 20.0
     Generated by new atomic code, or converted to UPF format
     Using radial grid of  943 points,  6 beta functions with:
                l(1) =   0
                l(2) =   0
                l(3) =   1
                l(4) =   1
                l(5) =   2
                l(6) =   2
     Q(r) pseudized with  8 coefficients,  rinner =    1.100   1.100   1.100
                                                       1.100   1.100

     PseudoPot. # 2 for S  read from file:
     /u/if/mamunm/psp/gbrv1.5pbe/S.UPF
     MD5 check sum: 88d86576ff6df21479756cfb9bdac1df
     Pseudo is Ultrasoft + core correction, Zval =  6.0
     Generated by new atomic code, or converted to UPF format
     Using radial grid of  907 points,  6 beta functions with:
                l(1) =   0
                l(2) =   0
                l(3) =   1
                l(4) =   1
                l(5) =   2
                l(6) =   2
     Q(r) pseudized with  8 coefficients,  rinner =    1.300   1.300   1.300
                                                       1.300   1.300

     vdW kernel table read from file vdW_kernel_table
     MD5 check sum: 095c7af220d748ca6e76c0b4c6cfb241

     atomic species   valence    mass     pseudopotential
        Zn1           20.00    65.38000     Zn( 1.00)
        S1             6.00    32.06000     S ( 1.00)

     No symmetry found

   Cartesian axes

     site n.     atom                  positions (alat units)
         1           Zn1 tau(   1) = (   1.4016933   0.8092680  10.0000000  )
         2           Zn1 tau(   2) = (   4.2050800   0.8092680  10.0000000  )
         3           Zn1 tau(   3) = (   2.8033867   3.2370721  10.0000000  )
         4           Zn1 tau(   4) = (   5.6067733   3.2370721  10.0000000  )
         5           Zn1 tau(   5) = (   5.6067733   1.6185360  12.2889556  )
         6           Zn1 tau(   6) = (   2.8033867   1.6185360  12.2889556  )
         7           Zn1 tau(   7) = (   7.0084667   4.0463401  12.2889556  )
         8           Zn1 tau(   8) = (   4.2050800   4.0463401  12.2889556  )
         9           Zn1 tau(   9) = (   0.0000000   0.0000000  14.5779113  )
        10           Zn1 tau(  10) = (   2.8033867   0.0000000  14.5779113  )
        11           Zn1 tau(  11) = (   1.4016933   2.4278041  14.5779113  )
        12           Zn1 tau(  12) = (   4.2050800   2.4278041  14.5779113  )
        13           S1  tau(  13) = (   1.4016933   0.8092680  16.0534113  )

     number of k points=    20  Fermi-Dirac smearing, width (Ry)=  0.0110
                       cart. coord. in units 2pi/alat
        k(    1) = (   0.0000000   0.0000000   0.0000000), wk =   0.0555556
        k(    2) = (   0.0000000   0.0343246   0.0000000), wk =   0.1111111
        k(    3) = (   0.0000000   0.0686491   0.0000000), wk =   0.1111111
        k(    4) = (   0.0000000  -0.1029737   0.0000000), wk =   0.0555556
        k(    5) = (   0.0297260  -0.0171623   0.0000000), wk =   0.1111111
        k(    6) = (   0.0297260   0.0171623   0.0000000), wk =   0.1111111
        k(    7) = (   0.0297260   0.0514869   0.0000000), wk =   0.1111111
        k(    8) = (   0.0297260  -0.1201360   0.0000000), wk =   0.1111111
        k(    9) = (   0.0297260  -0.0858114   0.0000000), wk =   0.1111111
        k(   10) = (   0.0297260  -0.0514869   0.0000000), wk =   0.1111111
        k(   11) = (   0.0594519  -0.0343246   0.0000000), wk =   0.1111111
        k(   12) = (   0.0594519   0.0000000   0.0000000), wk =   0.1111111
        k(   13) = (   0.0594519   0.0343246   0.0000000), wk =   0.1111111
        k(   14) = (   0.0594519  -0.1372983   0.0000000), wk =   0.1111111
        k(   15) = (   0.0594519  -0.1029737   0.0000000), wk =   0.1111111
        k(   16) = (   0.0594519  -0.0686491   0.0000000), wk =   0.1111111
        k(   17) = (  -0.0891779   0.0514869   0.0000000), wk =   0.0555556
        k(   18) = (  -0.0891779   0.0858114   0.0000000), wk =   0.1111111
        k(   19) = (  -0.0891779   0.1201360   0.0000000), wk =   0.1111111
        k(   20) = (  -0.0891779  -0.0514869   0.0000000), wk =   0.0555556

     Largest allocated arrays     est. size (Mb)     dimensions
     Largest temporary arrays     est. size (Mb)     dimensions

     Initial potential from superposition of free atoms
     Check: negative starting charge=   -0.000808

     starting charge  245.99827, renormalised to  246.00000

     negative rho (up, down):  8.079E-04 0.000E+00

     *
     * You are using vdW-DF for exchange-correlation in this calculation.
     * Please cite the following three references that made this development
     * possible:
     *
     *   M. Dion, H. Rydberg, E. Schroder, D. C. Langreth, and
     *   B. I. Lundqvist, Phys. Rev. Lett. 92, 246401 (2004).
     *
     *   T. Thonhauser, V. R. Cooper, S. Li, A. Puzder, P. Hyldgaard, and
     *   D. C. Langreth, Phys. Rev. B 76, 125112 (2007).
     *
     *   G. Roman-Perez and J. M. Soler, Phys. Rev. Lett. 103, 096102 (2009).
     *
     *
     * If you are using vdW-DF2, please also cite:
     *
     *   K. Lee, E. D. Murray, L. Kong, B. I. Lundqvist, and
     *   D. C. Langreth, Phys. Rev. B 82, 081101(R) (2010).
     *
     *
     * If you are calculating the stress with vdW-DF, please also cite:
     *
     *   R. Sabatini, E. Kucukbenli, B. Kolb, T. Thonhauser, and
     *   S. de Gironcoli, J. Phys.: Condens. Matter 24, 424209 (2012).
     *

     Carrying out vdW-DF run using the following parameters:

     Nqs =      20    Nr_points =    1024   r_max =   100.000
     q_mesh =
               0.00001000     0.04494208     0.09755937     0.15916263
               0.23128650     0.31572767     0.41458969     0.53033537
               0.66584808     0.82450364     1.01025438     1.22772762
               1.48234092     1.78043706     2.12944203     2.53805004
               3.01644009     3.57652955     4.23227104     5.00000000

     Gradients computed in reciprocal space

     Adding external electric field

     Computed dipole along edir(3) :
        Dipole               -0.0000 Ry au,         -0.0001 Debye
        Dipole field         -0.0000 Ry au

        Potential amp.        0.0000 Ry
        Total length         45.2844 bohr

     Starting wfc are  160 randomized atomic wfcs

     Self-consistent Calculation

     iteration #  1     ecut=    36.75 Ry     beta=0.30
     Davidson diagonalization with overlap
     ethr =  1.00E-02,  avg # of iterations =  2.7

     Threshold (ethr) on eigenvalues was too large:
     Diagonalizing with lowered threshold

     Davidson diagonalization with overlap
     ethr =  1.92E-04,  avg # of iterations =  5.2

[...]

     total energy              =   -5577.58799623 Ry
     Harris-Foulkes estimate   =   -5577.77106576 Ry
     estimated scf accuracy    <       0.47829903 Ry

[...]

     End of self-consistent calculation

          k = 0.0000 0.0000 0.0000 ( 16931 PWs)   bands (ev):

  -126.2933-126.2924-126.2923-126.2882-126.2552-126.2543-126.2543-126.1231
  -126.0483-126.0474-126.0474-126.0104 -80.4887 -80.4856 -80.4856 -80.4793
   -80.4777 -80.4777 -80.4687 -80.4670 -80.4670 -80.4565 -80.4539 -80.4539
   -80.4362 -80.4341 -80.4341 -80.4326 -80.4326 -80.4304 -80.4291 -80.4204
   -80.4204 -80.3116 -80.2959 -80.2959 -80.2357 -80.2347 -80.2347 -80.2273
   -80.2246 -80.2246 -80.2192 -80.2149 -80.2149 -80.1891 -80.1872 -80.1872
   -13.4347  -8.9461  -7.9465  -7.8777  -7.8777  -7.8452  -7.8334  -7.8334
    -7.8076  -7.7836  -7.7295  -7.7295  -7.7090  -7.6039  -7.6038  -7.5752
    -7.4647  -7.4647  -7.3303  -7.3135  -7.3135  -7.2884  -7.2884  -7.2820
    -7.2816  -7.2816  -7.2371  -7.2154  -7.1949  -7.1949  -7.0874  -7.0874
    -7.0795  -7.0795  -6.9700  -6.9700  -6.9416  -6.9062  -6.9062  -6.8494
    -6.8363  -6.8363  -6.8122  -6.7626  -6.7626  -6.7442  -6.7039  -6.7007
    -6.7007  -6.6728  -6.6727  -6.6618  -6.6618  -6.6566  -6.6566  -6.6552
    -6.6217  -6.6027  -6.6027  -6.4920  -6.4919  -6.4668  -6.4030  -3.6406
    -3.3394  -3.3394  -2.9551  -2.1133  -2.1133  -1.9344  -1.5270  -1.5270
    -1.3324  -0.6969  -0.3867  -0.3867  -0.1983   0.5176   0.5176   1.4582
     2.3518   2.3518   2.6809   3.0621   3.8200

[...]

          k =-0.0892 0.0515 0.0000 ( 17028 PWs)   bands (ev):

[...]

     the Fermi energy is     0.5003 ev

!    total energy              =   -5577.71105512 Ry
     Harris-Foulkes estimate   =   -5577.71106244 Ry
     estimated scf accuracy    <       0.00000514 Ry

     The total energy is the sum of the following terms:

     one-electron contribution =  -36149.14641954 Ry
     hartree contribution      =   18055.22955021 Ry
     xc contribution           =    -529.84471896 Ry
     ewald contribution        =   13046.08059455 Ry
     electric field correction =       0.00006927 Ry
     smearing contrib. (-TS)   =      -0.03013065 Ry

     convergence has been achieved in   9 iterations

 BEEF-vdW xc energy contributions
           1 :   -470.473339704739
           2 :    426.259688298814
           3 :   -352.074266547723
           4 :    269.370510947734
           5 :   -197.156239405597
           6 :    144.924650306147
           7 :   -111.354912262552
           8 :    88.5237422905956
           9 :   -68.3864280750531
          10 :    47.4706880992199
          11 :   -27.4535086109791
          12 :    12.1954532589039
          13 :   -3.94243076620279
          14 :    1.45467414965123
          15 :   -1.03807855727121
          16 :  -0.730412618553657
          17 :    4.80230573523124
          18 :   -9.51183743801352
          19 :    12.3287670599647
          20 :   -11.9996652559431
          21 :    9.46131067776452
          22 :   -6.99415242632966
          23 :    6.43416179685801
          24 :   -7.87836547316476
          25 :    9.80887483150360
          26 :   -10.4139087761769
          27 :    9.00512322204833
          28 :   -6.45793197668189
          29 :    4.42820517817364
          30 :   -4.04129176052157
          31 :   -36.6846119624458
          32 :   -25.0410434851319

     Forces acting on atoms (Ry/au):

     negative rho (up, down):  1.056E-03 0.000E+00
     atom    1 type  1   force =    -0.00000115    0.00000064   -0.00256531
     atom    2 type  1   force =     0.00000215   -0.00063224   -0.00975417
     atom    3 type  1   force =    -0.00055160    0.00031767   -0.00975001
     atom    4 type  1   force =     0.00054725    0.00031823   -0.00975028
     atom    5 type  1   force =     0.00326611   -0.00188403    0.00133179
     atom    6 type  1   force =    -0.00326060   -0.00188978    0.00133745
     atom    7 type  1   force =    -0.00000368   -0.00000102    0.00736829
     atom    8 type  1   force =     0.00000028    0.00376730    0.00132818
     atom    9 type  1   force =    -0.05507973   -0.03179987   -0.02597872
     atom   10 type  1   force =     0.05507913   -0.03180170   -0.02597600
     atom   11 type  1   force =    -0.00000113    0.06360175   -0.02597360
     atom   12 type  1   force =     0.00000227    0.00000326   -0.00880264
     atom   13 type  2   force =     0.00000069   -0.00000019    0.10718503

     Total force =     0.160392     Total SCF correction =     0.011140

     entering subroutine stress ...

     negative rho (up, down):  1.056E-03 0.000E+00
          total   stress  (Ry/bohr**3)                   (kbar)     P=    0.62
  -0.00004159   0.00000000   0.00000000         -6.12      0.00      0.00
   0.00000000  -0.00004159  -0.00000000          0.00     -6.12     -0.00
   0.00000000  -0.00000000   0.00009578          0.00     -0.00     14.09

     BFGS Geometry Optimization

     number of scf cycles    =   1
     number of bfgs steps    =   0

     energy   new            =   -5577.7110551207 Ry

     new trust radius        =       0.1071850254 bohr
     new conv_thr            =       0.0000099958 Ry

ATOMIC_POSITIONS (crystal)
Zn1      0.166666667   0.166666667   0.406869400    0   0   0
Zn1      0.666666667   0.166666667   0.406869400    0   0   0
Zn1      0.166666667   0.666666667   0.406869400    0   0   0
Zn1      0.666666667   0.666666667   0.406869400    0   0   0
Zn1      0.833333333   0.333333333   0.500000000    0   0   0
Zn1      0.333333333   0.333333333   0.500000000    0   0   0
Zn1      0.833333333   0.833333333   0.500000000    0   0   0
Zn1      0.333333333   0.833333333   0.500000000    0   0   0
Zn1     -0.003465705  -0.003465635   0.592571263
Zn1      0.506931384  -0.003465835   0.592571321
Zn1     -0.003465851   0.506931489   0.592571373
Zn1      0.500000037   0.500000355   0.592941074
S1       0.166666742   0.166666645   0.655471938

     Writing output data file calc.save
     Check: negative starting charge=   -0.000808
     NEW-OLD atomic charge density approx. for the potential
     Check: negative starting charge=   -0.000800

[...]

     energy   old            =   -5577.7110551206 Ry
     energy   new            =   -5577.7301883655 Ry

     CASE: energy  _new < energy  _old

[...]

     Total force =     0.016701     Total SCF correction =     0.001715
     SCF correction compared to forces is large: reduce conv_thr to get better values

[...]

     Total force =     0.003698     Total SCF correction =     0.000151

[...]

     number of scf cycles    =  18
     number of bfgs steps    =  17

     energy   old            =   -5577.7476250484 Ry
     energy   new            =   -5577.7476432699 Ry

     CASE: energy  _new < energy  _old

     new trust radius        =       0.0098042469 bohr
     new conv_thr            =       0.0000001000 Ry

ATOMIC_POSITIONS (crystal)
Zn1      0.166666667   0.166666667   0.406869400    0   0   0
Zn1      0.666666667   0.166666667   0.406869400    0   0   0
Zn1      0.166666667   0.666666667   0.406869400    0   0   0
Zn1      0.666666667   0.666666667   0.406869400    0   0   0
Zn1      0.833333333   0.333333333   0.500000000    0   0   0
Zn1      0.333333333   0.333333333   0.500000000    0   0   0
Zn1      0.833333333   0.833333333   0.500000000    0   0   0
Zn1      0.333333333   0.833333333   0.500000000    0   0   0
Zn1     -0.012230641  -0.012230317   0.604303551
Zn1      0.524461044  -0.012230290   0.604303556
Zn1     -0.012230552   0.524461281   0.604303539
Zn1      0.499999979   0.500000162   0.588367633
S1       0.166666592   0.166666914   0.667771359

     Writing output data file calc.save
     Check: negative starting charge=   -0.000770
     NEW-OLD atomic charge density approx. for the potential
     Check: negative starting charge=   -0.000769

[...]

     Self-consistent Calculation

[...]

     Threshold (ethr) on eigenvalues was too large:
     Diagonalizing with lowered threshold

     Davidson diagonalization with overlap
     ethr =  1.36E-09,  avg # of iterations =  2.4

[...]

     total energy              =   -5577.74767731 Ry
     Harris-Foulkes estimate   =   -5577.74767748 Ry
     estimated scf accuracy    <       0.00000036 Ry

     iteration #  5     ecut=    36.75 Ry     beta=0.30
     Davidson diagonalization with overlap
     ethr =  1.47E-10,  avg # of iterations =  2.2

[...]

     negative rho (up, down):  9.623E-04 0.000E+00

     Adding external electric field

     Computed dipole along edir(3) :
        Dipole               -0.2677 Ry au,         -0.6804 Debye
        Dipole field         -0.0007 Ry au

        Potential amp.        0.0675 Ry
        Total length         45.2844 bohr

     End of self-consistent calculation

[...]

          k = 0.0595-0.0686 0.0000 ( 16986 PWs)   bands (ev):

[...]

          k =-0.0892-0.0515 0.0000 ( 17028 PWs)   bands (ev):

  -126.3726-126.3555-126.3552-126.3549-126.2076-126.1990-126.1987-126.1984
  -126.1983-126.1970-126.1969-126.1409 -80.5564 -80.5504 -80.5491 -80.5367
   -80.5341 -80.5334 -80.5334 -80.5326 -80.5322 -80.5294 -80.5269 -80.5230
   -80.4035 -80.3967 -80.3958 -80.3908 -80.3901 -80.3893 -80.3881 -80.3876
   -80.3872 -80.3860 -80.3848 -80.3829 -80.3759 -80.3723 -80.3720 -80.3709
   -80.3698 -80.3653 -80.3505 -80.3445 -80.3434 -80.3250 -80.3129 -80.3125
   -12.5106  -7.8803  -7.8514  -7.7168  -7.6669  -7.6584  -7.6574  -7.6008
    -7.5892  -7.5875  -7.5665  -7.5625  -7.5495  -7.5088  -7.4633  -7.4439
    -7.4364  -7.3945  -7.3763  -7.3551  -7.3388  -7.3331  -7.3180  -7.2998
    -7.2809  -7.2522  -7.2283  -7.2049  -7.2040  -7.1899  -7.1859  -7.1502
    -7.1118  -7.1087  -7.0882  -7.0866  -7.0738  -7.0541  -7.0519  -7.0483
    -7.0345  -7.0206  -7.0180  -6.9810  -6.9723  -6.9549  -6.9323  -6.9105
    -6.9014  -6.9011  -6.8923  -6.8863  -6.8822  -6.8461  -6.8114  -6.8022
    -6.7570  -6.7463  -6.7417  -6.7228  -6.7157  -6.7129  -6.5783  -5.4650
    -5.0069  -3.6877  -3.5822  -3.3321  -2.9120  -2.8224  -2.1827  -1.2841
    -1.0206  -0.3635   0.6460   1.3008   1.4481   2.3836   3.0044   3.0226
     3.1828   3.4074   4.1133   4.2658   4.2919

     the Fermi energy is     0.3842 ev

!    total energy              =   -5577.74767738 Ry
     Harris-Foulkes estimate   =   -5577.74767750 Ry
     estimated scf accuracy    <       0.00000005 Ry

     The total energy is the sum of the following terms:

     one-electron contribution =  -35217.53038296 Ry
     hartree contribution      =   17588.93888838 Ry
     xc contribution           =    -529.64744923 Ry
     ewald contribution        =   12580.51973840 Ry
     electric field correction =       0.00019940 Ry
     smearing contrib. (-TS)   =      -0.02867136 Ry

     convergence has been achieved in   5 iterations

 BEEF-vdW xc energy contributions
           1 :   -470.262853470806
           2 :    425.915730119275
           3 :   -351.576283931521
           4 :    268.824151535165
           5 :   -196.706344340705
           6 :    144.644990856780
           7 :   -111.199110351302
           8 :    88.3736718570478
           9 :   -68.1569033519766
          10 :    47.1848693556439
          11 :   -27.2268344977132
          12 :    12.1398449180336
          13 :   -4.06849485442683
          14 :    1.65324209473772
          15 :   -1.15880135779867
          16 :  -0.765112783035761
          17 :    4.94026612551579
          18 :   -9.61808420580110
          19 :    12.2985004020877
          20 :   -11.8457628110549
          21 :    9.30531230467909
          22 :   -6.96715354479375
          23 :    6.56765103697347
          24 :   -8.07396470779400
          25 :    9.91336478945448
          26 :   -10.3408791961324
          27 :    8.80609726263492
          28 :   -6.28494017798334
          29 :    4.41597686737174
          30 :   -4.20153269411981
          31 :   -36.6669143968340
          32 :   -24.9910889242261

     Forces acting on atoms (Ry/au):

     negative rho (up, down):  9.623E-04 0.000E+00
     atom    1 type  1   force =     0.00000001    0.00000002   -0.00599201
     atom    2 type  1   force =    -0.00000001   -0.00054724   -0.01163580
     atom    3 type  1   force =    -0.00047396    0.00027363   -0.01163575
     atom    4 type  1   force =     0.00047396    0.00027364   -0.01163574
     atom    5 type  1   force =     0.00841037   -0.00485577    0.00995334
     atom    6 type  1   force =    -0.00841039   -0.00485577    0.00995332
     atom    7 type  1   force =    -0.00000001   -0.00000001    0.00881564
     atom    8 type  1   force =    -0.00000001    0.00971143    0.00995342
     atom    9 type  1   force =     0.00083354    0.00048118    0.00027165
     atom   10 type  1   force =    -0.00083345    0.00048112    0.00027154
     atom   11 type  1   force =    -0.00000003   -0.00096224    0.00027148
     atom   12 type  1   force =    -0.00000000    0.00000004    0.00193529
     atom   13 type  2   force =    -0.00000001   -0.00000001   -0.00052639

     Total force =     0.002650     Total SCF correction =     0.001791
     SCF correction compared to forces is large: reduce conv_thr to get better values

     entering subroutine stress ...

     negative rho (up, down):  9.623E-04 0.000E+00
          total   stress  (Ry/bohr**3)                   (kbar)     P=  -14.17
  -0.00013919   0.00000000  -0.00000000        -20.48      0.00     -0.00
   0.00000000  -0.00013919  -0.00000000          0.00    -20.48     -0.00
  -0.00000000  -0.00000000  -0.00001066         -0.00     -0.00     -1.57

     bfgs converged in  19 scf cycles and  18 bfgs steps
     (criteria: energy <  1.0E+00, force <  1.9E-03)

     End of BFGS Geometry Optimization

     Final energy   =   -5577.7476773759 Ry
Begin final coordinates

ATOMIC_POSITIONS (crystal)
Zn1      0.166666667   0.166666667   0.406869400    0   0   0
Zn1      0.666666667   0.166666667   0.406869400    0   0   0
Zn1      0.166666667   0.666666667   0.406869400    0   0   0
Zn1      0.666666667   0.666666667   0.406869400    0   0   0
Zn1      0.833333333   0.333333333   0.500000000    0   0   0
Zn1      0.333333333   0.333333333   0.500000000    0   0   0
Zn1      0.833333333   0.833333333   0.500000000    0   0   0
Zn1      0.333333333   0.833333333   0.500000000    0   0   0
Zn1     -0.012230641  -0.012230317   0.604303551
Zn1      0.524461044  -0.012230290   0.604303556
Zn1     -0.012230552   0.524461281   0.604303539
Zn1      0.499999979   0.500000162   0.588367633
S1       0.166666592   0.166666914   0.667771359
End final coordinates

     Writing output data file calc.save

     General routines

     Parallel routines

   This run was terminated on:   0:49:38   3May2018

   JOB DONE.
Job  /afs/slac/g/suncat/bin/suncat-tsmpirun -x LD_LIBRARY_PATH -wdir /scratch/qe532469_gvAcr pw.x -npool 4 -in pw.inp

TID   HOST_NAME   COMMAND_LINE            STATUS            TERMINATION_TIME
00000 suncat0069 pw.x -npool 4 -i  Done                     05/03/2018 00:49:38
00001 suncat0069 pw.x -npool 4 -i  Done                     05/03/2018 00:49:38
00002 suncat0069 pw.x -npool 4 -i  Done                     05/03/2018 00:49:38
00003 suncat0069 pw.x -npool 4 -i  Done                     05/03/2018 00:49:38
00004 suncat0069 pw.x -npool 4 -i  Done                     05/03/2018 00:49:38
00005 suncat0069 pw.x -npool 4 -i  Done                     05/03/2018 00:49:38
00006 suncat0069 pw.x -npool 4 -i  Done                     05/03/2018 00:49:38
00007 suncat0069 pw.x -npool 4 -i  Done                     05/03/2018 00:49:38
00008 suncat0053 pw.x -npool 4 -i  Done                     05/03/2018 00:49:38
00009 suncat0053 pw.x -npool 4 -i  Done                     05/03/2018 00:49:38
00010 suncat0053 pw.x -npool 4 -i  Done                     05/03/2018 00:49:38
00011 suncat0053 pw.x -npool 4 -i  Done                     05/03/2018 00:49:38
00012 suncat0053 pw.x -npool 4 -i  Done                     05/03/2018 00:49:38
00013 suncat0053 pw.x -npool 4 -i  Done                     05/03/2018 00:49:38
00014 suncat0053 pw.x -npool 4 -i  Done                     05/03/2018 00:49:38
00015 suncat0053 pw.x -npool 4 -i  Done                     05/03/2018 00:49:38
00016 suncat0159 pw.x -npool 4 -i  Done                     05/03/2018 00:49:38
00017 suncat0159 pw.x -npool 4 -i  Done                     05/03/2018 00:49:38
00018 suncat0159 pw.x -npool 4 -i  Done                     05/03/2018 00:49:38
00019 suncat0159 pw.x -npool 4 -i  Done                     05/03/2018 00:49:38
00020 suncat0159 pw.x -npool 4 -i  Done                     05/03/2018 00:49:38
00021 suncat0159 pw.x -npool 4 -i  Done                     05/03/2018 00:49:38
00022 suncat0159 pw.x -npool 4 -i  Done                     05/03/2018 00:49:38
00023 suncat0159 pw.x -npool 4 -i  Done                     05/03/2018 00:49:38
00024 suncat0151 pw.x -npool 4 -i  Done                     05/03/2018 00:49:38
00025 suncat0151 pw.x -npool 4 -i  Done                     05/03/2018 00:49:38
00026 suncat0151 pw.x -npool 4 -i  Done                     05/03/2018 00:49:38
00027 suncat0151 pw.x -npool 4 -i  Done                     05/03/2018 00:49:38
00028 suncat0151 pw.x -npool 4 -i  Done                     05/03/2018 00:49:38
00029 suncat0151 pw.x -npool 4 -i  Done                     05/03/2018 00:49:38
00030 suncat0151 pw.x -npool 4 -i  Done                     05/03/2018 00:49:38
00031 suncat0151 pw.x -npool 4 -i  Done                     05/03/2018 00:49:38