     Program PWSCF v.5.1rc2 (svn rev. 11289) starts on 21Apr2018 at 14:19:17

     Current dimensions of program PWSCF are:
     Max number of different atomic species (ntypx) = 10
     Max number of k-points (npk) =  40000
     Max angular momentum in pseudopotentials (lmaxx) =  3
     Presently stress not available with electric field

     IMPORTANT: XC functional enforced from input :
     Exchange-correlation      = BEEF-VDW ( 1  4 27 13 2)
     Any further DFT definition will be discarded
     Please, verify this is what you really want

     Subspace diagonalization in iterative solution of the eigenvalue problem:
     a serial algorithm will be used

     bravais-lattice index     =            0
     lattice parameter (alat)  =       1.8897  a.u.
     unit-cell volume          =    7171.5276 (a.u.)^3
     number of atoms/cell      =           14
     number of atomic types    =            3
     number of electrons       =       174.00
     number of Kohn-Sham states=           97
     kinetic-energy cutoff     =      36.7493  Ry
     charge density cutoff     =     367.4932  Ry
     convergence threshold     =      1.0E-05
     mixing beta               =       0.3000
     number of iterations used =           10  plain     mixing
     Exchange-correlation      = BEEF-VDW ( 1  4 27 13 2)
     nstep                     =           50

     celldm(1)=   1.889726  celldm(2)=   0.000000  celldm(3)=   0.000000
     celldm(4)=   0.000000  celldm(5)=   0.000000  celldm(6)=   0.000000

     crystal axes: (cart. coord. in units of alat)
               a(1) = (   6.917003   0.000000   0.000000 )
               a(2) = (   3.458501   5.990300   0.000000 )
               a(3) = (   0.000000   0.000000  25.647709 )

     reciprocal axes: (cart. coord. in units 2 pi/alat)
               b(1) = (  0.144571 -0.083468  0.000000 )
               b(2) = (  0.000000  0.166937  0.000000 )
               b(3) = (  0.000000  0.000000  0.038990 )

     PseudoPot. # 1 for Pb read from file:
     /u/if/mamunm/psp/gbrv1.5pbe/Pb.UPF
     MD5 check sum: 3d1c1779aa92214d1e8f3a7db79003e2
     Pseudo is Ultrasoft + core correction, Zval = 14.0
     Generated by new atomic code, or converted to UPF format
     Using radial grid of  899 points,  6 beta functions with:
                l(1) =   0
                l(2) =   0
                l(3) =   1
                l(4) =   1
                l(5) =   2
                l(6) =   2
     Q(r) pseudized with  6 coefficients,  rinner =    1.000   1.000   1.000
                                                       1.000   1.000

     PseudoPot. # 2 for N  read from file:
     /u/if/mamunm/psp/gbrv1.5pbe/N.UPF
     MD5 check sum: 95339753478d7afb44899504a8723017
     Pseudo is Ultrasoft + core correction, Zval =  5.0
     Generated by new atomic code, or converted to UPF format
     Using radial grid of  729 points,  4 beta functions with:
                l(1) =   0
                l(2) =   0
                l(3) =   1
                l(4) =   1
     Q(r) pseudized with  8 coefficients,  rinner =    0.900   0.900   0.900

     PseudoPot. # 3 for H  read from file:
     /u/if/mamunm/psp/gbrv1.5pbe/H.UPF
     MD5 check sum: 761ae9a214b05c3daf00ab9f6b793d6f
     Pseudo is Ultrasoft, Zval =  1.0
     Generated by new atomic code, or converted to UPF format
     Using radial grid of  615 points,  2 beta functions with:
                l(1) =   0
                l(2) =   0
     Q(r) pseudized with  8 coefficients,  rinner =    0.700

     vdW kernel table read from file vdW_kernel_table
     MD5 check sum: 095c7af220d748ca6e76c0b4c6cfb241

     atomic species   valence    mass     pseudopotential
        Pb1           14.00   207.20000     Pb( 1.00)
        N1             5.00    14.00700     N ( 1.00)
        H1             1.00     1.00800     H ( 1.00)

     No symmetry found

   Cartesian axes

     site n.     atom                  positions (alat units)
         1           Pb1 tau(   1) = (   1.7292506   0.9983833  10.0000000  )
         2           Pb1 tau(   2) = (   5.1877519   0.9983833  10.0000000  )
         3           Pb1 tau(   3) = (   3.4585013   3.9935333  10.0000000  )
         4           Pb1 tau(   4) = (   6.9170025   3.9935333  10.0000000  )
         5           Pb1 tau(   5) = (   6.9170025   1.9967666  12.8238544  )
         6           Pb1 tau(   6) = (   3.4585013   1.9967666  12.8238544  )
         7           Pb1 tau(   7) = (   8.6462531   4.9919166  12.8238544  )
         8           Pb1 tau(   8) = (   5.1877519   4.9919166  12.8238544  )
         9           Pb1 tau(   9) = (   0.0000000   0.0000000  15.6477089  )
        10           Pb1 tau(  10) = (   3.4585013   0.0000000  15.6477089  )
        11           Pb1 tau(  11) = (   1.7292506   2.9951499  15.6477089  )
        12           Pb1 tau(  12) = (   5.1877519   2.9951499  15.6477089  )
        13           N1  tau(  13) = (   3.4585013   1.9967666  17.0582089  )
        14           H1  tau(  14) = (   3.4585013   1.9967666  18.1082089  )

     number of k points=    20  Fermi-Dirac smearing, width (Ry)=  0.0110
                       cart. coord. in units 2pi/alat
        k(    1) = (   0.0000000   0.0000000   0.0000000), wk =   0.0555556
        k(    2) = (   0.0000000   0.0278228   0.0000000), wk =   0.1111111
        k(    3) = (   0.0000000   0.0556455   0.0000000), wk =   0.1111111
        k(    4) = (   0.0000000  -0.0834683   0.0000000), wk =   0.0555556
        k(    5) = (   0.0240952  -0.0139114   0.0000000), wk =   0.1111111
        k(    6) = (   0.0240952   0.0139114   0.0000000), wk =   0.1111111
        k(    7) = (   0.0240952   0.0417341   0.0000000), wk =   0.1111111
        k(    8) = (   0.0240952  -0.0973797   0.0000000), wk =   0.1111111
        k(    9) = (   0.0240952  -0.0695569   0.0000000), wk =   0.1111111
        k(   10) = (   0.0240952  -0.0417341   0.0000000), wk =   0.1111111
        k(   11) = (   0.0481904  -0.0278228   0.0000000), wk =   0.1111111
        k(   12) = (   0.0481904   0.0000000   0.0000000), wk =   0.1111111
        k(   13) = (   0.0481904   0.0278228   0.0000000), wk =   0.1111111
        k(   14) = (   0.0481904  -0.1112910   0.0000000), wk =   0.1111111
        k(   15) = (   0.0481904  -0.0834683   0.0000000), wk =   0.1111111
        k(   16) = (   0.0481904  -0.0556455   0.0000000), wk =   0.1111111
        k(   17) = (  -0.0722856   0.0417341   0.0000000), wk =   0.0555556
        k(   18) = (  -0.0722856   0.0695569   0.0000000), wk =   0.1111111
        k(   19) = (  -0.0722856   0.0973797   0.0000000), wk =   0.1111111
        k(   20) = (  -0.0722856  -0.0417341   0.0000000), wk =   0.0555556

     Largest allocated arrays     est. size (Mb)     dimensions
     Largest temporary arrays     est. size (Mb)     dimensions

     Check: negative/imaginary core charge=   -0.000001    0.000000

     Initial potential from superposition of free atoms
     Check: negative starting charge=   -0.197997

     starting charge  173.97176, renormalised to  174.00000

     negative rho (up, down):  1.980E-01 0.000E+00

     *
     * You are using vdW-DF for exchange-correlation in this calculation.
     * Please cite the following three references that made this development
     * possible:
     *
     *   M. Dion, H. Rydberg, E. Schroder, D. C. Langreth, and
     *   B. I. Lundqvist, Phys. Rev. Lett. 92, 246401 (2004).
     *
     *   T. Thonhauser, V. R. Cooper, S. Li, A. Puzder, P. Hyldgaard, and
     *   D. C. Langreth, Phys. Rev. B 76, 125112 (2007).
     *
     *   G. Roman-Perez and J. M. Soler, Phys. Rev. Lett. 103, 096102 (2009).
     *
     *
     * If you are using vdW-DF2, please also cite:
     *
     *   K. Lee, E. D. Murray, L. Kong, B. I. Lundqvist, and
     *   D. C. Langreth, Phys. Rev. B 82, 081101(R) (2010).
     *
     *
     * If you are calculating the stress with vdW-DF, please also cite:
     *
     *   R. Sabatini, E. Kucukbenli, B. Kolb, T. Thonhauser, and
     *   S. de Gironcoli, J. Phys.: Condens. Matter 24, 424209 (2012).
     *

     Carrying out vdW-DF run using the following parameters:

     Nqs =      20    Nr_points =    1024   r_max =   100.000
     q_mesh =
               0.00001000     0.04494208     0.09755937     0.15916263
               0.23128650     0.31572767     0.41458969     0.53033537
               0.66584808     0.82450364     1.01025438     1.22772762
               1.48234092     1.78043706     2.12944203     2.53805004
               3.01644009     3.57652955     4.23227104     5.00000000

     Gradients computed in reciprocal space

     Adding external electric field

     Computed dipole along edir(3) :
        Dipole               -0.0080 Ry au,         -0.0202 Debye
        Dipole field         -0.0000 Ry au

        Potential amp.        0.0013 Ry
        Total length         47.2555 bohr

     Starting wfc are  113 randomized atomic wfcs

     Self-consistent Calculation

     iteration #  1     ecut=    36.75 Ry     beta=0.30
     Davidson diagonalization with overlap
     ethr =  1.00E-02,  avg # of iterations =  2.0

[...]

     total energy              =   -2013.14719392 Ry
     Harris-Foulkes estimate   =   -2013.97335932 Ry
     estimated scf accuracy    <       1.82389328 Ry

[...]

     End of self-consistent calculation

          k = 0.0000 0.0000 0.0000 ( 27033 PWs)   bands (ev):

   -16.3657 -16.3487 -16.3487 -16.3373 -16.2912 -16.2912 -16.2881 -16.2562
   -16.2560 -16.2560 -16.2470 -16.2336 -16.2336 -16.2222 -16.2092 -16.2021
   -16.2021 -16.1945 -16.1945 -16.1915 -16.1863 -16.1863 -16.1810 -16.1810
   -16.1808 -16.1731 -16.1645 -16.1645 -16.1386 -16.1386 -16.0801 -16.0801
   -16.0700 -16.0439 -16.0439 -16.0268 -16.0268 -16.0196 -16.0196 -16.0145
   -15.9745 -15.9627 -15.9627 -15.9571 -15.9567 -15.9567 -15.9466 -15.9295
   -15.9295 -15.9262 -15.9262 -15.9240 -15.9133 -15.9133 -15.9042 -15.9041
   -15.8991 -15.8854 -15.8737 -15.8737 -13.2807 -10.2684  -9.1067  -7.6490
    -6.8054  -6.8054  -6.7643  -6.4098  -6.4098  -6.3398  -5.7810  -5.7810
    -5.6863  -4.2025  -2.4807  -2.4807  -2.2053  -1.8433  -1.8362  -1.8362
    -1.4143  -1.3189  -1.3189   0.0822   0.0874   0.0874   1.0515   2.4095
     2.4095   2.4643   2.9703   2.9703   3.2373   3.4919   3.8275   3.9221
     3.9221

[...]

          k =-0.0723 0.0417 0.0000 ( 26962 PWs)   bands (ev):

[...]

     the Fermi energy is     1.2932 ev

!    total energy              =   -2013.66930279 Ry
     Harris-Foulkes estimate   =   -2013.66931964 Ry
     estimated scf accuracy    <       0.00000790 Ry

     The total energy is the sum of the following terms:

     one-electron contribution =   -9698.48428551 Ry
     hartree contribution      =    4921.94276531 Ry
     xc contribution           =    -790.19262733 Ry
     ewald contribution        =    3553.10720308 Ry
     electric field correction =       0.00000006 Ry
     smearing contrib. (-TS)   =      -0.04235841 Ry

     convergence has been achieved in  10 iterations

 BEEF-vdW xc energy contributions
           1 :   -704.192678889654
           2 :    653.953326091286
           3 :   -565.535673405865
           4 :    458.340625799819
           5 :   -352.332124018413
           6 :    262.089006432399
           7 :   -193.682077004321
           8 :    145.092486515319
           9 :   -109.488111485427
          10 :    79.5799619222648
          11 :   -51.0444403300473
          12 :    23.6806912865869
          13 :  -0.230088151882228
          14 :   -16.0973022112389
          15 :    23.8952000701852
          16 :   -24.4944529403126
          17 :    21.2648455032142
          18 :   -17.8834917987415
          19 :    16.6273568558775
          20 :   -17.5975409281593
          21 :    19.1767969987923
          22 :   -19.3351004666249
          23 :    16.9787604024970
          24 :   -12.5982953718609
          25 :    7.92638432638000
          26 :   -4.89420388030476
          27 :    4.53532667038667
          28 :   -6.45837310589116
          29 :    9.14119863870462
          30 :   -10.8315019501410
          31 :   -56.5047587375816
          32 :   -41.4113304683092

     Forces acting on atoms (Ry/au):

     negative rho (up, down):  2.145E-01 0.000E+00
     atom    1 type  1   force =     0.00104294    0.00055229   -0.00747524
     atom    2 type  1   force =    -0.00101666    0.00061254   -0.00750859
     atom    3 type  1   force =     0.00003575   -0.00118861   -0.00747594
     atom    4 type  1   force =     0.00000257    0.00000177   -0.00966679
     atom    5 type  1   force =     0.00000336   -0.00408609   -0.01120421
     atom    6 type  1   force =    -0.00003978    0.00002700   -0.00037440
     atom    7 type  1   force =     0.00351223    0.00202405   -0.01120892
     atom    8 type  1   force =    -0.00354540    0.00202240   -0.01120828
     atom    9 type  1   force =     0.00000359   -0.00000941    0.00718730
     atom   10 type  1   force =     0.00001326    0.01076671    0.03067311
     atom   11 type  1   force =     0.00934209   -0.00534960    0.03064124
     atom   12 type  1   force =    -0.00936306   -0.00539190    0.03066269
     atom   13 type  2   force =     0.00000618    0.00001011   -0.00025600
     atom   14 type  3   force =     0.00000294    0.00000876   -0.03278597

     Total force =     0.065537     Total SCF correction =     0.009337
     SCF correction compared to forces is large: reduce conv_thr to get better values

     entering subroutine stress ...

     negative rho (up, down):  2.145E-01 0.000E+00
          total   stress  (Ry/bohr**3)                   (kbar)     P=   11.24
   0.00008930   0.00000000  -0.00000000         13.14      0.00     -0.00
   0.00000000   0.00008930   0.00000000          0.00     13.14      0.00
  -0.00000000   0.00000000   0.00005061         -0.00      0.00      7.45

     BFGS Geometry Optimization

     number of scf cycles    =   1
     number of bfgs steps    =   0

     energy   new            =   -2013.6693027947 Ry

     new trust radius        =       0.0327859736 bohr
     new conv_thr            =       0.0000099958 Ry

ATOMIC_POSITIONS (crystal)
Pb1      0.166666667   0.166666667   0.389898374    0   0   0
Pb1      0.666666667   0.166666667   0.389898374    0   0   0
Pb1      0.166666667   0.666666667   0.389898374    0   0   0
Pb1      0.666666667   0.666666667   0.389898374    0   0   0
Pb1      0.833333333   0.333333333   0.500000000    0   0   0
Pb1      0.333333333   0.333333333   0.500000000    0   0   0
Pb1      0.833333333   0.833333333   0.500000000    0   0   0
Pb1      0.333333333   0.833333333   0.500000000    0   0   0
Pb1      0.000000690  -0.000000832   0.610249918
Pb1      0.499525455   0.000951120   0.610734490
Pb1      0.000950995   0.499527422   0.610733832
Pb1      0.499521848   0.499523685   0.610734275
N1       0.333333359   0.333334226   0.665091510
H1       0.333333171   0.333334107   0.705359663

     Writing output data file calc.save
     Check: negative starting charge=   -0.197997
     NEW-OLD atomic charge density approx. for the potential

     Check: negative/imaginary core charge=   -0.000001    0.000000
     Check: negative starting charge=   -0.196599

[...]

     Total force =     0.060982     Total SCF correction =     0.006033

[...]

     energy   old            =   -2013.6693027947 Ry
     energy   new            =   -2013.6731842309 Ry

     CASE: energy  _new < energy  _old

     WARNING: bfgs curvature condition failed, Theta= 0.984
     new trust radius        =       0.0360645710 bohr
     new conv_thr            =       0.0000001000 Ry

[...]

     Threshold (ethr) on eigenvalues was too large:
     Diagonalizing with lowered threshold

     Davidson diagonalization with overlap
     ethr =  5.45E-08,  avg # of iterations =  3.5

[...]

     Total force =     0.032437     Total SCF correction =     0.001886

[...]

     WARNING: bfgs curvature condition failed, Theta= 0.898
     new trust radius        =       0.0502866952 bohr
     new conv_thr            =       0.0000001000 Ry

[...]

     iteration #  1     ecut=    36.75 Ry     beta=0.30
     Davidson diagonalization with overlap
     c_bands:  1 eigenvalues not converged
     ethr =  1.00E-06,  avg # of iterations =  9.8

[...]

     number of scf cycles    =  19
     number of bfgs steps    =  18

     energy   old            =   -2013.6992899248 Ry
     energy   new            =   -2013.6997945913 Ry

     CASE: energy  _new < energy  _old

     new trust radius        =       0.0059168227 bohr
     new conv_thr            =       0.0000001000 Ry

ATOMIC_POSITIONS (crystal)
Pb1      0.166666667   0.166666667   0.389898374    0   0   0
Pb1      0.666666667   0.166666667   0.389898374    0   0   0
Pb1      0.166666667   0.666666667   0.389898374    0   0   0
Pb1      0.666666667   0.666666667   0.389898374    0   0   0
Pb1      0.833333333   0.333333333   0.500000000    0   0   0
Pb1      0.333333333   0.333333333   0.500000000    0   0   0
Pb1      0.833333333   0.833333333   0.500000000    0   0   0
Pb1      0.333333333   0.833333333   0.500000000    0   0   0
Pb1     -0.000012838   0.000019460   0.612569408
Pb1      0.499040804   0.001900140   0.632368543
Pb1      0.001884081   0.499041194   0.632376190
Pb1      0.499063858   0.499046794   0.632372400
N1       0.333340642   0.333360382   0.681554362
H1       0.333324009   0.333343092   0.721536247

     Writing output data file calc.save
     Check: negative starting charge=   -0.195448
     NEW-OLD atomic charge density approx. for the potential

     Check: negative/imaginary core charge=   -0.000001    0.000000
     Check: negative starting charge=   -0.195588

[...]

     Self-consistent Calculation

[...]

     Threshold (ethr) on eigenvalues was too large:
     Diagonalizing with lowered threshold

     Davidson diagonalization with overlap
     ethr =  1.26E-08,  avg # of iterations =  4.0

[...]

     total energy              =   -2013.69980355 Ry
     Harris-Foulkes estimate   =   -2013.69980366 Ry
     estimated scf accuracy    <       0.00000018 Ry

     iteration #  6     ecut=    36.75 Ry     beta=0.30
     Davidson diagonalization with overlap
     ethr =  1.04E-10,  avg # of iterations =  3.0

[...]

     negative rho (up, down):  2.118E-01 0.000E+00

     Adding external electric field

     Computed dipole along edir(3) :
        Dipole                0.0756 Ry au,          0.1921 Debye
        Dipole field          0.0001 Ry au

        Potential amp.       -0.0125 Ry
        Total length         47.2555 bohr

     End of self-consistent calculation

[...]

          k = 0.0482-0.0556 0.0000 ( 26956 PWs)   bands (ev):

[...]

          k =-0.0723-0.0417 0.0000 ( 26962 PWs)   bands (ev):

   -16.3703 -16.1997 -16.1797 -16.1511 -16.1362 -16.1333 -16.1276 -16.1265
   -16.1220 -16.1128 -16.1048 -16.0952 -16.0943 -16.0898 -16.0818 -16.0746
   -16.0652 -16.0626 -16.0587 -16.0573 -16.0528 -16.0387 -16.0372 -16.0331
   -16.0316 -16.0283 -16.0275 -16.0209 -16.0126 -16.0116 -16.0041 -15.9989
   -15.9965 -15.9866 -15.9801 -15.9759 -15.9733 -15.9692 -15.9660 -15.9587
   -15.9479 -15.9421 -15.9340 -15.9319 -15.9280 -15.9264 -15.9227 -15.9122
   -15.9107 -15.8929 -15.8886 -15.8868 -15.8827 -15.8745 -15.8699 -15.8691
   -15.8554 -15.8468 -15.8293 -15.8121 -13.6777  -8.9302  -8.8484  -7.9691
    -7.8931  -7.0277  -6.9648  -6.9472  -6.8879  -6.4600  -6.2943  -5.6730
    -5.5832  -3.5631  -1.7740  -1.0797  -0.6537  -0.5995  -0.4902  -0.3856
    -0.3346  -0.2495   0.1842   0.7602   0.9629   1.1895   1.2230   1.6843
     1.9117   2.1168   2.1805   2.2396   2.6095   2.6757   2.6899   2.9106
     3.1453

     the Fermi energy is     1.3716 ev

!    total energy              =   -2013.69980344 Ry
     Harris-Foulkes estimate   =   -2013.69980369 Ry
     estimated scf accuracy    <       0.00000004 Ry

     The total energy is the sum of the following terms:

     one-electron contribution =   -9070.21158703 Ry
     hartree contribution      =    4608.18107858 Ry
     xc contribution           =    -790.03409276 Ry
     ewald contribution        =    3238.40379215 Ry
     electric field correction =       0.00001001 Ry
     smearing contrib. (-TS)   =      -0.03900439 Ry

     convergence has been achieved in   6 iterations

 BEEF-vdW xc energy contributions
           1 :   -704.017543761202
           2 :    653.620868296962
           3 :   -565.011578644950
           4 :    457.757195785836
           5 :   -351.916682936479
           6 :    262.015060964220
           7 :   -193.940197995956
           8 :    145.474095625276
           9 :   -109.701957539263
          10 :    79.4307632046966
          11 :   -50.5597226312829
          12 :    23.1030990869798
          13 :   0.123312180291123
          14 :   -16.0253707574122
          15 :    23.4381440672104
          16 :   -23.9154973719184
          17 :    20.8963760815863
          18 :   -17.9308843520988
          19 :    17.0487197585102
          20 :   -18.1305880328172
          21 :    19.4961310500777
          22 :   -19.2457053157995
          23 :    16.5302010649376
          24 :   -12.0523956375429
          25 :    7.59913472487119
          26 :   -4.96808076370201
          27 :    4.95372520704234
          28 :   -6.96237819557507
          29 :    9.42594281942479
          30 :   -10.7279385114906
          31 :   -56.4855101444224
          32 :   -41.3500176156732

     Forces acting on atoms (Ry/au):

     negative rho (up, down):  2.118E-01 0.000E+00
     atom    1 type  1   force =     0.00059527    0.00034289   -0.00484354
     atom    2 type  1   force =    -0.00059514    0.00034291   -0.00484324
     atom    3 type  1   force =     0.00000003   -0.00068751   -0.00484353
     atom    4 type  1   force =    -0.00000011    0.00000120   -0.00599725
     atom    5 type  1   force =    -0.00000037    0.00106508    0.00340585
     atom    6 type  1   force =     0.00000042    0.00000151    0.01321043
     atom    7 type  1   force =    -0.00092214   -0.00053410    0.00340936
     atom    8 type  1   force =     0.00092093   -0.00053365    0.00340657
     atom    9 type  1   force =    -0.00000167   -0.00001241   -0.00136517
     atom   10 type  1   force =     0.00000399    0.00056878   -0.00033830
     atom   11 type  1   force =     0.00049661   -0.00026929   -0.00035195
     atom   12 type  1   force =    -0.00047597   -0.00026156   -0.00035511
     atom   13 type  2   force =    -0.00003287   -0.00002628   -0.00050602
     atom   14 type  3   force =     0.00001103    0.00000244    0.00001189

     Total force =     0.001850     Total SCF correction =     0.000560
     SCF correction compared to forces is large: reduce conv_thr to get better values

     entering subroutine stress ...

     negative rho (up, down):  2.118E-01 0.000E+00
          total   stress  (Ry/bohr**3)                   (kbar)     P=    6.22
   0.00005804   0.00000000  -0.00000000          8.54      0.00     -0.00
   0.00000000   0.00005803  -0.00000000          0.00      8.54     -0.00
  -0.00000000  -0.00000000   0.00001078         -0.00     -0.00      1.59

     bfgs converged in  20 scf cycles and  19 bfgs steps
     (criteria: energy <  1.0E+00, force <  1.9E-03)

     End of BFGS Geometry Optimization

     Final energy   =   -2013.6998034354 Ry
Begin final coordinates

ATOMIC_POSITIONS (crystal)
Pb1      0.166666667   0.166666667   0.389898374    0   0   0
Pb1      0.666666667   0.166666667   0.389898374    0   0   0
Pb1      0.166666667   0.666666667   0.389898374    0   0   0
Pb1      0.666666667   0.666666667   0.389898374    0   0   0
Pb1      0.833333333   0.333333333   0.500000000    0   0   0
Pb1      0.333333333   0.333333333   0.500000000    0   0   0
Pb1      0.833333333   0.833333333   0.500000000    0   0   0
Pb1      0.333333333   0.833333333   0.500000000    0   0   0
Pb1     -0.000012838   0.000019460   0.612569408
Pb1      0.499040804   0.001900140   0.632368543
Pb1      0.001884081   0.499041194   0.632376190
Pb1      0.499063858   0.499046794   0.632372400
N1       0.333340642   0.333360382   0.681554362
H1       0.333324009   0.333343092   0.721536247
End final coordinates

     Writing output data file calc.save

     General routines

     Parallel routines

   This run was terminated on:  17: 6: 8  21Apr2018

   JOB DONE.
Job  /afs/slac/g/suncat/bin/suncat-tsmpirun -x LD_LIBRARY_PATH -wdir /scratch/qe299622_mYJaR pw.x -npool 4 -in pw.inp

TID   HOST_NAME   COMMAND_LINE            STATUS            TERMINATION_TIME
00000 suncat0073 pw.x -npool 4 -i  Done                     04/21/2018 17:06:08
00001 suncat0073 pw.x -npool 4 -i  Done                     04/21/2018 17:06:08
00002 suncat0073 pw.x -npool 4 -i  Done                     04/21/2018 17:06:08
00003 suncat0073 pw.x -npool 4 -i  Done                     04/21/2018 17:06:08
00004 suncat0073 pw.x -npool 4 -i  Done                     04/21/2018 17:06:08
00005 suncat0073 pw.x -npool 4 -i  Done                     04/21/2018 17:06:08
00006 suncat0073 pw.x -npool 4 -i  Done                     04/21/2018 17:06:08
00007 suncat0073 pw.x -npool 4 -i  Done                     04/21/2018 17:06:08
00008 suncat0114 pw.x -npool 4 -i  Done                     04/21/2018 17:06:08
00009 suncat0114 pw.x -npool 4 -i  Done                     04/21/2018 17:06:08
00010 suncat0114 pw.x -npool 4 -i  Done                     04/21/2018 17:06:08
00011 suncat0114 pw.x -npool 4 -i  Done                     04/21/2018 17:06:08
00012 suncat0114 pw.x -npool 4 -i  Done                     04/21/2018 17:06:08
00013 suncat0114 pw.x -npool 4 -i  Done                     04/21/2018 17:06:08
00014 suncat0114 pw.x -npool 4 -i  Done                     04/21/2018 17:06:08
00015 suncat0114 pw.x -npool 4 -i  Done                     04/21/2018 17:06:08
00016 suncat0231 pw.x -npool 4 -i  Done                     04/21/2018 17:06:08
00017 suncat0231 pw.x -npool 4 -i  Done                     04/21/2018 17:06:08
00018 suncat0231 pw.x -npool 4 -i  Done                     04/21/2018 17:06:08
00019 suncat0231 pw.x -npool 4 -i  Done                     04/21/2018 17:06:08
00020 suncat0231 pw.x -npool 4 -i  Done                     04/21/2018 17:06:08
00021 suncat0231 pw.x -npool 4 -i  Done                     04/21/2018 17:06:08
00022 suncat0231 pw.x -npool 4 -i  Done                     04/21/2018 17:06:08
00023 suncat0231 pw.x -npool 4 -i  Done                     04/21/2018 17:06:08
00024 suncat0211 pw.x -npool 4 -i  Done                     04/21/2018 17:06:08
00025 suncat0211 pw.x -npool 4 -i  Done                     04/21/2018 17:06:08
00026 suncat0211 pw.x -npool 4 -i  Done                     04/21/2018 17:06:08
00027 suncat0211 pw.x -npool 4 -i  Done                     04/21/2018 17:06:08
00028 suncat0211 pw.x -npool 4 -i  Done                     04/21/2018 17:06:08
00029 suncat0211 pw.x -npool 4 -i  Done                     04/21/2018 17:06:08
00030 suncat0211 pw.x -npool 4 -i  Done                     04/21/2018 17:06:08
00031 suncat0211 pw.x -npool 4 -i  Done                     04/21/2018 17:06:08