     Program PWSCF v.5.1rc2 (svn rev. 11289) starts on 24Apr2018 at 22:52:49

     Current dimensions of program PWSCF are:
     Max number of different atomic species (ntypx) = 10
     Max number of k-points (npk) =  40000
     Max angular momentum in pseudopotentials (lmaxx) =  3
     Presently stress not available with electric field

     IMPORTANT: XC functional enforced from input :
     Exchange-correlation      = BEEF-VDW ( 1  4 27 13 2)
     Any further DFT definition will be discarded
     Please, verify this is what you really want

     Subspace diagonalization in iterative solution of the eigenvalue problem:
     a serial algorithm will be used

     bravais-lattice index     =            0
     lattice parameter (alat)  =       1.8897  a.u.
     unit-cell volume          =    7725.1200 (a.u.)^3
     number of atoms/cell      =           14
     number of atomic types    =            3
     number of electrons       =       139.00
     number of Kohn-Sham states=           79
     kinetic-energy cutoff     =      36.7493  Ry
     charge density cutoff     =     367.4932  Ry
     convergence threshold     =      1.0E-05
     mixing beta               =       0.3000
     number of iterations used =           10  plain     mixing
     Exchange-correlation      = BEEF-VDW ( 1  4 27 13 2)
     nstep                     =           50

     celldm(1)=   1.889726  celldm(2)=   0.000000  celldm(3)=   0.000000
     celldm(4)=   0.000000  celldm(5)=   0.000000  celldm(6)=   0.000000

     crystal axes: (cart. coord. in units of alat)
               a(1) = (   7.152277   0.000000   0.000000 )
               a(2) = (   3.576139   6.194054   0.000000 )
               a(3) = (   0.000000   0.000000  25.839810 )

     reciprocal axes: (cart. coord. in units 2 pi/alat)
               b(1) = (  0.139816 -0.080723  0.000000 )
               b(2) = (  0.000000  0.161445  0.000000 )
               b(3) = (  0.000000  0.000000  0.038700 )

     PseudoPot. # 1 for Y  read from file:
     /u/if/mamunm/psp/gbrv1.5pbe/Y.UPF
     MD5 check sum: d034151ed7554c50b6e82763ed42c788
     Pseudo is Ultrasoft + core correction, Zval = 11.0
     Generated by new atomic code, or converted to UPF format
     Using radial grid of  885 points,  6 beta functions with:
                l(1) =   0
                l(2) =   0
                l(3) =   1
                l(4) =   1
                l(5) =   2
                l(6) =   2
     Q(r) pseudized with  8 coefficients,  rinner =    1.200   1.200   1.200
                                                       1.200   1.200

     PseudoPot. # 2 for S  read from file:
     /u/if/mamunm/psp/gbrv1.5pbe/S.UPF
     MD5 check sum: 88d86576ff6df21479756cfb9bdac1df
     Pseudo is Ultrasoft + core correction, Zval =  6.0
     Generated by new atomic code, or converted to UPF format
     Using radial grid of  907 points,  6 beta functions with:
                l(1) =   0
                l(2) =   0
                l(3) =   1
                l(4) =   1
                l(5) =   2
                l(6) =   2
     Q(r) pseudized with  8 coefficients,  rinner =    1.300   1.300   1.300
                                                       1.300   1.300

     PseudoPot. # 3 for H  read from file:
     /u/if/mamunm/psp/gbrv1.5pbe/H.UPF
     MD5 check sum: 761ae9a214b05c3daf00ab9f6b793d6f
     Pseudo is Ultrasoft, Zval =  1.0
     Generated by new atomic code, or converted to UPF format
     Using radial grid of  615 points,  2 beta functions with:
                l(1) =   0
                l(2) =   0
     Q(r) pseudized with  8 coefficients,  rinner =    0.700

     vdW kernel table read from file vdW_kernel_table
     MD5 check sum: 095c7af220d748ca6e76c0b4c6cfb241

     atomic species   valence    mass     pseudopotential
        Y1            11.00    88.90584     Y ( 1.00)
        S1             6.00    32.06000     S ( 1.00)
        H1             1.00     1.00800     H ( 1.00)

     No symmetry found

   Cartesian axes

     site n.     atom                  positions (alat units)
         1           Y1  tau(   1) = (   1.7880693   1.0323423  10.0000000  )
         2           Y1  tau(   2) = (   5.3642080   1.0323423  10.0000000  )
         3           Y1  tau(   3) = (   3.5761386   4.1293692  10.0000000  )
         4           Y1  tau(   4) = (   7.1522773   4.1293692  10.0000000  )
         5           Y1  tau(   5) = (   7.1522773   2.0646846  12.9199050  )
         6           Y1  tau(   6) = (   3.5761386   2.0646846  12.9199050  )
         7           Y1  tau(   7) = (   8.9403466   5.1617115  12.9199050  )
         8           Y1  tau(   8) = (   5.3642080   5.1617115  12.9199050  )
         9           Y1  tau(   9) = (   0.0000000   0.0000000  15.8398100  )
        10           Y1  tau(  10) = (   3.5761386   0.0000000  15.8398100  )
        11           Y1  tau(  11) = (   1.7880693   3.0970269  15.8398100  )
        12           Y1  tau(  12) = (   5.3642080   3.0970269  15.8398100  )
        13           S1  tau(  13) = (   1.7880693   1.0323423  17.7573100  )
        14           H1  tau(  14) = (   1.7880693   1.0323423  19.0073100  )

     number of k points=    20  Fermi-Dirac smearing, width (Ry)=  0.0110
                       cart. coord. in units 2pi/alat
        k(    1) = (   0.0000000   0.0000000   0.0000000), wk =   0.0555556
        k(    2) = (   0.0000000   0.0269075   0.0000000), wk =   0.1111111
        k(    3) = (   0.0000000   0.0538151   0.0000000), wk =   0.1111111
        k(    4) = (   0.0000000  -0.0807226   0.0000000), wk =   0.0555556
        k(    5) = (   0.0233026  -0.0134538   0.0000000), wk =   0.1111111
        k(    6) = (   0.0233026   0.0134538   0.0000000), wk =   0.1111111
        k(    7) = (   0.0233026   0.0403613   0.0000000), wk =   0.1111111
        k(    8) = (   0.0233026  -0.0941763   0.0000000), wk =   0.1111111
        k(    9) = (   0.0233026  -0.0672688   0.0000000), wk =   0.1111111
        k(   10) = (   0.0233026  -0.0403613   0.0000000), wk =   0.1111111
        k(   11) = (   0.0466052  -0.0269075   0.0000000), wk =   0.1111111
        k(   12) = (   0.0466052   0.0000000   0.0000000), wk =   0.1111111
        k(   13) = (   0.0466052   0.0269075   0.0000000), wk =   0.1111111
        k(   14) = (   0.0466052  -0.1076301   0.0000000), wk =   0.1111111
        k(   15) = (   0.0466052  -0.0807226   0.0000000), wk =   0.1111111
        k(   16) = (   0.0466052  -0.0538151   0.0000000), wk =   0.1111111
        k(   17) = (  -0.0699078   0.0403613   0.0000000), wk =   0.0555556
        k(   18) = (  -0.0699078   0.0672688   0.0000000), wk =   0.1111111
        k(   19) = (  -0.0699078   0.0941763   0.0000000), wk =   0.1111111
        k(   20) = (  -0.0699078  -0.0403613   0.0000000), wk =   0.0555556

     Largest allocated arrays     est. size (Mb)     dimensions
     Largest temporary arrays     est. size (Mb)     dimensions

     Initial potential from superposition of free atoms
     Check: negative starting charge=   -0.000494

     starting charge  138.94632, renormalised to  139.00000

     negative rho (up, down):  4.946E-04 0.000E+00

     *
     * You are using vdW-DF for exchange-correlation in this calculation.
     * Please cite the following three references that made this development
     * possible:
     *
     *   M. Dion, H. Rydberg, E. Schroder, D. C. Langreth, and
     *   B. I. Lundqvist, Phys. Rev. Lett. 92, 246401 (2004).
     *
     *   T. Thonhauser, V. R. Cooper, S. Li, A. Puzder, P. Hyldgaard, and
     *   D. C. Langreth, Phys. Rev. B 76, 125112 (2007).
     *
     *   G. Roman-Perez and J. M. Soler, Phys. Rev. Lett. 103, 096102 (2009).
     *
     *
     * If you are using vdW-DF2, please also cite:
     *
     *   K. Lee, E. D. Murray, L. Kong, B. I. Lundqvist, and
     *   D. C. Langreth, Phys. Rev. B 82, 081101(R) (2010).
     *
     *
     * If you are calculating the stress with vdW-DF, please also cite:
     *
     *   R. Sabatini, E. Kucukbenli, B. Kolb, T. Thonhauser, and
     *   S. de Gironcoli, J. Phys.: Condens. Matter 24, 424209 (2012).
     *

     Carrying out vdW-DF run using the following parameters:

     Nqs =      20    Nr_points =    1024   r_max =   100.000
     q_mesh =
               0.00001000     0.04494208     0.09755937     0.15916263
               0.23128650     0.31572767     0.41458969     0.53033537
               0.66584808     0.82450364     1.01025438     1.22772762
               1.48234092     1.78043706     2.12944203     2.53805004
               3.01644009     3.57652955     4.23227104     5.00000000

     Gradients computed in reciprocal space

     Adding external electric field

     Computed dipole along edir(3) :
        Dipole               -0.0252 Ry au,         -0.0640 Debye
        Dipole field         -0.0000 Ry au

        Potential amp.        0.0039 Ry
        Total length         47.6094 bohr

     Starting wfc are  161 randomized atomic wfcs

     Self-consistent Calculation

     iteration #  1     ecut=    36.75 Ry     beta=0.30
     Davidson diagonalization with overlap
     ethr =  1.00E-02,  avg # of iterations =  2.0

[...]

     total energy              =   -1148.21222288 Ry
     Harris-Foulkes estimate   =   -1150.44417843 Ry
     estimated scf accuracy    <       4.78730813 Ry

[...]

     End of self-consistent calculation

          k = 0.0000 0.0000 0.0000 ( 28997 PWs)   bands (ev):

   -42.0378 -42.0189 -41.9766 -41.9765 -41.9754 -41.9108 -41.8808 -41.8806
   -41.4652 -41.4273 -41.4271 -41.4049 -22.1261 -22.1244 -22.1244 -22.0978
   -22.0933 -22.0933 -22.0711 -22.0479 -21.9829 -21.9827 -21.9804 -21.9414
   -21.8911 -21.8909 -21.8000 -21.7999 -21.7986 -21.7637 -21.7637 -21.7187
   -21.7003 -21.7003 -21.6354 -21.6353 -21.5887 -21.5741 -21.5740 -21.3718
   -21.3487 -21.3485 -21.3259 -21.2873 -21.2813 -21.2812 -21.1851 -21.1850
   -13.6636  -6.3925  -2.8945  -2.7560  -2.7560  -1.9153  -0.9390  -0.2676
    -0.2676  -0.2169  -0.1825  -0.1123  -0.1122   0.1498   0.2358   0.2359
     0.6504   0.6504   0.6694   1.1100   1.1100   1.1730   1.5064   1.6076
     1.9106   2.0031   2.0031   2.0321   2.0505   2.0506   2.4074

[...]

          k =-0.0699 0.0404 0.0000 ( 29048 PWs)   bands (ev):

[...]

     the Fermi energy is     1.3279 ev

!    total energy              =   -1150.03422237 Ry
     Harris-Foulkes estimate   =   -1150.03423471 Ry
     estimated scf accuracy    <       0.00000526 Ry

     The total energy is the sum of the following terms:

     one-electron contribution =   -5549.50433423 Ry
     hartree contribution      =    2770.10186622 Ry
     xc contribution           =    -348.53755016 Ry
     ewald contribution        =    1978.03662450 Ry
     electric field correction =       0.00004378 Ry
     smearing contrib. (-TS)   =      -0.13087247 Ry

     convergence has been achieved in  14 iterations

 BEEF-vdW xc energy contributions
           1 :   -303.778469529942
           2 :    272.604420582649
           3 :   -218.962986634489
           4 :    156.064880286065
           5 :   -96.2140541989910
           6 :    47.1693759591370
           7 :   -11.5450564367593
           8 :   -11.4327576941729
           9 :    23.6040811308860
          10 :   -26.5453815179203
          11 :    21.6456036954638
          12 :   -10.9277766479013
          13 :   -2.43376770663843
          14 :    14.5400747511670
          15 :   -21.9876169291673
          16 :    23.1116295491703
          17 :   -18.4589306787923
          18 :    10.2298367662999
          19 :   -1.11295218830367
          20 :   -6.75008025018872
          21 :    12.1709633519545
          22 :   -14.7335267578983
          23 :    14.4402807268948
          24 :   -11.5649912875139
          25 :    6.75418680642747
          26 :   -1.12885511472155
          27 :   -3.88267354242561
          28 :    7.00822794825399
          29 :   -7.64509112423559
          30 :    6.09090621426469
          31 :   -29.2680640697189
          32 :   -20.0084170445064

     Forces acting on atoms (Ry/au):

     negative rho (up, down):  1.782E-05 0.000E+00
     atom    1 type  1   force =     0.00006916    0.00002997    0.00547491
     atom    2 type  1   force =    -0.00006936   -0.00019581    0.00530669
     atom    3 type  1   force =    -0.00015362    0.00004284    0.00551213
     atom    4 type  1   force =     0.00016515    0.00014298    0.00532166
     atom    5 type  1   force =    -0.00111084    0.00062225    0.00283090
     atom    6 type  1   force =     0.00115534    0.00099779    0.00271166
     atom    7 type  1   force =     0.00030198   -0.00016177   -0.00562225
     atom    8 type  1   force =    -0.00030909   -0.00147668    0.00271884
     atom    9 type  1   force =    -0.00462545   -0.00276203   -0.00206382
     atom   10 type  1   force =     0.00460123   -0.00264093   -0.00201760
     atom   11 type  1   force =     0.00009871    0.00537902   -0.00209094
     atom   12 type  1   force =    -0.00011859    0.00002542   -0.01359949
     atom   13 type  2   force =     0.00000039   -0.00000531   -0.13195429
     atom   14 type  3   force =    -0.00000502    0.00000227    0.12747159

     Total force =     0.184241     Total SCF correction =     0.001389

     entering subroutine stress ...

     negative rho (up, down):  1.782E-05 0.000E+00
          total   stress  (Ry/bohr**3)                   (kbar)     P=    0.02
  -0.00000473  -0.00000000   0.00000000         -0.70     -0.00      0.00
  -0.00000000  -0.00000474   0.00000001         -0.00     -0.70      0.00
   0.00000000   0.00000001   0.00000983          0.00      0.00      1.45

     BFGS Geometry Optimization

     number of scf cycles    =   1
     number of bfgs steps    =   0

     energy   new            =   -1150.0342223660 Ry

     new trust radius        =       0.1319542870 bohr
     new conv_thr            =       0.0000099958 Ry

ATOMIC_POSITIONS (crystal)
Y1       0.166666667   0.166666667   0.386999750    0   0   0
Y1       0.666666667   0.166666667   0.386999750    0   0   0
Y1       0.166666667   0.666666667   0.386999750    0   0   0
Y1       0.666666667   0.666666667   0.386999750    0   0   0
Y1       0.833333333   0.333333333   0.500000000    0   0   0
Y1       0.333333333   0.333333333   0.500000000    0   0   0
Y1       0.833333333   0.833333333   0.500000000    0   0   0
Y1       0.333333333   0.833333333   0.500000000    0   0   0
Y1      -0.000224240  -0.000235969   0.612957985
Y1       0.500453244  -0.000225623   0.612958931
Y1      -0.000222469   0.500459546   0.612957429
Y1       0.499990140   0.500002172   0.612721744
S1       0.166666923   0.166666213   0.684505141
H1       0.166666198   0.166666860   0.738192930

     Writing output data file calc.save
     Check: negative starting charge=   -0.000494
     NEW-OLD atomic charge density approx. for the potential
     Check: negative starting charge=   -0.000492

[...]

     Total force =     0.035451     Total SCF correction =     0.005071
     SCF correction compared to forces is large: reduce conv_thr to get better values

[...]

     energy   old            =   -1150.0342223660 Ry
     energy   new            =   -1150.0458548098 Ry

     CASE: energy  _new < energy  _old

[...]

     Total force =     0.007829     Total SCF correction =     0.000212

[...]

     number of scf cycles    =  11
     number of bfgs steps    =  10

     energy   old            =   -1150.0487581181 Ry
     energy   new            =   -1150.0488568406 Ry

     CASE: energy  _new < energy  _old

     new trust radius        =       0.0047205930 bohr
     new conv_thr            =       0.0000001000 Ry

ATOMIC_POSITIONS (crystal)
Y1       0.166666667   0.166666667   0.386999750    0   0   0
Y1       0.666666667   0.166666667   0.386999750    0   0   0
Y1       0.166666667   0.666666667   0.386999750    0   0   0
Y1       0.666666667   0.666666667   0.386999750    0   0   0
Y1       0.833333333   0.333333333   0.500000000    0   0   0
Y1       0.333333333   0.333333333   0.500000000    0   0   0
Y1       0.833333333   0.833333333   0.500000000    0   0   0
Y1       0.333333333   0.833333333   0.500000000    0   0   0
Y1      -0.001438361  -0.001436442   0.612001821
Y1       0.502873991  -0.001438158   0.612003128
Y1      -0.001439490   0.502874082   0.612002607
Y1       0.500002183   0.499999164   0.606561309
S1       0.166664109   0.166667595   0.684556815
H1       0.166665585   0.166666688   0.737255688

     Writing output data file calc.save
     Check: negative starting charge=   -0.000491
     NEW-OLD atomic charge density approx. for the potential
     Check: negative starting charge=   -0.000491

[...]

     Self-consistent Calculation

[...]

     Threshold (ethr) on eigenvalues was too large:
     Diagonalizing with lowered threshold

     Davidson diagonalization with overlap
     ethr =  1.25E-08,  avg # of iterations =  5.6

[...]

     total energy              =   -1150.04886931 Ry
     Harris-Foulkes estimate   =   -1150.04886921 Ry
     estimated scf accuracy    <       0.00000013 Ry

     iteration #  7     ecut=    36.75 Ry     beta=0.30
     Davidson diagonalization with overlap
     ethr =  9.45E-11,  avg # of iterations =  4.0

[...]

     negative rho (up, down):  1.846E-05 0.000E+00

     Adding external electric field

     Computed dipole along edir(3) :
        Dipole                0.1628 Ry au,          0.4137 Debye
        Dipole field          0.0003 Ry au

        Potential amp.       -0.0252 Ry
        Total length         47.6094 bohr

     End of self-consistent calculation

[...]

          k = 0.0466-0.0538 0.0000 ( 29098 PWs)   bands (ev):

[...]

          k =-0.0699-0.0404 0.0000 ( 29048 PWs)   bands (ev):

   -42.0276 -42.0249 -42.0056 -42.0035 -41.9219 -41.8947 -41.8803 -41.8724
   -41.4198 -41.4187 -41.3984 -41.3976 -22.0730 -22.0725 -22.0475 -22.0436
   -22.0069 -22.0037 -21.9950 -21.9786 -21.9730 -21.9480 -21.9447 -21.9265
   -21.9164 -21.9113 -21.9018 -21.8848 -21.8440 -21.8379 -21.8077 -21.8011
   -21.7781 -21.7775 -21.6740 -21.6601 -21.4894 -21.4845 -21.3725 -21.3708
   -21.3447 -21.3414 -21.3313 -21.3284 -21.3212 -21.3172 -21.2156 -21.2128
   -13.2466  -6.0607  -2.8604  -2.7294  -1.7348  -1.6766  -0.8379  -0.7559
    -0.0831  -0.0604   0.1240   0.1757   0.3539   0.3776   0.9997   1.0419
     1.0435   1.0681   1.1471   1.1729   1.2932   1.3455   1.3479   1.4002
     1.4554   1.4989   1.5464   1.6405   1.6749   1.7512   1.8395

     the Fermi energy is     1.3072 ev

!    total energy              =   -1150.04886930 Ry
     Harris-Foulkes estimate   =   -1150.04887006 Ry
     estimated scf accuracy    <       0.00000004 Ry

     The total energy is the sum of the following terms:

     one-electron contribution =   -5599.84263773 Ry
     hartree contribution      =    2795.27849314 Ry
     xc contribution           =    -348.53778925 Ry
     ewald contribution        =    2003.18295401 Ry
     electric field correction =       0.00004310 Ry
     smearing contrib. (-TS)   =      -0.12993257 Ry

     convergence has been achieved in   7 iterations

 BEEF-vdW xc energy contributions
           1 :   -303.784776160745
           2 :    272.634065305776
           3 :   -219.012424756230
           4 :    156.103262580524
           5 :   -96.2101280303695
           6 :    47.1206066557828
           7 :   -11.4820922362416
           8 :   -11.4698095044899
           9 :    23.5970560955386
          10 :   -26.5116840053167
          11 :    21.6237442454362
          12 :   -10.9460678993818
          13 :   -2.38140979640696
          14 :    14.4915302275121
          15 :   -21.9831121111996
          16 :    23.1601097529148
          17 :   -18.5285636351788
          18 :    10.2723364013446
          19 :   -1.10211244063635
          20 :   -6.79843606406598
          21 :    12.2140994686472
          22 :   -14.7378729660893
          23 :    14.4071117936446
          24 :   -11.5255011089415
          25 :    6.74092674697641
          26 :   -1.14884194141189
          27 :   -3.85141799509881
          28 :    6.99550658788365
          29 :   -7.66115636029485
          30 :    6.11568688488296
          31 :   -29.2700518047331
          32 :   -20.0139967034631

     Forces acting on atoms (Ry/au):

     negative rho (up, down):  1.846E-05 0.000E+00
     atom    1 type  1   force =    -0.00000032    0.00000009    0.00464065
     atom    2 type  1   force =     0.00000053   -0.00056115    0.00394421
     atom    3 type  1   force =    -0.00048645    0.00028087    0.00394366
     atom    4 type  1   force =     0.00048643    0.00028068    0.00394414
     atom    5 type  1   force =    -0.00031365    0.00017998   -0.00262249
     atom    6 type  1   force =     0.00031410    0.00018118   -0.00262101
     atom    7 type  1   force =    -0.00000007    0.00000033   -0.00702115
     atom    8 type  1   force =    -0.00000027   -0.00036222   -0.00262156
     atom    9 type  1   force =    -0.00029994   -0.00017423   -0.00021170
     atom   10 type  1   force =     0.00030037   -0.00017226   -0.00021408
     atom   11 type  1   force =     0.00000206    0.00034751   -0.00021335
     atom   12 type  1   force =    -0.00000258    0.00000001    0.00030082
     atom   13 type  2   force =     0.00000023   -0.00000082    0.00068810
     atom   14 type  3   force =    -0.00000045    0.00000002   -0.00193624

     Total force =     0.002193     Total SCF correction =     0.000719
     SCF correction compared to forces is large: reduce conv_thr to get better values

     entering subroutine stress ...

     negative rho (up, down):  1.846E-05 0.000E+00
          total   stress  (Ry/bohr**3)                   (kbar)     P=   -0.83
  -0.00000063  -0.00000000   0.00000000         -0.09     -0.00      0.00
  -0.00000000  -0.00000063  -0.00000000         -0.00     -0.09     -0.00
   0.00000000  -0.00000000  -0.00001566          0.00     -0.00     -2.30

     bfgs converged in  12 scf cycles and  11 bfgs steps
     (criteria: energy <  1.0E+00, force <  1.9E-03)

     End of BFGS Geometry Optimization

     Final energy   =   -1150.0488692999 Ry
Begin final coordinates

ATOMIC_POSITIONS (crystal)
Y1       0.166666667   0.166666667   0.386999750    0   0   0
Y1       0.666666667   0.166666667   0.386999750    0   0   0
Y1       0.166666667   0.666666667   0.386999750    0   0   0
Y1       0.666666667   0.666666667   0.386999750    0   0   0
Y1       0.833333333   0.333333333   0.500000000    0   0   0
Y1       0.333333333   0.333333333   0.500000000    0   0   0
Y1       0.833333333   0.833333333   0.500000000    0   0   0
Y1       0.333333333   0.833333333   0.500000000    0   0   0
Y1      -0.001438361  -0.001436442   0.612001821
Y1       0.502873991  -0.001438158   0.612003128
Y1      -0.001439490   0.502874082   0.612002607
Y1       0.500002183   0.499999164   0.606561309
S1       0.166664109   0.166667595   0.684556815
H1       0.166665585   0.166666688   0.737255688
End final coordinates

     Writing output data file calc.save

     General routines

     Parallel routines

   This run was terminated on:   1: 2:14  25Apr2018

   JOB DONE.
Job  /afs/slac/g/suncat/bin/suncat-tsmpirun -x LD_LIBRARY_PATH -wdir /scratch/qe232299_RszeD pw.x -npool 4 -in pw.inp

TID   HOST_NAME   COMMAND_LINE            STATUS            TERMINATION_TIME
00000 suncat0187 pw.x -npool 4 -i  Done                     04/25/2018 01:02:14
00001 suncat0187 pw.x -npool 4 -i  Done                     04/25/2018 01:02:14
00002 suncat0187 pw.x -npool 4 -i  Done                     04/25/2018 01:02:14
00003 suncat0187 pw.x -npool 4 -i  Done                     04/25/2018 01:02:14
00004 suncat0187 pw.x -npool 4 -i  Done                     04/25/2018 01:02:14
00005 suncat0187 pw.x -npool 4 -i  Done                     04/25/2018 01:02:14
00006 suncat0187 pw.x -npool 4 -i  Done                     04/25/2018 01:02:14
00007 suncat0187 pw.x -npool 4 -i  Done                     04/25/2018 01:02:14
00008 suncat0180 pw.x -npool 4 -i  Done                     04/25/2018 01:02:14
00009 suncat0180 pw.x -npool 4 -i  Done                     04/25/2018 01:02:14
00010 suncat0180 pw.x -npool 4 -i  Done                     04/25/2018 01:02:14
00011 suncat0180 pw.x -npool 4 -i  Done                     04/25/2018 01:02:14
00012 suncat0180 pw.x -npool 4 -i  Done                     04/25/2018 01:02:14
00013 suncat0180 pw.x -npool 4 -i  Done                     04/25/2018 01:02:14
00014 suncat0180 pw.x -npool 4 -i  Done                     04/25/2018 01:02:14
00015 suncat0180 pw.x -npool 4 -i  Done                     04/25/2018 01:02:14
00016 suncat0178 pw.x -npool 4 -i  Done                     04/25/2018 01:02:14
00017 suncat0178 pw.x -npool 4 -i  Done                     04/25/2018 01:02:14
00018 suncat0178 pw.x -npool 4 -i  Done                     04/25/2018 01:02:14
00019 suncat0178 pw.x -npool 4 -i  Done                     04/25/2018 01:02:14
00020 suncat0178 pw.x -npool 4 -i  Done                     04/25/2018 01:02:14
00021 suncat0178 pw.x -npool 4 -i  Done                     04/25/2018 01:02:14
00022 suncat0178 pw.x -npool 4 -i  Done                     04/25/2018 01:02:14
00023 suncat0178 pw.x -npool 4 -i  Done                     04/25/2018 01:02:14
00024 suncat0171 pw.x -npool 4 -i  Done                     04/25/2018 01:02:14
00025 suncat0171 pw.x -npool 4 -i  Done                     04/25/2018 01:02:14
00026 suncat0171 pw.x -npool 4 -i  Done                     04/25/2018 01:02:14
00027 suncat0171 pw.x -npool 4 -i  Done                     04/25/2018 01:02:14
00028 suncat0171 pw.x -npool 4 -i  Done                     04/25/2018 01:02:14
00029 suncat0171 pw.x -npool 4 -i  Done                     04/25/2018 01:02:14
00030 suncat0171 pw.x -npool 4 -i  Done                     04/25/2018 01:02:14
00031 suncat0171 pw.x -npool 4 -i  Done                     04/25/2018 01:02:14