     Program PWSCF v.5.1rc2 (svn rev. 11289) starts on 25Apr2018 at  9:30:19

     Current dimensions of program PWSCF are:
     Max number of different atomic species (ntypx) = 10
     Max number of k-points (npk) =  40000
     Max angular momentum in pseudopotentials (lmaxx) =  3
     Presently stress not available with electric field

     IMPORTANT: XC functional enforced from input :
     Exchange-correlation      = BEEF-VDW ( 1  4 27 13 2)
     Any further DFT definition will be discarded
     Please, verify this is what you really want

     Subspace diagonalization in iterative solution of the eigenvalue problem:
     a serial algorithm will be used

     bravais-lattice index     =            0
     lattice parameter (alat)  =       1.8897  a.u.
     unit-cell volume          =    6082.7792 (a.u.)^3
     number of atoms/cell      =           14
     number of atomic types    =            3
     number of electrons       =       151.00
     number of Kohn-Sham states=           85
     kinetic-energy cutoff     =      36.7493  Ry
     charge density cutoff     =     367.4932  Ry
     convergence threshold     =      1.0E-05
     mixing beta               =       0.3000
     number of iterations used =           10  plain     mixing
     Exchange-correlation      = BEEF-VDW ( 1  4 27 13 2)
     nstep                     =           50

     celldm(1)=   1.889726  celldm(2)=   0.000000  celldm(3)=   0.000000
     celldm(4)=   0.000000  celldm(5)=   0.000000  celldm(6)=   0.000000

     crystal axes: (cart. coord. in units of alat)
               a(1) = (   6.421223   0.000000   0.000000 )
               a(2) = (   3.210611   5.560942   0.000000 )
               a(3) = (   0.000000   0.000000  25.242906 )

     reciprocal axes: (cart. coord. in units 2 pi/alat)
               b(1) = (  0.155734 -0.089913  0.000000 )
               b(2) = (  0.000000  0.179826  0.000000 )
               b(3) = (  0.000000  0.000000  0.039615 )

     PseudoPot. # 1 for Zr read from file:
     /u/if/mamunm/psp/gbrv1.5pbe/Zr.UPF
     MD5 check sum: 5db81b1e868ab7776c4564c113de050b
     Pseudo is Ultrasoft + core correction, Zval = 12.0
     Generated by new atomic code, or converted to UPF format
     Using radial grid of  887 points,  6 beta functions with:
                l(1) =   0
                l(2) =   0
                l(3) =   1
                l(4) =   1
                l(5) =   2
                l(6) =   2
     Q(r) pseudized with  6 coefficients,  rinner =    1.200   1.200   1.200
                                                       1.200   1.200

     PseudoPot. # 2 for O  read from file:
     /u/if/mamunm/psp/gbrv1.5pbe/O.UPF
     MD5 check sum: 734c27235a0248c51dbae37a1fbe46ec
     Pseudo is Ultrasoft + core correction, Zval =  6.0
     Generated by new atomic code, or converted to UPF format
     Using radial grid of  737 points,  5 beta functions with:
                l(1) =   0
                l(2) =   0
                l(3) =   1
                l(4) =   1
                l(5) =   2
     Q(r) pseudized with  8 coefficients,  rinner =    0.900   0.900   0.900
                                                       0.900   0.900

     PseudoPot. # 3 for H  read from file:
     /u/if/mamunm/psp/gbrv1.5pbe/H.UPF
     MD5 check sum: 761ae9a214b05c3daf00ab9f6b793d6f
     Pseudo is Ultrasoft, Zval =  1.0
     Generated by new atomic code, or converted to UPF format
     Using radial grid of  615 points,  2 beta functions with:
                l(1) =   0
                l(2) =   0
     Q(r) pseudized with  8 coefficients,  rinner =    0.700

     vdW kernel table read from file vdW_kernel_table
     MD5 check sum: 095c7af220d748ca6e76c0b4c6cfb241

     atomic species   valence    mass     pseudopotential
        Zr1           12.00    91.22400     Zr( 1.00)
        O1             6.00    15.99900     O ( 1.00)
        H1             1.00     1.00800     H ( 1.00)

     No symmetry found

   Cartesian axes

     site n.     atom                  positions (alat units)
         1           Zr1 tau(   1) = (   1.6053057   0.9268237  10.0000000  )
         2           Zr1 tau(   2) = (   4.8159170   0.9268237  10.0000000  )
         3           Zr1 tau(   3) = (   3.2106113   3.7072946  10.0000000  )
         4           Zr1 tau(   4) = (   6.4212227   3.7072946  10.0000000  )
         5           Zr1 tau(   5) = (   6.4212227   1.8536473  12.6214532  )
         6           Zr1 tau(   6) = (   3.2106113   1.8536473  12.6214532  )
         7           Zr1 tau(   7) = (   8.0265283   4.6341183  12.6214532  )
         8           Zr1 tau(   8) = (   4.8159170   4.6341183  12.6214532  )
         9           Zr1 tau(   9) = (   0.0000000   0.0000000  15.2429064  )
        10           Zr1 tau(  10) = (   3.2106113   0.0000000  15.2429064  )
        11           Zr1 tau(  11) = (   1.6053057   2.7804710  15.2429064  )
        12           Zr1 tau(  12) = (   4.8159170   2.7804710  15.2429064  )
        13           O1  tau(  13) = (   1.6053057   0.0000000  17.0504064  )
        14           H1  tau(  14) = (   1.6053057   0.0000000  18.0004064  )

     number of k points=    20  Fermi-Dirac smearing, width (Ry)=  0.0110
                       cart. coord. in units 2pi/alat
        k(    1) = (   0.0000000   0.0000000   0.0000000), wk =   0.0555556
        k(    2) = (   0.0000000   0.0299709   0.0000000), wk =   0.1111111
        k(    3) = (   0.0000000   0.0599419   0.0000000), wk =   0.1111111
        k(    4) = (   0.0000000  -0.0899128   0.0000000), wk =   0.0555556
        k(    5) = (   0.0259556  -0.0149855   0.0000000), wk =   0.1111111
        k(    6) = (   0.0259556   0.0149855   0.0000000), wk =   0.1111111
        k(    7) = (   0.0259556   0.0449564   0.0000000), wk =   0.1111111
        k(    8) = (   0.0259556  -0.1048983   0.0000000), wk =   0.1111111
        k(    9) = (   0.0259556  -0.0749274   0.0000000), wk =   0.1111111
        k(   10) = (   0.0259556  -0.0449564   0.0000000), wk =   0.1111111
        k(   11) = (   0.0519112  -0.0299709   0.0000000), wk =   0.1111111
        k(   12) = (   0.0519112   0.0000000   0.0000000), wk =   0.1111111
        k(   13) = (   0.0519112   0.0299709   0.0000000), wk =   0.1111111
        k(   14) = (   0.0519112  -0.1198838   0.0000000), wk =   0.1111111
        k(   15) = (   0.0519112  -0.0899128   0.0000000), wk =   0.1111111
        k(   16) = (   0.0519112  -0.0599419   0.0000000), wk =   0.1111111
        k(   17) = (  -0.0778668   0.0449564   0.0000000), wk =   0.0555556
        k(   18) = (  -0.0778668   0.0749274   0.0000000), wk =   0.1111111
        k(   19) = (  -0.0778668   0.1048983   0.0000000), wk =   0.1111111
        k(   20) = (  -0.0778668  -0.0449564   0.0000000), wk =   0.0555556

     Largest allocated arrays     est. size (Mb)     dimensions
     Largest temporary arrays     est. size (Mb)     dimensions

     Initial potential from superposition of free atoms
     Check: negative starting charge=   -0.729268

     starting charge  150.97420, renormalised to  151.00000

     negative rho (up, down):  7.294E-01 0.000E+00

     *
     * You are using vdW-DF for exchange-correlation in this calculation.
     * Please cite the following three references that made this development
     * possible:
     *
     *   M. Dion, H. Rydberg, E. Schroder, D. C. Langreth, and
     *   B. I. Lundqvist, Phys. Rev. Lett. 92, 246401 (2004).
     *
     *   T. Thonhauser, V. R. Cooper, S. Li, A. Puzder, P. Hyldgaard, and
     *   D. C. Langreth, Phys. Rev. B 76, 125112 (2007).
     *
     *   G. Roman-Perez and J. M. Soler, Phys. Rev. Lett. 103, 096102 (2009).
     *
     *
     * If you are using vdW-DF2, please also cite:
     *
     *   K. Lee, E. D. Murray, L. Kong, B. I. Lundqvist, and
     *   D. C. Langreth, Phys. Rev. B 82, 081101(R) (2010).
     *
     *
     * If you are calculating the stress with vdW-DF, please also cite:
     *
     *   R. Sabatini, E. Kucukbenli, B. Kolb, T. Thonhauser, and
     *   S. de Gironcoli, J. Phys.: Condens. Matter 24, 424209 (2012).
     *

     Carrying out vdW-DF run using the following parameters:

     Nqs =      20    Nr_points =    1024   r_max =   100.000
     q_mesh =
               0.00001000     0.04494208     0.09755937     0.15916263
               0.23128650     0.31572767     0.41458969     0.53033537
               0.66584808     0.82450364     1.01025438     1.22772762
               1.48234092     1.78043706     2.12944203     2.53805004
               3.01644009     3.57652955     4.23227104     5.00000000

     Gradients computed in reciprocal space

     Adding external electric field

     Computed dipole along edir(3) :
        Dipole               -0.0102 Ry au,         -0.0260 Debye
        Dipole field         -0.0000 Ry au

        Potential amp.        0.0020 Ry
        Total length         46.5096 bohr

     Starting wfc are  161 randomized atomic wfcs

     Self-consistent Calculation

     iteration #  1     ecut=    36.75 Ry     beta=0.30
     Davidson diagonalization with overlap
     ethr =  1.00E-02,  avg # of iterations =  2.0

[...]

     total energy              =   -1227.86685761 Ry
     Harris-Foulkes estimate   =   -1231.49796812 Ry
     estimated scf accuracy    <       7.66474112 Ry

[...]

     End of self-consistent calculation

          k = 0.0000 0.0000 0.0000 ( 22923 PWs)   bands (ev):

   -47.5602 -47.4940 -47.4506 -47.4473 -47.4177 -47.3618 -47.3614 -47.3575
   -47.1449 -47.0687 -47.0686 -47.0440 -25.8671 -25.8260 -25.7856 -25.7213
   -25.7178 -25.7139 -25.7011 -25.6091 -25.6072 -25.5933 -25.5089 -25.4227
   -25.4170 -25.4022 -25.2861 -25.2779 -25.2763 -25.2460 -25.2457 -25.2409
   -25.1852 -25.1833 -25.1827 -25.1174 -25.0865 -25.0190 -25.0190 -24.9859
   -24.9855 -24.9745 -24.9515 -24.8849 -24.8795 -24.8780 -24.7294 -24.7287
   -18.4999  -6.4111  -3.0899  -2.5202  -2.4191  -1.9562  -1.1802  -0.7522
    -0.7349  -0.6693  -0.6014  -0.5964  -0.5326  -0.2036  -0.1503  -0.1097
     0.0182   0.0217   0.0792   0.8357   0.9729   1.0357   1.7046   1.8998
     1.9757   2.0559   2.2105   2.3827   2.5068   2.5088   2.5836   2.6286
     2.6895   2.7092   2.9370   2.9434   2.9850

[...]

          k =-0.0779 0.0450 0.0000 ( 22880 PWs)   bands (ev):

[...]

     the Fermi energy is     1.8265 ev

!    total energy              =   -1230.77991586 Ry
     Harris-Foulkes estimate   =   -1230.77990906 Ry
     estimated scf accuracy    <       0.00000300 Ry

     The total energy is the sum of the following terms:

     one-electron contribution =   -8499.24171055 Ry
     hartree contribution      =    4244.86542430 Ry
     xc contribution           =    -228.86695581 Ry
     ewald contribution        =    3252.57990051 Ry
     electric field correction =       0.00019749 Ry
     smearing contrib. (-TS)   =      -0.11677180 Ry

     convergence has been achieved in  18 iterations

 BEEF-vdW xc energy contributions
           1 :   -195.962492763816
           2 :    177.071588625148
           3 :   -145.344911272587
           4 :    109.824006447168
           5 :   -78.5590154086091
           6 :    55.8219652934599
           7 :   -41.5169905529169
           8 :    32.6042427903109
           9 :   -25.4536838562947
          10 :    17.8000703528656
          11 :   -9.45743944928753
          12 :    1.74681424493920
          13 :    3.75441723376656
          14 :   -6.32172251041862
          15 :    6.46705099632038
          16 :   -5.51774845533185
          17 :    4.77826100796506
          18 :   -4.83820735014814
          19 :    5.41336633913522
          20 :   -5.73905096194693
          21 :    5.19711624117178
          22 :   -3.75445371205961
          23 :    1.96077697473720
          24 :  -0.564211203307167
          25 :   3.527541833784653E-002
          26 :  -0.313672180156857
          27 :   0.911894614310285
          28 :   -1.26767128557572
          29 :    1.09612418845427
          30 :  -0.526796931047727
          31 :   -22.6942872949668
          32 :   -16.8398368358760

     Forces acting on atoms (Ry/au):

     negative rho (up, down):  7.490E-01 0.000E+00
     atom    1 type  1   force =     0.00000473   -0.00051170    0.01459518
     atom    2 type  1   force =    -0.00000366    0.00086362    0.01510032
     atom    3 type  1   force =     0.00056673   -0.00023239    0.01470144
     atom    4 type  1   force =    -0.00056318   -0.00023493    0.01471797
     atom    5 type  1   force =    -0.00156412    0.00071138   -0.00024615
     atom    6 type  1   force =     0.00156693    0.00067771   -0.00022097
     atom    7 type  1   force =    -0.00003172   -0.00062858   -0.00595798
     atom    8 type  1   force =     0.00003420    0.00075351    0.00065764
     atom    9 type  1   force =     0.00087925   -0.00569636    0.03342042
     atom   10 type  1   force =    -0.00087826   -0.00569877    0.03340692
     atom   11 type  1   force =     0.00000247    0.01650140   -0.01945621
     atom   12 type  1   force =     0.00000312   -0.00821890   -0.01749394
     atom   13 type  2   force =    -0.00001762    0.00226513   -0.12679520
     atom   14 type  3   force =     0.00000114   -0.00055110    0.04357056

     Total force =     0.145961     Total SCF correction =     0.001001

     entering subroutine stress ...

     negative rho (up, down):  7.490E-01 0.000E+00
          total   stress  (Ry/bohr**3)                   (kbar)     P=  -14.10
  -0.00008297  -0.00000000  -0.00000000        -12.20     -0.00     -0.00
  -0.00000000  -0.00007631  -0.00000026         -0.00    -11.23     -0.04
  -0.00000000  -0.00000026  -0.00012827         -0.00     -0.04    -18.87

     BFGS Geometry Optimization

     number of scf cycles    =   1
     number of bfgs steps    =   0

     energy   new            =   -1230.7799158588 Ry

     new trust radius        =       0.1268154353 bohr
     new conv_thr            =       0.0000099958 Ry

ATOMIC_POSITIONS (crystal)
Zr1      0.166666667   0.166666667   0.396150897    0   0   0
Zr1      0.666666667   0.166666667   0.396150897    0   0   0
Zr1      0.166666667   0.666666667   0.396150897    0   0   0
Zr1      0.666666667   0.666666667   0.396150897    0   0   0
Zr1      0.833333333   0.333333333   0.500000000    0   0   0
Zr1      0.333333333   0.333333333   0.500000000    0   0   0
Zr1      0.833333333   0.833333333   0.500000000    0   0   0
Zr1      0.333333333   0.833333333   0.500000000    0   0   0
Zr1      0.000343492  -0.000542064   0.604549708
Zr1      0.500198768  -0.000542293   0.604549426
Zr1     -0.000784930   0.501570267   0.603441234
Zr1      0.500391311   0.499217893   0.603482370
O1       0.249890773   0.000215549   0.672795319
H1       0.250026315  -0.000052442   0.714001100

     Writing output data file calc.save
     Check: negative starting charge=   -0.729268
     NEW-OLD atomic charge density approx. for the potential
     Check: negative starting charge=   -0.729145

[...]

     iteration #  1     ecut=    36.75 Ry     beta=0.30
     Davidson diagonalization with overlap
     c_bands:  1 eigenvalues not converged
     ethr =  1.00E-06,  avg # of iterations = 14.1

[...]

     energy   old            =   -1230.7799158588 Ry
     energy   new            =   -1230.7854123517 Ry

     CASE: energy  _new < energy  _old

[...]

     iteration #  1     ecut=    36.75 Ry     beta=0.30
     Davidson diagonalization with overlap
     c_bands:  1 eigenvalues not converged
     ethr =  1.00E-06,  avg # of iterations =  7.0

[...]

     Threshold (ethr) on eigenvalues was too large:
     Diagonalizing with lowered threshold

     Davidson diagonalization with overlap
     ethr =  9.74E-08,  avg # of iterations =  3.0

[...]

     Total force =     0.006400     Total SCF correction =     0.000560

[...]

     new trust radius        =       0.0138449807 bohr
     new conv_thr            =       0.0000001000 Ry

ATOMIC_POSITIONS (crystal)
Zr1      0.166666667   0.166666667   0.396150897    0   0   0
Zr1      0.666666667   0.166666667   0.396150897    0   0   0
Zr1      0.166666667   0.666666667   0.396150897    0   0   0
Zr1      0.666666667   0.666666667   0.396150897    0   0   0
Zr1      0.833333333   0.333333333   0.500000000    0   0   0
Zr1      0.333333333   0.333333333   0.500000000    0   0   0
Zr1      0.833333333   0.833333333   0.500000000    0   0   0
Zr1      0.333333333   0.833333333   0.500000000    0   0   0
Zr1     -0.002818772  -0.003007451   0.600184161
Zr1      0.505829483  -0.003014903   0.600182541
Zr1     -0.003089117   0.506185270   0.600145764
Zr1      0.499881485   0.500232916   0.595153844
O1       0.166513971   0.166970060   0.651365722
H1       0.165848963   0.168311612   0.689948966

     Writing output data file calc.save
     Check: negative starting charge=   -0.729299
     NEW-OLD atomic charge density approx. for the potential
     Check: negative starting charge=   -0.729455

[...]

     Self-consistent Calculation

[...]

     Threshold (ethr) on eigenvalues was too large:
     Diagonalizing with lowered threshold

     Davidson diagonalization with overlap
     ethr =  2.65E-08,  avg # of iterations =  6.7

[...]

     total energy              =   -1230.84762095 Ry
     Harris-Foulkes estimate   =   -1230.84762095 Ry
     estimated scf accuracy    <       0.00000012 Ry

     iteration # 11     ecut=    36.75 Ry     beta=0.30
     Davidson diagonalization with overlap
     ethr =  8.26E-11,  avg # of iterations =  1.3

[...]

     negative rho (up, down):  7.500E-01 0.000E+00

     Adding external electric field

     Computed dipole along edir(3) :
        Dipole                0.3528 Ry au,          0.8968 Debye
        Dipole field          0.0007 Ry au

        Potential amp.       -0.0678 Ry
        Total length         46.5096 bohr

     End of self-consistent calculation

[...]

          k = 0.0519-0.0599 0.0000 ( 22856 PWs)   bands (ev):

[...]

          k =-0.0779-0.0450 0.0000 ( 22880 PWs)   bands (ev):

   -47.3772 -47.3553 -47.3377 -47.3364 -47.3279 -47.2929 -47.2914 -47.1900
   -46.9744 -46.9601 -46.9360 -46.8685 -25.6826 -25.5602 -25.5400 -25.5267
   -25.5133 -25.5050 -25.4655 -25.4431 -25.4205 -25.4032 -25.3638 -25.3629
   -25.3598 -25.3314 -25.3036 -25.2996 -25.2979 -25.2530 -25.2460 -25.2090
   -25.0875 -25.0375 -25.0338 -25.0262 -25.0150 -25.0144 -24.9161 -24.8968
   -24.8773 -24.8435 -24.8238 -24.8055 -24.7726 -24.7458 -24.6812 -24.6470
   -19.7003  -7.6116  -4.1546  -4.0648  -1.6226  -1.5450  -0.6533  -0.5161
    -0.0110  -0.0106   0.0897   0.1010   0.1058   0.2563   0.7572   0.8486
     0.8570   0.8673   0.9074   0.9721   1.2774   1.3085   1.3115   1.3823
     1.4526   1.4962   1.6525   1.7277   1.7641   1.8719   1.9332   1.9927
     2.0397   2.1669   2.1998   2.5528   2.6234

     the Fermi energy is     1.8860 ev

!    total energy              =   -1230.84762096 Ry
     Harris-Foulkes estimate   =   -1230.84762074 Ry
     estimated scf accuracy    <       0.00000003 Ry

     The total energy is the sum of the following terms:

     one-electron contribution =   -8776.62145314 Ry
     hartree contribution      =    4383.80067433 Ry
     xc contribution           =    -229.14506728 Ry
     ewald contribution        =    3391.22857442 Ry
     electric field correction =       0.00025717 Ry
     smearing contrib. (-TS)   =      -0.11060646 Ry

     convergence has been achieved in  11 iterations

 BEEF-vdW xc energy contributions
           1 :   -196.256736830502
           2 :    177.501619858693
           3 :   -145.890729537658
           4 :    110.321724341314
           5 :   -78.8343048320918
           6 :    55.8159218307796
           7 :   -41.3210885964568
           8 :    32.3933289018992
           9 :   -25.3774635426997
          10 :    17.9072189992577
          11 :   -9.68579128105728
          12 :    1.97088969489570
          13 :    3.64978297865252
          14 :   -6.37762293883094
          15 :    6.62934763672880
          16 :   -5.67328538513777
          17 :    4.82731368546627
          18 :   -4.75784591818319
          19 :    5.27133625951893
          20 :   -5.64685262590638
          21 :    5.23380217416701
          22 :   -3.91499989395277
          23 :    2.16286203718920
          24 :  -0.704593424108566
          25 :   5.596018529593039E-002
          26 :  -0.234524567468156
          27 :   0.811613446137130
          28 :   -1.23091281757706
          29 :    1.16229008537999
          30 :  -0.668843992854590
          31 :   -22.7159705568401
          32 :   -16.8880587741753

     Forces acting on atoms (Ry/au):

     negative rho (up, down):  7.500E-01 0.000E+00
     atom    1 type  1   force =    -0.00000061    0.00001856    0.01096068
     atom    2 type  1   force =    -0.00000132    0.00175857    0.01255296
     atom    3 type  1   force =     0.00150693   -0.00088453    0.01258274
     atom    4 type  1   force =    -0.00150787   -0.00088393    0.01258257
     atom    5 type  1   force =     0.00728683   -0.00421342   -0.01130411
     atom    6 type  1   force =    -0.00728793   -0.00421519   -0.01130747
     atom    7 type  1   force =     0.00000163    0.00010763   -0.01526225
     atom    8 type  1   force =    -0.00000387    0.00844923   -0.01146861
     atom    9 type  1   force =    -0.00021299    0.00028526    0.00027704
     atom   10 type  1   force =     0.00021610    0.00028956    0.00028134
     atom   11 type  1   force =    -0.00000218   -0.00045270    0.00026933
     atom   12 type  1   force =     0.00000060   -0.00022414    0.00052199
     atom   13 type  2   force =     0.00000588    0.00025240   -0.00290052
     atom   14 type  3   force =    -0.00000120   -0.00028730    0.00221431

     Total force =     0.003805     Total SCF correction =     0.000487
     SCF correction compared to forces is large: reduce conv_thr to get better values

     entering subroutine stress ...

     negative rho (up, down):  7.500E-01 0.000E+00
          total   stress  (Ry/bohr**3)                   (kbar)     P=   -4.81
  -0.00002942   0.00000000   0.00000000         -4.33      0.00      0.00
   0.00000000  -0.00002923  -0.00000020          0.00     -4.30     -0.03
   0.00000000  -0.00000020  -0.00003952          0.00     -0.03     -5.81

     number of scf cycles    =  50
     number of bfgs steps    =  49

     energy   old            =   -1230.8476064951 Ry
     energy   new            =   -1230.8476209575 Ry

     CASE: energy  _new < energy  _old

     new trust radius        =       0.0029971622 bohr

     The maximum number of steps has been reached.

     End of BFGS Geometry Optimization
Begin final coordinates

ATOMIC_POSITIONS (crystal)
Zr1      0.166666667   0.166666667   0.396150897    0   0   0
Zr1      0.666666667   0.166666667   0.396150897    0   0   0
Zr1      0.166666667   0.666666667   0.396150897    0   0   0
Zr1      0.666666667   0.666666667   0.396150897    0   0   0
Zr1      0.833333333   0.333333333   0.500000000    0   0   0
Zr1      0.333333333   0.333333333   0.500000000    0   0   0
Zr1      0.833333333   0.833333333   0.500000000    0   0   0
Zr1      0.333333333   0.833333333   0.500000000    0   0   0
Zr1     -0.002822822  -0.003069986   0.600191613
Zr1      0.505896578  -0.003076730   0.600190172
Zr1     -0.003044970   0.506096109   0.600141516
Zr1      0.499863060   0.500269789   0.595212218
O1       0.166528385   0.166942889   0.651303177
H1       0.165874155   0.168260889   0.689917488
End final coordinates

     Writing output data file calc.save

     General routines

     Parallel routines

   This run was terminated on:  18: 0:32  25Apr2018

   JOB DONE.
Job  /afs/slac/g/suncat/bin/suncat-tsmpirun -x LD_LIBRARY_PATH -wdir /scratch/qe395232_eQqi2 pw.x -npool 4 -in pw.inp

TID   HOST_NAME   COMMAND_LINE            STATUS            TERMINATION_TIME
00000 suncat0272 pw.x -npool 4 -i  Done                     04/25/2018 18:00:32
00001 suncat0272 pw.x -npool 4 -i  Done                     04/25/2018 18:00:32
00002 suncat0272 pw.x -npool 4 -i  Done                     04/25/2018 18:00:32
00003 suncat0272 pw.x -npool 4 -i  Done                     04/25/2018 18:00:32
00004 suncat0272 pw.x -npool 4 -i  Done                     04/25/2018 18:00:32
00005 suncat0272 pw.x -npool 4 -i  Done                     04/25/2018 18:00:32
00006 suncat0272 pw.x -npool 4 -i  Done                     04/25/2018 18:00:32
00007 suncat0272 pw.x -npool 4 -i  Done                     04/25/2018 18:00:32
00008 suncat0266 pw.x -npool 4 -i  Done                     04/25/2018 18:00:32
00009 suncat0266 pw.x -npool 4 -i  Done                     04/25/2018 18:00:32
00010 suncat0266 pw.x -npool 4 -i  Done                     04/25/2018 18:00:32
00011 suncat0266 pw.x -npool 4 -i  Done                     04/25/2018 18:00:32
00012 suncat0266 pw.x -npool 4 -i  Done                     04/25/2018 18:00:32
00013 suncat0266 pw.x -npool 4 -i  Done                     04/25/2018 18:00:32
00014 suncat0266 pw.x -npool 4 -i  Done                     04/25/2018 18:00:32
00015 suncat0266 pw.x -npool 4 -i  Done                     04/25/2018 18:00:32
00016 suncat0262 pw.x -npool 4 -i  Done                     04/25/2018 18:00:32
00017 suncat0262 pw.x -npool 4 -i  Done                     04/25/2018 18:00:32
00018 suncat0262 pw.x -npool 4 -i  Done                     04/25/2018 18:00:32
00019 suncat0262 pw.x -npool 4 -i  Done                     04/25/2018 18:00:32
00020 suncat0262 pw.x -npool 4 -i  Done                     04/25/2018 18:00:32
00021 suncat0262 pw.x -npool 4 -i  Done                     04/25/2018 18:00:32
00022 suncat0262 pw.x -npool 4 -i  Done                     04/25/2018 18:00:32
00023 suncat0262 pw.x -npool 4 -i  Done                     04/25/2018 18:00:32
00024 suncat0251 pw.x -npool 4 -i  Done                     04/25/2018 18:00:32
00025 suncat0251 pw.x -npool 4 -i  Done                     04/25/2018 18:00:32
00026 suncat0251 pw.x -npool 4 -i  Done                     04/25/2018 18:00:32
00027 suncat0251 pw.x -npool 4 -i  Done                     04/25/2018 18:00:32
00028 suncat0251 pw.x -npool 4 -i  Done                     04/25/2018 18:00:32
00029 suncat0251 pw.x -npool 4 -i  Done                     04/25/2018 18:00:32
00030 suncat0251 pw.x -npool 4 -i  Done                     04/25/2018 18:00:32
00031 suncat0251 pw.x -npool 4 -i  Done                     04/25/2018 18:00:32