     Program PWSCF v.5.1rc2 (svn rev. 11289) starts on 25Apr2018 at  9:40:48

     Current dimensions of program PWSCF are:
     Max number of different atomic species (ntypx) = 10
     Max number of k-points (npk) =  40000
     Max angular momentum in pseudopotentials (lmaxx) =  3
     Presently stress not available with electric field

     IMPORTANT: XC functional enforced from input :
     Exchange-correlation      = BEEF-VDW ( 1  4 27 13 2)
     Any further DFT definition will be discarded
     Please, verify this is what you really want

     Subspace diagonalization in iterative solution of the eigenvalue problem:
     a serial algorithm will be used

     bravais-lattice index     =            0
     lattice parameter (alat)  =       1.8897  a.u.
     unit-cell volume          =    6082.7792 (a.u.)^3
     number of atoms/cell      =           14
     number of atomic types    =            3
     number of electrons       =       151.00
     number of Kohn-Sham states=           85
     kinetic-energy cutoff     =      36.7493  Ry
     charge density cutoff     =     367.4932  Ry
     convergence threshold     =      1.0E-05
     mixing beta               =       0.3000
     number of iterations used =           10  plain     mixing
     Exchange-correlation      = BEEF-VDW ( 1  4 27 13 2)
     nstep                     =           50

     celldm(1)=   1.889726  celldm(2)=   0.000000  celldm(3)=   0.000000
     celldm(4)=   0.000000  celldm(5)=   0.000000  celldm(6)=   0.000000

     crystal axes: (cart. coord. in units of alat)
               a(1) = (   6.421223   0.000000   0.000000 )
               a(2) = (   3.210611   5.560942   0.000000 )
               a(3) = (   0.000000   0.000000  25.242906 )

     reciprocal axes: (cart. coord. in units 2 pi/alat)
               b(1) = (  0.155734 -0.089913  0.000000 )
               b(2) = (  0.000000  0.179826  0.000000 )
               b(3) = (  0.000000  0.000000  0.039615 )

     PseudoPot. # 1 for Zr read from file:
     /u/if/mamunm/psp/gbrv1.5pbe/Zr.UPF
     MD5 check sum: 5db81b1e868ab7776c4564c113de050b
     Pseudo is Ultrasoft + core correction, Zval = 12.0
     Generated by new atomic code, or converted to UPF format
     Using radial grid of  887 points,  6 beta functions with:
                l(1) =   0
                l(2) =   0
                l(3) =   1
                l(4) =   1
                l(5) =   2
                l(6) =   2
     Q(r) pseudized with  6 coefficients,  rinner =    1.200   1.200   1.200
                                                       1.200   1.200

     PseudoPot. # 2 for O  read from file:
     /u/if/mamunm/psp/gbrv1.5pbe/O.UPF
     MD5 check sum: 734c27235a0248c51dbae37a1fbe46ec
     Pseudo is Ultrasoft + core correction, Zval =  6.0
     Generated by new atomic code, or converted to UPF format
     Using radial grid of  737 points,  5 beta functions with:
                l(1) =   0
                l(2) =   0
                l(3) =   1
                l(4) =   1
                l(5) =   2
     Q(r) pseudized with  8 coefficients,  rinner =    0.900   0.900   0.900
                                                       0.900   0.900

     PseudoPot. # 3 for H  read from file:
     /u/if/mamunm/psp/gbrv1.5pbe/H.UPF
     MD5 check sum: 761ae9a214b05c3daf00ab9f6b793d6f
     Pseudo is Ultrasoft, Zval =  1.0
     Generated by new atomic code, or converted to UPF format
     Using radial grid of  615 points,  2 beta functions with:
                l(1) =   0
                l(2) =   0
     Q(r) pseudized with  8 coefficients,  rinner =    0.700

     vdW kernel table read from file vdW_kernel_table
     MD5 check sum: 095c7af220d748ca6e76c0b4c6cfb241

     atomic species   valence    mass     pseudopotential
        Zr1           12.00    91.22400     Zr( 1.00)
        O1             6.00    15.99900     O ( 1.00)
        H1             1.00     1.00800     H ( 1.00)

     No symmetry found

   Cartesian axes

     site n.     atom                  positions (alat units)
         1           Zr1 tau(   1) = (   1.6053057   0.9268237  10.0000000  )
         2           Zr1 tau(   2) = (   4.8159170   0.9268237  10.0000000  )
         3           Zr1 tau(   3) = (   3.2106113   3.7072946  10.0000000  )
         4           Zr1 tau(   4) = (   6.4212227   3.7072946  10.0000000  )
         5           Zr1 tau(   5) = (   6.4212227   1.8536473  12.6214532  )
         6           Zr1 tau(   6) = (   3.2106113   1.8536473  12.6214532  )
         7           Zr1 tau(   7) = (   8.0265283   4.6341183  12.6214532  )
         8           Zr1 tau(   8) = (   4.8159170   4.6341183  12.6214532  )
         9           Zr1 tau(   9) = (   0.0000000   0.0000000  15.2429064  )
        10           Zr1 tau(  10) = (   3.2106113   0.0000000  15.2429064  )
        11           Zr1 tau(  11) = (   1.6053057   2.7804710  15.2429064  )
        12           Zr1 tau(  12) = (   4.8159170   2.7804710  15.2429064  )
        13           O1  tau(  13) = (   3.2106113   1.8536473  16.8094064  )
        14           H1  tau(  14) = (   3.2106113   1.8536473  17.7594064  )

     number of k points=    20  Fermi-Dirac smearing, width (Ry)=  0.0110
                       cart. coord. in units 2pi/alat
        k(    1) = (   0.0000000   0.0000000   0.0000000), wk =   0.0555556
        k(    2) = (   0.0000000   0.0299709   0.0000000), wk =   0.1111111
        k(    3) = (   0.0000000   0.0599419   0.0000000), wk =   0.1111111
        k(    4) = (   0.0000000  -0.0899128   0.0000000), wk =   0.0555556
        k(    5) = (   0.0259556  -0.0149855   0.0000000), wk =   0.1111111
        k(    6) = (   0.0259556   0.0149855   0.0000000), wk =   0.1111111
        k(    7) = (   0.0259556   0.0449564   0.0000000), wk =   0.1111111
        k(    8) = (   0.0259556  -0.1048983   0.0000000), wk =   0.1111111
        k(    9) = (   0.0259556  -0.0749274   0.0000000), wk =   0.1111111
        k(   10) = (   0.0259556  -0.0449564   0.0000000), wk =   0.1111111
        k(   11) = (   0.0519112  -0.0299709   0.0000000), wk =   0.1111111
        k(   12) = (   0.0519112   0.0000000   0.0000000), wk =   0.1111111
        k(   13) = (   0.0519112   0.0299709   0.0000000), wk =   0.1111111
        k(   14) = (   0.0519112  -0.1198838   0.0000000), wk =   0.1111111
        k(   15) = (   0.0519112  -0.0899128   0.0000000), wk =   0.1111111
        k(   16) = (   0.0519112  -0.0599419   0.0000000), wk =   0.1111111
        k(   17) = (  -0.0778668   0.0449564   0.0000000), wk =   0.0555556
        k(   18) = (  -0.0778668   0.0749274   0.0000000), wk =   0.1111111
        k(   19) = (  -0.0778668   0.1048983   0.0000000), wk =   0.1111111
        k(   20) = (  -0.0778668  -0.0449564   0.0000000), wk =   0.0555556

     Largest allocated arrays     est. size (Mb)     dimensions
     Largest temporary arrays     est. size (Mb)     dimensions

     Initial potential from superposition of free atoms
     Check: negative starting charge=   -0.729257

     starting charge  150.97420, renormalised to  151.00000

     negative rho (up, down):  7.294E-01 0.000E+00

     *
     * You are using vdW-DF for exchange-correlation in this calculation.
     * Please cite the following three references that made this development
     * possible:
     *
     *   M. Dion, H. Rydberg, E. Schroder, D. C. Langreth, and
     *   B. I. Lundqvist, Phys. Rev. Lett. 92, 246401 (2004).
     *
     *   T. Thonhauser, V. R. Cooper, S. Li, A. Puzder, P. Hyldgaard, and
     *   D. C. Langreth, Phys. Rev. B 76, 125112 (2007).
     *
     *   G. Roman-Perez and J. M. Soler, Phys. Rev. Lett. 103, 096102 (2009).
     *
     *
     * If you are using vdW-DF2, please also cite:
     *
     *   K. Lee, E. D. Murray, L. Kong, B. I. Lundqvist, and
     *   D. C. Langreth, Phys. Rev. B 82, 081101(R) (2010).
     *
     *
     * If you are calculating the stress with vdW-DF, please also cite:
     *
     *   R. Sabatini, E. Kucukbenli, B. Kolb, T. Thonhauser, and
     *   S. de Gironcoli, J. Phys.: Condens. Matter 24, 424209 (2012).
     *

     Carrying out vdW-DF run using the following parameters:

     Nqs =      20    Nr_points =    1024   r_max =   100.000
     q_mesh =
               0.00001000     0.04494208     0.09755937     0.15916263
               0.23128650     0.31572767     0.41458969     0.53033537
               0.66584808     0.82450364     1.01025438     1.22772762
               1.48234092     1.78043706     2.12944203     2.53805004
               3.01644009     3.57652955     4.23227104     5.00000000

     Gradients computed in reciprocal space

     Adding external electric field

     Computed dipole along edir(3) :
        Dipole               -0.0097 Ry au,         -0.0246 Debye
        Dipole field         -0.0000 Ry au

        Potential amp.        0.0019 Ry
        Total length         46.5096 bohr

     Starting wfc are  161 randomized atomic wfcs

     Self-consistent Calculation

     iteration #  1     ecut=    36.75 Ry     beta=0.30
     Davidson diagonalization with overlap
     ethr =  1.00E-02,  avg # of iterations =  2.0

[...]

     total energy              =   -1227.87030011 Ry
     Harris-Foulkes estimate   =   -1231.53714245 Ry
     estimated scf accuracy    <       7.72903015 Ry

[...]

     End of self-consistent calculation

          k = 0.0000 0.0000 0.0000 ( 22923 PWs)   bands (ev):

   -47.4905 -47.4168 -47.4124 -47.4122 -47.3347 -47.3282 -47.3263 -47.3262
   -47.1029 -47.0254 -47.0180 -47.0178 -25.8327 -25.7484 -25.7483 -25.6861
   -25.6810 -25.6810 -25.6471 -25.5583 -25.5582 -25.5389 -25.4634 -25.3668
   -25.3667 -25.3410 -25.2280 -25.2175 -25.2175 -25.2052 -25.2051 -25.1964
   -25.1509 -25.1509 -25.1496 -25.0425 -25.0425 -24.9860 -24.9860 -24.9382
   -24.9323 -24.9322 -24.9201 -24.8441 -24.8401 -24.8400 -24.6901 -24.6901
   -19.0302  -6.9472  -3.1251  -3.1251  -3.0438  -1.8956  -1.1265  -0.7086
    -0.7086  -0.6254  -0.5342  -0.5011  -0.5011  -0.1078  -0.1078  -0.0020
     0.0511   0.0511   0.0698   0.9447   0.9447   1.0678   1.7358   1.9079
     2.0476   2.0476   2.3152   2.4363   2.5661   2.6031   2.6032   2.6495
     2.7717   2.7718   2.9921   2.9932   3.0224

[...]

          k =-0.0779 0.0450 0.0000 ( 22880 PWs)   bands (ev):

[...]

     the Fermi energy is     1.8582 ev

!    total energy              =   -1230.81332781 Ry
     Harris-Foulkes estimate   =   -1230.81331680 Ry
     estimated scf accuracy    <       0.00000492 Ry

     The total energy is the sum of the following terms:

     one-electron contribution =   -8555.73825015 Ry
     hartree contribution      =    4273.19359166 Ry
     xc contribution           =    -228.90890829 Ry
     ewald contribution        =    3280.75864079 Ry
     electric field correction =       0.00024265 Ry
     smearing contrib. (-TS)   =      -0.11864446 Ry

     convergence has been achieved in  18 iterations

 BEEF-vdW xc energy contributions
           1 :   -196.012854747945
           2 :    177.161513473324
           3 :   -145.459164175296
           4 :    109.908131266588
           5 :   -78.5754253027426
           6 :    55.7841974203017
           7 :   -41.4753708910668
           8 :    32.6014203067330
           9 :   -25.4935816175600
          10 :    17.8544506846576
          11 :   -9.49584025757460
          12 :    1.75944988611815
          13 :    3.75628643978681
          14 :   -6.31963161259159
          15 :    6.44838994950570
          16 :   -5.48128523746058
          17 :    4.73249418093891
          18 :   -4.79539272008051
          19 :    5.38203094217718
          20 :   -5.71828051854106
          21 :    5.17717261823134
          22 :   -3.72431180060497
          23 :    1.91639417105429
          24 :  -0.510036324531001
          25 :  -2.143936428009852E-002
          26 :  -0.257778581614929
          27 :   0.854915867400763
          28 :   -1.20716155004359
          29 :    1.03394269629425
          30 :  -0.468045645684953
          31 :   -22.6977839326676
          32 :   -16.8508880862147

     Forces acting on atoms (Ry/au):

     negative rho (up, down):  7.490E-01 0.000E+00
     atom    1 type  1   force =     0.00053048    0.00029135    0.01399159
     atom    2 type  1   force =    -0.00053266    0.00030341    0.01398344
     atom    3 type  1   force =     0.00000797   -0.00060707    0.01400329
     atom    4 type  1   force =    -0.00001036    0.00000589    0.01405570
     atom    5 type  1   force =     0.00000782    0.00198813   -0.00240135
     atom    6 type  1   force =    -0.00000339   -0.00000032    0.00292512
     atom    7 type  1   force =    -0.00171623   -0.00099363   -0.00240949
     atom    8 type  1   force =     0.00172109   -0.00098757   -0.00240344
     atom    9 type  1   force =     0.00001219   -0.00000778   -0.03770741
     atom   10 type  1   force =    -0.00001537    0.00935144    0.01444667
     atom   11 type  1   force =     0.00809986   -0.00468242    0.01445656
     atom   12 type  1   force =    -0.00810019   -0.00466509    0.01445046
     atom   13 type  2   force =    -0.00000023    0.00000579   -0.10342074
     atom   14 type  3   force =    -0.00000097   -0.00000214    0.04602960

     Total force =     0.122985     Total SCF correction =     0.001885

     entering subroutine stress ...

     negative rho (up, down):  7.490E-01 0.000E+00
          total   stress  (Ry/bohr**3)                   (kbar)     P=  -13.32
  -0.00008269  -0.00000000   0.00000000        -12.16     -0.00      0.00
  -0.00000000  -0.00008269  -0.00000001         -0.00    -12.16     -0.00
   0.00000000  -0.00000001  -0.00010622          0.00     -0.00    -15.63

     BFGS Geometry Optimization

     number of scf cycles    =   1
     number of bfgs steps    =   0

     energy   new            =   -1230.8133278099 Ry

     new trust radius        =       0.1034207406 bohr
     new conv_thr            =       0.0000099958 Ry

ATOMIC_POSITIONS (crystal)
Zr1      0.166666667   0.166666667   0.396150897    0   0   0
Zr1      0.666666667   0.166666667   0.396150897    0   0   0
Zr1      0.166666667   0.666666667   0.396150897    0   0   0
Zr1      0.666666667   0.666666667   0.396150897    0   0   0
Zr1      0.833333333   0.333333333   0.500000000    0   0   0
Zr1      0.333333333   0.333333333   0.500000000    0   0   0
Zr1      0.833333333   0.833333333   0.500000000    0   0   0
Zr1      0.333333333   0.833333333   0.500000000    0   0   0
Zr1      0.000001375  -0.000000740   0.603058627
Zr1      0.499553794   0.000889880   0.604151954
Zr1      0.000890304   0.499554423   0.604152162
Zr1      0.499554422   0.499556072   0.604152034
O1       0.333333039   0.333333884   0.663738090
H1       0.333333355   0.333333130   0.704505413

     Writing output data file calc.save
     Check: negative starting charge=   -0.729257
     NEW-OLD atomic charge density approx. for the potential
     Check: negative starting charge=   -0.729883

[...]

     energy   old            =   -1230.8133278099 Ry
     energy   new            =   -1230.8161694723 Ry

     CASE: energy  _new < energy  _old

[...]

     Total force =     0.011357     Total SCF correction =     0.000889

[...]

     Threshold (ethr) on eigenvalues was too large:
     Diagonalizing with lowered threshold

     Davidson diagonalization with overlap
     ethr =  7.54E-08,  avg # of iterations =  1.7

[...]

     Total force =     0.002754     Total SCF correction =     0.000534
     SCF correction compared to forces is large: reduce conv_thr to get better values

[...]

     number of scf cycles    =  16
     number of bfgs steps    =  15

     energy   old            =   -1230.8386473212 Ry
     energy   new            =   -1230.8386908402 Ry

     CASE: energy  _new < energy  _old

     new trust radius        =       0.0022895114 bohr
     new conv_thr            =       0.0000001000 Ry

ATOMIC_POSITIONS (crystal)
Zr1      0.166666667   0.166666667   0.396150897    0   0   0
Zr1      0.666666667   0.166666667   0.396150897    0   0   0
Zr1      0.166666667   0.666666667   0.396150897    0   0   0
Zr1      0.666666667   0.666666667   0.396150897    0   0   0
Zr1      0.833333333   0.333333333   0.500000000    0   0   0
Zr1      0.333333333   0.333333333   0.500000000    0   0   0
Zr1      0.833333333   0.833333333   0.500000000    0   0   0
Zr1      0.333333333   0.833333333   0.500000000    0   0   0
Zr1     -0.000000742  -0.000000095   0.593883725
Zr1      0.500437796  -0.000871573   0.601933086
Zr1     -0.000866946   0.500433299   0.601932155
Zr1      0.500437321   0.500432972   0.601932903
O1       0.333333252   0.333332762   0.655154612
H1       0.333334913   0.333332365   0.693761630

     Writing output data file calc.save
     Check: negative starting charge=   -0.729671
     NEW-OLD atomic charge density approx. for the potential
     Check: negative starting charge=   -0.729626

[...]

     Self-consistent Calculation

[...]

     Threshold (ethr) on eigenvalues was too large:
     Diagonalizing with lowered threshold

     Davidson diagonalization with overlap
     ethr =  3.03E-09,  avg # of iterations =  5.8

[...]

     total energy              =   -1230.83869508 Ry
     Harris-Foulkes estimate   =   -1230.83869509 Ry
     estimated scf accuracy    <       0.00000011 Ry

     iteration #  7     ecut=    36.75 Ry     beta=0.30
     Davidson diagonalization with overlap
     ethr =  6.97E-11,  avg # of iterations =  5.9

[...]

     negative rho (up, down):  7.493E-01 0.000E+00

     Adding external electric field

     Computed dipole along edir(3) :
        Dipole                0.3680 Ry au,          0.9353 Debye
        Dipole field          0.0008 Ry au

        Potential amp.       -0.0707 Ry
        Total length         46.5096 bohr

     End of self-consistent calculation

[...]

          k = 0.0519-0.0599 0.0000 ( 22856 PWs)   bands (ev):

[...]

          k =-0.0779-0.0450 0.0000 ( 22880 PWs)   bands (ev):

   -47.4068 -47.3852 -47.3601 -47.3307 -47.3269 -47.2853 -47.2819 -47.0855
   -46.9804 -46.9388 -46.9132 -46.9032 -25.7115 -25.5449 -25.5327 -25.5235
   -25.5122 -25.4927 -25.4609 -25.4401 -25.4157 -25.3868 -25.3749 -25.3707
   -25.3568 -25.3290 -25.3063 -25.2966 -25.2885 -25.2461 -25.2358 -25.1390
   -25.1217 -25.0567 -25.0281 -25.0247 -24.9848 -24.9837 -24.9239 -24.8934
   -24.8633 -24.8477 -24.8324 -24.7819 -24.7719 -24.7139 -24.6800 -24.6442
   -19.5624  -7.5192  -4.0106  -3.9240  -1.6059  -1.5407  -0.6488  -0.5208
     0.0173   0.0182   0.0992   0.1049   0.1658   0.2345   0.7822   0.8147
     0.8911   0.8981   0.9504   1.0268   1.2620   1.3551   1.3748   1.3880
     1.4951   1.5288   1.7218   1.7289   1.7518   1.8966   1.9308   1.9596
     2.1057   2.1416   2.2154   2.3178   2.6132

     the Fermi energy is     1.8937 ev

!    total energy              =   -1230.83869505 Ry
     Harris-Foulkes estimate   =   -1230.83869558 Ry
     estimated scf accuracy    <       0.00000009 Ry

     The total energy is the sum of the following terms:

     one-electron contribution =   -8727.44601085 Ry
     hartree contribution      =    4359.27759402 Ry
     xc contribution           =    -229.10544999 Ry
     ewald contribution        =    3366.54851335 Ry
     electric field correction =       0.00027976 Ry
     smearing contrib. (-TS)   =      -0.11362134 Ry

     convergence has been achieved in   7 iterations

 BEEF-vdW xc energy contributions
           1 :   -196.218690382746
           2 :    177.453101436118
           3 :   -145.831253651266
           4 :    110.259935138513
           5 :   -78.7818687370596
           6 :    55.7825197686597
           7 :   -41.3103114664813
           8 :    32.3995157936604
           9 :   -25.3862480261790
          10 :    17.9019429599251
          11 :   -9.65818737025290
          12 :    1.92890747916425
          13 :    3.68442624326312
          14 :   -6.38278723065656
          15 :    6.59801667796839
          16 :   -5.61916930757954
          17 :    4.77516549669588
          18 :   -4.72496991234698
          19 :    5.25403081925077
          20 :   -5.62255973966433
          21 :    5.17787390951557
          22 :   -3.81931060486841
          23 :    2.04201824464894
          24 :  -0.585641031536539
          25 :  -4.009314292068211E-002
          26 :  -0.163277693863478
          27 :   0.748810326464366
          28 :   -1.15468409998965
          29 :    1.06040091416634
          30 :  -0.546579722014059
          31 :   -22.7129953781678
          32 :   -16.8824947745437

     Forces acting on atoms (Ry/au):

     negative rho (up, down):  7.493E-01 0.000E+00
     atom    1 type  1   force =    -0.00036674   -0.00021212    0.01210456
     atom    2 type  1   force =     0.00036678   -0.00021174    0.01210447
     atom    3 type  1   force =     0.00000034    0.00042368    0.01210460
     atom    4 type  1   force =    -0.00000027    0.00000015    0.01021851
     atom    5 type  1   force =    -0.00000050    0.01236963   -0.01648572
     atom    6 type  1   force =     0.00000143   -0.00000110    0.00206240
     atom    7 type  1   force =    -0.01071283   -0.00618445   -0.01648575
     atom    8 type  1   force =     0.01071263   -0.00618491   -0.01648258
     atom    9 type  1   force =     0.00000178   -0.00000092    0.00047634
     atom   10 type  1   force =    -0.00000066   -0.00047991    0.00032562
     atom   11 type  1   force =    -0.00041796    0.00024108    0.00032988
     atom   12 type  1   force =     0.00041585    0.00024063    0.00032633
     atom   13 type  2   force =     0.00000097   -0.00000049   -0.00021553
     atom   14 type  3   force =    -0.00000082    0.00000047   -0.00038314

     Total force =     0.001198     Total SCF correction =     0.000711
     SCF correction compared to forces is large: reduce conv_thr to get better values

     entering subroutine stress ...

     negative rho (up, down):  7.493E-01 0.000E+00
          total   stress  (Ry/bohr**3)                   (kbar)     P=   -7.11
  -0.00005306  -0.00000000  -0.00000000         -7.81     -0.00     -0.00
  -0.00000000  -0.00005306   0.00000000         -0.00     -7.81      0.00
  -0.00000000   0.00000000  -0.00003895         -0.00      0.00     -5.73

     bfgs converged in  17 scf cycles and  16 bfgs steps
     (criteria: energy <  1.0E+00, force <  1.9E-03)

     End of BFGS Geometry Optimization

     Final energy   =   -1230.8386950499 Ry
Begin final coordinates

ATOMIC_POSITIONS (crystal)
Zr1      0.166666667   0.166666667   0.396150897    0   0   0
Zr1      0.666666667   0.166666667   0.396150897    0   0   0
Zr1      0.166666667   0.666666667   0.396150897    0   0   0
Zr1      0.666666667   0.666666667   0.396150897    0   0   0
Zr1      0.833333333   0.333333333   0.500000000    0   0   0
Zr1      0.333333333   0.333333333   0.500000000    0   0   0
Zr1      0.833333333   0.833333333   0.500000000    0   0   0
Zr1      0.333333333   0.833333333   0.500000000    0   0   0
Zr1     -0.000000742  -0.000000095   0.593883725
Zr1      0.500437796  -0.000871573   0.601933086
Zr1     -0.000866946   0.500433299   0.601932155
Zr1      0.500437321   0.500432972   0.601932903
O1       0.333333252   0.333332762   0.655154612
H1       0.333334913   0.333332365   0.693761630
End final coordinates

     Writing output data file calc.save

     General routines

     Parallel routines

   This run was terminated on:  11:49:16  25Apr2018

   JOB DONE.
Job  /afs/slac/g/suncat/bin/suncat-tsmpirun -x LD_LIBRARY_PATH -wdir /scratch/qe397945_NXIp0 pw.x -npool 4 -in pw.inp

TID   HOST_NAME   COMMAND_LINE            STATUS            TERMINATION_TIME
00000 suncat0092 pw.x -npool 4 -i  Done                     04/25/2018 11:49:16
00001 suncat0092 pw.x -npool 4 -i  Done                     04/25/2018 11:49:16
00002 suncat0092 pw.x -npool 4 -i  Done                     04/25/2018 11:49:16
00003 suncat0092 pw.x -npool 4 -i  Done                     04/25/2018 11:49:16
00004 suncat0092 pw.x -npool 4 -i  Done                     04/25/2018 11:49:16
00005 suncat0092 pw.x -npool 4 -i  Done                     04/25/2018 11:49:16
00006 suncat0092 pw.x -npool 4 -i  Done                     04/25/2018 11:49:16
00007 suncat0092 pw.x -npool 4 -i  Done                     04/25/2018 11:49:16
00008 suncat0088 pw.x -npool 4 -i  Done                     04/25/2018 11:49:16
00009 suncat0088 pw.x -npool 4 -i  Done                     04/25/2018 11:49:16
00010 suncat0088 pw.x -npool 4 -i  Done                     04/25/2018 11:49:16
00011 suncat0088 pw.x -npool 4 -i  Done                     04/25/2018 11:49:16
00012 suncat0088 pw.x -npool 4 -i  Done                     04/25/2018 11:49:16
00013 suncat0088 pw.x -npool 4 -i  Done                     04/25/2018 11:49:16
00014 suncat0088 pw.x -npool 4 -i  Done                     04/25/2018 11:49:16
00015 suncat0088 pw.x -npool 4 -i  Done                     04/25/2018 11:49:16
00016 suncat0087 pw.x -npool 4 -i  Done                     04/25/2018 11:49:16
00017 suncat0087 pw.x -npool 4 -i  Done                     04/25/2018 11:49:16
00018 suncat0087 pw.x -npool 4 -i  Done                     04/25/2018 11:49:16
00019 suncat0087 pw.x -npool 4 -i  Done                     04/25/2018 11:49:16
00020 suncat0087 pw.x -npool 4 -i  Done                     04/25/2018 11:49:16
00021 suncat0087 pw.x -npool 4 -i  Done                     04/25/2018 11:49:16
00022 suncat0087 pw.x -npool 4 -i  Done                     04/25/2018 11:49:16
00023 suncat0087 pw.x -npool 4 -i  Done                     04/25/2018 11:49:16
00024 suncat0081 pw.x -npool 4 -i  Done                     04/25/2018 11:49:16
00025 suncat0081 pw.x -npool 4 -i  Done                     04/25/2018 11:49:16
00026 suncat0081 pw.x -npool 4 -i  Done                     04/25/2018 11:49:16
00027 suncat0081 pw.x -npool 4 -i  Done                     04/25/2018 11:49:16
00028 suncat0081 pw.x -npool 4 -i  Done                     04/25/2018 11:49:16
00029 suncat0081 pw.x -npool 4 -i  Done                     04/25/2018 11:49:16
00030 suncat0081 pw.x -npool 4 -i  Done                     04/25/2018 11:49:16
00031 suncat0081 pw.x -npool 4 -i  Done                     04/25/2018 11:49:16