     Program PWSCF v.5.1rc2 (svn rev. 11289) starts on 16Apr2018 at 11:28:11

     Current dimensions of program PWSCF are:
     Max number of different atomic species (ntypx) = 10
     Max number of k-points (npk) =  40000
     Max angular momentum in pseudopotentials (lmaxx) =  3
     Presently stress not available with electric field

     IMPORTANT: XC functional enforced from input :
     Exchange-correlation      = BEEF-VDW ( 1  4 27 13 2)
     Any further DFT definition will be discarded
     Please, verify this is what you really want

     Subspace diagonalization in iterative solution of the eigenvalue problem:
     a serial algorithm will be used

     bravais-lattice index     =            0
     lattice parameter (alat)  =       1.8897  a.u.
     unit-cell volume          =    4650.5773 (a.u.)^3
     number of atoms/cell      =           14
     number of atomic types    =            3
     number of electrons       =        43.00
     number of Kohn-Sham states=           31
     kinetic-energy cutoff     =      36.7493  Ry
     charge density cutoff     =     367.4932  Ry
     convergence threshold     =      1.0E-05
     mixing beta               =       0.3000
     number of iterations used =           10  plain     mixing
     Exchange-correlation      = BEEF-VDW ( 1  4 27 13 2)
     nstep                     =           50

     celldm(1)=   1.889726  celldm(2)=   0.000000  celldm(3)=   0.000000
     celldm(4)=   0.000000  celldm(5)=   0.000000  celldm(6)=   0.000000

     crystal axes: (cart. coord. in units of alat)
               a(1) = (   5.682886   0.000000   0.000000 )
               a(2) = (   2.841443   4.921524   0.000000 )
               a(3) = (   0.000000   0.000000  24.640057 )

     reciprocal axes: (cart. coord. in units 2 pi/alat)
               b(1) = (  0.175967 -0.101595  0.000000 )
               b(2) = (  0.000000  0.203189  0.000000 )
               b(3) = (  0.000000  0.000000  0.040584 )

     PseudoPot. # 1 for Al read from file:
     /u/if/mamunm/psp/gbrv1.5pbe/Al.UPF
     MD5 check sum: 0a6289f5291fc8f409219462bc851e1f
     Pseudo is Ultrasoft + core correction, Zval =  3.0
     Generated by new atomic code, or converted to UPF format
     Using radial grid of  893 points,  3 beta functions with:
                l(1) =   0
                l(2) =   1
                l(3) =   2
     Q(r) pseudized with  8 coefficients,  rinner =    0.900   0.900   0.900
                                                       0.900   0.900

     PseudoPot. # 2 for S  read from file:
     /u/if/mamunm/psp/gbrv1.5pbe/S.UPF
     MD5 check sum: 88d86576ff6df21479756cfb9bdac1df
     Pseudo is Ultrasoft + core correction, Zval =  6.0
     Generated by new atomic code, or converted to UPF format
     Using radial grid of  907 points,  6 beta functions with:
                l(1) =   0
                l(2) =   0
                l(3) =   1
                l(4) =   1
                l(5) =   2
                l(6) =   2
     Q(r) pseudized with  8 coefficients,  rinner =    1.300   1.300   1.300
                                                       1.300   1.300

     PseudoPot. # 3 for H  read from file:
     /u/if/mamunm/psp/gbrv1.5pbe/H.UPF
     MD5 check sum: 761ae9a214b05c3daf00ab9f6b793d6f
     Pseudo is Ultrasoft, Zval =  1.0
     Generated by new atomic code, or converted to UPF format
     Using radial grid of  615 points,  2 beta functions with:
                l(1) =   0
                l(2) =   0
     Q(r) pseudized with  8 coefficients,  rinner =    0.700

     vdW kernel table read from file vdW_kernel_table
     MD5 check sum: 095c7af220d748ca6e76c0b4c6cfb241

     atomic species   valence    mass     pseudopotential
        Al1            3.00    26.98154     Al( 1.00)
        S1             6.00    32.06000     S ( 1.00)
        H1             1.00     1.00800     H ( 1.00)

     No symmetry found

   Cartesian axes

     site n.     atom                  positions (alat units)
         1           Al1 tau(   1) = (   1.4207216   0.8202540  10.0000000  )
         2           Al1 tau(   2) = (   4.2621647   0.8202540  10.0000000  )
         3           Al1 tau(   3) = (   2.8414431   3.2810159  10.0000000  )
         4           Al1 tau(   4) = (   5.6828862   3.2810159  10.0000000  )
         5           Al1 tau(   5) = (   5.6828862   1.6405079  12.3200286  )
         6           Al1 tau(   6) = (   2.8414431   1.6405079  12.3200286  )
         7           Al1 tau(   7) = (   7.1036078   4.1012699  12.3200286  )
         8           Al1 tau(   8) = (   4.2621647   4.1012699  12.3200286  )
         9           Al1 tau(   9) = (   0.0000000   0.0000000  14.6400572  )
        10           Al1 tau(  10) = (   2.8414431   0.0000000  14.6400572  )
        11           Al1 tau(  11) = (   1.4207216   2.4607619  14.6400572  )
        12           Al1 tau(  12) = (   4.2621647   2.4607619  14.6400572  )
        13           S1  tau(  13) = (   1.4207216   0.8202540  16.1090572  )
        14           H1  tau(  14) = (   1.4207216   0.8202540  17.3590572  )

     number of k points=    20  Fermi-Dirac smearing, width (Ry)=  0.0110
                       cart. coord. in units 2pi/alat
        k(    1) = (   0.0000000   0.0000000   0.0000000), wk =   0.0555556
        k(    2) = (   0.0000000   0.0338648   0.0000000), wk =   0.1111111
        k(    3) = (   0.0000000   0.0677297   0.0000000), wk =   0.1111111
        k(    4) = (   0.0000000  -0.1015945   0.0000000), wk =   0.0555556
        k(    5) = (   0.0293278  -0.0169324   0.0000000), wk =   0.1111111
        k(    6) = (   0.0293278   0.0169324   0.0000000), wk =   0.1111111
        k(    7) = (   0.0293278   0.0507973   0.0000000), wk =   0.1111111
        k(    8) = (   0.0293278  -0.1185270   0.0000000), wk =   0.1111111
        k(    9) = (   0.0293278  -0.0846621   0.0000000), wk =   0.1111111
        k(   10) = (   0.0293278  -0.0507973   0.0000000), wk =   0.1111111
        k(   11) = (   0.0586556  -0.0338648   0.0000000), wk =   0.1111111
        k(   12) = (   0.0586556   0.0000000   0.0000000), wk =   0.1111111
        k(   13) = (   0.0586556   0.0338648   0.0000000), wk =   0.1111111
        k(   14) = (   0.0586556  -0.1354594   0.0000000), wk =   0.1111111
        k(   15) = (   0.0586556  -0.1015945   0.0000000), wk =   0.1111111
        k(   16) = (   0.0586556  -0.0677297   0.0000000), wk =   0.1111111
        k(   17) = (  -0.0879835   0.0507973   0.0000000), wk =   0.0555556
        k(   18) = (  -0.0879835   0.0846621   0.0000000), wk =   0.1111111
        k(   19) = (  -0.0879835   0.1185270   0.0000000), wk =   0.1111111
        k(   20) = (  -0.0879835  -0.0507973   0.0000000), wk =   0.0555556

     Largest allocated arrays     est. size (Mb)     dimensions
     Largest temporary arrays     est. size (Mb)     dimensions

     Initial potential from superposition of free atoms
     Check: negative starting charge=   -0.000140

     starting charge   42.97037, renormalised to   43.00000

     negative rho (up, down):  1.398E-04 0.000E+00

     *
     * You are using vdW-DF for exchange-correlation in this calculation.
     * Please cite the following three references that made this development
     * possible:
     *
     *   M. Dion, H. Rydberg, E. Schroder, D. C. Langreth, and
     *   B. I. Lundqvist, Phys. Rev. Lett. 92, 246401 (2004).
     *
     *   T. Thonhauser, V. R. Cooper, S. Li, A. Puzder, P. Hyldgaard, and
     *   D. C. Langreth, Phys. Rev. B 76, 125112 (2007).
     *
     *   G. Roman-Perez and J. M. Soler, Phys. Rev. Lett. 103, 096102 (2009).
     *
     *
     * If you are using vdW-DF2, please also cite:
     *
     *   K. Lee, E. D. Murray, L. Kong, B. I. Lundqvist, and
     *   D. C. Langreth, Phys. Rev. B 82, 081101(R) (2010).
     *
     *
     * If you are calculating the stress with vdW-DF, please also cite:
     *
     *   R. Sabatini, E. Kucukbenli, B. Kolb, T. Thonhauser, and
     *   S. de Gironcoli, J. Phys.: Condens. Matter 24, 424209 (2012).
     *

     Carrying out vdW-DF run using the following parameters:

     Nqs =      20    Nr_points =    1024   r_max =   100.000
     q_mesh =
               0.00001000     0.04494208     0.09755937     0.15916263
               0.23128650     0.31572767     0.41458969     0.53033537
               0.66584808     0.82450364     1.01025438     1.22772762
               1.48234092     1.78043706     2.12944203     2.53805004
               3.01644009     3.57652955     4.23227104     5.00000000

     Gradients computed in reciprocal space

     Adding external electric field

     Computed dipole along edir(3) :
        Dipole               -0.0358 Ry au,         -0.0911 Debye
        Dipole field         -0.0001 Ry au

        Potential amp.        0.0088 Ry
        Total length         45.3989 bohr

     Starting wfc are   53 randomized atomic wfcs

     Self-consistent Calculation

     iteration #  1     ecut=    36.75 Ry     beta=0.30
     Davidson diagonalization with overlap
     ethr =  1.00E-02,  avg # of iterations =  3.3

[...]

     total energy              =    -107.64323450 Ry
     Harris-Foulkes estimate   =    -108.14525672 Ry
     estimated scf accuracy    <       1.17113504 Ry

[...]

     End of self-consistent calculation

          k = 0.0000 0.0000 0.0000 ( 17579 PWs)   bands (ev):

   -16.6316 -10.8596  -9.9517  -8.2116  -6.5562  -6.5562  -5.7852  -4.6777
    -4.6777  -4.6254  -4.4891  -4.4121  -4.4121  -3.3517  -3.1069  -3.1069
    -3.0357  -2.5406  -2.5406  -1.8306  -0.4532  -0.4532  -0.2739  -0.1860
     0.5939   0.5939   0.8203   1.8619   2.3457   2.3457   2.4222

[...]

          k =-0.0880 0.0508 0.0000 ( 17464 PWs)   bands (ev):

[...]

     the Fermi energy is     0.0548 ev

!    total energy              =    -107.95086149 Ry
     Harris-Foulkes estimate   =    -107.95085966 Ry
     estimated scf accuracy    <       0.00000089 Ry

     The total energy is the sum of the following terms:

     one-electron contribution =    -787.76930609 Ry
     hartree contribution      =     403.03196144 Ry
     xc contribution           =     -63.01332533 Ry
     ewald contribution        =     339.83061426 Ry
     electric field correction =       0.00035362 Ry
     smearing contrib. (-TS)   =      -0.03115940 Ry

     convergence has been achieved in  10 iterations

 BEEF-vdW xc energy contributions
           1 :   -51.9137647941375
           2 :    44.6657487104127
           3 :   -33.4484994669541
           4 :    22.5558895450647
           5 :   -14.8153741875089
           6 :    10.5738878117227
           7 :   -8.41921106876654
           8 :    6.75362413296283
           9 :   -4.95356399287667
          10 :    3.38847391420884
          11 :   -2.60688475724579
          12 :    2.59501358654951
          13 :   -2.75799250125826
          14 :    2.50357108646584
          15 :   -1.77467622189691
          16 :    1.01986657187184
          17 :  -0.695316719459832
          18 :   0.823323796388280
          19 :   -1.01614686043919
          20 :   0.883428741236884
          21 :  -0.394365684107228
          22 :  -0.138764095888078
          23 :   0.390833002184664
          24 :  -0.319521673342877
          25 :   0.156462475904803
          26 :  -0.145588879397735
          27 :   0.309807268084299
          28 :  -0.466085966580394
          29 :   0.442773311693713
          30 :  -0.262064026929004
          31 :   -7.59716091675621
          32 :   -5.51919265593756

     Forces acting on atoms (Ry/au):

     negative rho (up, down):  3.322E-04 0.000E+00
     atom    1 type  1   force =    -0.00000014   -0.00000020    0.00159498
     atom    2 type  1   force =    -0.00000001   -0.00015534   -0.00349259
     atom    3 type  1   force =    -0.00013462    0.00007796   -0.00349242
     atom    4 type  1   force =     0.00013450    0.00007734   -0.00349185
     atom    5 type  1   force =    -0.00386914    0.00223421    0.00902586
     atom    6 type  1   force =     0.00386931    0.00223456    0.00902673
     atom    7 type  1   force =     0.00000021   -0.00000027   -0.00962005
     atom    8 type  1   force =    -0.00000068   -0.00446837    0.00902638
     atom    9 type  1   force =    -0.07066106   -0.04079628   -0.05180726
     atom   10 type  1   force =     0.07066115   -0.04079606   -0.05180848
     atom   11 type  1   force =     0.00000011    0.08159321   -0.05180759
     atom   12 type  1   force =    -0.00000060    0.00000020   -0.01883987
     atom   13 type  2   force =     0.00000095   -0.00000085   -0.00099941
     atom   14 type  3   force =     0.00000003   -0.00000011    0.16668556

     Total force =     0.236990     Total SCF correction =     0.000234

     entering subroutine stress ...

     negative rho (up, down):  3.322E-04 0.000E+00
          total   stress  (Ry/bohr**3)                   (kbar)     P=    9.99
   0.00001004  -0.00000000  -0.00000000          1.48     -0.00     -0.00
  -0.00000000   0.00001004   0.00000000         -0.00      1.48      0.00
  -0.00000000   0.00000000   0.00018369         -0.00      0.00     27.02

     BFGS Geometry Optimization

     number of scf cycles    =   1
     number of bfgs steps    =   0

     energy   new            =    -107.9508614891 Ry

     new trust radius        =       0.1666855603 bohr
     new conv_thr            =       0.0000099958 Ry

ATOMIC_POSITIONS (crystal)
Al1      0.166666667   0.166666667   0.405843214    0   0   0
Al1      0.666666667   0.166666667   0.405843214    0   0   0
Al1      0.166666667   0.666666667   0.405843214    0   0   0
Al1      0.666666667   0.666666667   0.405843214    0   0   0
Al1      0.833333333   0.333333333   0.500000000    0   0   0
Al1      0.333333333   0.333333333   0.500000000    0   0   0
Al1      0.833333333   0.833333333   0.500000000    0   0   0
Al1      0.333333333   0.833333333   0.500000000    0   0   0
Al1     -0.004386524  -0.004386540   0.593044158
Al1      0.508773061  -0.004386517   0.593044132
Al1     -0.004386565   0.508773151   0.593044151
Al1      0.499999933   0.500000021   0.593752175
S1       0.166666801   0.166666576   0.653753691
H1       0.166666675   0.166666655   0.708085345

     Writing output data file calc.save
     Check: negative starting charge=   -0.000140
     NEW-OLD atomic charge density approx. for the potential
     Check: negative starting charge=   -0.000139

[...]

     energy   old            =    -107.9508614891 Ry
     energy   new            =    -107.9926424258 Ry

     CASE: energy  _new < energy  _old

[...]

     number of scf cycles    =  14
     number of bfgs steps    =  13

     energy   old            =    -108.0481522993 Ry
     energy   new            =    -108.0486891370 Ry

     CASE: energy  _new < energy  _old

     new trust radius        =       0.0144282611 bohr
     new conv_thr            =       0.0000001000 Ry

ATOMIC_POSITIONS (crystal)
Al1      0.166666667   0.166666667   0.405843214    0   0   0
Al1      0.666666667   0.166666667   0.405843214    0   0   0
Al1      0.166666667   0.666666667   0.405843214    0   0   0
Al1      0.666666667   0.666666667   0.405843214    0   0   0
Al1      0.833333333   0.333333333   0.500000000    0   0   0
Al1      0.333333333   0.333333333   0.500000000    0   0   0
Al1      0.833333333   0.833333333   0.500000000    0   0   0
Al1      0.333333333   0.833333333   0.500000000    0   0   0
Al1     -0.003842029  -0.003842038   0.596449491
Al1      0.507683981  -0.003841895   0.596449523
Al1     -0.003841939   0.507684110   0.596449506
Al1      0.499999967   0.500000080   0.590947137
S1       0.166666681   0.166666631   0.677883530
H1       0.166666601   0.166666518   0.734045750

     Writing output data file calc.save
     Check: negative starting charge=   -0.000118
     NEW-OLD atomic charge density approx. for the potential
     Check: negative starting charge=   -0.000118

[...]

     Self-consistent Calculation

[...]

     total energy              =    -108.04879078 Ry
     Harris-Foulkes estimate   =    -108.04878924 Ry
     estimated scf accuracy    <       0.00000035 Ry

     iteration #  7     ecut=    36.75 Ry     beta=0.30
     Davidson diagonalization with overlap
     ethr =  8.09E-10,  avg # of iterations =  2.0

[...]

     negative rho (up, down):  3.153E-04 0.000E+00

     Adding external electric field

     Computed dipole along edir(3) :
        Dipole                0.0454 Ry au,          0.1154 Debye
        Dipole field          0.0001 Ry au

        Potential amp.       -0.0111 Ry
        Total length         45.3989 bohr

     End of self-consistent calculation

[...]

          k = 0.0587-0.0677 0.0000 ( 17495 PWs)   bands (ev):

[...]

          k =-0.0880-0.0508 0.0000 ( 17464 PWs)   bands (ev):

   -14.3362  -9.5389  -9.5215  -8.3283  -7.9203  -7.0532  -6.5419  -6.3981
    -5.4911  -5.1574  -5.0029  -4.2790  -3.6781  -3.5647  -2.4106  -1.8736
    -1.5684  -1.3454  -0.8050  -0.7895  -0.5271  -0.4665   0.5652   0.5848
     0.8854   1.1656   1.2672   1.6087   1.6125   1.7605   2.4273

     the Fermi energy is    -0.3913 ev

!    total energy              =    -108.04879083 Ry
     Harris-Foulkes estimate   =    -108.04879073 Ry
     estimated scf accuracy    <       0.00000004 Ry

     The total energy is the sum of the following terms:

     one-electron contribution =    -738.70223036 Ry
     hartree contribution      =     378.36349710 Ry
     xc contribution           =     -62.64582657 Ry
     ewald contribution        =     314.96643310 Ry
     electric field correction =       0.00000557 Ry
     smearing contrib. (-TS)   =      -0.03066967 Ry

     convergence has been achieved in   7 iterations

 BEEF-vdW xc energy contributions
           1 :   -51.5562017814654
           2 :    44.2244784042613
           3 :   -32.9332551015530
           4 :    22.0534748189390
           5 :   -14.4175386997888
           6 :    10.3235091078202
           7 :   -8.30476076173140
           8 :    6.74641640545887
           9 :   -5.03810174544422
          10 :    3.55697828281996
          11 :   -2.83409468590500
          12 :    2.82794031848670
          13 :   -2.93755928852988
          14 :    2.59898438547098
          15 :   -1.79729538958942
          16 :    1.00393754101962
          17 :  -0.664563941379825
          18 :   0.775290182800887
          19 :  -0.936274146137997
          20 :   0.770853435560355
          21 :  -0.271871417451941
          22 :  -0.238792450419922
          23 :   0.448978982485016
          24 :  -0.340821368805507
          25 :   0.164695253762048
          26 :  -0.168901004804503
          27 :   0.369998781213539
          28 :  -0.575472791235100
          29 :   0.604136808181849
          30 :  -0.467813749941996
          31 :   -7.57076450723658
          32 :   -5.47326749140960

     Forces acting on atoms (Ry/au):

     negative rho (up, down):  3.153E-04 0.000E+00
     atom    1 type  1   force =    -0.00000001   -0.00000001   -0.00057486
     atom    2 type  1   force =     0.00000002    0.00014331   -0.00137872
     atom    3 type  1   force =     0.00012409   -0.00007163   -0.00137872
     atom    4 type  1   force =    -0.00012410   -0.00007165   -0.00137871
     atom    5 type  1   force =     0.00120529   -0.00069586    0.00339609
     atom    6 type  1   force =    -0.00120530   -0.00069591    0.00339606
     atom    7 type  1   force =    -0.00000004    0.00000001   -0.00367271
     atom    8 type  1   force =     0.00000003    0.00139175    0.00339607
     atom    9 type  1   force =    -0.00023930   -0.00013810   -0.00057515
     atom   10 type  1   force =     0.00023933   -0.00013826   -0.00057525
     atom   11 type  1   force =    -0.00000015    0.00027630   -0.00057520
     atom   12 type  1   force =     0.00000010   -0.00000002   -0.00062775
     atom   13 type  2   force =     0.00000002    0.00000006    0.00095347
     atom   14 type  3   force =     0.00000004    0.00000001   -0.00040462

     Total force =     0.001640     Total SCF correction =     0.000137

     entering subroutine stress ...

     negative rho (up, down):  3.153E-04 0.000E+00
          total   stress  (Ry/bohr**3)                   (kbar)     P=   -6.16
  -0.00006436   0.00000000  -0.00000000         -9.47      0.00     -0.00
   0.00000000  -0.00006436  -0.00000000          0.00     -9.47     -0.00
  -0.00000000  -0.00000000   0.00000308         -0.00     -0.00      0.45

     bfgs converged in  15 scf cycles and  14 bfgs steps
     (criteria: energy <  1.0E+00, force <  1.9E-03)

     End of BFGS Geometry Optimization

     Final energy   =    -108.0487908276 Ry
Begin final coordinates

ATOMIC_POSITIONS (crystal)
Al1      0.166666667   0.166666667   0.405843214    0   0   0
Al1      0.666666667   0.166666667   0.405843214    0   0   0
Al1      0.166666667   0.666666667   0.405843214    0   0   0
Al1      0.666666667   0.666666667   0.405843214    0   0   0
Al1      0.833333333   0.333333333   0.500000000    0   0   0
Al1      0.333333333   0.333333333   0.500000000    0   0   0
Al1      0.833333333   0.833333333   0.500000000    0   0   0
Al1      0.333333333   0.833333333   0.500000000    0   0   0
Al1     -0.003842029  -0.003842038   0.596449491
Al1      0.507683981  -0.003841895   0.596449523
Al1     -0.003841939   0.507684110   0.596449506
Al1      0.499999967   0.500000080   0.590947137
S1       0.166666681   0.166666631   0.677883530
H1       0.166666601   0.166666518   0.734045750
End final coordinates

     Writing output data file calc.save

     General routines

     Parallel routines

   This run was terminated on:  12: 4:38  16Apr2018

   JOB DONE.
Job  /afs/slac/g/suncat/bin/suncat-tsmpirun -x LD_LIBRARY_PATH -wdir /scratch/qe113991_4iNuc pw.x -npool 4 -in pw.inp

TID   HOST_NAME   COMMAND_LINE            STATUS            TERMINATION_TIME
00000 suncat0076 pw.x -npool 4 -i  Done                     04/16/2018 12:04:38
00001 suncat0076 pw.x -npool 4 -i  Done                     04/16/2018 12:04:38
00002 suncat0076 pw.x -npool 4 -i  Done                     04/16/2018 12:04:38
00003 suncat0076 pw.x -npool 4 -i  Done                     04/16/2018 12:04:38
00004 suncat0076 pw.x -npool 4 -i  Done                     04/16/2018 12:04:38
00005 suncat0076 pw.x -npool 4 -i  Done                     04/16/2018 12:04:38
00006 suncat0076 pw.x -npool 4 -i  Done                     04/16/2018 12:04:38
00007 suncat0076 pw.x -npool 4 -i  Done                     04/16/2018 12:04:38
00008 suncat0047 pw.x -npool 4 -i  Done                     04/16/2018 12:04:38
00009 suncat0047 pw.x -npool 4 -i  Done                     04/16/2018 12:04:38
00010 suncat0047 pw.x -npool 4 -i  Done                     04/16/2018 12:04:38
00011 suncat0047 pw.x -npool 4 -i  Done                     04/16/2018 12:04:38
00012 suncat0047 pw.x -npool 4 -i  Done                     04/16/2018 12:04:38
00013 suncat0047 pw.x -npool 4 -i  Done                     04/16/2018 12:04:38
00014 suncat0047 pw.x -npool 4 -i  Done                     04/16/2018 12:04:38
00015 suncat0047 pw.x -npool 4 -i  Done                     04/16/2018 12:04:38
00016 suncat0259 pw.x -npool 4 -i  Done                     04/16/2018 12:04:38
00017 suncat0259 pw.x -npool 4 -i  Done                     04/16/2018 12:04:38
00018 suncat0259 pw.x -npool 4 -i  Done                     04/16/2018 12:04:38
00019 suncat0259 pw.x -npool 4 -i  Done                     04/16/2018 12:04:38
00020 suncat0259 pw.x -npool 4 -i  Done                     04/16/2018 12:04:38
00021 suncat0259 pw.x -npool 4 -i  Done                     04/16/2018 12:04:38
00022 suncat0259 pw.x -npool 4 -i  Done                     04/16/2018 12:04:38
00023 suncat0259 pw.x -npool 4 -i  Done                     04/16/2018 12:04:38
00024 suncat0255 pw.x -npool 4 -i  Done                     04/16/2018 12:04:38
00025 suncat0255 pw.x -npool 4 -i  Done                     04/16/2018 12:04:38
00026 suncat0255 pw.x -npool 4 -i  Done                     04/16/2018 12:04:38
00027 suncat0255 pw.x -npool 4 -i  Done                     04/16/2018 12:04:38
00028 suncat0255 pw.x -npool 4 -i  Done                     04/16/2018 12:04:38
00029 suncat0255 pw.x -npool 4 -i  Done                     04/16/2018 12:04:38
00030 suncat0255 pw.x -npool 4 -i  Done                     04/16/2018 12:04:38
00031 suncat0255 pw.x -npool 4 -i  Done                     04/16/2018 12:04:38