     Program PWSCF v.5.1rc2 (svn rev. 11289) starts on 16Apr2018 at 10: 2:48

     Current dimensions of program PWSCF are:
     Max number of different atomic species (ntypx) = 10
     Max number of k-points (npk) =  40000
     Max angular momentum in pseudopotentials (lmaxx) =  3
     Presently stress not available with electric field

     IMPORTANT: XC functional enforced from input :
     Exchange-correlation      = BEEF-VDW ( 1  4 27 13 2)
     Any further DFT definition will be discarded
     Please, verify this is what you really want

     Subspace diagonalization in iterative solution of the eigenvalue problem:
     a serial algorithm will be used

     bravais-lattice index     =            0
     lattice parameter (alat)  =       1.8897  a.u.
     unit-cell volume          =    5174.6160 (a.u.)^3
     number of atoms/cell      =           14
     number of atomic types    =            3
     number of electrons       =       235.00
     number of Kohn-Sham states=          127
     kinetic-energy cutoff     =      36.7493  Ry
     charge density cutoff     =     367.4932  Ry
     convergence threshold     =      1.0E-05
     mixing beta               =       0.3000
     number of iterations used =           10  plain     mixing
     Exchange-correlation      = BEEF-VDW ( 1  4 27 13 2)
     nstep                     =           50

     celldm(1)=   1.889726  celldm(2)=   0.000000  celldm(3)=   0.000000
     celldm(4)=   0.000000  celldm(5)=   0.000000  celldm(6)=   0.000000

     crystal axes: (cart. coord. in units of alat)
               a(1) = (   5.966546   0.000000   0.000000 )
               a(2) = (   2.983273   5.167181   0.000000 )
               a(3) = (   0.000000   0.000000  24.871665 )

     reciprocal axes: (cart. coord. in units 2 pi/alat)
               b(1) = (  0.167601 -0.096765  0.000000 )
               b(2) = (  0.000000  0.193529  0.000000 )
               b(3) = (  0.000000  0.000000  0.040206 )

     PseudoPot. # 1 for Ag read from file:
     /u/if/mamunm/psp/gbrv1.5pbe/Ag.UPF
     MD5 check sum: d66d668201baa78d5eb5b04ef7011058
     Pseudo is Ultrasoft + core correction, Zval = 19.0
     Generated by new atomic code, or converted to UPF format
     Using radial grid of  887 points,  6 beta functions with:
                l(1) =   0
                l(2) =   0
                l(3) =   1
                l(4) =   1
                l(5) =   2
                l(6) =   2
     Q(r) pseudized with  6 coefficients,  rinner =    1.300   1.300   1.300
                                                       1.300   1.300

     PseudoPot. # 2 for S  read from file:
     /u/if/mamunm/psp/gbrv1.5pbe/S.UPF
     MD5 check sum: 88d86576ff6df21479756cfb9bdac1df
     Pseudo is Ultrasoft + core correction, Zval =  6.0
     Generated by new atomic code, or converted to UPF format
     Using radial grid of  907 points,  6 beta functions with:
                l(1) =   0
                l(2) =   0
                l(3) =   1
                l(4) =   1
                l(5) =   2
                l(6) =   2
     Q(r) pseudized with  8 coefficients,  rinner =    1.300   1.300   1.300
                                                       1.300   1.300

     PseudoPot. # 3 for H  read from file:
     /u/if/mamunm/psp/gbrv1.5pbe/H.UPF
     MD5 check sum: 761ae9a214b05c3daf00ab9f6b793d6f
     Pseudo is Ultrasoft, Zval =  1.0
     Generated by new atomic code, or converted to UPF format
     Using radial grid of  615 points,  2 beta functions with:
                l(1) =   0
                l(2) =   0
     Q(r) pseudized with  8 coefficients,  rinner =    0.700

     vdW kernel table read from file vdW_kernel_table
     MD5 check sum: 095c7af220d748ca6e76c0b4c6cfb241

     atomic species   valence    mass     pseudopotential
        Ag1           19.00   107.86820     Ag( 1.00)
        S1             6.00    32.06000     S ( 1.00)
        H1             1.00     1.00800     H ( 1.00)

     No symmetry found

   Cartesian axes

     site n.     atom                  positions (alat units)
         1           Ag1 tau(   1) = (   1.4916366   0.8611968  10.0000000  )
         2           Ag1 tau(   2) = (   4.4749098   0.8611968  10.0000000  )
         3           Ag1 tau(   3) = (   2.9832732   3.4447871  10.0000000  )
         4           Ag1 tau(   4) = (   5.9665464   3.4447871  10.0000000  )
         5           Ag1 tau(   5) = (   5.9665464   1.7223936  12.4358324  )
         6           Ag1 tau(   6) = (   2.9832732   1.7223936  12.4358324  )
         7           Ag1 tau(   7) = (   7.4581830   4.3059839  12.4358324  )
         8           Ag1 tau(   8) = (   4.4749098   4.3059839  12.4358324  )
         9           Ag1 tau(   9) = (   0.0000000   0.0000000  14.8716647  )
        10           Ag1 tau(  10) = (   2.9832732   0.0000000  14.8716647  )
        11           Ag1 tau(  11) = (   1.4916366   2.5835904  14.8716647  )
        12           Ag1 tau(  12) = (   4.4749098   2.5835904  14.8716647  )
        13           S1  tau(  13) = (   0.0000000   0.0000000  16.9966647  )
        14           H1  tau(  14) = (   0.0000000   0.0000000  18.2466647  )

     number of k points=    20  Fermi-Dirac smearing, width (Ry)=  0.0110
                       cart. coord. in units 2pi/alat
        k(    1) = (   0.0000000   0.0000000   0.0000000), wk =   0.0555556
        k(    2) = (   0.0000000   0.0322549   0.0000000), wk =   0.1111111
        k(    3) = (   0.0000000   0.0645097   0.0000000), wk =   0.1111111
        k(    4) = (   0.0000000  -0.0967646   0.0000000), wk =   0.0555556
        k(    5) = (   0.0279335  -0.0161274   0.0000000), wk =   0.1111111
        k(    6) = (   0.0279335   0.0161274   0.0000000), wk =   0.1111111
        k(    7) = (   0.0279335   0.0483823   0.0000000), wk =   0.1111111
        k(    8) = (   0.0279335  -0.1128920   0.0000000), wk =   0.1111111
        k(    9) = (   0.0279335  -0.0806371   0.0000000), wk =   0.1111111
        k(   10) = (   0.0279335  -0.0483823   0.0000000), wk =   0.1111111
        k(   11) = (   0.0558670  -0.0322549   0.0000000), wk =   0.1111111
        k(   12) = (   0.0558670   0.0000000   0.0000000), wk =   0.1111111
        k(   13) = (   0.0558670   0.0322549   0.0000000), wk =   0.1111111
        k(   14) = (   0.0558670  -0.1290194   0.0000000), wk =   0.1111111
        k(   15) = (   0.0558670  -0.0967646   0.0000000), wk =   0.1111111
        k(   16) = (   0.0558670  -0.0645097   0.0000000), wk =   0.1111111
        k(   17) = (  -0.0838006   0.0483823   0.0000000), wk =   0.0555556
        k(   18) = (  -0.0838006   0.0806371   0.0000000), wk =   0.1111111
        k(   19) = (  -0.0838006   0.1128920   0.0000000), wk =   0.1111111
        k(   20) = (  -0.0838006  -0.0483823   0.0000000), wk =   0.0555556

     Largest allocated arrays     est. size (Mb)     dimensions
     Largest temporary arrays     est. size (Mb)     dimensions

     Initial potential from superposition of free atoms
     Check: negative starting charge=   -0.001842

     starting charge  228.99939, renormalised to  235.00000

     negative rho (up, down):  1.890E-03 0.000E+00

     *
     * You are using vdW-DF for exchange-correlation in this calculation.
     * Please cite the following three references that made this development
     * possible:
     *
     *   M. Dion, H. Rydberg, E. Schroder, D. C. Langreth, and
     *   B. I. Lundqvist, Phys. Rev. Lett. 92, 246401 (2004).
     *
     *   T. Thonhauser, V. R. Cooper, S. Li, A. Puzder, P. Hyldgaard, and
     *   D. C. Langreth, Phys. Rev. B 76, 125112 (2007).
     *
     *   G. Roman-Perez and J. M. Soler, Phys. Rev. Lett. 103, 096102 (2009).
     *
     *
     * If you are using vdW-DF2, please also cite:
     *
     *   K. Lee, E. D. Murray, L. Kong, B. I. Lundqvist, and
     *   D. C. Langreth, Phys. Rev. B 82, 081101(R) (2010).
     *
     *
     * If you are calculating the stress with vdW-DF, please also cite:
     *
     *   R. Sabatini, E. Kucukbenli, B. Kolb, T. Thonhauser, and
     *   S. de Gironcoli, J. Phys.: Condens. Matter 24, 424209 (2012).
     *

     Carrying out vdW-DF run using the following parameters:

     Nqs =      20    Nr_points =    1024   r_max =   100.000
     q_mesh =
               0.00001000     0.04494208     0.09755937     0.15916263
               0.23128650     0.31572767     0.41458969     0.53033537
               0.66584808     0.82450364     1.01025438     1.22772762
               1.48234092     1.78043706     2.12944203     2.53805004
               3.01644009     3.57652955     4.23227104     5.00000000

     Gradients computed in reciprocal space

     Adding external electric field

     Computed dipole along edir(3) :
        Dipole               -1.6424 Ry au,         -4.1745 Debye
        Dipole field         -0.0040 Ry au

        Potential amp.        0.3655 Ry
        Total length         45.8256 bohr

     Starting wfc are  161 randomized atomic wfcs

     Self-consistent Calculation

     iteration #  1     ecut=    36.75 Ry     beta=0.30
     Davidson diagonalization with overlap
     ethr =  1.00E-02,  avg # of iterations =  5.2

[...]

     total energy              =   -3570.91424243 Ry
     Harris-Foulkes estimate   =   -3588.37271434 Ry
     estimated scf accuracy    <      37.43090776 Ry

[...]

     End of self-consistent calculation

          k = 0.0000 0.0000 0.0000 ( 19435 PWs)   bands (ev):

   -91.0574 -90.7054 -90.6984 -90.6984 -90.6981 -90.5309 -90.5257 -90.5257
   -90.4980 -90.4835 -90.4789 -90.4789 -54.6835 -54.5132 -54.5132 -54.2417
   -54.2417 -54.2388 -54.2053 -54.1945 -54.1918 -54.1918 -54.1808 -54.1779
   -54.1779 -54.1581 -54.1581 -54.0840 -54.0518 -54.0518 -54.0331 -54.0331
   -54.0256 -54.0171 -54.0096 -54.0096 -54.0055 -54.0000 -54.0000 -53.9759
   -53.9726 -53.9726 -53.9670 -53.9609 -53.9561 -53.9560 -53.9488 -53.9488
   -12.0820  -6.0695  -5.0945  -4.4956  -4.4926  -4.4926  -4.4363  -4.3670
    -4.3670  -4.3376  -4.3376  -4.2960  -4.2528  -4.2063  -4.0921  -4.0921
    -4.0544  -3.7836  -3.7836  -3.4542  -3.3784  -3.3784  -3.3461  -3.2716
    -3.2716  -3.2531  -3.1982  -3.1982  -3.1137  -3.1137  -3.0618  -3.0172
    -3.0172  -2.6559  -2.6559  -2.5403  -2.5227  -2.5227  -2.4395  -2.4395
    -2.4105  -2.2796  -2.2796  -2.2241  -2.1872  -2.1872  -2.0942  -1.9897
    -1.9897  -1.9457  -1.9066  -1.9066  -1.8710  -1.8710  -1.8114  -1.8114
    -1.7878  -1.7494  -1.7494  -1.6483  -1.5835  -1.5835  -1.5771  -1.5295
    -0.1121  -0.1121   0.6206   1.8116   1.9255   1.9255   2.4515   2.5698
     2.7270   2.7270   3.0020   3.2055   3.2055   4.9723   4.9723

[...]

          k =-0.0838 0.0484 0.0000 ( 19500 PWs)   bands (ev):

[...]

     the Fermi energy is     1.3368 ev

!    total energy              =   -3585.36024657 Ry
     Harris-Foulkes estimate   =   -3585.36024897 Ry
     estimated scf accuracy    <       0.00000184 Ry

     The total energy is the sum of the following terms:

     one-electron contribution =  -26040.97457827 Ry
     hartree contribution      =   13014.23510098 Ry
     xc contribution           =    -370.63907589 Ry
     ewald contribution        =    9812.04589940 Ry
     electric field correction =       0.00001446 Ry
     smearing contrib. (-TS)   =      -0.02760724 Ry

     convergence has been achieved in  15 iterations

 BEEF-vdW xc energy contributions
           1 :   -320.959641495628
           2 :    290.263211057432
           3 :   -239.127723218589
           4 :    183.030118072716
           5 :   -135.941764850241
           6 :    105.342808598537
           7 :   -90.8911910016099
           8 :    86.6730239671342
           9 :   -85.3303745134215
          10 :    81.7451598155455
          11 :   -74.6214651327291
          12 :    65.6866705330322
          13 :   -57.5574823024374
          14 :    51.8076665721268
          15 :   -48.2945157131988
          16 :    45.7818734085336
          17 :   -43.1004377537352
          18 :    39.9304277330873
          19 :   -36.7669193768080
          20 :    34.2809723397119
          21 :   -32.6727868905551
          22 :    31.5031148103855
          23 :   -30.0658186891890
          24 :    27.9582313589375
          25 :   -25.4032571983142
          26 :    23.0933346350628
          27 :   -21.6902682326557
          28 :    21.3532491440511
          29 :   -21.6321564122767
          30 :    21.7865714947365
          31 :   -32.1876811749490
          32 :   -23.3517886240504

     Forces acting on atoms (Ry/au):

     negative rho (up, down):  1.890E-03 0.000E+00
     atom    1 type  1   force =    -0.00014990   -0.00008638    0.00084658
     atom    2 type  1   force =     0.00014951   -0.00008628    0.00084731
     atom    3 type  1   force =    -0.00000023    0.00017289    0.00084670
     atom    4 type  1   force =    -0.00000017    0.00000042    0.00239297
     atom    5 type  1   force =     0.00000063   -0.00128193    0.00263317
     atom    6 type  1   force =    -0.00000065   -0.00000031    0.00291111
     atom    7 type  1   force =     0.00111025    0.00064079    0.00263447
     atom    8 type  1   force =    -0.00110891    0.00064182    0.00263343
     atom    9 type  1   force =     0.00000014   -0.00000054   -0.14651397
     atom   10 type  1   force =     0.00000002    0.00022390   -0.00381529
     atom   11 type  1   force =     0.00019436   -0.00011194   -0.00381490
     atom   12 type  1   force =    -0.00019426   -0.00011210   -0.00381534
     atom   13 type  2   force =    -0.00000073   -0.00000025    0.01624354
     atom   14 type  3   force =    -0.00000006   -0.00000007    0.12597021

     Total force =     0.194017     Total SCF correction =     0.000841

     entering subroutine stress ...

     negative rho (up, down):  1.890E-03 0.000E+00
          total   stress  (Ry/bohr**3)                   (kbar)     P=    2.09
  -0.00004714   0.00000000  -0.00000000         -6.93      0.00     -0.00
   0.00000000  -0.00004714   0.00000000          0.00     -6.93      0.00
  -0.00000000   0.00000000   0.00013699         -0.00      0.00     20.15

     BFGS Geometry Optimization

     number of scf cycles    =   1
     number of bfgs steps    =   0

     energy   new            =   -3585.3602465664 Ry

     new trust radius        =       0.1465139699 bohr
     new conv_thr            =       0.0000099958 Ry

ATOMIC_POSITIONS (crystal)
Ag1      0.166666667   0.166666667   0.402063960    0   0   0
Ag1      0.666666667   0.166666667   0.402063960    0   0   0
Ag1      0.166666667   0.666666667   0.402063960    0   0   0
Ag1      0.666666667   0.666666667   0.402063960    0   0   0
Ag1      0.833333333   0.333333333   0.500000000    0   0   0
Ag1      0.333333333   0.333333333   0.500000000    0   0   0
Ag1      0.833333333   0.833333333   0.500000000    0   0   0
Ag1      0.333333333   0.833333333   0.500000000    0   0   0
Ag1      0.000000040  -0.000000056   0.594818764
Ag1      0.499988537   0.000022930   0.597854865
Ag1      0.000022970   0.499988537   0.597854873
Ag1      0.499988511   0.499988519   0.597854864
S1      -0.000000051  -0.000000026   0.683720234
H1      -0.000000002  -0.000000008   0.736312808

     Writing output data file calc.save
     Check: negative starting charge=   -0.001842
     NEW-OLD atomic charge density approx. for the potential
     Check: negative starting charge=   -0.001839

[...]

     energy   old            =   -3585.3602465664 Ry
     energy   new            =   -3585.3883828566 Ry

     CASE: energy  _new < energy  _old

[...]

     iteration #  1     ecut=    36.75 Ry     beta=0.30
     Davidson diagonalization with overlap
     c_bands:  1 eigenvalues not converged
     ethr =  1.00E-06,  avg # of iterations =  7.5

[...]

     Threshold (ethr) on eigenvalues was too large:
     Diagonalizing with lowered threshold

     Davidson diagonalization with overlap
     ethr =  2.68E-08,  avg # of iterations =  1.9

[...]

     Total force =     0.009013     Total SCF correction =     0.000467

[...]

     Total force =     0.005555     Total SCF correction =     0.000777
     SCF correction compared to forces is large: reduce conv_thr to get better values

[...]

     number of scf cycles    =  11
     number of bfgs steps    =  10

     energy   old            =   -3585.4086968884 Ry
     energy   new            =   -3585.4088134894 Ry

     CASE: energy  _new < energy  _old

     new trust radius        =       0.0179963655 bohr
     new conv_thr            =       0.0000001000 Ry

ATOMIC_POSITIONS (crystal)
Ag1      0.166666667   0.166666667   0.402063960    0   0   0
Ag1      0.666666667   0.166666667   0.402063960    0   0   0
Ag1      0.166666667   0.666666667   0.402063960    0   0   0
Ag1      0.666666667   0.666666667   0.402063960    0   0   0
Ag1      0.833333333   0.333333333   0.500000000    0   0   0
Ag1      0.333333333   0.333333333   0.500000000    0   0   0
Ag1      0.833333333   0.833333333   0.500000000    0   0   0
Ag1      0.333333333   0.833333333   0.500000000    0   0   0
Ag1     -0.000000052   0.000000228   0.591414612
Ag1      0.499886060   0.000227840   0.598961915
Ag1      0.000227809   0.499886022   0.598961915
Ag1      0.499886183   0.499886083   0.598961921
S1      -0.000000041  -0.000000354   0.691622792
H1       0.000000023   0.000000208   0.745959051

     Writing output data file calc.save
     Check: negative starting charge=   -0.001786
     NEW-OLD atomic charge density approx. for the potential
     Check: negative starting charge=   -0.001788

[...]

     Self-consistent Calculation

[...]

     total energy              =   -3585.40886323 Ry
     Harris-Foulkes estimate   =   -3585.40886313 Ry
     estimated scf accuracy    <       0.00000011 Ry

     iteration #  7     ecut=    36.75 Ry     beta=0.30
     Davidson diagonalization with overlap
     ethr =  4.51E-11,  avg # of iterations =  2.0

[...]

     negative rho (up, down):  1.835E-03 0.000E+00

     Adding external electric field

     Computed dipole along edir(3) :
        Dipole               -0.2301 Ry au,         -0.5849 Debye
        Dipole field         -0.0006 Ry au

        Potential amp.        0.0512 Ry
        Total length         45.8256 bohr

     End of self-consistent calculation

[...]

          k = 0.0559-0.0645 0.0000 ( 19479 PWs)   bands (ev):

[...]

          k =-0.0838-0.0484 0.0000 ( 19500 PWs)   bands (ev):

   -90.9143 -90.9126 -90.9107 -90.8931 -90.8671 -90.6959 -90.6863 -90.6843
   -90.6828 -90.6606 -90.6589 -90.6571 -54.4461 -54.4304 -54.4254 -54.4173
   -54.4146 -54.4100 -54.4055 -54.4055 -54.3909 -54.3889 -54.3812 -54.3704
   -54.3589 -54.3589 -54.3573 -54.2213 -54.2156 -54.2025 -54.1989 -54.1905
   -54.1876 -54.1861 -54.1771 -54.1738 -54.1702 -54.1676 -54.1652 -54.1635
   -54.1621 -54.1615 -54.1604 -54.1600 -54.1452 -54.1311 -54.1292 -54.1273
   -11.1331  -4.8236  -4.3872  -4.3395  -4.2769  -4.2155  -4.2066  -4.1897
    -4.1509  -4.0731  -3.9969  -3.9839  -3.9442  -3.9054  -3.8695  -3.8510
    -3.8147  -3.7410  -3.5660  -3.5583  -3.5262  -3.5107  -3.4910  -3.4843
    -3.4221  -3.3654  -3.2619  -3.2568  -3.1662  -3.1457  -3.1326  -3.0973
    -3.0823  -3.0438  -2.9333  -2.9134  -2.8917  -2.8772  -2.8739  -2.8573
    -2.8519  -2.8343  -2.7031  -2.6921  -2.6764  -2.6473  -2.6095  -2.6032
    -2.5638  -2.5584  -2.5345  -2.5265  -2.4971  -2.4468  -2.3823  -2.3628
    -2.3191  -2.2703  -2.0626  -2.0539  -2.0414  -1.9757  -1.9205  -1.8767
    -1.2191  -0.7228   0.1021   0.2330   0.8747   0.9981   1.7488   1.7602
     2.3473   2.3871   4.2060   4.3036   4.5788   4.6277   6.2230

     the Fermi energy is     1.1273 ev

!    total energy              =   -3585.40886324 Ry
     Harris-Foulkes estimate   =   -3585.40886304 Ry
     estimated scf accuracy    <          8.1E-09 Ry

     The total energy is the sum of the following terms:

     one-electron contribution =  -26010.77622090 Ry
     hartree contribution      =   12998.22948011 Ry
     xc contribution           =    -370.48587455 Ry
     ewald contribution        =    9797.65213968 Ry
     electric field correction =       0.00012861 Ry
     smearing contrib. (-TS)   =      -0.02851620 Ry

     convergence has been achieved in   7 iterations

 BEEF-vdW xc energy contributions
           1 :   -320.799707139984
           2 :    290.037605057255
           3 :   -238.830633995212
           4 :    182.721381258999
           5 :   -135.702397772774
           6 :    105.219986163337
           7 :   -90.8712295541326
           8 :    86.6973563826226
           9 :   -85.3370685166692
          10 :    81.7060131834027
          11 :   -74.5532963321925
          12 :    65.6339953789661
          13 :   -57.5610969989646
          14 :    51.8798772462200
          15 :   -48.4144772873445
          16 :    45.9113146067403
          17 :   -43.2059182652347
          18 :    39.9965463866800
          19 :   -36.7959220694432
          20 :    34.2844595750868
          21 :   -32.6637141549040
          22 :    31.4924513578247
          23 :   -30.0621160648277
          24 :    27.9667754025145
          25 :   -25.4235379125784
          26 :    23.1159919316505
          27 :   -21.6968628575857
          28 :    21.3217835266672
          29 :   -21.5471513023619
          30 :    21.6468901392653
          31 :   -32.1760476013897
          32 :   -23.3247426720441

     Forces acting on atoms (Ry/au):

     negative rho (up, down):  1.835E-03 0.000E+00
     atom    1 type  1   force =     0.00008455    0.00004881    0.00022617
     atom    2 type  1   force =    -0.00008455    0.00004882    0.00022617
     atom    3 type  1   force =     0.00000000   -0.00009763    0.00022618
     atom    4 type  1   force =    -0.00000000   -0.00000001    0.00170878
     atom    5 type  1   force =    -0.00000000    0.00447679   -0.00189495
     atom    6 type  1   force =     0.00000001    0.00000000    0.00475440
     atom    7 type  1   force =    -0.00387697   -0.00223838   -0.00189482
     atom    8 type  1   force =     0.00387699   -0.00223839   -0.00189485
     atom    9 type  1   force =     0.00000000   -0.00000007    0.00110405
     atom   10 type  1   force =     0.00000005   -0.00013280   -0.00055977
     atom   11 type  1   force =    -0.00011488    0.00006652   -0.00055978
     atom   12 type  1   force =     0.00011487    0.00006645   -0.00055978
     atom   13 type  2   force =    -0.00000017   -0.00000026   -0.00123364
     atom   14 type  3   force =     0.00000010    0.00000015    0.00035184

     Total force =     0.001964     Total SCF correction =     0.000211
     SCF correction compared to forces is large: reduce conv_thr to get better values

     entering subroutine stress ...

     negative rho (up, down):  1.835E-03 0.000E+00
          total   stress  (Ry/bohr**3)                   (kbar)     P=   -6.45
  -0.00005354  -0.00000000  -0.00000000         -7.88     -0.00     -0.00
  -0.00000000  -0.00005354  -0.00000000         -0.00     -7.88     -0.00
  -0.00000000  -0.00000000  -0.00002449         -0.00     -0.00     -3.60

     bfgs converged in  12 scf cycles and  11 bfgs steps
     (criteria: energy <  1.0E+00, force <  1.9E-03)

     End of BFGS Geometry Optimization

     Final energy   =   -3585.4088632431 Ry
Begin final coordinates

ATOMIC_POSITIONS (crystal)
Ag1      0.166666667   0.166666667   0.402063960    0   0   0
Ag1      0.666666667   0.166666667   0.402063960    0   0   0
Ag1      0.166666667   0.666666667   0.402063960    0   0   0
Ag1      0.666666667   0.666666667   0.402063960    0   0   0
Ag1      0.833333333   0.333333333   0.500000000    0   0   0
Ag1      0.333333333   0.333333333   0.500000000    0   0   0
Ag1      0.833333333   0.833333333   0.500000000    0   0   0
Ag1      0.333333333   0.833333333   0.500000000    0   0   0
Ag1     -0.000000052   0.000000228   0.591414612
Ag1      0.499886060   0.000227840   0.598961915
Ag1      0.000227809   0.499886022   0.598961915
Ag1      0.499886183   0.499886083   0.598961921
S1      -0.000000041  -0.000000354   0.691622792
H1       0.000000023   0.000000208   0.745959051
End final coordinates

     Writing output data file calc.save

     General routines

     Parallel routines

   This run was terminated on:  11:16:46  16Apr2018

   JOB DONE.
Job  /afs/slac/g/suncat/bin/suncat-tsmpirun -x LD_LIBRARY_PATH -wdir /scratch/qe103513_1yKe0 pw.x -npool 4 -in pw.inp

TID   HOST_NAME   COMMAND_LINE            STATUS            TERMINATION_TIME
00000 suncat0019 pw.x -npool 4 -i  Done                     04/16/2018 11:16:46
00001 suncat0019 pw.x -npool 4 -i  Done                     04/16/2018 11:16:46
00002 suncat0019 pw.x -npool 4 -i  Done                     04/16/2018 11:16:46
00003 suncat0019 pw.x -npool 4 -i  Done                     04/16/2018 11:16:46
00004 suncat0019 pw.x -npool 4 -i  Done                     04/16/2018 11:16:46
00005 suncat0019 pw.x -npool 4 -i  Done                     04/16/2018 11:16:46
00006 suncat0019 pw.x -npool 4 -i  Done                     04/16/2018 11:16:46
00007 suncat0019 pw.x -npool 4 -i  Done                     04/16/2018 11:16:46
00008 suncat0018 pw.x -npool 4 -i  Done                     04/16/2018 11:16:46
00009 suncat0018 pw.x -npool 4 -i  Done                     04/16/2018 11:16:46
00010 suncat0018 pw.x -npool 4 -i  Done                     04/16/2018 11:16:46
00011 suncat0018 pw.x -npool 4 -i  Done                     04/16/2018 11:16:46
00012 suncat0018 pw.x -npool 4 -i  Done                     04/16/2018 11:16:46
00013 suncat0018 pw.x -npool 4 -i  Done                     04/16/2018 11:16:46
00014 suncat0018 pw.x -npool 4 -i  Done                     04/16/2018 11:16:46
00015 suncat0018 pw.x -npool 4 -i  Done                     04/16/2018 11:16:46
00016 suncat0196 pw.x -npool 4 -i  Done                     04/16/2018 11:16:46
00017 suncat0196 pw.x -npool 4 -i  Done                     04/16/2018 11:16:46
00018 suncat0196 pw.x -npool 4 -i  Done                     04/16/2018 11:16:46
00019 suncat0196 pw.x -npool 4 -i  Done                     04/16/2018 11:16:46
00020 suncat0196 pw.x -npool 4 -i  Done                     04/16/2018 11:16:46
00021 suncat0196 pw.x -npool 4 -i  Done                     04/16/2018 11:16:46
00022 suncat0196 pw.x -npool 4 -i  Done                     04/16/2018 11:16:46
00023 suncat0196 pw.x -npool 4 -i  Done                     04/16/2018 11:16:46
00024 suncat0192 pw.x -npool 4 -i  Done                     04/16/2018 11:16:46
00025 suncat0192 pw.x -npool 4 -i  Done                     04/16/2018 11:16:46
00026 suncat0192 pw.x -npool 4 -i  Done                     04/16/2018 11:16:46
00027 suncat0192 pw.x -npool 4 -i  Done                     04/16/2018 11:16:46
00028 suncat0192 pw.x -npool 4 -i  Done                     04/16/2018 11:16:46
00029 suncat0192 pw.x -npool 4 -i  Done                     04/16/2018 11:16:46
00030 suncat0192 pw.x -npool 4 -i  Done                     04/16/2018 11:16:46
00031 suncat0192 pw.x -npool 4 -i  Done                     04/16/2018 11:16:46