     Program PWSCF v.5.1rc2 (svn rev. 11289) starts on 20Apr2018 at 21:20:13

     Current dimensions of program PWSCF are:
     Max number of different atomic species (ntypx) = 10
     Max number of k-points (npk) =  40000
     Max angular momentum in pseudopotentials (lmaxx) =  3
     Presently stress not available with electric field

     IMPORTANT: XC functional enforced from input :
     Exchange-correlation      = BEEF-VDW ( 1  4 27 13 2)
     Any further DFT definition will be discarded
     Please, verify this is what you really want

     Subspace diagonalization in iterative solution of the eigenvalue problem:
     a serial algorithm will be used

     bravais-lattice index     =            0
     lattice parameter (alat)  =       1.8897  a.u.
     unit-cell volume          =    7171.5276 (a.u.)^3
     number of atoms/cell      =           14
     number of atomic types    =            3
     number of electrons       =       173.00
     number of Kohn-Sham states=           96
     kinetic-energy cutoff     =      36.7493  Ry
     charge density cutoff     =     367.4932  Ry
     convergence threshold     =      1.0E-05
     mixing beta               =       0.3000
     number of iterations used =           10  plain     mixing
     Exchange-correlation      = BEEF-VDW ( 1  4 27 13 2)
     nstep                     =           50

     celldm(1)=   1.889726  celldm(2)=   0.000000  celldm(3)=   0.000000
     celldm(4)=   0.000000  celldm(5)=   0.000000  celldm(6)=   0.000000

     crystal axes: (cart. coord. in units of alat)
               a(1) = (   6.917003   0.000000   0.000000 )
               a(2) = (   3.458501   5.990300   0.000000 )
               a(3) = (   0.000000   0.000000  25.647709 )

     reciprocal axes: (cart. coord. in units 2 pi/alat)
               b(1) = (  0.144571 -0.083468  0.000000 )
               b(2) = (  0.000000  0.166937  0.000000 )
               b(3) = (  0.000000  0.000000  0.038990 )

     PseudoPot. # 1 for Pb read from file:
     /u/if/mamunm/psp/gbrv1.5pbe/Pb.UPF
     MD5 check sum: 3d1c1779aa92214d1e8f3a7db79003e2
     Pseudo is Ultrasoft + core correction, Zval = 14.0
     Generated by new atomic code, or converted to UPF format
     Using radial grid of  899 points,  6 beta functions with:
                l(1) =   0
                l(2) =   0
                l(3) =   1
                l(4) =   1
                l(5) =   2
                l(6) =   2
     Q(r) pseudized with  6 coefficients,  rinner =    1.000   1.000   1.000
                                                       1.000   1.000

     PseudoPot. # 2 for C  read from file:
     /u/if/mamunm/psp/gbrv1.5pbe/C.UPF
     MD5 check sum: d1aef80898a10debaa0f26306b886e00
     Pseudo is Ultrasoft + core correction, Zval =  4.0
     Generated by new atomic code, or converted to UPF format
     Using radial grid of  721 points,  4 beta functions with:
                l(1) =   0
                l(2) =   0
                l(3) =   1
                l(4) =   1
     Q(r) pseudized with  8 coefficients,  rinner =    1.100   1.100   1.100

     PseudoPot. # 3 for H  read from file:
     /u/if/mamunm/psp/gbrv1.5pbe/H.UPF
     MD5 check sum: 761ae9a214b05c3daf00ab9f6b793d6f
     Pseudo is Ultrasoft, Zval =  1.0
     Generated by new atomic code, or converted to UPF format
     Using radial grid of  615 points,  2 beta functions with:
                l(1) =   0
                l(2) =   0
     Q(r) pseudized with  8 coefficients,  rinner =    0.700

     vdW kernel table read from file vdW_kernel_table
     MD5 check sum: 095c7af220d748ca6e76c0b4c6cfb241

     atomic species   valence    mass     pseudopotential
        Pb1           14.00   207.20000     Pb( 1.00)
        C1             4.00    12.01100     C ( 1.00)
        H1             1.00     1.00800     H ( 1.00)

     No symmetry found

   Cartesian axes

     site n.     atom                  positions (alat units)
         1           Pb1 tau(   1) = (   1.7292506   0.9983833  10.0000000  )
         2           Pb1 tau(   2) = (   5.1877519   0.9983833  10.0000000  )
         3           Pb1 tau(   3) = (   3.4585013   3.9935333  10.0000000  )
         4           Pb1 tau(   4) = (   6.9170025   3.9935333  10.0000000  )
         5           Pb1 tau(   5) = (   6.9170025   1.9967666  12.8238544  )
         6           Pb1 tau(   6) = (   3.4585013   1.9967666  12.8238544  )
         7           Pb1 tau(   7) = (   8.6462531   4.9919166  12.8238544  )
         8           Pb1 tau(   8) = (   5.1877519   4.9919166  12.8238544  )
         9           Pb1 tau(   9) = (   0.0000000   0.0000000  15.6477089  )
        10           Pb1 tau(  10) = (   3.4585013   0.0000000  15.6477089  )
        11           Pb1 tau(  11) = (   1.7292506   2.9951499  15.6477089  )
        12           Pb1 tau(  12) = (   5.1877519   2.9951499  15.6477089  )
        13           C1  tau(  13) = (   0.0000000   0.0000000  17.5347089  )
        14           H1  tau(  14) = (   0.0000000   0.0000000  18.6347089  )

     number of k points=    20  Fermi-Dirac smearing, width (Ry)=  0.0110
                       cart. coord. in units 2pi/alat
        k(    1) = (   0.0000000   0.0000000   0.0000000), wk =   0.0555556
        k(    2) = (   0.0000000   0.0278228   0.0000000), wk =   0.1111111
        k(    3) = (   0.0000000   0.0556455   0.0000000), wk =   0.1111111
        k(    4) = (   0.0000000  -0.0834683   0.0000000), wk =   0.0555556
        k(    5) = (   0.0240952  -0.0139114   0.0000000), wk =   0.1111111
        k(    6) = (   0.0240952   0.0139114   0.0000000), wk =   0.1111111
        k(    7) = (   0.0240952   0.0417341   0.0000000), wk =   0.1111111
        k(    8) = (   0.0240952  -0.0973797   0.0000000), wk =   0.1111111
        k(    9) = (   0.0240952  -0.0695569   0.0000000), wk =   0.1111111
        k(   10) = (   0.0240952  -0.0417341   0.0000000), wk =   0.1111111
        k(   11) = (   0.0481904  -0.0278228   0.0000000), wk =   0.1111111
        k(   12) = (   0.0481904   0.0000000   0.0000000), wk =   0.1111111
        k(   13) = (   0.0481904   0.0278228   0.0000000), wk =   0.1111111
        k(   14) = (   0.0481904  -0.1112910   0.0000000), wk =   0.1111111
        k(   15) = (   0.0481904  -0.0834683   0.0000000), wk =   0.1111111
        k(   16) = (   0.0481904  -0.0556455   0.0000000), wk =   0.1111111
        k(   17) = (  -0.0722856   0.0417341   0.0000000), wk =   0.0555556
        k(   18) = (  -0.0722856   0.0695569   0.0000000), wk =   0.1111111
        k(   19) = (  -0.0722856   0.0973797   0.0000000), wk =   0.1111111
        k(   20) = (  -0.0722856  -0.0417341   0.0000000), wk =   0.0555556

     Largest allocated arrays     est. size (Mb)     dimensions
     Largest temporary arrays     est. size (Mb)     dimensions

     Check: negative/imaginary core charge=   -0.000001    0.000000

     Initial potential from superposition of free atoms
     Check: negative starting charge=   -0.197571

     starting charge  172.97173, renormalised to  173.00000

     negative rho (up, down):  1.976E-01 0.000E+00

     *
     * You are using vdW-DF for exchange-correlation in this calculation.
     * Please cite the following three references that made this development
     * possible:
     *
     *   M. Dion, H. Rydberg, E. Schroder, D. C. Langreth, and
     *   B. I. Lundqvist, Phys. Rev. Lett. 92, 246401 (2004).
     *
     *   T. Thonhauser, V. R. Cooper, S. Li, A. Puzder, P. Hyldgaard, and
     *   D. C. Langreth, Phys. Rev. B 76, 125112 (2007).
     *
     *   G. Roman-Perez and J. M. Soler, Phys. Rev. Lett. 103, 096102 (2009).
     *
     *
     * If you are using vdW-DF2, please also cite:
     *
     *   K. Lee, E. D. Murray, L. Kong, B. I. Lundqvist, and
     *   D. C. Langreth, Phys. Rev. B 82, 081101(R) (2010).
     *
     *
     * If you are calculating the stress with vdW-DF, please also cite:
     *
     *   R. Sabatini, E. Kucukbenli, B. Kolb, T. Thonhauser, and
     *   S. de Gironcoli, J. Phys.: Condens. Matter 24, 424209 (2012).
     *

     Carrying out vdW-DF run using the following parameters:

     Nqs =      20    Nr_points =    1024   r_max =   100.000
     q_mesh =
               0.00001000     0.04494208     0.09755937     0.15916263
               0.23128650     0.31572767     0.41458969     0.53033537
               0.66584808     0.82450364     1.01025438     1.22772762
               1.48234092     1.78043706     2.12944203     2.53805004
               3.01644009     3.57652955     4.23227104     5.00000000

     Gradients computed in reciprocal space

     Adding external electric field

     Computed dipole along edir(3) :
        Dipole               -0.0072 Ry au,         -0.0182 Debye
        Dipole field         -0.0000 Ry au

        Potential amp.        0.0012 Ry
        Total length         47.2555 bohr

     Starting wfc are  113 randomized atomic wfcs

     Self-consistent Calculation

     iteration #  1     ecut=    36.75 Ry     beta=0.30
     Davidson diagonalization with overlap
     ethr =  1.00E-02,  avg # of iterations =  2.0

[...]

     total energy              =   -2003.34391245 Ry
     Harris-Foulkes estimate   =   -2004.99340525 Ry
     estimated scf accuracy    <       3.59952012 Ry

[...]

     End of self-consistent calculation

          k = 0.0000 0.0000 0.0000 ( 27033 PWs)   bands (ev):

   -16.6120 -16.5702 -16.5702 -16.5383 -16.5082 -16.4965 -16.4965 -16.4736
   -16.4685 -16.4685 -16.4553 -16.4446 -16.4446 -16.4110 -16.4094 -16.4068
   -16.4035 -16.4035 -16.3941 -16.3941 -16.3759 -16.3702 -16.3702 -16.3678
   -16.3634 -16.3634 -16.3576 -16.3576 -16.3278 -16.3278 -16.3089 -16.2861
   -16.2825 -16.2825 -16.2507 -16.2507 -16.2352 -16.2267 -16.2267 -16.1703
   -16.1703 -16.1562 -16.1506 -16.1489 -16.1489 -16.1215 -16.1215 -16.1095
   -16.1095 -16.0996 -16.0943 -16.0943 -16.0906 -16.0723 -16.0602 -16.0602
   -15.8979 -15.8979 -15.8490 -15.8490 -10.6935 -10.1190  -9.0628  -7.7729
    -6.9554  -6.9554  -6.9314  -6.6179  -6.5270  -6.5270  -6.0096  -5.8866
    -5.8866  -2.9337  -2.6982  -2.6982  -2.4821  -1.8493  -1.7176  -1.7176
    -1.5436  -1.5436  -1.4950  -0.4894   0.8786   1.0388   1.0388   2.2524
     2.2896   2.2896   2.4649   2.4649   3.3249   3.6468   3.7402   3.7402

[...]

          k =-0.0723 0.0417 0.0000 ( 26962 PWs)   bands (ev):

[...]

     the Fermi energy is     1.1154 ev

!    total energy              =   -2004.64988673 Ry
     Harris-Foulkes estimate   =   -2004.64988360 Ry
     estimated scf accuracy    <       0.00000658 Ry

     The total energy is the sum of the following terms:

     one-electron contribution =   -9554.27617757 Ry
     hartree contribution      =    4848.15814005 Ry
     xc contribution           =    -788.28007115 Ry
     ewald contribution        =    3489.79126025 Ry
     electric field correction =       0.00009060 Ry
     smearing contrib. (-TS)   =      -0.04312891 Ry

     convergence has been achieved in  12 iterations

 BEEF-vdW xc energy contributions
           1 :   -702.551435601267
           2 :    652.539069896484
           3 :   -564.515223961885
           4 :    457.763122921170
           5 :   -352.121928703933
           6 :    262.103340472091
           7 :   -193.786954483856
           8 :    145.215812621149
           9 :   -109.627358223598
          10 :    79.7712738017865
          11 :   -51.3173838268276
          12 :    24.0273499943221
          13 :  -0.604663204907069
          14 :   -15.7552373025924
          15 :    23.6305616245430
          16 :   -24.3109434858382
          17 :    21.1206682533488
          18 :   -17.7172911883563
          19 :    16.3966265645040
          20 :   -17.3042746571589
          21 :    18.8691503608434
          22 :   -19.0856333415946
          23 :    16.8501757934002
          24 :   -12.6130052548151
          25 :    8.05473708898421
          26 :   -5.06773064450681
          27 :    4.67836062846084
          28 :   -6.52221767356809
          29 :    9.12556142189646
          30 :   -10.7820457970556
          31 :   -56.3403827621064
          32 :   -41.3133777966178

     Forces acting on atoms (Ry/au):

     negative rho (up, down):  2.157E-01 0.000E+00
     atom    1 type  1   force =    -0.00364454   -0.00212295   -0.00824945
     atom    2 type  1   force =     0.00364474   -0.00210319   -0.00823701
     atom    3 type  1   force =     0.00000377    0.00421531   -0.00825093
     atom    4 type  1   force =    -0.00000217    0.00000102   -0.00368413
     atom    5 type  1   force =     0.00000844    0.00215425   -0.00916759
     atom    6 type  1   force =    -0.00002181    0.00000464    0.00408094
     atom    7 type  1   force =    -0.00189194   -0.00108005   -0.00914969
     atom    8 type  1   force =     0.00189338   -0.00110132   -0.00916646
     atom    9 type  1   force =    -0.00000520    0.00000980   -0.17358679
     atom   10 type  1   force =     0.00000414   -0.00202197    0.00974494
     atom   11 type  1   force =    -0.00174700    0.00103225    0.00973143
     atom   12 type  1   force =     0.00175711    0.00100886    0.00972754
     atom   13 type  2   force =     0.00000039    0.00000160    0.21083487
     atom   14 type  3   force =     0.00000070    0.00000174   -0.01462766

     Total force =     0.274033     Total SCF correction =     0.014222

     entering subroutine stress ...

     negative rho (up, down):  2.157E-01 0.000E+00
          total   stress  (Ry/bohr**3)                   (kbar)     P=   15.10
   0.00008065  -0.00000000   0.00000000         11.86     -0.00      0.00
  -0.00000000   0.00008065  -0.00000000         -0.00     11.86     -0.00
   0.00000000  -0.00000000   0.00014665          0.00     -0.00     21.57

     BFGS Geometry Optimization

     number of scf cycles    =   1
     number of bfgs steps    =   0

     energy   new            =   -2004.6498867312 Ry

     new trust radius        =       0.2108348697 bohr
     new conv_thr            =       0.0000099958 Ry

ATOMIC_POSITIONS (crystal)
Pb1      0.166666667   0.166666667   0.389898374    0   0   0
Pb1      0.666666667   0.166666667   0.389898374    0   0   0
Pb1      0.166666667   0.666666667   0.389898374    0   0   0
Pb1      0.666666667   0.666666667   0.389898374    0   0   0
Pb1      0.833333333   0.333333333   0.500000000    0   0   0
Pb1      0.333333333   0.333333333   0.500000000    0   0   0
Pb1      0.833333333   0.833333333   0.500000000    0   0   0
Pb1      0.333333333   0.833333333   0.500000000    0   0   0
Pb1     -0.000000831   0.000000866   0.606520090
Pb1      0.500089626  -0.000178619   0.610302689
Pb1     -0.000179246   0.500091188   0.610302410
Pb1      0.500089864   0.500089122   0.610302330
C1      -0.000000041   0.000000141   0.688025507
H1      -0.000000023   0.000000153   0.726262464

     Writing output data file calc.save
     Check: negative starting charge=   -0.197571
     NEW-OLD atomic charge density approx. for the potential

     Check: negative/imaginary core charge=   -0.000001    0.000000
     Check: negative starting charge=   -0.197449

[...]

     energy   old            =   -2004.6498867312 Ry
     energy   new            =   -2004.6621069155 Ry

     CASE: energy  _new < energy  _old

[...]

     WARNING: bfgs curvature condition failed, Theta= 0.943
     new trust radius        =       0.0251738339 bohr
     new conv_thr            =       0.0000001000 Ry

[...]

     Total force =     0.032188     Total SCF correction =     0.003359
     SCF correction compared to forces is large: reduce conv_thr to get better values

[...]

     WARNING: bfgs curvature condition failed, Theta= 0.621
     new trust radius        =       0.0174358932 bohr
     new conv_thr            =       0.0000001000 Ry

[...]

     WARNING: info= 42 for Hessian
     new trust radius        =       0.0228927387 bohr
     new conv_thr            =       0.0000001000 Ry

[...]

     Threshold (ethr) on eigenvalues was too large:
     Diagonalizing with lowered threshold

     Davidson diagonalization with overlap
     ethr =  4.12E-08,  avg # of iterations =  1.8

[...]

     CASE: energy  _new > energy  _old

[...]

     WARNING: info= 42 for Hessian
     new trust radius        =       0.0023355857 bohr
     new conv_thr            =       0.0000001000 Ry

[...]

     CASE: energy  _new > energy  _old

[...]

     WARNING: info= 42 for Hessian
     uphill step: resetting bfgs history

[...]

     Total force =     0.003522     Total SCF correction =     0.000158

[...]

     number of scf cycles    =  30
     number of bfgs steps    =  25

     energy   old            =   -2004.6996517110 Ry
     energy   new            =   -2004.6996554129 Ry

     CASE: energy  _new < energy  _old

     new trust radius        =       0.0012364297 bohr
     new conv_thr            =       0.0000001000 Ry

ATOMIC_POSITIONS (crystal)
Pb1      0.166666667   0.166666667   0.389898374    0   0   0
Pb1      0.666666667   0.166666667   0.389898374    0   0   0
Pb1      0.166666667   0.666666667   0.389898374    0   0   0
Pb1      0.666666667   0.666666667   0.389898374    0   0   0
Pb1      0.833333333   0.333333333   0.500000000    0   0   0
Pb1      0.333333333   0.333333333   0.500000000    0   0   0
Pb1      0.833333333   0.833333333   0.500000000    0   0   0
Pb1      0.333333333   0.833333333   0.500000000    0   0   0
Pb1     -0.000001917   0.000003558   0.616748445
Pb1      0.500525144  -0.001045578   0.626701330
Pb1     -0.001049188   0.500526144   0.626700888
Pb1      0.500522910   0.500523889   0.626702785
C1       0.000000210  -0.000004217   0.699867125
H1       0.000000102   0.000000078   0.742498896

     Writing output data file calc.save
     Check: negative starting charge=   -0.197442
     NEW-OLD atomic charge density approx. for the potential

     Check: negative/imaginary core charge=   -0.000001    0.000000
     Check: negative starting charge=   -0.197447

[...]

     Self-consistent Calculation

[...]

     Threshold (ethr) on eigenvalues was too large:
     Diagonalizing with lowered threshold

     Davidson diagonalization with overlap
     ethr =  7.31E-09,  avg # of iterations =  4.0

[...]

     total energy              =   -2004.69965642 Ry
     Harris-Foulkes estimate   =   -2004.69966571 Ry
     estimated scf accuracy    <       0.00010574 Ry

     iteration #  4     ecut=    36.75 Ry     beta=0.30
     Davidson diagonalization with overlap
     ethr =  5.93E-09,  avg # of iterations =  2.8

[...]

     negative rho (up, down):  2.136E-01 0.000E+00

     Adding external electric field

     Computed dipole along edir(3) :
        Dipole               -0.2279 Ry au,         -0.5792 Debye
        Dipole field         -0.0004 Ry au

        Potential amp.        0.0377 Ry
        Total length         47.2555 bohr

     End of self-consistent calculation

[...]

          k = 0.0482-0.0556 0.0000 ( 26956 PWs)   bands (ev):

[...]

          k =-0.0723-0.0417 0.0000 ( 26962 PWs)   bands (ev):

   -16.5077 -16.4425 -16.4397 -16.4343 -16.4282 -16.4195 -16.4014 -16.3975
   -16.3948 -16.3906 -16.3879 -16.3823 -16.3801 -16.3775 -16.3722 -16.3715
   -16.3664 -16.3594 -16.3569 -16.3564 -16.3451 -16.3351 -16.3277 -16.3270
   -16.3193 -16.3149 -16.3067 -16.3035 -16.2996 -16.2942 -16.2829 -16.2821
   -16.2819 -16.2649 -16.2458 -16.2411 -16.2344 -16.2290 -16.2270 -16.2260
   -16.2185 -16.2010 -16.1985 -16.1979 -16.1920 -16.1840 -16.1753 -16.1742
   -16.1622 -16.1440 -16.1348 -16.1295 -16.1210 -16.0942 -16.0834 -16.0382
   -15.9772 -15.9541 -15.8542 -15.8506  -9.9974  -9.1511  -9.1296  -8.2226
    -8.0382  -7.2178  -7.2040  -7.1662  -7.1157  -6.5984  -6.5097  -5.8761
    -5.8565  -2.5315  -0.9755  -0.8846  -0.8488  -0.7571  -0.6688  -0.3849
    -0.3171  -0.0623   0.3163   0.6282   0.7483   0.9870   1.2915   1.3571
     1.7055   1.7894   1.9546   2.1513   2.1915   2.2339   2.4274   2.6424

     the Fermi energy is     1.1247 ev

!    total energy              =   -2004.69965958 Ry
     Harris-Foulkes estimate   =   -2004.69965892 Ry
     estimated scf accuracy    <       0.00000006 Ry

     The total energy is the sum of the following terms:

     one-electron contribution =   -9032.42499850 Ry
     hartree contribution      =    4587.25913242 Ry
     xc contribution           =    -787.92160814 Ry
     ewald contribution        =    3228.43374913 Ry
     electric field correction =       0.00009100 Ry
     smearing contrib. (-TS)   =      -0.04602549 Ry

     convergence has been achieved in   4 iterations

 BEEF-vdW xc energy contributions
           1 :   -702.178138191111
           2 :    651.981666488517
           3 :   -563.731718717456
           4 :    456.909418494495
           5 :   -351.472429545499
           6 :    261.877912279021
           7 :   -193.997297505567
           8 :    145.635455546636
           9 :   -109.910515256051
          10 :    79.6513289568932
          11 :   -50.7657165284215
          12 :    23.2755979887924
          13 :  -1.417528270292223E-002
          14 :   -15.9015172401906
          15 :    23.2920630378807
          16 :   -23.7133351449640
          17 :    20.6254598130489
          18 :   -17.6137101933394
          19 :    16.7379805576874
          20 :   -17.8834391593266
          21 :    19.3449909365446
          22 :   -19.1843152459379
          23 :    16.5232734816270
          24 :   -12.0609629718050
          25 :    7.60435514646497
          26 :   -4.97855486722756
          27 :    4.99272893872569
          28 :   -7.04548904848832
          29 :    9.54523466062631
          30 :   -10.8528559212751
          31 :   -56.3088539102872
          32 :   -41.2358322767523

     Forces acting on atoms (Ry/au):

     negative rho (up, down):  2.136E-01 0.000E+00
     atom    1 type  1   force =    -0.00143693   -0.00082978   -0.00664300
     atom    2 type  1   force =     0.00143712   -0.00082916   -0.00664387
     atom    3 type  1   force =     0.00000029    0.00165965   -0.00664373
     atom    4 type  1   force =    -0.00000035   -0.00000025   -0.00419869
     atom    5 type  1   force =    -0.00000087    0.00302093    0.00270200
     atom    6 type  1   force =     0.00000035    0.00000022    0.01664836
     atom    7 type  1   force =    -0.00261640   -0.00151107    0.00270215
     atom    8 type  1   force =     0.00261573   -0.00151092    0.00270274
     atom    9 type  1   force =     0.00000086   -0.00000133   -0.00151047
     atom   10 type  1   force =     0.00000070   -0.00001140   -0.00028965
     atom   11 type  1   force =    -0.00000876    0.00000702   -0.00028931
     atom   12 type  1   force =     0.00000913    0.00000727   -0.00028952
     atom   13 type  2   force =    -0.00000089   -0.00000137    0.00011733
     atom   14 type  3   force =     0.00000002    0.00000018    0.00163566

     Total force =     0.002285     Total SCF correction =     0.000278
     SCF correction compared to forces is large: reduce conv_thr to get better values

     entering subroutine stress ...

     negative rho (up, down):  2.136E-01 0.000E+00
          total   stress  (Ry/bohr**3)                   (kbar)     P=    6.14
   0.00005361   0.00000000  -0.00000000          7.89      0.00     -0.00
   0.00000000   0.00005361  -0.00000000          0.00      7.89     -0.00
  -0.00000000  -0.00000000   0.00001794         -0.00     -0.00      2.64

     bfgs converged in  31 scf cycles and  26 bfgs steps
     (criteria: energy <  1.0E+00, force <  1.9E-03)

     End of BFGS Geometry Optimization

     Final energy   =   -2004.6996595753 Ry
Begin final coordinates

ATOMIC_POSITIONS (crystal)
Pb1      0.166666667   0.166666667   0.389898374    0   0   0
Pb1      0.666666667   0.166666667   0.389898374    0   0   0
Pb1      0.166666667   0.666666667   0.389898374    0   0   0
Pb1      0.666666667   0.666666667   0.389898374    0   0   0
Pb1      0.833333333   0.333333333   0.500000000    0   0   0
Pb1      0.333333333   0.333333333   0.500000000    0   0   0
Pb1      0.833333333   0.833333333   0.500000000    0   0   0
Pb1      0.333333333   0.833333333   0.500000000    0   0   0
Pb1     -0.000001917   0.000003558   0.616748445
Pb1      0.500525144  -0.001045578   0.626701330
Pb1     -0.001049188   0.500526144   0.626700888
Pb1      0.500522910   0.500523889   0.626702785
C1       0.000000210  -0.000004217   0.699867125
H1       0.000000102   0.000000078   0.742498896
End final coordinates

     Writing output data file calc.save

     General routines

     Parallel routines

   This run was terminated on:   1:11:34  21Apr2018

   JOB DONE.
Job  /afs/slac/g/suncat/bin/suncat-tsmpirun -x LD_LIBRARY_PATH -wdir /scratch/qe275911_Q2fdM pw.x -npool 4 -in pw.inp

TID   HOST_NAME   COMMAND_LINE            STATUS            TERMINATION_TIME
00000 suncat0168 pw.x -npool 4 -i  Done                     04/21/2018 01:11:34
00001 suncat0168 pw.x -npool 4 -i  Done                     04/21/2018 01:11:34
00002 suncat0168 pw.x -npool 4 -i  Done                     04/21/2018 01:11:34
00003 suncat0168 pw.x -npool 4 -i  Done                     04/21/2018 01:11:34
00004 suncat0168 pw.x -npool 4 -i  Done                     04/21/2018 01:11:34
00005 suncat0168 pw.x -npool 4 -i  Done                     04/21/2018 01:11:34
00006 suncat0168 pw.x -npool 4 -i  Done                     04/21/2018 01:11:34
00007 suncat0168 pw.x -npool 4 -i  Done                     04/21/2018 01:11:34
00008 suncat0151 pw.x -npool 4 -i  Done                     04/21/2018 01:11:34
00009 suncat0151 pw.x -npool 4 -i  Done                     04/21/2018 01:11:34
00010 suncat0151 pw.x -npool 4 -i  Done                     04/21/2018 01:11:34
00011 suncat0151 pw.x -npool 4 -i  Done                     04/21/2018 01:11:34
00012 suncat0151 pw.x -npool 4 -i  Done                     04/21/2018 01:11:34
00013 suncat0151 pw.x -npool 4 -i  Done                     04/21/2018 01:11:34
00014 suncat0151 pw.x -npool 4 -i  Done                     04/21/2018 01:11:34
00015 suncat0151 pw.x -npool 4 -i  Done                     04/21/2018 01:11:34
00016 suncat0149 pw.x -npool 4 -i  Done                     04/21/2018 01:11:34
00017 suncat0149 pw.x -npool 4 -i  Done                     04/21/2018 01:11:34
00018 suncat0149 pw.x -npool 4 -i  Done                     04/21/2018 01:11:34
00019 suncat0149 pw.x -npool 4 -i  Done                     04/21/2018 01:11:34
00020 suncat0149 pw.x -npool 4 -i  Done                     04/21/2018 01:11:34
00021 suncat0149 pw.x -npool 4 -i  Done                     04/21/2018 01:11:34
00022 suncat0149 pw.x -npool 4 -i  Done                     04/21/2018 01:11:34
00023 suncat0149 pw.x -npool 4 -i  Done                     04/21/2018 01:11:34
00024 suncat0123 pw.x -npool 4 -i  Done                     04/21/2018 01:11:34
00025 suncat0123 pw.x -npool 4 -i  Done                     04/21/2018 01:11:34
00026 suncat0123 pw.x -npool 4 -i  Done                     04/21/2018 01:11:34
00027 suncat0123 pw.x -npool 4 -i  Done                     04/21/2018 01:11:34
00028 suncat0123 pw.x -npool 4 -i  Done                     04/21/2018 01:11:34
00029 suncat0123 pw.x -npool 4 -i  Done                     04/21/2018 01:11:34
00030 suncat0123 pw.x -npool 4 -i  Done                     04/21/2018 01:11:34
00031 suncat0123 pw.x -npool 4 -i  Done                     04/21/2018 01:11:34