     Program PWSCF v.5.1rc2 (svn rev. 11289) starts on  4May2018 at 10:47:31

     Current dimensions of program PWSCF are:
     Max number of different atomic species (ntypx) = 10
     Max number of k-points (npk) =  40000
     Max angular momentum in pseudopotentials (lmaxx) =  3
     Presently stress not available with electric field

     IMPORTANT: XC functional enforced from input :
     Exchange-correlation      = BEEF-VDW ( 1  4 27 13 2)
     Any further DFT definition will be discarded
     Please, verify this is what you really want

     Subspace diagonalization in iterative solution of the eigenvalue problem:
     a serial algorithm will be used

     bravais-lattice index     =            0
     lattice parameter (alat)  =       1.8897  a.u.
     unit-cell volume          =    5174.6160 (a.u.)^3
     number of atoms/cell      =           13
     number of atomic types    =            2
     number of electrons       =       233.00
     number of Kohn-Sham states=          126
     kinetic-energy cutoff     =      36.7493  Ry
     charge density cutoff     =     367.4932  Ry
     convergence threshold     =      1.0E-05
     mixing beta               =       0.3000
     number of iterations used =           10  plain     mixing
     Exchange-correlation      = BEEF-VDW ( 1  4 27 13 2)
     nstep                     =           50

     celldm(1)=   1.889726  celldm(2)=   0.000000  celldm(3)=   0.000000
     celldm(4)=   0.000000  celldm(5)=   0.000000  celldm(6)=   0.000000

     crystal axes: (cart. coord. in units of alat)
               a(1) = (   5.966546   0.000000   0.000000 )
               a(2) = (   2.983273   5.167181   0.000000 )
               a(3) = (   0.000000   0.000000  24.871665 )

     reciprocal axes: (cart. coord. in units 2 pi/alat)
               b(1) = (  0.167601 -0.096765  0.000000 )
               b(2) = (  0.000000  0.193529  0.000000 )
               b(3) = (  0.000000  0.000000  0.040206 )

     PseudoPot. # 1 for Ag read from file:
     /u/if/mamunm/psp/gbrv1.5pbe/Ag.UPF
     MD5 check sum: d66d668201baa78d5eb5b04ef7011058
     Pseudo is Ultrasoft + core correction, Zval = 19.0
     Generated by new atomic code, or converted to UPF format
     Using radial grid of  887 points,  6 beta functions with:
                l(1) =   0
                l(2) =   0
                l(3) =   1
                l(4) =   1
                l(5) =   2
                l(6) =   2
     Q(r) pseudized with  6 coefficients,  rinner =    1.300   1.300   1.300
                                                       1.300   1.300

     PseudoPot. # 2 for N  read from file:
     /u/if/mamunm/psp/gbrv1.5pbe/N.UPF
     MD5 check sum: 95339753478d7afb44899504a8723017
     Pseudo is Ultrasoft + core correction, Zval =  5.0
     Generated by new atomic code, or converted to UPF format
     Using radial grid of  729 points,  4 beta functions with:
                l(1) =   0
                l(2) =   0
                l(3) =   1
                l(4) =   1
     Q(r) pseudized with  8 coefficients,  rinner =    0.900   0.900   0.900

     vdW kernel table read from file vdW_kernel_table
     MD5 check sum: 095c7af220d748ca6e76c0b4c6cfb241

     atomic species   valence    mass     pseudopotential
        Ag1           19.00   107.86820     Ag( 1.00)
        N1             5.00    14.00700     N ( 1.00)

     No symmetry found

   Cartesian axes

     site n.     atom                  positions (alat units)
         1           Ag1 tau(   1) = (   1.4916366   0.8611968  10.0000000  )
         2           Ag1 tau(   2) = (   4.4749098   0.8611968  10.0000000  )
         3           Ag1 tau(   3) = (   2.9832732   3.4447871  10.0000000  )
         4           Ag1 tau(   4) = (   5.9665464   3.4447871  10.0000000  )
         5           Ag1 tau(   5) = (   5.9665464   1.7223936  12.4358324  )
         6           Ag1 tau(   6) = (   2.9832732   1.7223936  12.4358324  )
         7           Ag1 tau(   7) = (   7.4581830   4.3059839  12.4358324  )
         8           Ag1 tau(   8) = (   4.4749098   4.3059839  12.4358324  )
         9           Ag1 tau(   9) = (   0.0000000   0.0000000  14.8716647  )
        10           Ag1 tau(  10) = (   2.9832732   0.0000000  14.8716647  )
        11           Ag1 tau(  11) = (   1.4916366   2.5835904  14.8716647  )
        12           Ag1 tau(  12) = (   4.4749098   2.5835904  14.8716647  )
        13           N1  tau(  13) = (   1.4916366   0.8611968  16.2756647  )

     number of k points=    20  Fermi-Dirac smearing, width (Ry)=  0.0110
                       cart. coord. in units 2pi/alat
        k(    1) = (   0.0000000   0.0000000   0.0000000), wk =   0.0555556
        k(    2) = (   0.0000000   0.0322549   0.0000000), wk =   0.1111111
        k(    3) = (   0.0000000   0.0645097   0.0000000), wk =   0.1111111
        k(    4) = (   0.0000000  -0.0967646   0.0000000), wk =   0.0555556
        k(    5) = (   0.0279335  -0.0161274   0.0000000), wk =   0.1111111
        k(    6) = (   0.0279335   0.0161274   0.0000000), wk =   0.1111111
        k(    7) = (   0.0279335   0.0483823   0.0000000), wk =   0.1111111
        k(    8) = (   0.0279335  -0.1128920   0.0000000), wk =   0.1111111
        k(    9) = (   0.0279335  -0.0806371   0.0000000), wk =   0.1111111
        k(   10) = (   0.0279335  -0.0483823   0.0000000), wk =   0.1111111
        k(   11) = (   0.0558670  -0.0322549   0.0000000), wk =   0.1111111
        k(   12) = (   0.0558670   0.0000000   0.0000000), wk =   0.1111111
        k(   13) = (   0.0558670   0.0322549   0.0000000), wk =   0.1111111
        k(   14) = (   0.0558670  -0.1290194   0.0000000), wk =   0.1111111
        k(   15) = (   0.0558670  -0.0967646   0.0000000), wk =   0.1111111
        k(   16) = (   0.0558670  -0.0645097   0.0000000), wk =   0.1111111
        k(   17) = (  -0.0838006   0.0483823   0.0000000), wk =   0.0555556
        k(   18) = (  -0.0838006   0.0806371   0.0000000), wk =   0.1111111
        k(   19) = (  -0.0838006   0.1128920   0.0000000), wk =   0.1111111
        k(   20) = (  -0.0838006  -0.0483823   0.0000000), wk =   0.0555556

     Largest allocated arrays     est. size (Mb)     dimensions
     Largest temporary arrays     est. size (Mb)     dimensions

     Initial potential from superposition of free atoms
     Check: negative starting charge=   -0.002260

     starting charge  226.99942, renormalised to  233.00000

     negative rho (up, down):  2.320E-03 0.000E+00

     *
     * You are using vdW-DF for exchange-correlation in this calculation.
     * Please cite the following three references that made this development
     * possible:
     *
     *   M. Dion, H. Rydberg, E. Schroder, D. C. Langreth, and
     *   B. I. Lundqvist, Phys. Rev. Lett. 92, 246401 (2004).
     *
     *   T. Thonhauser, V. R. Cooper, S. Li, A. Puzder, P. Hyldgaard, and
     *   D. C. Langreth, Phys. Rev. B 76, 125112 (2007).
     *
     *   G. Roman-Perez and J. M. Soler, Phys. Rev. Lett. 103, 096102 (2009).
     *
     *
     * If you are using vdW-DF2, please also cite:
     *
     *   K. Lee, E. D. Murray, L. Kong, B. I. Lundqvist, and
     *   D. C. Langreth, Phys. Rev. B 82, 081101(R) (2010).
     *
     *
     * If you are calculating the stress with vdW-DF, please also cite:
     *
     *   R. Sabatini, E. Kucukbenli, B. Kolb, T. Thonhauser, and
     *   S. de Gironcoli, J. Phys.: Condens. Matter 24, 424209 (2012).
     *

     Carrying out vdW-DF run using the following parameters:

     Nqs =      20    Nr_points =    1024   r_max =   100.000
     q_mesh =
               0.00001000     0.04494208     0.09755937     0.15916263
               0.23128650     0.31572767     0.41458969     0.53033537
               0.66584808     0.82450364     1.01025438     1.22772762
               1.48234092     1.78043706     2.12944203     2.53805004
               3.01644009     3.57652955     4.23227104     5.00000000

     Gradients computed in reciprocal space

     Adding external electric field

     Computed dipole along edir(3) :
        Dipole               -0.9590 Ry au,         -2.4375 Debye
        Dipole field         -0.0023 Ry au

        Potential amp.        0.2134 Ry
        Total length         45.8256 bohr

     Starting wfc are  160 randomized atomic wfcs

     Self-consistent Calculation

     iteration #  1     ecut=    36.75 Ry     beta=0.30
     Davidson diagonalization with overlap
     ethr =  1.00E-02,  avg # of iterations =  5.4

[...]

     total energy              =   -3571.26111165 Ry
     Harris-Foulkes estimate   =   -3583.42311446 Ry
     estimated scf accuracy    <      26.36332971 Ry

[...]

     End of self-consistent calculation

          k = 0.0000 0.0000 0.0000 ( 19435 PWs)   bands (ev):

   -91.3278 -91.3212 -91.3205 -91.3205 -91.1810 -91.1355 -91.1302 -91.1302
   -91.1272 -91.1222 -91.1220 -91.0220 -54.8707 -54.8624 -54.8623 -54.8254
   -54.8131 -54.8131 -54.8123 -54.8053 -54.8053 -54.7995 -54.7814 -54.7814
   -54.7034 -54.7034 -54.6812 -54.6687 -54.6582 -54.6503 -54.6503 -54.6310
   -54.6309 -54.6192 -54.6192 -54.6150 -54.6016 -54.6012 -54.5977 -54.5976
   -54.5940 -54.5930 -54.5928 -54.5747 -54.5747 -54.5225 -54.5225 -54.5055
   -11.9871  -5.7070  -5.0710  -5.0621  -5.0621  -5.0336  -4.9371  -4.9371
    -4.9166  -4.8146  -4.8089  -4.8089  -4.7437  -4.6476  -4.6476  -4.6379
    -4.1275  -4.1275  -4.0112  -3.9820  -3.9820  -3.9114  -3.8868  -3.8868
    -3.8626  -3.7895  -3.7895  -3.7001  -3.7001  -3.6710  -3.6258  -3.6258
    -3.2320  -3.2320  -3.1243  -3.0683  -3.0682  -3.0450  -3.0450  -2.9969
    -2.9654  -2.8343  -2.8342  -2.7781  -2.7780  -2.7327  -2.6122  -2.6122
    -2.5475  -2.5058  -2.5058  -2.4539  -2.4539  -2.4182  -2.4111  -2.4085
    -2.4085  -2.2447  -2.2446  -2.2267  -2.1932  -2.1932  -2.1788  -0.2093
     0.1511   0.1646   0.1646   1.3037   1.3037   1.4060   1.8142   2.0836
     2.0836   2.2242   2.7128   2.7128   3.5505   4.4987

[...]

          k =-0.0838 0.0484 0.0000 ( 19500 PWs)   bands (ev):

[...]

     the Fermi energy is     0.7183 ev

!    total energy              =   -3579.90403932 Ry
     Harris-Foulkes estimate   =   -3579.90408855 Ry
     estimated scf accuracy    <       0.00000220 Ry

     The total energy is the sum of the following terms:

     one-electron contribution =  -26199.95680282 Ry
     hartree contribution      =   13089.21449127 Ry
     xc contribution           =    -366.23198358 Ry
     ewald contribution        =    9897.09700629 Ry
     electric field correction =       0.00055440 Ry
     smearing contrib. (-TS)   =      -0.02730489 Ry

     convergence has been achieved in  15 iterations

 BEEF-vdW xc energy contributions
           1 :   -317.268364060681
           2 :    287.141658971672
           3 :   -236.917526249235
           4 :    181.782840379234
           5 :   -135.493695777388
           6 :    105.425037691680
           7 :   -91.2257978599163
           8 :    87.0367812895523
           9 :   -85.5901901957657
          10 :    81.8691467865254
          11 :   -74.6622176179507
          12 :    65.7403599166977
          13 :   -57.7111743088118
          14 :    52.0916915368204
          15 :   -48.6619255042952
          16 :    46.1273876561594
          17 :   -43.3089801370854
          18 :    39.9308188346914
          19 :   -36.5650188919982
          20 :    33.9551128397011
          21 :   -32.3346178389065
          22 :    31.2457990846805
          23 :   -29.9270736889956
          24 :    27.9147057990617
          25 :   -25.3932124538350
          26 :    23.0507258569740
          27 :   -21.5751214447973
          28 :    21.1696262117478
          29 :   -21.4270037744733
          30 :    21.6273761990637
          31 :   -31.7295397195648
          32 :   -23.0586520103394

     Forces acting on atoms (Ry/au):

     negative rho (up, down):  2.286E-03 0.000E+00
     atom    1 type  1   force =     0.00000027    0.00000138    0.00233148
     atom    2 type  1   force =    -0.00000023   -0.00075305   -0.00056990
     atom    3 type  1   force =    -0.00065310    0.00037572   -0.00058043
     atom    4 type  1   force =     0.00065292    0.00037567   -0.00058319
     atom    5 type  1   force =    -0.00200827    0.00117020   -0.00048489
     atom    6 type  1   force =     0.00200827    0.00116351   -0.00048200
     atom    7 type  1   force =    -0.00000623   -0.00000730    0.00952328
     atom    8 type  1   force =     0.00000599   -0.00232572   -0.00049140
     atom    9 type  1   force =     0.00084213    0.00048565    0.01652919
     atom   10 type  1   force =    -0.00084208    0.00048457    0.01652711
     atom   11 type  1   force =    -0.00000090   -0.00097144    0.01652761
     atom   12 type  1   force =     0.00000116    0.00000078   -0.00076538
     atom   13 type  2   force =     0.00000006    0.00000004   -0.05748150

     Total force =     0.064242     Total SCF correction =     0.007178
     SCF correction compared to forces is large: reduce conv_thr to get better values

     entering subroutine stress ...

     negative rho (up, down):  2.286E-03 0.000E+00
          total   stress  (Ry/bohr**3)                   (kbar)     P=   -8.29
  -0.00005941  -0.00000000   0.00000000         -8.74     -0.00      0.00
  -0.00000000  -0.00005941  -0.00000000         -0.00     -8.74     -0.00
   0.00000000  -0.00000000  -0.00005030          0.00     -0.00     -7.40

     BFGS Geometry Optimization

     number of scf cycles    =   1
     number of bfgs steps    =   0

     energy   new            =   -3579.9040393230 Ry

     new trust radius        =       0.0574814983 bohr
     new conv_thr            =       0.0000099958 Ry

ATOMIC_POSITIONS (crystal)
Ag1      0.166666667   0.166666667   0.402063960    0   0   0
Ag1      0.666666667   0.166666667   0.402063960    0   0   0
Ag1      0.166666667   0.666666667   0.402063960    0   0   0
Ag1      0.666666667   0.666666667   0.402063960    0   0   0
Ag1      0.833333333   0.333333333   0.500000000    0   0   0
Ag1      0.333333333   0.333333333   0.500000000    0   0   0
Ag1      0.833333333   0.833333333   0.500000000    0   0   0
Ag1      0.333333333   0.833333333   0.500000000    0   0   0
Ag1      0.000049821   0.000049736   0.598287720
Ag1      0.499900503   0.000049625   0.598287676
Ag1      0.000049664   0.499900513   0.598287687
Ag1      0.500000063   0.500000080   0.597919756
N1       0.166666670   0.166666671   0.653162826

     Writing output data file calc.save
     Check: negative starting charge=   -0.002260
     NEW-OLD atomic charge density approx. for the potential
     Check: negative starting charge=   -0.002265

[...]

     Total force =     0.053666     Total SCF correction =     0.000882

[...]

     energy   old            =   -3579.9040393230 Ry
     energy   new            =   -3579.9078060369 Ry

     CASE: energy  _new < energy  _old

     WARNING: bfgs curvature condition failed, Theta= 0.963
     new trust radius        =       0.0632296481 bohr
     new conv_thr            =       0.0000001000 Ry

[...]

     Total force =     0.008072     Total SCF correction =     0.000622

[...]

     number of scf cycles    =  13
     number of bfgs steps    =  12

     energy   old            =   -3579.9213022101 Ry
     energy   new            =   -3579.9214671665 Ry

     CASE: energy  _new < energy  _old

     new trust radius        =       0.0352300883 bohr
     new conv_thr            =       0.0000001000 Ry

ATOMIC_POSITIONS (crystal)
Ag1      0.166666667   0.166666667   0.402063960    0   0   0
Ag1      0.666666667   0.166666667   0.402063960    0   0   0
Ag1      0.166666667   0.666666667   0.402063960    0   0   0
Ag1      0.666666667   0.666666667   0.402063960    0   0   0
Ag1      0.833333333   0.333333333   0.500000000    0   0   0
Ag1      0.333333333   0.333333333   0.500000000    0   0   0
Ag1      0.833333333   0.833333333   0.500000000    0   0   0
Ag1      0.333333333   0.833333333   0.500000000    0   0   0
Ag1     -0.007167768  -0.007167679   0.597924421
Ag1      0.514335394  -0.007167547   0.597924414
Ag1     -0.007167545   0.514335315   0.597924409
Ag1      0.499999967   0.499999824   0.596074701
N1       0.166666738   0.166666639   0.641362137

     Writing output data file calc.save
     Check: negative starting charge=   -0.002371
     NEW-OLD atomic charge density approx. for the potential
     Check: negative starting charge=   -0.002372

[...]

     Self-consistent Calculation

[...]

     total energy              =   -3579.92153870 Ry
     Harris-Foulkes estimate   =   -3579.92153843 Ry
     estimated scf accuracy    <       0.00000020 Ry

     iteration #  8     ecut=    36.75 Ry     beta=0.30
     Davidson diagonalization with overlap
     ethr =  8.76E-11,  avg # of iterations =  2.0

[...]

     negative rho (up, down):  2.398E-03 0.000E+00

     Adding external electric field

     Computed dipole along edir(3) :
        Dipole               -0.3616 Ry au,         -0.9191 Debye
        Dipole field         -0.0009 Ry au

        Potential amp.        0.0805 Ry
        Total length         45.8256 bohr

     End of self-consistent calculation

[...]

          k = 0.0559-0.0645 0.0000 ( 19479 PWs)   bands (ev):

[...]

          k =-0.0838-0.0484 0.0000 ( 19500 PWs)   bands (ev):

   -91.2041 -91.2038 -91.2005 -91.2002 -91.1293 -91.1253 -91.1241 -91.0516
   -90.9881 -90.9863 -90.9846 -90.9559 -54.7362 -54.7284 -54.7166 -54.7105
   -54.7045 -54.7011 -54.7004 -54.6966 -54.6945 -54.6910 -54.6770 -54.6760
   -54.6714 -54.6642 -54.6514 -54.6060 -54.6047 -54.5850 -54.5653 -54.5647
   -54.5547 -54.5541 -54.5501 -54.5301 -54.5182 -54.4957 -54.4920 -54.4888
   -54.4845 -54.4652 -54.4633 -54.4605 -54.4597 -54.4585 -54.4560 -54.4458
   -12.4268  -4.9565  -4.6986  -4.6680  -4.5268  -4.5209  -4.5014  -4.4524
    -4.3766  -4.3303  -4.3200  -4.2906  -4.2640  -4.2265  -4.1795  -4.1725
    -4.1191  -4.0592  -3.9288  -3.8847  -3.8691  -3.8387  -3.8101  -3.7840
    -3.7460  -3.7100  -3.6677  -3.5269  -3.4929  -3.4566  -3.4402  -3.4236
    -3.3283  -3.3135  -3.3000  -3.2370  -3.2167  -3.1973  -3.1521  -3.1510
    -3.1488  -3.1324  -3.0178  -2.9986  -2.9857  -2.9666  -2.9179  -2.9024
    -2.8928  -2.8790  -2.8445  -2.8260  -2.7423  -2.7004  -2.6855  -2.6139
    -2.4211  -2.4209  -2.3727  -2.3599  -2.3498  -2.2852  -2.2313  -1.5548
    -1.0652  -0.1330  -0.0212   0.4587   0.8864   1.0756   1.5448   2.0431
     2.6325   3.1409   3.9903   4.1606   4.9072   5.4817

     the Fermi energy is     0.8676 ev

!    total energy              =   -3579.92153872 Ry
     Harris-Foulkes estimate   =   -3579.92153940 Ry
     estimated scf accuracy    <       0.00000001 Ry

     The total energy is the sum of the following terms:

     one-electron contribution =  -26342.52948254 Ry
     hartree contribution      =   13161.10464361 Ry
     xc contribution           =    -366.32544477 Ry
     ewald contribution        =    9967.85371109 Ry
     electric field correction =       0.00031754 Ry
     smearing contrib. (-TS)   =      -0.02528364 Ry

     convergence has been achieved in   8 iterations

 BEEF-vdW xc energy contributions
           1 :   -317.379124045620
           2 :    287.327764624842
           3 :   -237.175841583598
           4 :    182.029389384802
           5 :   -135.624616317140
           6 :    105.385831222373
           7 :   -91.0472031431717
           8 :    86.8173551104031
           9 :   -85.4380786366685
          10 :    81.8408010545231
          11 :   -74.7359110906721
          12 :    65.8387610176850
          13 :   -57.7572565637337
          14 :    52.0593965846095
          15 :   -48.5869359942417
          16 :    46.0750164751496
          17 :   -43.3261666645361
          18 :    40.0143091679316
          19 :   -36.6641365176756
          20 :    34.0055691809811
          21 :   -32.3000388325513
          22 :    31.1396377467451
          23 :   -29.8022487497935
          24 :    27.8293879217031
          25 :   -25.3768950246928
          26 :    23.0928728055461
          27 :   -21.6398673652796
          28 :    21.2219280092671
          29 :   -21.4525587448630
          30 :    21.6346196803702
          31 :   -31.7382595852130
          32 :   -23.0817180274377

     Forces acting on atoms (Ry/au):

     negative rho (up, down):  2.398E-03 0.000E+00
     atom    1 type  1   force =     0.00000000    0.00000000    0.00165357
     atom    2 type  1   force =     0.00000000   -0.00082398   -0.00068497
     atom    3 type  1   force =    -0.00071359    0.00041199   -0.00068496
     atom    4 type  1   force =     0.00071360    0.00041200   -0.00068498
     atom    5 type  1   force =    -0.00107396    0.00062007   -0.00144510
     atom    6 type  1   force =     0.00107397    0.00062005   -0.00144518
     atom    7 type  1   force =    -0.00000001   -0.00000001    0.00404946
     atom    8 type  1   force =     0.00000002   -0.00124012   -0.00144506
     atom    9 type  1   force =     0.00030861    0.00017808    0.00038538
     atom   10 type  1   force =    -0.00030849    0.00017777    0.00038531
     atom   11 type  1   force =    -0.00000022   -0.00035601    0.00038535
     atom   12 type  1   force =     0.00000021    0.00000020    0.00050493
     atom   13 type  2   force =    -0.00000012   -0.00000005   -0.00097377

     Total force =     0.001424     Total SCF correction =     0.000473
     SCF correction compared to forces is large: reduce conv_thr to get better values

     entering subroutine stress ...

     negative rho (up, down):  2.398E-03 0.000E+00
          total   stress  (Ry/bohr**3)                   (kbar)     P=   -4.83
  -0.00003868  -0.00000000  -0.00000000         -5.69     -0.00     -0.00
  -0.00000000  -0.00003868  -0.00000000         -0.00     -5.69     -0.00
  -0.00000000  -0.00000000  -0.00002109         -0.00     -0.00     -3.10

     bfgs converged in  14 scf cycles and  13 bfgs steps
     (criteria: energy <  1.0E+00, force <  1.9E-03)

     End of BFGS Geometry Optimization

     Final energy   =   -3579.9215387224 Ry
Begin final coordinates

ATOMIC_POSITIONS (crystal)
Ag1      0.166666667   0.166666667   0.402063960    0   0   0
Ag1      0.666666667   0.166666667   0.402063960    0   0   0
Ag1      0.166666667   0.666666667   0.402063960    0   0   0
Ag1      0.666666667   0.666666667   0.402063960    0   0   0
Ag1      0.833333333   0.333333333   0.500000000    0   0   0
Ag1      0.333333333   0.333333333   0.500000000    0   0   0
Ag1      0.833333333   0.833333333   0.500000000    0   0   0
Ag1      0.333333333   0.833333333   0.500000000    0   0   0
Ag1     -0.007167768  -0.007167679   0.597924421
Ag1      0.514335394  -0.007167547   0.597924414
Ag1     -0.007167545   0.514335315   0.597924409
Ag1      0.499999967   0.499999824   0.596074701
N1       0.166666738   0.166666639   0.641362137
End final coordinates

     Writing output data file calc.save

     General routines

     Parallel routines

   This run was terminated on:  12: 9:12   4May2018

   JOB DONE.
Job  /afs/slac/g/suncat/bin/suncat-tsmpirun -x LD_LIBRARY_PATH -wdir /scratch/qe938044_Vy2qz pw.x -npool 4 -in pw.inp

TID   HOST_NAME   COMMAND_LINE            STATUS            TERMINATION_TIME
00000 suncat0050 pw.x -npool 4 -i  Done                     05/04/2018 12:09:12
00001 suncat0050 pw.x -npool 4 -i  Done                     05/04/2018 12:09:12
00002 suncat0050 pw.x -npool 4 -i  Done                     05/04/2018 12:09:12
00003 suncat0050 pw.x -npool 4 -i  Done                     05/04/2018 12:09:12
00004 suncat0050 pw.x -npool 4 -i  Done                     05/04/2018 12:09:12
00005 suncat0050 pw.x -npool 4 -i  Done                     05/04/2018 12:09:12
00006 suncat0050 pw.x -npool 4 -i  Done                     05/04/2018 12:09:12
00007 suncat0050 pw.x -npool 4 -i  Done                     05/04/2018 12:09:12
00008 suncat0048 pw.x -npool 4 -i  Done                     05/04/2018 12:09:12
00009 suncat0048 pw.x -npool 4 -i  Done                     05/04/2018 12:09:12
00010 suncat0048 pw.x -npool 4 -i  Done                     05/04/2018 12:09:12
00011 suncat0048 pw.x -npool 4 -i  Done                     05/04/2018 12:09:12
00012 suncat0048 pw.x -npool 4 -i  Done                     05/04/2018 12:09:12
00013 suncat0048 pw.x -npool 4 -i  Done                     05/04/2018 12:09:12
00014 suncat0048 pw.x -npool 4 -i  Done                     05/04/2018 12:09:12
00015 suncat0048 pw.x -npool 4 -i  Done                     05/04/2018 12:09:12
00016 suncat0034 pw.x -npool 4 -i  Done                     05/04/2018 12:09:12
00017 suncat0034 pw.x -npool 4 -i  Done                     05/04/2018 12:09:12
00018 suncat0034 pw.x -npool 4 -i  Done                     05/04/2018 12:09:12
00019 suncat0034 pw.x -npool 4 -i  Done                     05/04/2018 12:09:12
00020 suncat0034 pw.x -npool 4 -i  Done                     05/04/2018 12:09:12
00021 suncat0034 pw.x -npool 4 -i  Done                     05/04/2018 12:09:12
00022 suncat0034 pw.x -npool 4 -i  Done                     05/04/2018 12:09:12
00023 suncat0034 pw.x -npool 4 -i  Done                     05/04/2018 12:09:12
00024 suncat0022 pw.x -npool 4 -i  Done                     05/04/2018 12:09:12
00025 suncat0022 pw.x -npool 4 -i  Done                     05/04/2018 12:09:12
00026 suncat0022 pw.x -npool 4 -i  Done                     05/04/2018 12:09:12
00027 suncat0022 pw.x -npool 4 -i  Done                     05/04/2018 12:09:12
00028 suncat0022 pw.x -npool 4 -i  Done                     05/04/2018 12:09:12
00029 suncat0022 pw.x -npool 4 -i  Done                     05/04/2018 12:09:12
00030 suncat0022 pw.x -npool 4 -i  Done                     05/04/2018 12:09:12
00031 suncat0022 pw.x -npool 4 -i  Done                     05/04/2018 12:09:12