     Program PWSCF v.5.1rc2 (svn rev. 11289) starts on 24Apr2018 at 10:54:24

     Current dimensions of program PWSCF are:
     Max number of different atomic species (ntypx) = 10
     Max number of k-points (npk) =  40000
     Max angular momentum in pseudopotentials (lmaxx) =  3
     Presently stress not available with electric field

     IMPORTANT: XC functional enforced from input :
     Exchange-correlation      = BEEF-VDW ( 1  4 27 13 2)
     Any further DFT definition will be discarded
     Please, verify this is what you really want

     Subspace diagonalization in iterative solution of the eigenvalue problem:
     a serial algorithm will be used

     bravais-lattice index     =            0
     lattice parameter (alat)  =       1.8897  a.u.
     unit-cell volume          =    4158.3597 (a.u.)^3
     number of atoms/cell      =           14
     number of atomic types    =            3
     number of electrons       =       162.00
     number of Kohn-Sham states=           91
     kinetic-energy cutoff     =      36.7493  Ry
     charge density cutoff     =     367.4932  Ry
     convergence threshold     =      1.0E-05
     mixing beta               =       0.3000
     number of iterations used =           10  plain     mixing
     Exchange-correlation      = BEEF-VDW ( 1  4 27 13 2)
     nstep                     =           50

     celldm(1)=   1.889726  celldm(2)=   0.000000  celldm(3)=   0.000000
     celldm(4)=   0.000000  celldm(5)=   0.000000  celldm(6)=   0.000000

     crystal axes: (cart. coord. in units of alat)
               a(1) = (   5.399178   0.000000   0.000000 )
               a(2) = (   2.699589   4.675825   0.000000 )
               a(3) = (   0.000000   0.000000  24.408411 )

     reciprocal axes: (cart. coord. in units 2 pi/alat)
               b(1) = (  0.185213 -0.106933  0.000000 )
               b(2) = (  0.000000  0.213866  0.000000 )
               b(3) = (  0.000000  0.000000  0.040969 )

     PseudoPot. # 1 for V  read from file:
     /u/if/mamunm/psp/gbrv1.5pbe/V.UPF
     MD5 check sum: 22b79981416ebb76fdaf5b1b8640f6fb
     Pseudo is Ultrasoft + core correction, Zval = 13.0
     Generated by new atomic code, or converted to UPF format
     Using radial grid of  853 points,  6 beta functions with:
                l(1) =   0
                l(2) =   0
                l(3) =   1
                l(4) =   1
                l(5) =   2
                l(6) =   2
     Q(r) pseudized with  8 coefficients,  rinner =    1.100   1.100   1.100
                                                       1.100   1.100

     PseudoPot. # 2 for N  read from file:
     /u/if/mamunm/psp/gbrv1.5pbe/N.UPF
     MD5 check sum: 95339753478d7afb44899504a8723017
     Pseudo is Ultrasoft + core correction, Zval =  5.0
     Generated by new atomic code, or converted to UPF format
     Using radial grid of  729 points,  4 beta functions with:
                l(1) =   0
                l(2) =   0
                l(3) =   1
                l(4) =   1
     Q(r) pseudized with  8 coefficients,  rinner =    0.900   0.900   0.900

     PseudoPot. # 3 for H  read from file:
     /u/if/mamunm/psp/gbrv1.5pbe/H.UPF
     MD5 check sum: 761ae9a214b05c3daf00ab9f6b793d6f
     Pseudo is Ultrasoft, Zval =  1.0
     Generated by new atomic code, or converted to UPF format
     Using radial grid of  615 points,  2 beta functions with:
                l(1) =   0
                l(2) =   0
     Q(r) pseudized with  8 coefficients,  rinner =    0.700

     vdW kernel table read from file vdW_kernel_table
     MD5 check sum: 095c7af220d748ca6e76c0b4c6cfb241

     atomic species   valence    mass     pseudopotential
        V1            13.00    50.94150     V ( 1.00)
        N1             5.00    14.00700     N ( 1.00)
        H1             1.00     1.00800     H ( 1.00)

     No symmetry found

   Cartesian axes

     site n.     atom                  positions (alat units)
         1           V1  tau(   1) = (   1.3497945   0.7793042  10.0000000  )
         2           V1  tau(   2) = (   4.0493836   0.7793042  10.0000000  )
         3           V1  tau(   3) = (   2.6995891   3.1172170  10.0000000  )
         4           V1  tau(   4) = (   5.3991782   3.1172170  10.0000000  )
         5           V1  tau(   5) = (   5.3991782   1.5586085  12.2042053  )
         6           V1  tau(   6) = (   2.6995891   1.5586085  12.2042053  )
         7           V1  tau(   7) = (   6.7489727   3.8965212  12.2042053  )
         8           V1  tau(   8) = (   4.0493836   3.8965212  12.2042053  )
         9           V1  tau(   9) = (   0.0000000   0.0000000  14.4084105  )
        10           V1  tau(  10) = (   2.6995891   0.0000000  14.4084105  )
        11           V1  tau(  11) = (   1.3497945   2.3379127  14.4084105  )
        12           V1  tau(  12) = (   4.0493836   2.3379127  14.4084105  )
        13           N1  tau(  13) = (   2.6995891   1.5586085  15.8644105  )
        14           H1  tau(  14) = (   2.6995891   1.5586085  16.9144105  )

     number of k points=    20  Fermi-Dirac smearing, width (Ry)=  0.0110
                       cart. coord. in units 2pi/alat
        k(    1) = (   0.0000000   0.0000000   0.0000000), wk =   0.0555556
        k(    2) = (   0.0000000   0.0356443   0.0000000), wk =   0.1111111
        k(    3) = (   0.0000000   0.0712887   0.0000000), wk =   0.1111111
        k(    4) = (   0.0000000  -0.1069330   0.0000000), wk =   0.0555556
        k(    5) = (   0.0308689  -0.0178222   0.0000000), wk =   0.1111111
        k(    6) = (   0.0308689   0.0178222   0.0000000), wk =   0.1111111
        k(    7) = (   0.0308689   0.0534665   0.0000000), wk =   0.1111111
        k(    8) = (   0.0308689  -0.1247552   0.0000000), wk =   0.1111111
        k(    9) = (   0.0308689  -0.0891108   0.0000000), wk =   0.1111111
        k(   10) = (   0.0308689  -0.0534665   0.0000000), wk =   0.1111111
        k(   11) = (   0.0617378  -0.0356443   0.0000000), wk =   0.1111111
        k(   12) = (   0.0617378   0.0000000   0.0000000), wk =   0.1111111
        k(   13) = (   0.0617378   0.0356443   0.0000000), wk =   0.1111111
        k(   14) = (   0.0617378  -0.1425773   0.0000000), wk =   0.1111111
        k(   15) = (   0.0617378  -0.1069330   0.0000000), wk =   0.1111111
        k(   16) = (   0.0617378  -0.0712887   0.0000000), wk =   0.1111111
        k(   17) = (  -0.0926067   0.0534665   0.0000000), wk =   0.0555556
        k(   18) = (  -0.0926067   0.0891108   0.0000000), wk =   0.1111111
        k(   19) = (  -0.0926067   0.1247552   0.0000000), wk =   0.1111111
        k(   20) = (  -0.0926067  -0.0534665   0.0000000), wk =   0.0555556

     Largest allocated arrays     est. size (Mb)     dimensions
     Largest temporary arrays     est. size (Mb)     dimensions

     Check: negative/imaginary core charge=   -0.000001    0.000000

     Initial potential from superposition of free atoms
     Check: negative starting charge=   -0.011565

     starting charge  161.98525, renormalised to  162.00000

     negative rho (up, down):  1.157E-02 0.000E+00

     *
     * You are using vdW-DF for exchange-correlation in this calculation.
     * Please cite the following three references that made this development
     * possible:
     *
     *   M. Dion, H. Rydberg, E. Schroder, D. C. Langreth, and
     *   B. I. Lundqvist, Phys. Rev. Lett. 92, 246401 (2004).
     *
     *   T. Thonhauser, V. R. Cooper, S. Li, A. Puzder, P. Hyldgaard, and
     *   D. C. Langreth, Phys. Rev. B 76, 125112 (2007).
     *
     *   G. Roman-Perez and J. M. Soler, Phys. Rev. Lett. 103, 096102 (2009).
     *
     *
     * If you are using vdW-DF2, please also cite:
     *
     *   K. Lee, E. D. Murray, L. Kong, B. I. Lundqvist, and
     *   D. C. Langreth, Phys. Rev. B 82, 081101(R) (2010).
     *
     *
     * If you are calculating the stress with vdW-DF, please also cite:
     *
     *   R. Sabatini, E. Kucukbenli, B. Kolb, T. Thonhauser, and
     *   S. de Gironcoli, J. Phys.: Condens. Matter 24, 424209 (2012).
     *

     Carrying out vdW-DF run using the following parameters:

     Nqs =      20    Nr_points =    1024   r_max =   100.000
     q_mesh =
               0.00001000     0.04494208     0.09755937     0.15916263
               0.23128650     0.31572767     0.41458969     0.53033537
               0.66584808     0.82450364     1.01025438     1.22772762
               1.48234092     1.78043706     2.12944203     2.53805004
               3.01644009     3.57652955     4.23227104     5.00000000

     Gradients computed in reciprocal space

     Adding external electric field

     Computed dipole along edir(3) :
        Dipole               -0.0038 Ry au,         -0.0097 Debye
        Dipole field         -0.0000 Ry au

        Potential amp.        0.0010 Ry
        Total length         44.9721 bohr

     Starting wfc are  125 randomized atomic wfcs

     Self-consistent Calculation

     iteration #  1     ecut=    36.75 Ry     beta=0.30
     Davidson diagonalization with overlap
     ethr =  1.00E-02,  avg # of iterations =  2.4

[...]

     total energy              =   -1765.36117327 Ry
     Harris-Foulkes estimate   =   -1771.31606038 Ry
     estimated scf accuracy    <      12.32329751 Ry

[...]

     End of self-consistent calculation

          k = 0.0000 0.0000 0.0000 ( 15569 PWs)   bands (ev):

   -62.9036 -62.8287 -62.7875 -62.7870 -62.7546 -62.7433 -62.7224 -62.7223
   -62.7165 -62.6725 -62.6715 -62.6683 -36.9918 -36.9748 -36.9747 -36.9306
   -36.9306 -36.9294 -36.9249 -36.8354 -36.8327 -36.8322 -36.6831 -36.6116
   -36.6111 -36.5953 -36.5475 -36.5469 -36.5466 -36.5027 -36.4851 -36.4850
   -36.4202 -36.4148 -36.4147 -36.4067 -36.3993 -36.3992 -36.3610 -36.3296
   -36.3296 -36.3265 -36.3219 -36.3215 -36.2772 -36.2772 -36.1992 -36.1992
   -13.5972  -5.4672  -4.4458  -2.8514  -2.0397  -2.0397  -1.9285  -1.6307
    -1.6307  -1.5376  -1.2776  -1.1501  -1.1501  -0.8723  -0.8616  -0.8615
    -0.6496  -0.6263  -0.6262   0.1529   0.1530   0.2035   0.8873   1.0734
     1.0734   1.1958   1.2741   1.5132   1.5625   1.5625   1.6862   1.7010
     1.7011   1.7578   1.7580   1.8161   1.8454   1.8454   1.9758   1.9758
     2.1365   2.4224   2.4225

[...]

          k =-0.0926 0.0535 0.0000 ( 15660 PWs)   bands (ev):

[...]

     the Fermi energy is     1.4352 ev

!    total energy              =   -1770.51840212 Ry
     Harris-Foulkes estimate   =   -1770.51842453 Ry
     estimated scf accuracy    <       0.00000737 Ry

     The total energy is the sum of the following terms:

     one-electron contribution =  -15379.47301489 Ry
     hartree contribution      =    7681.14962032 Ry
     xc contribution           =    -250.51666874 Ry
     ewald contribution        =    6178.46518364 Ry
     electric field correction =       0.00013662 Ry
     smearing contrib. (-TS)   =      -0.14365907 Ry

     convergence has been achieved in  31 iterations

 BEEF-vdW xc energy contributions
           1 :   -215.784066851732
           2 :    193.559072665079
           3 :   -156.875852139091
           4 :    117.277520899606
           5 :   -84.7916470396282
           6 :    64.1714696862777
           7 :   -54.2666202303625
           8 :    50.2536368065608
           9 :   -47.0502333792159
          10 :    41.9128726454051
          11 :   -35.0726515207071
          12 :    28.5489623875590
          13 :   -24.2571984341077
          14 :    22.6635507776428
          15 :   -22.6683228413998
          16 :    22.5411342261156
          17 :   -21.1342997476563
          18 :    18.5364274666981
          19 :   -15.8125484394021
          20 :    14.1200822850605
          21 :   -13.8738889783509
          22 :    14.5187894940850
          23 :   -14.9984803214622
          24 :    14.5215474797107
          25 :   -13.0701044426530
          26 :    11.3290331542407
          27 :   -10.1450581606576
          28 :    9.92916126356781
          29 :   -10.4138412899128
          30 :    10.8968571263328
          31 :   -22.4551995635630
          32 :   -16.1798222005958

     Forces acting on atoms (Ry/au):

     negative rho (up, down):  1.556E-02 0.000E+00
     atom    1 type  1   force =    -0.00008090   -0.00004888   -0.00002208
     atom    2 type  1   force =     0.00007680   -0.00004416   -0.00006896
     atom    3 type  1   force =     0.00000479    0.00009590   -0.00003855
     atom    4 type  1   force =    -0.00000868    0.00000356   -0.00176091
     atom    5 type  1   force =    -0.00002556   -0.00130124   -0.00387425
     atom    6 type  1   force =     0.00002607    0.00000743    0.00066437
     atom    7 type  1   force =     0.00113238    0.00066448   -0.00391614
     atom    8 type  1   force =    -0.00113006    0.00063635   -0.00386324
     atom    9 type  1   force =    -0.00000198    0.00000045   -0.02564206
     atom   10 type  1   force =     0.00000212    0.00806540    0.05534461
     atom   11 type  1   force =     0.00698951   -0.00403826    0.05538825
     atom   12 type  1   force =    -0.00698840   -0.00403349    0.05536138
     atom   13 type  2   force =     0.00000495   -0.00000986   -0.07988050
     atom   14 type  3   force =    -0.00000103    0.00000231   -0.04769193

     Total force =     0.136763     Total SCF correction =     0.005047

     entering subroutine stress ...

     negative rho (up, down):  1.556E-02 0.000E+00
          total   stress  (Ry/bohr**3)                   (kbar)     P=  -24.22
  -0.00019635  -0.00000000  -0.00000003        -28.88     -0.00     -0.00
  -0.00000000  -0.00019631   0.00000005         -0.00    -28.88      0.01
  -0.00000003   0.00000005  -0.00010121         -0.00      0.01    -14.89

     BFGS Geometry Optimization

     number of scf cycles    =   1
     number of bfgs steps    =   0

     energy   new            =   -1770.5184021205 Ry

     new trust radius        =       0.0798804997 bohr
     new conv_thr            =       0.0000099958 Ry

ATOMIC_POSITIONS (crystal)
V1       0.166666667   0.166666667   0.409694847    0   0   0
V1       0.666666667   0.166666667   0.409694847    0   0   0
V1       0.166666667   0.666666667   0.409694847    0   0   0
V1       0.666666667   0.666666667   0.409694847    0   0   0
V1       0.833333333   0.333333333   0.500000000    0   0   0
V1       0.333333333   0.333333333   0.500000000    0   0   0
V1       0.833333333   0.833333333   0.500000000    0   0   0
V1       0.333333333   0.833333333   0.500000000    0   0   0
V1      -0.000000220   0.000000051   0.589749231
V1       0.499543815   0.000912786   0.591505031
V1       0.000913558   0.499542978   0.591505977
V1       0.499543303   0.499543518   0.591505395
N1       0.333334376   0.333332218   0.648224905
H1       0.333333101   0.333333595   0.691940715

     Writing output data file calc.save
     Check: negative starting charge=   -0.011565
     NEW-OLD atomic charge density approx. for the potential

     Check: negative/imaginary core charge=   -0.000001    0.000000
     Check: negative starting charge=   -0.011513

[...]

     energy   old            =   -1770.5184021205 Ry
     energy   new            =   -1770.5347161723 Ry

     CASE: energy  _new < energy  _old

[...]

     iteration #  1     ecut=    36.75 Ry     beta=0.30
     Davidson diagonalization with overlap
     c_bands:  1 eigenvalues not converged
     ethr =  1.00E-06,  avg # of iterations = 13.9

[...]

     iteration #  4     ecut=    36.75 Ry     beta=0.30
     Davidson diagonalization with overlap
     c_bands:  1 eigenvalues not converged
     ethr =  6.11E-06,  avg # of iterations =  9.2

[...]

     Total force =     0.003469     Total SCF correction =     0.000363
     SCF correction compared to forces is large: reduce conv_thr to get better values

[...]

     number of scf cycles    =  14
     number of bfgs steps    =  13

     energy   old            =   -1770.5816926538 Ry
     energy   new            =   -1770.5817641051 Ry

     CASE: energy  _new < energy  _old

     new trust radius        =       0.0030744777 bohr
     new conv_thr            =       0.0000001000 Ry

ATOMIC_POSITIONS (crystal)
V1       0.166666667   0.166666667   0.409694847    0   0   0
V1       0.666666667   0.166666667   0.409694847    0   0   0
V1       0.166666667   0.666666667   0.409694847    0   0   0
V1       0.666666667   0.666666667   0.409694847    0   0   0
V1       0.833333333   0.333333333   0.500000000    0   0   0
V1       0.333333333   0.333333333   0.500000000    0   0   0
V1       0.833333333   0.833333333   0.500000000    0   0   0
V1       0.333333333   0.833333333   0.500000000    0   0   0
V1       0.000000968  -0.000000774   0.572813801
V1       0.502645470  -0.005291377   0.594504350
V1      -0.005290063   0.502643997   0.594504453
V1       0.502645675   0.502645857   0.594504388
N1       0.333334265   0.333332388   0.642992287
H1       0.333334908   0.333330991   0.685040258

     Writing output data file calc.save
     Check: negative starting charge=   -0.011003
     NEW-OLD atomic charge density approx. for the potential

     Check: negative/imaginary core charge=   -0.000001    0.000000
     Check: negative starting charge=   -0.011030

[...]

     Self-consistent Calculation

[...]

     Threshold (ethr) on eigenvalues was too large:
     Diagonalizing with lowered threshold

     Davidson diagonalization with overlap
     ethr =  1.04E-08,  avg # of iterations =  3.4

[...]

     total energy              =   -1770.58177735 Ry
     Harris-Foulkes estimate   =   -1770.58177745 Ry
     estimated scf accuracy    <       0.00000012 Ry

     iteration # 12     ecut=    36.75 Ry     beta=0.30
     Davidson diagonalization with overlap
     ethr =  7.28E-11,  avg # of iterations =  3.0

[...]

     negative rho (up, down):  1.518E-02 0.000E+00

     Adding external electric field

     Computed dipole along edir(3) :
        Dipole                0.2954 Ry au,          0.7507 Debye
        Dipole field          0.0009 Ry au

        Potential amp.       -0.0803 Ry
        Total length         44.9721 bohr

     End of self-consistent calculation

[...]

          k = 0.0617-0.0713 0.0000 ( 15642 PWs)   bands (ev):

[...]

          k =-0.0926-0.0535 0.0000 ( 15660 PWs)   bands (ev):

   -62.7739 -62.7467 -62.7154 -62.6962 -62.6481 -62.6210 -62.5947 -62.5781
   -62.5760 -62.5548 -62.5378 -62.2771 -36.8013 -36.7774 -36.7366 -36.7335
   -36.7086 -36.7057 -36.6568 -36.6259 -36.6244 -36.5968 -36.5849 -36.5836
   -36.5653 -36.5279 -36.5138 -36.4705 -36.4549 -36.4486 -36.4105 -36.3930
   -36.3882 -36.3863 -36.3717 -36.3549 -36.3244 -36.3143 -36.3060 -36.2831
   -36.2824 -36.2430 -36.2285 -36.1601 -36.1526 -35.9611 -35.9160 -35.8440
   -14.2626  -5.7294  -3.1325  -2.7344  -2.4384  -2.4199  -1.4484  -1.2281
    -0.8333  -0.8200  -0.7320  -0.7195  -0.6325  -0.4199  -0.1777  -0.1182
     0.0385   0.0473   0.2189   0.2796   0.3723   0.5488   0.6428   0.6497
     0.6915   0.8260   0.8791   0.9003   1.0403   1.0973   1.1578   1.1844
     1.2679   1.3098   1.5041   1.6357   1.6917   1.7076   1.8366   1.9112
     2.1071   2.2429   2.3718

     the Fermi energy is     1.5269 ev

!    total energy              =   -1770.58177735 Ry
     Harris-Foulkes estimate   =   -1770.58177732 Ry
     estimated scf accuracy    <          7.7E-09 Ry

     The total energy is the sum of the following terms:

     one-electron contribution =  -15482.96841415 Ry
     hartree contribution      =    7733.46897384 Ry
     xc contribution           =    -250.78066934 Ry
     ewald contribution        =    6229.82721881 Ry
     electric field correction =       0.00026362 Ry
     smearing contrib. (-TS)   =      -0.12915013 Ry

     convergence has been achieved in  12 iterations

 BEEF-vdW xc energy contributions
           1 :   -216.050780509685
           2 :    193.883118151894
           3 :   -157.249634993542
           4 :    117.620213447852
           5 :   -84.9923719214605
           6 :    64.1522335551038
           7 :   -54.0307816340031
           8 :    49.8899623739080
           9 :   -46.6886988828605
          10 :    41.6545724887666
          11 :   -34.9329029402597
          12 :    28.4520390002742
          13 :   -24.0914790793844
          14 :    22.3631301498833
          15 :   -22.2647904477330
          16 :    22.1465062271742
          17 :   -20.8651992284355
          18 :    18.4338477820677
          19 :   -15.8130430496939
          20 :    14.0953630469798
          21 :   -13.7104791182788
          22 :    14.1863820695039
          23 :   -14.5672112754987
          24 :    14.1210841377361
          25 :   -12.8151101481459
          26 :    11.2527441323470
          27 :   -10.1811188775179
          28 :    9.95606980705764
          29 :   -10.3357354743221
          30 :    10.7060553724633
          31 :   -22.4712832470146
          32 :   -16.2040652534677

     Forces acting on atoms (Ry/au):

     negative rho (up, down):  1.518E-02 0.000E+00
     atom    1 type  1   force =     0.00007597    0.00004347   -0.00027828
     atom    2 type  1   force =    -0.00007595    0.00004355   -0.00027517
     atom    3 type  1   force =    -0.00000016   -0.00008759   -0.00027495
     atom    4 type  1   force =    -0.00000017    0.00000028    0.00256560
     atom    5 type  1   force =     0.00000066    0.02696260   -0.01162415
     atom    6 type  1   force =    -0.00000039   -0.00000001    0.03896448
     atom    7 type  1   force =    -0.02335117   -0.01348145   -0.01162086
     atom    8 type  1   force =     0.02335146   -0.01348102   -0.01162377
     atom    9 type  1   force =    -0.00000029   -0.00000051    0.00066723
     atom   10 type  1   force =     0.00000087   -0.00090603   -0.00105080
     atom   11 type  1   force =    -0.00078400    0.00045399   -0.00105201
     atom   12 type  1   force =     0.00078301    0.00045152   -0.00105210
     atom   13 type  2   force =     0.00000023    0.00000089   -0.00174717
     atom   14 type  3   force =    -0.00000006    0.00000032   -0.00159805

     Total force =     0.003439     Total SCF correction =     0.000270

     entering subroutine stress ...

     negative rho (up, down):  1.518E-02 0.000E+00
          total   stress  (Ry/bohr**3)                   (kbar)     P=  -13.03
  -0.00012389  -0.00000000   0.00000000        -18.23     -0.00      0.00
  -0.00000000  -0.00012389  -0.00000000         -0.00    -18.23     -0.00
   0.00000000  -0.00000000  -0.00001804          0.00     -0.00     -2.65

     bfgs converged in  15 scf cycles and  14 bfgs steps
     (criteria: energy <  1.0E+00, force <  1.9E-03)

     End of BFGS Geometry Optimization

     Final energy   =   -1770.5817773465 Ry
Begin final coordinates

ATOMIC_POSITIONS (crystal)
V1       0.166666667   0.166666667   0.409694847    0   0   0
V1       0.666666667   0.166666667   0.409694847    0   0   0
V1       0.166666667   0.666666667   0.409694847    0   0   0
V1       0.666666667   0.666666667   0.409694847    0   0   0
V1       0.833333333   0.333333333   0.500000000    0   0   0
V1       0.333333333   0.333333333   0.500000000    0   0   0
V1       0.833333333   0.833333333   0.500000000    0   0   0
V1       0.333333333   0.833333333   0.500000000    0   0   0
V1       0.000000968  -0.000000774   0.572813801
V1       0.502645470  -0.005291377   0.594504350
V1      -0.005290063   0.502643997   0.594504453
V1       0.502645675   0.502645857   0.594504388
N1       0.333334265   0.333332388   0.642992287
H1       0.333334908   0.333330991   0.685040258
End final coordinates

     Writing output data file calc.save

     General routines

     Parallel routines

   This run was terminated on:  12:48: 1  24Apr2018

   JOB DONE.
Job  /afs/slac/g/suncat/bin/suncat-tsmpirun -x LD_LIBRARY_PATH -wdir /scratch/qe742421_QAnly pw.x -npool 4 -in pw.inp

TID   HOST_NAME   COMMAND_LINE            STATUS            TERMINATION_TIME
00000 suncat0023 pw.x -npool 4 -i  Done                     04/24/2018 12:48:01
00001 suncat0023 pw.x -npool 4 -i  Done                     04/24/2018 12:48:01
00002 suncat0023 pw.x -npool 4 -i  Done                     04/24/2018 12:48:01
00003 suncat0023 pw.x -npool 4 -i  Done                     04/24/2018 12:48:01
00004 suncat0023 pw.x -npool 4 -i  Done                     04/24/2018 12:48:01
00005 suncat0023 pw.x -npool 4 -i  Done                     04/24/2018 12:48:01
00006 suncat0023 pw.x -npool 4 -i  Done                     04/24/2018 12:48:01
00007 suncat0023 pw.x -npool 4 -i  Done                     04/24/2018 12:48:01
00008 suncat0151 pw.x -npool 4 -i  Done                     04/24/2018 12:48:01
00009 suncat0151 pw.x -npool 4 -i  Done                     04/24/2018 12:48:01
00010 suncat0151 pw.x -npool 4 -i  Done                     04/24/2018 12:48:01
00011 suncat0151 pw.x -npool 4 -i  Done                     04/24/2018 12:48:01
00012 suncat0151 pw.x -npool 4 -i  Done                     04/24/2018 12:48:01
00013 suncat0151 pw.x -npool 4 -i  Done                     04/24/2018 12:48:01
00014 suncat0151 pw.x -npool 4 -i  Done                     04/24/2018 12:48:01
00015 suncat0151 pw.x -npool 4 -i  Done                     04/24/2018 12:48:01
00016 suncat0227 pw.x -npool 4 -i  Done                     04/24/2018 12:48:01
00017 suncat0227 pw.x -npool 4 -i  Done                     04/24/2018 12:48:01
00018 suncat0227 pw.x -npool 4 -i  Done                     04/24/2018 12:48:01
00019 suncat0227 pw.x -npool 4 -i  Done                     04/24/2018 12:48:01
00020 suncat0227 pw.x -npool 4 -i  Done                     04/24/2018 12:48:01
00021 suncat0227 pw.x -npool 4 -i  Done                     04/24/2018 12:48:01
00022 suncat0227 pw.x -npool 4 -i  Done                     04/24/2018 12:48:01
00023 suncat0227 pw.x -npool 4 -i  Done                     04/24/2018 12:48:01
00024 suncat0220 pw.x -npool 4 -i  Done                     04/24/2018 12:48:01
00025 suncat0220 pw.x -npool 4 -i  Done                     04/24/2018 12:48:01
00026 suncat0220 pw.x -npool 4 -i  Done                     04/24/2018 12:48:01
00027 suncat0220 pw.x -npool 4 -i  Done                     04/24/2018 12:48:01
00028 suncat0220 pw.x -npool 4 -i  Done                     04/24/2018 12:48:01
00029 suncat0220 pw.x -npool 4 -i  Done                     04/24/2018 12:48:01
00030 suncat0220 pw.x -npool 4 -i  Done                     04/24/2018 12:48:01
00031 suncat0220 pw.x -npool 4 -i  Done                     04/24/2018 12:48:01