     Program PWSCF v.5.1rc2 (svn rev. ) starts on 17Apr2018 at  8:35:47

     Current dimensions of program PWSCF are:
     Max number of different atomic species (ntypx) = 10
     Max number of k-points (npk) =  40000
     Max angular momentum in pseudopotentials (lmaxx) =  3
     Presently stress not available with electric field

     IMPORTANT: XC functional enforced from input :
     Exchange-correlation      = BEEF-VDW ( 1  4 27 13 2)
     Any further DFT definition will be discarded
     Please, verify this is what you really want

     Subspace diagonalization in iterative solution of the eigenvalue problem:
     a serial algorithm will be used

     bravais-lattice index     =            0
     lattice parameter (alat)  =       1.8897  a.u.
     unit-cell volume          =    3807.2308 (a.u.)^3
     number of atoms/cell      =           14
     number of atomic types    =            3
     number of electrons       =       234.00
     number of Kohn-Sham states=          127
     kinetic-energy cutoff     =      36.7493  Ry
     charge density cutoff     =     367.4932  Ry
     convergence threshold     =      1.0E-05
     mixing beta               =       0.3000
     number of iterations used =           10  plain     mixing
     Exchange-correlation      = BEEF-VDW ( 1  4 27 13 2)
     nstep                     =           50

     celldm(1)=   1.889726  celldm(2)=   0.000000  celldm(3)=   0.000000
     celldm(4)=   0.000000  celldm(5)=   0.000000  celldm(6)=   0.000000

     crystal axes: (cart. coord. in units of alat)
               a(1) = (   5.184823   0.000000   0.000000 )
               a(2) = (   2.592411   4.490188   0.000000 )
               a(3) = (   0.000000   0.000000  24.233390 )

     reciprocal axes: (cart. coord. in units 2 pi/alat)
               b(1) = (  0.192871 -0.111354  0.000000 )
               b(2) = (  0.000000  0.222708  0.000000 )
               b(3) = (  0.000000  0.000000  0.041265 )

     PseudoPot. # 1 for Cu read from file:
     /home/mamunm/src/pseudo/gbrv1.5pbe/Cu.UPF
     MD5 check sum: 6e991ff952a84172a2a52a1c1e996048
     Pseudo is Ultrasoft + core correction, Zval = 19.0
     Generated by new atomic code, or converted to UPF format
     Using radial grid of  867 points,  6 beta functions with:
                l(1) =   0
                l(2) =   0
                l(3) =   1
                l(4) =   1
                l(5) =   2
                l(6) =   2
     Q(r) pseudized with  8 coefficients,  rinner =    1.150   1.150   1.150
                                                       1.150   1.150

     PseudoPot. # 2 for N  read from file:
     /home/mamunm/src/pseudo/gbrv1.5pbe/N.UPF
     MD5 check sum: 95339753478d7afb44899504a8723017
     Pseudo is Ultrasoft + core correction, Zval =  5.0
     Generated by new atomic code, or converted to UPF format
     Using radial grid of  729 points,  4 beta functions with:
                l(1) =   0
                l(2) =   0
                l(3) =   1
                l(4) =   1
     Q(r) pseudized with  8 coefficients,  rinner =    0.900   0.900   0.900

     PseudoPot. # 3 for H  read from file:
     /home/mamunm/src/pseudo/gbrv1.5pbe/H.UPF
     MD5 check sum: 761ae9a214b05c3daf00ab9f6b793d6f
     Pseudo is Ultrasoft, Zval =  1.0
     Generated by new atomic code, or converted to UPF format
     Using radial grid of  615 points,  2 beta functions with:
                l(1) =   0
                l(2) =   0
     Q(r) pseudized with  8 coefficients,  rinner =    0.700

     vdW kernel table read from file vdW_kernel_table
     MD5 check sum: 095c7af220d748ca6e76c0b4c6cfb241

     atomic species   valence    mass     pseudopotential
        Cu1           19.00    63.54600     Cu( 1.00)
        N1             5.00    14.00700     N ( 1.00)
        H1             1.00     1.00800     H ( 1.00)

     No symmetry found

   Cartesian axes

     site n.     atom                  positions (alat units)
         1           Cu1 tau(   1) = (   1.2962057   0.7483647  10.0000000  )
         2           Cu1 tau(   2) = (   3.8886170   0.7483647  10.0000000  )
         3           Cu1 tau(   3) = (   2.5924113   2.9934587  10.0000000  )
         4           Cu1 tau(   4) = (   5.1848226   2.9934587  10.0000000  )
         5           Cu1 tau(   5) = (   5.1848226   1.4967294  12.1166950  )
         6           Cu1 tau(   6) = (   2.5924113   1.4967294  12.1166950  )
         7           Cu1 tau(   7) = (   6.4810283   3.7418234  12.1166950  )
         8           Cu1 tau(   8) = (   3.8886170   3.7418234  12.1166950  )
         9           Cu1 tau(   9) = (   0.0000000   0.0000000  14.2333899  )
        10           Cu1 tau(  10) = (   2.5924113   0.0000000  14.2333899  )
        11           Cu1 tau(  11) = (   1.2962057   2.2450940  14.2333899  )
        12           Cu1 tau(  12) = (   3.8886170   2.2450940  14.2333899  )
        13           N1  tau(  13) = (   1.2962057   0.7483647  15.5528899  )
        14           H1  tau(  14) = (   1.2962057   0.7483647  16.6028899  )

     number of k points=    20  Fermi-Dirac smearing, width (Ry)=  0.0110
                       cart. coord. in units 2pi/alat
        k(    1) = (   0.0000000   0.0000000   0.0000000), wk =   0.0555556
        k(    2) = (   0.0000000   0.0371180   0.0000000), wk =   0.1111111
        k(    3) = (   0.0000000   0.0742359   0.0000000), wk =   0.1111111
        k(    4) = (   0.0000000  -0.1113539   0.0000000), wk =   0.0555556
        k(    5) = (   0.0321451  -0.0185590   0.0000000), wk =   0.1111111
        k(    6) = (   0.0321451   0.0185590   0.0000000), wk =   0.1111111
        k(    7) = (   0.0321451   0.0556770   0.0000000), wk =   0.1111111
        k(    8) = (   0.0321451  -0.1299129   0.0000000), wk =   0.1111111
        k(    9) = (   0.0321451  -0.0927949   0.0000000), wk =   0.1111111
        k(   10) = (   0.0321451  -0.0556770   0.0000000), wk =   0.1111111
        k(   11) = (   0.0642902  -0.0371180   0.0000000), wk =   0.1111111
        k(   12) = (   0.0642902  -0.0000000   0.0000000), wk =   0.1111111
        k(   13) = (   0.0642902   0.0371180   0.0000000), wk =   0.1111111
        k(   14) = (   0.0642902  -0.1484719   0.0000000), wk =   0.1111111
        k(   15) = (   0.0642902  -0.1113539   0.0000000), wk =   0.1111111
        k(   16) = (   0.0642902  -0.0742359   0.0000000), wk =   0.1111111
        k(   17) = (  -0.0964353   0.0556770   0.0000000), wk =   0.0555556
        k(   18) = (  -0.0964353   0.0927949   0.0000000), wk =   0.1111111
        k(   19) = (  -0.0964353   0.1299129   0.0000000), wk =   0.1111111
        k(   20) = (  -0.0964353  -0.0556770   0.0000000), wk =   0.0555556

     Largest allocated arrays     est. size (Mb)     dimensions
     Largest temporary arrays     est. size (Mb)     dimensions

     Initial potential from superposition of free atoms
     Check: negative starting charge=   -0.000112

     starting charge  221.99996, renormalised to  234.00000

     negative rho (up, down):  1.180E-04 0.000E+00

     *
     * You are using vdW-DF for exchange-correlation in this calculation.
     * Please cite the following three references that made this development
     * possible:
     *
     *   M. Dion, H. Rydberg, E. Schroder, D. C. Langreth, and
     *   B. I. Lundqvist, Phys. Rev. Lett. 92, 246401 (2004).
     *
     *   T. Thonhauser, V. R. Cooper, S. Li, A. Puzder, P. Hyldgaard, and
     *   D. C. Langreth, Phys. Rev. B 76, 125112 (2007).
     *
     *   G. Roman-Perez and J. M. Soler, Phys. Rev. Lett. 103, 096102 (2009).
     *
     *
     * If you are using vdW-DF2, please also cite:
     *
     *   K. Lee, E. D. Murray, L. Kong, B. I. Lundqvist, and
     *   D. C. Langreth, Phys. Rev. B 82, 081101(R) (2010).
     *
     *
     * If you are calculating the stress with vdW-DF, please also cite:
     *
     *   R. Sabatini, E. Kucukbenli, B. Kolb, T. Thonhauser, and
     *   S. de Gironcoli, J. Phys.: Condens. Matter 24, 424209 (2012).
     *

     Carrying out vdW-DF run using the following parameters:

     Nqs =      20    Nr_points =    1024   r_max =   100.000
     q_mesh =
               0.00001000     0.04494208     0.09755937     0.15916263
               0.23128650     0.31572767     0.41458969     0.53033537
               0.66584808     0.82450364     1.01025438     1.22772762
               1.48234092     1.78043706     2.12944203     2.53805004
               3.01644009     3.57652955     4.23227104     5.00000000

     Gradients computed in reciprocal space

     Adding external electric field

     Computed dipole along edir(3) :
        Dipole               -2.2131 Ry au,         -5.6252 Debye
        Dipole field         -0.0073 Ry au

        Potential amp.        0.6523 Ry
        Total length         44.6496 bohr

     Starting wfc are  161 randomized atomic wfcs

     Self-consistent Calculation

     iteration #  1     ecut=    36.75 Ry     beta=0.30
     Davidson diagonalization with overlap
     ethr =  1.00E-02,  avg # of iterations =  7.8

[...]

     total energy              =   -4564.17727706 Ry
     Harris-Foulkes estimate   =   -4879.89964478 Ry
     estimated scf accuracy    <     664.12651969 Ry

     iteration #  2     ecut=    36.75 Ry     beta=0.30
     Davidson diagonalization with overlap
     c_bands:  4 eigenvalues not converged
     c_bands:  2 eigenvalues not converged
     c_bands:  1 eigenvalues not converged
     c_bands:  1 eigenvalues not converged
     c_bands:  1 eigenvalues not converged
     c_bands:  5 eigenvalues not converged
     ethr =  1.00E-02,  avg # of iterations = 19.6

[...]

     End of self-consistent calculation

          k = 0.0000 0.0000 0.0000 ( 14321 PWs)   bands (ev):

  -112.0145-111.9119-111.9064-111.9057-111.8952-111.8899-111.8898-111.6803
  -111.6637-111.6591-111.6581-111.5678 -69.4200 -69.4102 -69.4102 -69.3619
   -69.3392 -69.3384 -69.3384 -69.3178 -69.3178 -69.2997 -69.2989 -69.2989
   -69.2954 -69.2789 -69.2789 -69.2678 -69.2678 -69.2674 -69.2543 -69.2355
   -69.2348 -69.1277 -69.1274 -69.1168 -69.0748 -69.0747 -69.0684 -69.0524
   -69.0520 -69.0305 -69.0157 -69.0114 -69.0104 -68.9960 -68.9960 -68.9322
   -14.2769  -7.6870  -6.5042  -5.1505  -4.1540  -3.9550  -3.9550  -3.8600
    -3.8600  -3.8319  -3.6275  -3.4388  -3.4387  -3.3488  -3.3487  -3.3110
    -3.0569  -2.9365  -2.9364  -2.4736  -2.4735  -2.4085  -2.3821  -2.3425
    -2.3424  -2.2960  -2.2372  -2.2372  -2.1746  -2.0763  -2.0762  -2.0645
    -2.0134  -2.0133  -1.9621  -1.9620  -1.7694  -1.7423  -1.7420  -1.5119
    -1.4972  -1.4972  -1.4073  -1.4071  -1.2848  -1.2847  -1.2129  -1.1403
    -1.1401  -1.0687  -1.0529  -1.0526  -0.9991  -0.9991  -0.9590  -0.9548
    -0.9522  -0.9522  -0.8976  -0.8459  -0.8457  -0.7356  -0.7351  -0.7271
    -0.3459  -0.2199  -0.2198   0.8181   1.0175   1.0176   1.2971   1.9726
     1.9727   2.1161   2.4252   2.4252   3.2648   4.2374   4.7214

[...]

          k =-0.0964 0.0557 0.0000 ( 14294 PWs)   bands (ev):

[...]

     the Fermi energy is     0.6999 ev

!    total energy              =   -4880.72817818 Ry
     Harris-Foulkes estimate   =   -4880.72817700 Ry
     estimated scf accuracy    <       0.00000664 Ry

     The total energy is the sum of the following terms:

     one-electron contribution =  -37919.97517605 Ry
     hartree contribution      =   18978.11983306 Ry
     xc contribution           =    -486.31485169 Ry
     ewald contribution        =   14547.46950831 Ry
     electric field correction =       0.00006148 Ry
     smearing contrib. (-TS)   =      -0.02755329 Ry

     convergence has been achieved in  35 iterations

 BEEF-vdW xc energy contributions
           1 :   -430.839447573827
           2 :    390.519521517765
           3 :   -322.228644991304
           4 :    244.755743324651
           5 :   -175.193284799357
           6 :    122.828165754110
           7 :   -87.6928948998549
           8 :    63.7165720270945
           9 :   -44.0231834791315
          10 :    25.1099311058144
          11 :   -7.81328313227186
          12 :   -4.80111437534924
          13 :    10.6363708491151
          14 :   -10.5302419413104
          15 :    7.84470406195896
          16 :   -6.27603756434968
          17 :    7.59372353857714
          18 :   -10.8706119454581
          19 :    13.5768452325712
          20 :   -13.6120074116589
          21 :    10.8083322184224
          22 :   -6.93690940016995
          23 :    4.35098173259297
          24 :   -4.32264011951617
          25 :    6.24791434591327
          26 :   -8.20918392080887
          27 :    8.40998391969754
          28 :   -6.43062647092080
          29 :    3.44378626658636
          30 :   -1.30069577846780
          31 :   -34.5079786184015
          32 :   -23.5799044102564

     Forces acting on atoms (Ry/au):

     negative rho (up, down):  1.227E-03 0.000E+00
     atom    1 type  1   force =    -0.00003224    0.00000946    0.00515965
     atom    2 type  1   force =     0.00002220    0.00102784    0.00145189
     atom    3 type  1   force =     0.00091355   -0.00053601    0.00163920
     atom    4 type  1   force =    -0.00093404   -0.00052452    0.00168590
     atom    5 type  1   force =    -0.00183614    0.00075832   -0.00237623
     atom    6 type  1   force =     0.00183725    0.00089982   -0.00249167
     atom    7 type  1   force =     0.00012591    0.00020339    0.01410746
     atom    8 type  1   force =    -0.00012465   -0.00188954   -0.00232503
     atom    9 type  1   force =    -0.00411881   -0.00239378    0.02124719
     atom   10 type  1   force =     0.00418993   -0.00242268    0.02133668
     atom   11 type  1   force =     0.00001264    0.00488773    0.02139336
     atom   12 type  1   force =    -0.00003248   -0.00000993   -0.01049079
     atom   13 type  2   force =    -0.00001816   -0.00000599   -0.02327038
     atom   14 type  3   force =    -0.00000495   -0.00000412   -0.04706724

     Total force =     0.065584     Total SCF correction =     0.003576

     entering subroutine stress ...

     negative rho (up, down):  1.227E-03 0.000E+00
          total   stress  (Ry/bohr**3)                   (kbar)     P=  -26.50
  -0.00017372   0.00000002   0.00000004        -25.55      0.00      0.01
   0.00000002  -0.00017372   0.00000001          0.00    -25.55      0.00
   0.00000004   0.00000001  -0.00019298          0.01      0.00    -28.39

     BFGS Geometry Optimization

     number of scf cycles    =   1
     number of bfgs steps    =   0

     energy   new            =   -4880.7281781810 Ry

     new trust radius        =       0.0470672379 bohr
     new conv_thr            =       0.0000099958 Ry

ATOMIC_POSITIONS (crystal)
Cu1      0.166666667   0.166666667   0.412653782    0   0   0
Cu1      0.666666667   0.166666667   0.412653782    0   0   0
Cu1      0.166666667   0.666666667   0.412653782    0   0   0
Cu1      0.666666667   0.666666667   0.412653782    0   0   0
Cu1      0.833333333   0.333333333   0.500000000    0   0   0
Cu1      0.333333333   0.333333333   0.500000000    0   0   0
Cu1      0.833333333   0.833333333   0.500000000    0   0   0
Cu1      0.333333333   0.833333333   0.500000000    0   0   0
Cu1     -0.000279321  -0.000282112   0.587810187
Cu1      0.500570395  -0.000285518   0.587812141
Cu1     -0.000286724   0.500576029   0.587813379
Cu1      0.499997270   0.499998830   0.587117134
N1       0.166665167   0.166665960   0.641287736
H1       0.166666404   0.166666181   0.684096739

     Writing output data file calc.save
     Check: negative starting charge=   -0.000112
     NEW-OLD atomic charge density approx. for the potential
     Check: negative starting charge=   -0.000115

[...]

     Total force =     0.057419     Total SCF correction =     0.005745
     SCF correction compared to forces is large: reduce conv_thr to get better values

[...]

     energy   old            =   -4880.7281781810 Ry
     energy   new            =   -4880.7320885342 Ry

     CASE: energy  _new < energy  _old

     WARNING: bfgs curvature condition failed, Theta= 0.962
     new trust radius        =       0.0517739616 bohr
     new conv_thr            =       0.0000001000 Ry

[...]

     iteration #  1     ecut=    36.75 Ry     beta=0.30
     Davidson diagonalization with overlap
     c_bands:  1 eigenvalues not converged
     c_bands:  1 eigenvalues not converged
     c_bands:  1 eigenvalues not converged
     ethr =  1.00E-06,  avg # of iterations = 10.3

[...]

     Total force =     0.006217     Total SCF correction =     0.000439

[...]

     number of scf cycles    =  14
     number of bfgs steps    =  13

     energy   old            =   -4880.7460481180 Ry
     energy   new            =   -4880.7460698859 Ry

     CASE: energy  _new < energy  _old

     new trust radius        =       0.0065214373 bohr
     new conv_thr            =       0.0000001000 Ry

ATOMIC_POSITIONS (crystal)
Cu1      0.166666667   0.166666667   0.412653782    0   0   0
Cu1      0.666666667   0.166666667   0.412653782    0   0   0
Cu1      0.166666667   0.666666667   0.412653782    0   0   0
Cu1      0.666666667   0.666666667   0.412653782    0   0   0
Cu1      0.833333333   0.333333333   0.500000000    0   0   0
Cu1      0.333333333   0.333333333   0.500000000    0   0   0
Cu1      0.833333333   0.833333333   0.500000000    0   0   0
Cu1      0.333333333   0.833333333   0.500000000    0   0   0
Cu1     -0.006966847  -0.006963639   0.589330779
Cu1      0.513921430  -0.006959169   0.589330272
Cu1     -0.006959209   0.513918566   0.589328961
Cu1      0.500000679   0.500007959   0.582898523
N1       0.166663300   0.166658448   0.634440946
H1       0.166660192   0.166667452   0.676543151

     Writing output data file calc.save
     Check: negative starting charge=   -0.000121
     NEW-OLD atomic charge density approx. for the potential
     Check: negative starting charge=   -0.000121

[...]

     Self-consistent Calculation

[...]

     total energy              =   -4880.74608508 Ry
     Harris-Foulkes estimate   =   -4880.74608513 Ry
     estimated scf accuracy    <       0.00000042 Ry

     iteration #  7     ecut=    36.75 Ry     beta=0.30
     Davidson diagonalization with overlap
     ethr =  1.80E-10,  avg # of iterations =  2.2

[...]

     negative rho (up, down):  1.332E-03 0.000E+00

     Adding external electric field

     Computed dipole along edir(3) :
        Dipole                0.1787 Ry au,          0.4542 Debye
        Dipole field          0.0006 Ry au

        Potential amp.       -0.0527 Ry
        Total length         44.6496 bohr

     End of self-consistent calculation

[...]

          k = 0.0643-0.0742 0.0000 ( 14299 PWs)   bands (ev):

[...]

          k =-0.0964-0.0557 0.0000 ( 14294 PWs)   bands (ev):

  -111.9329-111.9269-111.9232-111.9218-111.7953-111.7934-111.7916-111.5941
  -111.5747-111.5572-111.5553-111.5535 -69.4161 -69.3907 -69.3802 -69.3327
   -69.3223 -69.3192 -69.3185 -69.3150 -69.3008 -69.2515 -69.2413 -69.2330
   -69.2281 -69.2082 -69.1952 -69.1902 -69.1832 -69.1812 -69.1801 -69.1788
   -69.1715 -69.0261 -69.0144 -69.0000 -68.9949 -68.9932 -68.9805 -68.9769
   -68.9750 -68.9680 -68.9548 -68.9525 -68.9480 -68.9084 -68.9065 -68.9048
   -14.8170  -6.7685  -5.8569  -5.4913  -4.5438  -3.9417  -3.9355  -3.6470
    -3.4289  -3.3883  -3.2666  -3.2242  -3.1872  -2.9943  -2.9307  -2.9128
    -2.8765  -2.7822  -2.7285  -2.7118  -2.5668  -2.5326  -2.5225  -2.4900
    -2.4806  -2.4360  -2.2941  -2.2571  -2.2383  -2.1685  -2.0690  -2.0321
    -1.9795  -1.9559  -1.9334  -1.9129  -1.9019  -1.8942  -1.8454  -1.8245
    -1.8157  -1.6883  -1.6442  -1.6065  -1.6001  -1.5744  -1.5685  -1.4803
    -1.4791  -1.4225  -1.3844  -1.3295  -1.2905  -1.2644  -1.2117  -1.1978
    -1.1926  -1.1413  -1.0491  -1.0244  -0.9477  -0.9327  -0.8812  -0.8432
    -0.8073  -0.3973  -0.1188   0.1166   0.7768   0.8544   1.4572   1.9173
     2.4179   2.8781   3.8583   4.1103   5.0962   5.1456   5.6926

     the Fermi energy is     0.8050 ev

!    total energy              =   -4880.74608511 Ry
     Harris-Foulkes estimate   =   -4880.74608515 Ry
     estimated scf accuracy    <       0.00000009 Ry

     The total energy is the sum of the following terms:

     one-electron contribution =  -37971.77040838 Ry
     hartree contribution      =   19004.42969674 Ry
     xc contribution           =    -486.41579797 Ry
     ewald contribution        =   14573.03675150 Ry
     electric field correction =       0.00010538 Ry
     smearing contrib. (-TS)   =      -0.02643238 Ry

     convergence has been achieved in   7 iterations

 BEEF-vdW xc energy contributions
           1 :   -430.947823152242
           2 :    390.669735535038
           3 :   -322.408785061280
           4 :    244.900314482968
           5 :   -175.232802455298
           6 :    122.743219183272
           7 :   -87.5327916627784
           8 :    63.5688027999345
           9 :   -43.9560612213467
          10 :    25.1300984655364
          11 :   -7.86752704548610
          12 :   -4.78259909989521
          13 :    10.6871827064945
          14 :   -10.6236833610577
          15 :    7.91449554352084
          16 :   -6.26569426161427
          17 :    7.49918024020644
          18 :   -10.7457879860918
          19 :    13.4979593124323
          20 :   -13.6263396003459
          21 :    10.9031978313570
          22 :   -7.04985541342865
          23 :    4.41303520692304
          24 :   -4.30402072499862
          25 :    6.17573174072112
          26 :   -8.14623022789590
          27 :    8.40937585151477
          28 :   -6.49692203858888
          29 :    3.52766564700369
          30 :   -1.33226688993477
          31 :   -34.5156657427410
          32 :   -23.5934556533364

     Forces acting on atoms (Ry/au):

     negative rho (up, down):  1.332E-03 0.000E+00
     atom    1 type  1   force =     0.00000055    0.00000015    0.00567443
     atom    2 type  1   force =    -0.00000060    0.00117030    0.00092589
     atom    3 type  1   force =     0.00101335   -0.00058549    0.00092558
     atom    4 type  1   force =    -0.00101322   -0.00058475    0.00092614
     atom    5 type  1   force =     0.00294216   -0.00169862   -0.00676970
     atom    6 type  1   force =    -0.00294066   -0.00169890   -0.00676589
     atom    7 type  1   force =    -0.00000235   -0.00000046    0.01295466
     atom    8 type  1   force =     0.00000097    0.00339942   -0.00676910
     atom    9 type  1   force =    -0.00044320   -0.00025604   -0.00081157
     atom   10 type  1   force =     0.00043638   -0.00025077   -0.00079905
     atom   11 type  1   force =     0.00000118    0.00049717   -0.00079338
     atom   12 type  1   force =    -0.00000104   -0.00000159    0.00082474
     atom   13 type  2   force =     0.00000647    0.00001051   -0.00000516
     atom   14 type  3   force =     0.00000001   -0.00000095    0.00048241

     Total force =     0.001898     Total SCF correction =     0.001504
     SCF correction compared to forces is large: reduce conv_thr to get better values

     entering subroutine stress ...

     negative rho (up, down):  1.332E-03 0.000E+00
          total   stress  (Ry/bohr**3)                   (kbar)     P=  -15.76
  -0.00011434   0.00000000   0.00000000        -16.82      0.00      0.00
   0.00000000  -0.00011435   0.00000000          0.00    -16.82      0.00
   0.00000000   0.00000000  -0.00009264          0.00      0.00    -13.63

     bfgs converged in  15 scf cycles and  14 bfgs steps
     (criteria: energy <  1.0E+00, force <  1.9E-03)

     End of BFGS Geometry Optimization

     Final energy   =   -4880.7460851109 Ry
Begin final coordinates

ATOMIC_POSITIONS (crystal)
Cu1      0.166666667   0.166666667   0.412653782    0   0   0
Cu1      0.666666667   0.166666667   0.412653782    0   0   0
Cu1      0.166666667   0.666666667   0.412653782    0   0   0
Cu1      0.666666667   0.666666667   0.412653782    0   0   0
Cu1      0.833333333   0.333333333   0.500000000    0   0   0
Cu1      0.333333333   0.333333333   0.500000000    0   0   0
Cu1      0.833333333   0.833333333   0.500000000    0   0   0
Cu1      0.333333333   0.833333333   0.500000000    0   0   0
Cu1     -0.006966847  -0.006963639   0.589330779
Cu1      0.513921430  -0.006959169   0.589330272
Cu1     -0.006959209   0.513918566   0.589328961
Cu1      0.500000679   0.500007959   0.582898523
N1       0.166663300   0.166658448   0.634440946
H1       0.166660192   0.166667452   0.676543151
End final coordinates

     Writing output data file calc.save

     General routines

     Parallel routines

   This run was terminated on:   9:23: 2  17Apr2018

   JOB DONE.