     Program PWSCF v.5.1rc2 (svn rev. 11289) starts on 24Apr2018 at 15:37:39

     Current dimensions of program PWSCF are:
     Max number of different atomic species (ntypx) = 10
     Max number of k-points (npk) =  40000
     Max angular momentum in pseudopotentials (lmaxx) =  3
     Presently stress not available with electric field

     IMPORTANT: XC functional enforced from input :
     Exchange-correlation      = BEEF-VDW ( 1  4 27 13 2)
     Any further DFT definition will be discarded
     Please, verify this is what you really want

     Subspace diagonalization in iterative solution of the eigenvalue problem:
     a serial algorithm will be used

     bravais-lattice index     =            0
     lattice parameter (alat)  =       1.8897  a.u.
     unit-cell volume          =    4704.3541 (a.u.)^3
     number of atoms/cell      =           14
     number of atomic types    =            3
     number of electrons       =       173.00
     number of Kohn-Sham states=           96
     kinetic-energy cutoff     =      36.7493  Ry
     charge density cutoff     =     367.4932  Ry
     convergence threshold     =      1.0E-05
     mixing beta               =       0.3000
     number of iterations used =           10  plain     mixing
     Exchange-correlation      = BEEF-VDW ( 1  4 27 13 2)
     nstep                     =           50

     celldm(1)=   1.889726  celldm(2)=   0.000000  celldm(3)=   0.000000
     celldm(4)=   0.000000  celldm(5)=   0.000000  celldm(6)=   0.000000

     crystal axes: (cart. coord. in units of alat)
               a(1) = (   5.712816   0.000000   0.000000 )
               a(2) = (   2.856408   4.947444   0.000000 )
               a(3) = (   0.000000   0.000000  24.664495 )

     reciprocal axes: (cart. coord. in units 2 pi/alat)
               b(1) = (  0.175045 -0.101062  0.000000 )
               b(2) = (  0.000000  0.202125  0.000000 )
               b(3) = (  0.000000  0.000000  0.040544 )

     PseudoPot. # 1 for W  read from file:
     /u/if/mamunm/psp/gbrv1.5pbe/W.UPF
     MD5 check sum: 9c083fa34c2a2ea0f02f1f893e16e1c8
     Pseudo is Ultrasoft + core correction, Zval = 14.0
     Generated by new atomic code, or converted to UPF format
     Using radial grid of  923 points,  8 beta functions with:
                l(1) =   0
                l(2) =   0
                l(3) =   0
                l(4) =   1
                l(5) =   1
                l(6) =   2
                l(7) =   2
                l(8) =   3
     Q(r) pseudized with  6 coefficients,  rinner =    1.350   1.350   1.350
                                                       1.350   1.350   1.350
                                                       1.350

     PseudoPot. # 2 for C  read from file:
     /u/if/mamunm/psp/gbrv1.5pbe/C.UPF
     MD5 check sum: d1aef80898a10debaa0f26306b886e00
     Pseudo is Ultrasoft + core correction, Zval =  4.0
     Generated by new atomic code, or converted to UPF format
     Using radial grid of  721 points,  4 beta functions with:
                l(1) =   0
                l(2) =   0
                l(3) =   1
                l(4) =   1
     Q(r) pseudized with  8 coefficients,  rinner =    1.100   1.100   1.100

     PseudoPot. # 3 for H  read from file:
     /u/if/mamunm/psp/gbrv1.5pbe/H.UPF
     MD5 check sum: 761ae9a214b05c3daf00ab9f6b793d6f
     Pseudo is Ultrasoft, Zval =  1.0
     Generated by new atomic code, or converted to UPF format
     Using radial grid of  615 points,  2 beta functions with:
                l(1) =   0
                l(2) =   0
     Q(r) pseudized with  8 coefficients,  rinner =    0.700

     vdW kernel table read from file vdW_kernel_table
     MD5 check sum: 095c7af220d748ca6e76c0b4c6cfb241

     atomic species   valence    mass     pseudopotential
        W1            14.00   183.84000     W ( 1.00)
        C1             4.00    12.01100     C ( 1.00)
        H1             1.00     1.00800     H ( 1.00)

     No symmetry found

   Cartesian axes

     site n.     atom                  positions (alat units)
         1           W1  tau(   1) = (   1.4282041   0.8245740  10.0000000  )
         2           W1  tau(   2) = (   4.2846123   0.8245740  10.0000000  )
         3           W1  tau(   3) = (   2.8564082   3.2982961  10.0000000  )
         4           W1  tau(   4) = (   5.7128165   3.2982961  10.0000000  )
         5           W1  tau(   5) = (   5.7128165   1.6491481  12.3322476  )
         6           W1  tau(   6) = (   2.8564082   1.6491481  12.3322476  )
         7           W1  tau(   7) = (   7.1410206   4.1228701  12.3322476  )
         8           W1  tau(   8) = (   4.2846123   4.1228701  12.3322476  )
         9           W1  tau(   9) = (   0.0000000   0.0000000  14.6644951  )
        10           W1  tau(  10) = (   2.8564082   0.0000000  14.6644951  )
        11           W1  tau(  11) = (   1.4282041   2.4737221  14.6644951  )
        12           W1  tau(  12) = (   4.2846123   2.4737221  14.6644951  )
        13           C1  tau(  13) = (   1.4282041   0.8245740  16.2114951  )
        14           H1  tau(  14) = (   1.4282041   0.8245740  17.3114951  )

     number of k points=    20  Fermi-Dirac smearing, width (Ry)=  0.0110
                       cart. coord. in units 2pi/alat
        k(    1) = (   0.0000000   0.0000000   0.0000000), wk =   0.0555556
        k(    2) = (   0.0000000   0.0336874   0.0000000), wk =   0.1111111
        k(    3) = (   0.0000000   0.0673749   0.0000000), wk =   0.1111111
        k(    4) = (   0.0000000  -0.1010623   0.0000000), wk =   0.0555556
        k(    5) = (   0.0291742  -0.0168437   0.0000000), wk =   0.1111111
        k(    6) = (   0.0291742   0.0168437   0.0000000), wk =   0.1111111
        k(    7) = (   0.0291742   0.0505311   0.0000000), wk =   0.1111111
        k(    8) = (   0.0291742  -0.1179060   0.0000000), wk =   0.1111111
        k(    9) = (   0.0291742  -0.0842186   0.0000000), wk =   0.1111111
        k(   10) = (   0.0291742  -0.0505311   0.0000000), wk =   0.1111111
        k(   11) = (   0.0583483  -0.0336874   0.0000000), wk =   0.1111111
        k(   12) = (   0.0583483  -0.0000000   0.0000000), wk =   0.1111111
        k(   13) = (   0.0583483   0.0336874   0.0000000), wk =   0.1111111
        k(   14) = (   0.0583483  -0.1347497   0.0000000), wk =   0.1111111
        k(   15) = (   0.0583483  -0.1010623   0.0000000), wk =   0.1111111
        k(   16) = (   0.0583483  -0.0673749   0.0000000), wk =   0.1111111
        k(   17) = (  -0.0875225   0.0505311   0.0000000), wk =   0.0555556
        k(   18) = (  -0.0875225   0.0842186   0.0000000), wk =   0.1111111
        k(   19) = (  -0.0875225   0.1179060   0.0000000), wk =   0.1111111
        k(   20) = (  -0.0875225  -0.0505311   0.0000000), wk =   0.0555556

     Largest allocated arrays     est. size (Mb)     dimensions
     Largest temporary arrays     est. size (Mb)     dimensions

     Initial potential from superposition of free atoms
     Check: negative starting charge=   -0.760272

     starting charge  171.79587, renormalised to  173.00000

     negative rho (up, down):  7.656E-01 0.000E+00

     *
     * You are using vdW-DF for exchange-correlation in this calculation.
     * Please cite the following three references that made this development
     * possible:
     *
     *   M. Dion, H. Rydberg, E. Schroder, D. C. Langreth, and
     *   B. I. Lundqvist, Phys. Rev. Lett. 92, 246401 (2004).
     *
     *   T. Thonhauser, V. R. Cooper, S. Li, A. Puzder, P. Hyldgaard, and
     *   D. C. Langreth, Phys. Rev. B 76, 125112 (2007).
     *
     *   G. Roman-Perez and J. M. Soler, Phys. Rev. Lett. 103, 096102 (2009).
     *
     *
     * If you are using vdW-DF2, please also cite:
     *
     *   K. Lee, E. D. Murray, L. Kong, B. I. Lundqvist, and
     *   D. C. Langreth, Phys. Rev. B 82, 081101(R) (2010).
     *
     *
     * If you are calculating the stress with vdW-DF, please also cite:
     *
     *   R. Sabatini, E. Kucukbenli, B. Kolb, T. Thonhauser, and
     *   S. de Gironcoli, J. Phys.: Condens. Matter 24, 424209 (2012).
     *

     Carrying out vdW-DF run using the following parameters:

     Nqs =      20    Nr_points =    1024   r_max =   100.000
     q_mesh =
               0.00001000     0.04494208     0.09755937     0.15916263
               0.23128650     0.31572767     0.41458969     0.53033537
               0.66584808     0.82450364     1.01025438     1.22772762
               1.48234092     1.78043706     2.12944203     2.53805004
               3.01644009     3.57652955     4.23227104     5.00000000

     Gradients computed in reciprocal space

     Adding external electric field

     Computed dipole along edir(3) :
        Dipole               -0.2711 Ry au,         -0.6890 Debye
        Dipole field         -0.0007 Ry au

        Potential amp.        0.0658 Ry
        Total length         45.4439 bohr

     Starting wfc are  161 randomized atomic wfcs

     Self-consistent Calculation

     iteration #  1     ecut=    36.75 Ry     beta=0.30
     Davidson diagonalization with overlap
     ethr =  1.00E-02,  avg # of iterations =  2.0

[...]

     total energy              =   -1936.03798600 Ry
     Harris-Foulkes estimate   =   -1937.97461243 Ry
     estimated scf accuracy    <       4.28346574 Ry

[...]

     End of self-consistent calculation

          k = 0.0000 0.0000 0.0000 ( 17753 PWs)   bands (ev):

   -71.6681 -71.5885 -71.5560 -71.5400 -71.5400 -71.5075 -71.4959 -71.4793
   -71.4793 -71.4520 -71.4520 -71.4424 -36.1706 -36.1678 -36.1678 -36.1101
   -36.1040 -36.1040 -36.1027 -35.9671 -35.9608 -35.9608 -35.7772 -35.6898
   -35.6296 -35.6296 -35.5944 -35.5944 -35.5908 -35.5125 -35.5125 -35.4862
   -35.4129 -35.4034 -35.4034 -35.3832 -35.3832 -35.3752 -35.3250 -35.2744
   -35.2744 -35.2684 -35.2684 -35.2652 -35.2009 -35.2009 -35.0919 -35.0919
    -8.4555  -5.5135  -4.0370  -3.1908  -2.6962  -2.3860  -2.3860  -2.3364
    -2.3012  -2.3012  -1.9088  -1.4843  -1.4843  -1.3802  -1.3802  -1.3470
    -0.6052  -0.1175  -0.1175   0.9217   0.9583   0.9583   1.2511   1.3914
     1.4487   1.4487   1.6517   2.0491   2.0491   2.1415   2.2107   2.2107
     2.4102   2.4102   2.4795   2.5556   2.5845   2.5845   2.7626   2.7626
     3.3088   3.6167   3.6167   4.1911   4.3055   4.3280   4.3280   4.8040

[...]

          k =-0.0875 0.0505 0.0000 ( 17668 PWs)   bands (ev):

[...]

     the Fermi energy is     2.6580 ev

!    total energy              =   -1937.54486789 Ry
     Harris-Foulkes estimate   =   -1937.54488066 Ry
     estimated scf accuracy    <       0.00000753 Ry

     The total energy is the sum of the following terms:

     one-electron contribution =  -14964.95589208 Ry
     hartree contribution      =    7468.54186057 Ry
     xc contribution           =    -514.68142405 Ry
     ewald contribution        =    6073.64429365 Ry
     electric field correction =       0.00003834 Ry
     smearing contrib. (-TS)   =      -0.09374433 Ry

     convergence has been achieved in  15 iterations

 BEEF-vdW xc energy contributions
           1 :   -452.737335693024
           2 :    418.854659914303
           3 :   -359.195700961539
           4 :    286.834870399190
           5 :   -215.371389193016
           6 :    155.002757073784
           7 :   -110.343591207204
           8 :    80.5148662032933
           9 :   -61.1010341887988
          10 :    46.8796026878960
          11 :   -34.0856737066468
          12 :    21.3970337605273
          13 :   -9.55169108478003
          14 :   0.125595436987282
          15 :    5.75184113979702
          16 :   -8.12056019512778
          17 :    8.13257445467383
          18 :   -7.40896674075219
          19 :    7.23957674403550
          20 :   -8.05695358596449
          21 :    9.41698308711153
          22 :   -10.4317610030722
          23 :    10.3745986686746
          24 :   -9.11904903056040
          25 :    7.19731818230019
          26 :   -5.48378616045329
          27 :    4.70483443441998
          28 :   -5.05320532664308
          29 :    6.11020547507525
          30 :   -7.10163030880238
          31 :   -41.1145986322492
          32 :   -30.8123414367798

     Forces acting on atoms (Ry/au):

     negative rho (up, down):  7.929E-01 0.000E+00
     atom    1 type  1   force =     0.00000251   -0.00000033   -0.00304071
     atom    2 type  1   force =    -0.00000121    0.00076928   -0.00651765
     atom    3 type  1   force =     0.00066349   -0.00038384   -0.00651459
     atom    4 type  1   force =    -0.00066630   -0.00037948   -0.00651514
     atom    5 type  1   force =     0.00365514   -0.00211170    0.00363497
     atom    6 type  1   force =    -0.00365422   -0.00211085    0.00363756
     atom    7 type  1   force =    -0.00000219   -0.00000378    0.00149537
     atom    8 type  1   force =     0.00000037    0.00421971    0.00363600
     atom    9 type  1   force =    -0.01213769   -0.00700875    0.06463971
     atom   10 type  1   force =     0.01213827   -0.00700976    0.06463654
     atom   11 type  1   force =     0.00000111    0.01401648    0.06463652
     atom   12 type  1   force =     0.00000045    0.00000247   -0.04042948
     atom   13 type  2   force =    -0.00000008    0.00000053   -0.13013427
     atom   14 type  3   force =     0.00000034    0.00000001   -0.01316484

     Total force =     0.178511     Total SCF correction =     0.003885

     entering subroutine stress ...

     negative rho (up, down):  7.929E-01 0.000E+00
          total   stress  (Ry/bohr**3)                   (kbar)     P=  -49.81
  -0.00043536   0.00000000  -0.00000000        -64.04      0.00     -0.00
   0.00000000  -0.00043535   0.00000000          0.00    -64.04      0.00
  -0.00000000   0.00000000  -0.00014501         -0.00      0.00    -21.33

     BFGS Geometry Optimization

     number of scf cycles    =   1
     number of bfgs steps    =   0

     energy   new            =   -1937.5448678855 Ry

     new trust radius        =       0.1301342701 bohr
     new conv_thr            =       0.0000099958 Ry

ATOMIC_POSITIONS (crystal)
W1       0.166666667   0.166666667   0.405441099    0   0   0
W1       0.666666667   0.166666667   0.405441099    0   0   0
W1       0.166666667   0.666666667   0.405441099    0   0   0
W1       0.666666667   0.666666667   0.405441099    0   0   0
W1       0.833333333   0.333333333   0.500000000    0   0   0
W1       0.333333333   0.333333333   0.500000000    0   0   0
W1       0.833333333   0.833333333   0.500000000    0   0   0
W1       0.333333333   0.833333333   0.500000000    0   0   0
W1      -0.000749486  -0.000749653   0.595945747
W1       0.501499247  -0.000749762   0.595945679
W1      -0.000749497   0.501499198   0.595945679
W1       0.499999909   0.500000264   0.593691486
C1       0.166666631   0.166666723   0.654488606
H1       0.166666698   0.166666667   0.701596708

     Writing output data file calc.save
     Check: negative starting charge=   -0.760272
     NEW-OLD atomic charge density approx. for the potential
     Check: negative starting charge=   -0.760604

[...]

     energy   old            =   -1937.5448678855 Ry
     energy   new            =   -1937.5681086375 Ry

     CASE: energy  _new < energy  _old

[...]

     iteration #  1     ecut=    36.75 Ry     beta=0.30
     Davidson diagonalization with overlap
     c_bands:  1 eigenvalues not converged
     ethr =  1.00E-06,  avg # of iterations = 12.7

[...]

     Threshold (ethr) on eigenvalues was too large:
     Diagonalizing with lowered threshold

     Davidson diagonalization with overlap
     ethr =  1.96E-08,  avg # of iterations =  4.0

[...]

     Total force =     0.006606     Total SCF correction =     0.000896
     SCF correction compared to forces is large: reduce conv_thr to get better values

[...]

     Total force =     0.003731     Total SCF correction =     0.000148

[...]

     number of scf cycles    =  13
     number of bfgs steps    =  12

     energy   old            =   -1937.6036148996 Ry
     energy   new            =   -1937.6036950310 Ry

     CASE: energy  _new < energy  _old

     new trust radius        =       0.0094688306 bohr
     new conv_thr            =       0.0000001000 Ry

ATOMIC_POSITIONS (crystal)
W1       0.166666667   0.166666667   0.405441099    0   0   0
W1       0.666666667   0.166666667   0.405441099    0   0   0
W1       0.166666667   0.666666667   0.405441099    0   0   0
W1       0.666666667   0.666666667   0.405441099    0   0   0
W1       0.833333333   0.333333333   0.500000000    0   0   0
W1       0.333333333   0.333333333   0.500000000    0   0   0
W1       0.833333333   0.833333333   0.500000000    0   0   0
W1       0.333333333   0.833333333   0.500000000    0   0   0
W1      -0.003693641  -0.003693771   0.597063600
W1       0.507387416  -0.003693596   0.597063569
W1      -0.003693779   0.507387850   0.597063590
W1       0.499999973   0.500000165   0.584583774
C1       0.166666791   0.166666711   0.647919899
H1       0.166666799   0.166666707   0.692469278

     Writing output data file calc.save
     Check: negative starting charge=   -0.757962
     NEW-OLD atomic charge density approx. for the potential
     Check: negative starting charge=   -0.757911

[...]

     Self-consistent Calculation

[...]

     Threshold (ethr) on eigenvalues was too large:
     Diagonalizing with lowered threshold

     Davidson diagonalization with overlap
     ethr =  1.19E-08,  avg # of iterations =  4.2

[...]

     total energy              =   -1937.60370127 Ry
     Harris-Foulkes estimate   =   -1937.60370150 Ry
     estimated scf accuracy    <       0.00000021 Ry

     iteration #  8     ecut=    36.75 Ry     beta=0.30
     Davidson diagonalization with overlap
     ethr =  1.20E-10,  avg # of iterations =  3.6

[...]

     negative rho (up, down):  7.912E-01 0.000E+00

     Adding external electric field

     Computed dipole along edir(3) :
        Dipole                0.1677 Ry au,          0.4262 Debye
        Dipole field          0.0004 Ry au

        Potential amp.       -0.0407 Ry
        Total length         45.4439 bohr

     End of self-consistent calculation

[...]

          k = 0.0583-0.0674 0.0000 ( 17692 PWs)   bands (ev):

[...]

          k =-0.0875-0.0505 0.0000 ( 17668 PWs)   bands (ev):

   -71.5825 -71.5150 -71.5011 -71.4800 -71.4654 -71.4528 -71.4355 -71.4235
   -71.4221 -71.4048 -71.4000 -71.3697 -36.0210 -35.9904 -35.9777 -35.9195
   -35.9174 -35.8952 -35.8257 -35.8069 -35.7696 -35.7523 -35.7377 -35.6956
   -35.6455 -35.5791 -35.5595 -35.5548 -35.5328 -35.5273 -35.5149 -35.5034
   -35.4721 -35.4550 -35.4449 -35.4343 -35.4055 -35.3950 -35.3572 -35.3394
   -35.3325 -35.2826 -35.2525 -35.2132 -35.1789 -35.1509 -35.1259 -35.1164
    -8.7398  -3.7854  -3.6446  -3.1754  -2.2577  -1.7427  -1.5144  -1.3778
    -1.2858  -1.2303  -1.1424  -1.1187  -0.7968  -0.4516  -0.1259  -0.1078
    -0.0841  -0.0272   0.1339   0.1918   0.4830   0.5682   0.5976   0.6835
     0.8555   0.9096   1.0927   1.4468   1.4482   1.4939   1.6125   1.6260
     1.6730   1.7690   1.8037   2.2123   2.2616   2.2747   2.4224   2.7932
     2.9474   3.0202   3.4462   3.5734   3.6647   3.7086   3.7873   3.9464

     the Fermi energy is     2.7019 ev

!    total energy              =   -1937.60370129 Ry
     Harris-Foulkes estimate   =   -1937.60370141 Ry
     estimated scf accuracy    <       0.00000005 Ry

     The total energy is the sum of the following terms:

     one-electron contribution =  -15050.93676473 Ry
     hartree contribution      =    7511.76708194 Ry
     xc contribution           =    -514.95901858 Ry
     ewald contribution        =    6116.61354907 Ry
     electric field correction =       0.00007511 Ry
     smearing contrib. (-TS)   =      -0.08862411 Ry

     convergence has been achieved in   8 iterations

 BEEF-vdW xc energy contributions
           1 :   -453.009948622395
           2 :    419.176422160321
           3 :   -359.572925573302
           4 :    287.224965727595
           5 :   -215.703206961951
           6 :    155.205784275047
           7 :   -110.377743243370
           8 :    80.3899604837644
           9 :   -60.8766329672168
          10 :    46.6420588769327
          11 :   -33.9107040756528
          12 :    21.3150750410831
          13 :   -9.53415979208853
          14 :   0.101935365803683
          15 :    5.85377611613109
          16 :   -8.33248324822614
          17 :    8.42380847436215
          18 :   -7.69740479406181
          19 :    7.43202298722076
          20 :   -8.09642558275965
          21 :    9.31052620229593
          22 :   -10.2449825756360
          23 :    10.1979805832603
          24 :   -9.02524860069599
          25 :    7.21046006343039
          26 :   -5.57392940482345
          27 :    4.80803009014494
          28 :   -5.10586059285481
          29 :    6.08069978254821
          30 :   -7.00485818878127
          31 :   -41.1315980737522
          32 :   -30.8385981485438

     Forces acting on atoms (Ry/au):

     negative rho (up, down):  7.912E-01 0.000E+00
     atom    1 type  1   force =    -0.00000002   -0.00000001    0.00711879
     atom    2 type  1   force =    -0.00000002    0.00173316   -0.00631374
     atom    3 type  1   force =     0.00150102   -0.00086663   -0.00631378
     atom    4 type  1   force =    -0.00150102   -0.00086659   -0.00631376
     atom    5 type  1   force =     0.02248783   -0.01298339   -0.00542003
     atom    6 type  1   force =    -0.02248780   -0.01298328   -0.00542030
     atom    7 type  1   force =     0.00000004   -0.00000001    0.02829987
     atom    8 type  1   force =    -0.00000007    0.02596670   -0.00542048
     atom    9 type  1   force =     0.00016411    0.00009534    0.00004630
     atom   10 type  1   force =    -0.00016383    0.00009483    0.00004634
     atom   11 type  1   force =    -0.00000025   -0.00019022    0.00004651
     atom   12 type  1   force =     0.00000018   -0.00000013   -0.00029760
     atom   13 type  2   force =    -0.00000017    0.00000022    0.00118201
     atom   14 type  3   force =     0.00000000    0.00000002   -0.00124014

     Total force =     0.001771     Total SCF correction =     0.000213
     SCF correction compared to forces is large: reduce conv_thr to get better values

     entering subroutine stress ...

     negative rho (up, down):  7.912E-01 0.000E+00
          total   stress  (Ry/bohr**3)                   (kbar)     P=  -37.58
  -0.00034728  -0.00000000  -0.00000000        -51.09     -0.00     -0.00
  -0.00000000  -0.00034728   0.00000000         -0.00    -51.09      0.00
  -0.00000000   0.00000000  -0.00007191         -0.00      0.00    -10.58

     bfgs converged in  14 scf cycles and  13 bfgs steps
     (criteria: energy <  1.0E+00, force <  1.9E-03)

     End of BFGS Geometry Optimization

     Final energy   =   -1937.6037012872 Ry
Begin final coordinates

ATOMIC_POSITIONS (crystal)
W1       0.166666667   0.166666667   0.405441099    0   0   0
W1       0.666666667   0.166666667   0.405441099    0   0   0
W1       0.166666667   0.666666667   0.405441099    0   0   0
W1       0.666666667   0.666666667   0.405441099    0   0   0
W1       0.833333333   0.333333333   0.500000000    0   0   0
W1       0.333333333   0.333333333   0.500000000    0   0   0
W1       0.833333333   0.833333333   0.500000000    0   0   0
W1       0.333333333   0.833333333   0.500000000    0   0   0
W1      -0.003693641  -0.003693771   0.597063600
W1       0.507387416  -0.003693596   0.597063569
W1      -0.003693779   0.507387850   0.597063590
W1       0.499999973   0.500000165   0.584583774
C1       0.166666791   0.166666711   0.647919899
H1       0.166666799   0.166666707   0.692469278
End final coordinates

     Writing output data file calc.save

     General routines

     Parallel routines

   This run was terminated on:  17:37:29  24Apr2018

   JOB DONE.
Job  /afs/slac/g/suncat/bin/suncat-tsmpirun -x LD_LIBRARY_PATH -wdir /scratch/qe853388_IQcb4 pw.x -npool 4 -in pw.inp

TID   HOST_NAME   COMMAND_LINE            STATUS            TERMINATION_TIME
00000 suncat0040 pw.x -npool 4 -i  Done                     04/24/2018 17:37:29
00001 suncat0040 pw.x -npool 4 -i  Done                     04/24/2018 17:37:29
00002 suncat0040 pw.x -npool 4 -i  Done                     04/24/2018 17:37:29
00003 suncat0040 pw.x -npool 4 -i  Done                     04/24/2018 17:37:29
00004 suncat0040 pw.x -npool 4 -i  Done                     04/24/2018 17:37:29
00005 suncat0040 pw.x -npool 4 -i  Done                     04/24/2018 17:37:29
00006 suncat0040 pw.x -npool 4 -i  Done                     04/24/2018 17:37:29
00007 suncat0040 pw.x -npool 4 -i  Done                     04/24/2018 17:37:29
00008 suncat0023 pw.x -npool 4 -i  Done                     04/24/2018 17:37:29
00009 suncat0023 pw.x -npool 4 -i  Done                     04/24/2018 17:37:29
00010 suncat0023 pw.x -npool 4 -i  Done                     04/24/2018 17:37:29
00011 suncat0023 pw.x -npool 4 -i  Done                     04/24/2018 17:37:29
00012 suncat0023 pw.x -npool 4 -i  Done                     04/24/2018 17:37:29
00013 suncat0023 pw.x -npool 4 -i  Done                     04/24/2018 17:37:29
00014 suncat0023 pw.x -npool 4 -i  Done                     04/24/2018 17:37:29
00015 suncat0023 pw.x -npool 4 -i  Done                     04/24/2018 17:37:29
00016 suncat0022 pw.x -npool 4 -i  Done                     04/24/2018 17:37:29
00017 suncat0022 pw.x -npool 4 -i  Done                     04/24/2018 17:37:29
00018 suncat0022 pw.x -npool 4 -i  Done                     04/24/2018 17:37:29
00019 suncat0022 pw.x -npool 4 -i  Done                     04/24/2018 17:37:29
00020 suncat0022 pw.x -npool 4 -i  Done                     04/24/2018 17:37:29
00021 suncat0022 pw.x -npool 4 -i  Done                     04/24/2018 17:37:29
00022 suncat0022 pw.x -npool 4 -i  Done                     04/24/2018 17:37:29
00023 suncat0022 pw.x -npool 4 -i  Done                     04/24/2018 17:37:29
00024 suncat0015 pw.x -npool 4 -i  Done                     04/24/2018 17:37:29
00025 suncat0015 pw.x -npool 4 -i  Done                     04/24/2018 17:37:29
00026 suncat0015 pw.x -npool 4 -i  Done                     04/24/2018 17:37:29
00027 suncat0015 pw.x -npool 4 -i  Done                     04/24/2018 17:37:29
00028 suncat0015 pw.x -npool 4 -i  Done                     04/24/2018 17:37:29
00029 suncat0015 pw.x -npool 4 -i  Done                     04/24/2018 17:37:29
00030 suncat0015 pw.x -npool 4 -i  Done                     04/24/2018 17:37:29
00031 suncat0015 pw.x -npool 4 -i  Done                     04/24/2018 17:37:29