     Program PWSCF v.5.1rc2 (svn rev. 11289) starts on 16Apr2018 at 11:48: 6

     Current dimensions of program PWSCF are:
     Max number of different atomic species (ntypx) = 10
     Max number of k-points (npk) =  40000
     Max angular momentum in pseudopotentials (lmaxx) =  3
     Presently stress not available with electric field

     IMPORTANT: XC functional enforced from input :
     Exchange-correlation      = BEEF-VDW ( 1  4 27 13 2)
     Any further DFT definition will be discarded
     Please, verify this is what you really want

     Subspace diagonalization in iterative solution of the eigenvalue problem:
     a serial algorithm will be used

     bravais-lattice index     =            0
     lattice parameter (alat)  =       1.8897  a.u.
     unit-cell volume          =    5144.9564 (a.u.)^3
     number of atoms/cell      =           14
     number of atomic types    =            3
     number of electrons       =       137.00
     number of Kohn-Sham states=           78
     kinetic-energy cutoff     =      36.7493  Ry
     charge density cutoff     =     367.4932  Ry
     convergence threshold     =      1.0E-05
     mixing beta               =       0.3000
     number of iterations used =           10  plain     mixing
     Exchange-correlation      = BEEF-VDW ( 1  4 27 13 2)
     nstep                     =           50

     celldm(1)=   1.889726  celldm(2)=   0.000000  celldm(3)=   0.000000
     celldm(4)=   0.000000  celldm(5)=   0.000000  celldm(6)=   0.000000

     crystal axes: (cart. coord. in units of alat)
               a(1) = (   5.950946   0.000000   0.000000 )
               a(2) = (   2.975473   5.153671   0.000000 )
               a(3) = (   0.000000   0.000000  24.858927 )

     reciprocal axes: (cart. coord. in units 2 pi/alat)
               b(1) = (  0.168040 -0.097018  0.000000 )
               b(2) = (  0.000000  0.194036  0.000000 )
               b(3) = (  0.000000  0.000000  0.040227 )

     PseudoPot. # 1 for Au read from file:
     /u/if/mamunm/psp/gbrv1.5pbe/Au.UPF
     MD5 check sum: 9d7f43293ad2c663164586bc4b293ffc
     Pseudo is Ultrasoft + core correction, Zval = 11.0
     Generated by new atomic code, or converted to UPF format
     Using radial grid of  985 points,  7 beta functions with:
                l(1) =   0
                l(2) =   0
                l(3) =   1
                l(4) =   1
                l(5) =   2
                l(6) =   2
                l(7) =   3
     Q(r) pseudized with  6 coefficients,  rinner =    1.900   1.900   1.900
                                                       1.900   1.900   1.900
                                                       1.900

     PseudoPot. # 2 for C  read from file:
     /u/if/mamunm/psp/gbrv1.5pbe/C.UPF
     MD5 check sum: d1aef80898a10debaa0f26306b886e00
     Pseudo is Ultrasoft + core correction, Zval =  4.0
     Generated by new atomic code, or converted to UPF format
     Using radial grid of  721 points,  4 beta functions with:
                l(1) =   0
                l(2) =   0
                l(3) =   1
                l(4) =   1
     Q(r) pseudized with  8 coefficients,  rinner =    1.100   1.100   1.100

     PseudoPot. # 3 for H  read from file:
     /u/if/mamunm/psp/gbrv1.5pbe/H.UPF
     MD5 check sum: 761ae9a214b05c3daf00ab9f6b793d6f
     Pseudo is Ultrasoft, Zval =  1.0
     Generated by new atomic code, or converted to UPF format
     Using radial grid of  615 points,  2 beta functions with:
                l(1) =   0
                l(2) =   0
     Q(r) pseudized with  8 coefficients,  rinner =    0.700

     vdW kernel table read from file vdW_kernel_table
     MD5 check sum: 095c7af220d748ca6e76c0b4c6cfb241

     atomic species   valence    mass     pseudopotential
        Au1           11.00   196.96657     Au( 1.00)
        C1             4.00    12.01100     C ( 1.00)
        H1             1.00     1.00800     H ( 1.00)

     No symmetry found

   Cartesian axes

     site n.     atom                  positions (alat units)
         1           Au1 tau(   1) = (   1.4877366   0.8589451  10.0000000  )
         2           Au1 tau(   2) = (   4.4632098   0.8589451  10.0000000  )
         3           Au1 tau(   3) = (   2.9754732   3.4357805  10.0000000  )
         4           Au1 tau(   4) = (   5.9509464   3.4357805  10.0000000  )
         5           Au1 tau(   5) = (   5.9509464   1.7178903  12.4294637  )
         6           Au1 tau(   6) = (   2.9754732   1.7178903  12.4294637  )
         7           Au1 tau(   7) = (   7.4386830   4.2947256  12.4294637  )
         8           Au1 tau(   8) = (   4.4632098   4.2947256  12.4294637  )
         9           Au1 tau(   9) = (   0.0000000   0.0000000  14.8589274  )
        10           Au1 tau(  10) = (   2.9754732   0.0000000  14.8589274  )
        11           Au1 tau(  11) = (   1.4877366   2.5768354  14.8589274  )
        12           Au1 tau(  12) = (   4.4632098   2.5768354  14.8589274  )
        13           C1  tau(  13) = (   2.9754732   1.7178903  16.2369274  )
        14           H1  tau(  14) = (   2.9754732   1.7178903  17.3369274  )

     number of k points=    20  Fermi-Dirac smearing, width (Ry)=  0.0110
                       cart. coord. in units 2pi/alat
        k(    1) = (   0.0000000   0.0000000   0.0000000), wk =   0.0555556
        k(    2) = (   0.0000000   0.0323394   0.0000000), wk =   0.1111111
        k(    3) = (   0.0000000   0.0646788   0.0000000), wk =   0.1111111
        k(    4) = (   0.0000000  -0.0970182   0.0000000), wk =   0.0555556
        k(    5) = (   0.0280067  -0.0161697   0.0000000), wk =   0.1111111
        k(    6) = (   0.0280067   0.0161697   0.0000000), wk =   0.1111111
        k(    7) = (   0.0280067   0.0485091   0.0000000), wk =   0.1111111
        k(    8) = (   0.0280067  -0.1131879   0.0000000), wk =   0.1111111
        k(    9) = (   0.0280067  -0.0808485   0.0000000), wk =   0.1111111
        k(   10) = (   0.0280067  -0.0485091   0.0000000), wk =   0.1111111
        k(   11) = (   0.0560135  -0.0323394   0.0000000), wk =   0.1111111
        k(   12) = (   0.0560135   0.0000000   0.0000000), wk =   0.1111111
        k(   13) = (   0.0560135   0.0323394   0.0000000), wk =   0.1111111
        k(   14) = (   0.0560135  -0.1293576   0.0000000), wk =   0.1111111
        k(   15) = (   0.0560135  -0.0970182   0.0000000), wk =   0.1111111
        k(   16) = (   0.0560135  -0.0646788   0.0000000), wk =   0.1111111
        k(   17) = (  -0.0840202   0.0485091   0.0000000), wk =   0.0555556
        k(   18) = (  -0.0840202   0.0808485   0.0000000), wk =   0.1111111
        k(   19) = (  -0.0840202   0.1131879   0.0000000), wk =   0.1111111
        k(   20) = (  -0.0840202  -0.0485091   0.0000000), wk =   0.0555556

     Largest allocated arrays     est. size (Mb)     dimensions
     Largest temporary arrays     est. size (Mb)     dimensions

     Check: negative/imaginary core charge=   -0.000002    0.000000

     Initial potential from superposition of free atoms
     Check: negative starting charge=   -0.000107

     starting charge  136.99848, renormalised to  137.00000

     negative rho (up, down):  1.065E-04 0.000E+00

     *
     * You are using vdW-DF for exchange-correlation in this calculation.
     * Please cite the following three references that made this development
     * possible:
     *
     *   M. Dion, H. Rydberg, E. Schroder, D. C. Langreth, and
     *   B. I. Lundqvist, Phys. Rev. Lett. 92, 246401 (2004).
     *
     *   T. Thonhauser, V. R. Cooper, S. Li, A. Puzder, P. Hyldgaard, and
     *   D. C. Langreth, Phys. Rev. B 76, 125112 (2007).
     *
     *   G. Roman-Perez and J. M. Soler, Phys. Rev. Lett. 103, 096102 (2009).
     *
     *
     * If you are using vdW-DF2, please also cite:
     *
     *   K. Lee, E. D. Murray, L. Kong, B. I. Lundqvist, and
     *   D. C. Langreth, Phys. Rev. B 82, 081101(R) (2010).
     *
     *
     * If you are calculating the stress with vdW-DF, please also cite:
     *
     *   R. Sabatini, E. Kucukbenli, B. Kolb, T. Thonhauser, and
     *   S. de Gironcoli, J. Phys.: Condens. Matter 24, 424209 (2012).
     *

     Carrying out vdW-DF run using the following parameters:

     Nqs =      20    Nr_points =    1024   r_max =   100.000
     q_mesh =
               0.00001000     0.04494208     0.09755937     0.15916263
               0.23128650     0.31572767     0.41458969     0.53033537
               0.66584808     0.82450364     1.01025438     1.22772762
               1.48234092     1.78043706     2.12944203     2.53805004
               3.01644009     3.57652955     4.23227104     5.00000000

     Gradients computed in reciprocal space

     Adding external electric field

     Computed dipole along edir(3) :
        Dipole               -0.0000 Ry au,         -0.0001 Debye
        Dipole field         -0.0000 Ry au

        Potential amp.        0.0000 Ry
        Total length         45.8022 bohr

     Starting wfc are  113 randomized atomic wfcs

     Self-consistent Calculation

     iteration #  1     ecut=    36.75 Ry     beta=0.30
     Davidson diagonalization with overlap
     ethr =  1.00E-02,  avg # of iterations =  2.0

[...]

     total energy              =   -1412.38043183 Ry
     Harris-Foulkes estimate   =   -1413.30049573 Ry
     estimated scf accuracy    <       2.07196822 Ry

[...]

     End of self-consistent calculation

          k = 0.0000 0.0000 0.0000 ( 19315 PWs)   bands (ev):

   -11.1841  -7.6324  -6.7386  -5.9793  -5.7648  -5.6962  -5.6962  -5.5985
    -5.4836  -5.4836  -5.2149  -5.2149  -5.1894  -5.1392  -5.0237  -5.0237
    -4.5064  -4.3233  -4.3233  -3.9281  -3.9281  -3.9154  -3.8463  -3.8463
    -3.8130  -3.6778  -3.6778  -3.5222  -3.5222  -3.5174  -3.3973  -3.3812
    -3.3812  -3.2089  -3.2089  -2.8152  -2.7989  -2.7989  -2.7163  -2.6143
    -2.4785  -2.4785  -2.2566  -2.2566  -2.1744  -2.1744  -1.8891  -1.8891
    -1.7968  -1.7390  -1.7390  -1.6695  -1.6695  -1.6495  -1.6107  -1.5245
    -1.5176  -1.5176  -1.4937  -1.3884  -1.3884  -1.2168  -1.2059  -1.2059
    -0.4351   0.2711   0.2711   1.1119   1.1251   1.1251   1.3939   1.8076
     1.8076   1.9161   1.9917   1.9917   3.5350   3.6948

[...]

          k =-0.0840 0.0485 0.0000 ( 19380 PWs)   bands (ev):

[...]

     the Fermi energy is     0.4764 ev

!    total energy              =   -1413.08679553 Ry
     Harris-Foulkes estimate   =   -1413.08680388 Ry
     estimated scf accuracy    <       0.00000600 Ry

     The total energy is the sum of the following terms:

     one-electron contribution =   -8262.48223173 Ry
     hartree contribution      =    4229.74718948 Ry
     xc contribution           =    -772.38408854 Ry
     ewald contribution        =    3392.05720074 Ry
     electric field correction =       0.00005260 Ry
     smearing contrib. (-TS)   =      -0.02491808 Ry

     convergence has been achieved in  10 iterations

 BEEF-vdW xc energy contributions
           1 :   -690.299035491641
           2 :    641.671120196059
           3 :   -554.704324670565
           4 :    446.231857409566
           5 :   -334.442245237578
           6 :    234.214820777505
           7 :   -154.299043965977
           8 :    96.8260512402733
           9 :   -58.8847760896404
          10 :    35.1697054331995
          11 :   -20.5044887013344
          12 :    11.3089648274010
          13 :   -5.76369375611489
          14 :    3.05327986083569
          15 :   -2.41768007466283
          16 :    2.62540760521028
          17 :   -2.11333583374176
          18 :  -0.398395970807542
          19 :    5.24811671582097
          20 :   -11.5692049145205
          21 :    17.6111408282343
          22 :   -21.5135538527804
          23 :    22.1398774682336
          24 :   -19.5604004292450
          25 :    14.9615340696427
          26 :   -10.0611524484494
          27 :    6.34217570635178
          28 :   -4.48836565801946
          29 :    4.26644436878769
          30 :   -4.85940299044478
          31 :   -54.6984252579127
          32 :   -39.8777635816894

     Forces acting on atoms (Ry/au):

     negative rho (up, down):  2.563E-04 0.000E+00
     atom    1 type  1   force =    -0.00046492   -0.00027728   -0.00607941
     atom    2 type  1   force =     0.00046545   -0.00027719   -0.00608969
     atom    3 type  1   force =    -0.00000524    0.00054022   -0.00607630
     atom    4 type  1   force =     0.00000240    0.00000515   -0.00988045
     atom    5 type  1   force =    -0.00000237    0.00364604    0.00495561
     atom    6 type  1   force =     0.00000011   -0.00000270   -0.01360760
     atom    7 type  1   force =    -0.00314620   -0.00181992    0.00493021
     atom    8 type  1   force =     0.00315247   -0.00181141    0.00492933
     atom    9 type  1   force =    -0.00000012   -0.00000030    0.00185124
     atom   10 type  1   force =     0.00000238    0.00005775    0.03847690
     atom   11 type  1   force =     0.00005361   -0.00002370    0.03848616
     atom   12 type  1   force =    -0.00006021   -0.00003231    0.03845492
     atom   13 type  2   force =     0.00000178   -0.00000263   -0.07818556
     atom   14 type  3   force =     0.00000085   -0.00000171   -0.01216538

     Total force =     0.103464     Total SCF correction =     0.007987

     entering subroutine stress ...

     negative rho (up, down):  2.563E-04 0.000E+00
          total   stress  (Ry/bohr**3)                   (kbar)     P=  -10.28
  -0.00009819  -0.00000000  -0.00000000        -14.44     -0.00     -0.00
  -0.00000000  -0.00009819   0.00000000         -0.00    -14.44      0.00
  -0.00000000   0.00000000  -0.00001319         -0.00      0.00     -1.94

     BFGS Geometry Optimization

     number of scf cycles    =   1
     number of bfgs steps    =   0

     energy   new            =   -1413.0867955302 Ry

     new trust radius        =       0.0781855552 bohr
     new conv_thr            =       0.0000099958 Ry

ATOMIC_POSITIONS (crystal)
Au1      0.166666667   0.166666667   0.402269971    0   0   0
Au1      0.666666667   0.166666667   0.402269971    0   0   0
Au1      0.166666667   0.666666667   0.402269971    0   0   0
Au1      0.666666667   0.666666667   0.402269971    0   0   0
Au1      0.833333333   0.333333333   0.500000000    0   0   0
Au1      0.333333333   0.333333333   0.500000000    0   0   0
Au1      0.833333333   0.833333333   0.500000000    0   0   0
Au1      0.333333333   0.833333333   0.500000000    0   0   0
Au1      0.000000005  -0.000000031   0.597769437
Au1      0.499997247   0.000005929   0.598549095
Au1      0.000005984   0.499997566   0.598549292
Au1      0.499996305   0.499996683   0.598548627
C1       0.333333627   0.333333063   0.651498479
H1       0.333333497   0.333333158   0.697153561

     Writing output data file calc.save
     Check: negative starting charge=   -0.000107
     NEW-OLD atomic charge density approx. for the potential

     Check: negative/imaginary core charge=   -0.000002    0.000000
     Check: negative starting charge=   -0.000106

[...]

     energy   old            =   -1413.0867955302 Ry
     energy   new            =   -1413.0949934867 Ry

     CASE: energy  _new < energy  _old

[...]

     Threshold (ethr) on eigenvalues was too large:
     Diagonalizing with lowered threshold

     Davidson diagonalization with overlap
     ethr =  7.38E-08,  avg # of iterations =  1.1

[...]

     Total force =     0.007792     Total SCF correction =     0.000497

[...]

     number of scf cycles    =   7
     number of bfgs steps    =   6

     energy   old            =   -1413.1210052456 Ry
     energy   new            =   -1413.1212701845 Ry

     CASE: energy  _new < energy  _old

     new trust radius        =       0.0048141035 bohr
     new conv_thr            =       0.0000001000 Ry

ATOMIC_POSITIONS (crystal)
Au1      0.166666667   0.166666667   0.402269971    0   0   0
Au1      0.666666667   0.166666667   0.402269971    0   0   0
Au1      0.166666667   0.666666667   0.402269971    0   0   0
Au1      0.666666667   0.666666667   0.402269971    0   0   0
Au1      0.833333333   0.333333333   0.500000000    0   0   0
Au1      0.333333333   0.333333333   0.500000000    0   0   0
Au1      0.833333333   0.833333333   0.500000000    0   0   0
Au1      0.333333333   0.833333333   0.500000000    0   0   0
Au1      0.000000095   0.000000845   0.597568995
Au1      0.507596394  -0.015194158   0.604373572
Au1     -0.015195106   0.507598424   0.604374462
Au1      0.507594393   0.507595495   0.604371716
C1       0.333334026   0.333332579   0.645456802
H1       0.333335364   0.333332636   0.689391896

     Writing output data file calc.save
     Check: negative starting charge=   -0.000109
     NEW-OLD atomic charge density approx. for the potential

     Check: negative/imaginary core charge=   -0.000002    0.000000
     Check: negative starting charge=   -0.000109

[...]

     Self-consistent Calculation

[...]

     Threshold (ethr) on eigenvalues was too large:
     Diagonalizing with lowered threshold

     Davidson diagonalization with overlap
     ethr =  3.05E-08,  avg # of iterations =  3.7

[...]

     total energy              =   -1413.12129538 Ry
     Harris-Foulkes estimate   =   -1413.12129544 Ry
     estimated scf accuracy    <       0.00000045 Ry

     iteration #  6     ecut=    36.75 Ry     beta=0.30
     Davidson diagonalization with overlap
     ethr =  3.27E-10,  avg # of iterations =  2.0

[...]

     negative rho (up, down):  2.665E-04 0.000E+00

     Adding external electric field

     Computed dipole along edir(3) :
        Dipole                0.1518 Ry au,          0.3857 Debye
        Dipole field          0.0004 Ry au

        Potential amp.       -0.0340 Ry
        Total length         45.8022 bohr

     End of self-consistent calculation

[...]

          k = 0.0560-0.0647 0.0000 ( 19376 PWs)   bands (ev):

[...]

          k =-0.0840-0.0485 0.0000 ( 19380 PWs)   bands (ev):

   -11.6999  -6.6178  -6.1930  -5.9208  -5.6400  -5.0981  -5.0154  -4.9324
    -4.8647  -4.8515  -4.8387  -4.6882  -4.6787  -4.5949  -4.4934  -4.4087
    -4.4071  -4.2983  -4.2412  -4.1823  -3.9827  -3.9784  -3.9575  -3.9234
    -3.9042  -3.7645  -3.7465  -3.7139  -3.6076  -3.5419  -3.5088  -3.3735
    -3.3611  -3.2980  -3.2762  -3.1780  -3.1165  -3.1026  -3.0766  -3.0611
    -3.0565  -3.0465  -2.8547  -2.8253  -2.7668  -2.7321  -2.6601  -2.6086
    -2.5839  -2.5805  -2.5313  -2.4932  -2.3613  -2.2436  -2.1813  -2.1232
    -2.0772  -1.9498  -1.8335  -1.7436  -1.6996  -1.6692  -1.6535  -1.4921
    -1.4218  -0.4201  -0.2639  -0.0275   0.3893   0.7441   1.0307   1.7382
     2.3098   2.8130   3.7257   4.0594   4.5786   4.8567

     the Fermi energy is     0.4708 ev

!    total energy              =   -1413.12129542 Ry
     Harris-Foulkes estimate   =   -1413.12129577 Ry
     estimated scf accuracy    <       0.00000003 Ry

     The total energy is the sum of the following terms:

     one-electron contribution =   -8160.66635174 Ry
     hartree contribution      =    4178.75680376 Ry
     xc contribution           =    -772.42954620 Ry
     ewald contribution        =    3341.24053458 Ry
     electric field correction =       0.00005626 Ry
     smearing contrib. (-TS)   =      -0.02279208 Ry

     convergence has been achieved in   6 iterations

 BEEF-vdW xc energy contributions
           1 :   -690.338911590721
           2 :    641.682823553302
           3 :   -554.675645258311
           4 :    446.180216364365
           5 :   -334.405672916211
           6 :    234.221999542025
           7 :   -154.342072550937
           8 :    96.8592884056650
           9 :   -58.8533407994159
          10 :    35.0510432474257
          11 :   -20.3347377505536
          12 :    11.1728470895843
          13 :   -5.74888716522184
          14 :    3.19481210690401
          15 :   -2.66638309046277
          16 :    2.86301971657338
          17 :   -2.21192971717937
          18 :  -0.504009170818335
          19 :    5.51751334837627
          20 :   -11.8702015781482
          21 :    17.7870516362784
          22 :   -21.4672227961330
          23 :    21.8874115281180
          24 :   -19.2237837855114
          25 :    14.7030846021746
          26 :   -9.99501218242995
          27 :    6.47288545010974
          28 :   -4.71159089340131
          29 :    4.43133067636097
          30 :   -4.85580164304315
          31 :   -54.7006729890427
          32 :   -39.8709165194521

     Forces acting on atoms (Ry/au):

     negative rho (up, down):  2.665E-04 0.000E+00
     atom    1 type  1   force =    -0.00110519   -0.00063809   -0.00610081
     atom    2 type  1   force =     0.00110523   -0.00063814   -0.00610132
     atom    3 type  1   force =    -0.00000000    0.00127621   -0.00610123
     atom    4 type  1   force =    -0.00000002   -0.00000002   -0.00742576
     atom    5 type  1   force =     0.00000083    0.00418847    0.00946311
     atom    6 type  1   force =    -0.00000083   -0.00000016    0.00054682
     atom    7 type  1   force =    -0.00362717   -0.00209441    0.00946380
     atom    8 type  1   force =     0.00362758   -0.00209379    0.00946292
     atom    9 type  1   force =    -0.00000048    0.00000018   -0.00163565
     atom   10 type  1   force =    -0.00000127    0.00042544   -0.00013006
     atom   11 type  1   force =     0.00036735   -0.00021420   -0.00013074
     atom   12 type  1   force =    -0.00036712   -0.00021228   -0.00012716
     atom   13 type  2   force =    -0.00000011    0.00000039   -0.00105507
     atom   14 type  3   force =     0.00000121    0.00000040   -0.00012883

     Total force =     0.002097     Total SCF correction =     0.000339
     SCF correction compared to forces is large: reduce conv_thr to get better values

     entering subroutine stress ...

     negative rho (up, down):  2.665E-04 0.000E+00
          total   stress  (Ry/bohr**3)                   (kbar)     P=   -7.47
  -0.00008482  -0.00000000   0.00000000        -12.48     -0.00      0.00
  -0.00000000  -0.00008482   0.00000000         -0.00    -12.48      0.00
   0.00000000   0.00000000   0.00001741          0.00      0.00      2.56

     bfgs converged in   8 scf cycles and   7 bfgs steps
     (criteria: energy <  1.0E+00, force <  1.9E-03)

     End of BFGS Geometry Optimization

     Final energy   =   -1413.1212954209 Ry
Begin final coordinates

ATOMIC_POSITIONS (crystal)
Au1      0.166666667   0.166666667   0.402269971    0   0   0
Au1      0.666666667   0.166666667   0.402269971    0   0   0
Au1      0.166666667   0.666666667   0.402269971    0   0   0
Au1      0.666666667   0.666666667   0.402269971    0   0   0
Au1      0.833333333   0.333333333   0.500000000    0   0   0
Au1      0.333333333   0.333333333   0.500000000    0   0   0
Au1      0.833333333   0.833333333   0.500000000    0   0   0
Au1      0.333333333   0.833333333   0.500000000    0   0   0
Au1      0.000000095   0.000000845   0.597568995
Au1      0.507596394  -0.015194158   0.604373572
Au1     -0.015195106   0.507598424   0.604374462
Au1      0.507594393   0.507595495   0.604371716
C1       0.333334026   0.333332579   0.645456802
H1       0.333335364   0.333332636   0.689391896
End final coordinates

     Writing output data file calc.save

     General routines

     Parallel routines

   This run was terminated on:  12:41:48  16Apr2018

   JOB DONE.
Job  /afs/slac/g/suncat/bin/suncat-tsmpirun -x LD_LIBRARY_PATH -wdir /scratch/qe119435_mSgsx pw.x -npool 4 -in pw.inp

TID   HOST_NAME   COMMAND_LINE            STATUS            TERMINATION_TIME
00000 suncat0023 pw.x -npool 4 -i  Done                     04/16/2018 12:41:48
00001 suncat0023 pw.x -npool 4 -i  Done                     04/16/2018 12:41:48
00002 suncat0023 pw.x -npool 4 -i  Done                     04/16/2018 12:41:48
00003 suncat0023 pw.x -npool 4 -i  Done                     04/16/2018 12:41:48
00004 suncat0023 pw.x -npool 4 -i  Done                     04/16/2018 12:41:48
00005 suncat0023 pw.x -npool 4 -i  Done                     04/16/2018 12:41:48
00006 suncat0023 pw.x -npool 4 -i  Done                     04/16/2018 12:41:48
00007 suncat0023 pw.x -npool 4 -i  Done                     04/16/2018 12:41:48
00008 suncat0199 pw.x -npool 4 -i  Done                     04/16/2018 12:41:48
00009 suncat0199 pw.x -npool 4 -i  Done                     04/16/2018 12:41:48
00010 suncat0199 pw.x -npool 4 -i  Done                     04/16/2018 12:41:48
00011 suncat0199 pw.x -npool 4 -i  Done                     04/16/2018 12:41:48
00012 suncat0199 pw.x -npool 4 -i  Done                     04/16/2018 12:41:48
00013 suncat0199 pw.x -npool 4 -i  Done                     04/16/2018 12:41:48
00014 suncat0199 pw.x -npool 4 -i  Done                     04/16/2018 12:41:48
00015 suncat0199 pw.x -npool 4 -i  Done                     04/16/2018 12:41:48
00016 suncat0282 pw.x -npool 4 -i  Done                     04/16/2018 12:41:48
00017 suncat0282 pw.x -npool 4 -i  Done                     04/16/2018 12:41:48
00018 suncat0282 pw.x -npool 4 -i  Done                     04/16/2018 12:41:48
00019 suncat0282 pw.x -npool 4 -i  Done                     04/16/2018 12:41:48
00020 suncat0282 pw.x -npool 4 -i  Done                     04/16/2018 12:41:48
00021 suncat0282 pw.x -npool 4 -i  Done                     04/16/2018 12:41:48
00022 suncat0282 pw.x -npool 4 -i  Done                     04/16/2018 12:41:48
00023 suncat0282 pw.x -npool 4 -i  Done                     04/16/2018 12:41:48
00024 suncat0267 pw.x -npool 4 -i  Done                     04/16/2018 12:41:48
00025 suncat0267 pw.x -npool 4 -i  Done                     04/16/2018 12:41:48
00026 suncat0267 pw.x -npool 4 -i  Done                     04/16/2018 12:41:48
00027 suncat0267 pw.x -npool 4 -i  Done                     04/16/2018 12:41:48
00028 suncat0267 pw.x -npool 4 -i  Done                     04/16/2018 12:41:48
00029 suncat0267 pw.x -npool 4 -i  Done                     04/16/2018 12:41:48
00030 suncat0267 pw.x -npool 4 -i  Done                     04/16/2018 12:41:48
00031 suncat0267 pw.x -npool 4 -i  Done                     04/16/2018 12:41:48