     Program PWSCF v.5.1rc2 (svn rev. 11289) starts on  3May2018 at  8:19: 7

     Current dimensions of program PWSCF are:
     Max number of different atomic species (ntypx) = 10
     Max number of k-points (npk) =  40000
     Max angular momentum in pseudopotentials (lmaxx) =  3
     Presently stress not available with electric field

     IMPORTANT: XC functional enforced from input :
     Exchange-correlation      = BEEF-VDW ( 1  4 27 13 2)
     Any further DFT definition will be discarded
     Please, verify this is what you really want

     Subspace diagonalization in iterative solution of the eigenvalue problem:
     a serial algorithm will be used

     bravais-lattice index     =            0
     lattice parameter (alat)  =       1.8897  a.u.
     unit-cell volume          =    4569.9960 (a.u.)^3
     number of atoms/cell      =           13
     number of atomic types    =            2
     number of electrons       =       197.00
     number of Kohn-Sham states=          108
     kinetic-energy cutoff     =      36.7493  Ry
     charge density cutoff     =     367.4932  Ry
     convergence threshold     =      1.0E-05
     mixing beta               =       0.3000
     number of iterations used =           10  plain     mixing
     Exchange-correlation      = BEEF-VDW ( 1  4 27 13 2)
     nstep                     =           50

     celldm(1)=   1.889726  celldm(2)=   0.000000  celldm(3)=   0.000000
     celldm(4)=   0.000000  celldm(5)=   0.000000  celldm(6)=   0.000000

     crystal axes: (cart. coord. in units of alat)
               a(1) = (   5.637663   0.000000   0.000000 )
               a(2) = (   2.818831   4.882359   0.000000 )
               a(3) = (   0.000000   0.000000  24.603132 )

     reciprocal axes: (cart. coord. in units 2 pi/alat)
               b(1) = (  0.177378 -0.102410  0.000000 )
               b(2) = (  0.000000  0.204819  0.000000 )
               b(3) = (  0.000000  0.000000  0.040645 )

     PseudoPot. # 1 for Pd read from file:
     /u/if/mamunm/psp/gbrv1.5pbe/Pd.UPF
     MD5 check sum: 2d733d2bc2cbfd217af676df1668a4bc
     Pseudo is Ultrasoft + core correction, Zval = 16.0
     Generated by new atomic code, or converted to UPF format
     Using radial grid of  887 points,  6 beta functions with:
                l(1) =   0
                l(2) =   0
                l(3) =   1
                l(4) =   1
                l(5) =   2
                l(6) =   2
     Q(r) pseudized with  8 coefficients,  rinner =    1.130   1.130   1.130
                                                       1.130   1.130

     PseudoPot. # 2 for N  read from file:
     /u/if/mamunm/psp/gbrv1.5pbe/N.UPF
     MD5 check sum: 95339753478d7afb44899504a8723017
     Pseudo is Ultrasoft + core correction, Zval =  5.0
     Generated by new atomic code, or converted to UPF format
     Using radial grid of  729 points,  4 beta functions with:
                l(1) =   0
                l(2) =   0
                l(3) =   1
                l(4) =   1
     Q(r) pseudized with  8 coefficients,  rinner =    0.900   0.900   0.900

     vdW kernel table read from file vdW_kernel_table
     MD5 check sum: 095c7af220d748ca6e76c0b4c6cfb241

     atomic species   valence    mass     pseudopotential
        Pd1           16.00   106.42000     Pd( 1.00)
        N1             5.00    14.00700     N ( 1.00)

     No symmetry found

   Cartesian axes

     site n.     atom                  positions (alat units)
         1           Pd1 tau(   1) = (   1.4094157   0.8137265  10.0000000  )
         2           Pd1 tau(   2) = (   4.2282471   0.8137265  10.0000000  )
         3           Pd1 tau(   3) = (   2.8188314   3.2549061  10.0000000  )
         4           Pd1 tau(   4) = (   5.6376627   3.2549061  10.0000000  )
         5           Pd1 tau(   5) = (   5.6376627   1.6274531  12.3015662  )
         6           Pd1 tau(   6) = (   2.8188314   1.6274531  12.3015662  )
         7           Pd1 tau(   7) = (   7.0470784   4.0686326  12.3015662  )
         8           Pd1 tau(   8) = (   4.2282471   4.0686326  12.3015662  )
         9           Pd1 tau(   9) = (   0.0000000   0.0000000  14.6031324  )
        10           Pd1 tau(  10) = (   2.8188314   0.0000000  14.6031324  )
        11           Pd1 tau(  11) = (   1.4094157   2.4411796  14.6031324  )
        12           Pd1 tau(  12) = (   4.2282471   2.4411796  14.6031324  )
        13           N1  tau(  13) = (   0.0000000   0.0000000  16.3881324  )

     number of k points=    20  Fermi-Dirac smearing, width (Ry)=  0.0110
                       cart. coord. in units 2pi/alat
        k(    1) = (   0.0000000   0.0000000   0.0000000), wk =   0.0555556
        k(    2) = (   0.0000000   0.0341365   0.0000000), wk =   0.1111111
        k(    3) = (   0.0000000   0.0682730   0.0000000), wk =   0.1111111
        k(    4) = (   0.0000000  -0.1024095   0.0000000), wk =   0.0555556
        k(    5) = (   0.0295631  -0.0170683   0.0000000), wk =   0.1111111
        k(    6) = (   0.0295631   0.0170683   0.0000000), wk =   0.1111111
        k(    7) = (   0.0295631   0.0512048   0.0000000), wk =   0.1111111
        k(    8) = (   0.0295631  -0.1194778   0.0000000), wk =   0.1111111
        k(    9) = (   0.0295631  -0.0853413   0.0000000), wk =   0.1111111
        k(   10) = (   0.0295631  -0.0512048   0.0000000), wk =   0.1111111
        k(   11) = (   0.0591262  -0.0341365   0.0000000), wk =   0.1111111
        k(   12) = (   0.0591262  -0.0000000   0.0000000), wk =   0.1111111
        k(   13) = (   0.0591262   0.0341365   0.0000000), wk =   0.1111111
        k(   14) = (   0.0591262  -0.1365460   0.0000000), wk =   0.1111111
        k(   15) = (   0.0591262  -0.1024095   0.0000000), wk =   0.1111111
        k(   16) = (   0.0591262  -0.0682730   0.0000000), wk =   0.1111111
        k(   17) = (  -0.0886892   0.0512048   0.0000000), wk =   0.0555556
        k(   18) = (  -0.0886892   0.0853413   0.0000000), wk =   0.1111111
        k(   19) = (  -0.0886892   0.1194778   0.0000000), wk =   0.1111111
        k(   20) = (  -0.0886892  -0.0512048   0.0000000), wk =   0.0555556

     Largest allocated arrays     est. size (Mb)     dimensions
     Largest temporary arrays     est. size (Mb)     dimensions

     Initial potential from superposition of free atoms
     Check: negative starting charge=   -0.904102

     starting charge  190.99991, renormalised to  197.00000

     negative rho (up, down):  9.325E-01 0.000E+00

     *
     * You are using vdW-DF for exchange-correlation in this calculation.
     * Please cite the following three references that made this development
     * possible:
     *
     *   M. Dion, H. Rydberg, E. Schroder, D. C. Langreth, and
     *   B. I. Lundqvist, Phys. Rev. Lett. 92, 246401 (2004).
     *
     *   T. Thonhauser, V. R. Cooper, S. Li, A. Puzder, P. Hyldgaard, and
     *   D. C. Langreth, Phys. Rev. B 76, 125112 (2007).
     *
     *   G. Roman-Perez and J. M. Soler, Phys. Rev. Lett. 103, 096102 (2009).
     *
     *
     * If you are using vdW-DF2, please also cite:
     *
     *   K. Lee, E. D. Murray, L. Kong, B. I. Lundqvist, and
     *   D. C. Langreth, Phys. Rev. B 82, 081101(R) (2010).
     *
     *
     * If you are calculating the stress with vdW-DF, please also cite:
     *
     *   R. Sabatini, E. Kucukbenli, B. Kolb, T. Thonhauser, and
     *   S. de Gironcoli, J. Phys.: Condens. Matter 24, 424209 (2012).
     *

     Carrying out vdW-DF run using the following parameters:

     Nqs =      20    Nr_points =    1024   r_max =   100.000
     q_mesh =
               0.00001000     0.04494208     0.09755937     0.15916263
               0.23128650     0.31572767     0.41458969     0.53033537
               0.66584808     0.82450364     1.01025438     1.22772762
               1.48234092     1.78043706     2.12944203     2.53805004
               3.01644009     3.57652955     4.23227104     5.00000000

     Gradients computed in reciprocal space

     Adding external electric field

     Computed dipole along edir(3) :
        Dipole               -1.2129 Ry au,         -3.0829 Debye
        Dipole field         -0.0033 Ry au

        Potential amp.        0.3024 Ry
        Total length         45.3309 bohr

     Starting wfc are  148 randomized atomic wfcs

     Self-consistent Calculation

     iteration #  1     ecut=    36.75 Ry     beta=0.30
     Davidson diagonalization with overlap
     ethr =  1.00E-02,  avg # of iterations =  4.1

[...]

     total energy              =   -2383.72382749 Ry
     Harris-Foulkes estimate   =   -2421.10386243 Ry
     estimated scf accuracy    <      79.03972707 Ry

[...]

     End of self-consistent calculation

          k = 0.0000 0.0000 0.0000 ( 17231 PWs)   bands (ev):

   -51.3538 -50.5049 -50.5048 -49.3397 -49.3017 -49.3016 -49.2335 -49.2087
   -49.2085 -49.1634 -49.1421 -49.1420 -49.1276 -49.0657 -49.0657 -49.0572
   -49.0446 -49.0445 -49.0237 -48.9495 -48.9493 -48.8935 -48.8729 -48.8728
   -48.8495 -48.8287 -48.8285 -48.8180 -48.8180 -48.7577 -48.7348 -48.7345
   -48.7338 -48.7240 -48.7238 -48.6698 -12.9263  -5.1523  -4.5752  -4.2576
    -4.2576  -3.9128  -3.9127  -3.8527  -3.8031  -3.7326  -3.6434  -3.6433
    -3.4993  -3.3753  -3.3753  -3.2842  -3.0990  -3.0990  -3.0201  -2.2926
    -2.1172  -2.1172  -1.9583  -1.8695  -1.8695  -1.8175  -1.8174  -1.7770
    -1.6414  -1.6414  -1.5296  -1.5296  -1.5074  -1.2542  -1.1891  -1.1890
    -0.8360  -0.8358  -0.5024  -0.5024  -0.4592  -0.4507  -0.4506  -0.3311
    -0.1264  -0.1263  -0.1067   0.2043   0.2043   0.2955   0.2957   0.3194
     0.4002   0.4003   0.4568   0.4570   0.5771   0.5786   0.5787   0.6275
     0.6276   0.7467   0.7876   0.8180   0.8181   0.8269   1.8382   2.8209
     3.1208   3.1208   3.2732   4.1682

[...]

          k =-0.0887 0.0512 0.0000 ( 17240 PWs)   bands (ev):

[...]

     the Fermi energy is     0.5899 ev

!    total energy              =   -2417.48762009 Ry
     Harris-Foulkes estimate   =   -2417.48762288 Ry
     estimated scf accuracy    <       0.00000144 Ry

     The total energy is the sum of the following terms:

     one-electron contribution =  -20521.39810698 Ry
     hartree contribution      =   10309.13797552 Ry
     xc contribution           =    -395.33073440 Ry
     ewald contribution        =    8190.22868240 Ry
     electric field correction =       0.00025912 Ry
     smearing contrib. (-TS)   =      -0.12569575 Ry

     convergence has been achieved in  19 iterations

 BEEF-vdW xc energy contributions
           1 :   -344.077590474815
           2 :    314.224372446652
           3 :   -263.396619622995
           4 :    205.341799853329
           5 :   -153.254335242805
           6 :    115.463112681290
           7 :   -93.6958824887906
           8 :    84.1447672740235
           9 :   -80.4340572530834
          10 :    76.9126135250430
          11 :   -70.8032580412830
          12 :    62.4851779287040
          13 :   -54.1996370264888
          14 :    48.1789095011356
          15 :   -45.2841482919718
          16 :    44.7306096857055
          17 :   -44.8026677056327
          18 :    43.9598596866002
          19 :   -41.6413533209524
          20 :    38.3674958242339
          21 :   -35.2110648624150
          22 :    33.0503009211192
          23 :   -32.0706258557528
          24 :    31.7587213919216
          25 :   -31.3154719860648
          26 :    30.1827748346538
          27 :   -28.3543138961720
          28 :    26.3050208290053
          29 :   -24.6289484434589
          30 :    23.6423985546592
          31 :   -33.6122916180780
          32 :   -24.7953034509691

     Forces acting on atoms (Ry/au):

     negative rho (up, down):  9.424E-01 0.000E+00
     atom    1 type  1   force =     0.00024139    0.00011883   -0.00073136
     atom    2 type  1   force =    -0.00024167    0.00011861   -0.00072287
     atom    3 type  1   force =    -0.00000299   -0.00025567   -0.00069053
     atom    4 type  1   force =     0.00000059    0.00001775   -0.00423669
     atom    5 type  1   force =    -0.00000081   -0.00239111    0.00241442
     atom    6 type  1   force =     0.00000288   -0.00001047   -0.00056687
     atom    7 type  1   force =     0.00206836    0.00119679    0.00240954
     atom    8 type  1   force =    -0.00206829    0.00119543    0.00241550
     atom    9 type  1   force =    -0.00000575   -0.00001343    0.02874069
     atom   10 type  1   force =     0.00000551   -0.00070452    0.00269883
     atom   11 type  1   force =    -0.00059451    0.00036731    0.00272825
     atom   12 type  1   force =     0.00059553    0.00035883    0.00272299
     atom   13 type  2   force =    -0.00000023    0.00000165   -0.03718191

     Total force =     0.047245     Total SCF correction =     0.001637

     entering subroutine stress ...

     negative rho (up, down):  9.424E-01 0.000E+00
          total   stress  (Ry/bohr**3)                   (kbar)     P=   -9.27
  -0.00007543  -0.00000000  -0.00000000        -11.10     -0.00     -0.00
  -0.00000000  -0.00007543  -0.00000000         -0.00    -11.10     -0.00
  -0.00000000  -0.00000000  -0.00003829         -0.00     -0.00     -5.63

     BFGS Geometry Optimization

     number of scf cycles    =   1
     number of bfgs steps    =   0

     energy   new            =   -2417.4876200884 Ry

     new trust radius        =       0.0371819064 bohr
     new conv_thr            =       0.0000099958 Ry

ATOMIC_POSITIONS (crystal)
Pd1      0.166666667   0.166666667   0.406452311    0   0   0
Pd1      0.666666667   0.166666667   0.406452311    0   0   0
Pd1      0.166666667   0.666666667   0.406452311    0   0   0
Pd1      0.666666667   0.666666667   0.406452311    0   0   0
Pd1      0.833333333   0.333333333   0.500000000    0   0   0
Pd1      0.333333333   0.333333333   0.500000000    0   0   0
Pd1      0.833333333   0.833333333   0.500000000    0   0   0
Pd1      0.333333333   0.833333333   0.500000000    0   0   0
Pd1      0.000000188  -0.000001456   0.594165859
Pd1      0.500038697  -0.000076360   0.593605737
Pd1     -0.000075709   0.500039811   0.593606370
Pd1      0.500036453   0.500038892   0.593606257
N1      -0.000000111   0.000000179   0.665299698

     Writing output data file calc.save
     Check: negative starting charge=   -0.904102
     NEW-OLD atomic charge density approx. for the potential
     Check: negative starting charge=   -0.903884

[...]

     Total force =     0.006841     Total SCF correction =     0.004600
     SCF correction compared to forces is large: reduce conv_thr to get better values

[...]

     energy   old            =   -2417.4876200884 Ry
     energy   new            =   -2417.4887831585 Ry

     CASE: energy  _new < energy  _old

[...]

     WARNING: bfgs curvature condition failed, Theta= 0.815
     new trust radius        =       0.0047627845 bohr
     new conv_thr            =       0.0000001000 Ry

[...]

     Threshold (ethr) on eigenvalues was too large:
     Diagonalizing with lowered threshold

     Davidson diagonalization with overlap
     ethr =  4.40E-08,  avg # of iterations =  1.0

[...]

     Total force =     0.005536     Total SCF correction =     0.000531

[...]

     number of scf cycles    =   8
     number of bfgs steps    =   7

     energy   old            =   -2417.4891793796 Ry
     energy   new            =   -2417.4893227793 Ry

     CASE: energy  _new < energy  _old

     new trust radius        =       0.0361673946 bohr
     new conv_thr            =       0.0000001000 Ry

ATOMIC_POSITIONS (crystal)
Pd1      0.166666667   0.166666667   0.406452311    0   0   0
Pd1      0.666666667   0.166666667   0.406452311    0   0   0
Pd1      0.166666667   0.666666667   0.406452311    0   0   0
Pd1      0.666666667   0.666666667   0.406452311    0   0   0
Pd1      0.833333333   0.333333333   0.500000000    0   0   0
Pd1      0.333333333   0.333333333   0.500000000    0   0   0
Pd1      0.833333333   0.833333333   0.500000000    0   0   0
Pd1      0.333333333   0.833333333   0.500000000    0   0   0
Pd1     -0.000004641   0.000018417   0.591958177
Pd1      0.500309375  -0.000632839   0.594517696
Pd1     -0.000645585   0.500293044   0.594517395
Pd1      0.500342890   0.500295251   0.594511352
N1       0.000002080  -0.000001848   0.663120985

     Writing output data file calc.save
     Check: negative starting charge=   -0.904435
     NEW-OLD atomic charge density approx. for the potential
     Check: negative starting charge=   -0.906689

[...]

     Self-consistent Calculation

[...]

     total energy              =   -2417.48944024 Ry
     Harris-Foulkes estimate   =   -2417.48944037 Ry
     estimated scf accuracy    <       0.00000082 Ry

     iteration # 11     ecut=    36.75 Ry     beta=0.30
     Davidson diagonalization with overlap
     ethr =  4.17E-10,  avg # of iterations =  1.2

[...]

     negative rho (up, down):  9.461E-01 0.000E+00

     Adding external electric field

     Computed dipole along edir(3) :
        Dipole               -0.2749 Ry au,         -0.6987 Debye
        Dipole field         -0.0008 Ry au

        Potential amp.        0.0685 Ry
        Total length         45.3309 bohr

     End of self-consistent calculation

[...]

          k = 0.0591-0.0683 0.0000 ( 17183 PWs)   bands (ev):

[...]

          k =-0.0887-0.0512 0.0000 ( 17240 PWs)   bands (ev):

   -51.5127 -50.5861 -50.5829 -49.2555 -49.2042 -49.1930 -49.1795 -49.1722
   -49.1603 -49.1531 -49.1405 -49.1003 -49.0906 -49.0795 -49.0343 -48.9720
   -48.9620 -48.9348 -48.9078 -48.8952 -48.8944 -48.8648 -48.8612 -48.8546
   -48.8431 -48.8397 -48.8172 -48.8014 -48.7782 -48.6958 -48.6908 -48.6841
   -48.6783 -48.6741 -48.6692 -48.6344 -13.1057  -4.4058  -4.2499  -4.1908
    -3.8340  -3.6294  -3.3512  -3.2239  -3.1630  -3.0780  -2.9425  -2.8985
    -2.8898  -2.8145  -2.7225  -2.6640  -2.6338  -2.5822  -2.4997  -2.4454
    -2.1476  -2.1023  -2.0995  -2.0749  -2.0310  -1.9123  -1.8829  -1.7405
    -1.5960  -1.4747  -1.4257  -1.3968  -1.3242  -1.3004  -1.2756  -1.2258
    -1.2090  -1.1605  -1.1541  -1.1301  -1.0937  -0.9995  -0.9262  -0.8020
    -0.7653  -0.7178  -0.6711  -0.6380  -0.5367  -0.5051  -0.4357  -0.4081
    -0.3491  -0.2958  -0.2393  -0.0909  -0.0198   0.0564   0.1678   0.3589
     0.3942   0.4432   0.4886   0.6314   0.6617   0.8400   1.3347   1.8432
     3.0098   3.1428   3.2403   3.6558

     the Fermi energy is     0.6289 ev

!    total energy              =   -2417.48944026 Ry
     Harris-Foulkes estimate   =   -2417.48943820 Ry
     estimated scf accuracy    <       0.00000009 Ry

     The total energy is the sum of the following terms:

     one-electron contribution =  -20521.26459861 Ry
     hartree contribution      =   10309.23464311 Ry
     xc contribution           =    -395.35663334 Ry
     ewald contribution        =    8190.02072288 Ry
     electric field correction =       0.00020780 Ry
     smearing contrib. (-TS)   =      -0.12378210 Ry

     convergence has been achieved in  11 iterations

 BEEF-vdW xc energy contributions
           1 :   -344.103299385477
           2 :    314.256180434193
           3 :   -263.434680701331
           4 :    205.382638964644
           5 :   -153.294534062660
           6 :    115.499257926637
           7 :   -93.7227679852442
           8 :    84.1560893023891
           9 :   -80.4261381308670
          10 :    76.8883532535294
          11 :   -70.7723717271954
          12 :    62.4601237443327
          13 :   -54.1896775512149
          14 :    48.1852277394651
          15 :   -45.2990508922134
          16 :    44.7416785280485
          17 :   -44.7996131170904
          18 :    43.9405116873965
          19 :   -41.6127492528079
          20 :    38.3416368605568
          21 :   -35.1983844440265
          22 :    33.0541311126627
          23 :   -32.0857737404843
          24 :    31.7750843186843
          25 :   -31.3241582182723
          26 :    30.1811158469683
          27 :   -28.3468611261090
          28 :    26.2995755695230
          29 :   -24.6304586971107
          30 :    23.6492478485516
          31 :   -33.6137438914899
          32 :   -24.7982343258607

     Forces acting on atoms (Ry/au):

     negative rho (up, down):  9.461E-01 0.000E+00
     atom    1 type  1   force =     0.00028926    0.00017391   -0.00087150
     atom    2 type  1   force =    -0.00028838    0.00017313   -0.00087003
     atom    3 type  1   force =    -0.00000177   -0.00034038   -0.00087602
     atom    4 type  1   force =     0.00000182   -0.00000234   -0.00395334
     atom    5 type  1   force =     0.00000843    0.00014538    0.00269377
     atom    6 type  1   force =    -0.00000927    0.00000769    0.00347725
     atom    7 type  1   force =    -0.00011935   -0.00008239    0.00270981
     atom    8 type  1   force =     0.00011879   -0.00007377    0.00269303
     atom    9 type  1   force =    -0.00001731   -0.00006282   -0.00130492
     atom   10 type  1   force =     0.00001503    0.00068823   -0.00085995
     atom   11 type  1   force =     0.00065477   -0.00030458   -0.00085449
     atom   12 type  1   force =    -0.00065140   -0.00031956   -0.00083296
     atom   13 type  2   force =    -0.00000062   -0.00000250   -0.00115065

     Total force =     0.002592     Total SCF correction =     0.001396
     SCF correction compared to forces is large: reduce conv_thr to get better values

     entering subroutine stress ...

     negative rho (up, down):  9.461E-01 0.000E+00
          total   stress  (Ry/bohr**3)                   (kbar)     P=   -8.40
  -0.00007736  -0.00000000  -0.00000000        -11.38     -0.00     -0.00
  -0.00000000  -0.00007736  -0.00000000         -0.00    -11.38     -0.00
  -0.00000000  -0.00000000  -0.00001662         -0.00     -0.00     -2.45

     bfgs converged in   9 scf cycles and   8 bfgs steps
     (criteria: energy <  1.0E+00, force <  1.9E-03)

     End of BFGS Geometry Optimization

     Final energy   =   -2417.4894402644 Ry
Begin final coordinates

ATOMIC_POSITIONS (crystal)
Pd1      0.166666667   0.166666667   0.406452311    0   0   0
Pd1      0.666666667   0.166666667   0.406452311    0   0   0
Pd1      0.166666667   0.666666667   0.406452311    0   0   0
Pd1      0.666666667   0.666666667   0.406452311    0   0   0
Pd1      0.833333333   0.333333333   0.500000000    0   0   0
Pd1      0.333333333   0.333333333   0.500000000    0   0   0
Pd1      0.833333333   0.833333333   0.500000000    0   0   0
Pd1      0.333333333   0.833333333   0.500000000    0   0   0
Pd1     -0.000004641   0.000018417   0.591958177
Pd1      0.500309375  -0.000632839   0.594517696
Pd1     -0.000645585   0.500293044   0.594517395
Pd1      0.500342890   0.500295251   0.594511352
N1       0.000002080  -0.000001848   0.663120985
End final coordinates

     Writing output data file calc.save

     General routines

     Parallel routines

   This run was terminated on:   9:11:19   3May2018

   JOB DONE.
Job  /afs/slac/g/suncat/bin/suncat-tsmpirun -x LD_LIBRARY_PATH -wdir /scratch/qe679767_WcZvM pw.x -npool 4 -in pw.inp

TID   HOST_NAME   COMMAND_LINE            STATUS            TERMINATION_TIME
00000 suncat0031 pw.x -npool 4 -i  Done                     05/03/2018 09:11:19
00001 suncat0031 pw.x -npool 4 -i  Done                     05/03/2018 09:11:19
00002 suncat0031 pw.x -npool 4 -i  Done                     05/03/2018 09:11:19
00003 suncat0031 pw.x -npool 4 -i  Done                     05/03/2018 09:11:19
00004 suncat0031 pw.x -npool 4 -i  Done                     05/03/2018 09:11:19
00005 suncat0031 pw.x -npool 4 -i  Done                     05/03/2018 09:11:19
00006 suncat0031 pw.x -npool 4 -i  Done                     05/03/2018 09:11:19
00007 suncat0031 pw.x -npool 4 -i  Done                     05/03/2018 09:11:19
00008 suncat0023 pw.x -npool 4 -i  Done                     05/03/2018 09:11:19
00009 suncat0023 pw.x -npool 4 -i  Done                     05/03/2018 09:11:19
00010 suncat0023 pw.x -npool 4 -i  Done                     05/03/2018 09:11:19
00011 suncat0023 pw.x -npool 4 -i  Done                     05/03/2018 09:11:19
00012 suncat0023 pw.x -npool 4 -i  Done                     05/03/2018 09:11:19
00013 suncat0023 pw.x -npool 4 -i  Done                     05/03/2018 09:11:19
00014 suncat0023 pw.x -npool 4 -i  Done                     05/03/2018 09:11:19
00015 suncat0023 pw.x -npool 4 -i  Done                     05/03/2018 09:11:19
00016 suncat0123 pw.x -npool 4 -i  Done                     05/03/2018 09:11:19
00017 suncat0123 pw.x -npool 4 -i  Done                     05/03/2018 09:11:19
00018 suncat0123 pw.x -npool 4 -i  Done                     05/03/2018 09:11:19
00019 suncat0123 pw.x -npool 4 -i  Done                     05/03/2018 09:11:19
00020 suncat0123 pw.x -npool 4 -i  Done                     05/03/2018 09:11:19
00021 suncat0123 pw.x -npool 4 -i  Done                     05/03/2018 09:11:19
00022 suncat0123 pw.x -npool 4 -i  Done                     05/03/2018 09:11:19
00023 suncat0123 pw.x -npool 4 -i  Done                     05/03/2018 09:11:19
00024 suncat0121 pw.x -npool 4 -i  Done                     05/03/2018 09:11:19
00025 suncat0121 pw.x -npool 4 -i  Done                     05/03/2018 09:11:19
00026 suncat0121 pw.x -npool 4 -i  Done                     05/03/2018 09:11:19
00027 suncat0121 pw.x -npool 4 -i  Done                     05/03/2018 09:11:19
00028 suncat0121 pw.x -npool 4 -i  Done                     05/03/2018 09:11:19
00029 suncat0121 pw.x -npool 4 -i  Done                     05/03/2018 09:11:19
00030 suncat0121 pw.x -npool 4 -i  Done                     05/03/2018 09:11:19
00031 suncat0121 pw.x -npool 4 -i  Done                     05/03/2018 09:11:19