     Program PWSCF v.5.1rc2 (svn rev. 11289) starts on  3May2018 at 12:45:51

     Current dimensions of program PWSCF are:
     Max number of different atomic species (ntypx) = 10
     Max number of k-points (npk) =  40000
     Max angular momentum in pseudopotentials (lmaxx) =  3
     Presently stress not available with electric field

     IMPORTANT: XC functional enforced from input :
     Exchange-correlation      = BEEF-VDW ( 1  4 27 13 2)
     Any further DFT definition will be discarded
     Please, verify this is what you really want

     Subspace diagonalization in iterative solution of the eigenvalue problem:
     a serial algorithm will be used

     bravais-lattice index     =            0
     lattice parameter (alat)  =       1.8897  a.u.
     unit-cell volume          =    6024.3322 (a.u.)^3
     number of atoms/cell      =           13
     number of atomic types    =            2
     number of electrons       =       145.00
     number of Kohn-Sham states=           82
     kinetic-energy cutoff     =      36.7493  Ry
     charge density cutoff     =     367.4932  Ry
     convergence threshold     =      1.0E-05
     mixing beta               =       0.3000
     number of iterations used =           10  plain     mixing
     Exchange-correlation      = BEEF-VDW ( 1  4 27 13 2)
     nstep                     =           50

     celldm(1)=   1.889726  celldm(2)=   0.000000  celldm(3)=   0.000000
     celldm(4)=   0.000000  celldm(5)=   0.000000  celldm(6)=   0.000000

     crystal axes: (cart. coord. in units of alat)
               a(1) = (   6.393197   0.000000   0.000000 )
               a(2) = (   3.196599   5.536671   0.000000 )
               a(3) = (   0.000000   0.000000  25.220024 )

     reciprocal axes: (cart. coord. in units 2 pi/alat)
               b(1) = (  0.156416 -0.090307  0.000000 )
               b(2) = (  0.000000  0.180614  0.000000 )
               b(3) = (  0.000000  0.000000  0.039651 )

     PseudoPot. # 1 for Hf read from file:
     /u/if/mamunm/psp/gbrv1.5pbe/Hf.UPF
     MD5 check sum: 8ee9378dfe14276e333edf04c5e4aa26
     Pseudo is Ultrasoft + core correction, Zval = 12.0
     Generated by new atomic code, or converted to UPF format
     Using radial grid of  921 points,  8 beta functions with:
                l(1) =   0
                l(2) =   0
                l(3) =   0
                l(4) =   1
                l(5) =   1
                l(6) =   2
                l(7) =   2
                l(8) =   3
     Q(r) pseudized with  6 coefficients,  rinner =    1.200   1.200   1.200
                                                       1.200   1.200   1.200
                                                       1.200

     PseudoPot. # 2 for H  read from file:
     /u/if/mamunm/psp/gbrv1.5pbe/H.UPF
     MD5 check sum: 761ae9a214b05c3daf00ab9f6b793d6f
     Pseudo is Ultrasoft, Zval =  1.0
     Generated by new atomic code, or converted to UPF format
     Using radial grid of  615 points,  2 beta functions with:
                l(1) =   0
                l(2) =   0
     Q(r) pseudized with  8 coefficients,  rinner =    0.700

     vdW kernel table read from file vdW_kernel_table
     MD5 check sum: 095c7af220d748ca6e76c0b4c6cfb241

     atomic species   valence    mass     pseudopotential
        Hf1           12.00   178.49000     Hf( 1.00)
        H1             1.00     1.00800     H ( 1.00)

     No symmetry found

   Cartesian axes

     site n.     atom                  positions (alat units)
         1           Hf1 tau(   1) = (   1.5982993   0.9227785  10.0000000  )
         2           Hf1 tau(   2) = (   4.7948978   0.9227785  10.0000000  )
         3           Hf1 tau(   3) = (   3.1965986   3.6911141  10.0000000  )
         4           Hf1 tau(   4) = (   6.3931971   3.6911141  10.0000000  )
         5           Hf1 tau(   5) = (   6.3931971   1.8455570  12.6100118  )
         6           Hf1 tau(   6) = (   3.1965986   1.8455570  12.6100118  )
         7           Hf1 tau(   7) = (   7.9914964   4.6138926  12.6100118  )
         8           Hf1 tau(   8) = (   4.7948978   4.6138926  12.6100118  )
         9           Hf1 tau(   9) = (   0.0000000   0.0000000  15.2200236  )
        10           Hf1 tau(  10) = (   3.1965986   0.0000000  15.2200236  )
        11           Hf1 tau(  11) = (   1.5982993   2.7683356  15.2200236  )
        12           Hf1 tau(  12) = (   4.7948978   2.7683356  15.2200236  )
        13           H1  tau(  13) = (   0.0000000   0.0000000  16.9710236  )

     number of k points=    20  Fermi-Dirac smearing, width (Ry)=  0.0110
                       cart. coord. in units 2pi/alat
        k(    1) = (   0.0000000   0.0000000   0.0000000), wk =   0.0555556
        k(    2) = (   0.0000000   0.0301023   0.0000000), wk =   0.1111111
        k(    3) = (   0.0000000   0.0602046   0.0000000), wk =   0.1111111
        k(    4) = (   0.0000000  -0.0903070   0.0000000), wk =   0.0555556
        k(    5) = (   0.0260694  -0.0150512   0.0000000), wk =   0.1111111
        k(    6) = (   0.0260694   0.0150512   0.0000000), wk =   0.1111111
        k(    7) = (   0.0260694   0.0451535   0.0000000), wk =   0.1111111
        k(    8) = (   0.0260694  -0.1053581   0.0000000), wk =   0.1111111
        k(    9) = (   0.0260694  -0.0752558   0.0000000), wk =   0.1111111
        k(   10) = (   0.0260694  -0.0451535   0.0000000), wk =   0.1111111
        k(   11) = (   0.0521388  -0.0301023   0.0000000), wk =   0.1111111
        k(   12) = (   0.0521388   0.0000000   0.0000000), wk =   0.1111111
        k(   13) = (   0.0521388   0.0301023   0.0000000), wk =   0.1111111
        k(   14) = (   0.0521388  -0.1204093   0.0000000), wk =   0.1111111
        k(   15) = (   0.0521388  -0.0903070   0.0000000), wk =   0.1111111
        k(   16) = (   0.0521388  -0.0602046   0.0000000), wk =   0.1111111
        k(   17) = (  -0.0782081   0.0451535   0.0000000), wk =   0.0555556
        k(   18) = (  -0.0782081   0.0752558   0.0000000), wk =   0.1111111
        k(   19) = (  -0.0782081   0.1053581   0.0000000), wk =   0.1111111
        k(   20) = (  -0.0782081  -0.0451535   0.0000000), wk =   0.0555556

     Largest allocated arrays     est. size (Mb)     dimensions
     Largest temporary arrays     est. size (Mb)     dimensions

     Check: negative/imaginary core charge=   -0.000003    0.000000

     Initial potential from superposition of free atoms
     Check: negative starting charge=   -1.301285

     starting charge  120.99997, renormalised to  145.00000

     negative rho (up, down):  1.559E+00 0.000E+00

     *
     * You are using vdW-DF for exchange-correlation in this calculation.
     * Please cite the following three references that made this development
     * possible:
     *
     *   M. Dion, H. Rydberg, E. Schroder, D. C. Langreth, and
     *   B. I. Lundqvist, Phys. Rev. Lett. 92, 246401 (2004).
     *
     *   T. Thonhauser, V. R. Cooper, S. Li, A. Puzder, P. Hyldgaard, and
     *   D. C. Langreth, Phys. Rev. B 76, 125112 (2007).
     *
     *   G. Roman-Perez and J. M. Soler, Phys. Rev. Lett. 103, 096102 (2009).
     *
     *
     * If you are using vdW-DF2, please also cite:
     *
     *   K. Lee, E. D. Murray, L. Kong, B. I. Lundqvist, and
     *   D. C. Langreth, Phys. Rev. B 82, 081101(R) (2010).
     *
     *
     * If you are calculating the stress with vdW-DF, please also cite:
     *
     *   R. Sabatini, E. Kucukbenli, B. Kolb, T. Thonhauser, and
     *   S. de Gironcoli, J. Phys.: Condens. Matter 24, 424209 (2012).
     *

     Carrying out vdW-DF run using the following parameters:

     Nqs =      20    Nr_points =    1024   r_max =   100.000
     q_mesh =
               0.00001000     0.04494208     0.09755937     0.15916263
               0.23128650     0.31572767     0.41458969     0.53033537
               0.66584808     0.82450364     1.01025438     1.22772762
               1.48234092     1.78043706     2.12944203     2.53805004
               3.01644009     3.57652955     4.23227104     5.00000000

     Gradients computed in reciprocal space

     Adding external electric field

     Computed dipole along edir(3) :
        Dipole               -1.6345 Ry au,         -4.1545 Debye
        Dipole field         -0.0034 Ry au

        Potential amp.        0.3169 Ry
        Total length         46.4675 bohr

     Starting wfc are  157 randomized atomic wfcs

     Self-consistent Calculation

     iteration #  1     ecut=    36.75 Ry     beta=0.30
     Davidson diagonalization with overlap
     ethr =  1.00E-02,  avg # of iterations =  7.5

[...]

     total energy              =   -1782.17031571 Ry
     Harris-Foulkes estimate   =   -1938.74017663 Ry
     estimated scf accuracy    <     335.57918811 Ry

[...]

     iteration # 27     ecut=    36.75 Ry     beta=0.30
     Davidson diagonalization with overlap
     c_bands:  1 eigenvalues not converged
     ethr =  7.98E-07,  avg # of iterations =  8.6

[...]

     End of self-consistent calculation

          k = 0.0000 0.0000 0.0000 ( 22729 PWs)   bands (ev):

   -61.4792 -61.4535 -61.4528 -61.4204 -61.3905 -61.3812 -61.3812 -61.0393
   -61.0095 -61.0092 -60.9852 -60.9095 -30.2059 -30.1779 -30.1778 -30.1597
   -30.1457 -30.1453 -30.1453 -30.0666 -30.0661 -30.0423 -29.9878 -29.9509
   -29.9507 -29.8374 -29.7873 -29.7586 -29.7586 -29.7559 -29.7324 -29.7319
   -29.7240 -29.7238 -29.6292 -29.6292 -29.5410 -29.5031 -29.5029 -29.4605
   -29.4344 -29.4343 -29.3893 -29.3887 -29.3886 -29.3104 -29.2717 -29.2717
    -5.3380  -4.0697  -2.7462  -2.1215  -1.8320  -1.8320  -1.6409  -1.5618
    -1.5618  -1.3863  -1.1575  -1.1575  -0.8688  -0.4985  -0.4985  -0.4374
     0.2408   0.2767   0.2768   1.2077   1.4432   1.5450   1.5861   1.5862
     1.6204   1.6850   1.6850   1.9928   2.2648   2.3090   2.3092   2.3718
     2.4792   2.5927

[...]

          k =-0.0782 0.0452 0.0000 ( 22668 PWs)   bands (ev):

[...]

     the Fermi energy is     1.2166 ev

!    total energy              =   -1927.76688386 Ry
     Harris-Foulkes estimate   =   -1927.76688530 Ry
     estimated scf accuracy    <       0.00000147 Ry

     The total energy is the sum of the following terms:

     one-electron contribution =   -8328.90298727 Ry
     hartree contribution      =    4146.71870940 Ry
     xc contribution           =    -928.45310543 Ry
     ewald contribution        =    3182.98840773 Ry
     electric field correction =       0.00002861 Ry
     smearing contrib. (-TS)   =      -0.11793690 Ry

     convergence has been achieved in  31 iterations

 BEEF-vdW xc energy contributions
           1 :   -839.667905159998
           2 :    780.463831247708
           3 :   -675.503194150587
           4 :    546.449516559748
           5 :   -415.775979306188
           6 :    300.430286244035
           7 :   -209.028623283491
           8 :    142.741881180149
           9 :   -98.3343824093392
          10 :    71.1501968814996
          11 :   -56.6911931100475
          12 :    50.7140151070428
          13 :   -48.8129516680826
          14 :    46.4793799402506
          15 :   -39.9993513884874
          16 :    27.6892667616863
          17 :   -10.6208221294102
          18 :   -7.78302718002249
          19 :    23.1963555629934
          20 :   -32.1965038762605
          21 :    33.5340594446602
          22 :   -28.3348168951470
          23 :    19.3065330074880
          24 :   -9.53544743915404
          25 :    1.52126876825798
          26 :    3.20625882216177
          27 :   -4.00391534369169
          28 :   0.913603809614187
          29 :    5.38552774076038
          30 :   -13.4999435289269
          31 :   -60.2516877234393
          32 :   -43.3092339251584

     Forces acting on atoms (Ry/au):

     negative rho (up, down):  1.378E+00 0.000E+00
     atom    1 type  1   force =    -0.00117609   -0.00062519    0.02476144
     atom    2 type  1   force =     0.00117188   -0.00066078    0.02478089
     atom    3 type  1   force =    -0.00002635    0.00132223    0.02476543
     atom    4 type  1   force =     0.00002675   -0.00003396    0.02732789
     atom    5 type  1   force =     0.00003787    0.01208473   -0.01107097
     atom    6 type  1   force =    -0.00004150    0.00003309   -0.00107724
     atom    7 type  1   force =    -0.01043307   -0.00607917   -0.01109711
     atom    8 type  1   force =     0.01043476   -0.00603133   -0.01113093
     atom    9 type  1   force =    -0.00001701    0.00000157   -0.06021357
     atom   10 type  1   force =     0.00001917    0.00264392   -0.02322198
     atom   11 type  1   force =     0.00227264   -0.00131622   -0.02328720
     atom   12 type  1   force =    -0.00226851   -0.00134168   -0.02323329
     atom   13 type  2   force =    -0.00000054    0.00000279    0.06269665

     Total force =     0.095910     Total SCF correction =     0.000501

     entering subroutine stress ...

     negative rho (up, down):  1.378E+00 0.000E+00
          total   stress  (Ry/bohr**3)                   (kbar)     P=  -21.81
  -0.00015771   0.00000000  -0.00000000        -23.20      0.00     -0.00
   0.00000000  -0.00015770   0.00000000          0.00    -23.20      0.00
  -0.00000000   0.00000000  -0.00012932         -0.00      0.00    -19.02

     BFGS Geometry Optimization

     number of scf cycles    =   1
     number of bfgs steps    =   0

     energy   new            =   -1927.7668838582 Ry

     new trust radius        =       0.0626966462 bohr
     new conv_thr            =       0.0000099958 Ry

ATOMIC_POSITIONS (crystal)
Hf1      0.166666667   0.166666667   0.396510335    0   0   0
Hf1      0.666666667   0.166666667   0.396510335    0   0   0
Hf1      0.166666667   0.666666667   0.396510335    0   0   0
Hf1      0.666666667   0.666666667   0.396510335    0   0   0
Hf1      0.833333333   0.333333333   0.500000000    0   0   0
Hf1      0.333333333   0.333333333   0.500000000    0   0   0
Hf1      0.833333333   0.833333333   0.500000000    0   0   0
Hf1      0.333333333   0.833333333   0.500000000    0   0   0
Hf1     -0.000001484   0.000000150   0.602226239
Hf1      0.499875238   0.000252697   0.603002412
Hf1      0.000251011   0.499874200   0.603001043
Hf1      0.499876348   0.499871767   0.603002174
H1      -0.000000178   0.000000266   0.674234152

     Writing output data file calc.save
     Check: negative starting charge=   -1.301285
     NEW-OLD atomic charge density approx. for the potential

     Check: negative/imaginary core charge=   -0.000003    0.000000
     Check: negative starting charge=   -1.300946

[...]

     energy   old            =   -1927.7668838582 Ry
     energy   new            =   -1927.7741545455 Ry

     CASE: energy  _new < energy  _old

[...]

     iteration #  1     ecut=    36.75 Ry     beta=0.30
     Davidson diagonalization with overlap
     c_bands:  1 eigenvalues not converged
     c_bands:  1 eigenvalues not converged
     ethr =  1.00E-06,  avg # of iterations = 16.6

[...]

     Total force =     0.005507     Total SCF correction =     0.000032

[...]

     number of scf cycles    =   8
     number of bfgs steps    =   7

     energy   old            =   -1927.7869311348 Ry
     energy   new            =   -1927.7875373383 Ry

     CASE: energy  _new < energy  _old

     new trust radius        =       0.0112890364 bohr
     new conv_thr            =       0.0000001000 Ry

ATOMIC_POSITIONS (crystal)
Hf1      0.166666667   0.166666667   0.396510335    0   0   0
Hf1      0.666666667   0.166666667   0.396510335    0   0   0
Hf1      0.166666667   0.666666667   0.396510335    0   0   0
Hf1      0.666666667   0.666666667   0.396510335    0   0   0
Hf1      0.833333333   0.333333333   0.500000000    0   0   0
Hf1      0.333333333   0.333333333   0.500000000    0   0   0
Hf1      0.833333333   0.833333333   0.500000000    0   0   0
Hf1      0.333333333   0.833333333   0.500000000    0   0   0
Hf1     -0.000000253  -0.000000087   0.601600765
Hf1      0.498446989   0.003109214   0.596682477
Hf1      0.003108914   0.498444791   0.596681372
Hf1      0.498448375   0.498443092   0.596682595
H1      -0.000001339   0.000000928   0.676890214

     Writing output data file calc.save
     Check: negative starting charge=   -1.301872
     NEW-OLD atomic charge density approx. for the potential

     Check: negative/imaginary core charge=   -0.000003    0.000000
     Check: negative starting charge=   -1.302367

[...]

     Self-consistent Calculation

[...]

     total energy              =   -1927.78759661 Ry
     Harris-Foulkes estimate   =   -1927.78759659 Ry
     estimated scf accuracy    <       0.00000011 Ry

     iteration # 17     ecut=    36.75 Ry     beta=0.30
     Davidson diagonalization with overlap
     ethr =  7.30E-11,  avg # of iterations =  1.0

[...]

     negative rho (up, down):  1.378E+00 0.000E+00

     Adding external electric field

     Computed dipole along edir(3) :
        Dipole               -0.2025 Ry au,         -0.5148 Debye
        Dipole field         -0.0004 Ry au

        Potential amp.        0.0393 Ry
        Total length         46.4675 bohr

     End of self-consistent calculation

[...]

          k = 0.0521-0.0602 0.0000 ( 22643 PWs)   bands (ev):

[...]

          k =-0.0782-0.0452 0.0000 ( 22668 PWs)   bands (ev):

   -61.4873 -61.4807 -61.4673 -61.4635 -61.4315 -61.4224 -61.4135 -61.1453
   -61.0188 -61.0115 -61.0024 -60.9316 -30.1580 -30.1558 -30.1376 -30.1213
   -30.1178 -30.0801 -30.0739 -30.0652 -30.0579 -30.0401 -30.0302 -29.9888
   -29.9816 -29.9680 -29.9440 -29.9418 -29.9284 -29.9167 -29.7765 -29.7715
   -29.7710 -29.7421 -29.7295 -29.6380 -29.6152 -29.5989 -29.5257 -29.5173
   -29.5030 -29.4678 -29.4648 -29.4368 -29.4136 -29.3966 -29.3491 -29.2994
    -3.8857  -3.8448  -2.7198  -2.5911  -1.7088  -1.5884  -1.4260  -1.2634
    -1.1294  -0.9823  -0.7610  -0.0894  -0.0647   0.0431   0.0813   0.2135
     0.2598   0.4170   0.4185   0.5793   0.6315   0.6416   0.7888   0.8561
     0.9023   0.9670   1.0701   1.0914   1.1434   1.2816   1.4035   1.4845
     1.6137   1.9439

     the Fermi energy is     1.1270 ev

!    total energy              =   -1927.78759658 Ry
     Harris-Foulkes estimate   =   -1927.78759737 Ry
     estimated scf accuracy    <       0.00000004 Ry

     The total energy is the sum of the following terms:

     one-electron contribution =   -8490.52284336 Ry
     hartree contribution      =    4227.41550912 Ry
     xc contribution           =    -928.64809372 Ry
     ewald contribution        =    3264.08374601 Ry
     electric field correction =       0.00008558 Ry
     smearing contrib. (-TS)   =      -0.11600021 Ry

     convergence has been achieved in  17 iterations

 BEEF-vdW xc energy contributions
           1 :   -839.864280937051
           2 :    780.723771361229
           3 :   -675.821011539838
           4 :    546.738070449722
           5 :   -415.925604629291
           6 :    300.395221723974
           7 :   -208.867541394224
           8 :    142.580535623661
           9 :   -98.2809412648938
          10 :    71.2272648937696
          11 :   -56.8283413154934
          12 :    50.8021727278890
          13 :   -48.7812033902444
          14 :    46.3426879969104
          15 :   -39.8457507767499
          16 :    27.6161667207352
          17 :   -10.6631142273352
          18 :   -7.68182039491899
          19 :    23.1457864446322
          20 :   -32.2766337251429
          21 :    33.7299981613323
          22 :   -28.5403622323827
          23 :    19.3979301228097
          24 :   -9.46169244609450
          25 :    1.34207362782877
          26 :    3.36405102810863
          27 :   -4.03888629877247
          28 :   0.821079265350136
          29 :    5.51680618177693
          30 :   -13.5613185631255
          31 :   -60.2662910669169
          32 :   -43.3330841675587

     Forces acting on atoms (Ry/au):

     negative rho (up, down):  1.378E+00 0.000E+00
     atom    1 type  1   force =    -0.00142300   -0.00082156    0.02017249
     atom    2 type  1   force =     0.00142295   -0.00082059    0.02017035
     atom    3 type  1   force =     0.00000083    0.00164262    0.02017083
     atom    4 type  1   force =    -0.00000078   -0.00000052    0.02426010
     atom    5 type  1   force =    -0.00000054    0.00577339   -0.02111033
     atom    6 type  1   force =     0.00000093   -0.00000061   -0.02317265
     atom    7 type  1   force =    -0.00500096   -0.00288627   -0.02110934
     atom    8 type  1   force =     0.00500143   -0.00288735   -0.02110651
     atom    9 type  1   force =     0.00000078    0.00000041    0.00021152
     atom   10 type  1   force =    -0.00000120    0.00103605    0.00010893
     atom   11 type  1   force =     0.00089803   -0.00051862    0.00011458
     atom   12 type  1   force =    -0.00089842   -0.00051701    0.00010687
     atom   13 type  2   force =    -0.00000006    0.00000006    0.00118316

     Total force =     0.002169     Total SCF correction =     0.000789
     SCF correction compared to forces is large: reduce conv_thr to get better values

     entering subroutine stress ...

     negative rho (up, down):  1.378E+00 0.000E+00
          total   stress  (Ry/bohr**3)                   (kbar)     P=  -17.37
  -0.00013177  -0.00000000  -0.00000000        -19.38     -0.00     -0.00
  -0.00000000  -0.00013177   0.00000000         -0.00    -19.38      0.00
  -0.00000000   0.00000000  -0.00009074         -0.00      0.00    -13.35

     bfgs converged in   9 scf cycles and   8 bfgs steps
     (criteria: energy <  1.0E+00, force <  1.9E-03)

     End of BFGS Geometry Optimization

     Final energy   =   -1927.7875965787 Ry
Begin final coordinates

ATOMIC_POSITIONS (crystal)
Hf1      0.166666667   0.166666667   0.396510335    0   0   0
Hf1      0.666666667   0.166666667   0.396510335    0   0   0
Hf1      0.166666667   0.666666667   0.396510335    0   0   0
Hf1      0.666666667   0.666666667   0.396510335    0   0   0
Hf1      0.833333333   0.333333333   0.500000000    0   0   0
Hf1      0.333333333   0.333333333   0.500000000    0   0   0
Hf1      0.833333333   0.833333333   0.500000000    0   0   0
Hf1      0.333333333   0.833333333   0.500000000    0   0   0
Hf1     -0.000000253  -0.000000087   0.601600765
Hf1      0.498446989   0.003109214   0.596682477
Hf1      0.003108914   0.498444791   0.596681372
Hf1      0.498448375   0.498443092   0.596682595
H1      -0.000001339   0.000000928   0.676890214
End final coordinates

     Writing output data file calc.save

     General routines

     Parallel routines

   This run was terminated on:  15:10:54   3May2018

   JOB DONE.
Job  /afs/slac/g/suncat/bin/suncat-tsmpirun -x LD_LIBRARY_PATH -wdir /scratch/qe767114_1c8cL pw.x -npool 4 -in pw.inp

TID   HOST_NAME   COMMAND_LINE            STATUS            TERMINATION_TIME
00000 suncat0040 pw.x -npool 4 -i  Done                     05/03/2018 15:10:54
00001 suncat0040 pw.x -npool 4 -i  Done                     05/03/2018 15:10:54
00002 suncat0040 pw.x -npool 4 -i  Done                     05/03/2018 15:10:54
00003 suncat0040 pw.x -npool 4 -i  Done                     05/03/2018 15:10:54
00004 suncat0040 pw.x -npool 4 -i  Done                     05/03/2018 15:10:54
00005 suncat0040 pw.x -npool 4 -i  Done                     05/03/2018 15:10:54
00006 suncat0040 pw.x -npool 4 -i  Done                     05/03/2018 15:10:54
00007 suncat0040 pw.x -npool 4 -i  Done                     05/03/2018 15:10:54
00008 suncat0037 pw.x -npool 4 -i  Done                     05/03/2018 15:10:54
00009 suncat0037 pw.x -npool 4 -i  Done                     05/03/2018 15:10:54
00010 suncat0037 pw.x -npool 4 -i  Done                     05/03/2018 15:10:54
00011 suncat0037 pw.x -npool 4 -i  Done                     05/03/2018 15:10:54
00012 suncat0037 pw.x -npool 4 -i  Done                     05/03/2018 15:10:54
00013 suncat0037 pw.x -npool 4 -i  Done                     05/03/2018 15:10:54
00014 suncat0037 pw.x -npool 4 -i  Done                     05/03/2018 15:10:54
00015 suncat0037 pw.x -npool 4 -i  Done                     05/03/2018 15:10:54
00016 suncat0025 pw.x -npool 4 -i  Done                     05/03/2018 15:10:54
00017 suncat0025 pw.x -npool 4 -i  Done                     05/03/2018 15:10:54
00018 suncat0025 pw.x -npool 4 -i  Done                     05/03/2018 15:10:54
00019 suncat0025 pw.x -npool 4 -i  Done                     05/03/2018 15:10:54
00020 suncat0025 pw.x -npool 4 -i  Done                     05/03/2018 15:10:54
00021 suncat0025 pw.x -npool 4 -i  Done                     05/03/2018 15:10:54
00022 suncat0025 pw.x -npool 4 -i  Done                     05/03/2018 15:10:54
00023 suncat0025 pw.x -npool 4 -i  Done                     05/03/2018 15:10:54
00024 suncat0199 pw.x -npool 4 -i  Done                     05/03/2018 15:10:54
00025 suncat0199 pw.x -npool 4 -i  Done                     05/03/2018 15:10:54
00026 suncat0199 pw.x -npool 4 -i  Done                     05/03/2018 15:10:54
00027 suncat0199 pw.x -npool 4 -i  Done                     05/03/2018 15:10:54
00028 suncat0199 pw.x -npool 4 -i  Done                     05/03/2018 15:10:54
00029 suncat0199 pw.x -npool 4 -i  Done                     05/03/2018 15:10:54
00030 suncat0199 pw.x -npool 4 -i  Done                     05/03/2018 15:10:54
00031 suncat0199 pw.x -npool 4 -i  Done                     05/03/2018 15:10:54