     Program PWSCF v.5.1rc2 (svn rev. 11289) starts on 18Apr2018 at  8:11: 7

     Current dimensions of program PWSCF are:
     Max number of different atomic species (ntypx) = 10
     Max number of k-points (npk) =  40000
     Max angular momentum in pseudopotentials (lmaxx) =  3
     Presently stress not available with electric field

     IMPORTANT: XC functional enforced from input :
     Exchange-correlation      = BEEF-VDW ( 1  4 27 13 2)
     Any further DFT definition will be discarded
     Please, verify this is what you really want

     Subspace diagonalization in iterative solution of the eigenvalue problem:
     a serial algorithm will be used

     bravais-lattice index     =            0
     lattice parameter (alat)  =       1.8897  a.u.
     unit-cell volume          =    6501.5726 (a.u.)^3
     number of atoms/cell      =           14
     number of atomic types    =            3
     number of electrons       =       163.00
     number of Kohn-Sham states=           91
     kinetic-energy cutoff     =      36.7493  Ry
     charge density cutoff     =     367.4932  Ry
     convergence threshold     =      1.0E-05
     mixing beta               =       0.3000
     number of iterations used =           10  plain     mixing
     Exchange-correlation      = BEEF-VDW ( 1  4 27 13 2)
     nstep                     =           50

     celldm(1)=   1.889726  celldm(2)=   0.000000  celldm(3)=   0.000000
     celldm(4)=   0.000000  celldm(5)=   0.000000  celldm(6)=   0.000000

     crystal axes: (cart. coord. in units of alat)
               a(1) = (   6.617606   0.000000   0.000000 )
               a(2) = (   3.308803   5.731015   0.000000 )
               a(3) = (   0.000000   0.000000  25.403253 )

     reciprocal axes: (cart. coord. in units 2 pi/alat)
               b(1) = (  0.151112 -0.087245  0.000000 )
               b(2) = (  0.000000  0.174489  0.000000 )
               b(3) = (  0.000000  0.000000  0.039365 )

     PseudoPot. # 1 for In read from file:
     /u/if/mamunm/psp/gbrv1.5pbe/In.UPF
     MD5 check sum: 90777abd96fbb83f2e67db2a40c566b9
     Pseudo is Ultrasoft + core correction, Zval = 13.0
     Generated by new atomic code, or converted to UPF format
     Using radial grid of  889 points,  6 beta functions with:
                l(1) =   0
                l(2) =   0
                l(3) =   1
                l(4) =   1
                l(5) =   2
                l(6) =   2
     Q(r) pseudized with  6 coefficients,  rinner =    1.400   1.400   1.400
                                                       1.400   1.400

     PseudoPot. # 2 for O  read from file:
     /u/if/mamunm/psp/gbrv1.5pbe/O.UPF
     MD5 check sum: 734c27235a0248c51dbae37a1fbe46ec
     Pseudo is Ultrasoft + core correction, Zval =  6.0
     Generated by new atomic code, or converted to UPF format
     Using radial grid of  737 points,  5 beta functions with:
                l(1) =   0
                l(2) =   0
                l(3) =   1
                l(4) =   1
                l(5) =   2
     Q(r) pseudized with  8 coefficients,  rinner =    0.900   0.900   0.900
                                                       0.900   0.900

     PseudoPot. # 3 for H  read from file:
     /u/if/mamunm/psp/gbrv1.5pbe/H.UPF
     MD5 check sum: 761ae9a214b05c3daf00ab9f6b793d6f
     Pseudo is Ultrasoft, Zval =  1.0
     Generated by new atomic code, or converted to UPF format
     Using radial grid of  615 points,  2 beta functions with:
                l(1) =   0
                l(2) =   0
     Q(r) pseudized with  8 coefficients,  rinner =    0.700

     vdW kernel table read from file vdW_kernel_table
     MD5 check sum: 095c7af220d748ca6e76c0b4c6cfb241

     atomic species   valence    mass     pseudopotential
        In1           13.00   114.81800     In( 1.00)
        O1             6.00    15.99900     O ( 1.00)
        H1             1.00     1.00800     H ( 1.00)

     No symmetry found

   Cartesian axes

     site n.     atom                  positions (alat units)
         1           In1 tau(   1) = (   1.6544016   0.9551692  10.0000000  )
         2           In1 tau(   2) = (   4.9632047   0.9551692  10.0000000  )
         3           In1 tau(   3) = (   3.3088031   3.8206768  10.0000000  )
         4           In1 tau(   4) = (   6.6176063   3.8206768  10.0000000  )
         5           In1 tau(   5) = (   6.6176063   1.9103384  12.7016265  )
         6           In1 tau(   6) = (   3.3088031   1.9103384  12.7016265  )
         7           In1 tau(   7) = (   8.2720078   4.7758460  12.7016265  )
         8           In1 tau(   8) = (   4.9632047   4.7758460  12.7016265  )
         9           In1 tau(   9) = (   0.0000000   0.0000000  15.4032529  )
        10           In1 tau(  10) = (   3.3088031   0.0000000  15.4032529  )
        11           In1 tau(  11) = (   1.6544016   2.8655076  15.4032529  )
        12           In1 tau(  12) = (   4.9632047   2.8655076  15.4032529  )
        13           O1  tau(  13) = (   1.6544016   0.9551692  16.7552529  )
        14           H1  tau(  14) = (   1.6544016   0.9551692  17.7052529  )

     number of k points=    20  Fermi-Dirac smearing, width (Ry)=  0.0110
                       cart. coord. in units 2pi/alat
        k(    1) = (   0.0000000   0.0000000   0.0000000), wk =   0.0555556
        k(    2) = (   0.0000000   0.0290815   0.0000000), wk =   0.1111111
        k(    3) = (   0.0000000   0.0581631   0.0000000), wk =   0.1111111
        k(    4) = (   0.0000000  -0.0872446   0.0000000), wk =   0.0555556
        k(    5) = (   0.0251853  -0.0145408   0.0000000), wk =   0.1111111
        k(    6) = (   0.0251853   0.0145408   0.0000000), wk =   0.1111111
        k(    7) = (   0.0251853   0.0436223   0.0000000), wk =   0.1111111
        k(    8) = (   0.0251853  -0.1017853   0.0000000), wk =   0.1111111
        k(    9) = (   0.0251853  -0.0727038   0.0000000), wk =   0.1111111
        k(   10) = (   0.0251853  -0.0436223   0.0000000), wk =   0.1111111
        k(   11) = (   0.0503707  -0.0290815   0.0000000), wk =   0.1111111
        k(   12) = (   0.0503707   0.0000000   0.0000000), wk =   0.1111111
        k(   13) = (   0.0503707   0.0290815   0.0000000), wk =   0.1111111
        k(   14) = (   0.0503707  -0.1163261   0.0000000), wk =   0.1111111
        k(   15) = (   0.0503707  -0.0872446   0.0000000), wk =   0.1111111
        k(   16) = (   0.0503707  -0.0581631   0.0000000), wk =   0.1111111
        k(   17) = (  -0.0755560   0.0436223   0.0000000), wk =   0.0555556
        k(   18) = (  -0.0755560   0.0727038   0.0000000), wk =   0.1111111
        k(   19) = (  -0.0755560   0.1017853   0.0000000), wk =   0.1111111
        k(   20) = (  -0.0755560  -0.0436223   0.0000000), wk =   0.0555556

     Largest allocated arrays     est. size (Mb)     dimensions
     Largest temporary arrays     est. size (Mb)     dimensions

     Initial potential from superposition of free atoms
     Check: negative starting charge=   -0.000343

     starting charge  144.99998, renormalised to  163.00000

     negative rho (up, down):  3.860E-04 0.000E+00

     *
     * You are using vdW-DF for exchange-correlation in this calculation.
     * Please cite the following three references that made this development
     * possible:
     *
     *   M. Dion, H. Rydberg, E. Schroder, D. C. Langreth, and
     *   B. I. Lundqvist, Phys. Rev. Lett. 92, 246401 (2004).
     *
     *   T. Thonhauser, V. R. Cooper, S. Li, A. Puzder, P. Hyldgaard, and
     *   D. C. Langreth, Phys. Rev. B 76, 125112 (2007).
     *
     *   G. Roman-Perez and J. M. Soler, Phys. Rev. Lett. 103, 096102 (2009).
     *
     *
     * If you are using vdW-DF2, please also cite:
     *
     *   K. Lee, E. D. Murray, L. Kong, B. I. Lundqvist, and
     *   D. C. Langreth, Phys. Rev. B 82, 081101(R) (2010).
     *
     *
     * If you are calculating the stress with vdW-DF, please also cite:
     *
     *   R. Sabatini, E. Kucukbenli, B. Kolb, T. Thonhauser, and
     *   S. de Gironcoli, J. Phys.: Condens. Matter 24, 424209 (2012).
     *

     Carrying out vdW-DF run using the following parameters:

     Nqs =      20    Nr_points =    1024   r_max =   100.000
     q_mesh =
               0.00001000     0.04494208     0.09755937     0.15916263
               0.23128650     0.31572767     0.41458969     0.53033537
               0.66584808     0.82450364     1.01025438     1.22772762
               1.48234092     1.78043706     2.12944203     2.53805004
               3.01644009     3.57652955     4.23227104     5.00000000

     Gradients computed in reciprocal space

     Adding external electric field

     Computed dipole along edir(3) :
        Dipole               -6.8792 Ry au,        -17.4853 Debye
        Dipole field         -0.0133 Ry au

        Potential amp.        1.2447 Ry
        Total length         46.8051 bohr

     Starting wfc are  113 randomized atomic wfcs

     Self-consistent Calculation

     iteration #  1     ecut=    36.75 Ry     beta=0.30
     Davidson diagonalization with overlap
     ethr =  1.00E-02,  avg # of iterations =  8.5

[...]

     total energy              =    -762.12201263 Ry
     Harris-Foulkes estimate   =   -1617.12926947 Ry
     estimated scf accuracy    <    1825.71835227 Ry

[...]

     iteration #  4     ecut=    36.75 Ry     beta=0.30
     Davidson diagonalization with overlap
     c_bands:  2 eigenvalues not converged
     ethr =  1.00E-02,  avg # of iterations = 18.1

[...]

     End of self-consistent calculation

          k = 0.0000 0.0000 0.0000 ( 24345 PWs)   bands (ev):

   -19.8274 -14.2569 -14.2468 -14.2468 -14.1910 -14.1629 -14.1629 -14.1519
   -14.1519 -14.1501 -14.1213 -14.1096 -14.1096 -14.1079 -14.0918 -14.0677
   -14.0621 -14.0621 -14.0547 -14.0547 -14.0528 -14.0528 -14.0472 -14.0336
   -14.0336 -14.0178 -14.0139 -14.0076 -14.0076 -14.0030 -14.0030 -13.9138
   -13.9138 -13.8977 -13.8850 -13.8850 -13.8567 -13.8567 -13.8470 -13.8470
   -13.8204 -13.7954 -13.7953 -13.7943 -13.7832 -13.7825 -13.7825 -13.7673
   -13.7664 -13.7664 -13.7475 -13.7474 -13.7353 -13.7353 -13.7333 -13.7293
   -13.7125 -13.7125 -13.6946 -13.6946 -13.6936  -8.4331  -7.6885  -6.4178
    -4.5281  -4.4041  -4.4041  -3.4076  -3.3147  -3.3147  -3.0610  -2.8423
    -2.8423  -1.8088  -1.8088  -1.7591  -1.4707  -1.2795  -1.2795  -0.9850
     0.0464   0.0464   0.1282   0.6967   0.6968   1.0137   1.7527   3.2223
     3.5826   3.6173   3.6173

[...]

          k =-0.0756 0.0436 0.0000 ( 24448 PWs)   bands (ev):

[...]

     the Fermi energy is     0.9463 ev

!    total energy              =   -1651.09626866 Ry
     Harris-Foulkes estimate   =   -1651.09626271 Ry
     estimated scf accuracy    <       0.00000286 Ry

     The total energy is the sum of the following terms:

     one-electron contribution =   -9593.90181413 Ry
     hartree contribution      =    4880.99858788 Ry
     xc contribution           =    -478.07451683 Ry
     ewald contribution        =    3539.91849659 Ry
     electric field correction =       0.00012995 Ry
     smearing contrib. (-TS)   =      -0.03715211 Ry

     convergence has been achieved in  35 iterations

 BEEF-vdW xc energy contributions
           1 :   -418.624100399334
           2 :    382.382627464449
           3 :   -321.236313652416
           4 :    252.429461004003
           5 :   -191.669965833729
           6 :    147.451996773870
           7 :   -119.482679093159
           8 :    101.316929924032
           9 :   -85.2752736673625
          10 :    66.7874621663090
          11 :   -46.0255007924646
          12 :    26.4865606213668
          13 :   -11.9532379448733
          14 :    3.92367600889622
          15 :  -0.950192362541657
          16 :  -8.779300203224238E-002
          17 :    1.92432513486864
          18 :   -5.48138711621135
          19 :    9.82419252697144
          20 :   -13.2471629419695
          21 :    14.5886369035989
          22 :   -13.9114718517744
          23 :    12.2523378374538
          24 :   -10.8016453941637
          25 :    10.1702578328216
          26 :   -10.2034380167441
          27 :    10.3303928361578
          28 :   -10.0807303390635
          29 :    9.36931808710386
          30 :   -8.41565307353932
          31 :   -38.1405267629252
          32 :   -27.6501165313309

     Forces acting on atoms (Ry/au):

     negative rho (up, down):  1.204E-03 0.000E+00
     atom    1 type  1   force =    -0.00000061    0.00000769   -0.00993183
     atom    2 type  1   force =    -0.00000312   -0.00025225   -0.00826852
     atom    3 type  1   force =    -0.00022747    0.00012009   -0.00822651
     atom    4 type  1   force =     0.00022145    0.00012452   -0.00826575
     atom    5 type  1   force =    -0.00092881    0.00052674    0.00207490
     atom    6 type  1   force =     0.00090745    0.00052630    0.00205663
     atom    7 type  1   force =    -0.00001315    0.00001112   -0.00859967
     atom    8 type  1   force =    -0.00000714   -0.00104582    0.00205527
     atom    9 type  1   force =    -0.02174054   -0.01257011    0.00208423
     atom   10 type  1   force =     0.02175329   -0.01256017    0.00209517
     atom   11 type  1   force =     0.00001982    0.02511299    0.00207442
     atom   12 type  1   force =     0.00001944   -0.00000712    0.00523450
     atom   13 type  2   force =     0.00000035    0.00000337   -0.03622699
     atom   14 type  3   force =    -0.00000095    0.00000267    0.06184415

     Total force =     0.084082     Total SCF correction =     0.001760

     entering subroutine stress ...

     negative rho (up, down):  1.204E-03 0.000E+00
          total   stress  (Ry/bohr**3)                   (kbar)     P=   10.20
   0.00006601   0.00000000   0.00000000          9.71      0.00      0.00
   0.00000000   0.00006600   0.00000000          0.00      9.71      0.00
   0.00000000   0.00000000   0.00007597          0.00      0.00     11.18

     BFGS Geometry Optimization

     number of scf cycles    =   1
     number of bfgs steps    =   0

     energy   new            =   -1651.0962686593 Ry

     new trust radius        =       0.0618441535 bohr
     new conv_thr            =       0.0000099958 Ry

ATOMIC_POSITIONS (crystal)
In1      0.166666667   0.166666667   0.393650374    0   0   0
In1      0.666666667   0.166666667   0.393650374    0   0   0
In1      0.166666667   0.666666667   0.393650374    0   0   0
In1      0.666666667   0.666666667   0.393650374    0   0   0
In1      0.833333333   0.333333333   0.500000000    0   0   0
In1      0.333333333   0.333333333   0.500000000    0   0   0
In1      0.833333333   0.833333333   0.500000000    0   0   0
In1      0.333333333   0.833333333   0.500000000    0   0   0
In1     -0.001158148  -0.001160670   0.606393043
In1      0.502319379  -0.001159752   0.606393271
In1     -0.001157827   0.502318825   0.606392839
In1      0.500001883   0.499999343   0.606458666
O1       0.166666539   0.166666978   0.658816509
H1       0.166666468   0.166666913   0.698256223

     Writing output data file calc.save
     Check: negative starting charge=   -0.000343
     NEW-OLD atomic charge density approx. for the potential
     Check: negative starting charge=   -0.000342

[...]

     energy   old            =   -1651.0962686593 Ry
     energy   new            =   -1651.0979675039 Ry

     CASE: energy  _new < energy  _old

[...]

     iteration #  1     ecut=    36.75 Ry     beta=0.30
     Davidson diagonalization with overlap
     c_bands:  1 eigenvalues not converged
     ethr =  1.00E-06,  avg # of iterations =  9.8

[...]

     Total force =     0.002895     Total SCF correction =     0.000555
     SCF correction compared to forces is large: reduce conv_thr to get better values

[...]

     WARNING: bfgs curvature condition failed, Theta= 0.938
     new trust radius        =       0.0062610413 bohr
     new conv_thr            =       0.0000001000 Ry

[...]

     Total force =     0.002669     Total SCF correction =     0.000236

[...]

     number of scf cycles    =  25
     number of bfgs steps    =  24

     energy   old            =   -1651.1126395380 Ry
     energy   new            =   -1651.1126568275 Ry

     CASE: energy  _new < energy  _old

     new trust radius        =       0.0140873429 bohr
     new conv_thr            =       0.0000001000 Ry

ATOMIC_POSITIONS (crystal)
In1      0.166666667   0.166666667   0.393650374    0   0   0
In1      0.666666667   0.166666667   0.393650374    0   0   0
In1      0.166666667   0.666666667   0.393650374    0   0   0
In1      0.666666667   0.666666667   0.393650374    0   0   0
In1      0.833333333   0.333333333   0.500000000    0   0   0
In1      0.333333333   0.333333333   0.500000000    0   0   0
In1      0.833333333   0.833333333   0.500000000    0   0   0
In1      0.333333333   0.833333333   0.500000000    0   0   0
In1     -0.003006640  -0.003013046   0.617568350
In1      0.506029531  -0.003014758   0.617568658
In1     -0.003005902   0.506020313   0.617568431
In1      0.500004843   0.499997847   0.610122169
O1       0.166669574   0.166666014   0.676765336
H1       0.166664862   0.166669009   0.715273986

     Writing output data file calc.save
     Check: negative starting charge=   -0.000331
     NEW-OLD atomic charge density approx. for the potential
     Check: negative starting charge=   -0.000331

[...]

     Self-consistent Calculation

[...]

     total energy              =   -1651.11268151 Ry
     Harris-Foulkes estimate   =   -1651.11268132 Ry
     estimated scf accuracy    <       0.00000037 Ry

     iteration #  6     ecut=    36.75 Ry     beta=0.30
     Davidson diagonalization with overlap
     ethr =  2.30E-10,  avg # of iterations =  2.0

[...]

     negative rho (up, down):  1.172E-03 0.000E+00

     Adding external electric field

     Computed dipole along edir(3) :
        Dipole                0.1997 Ry au,          0.5075 Debye
        Dipole field          0.0004 Ry au

        Potential amp.       -0.0361 Ry
        Total length         46.8051 bohr

     End of self-consistent calculation

[...]

          k = 0.0504-0.0582 0.0000 ( 24479 PWs)   bands (ev):

[...]

          k =-0.0756-0.0436 0.0000 ( 24448 PWs)   bands (ev):

   -18.9370 -14.2087 -14.2046 -14.1743 -14.1571 -14.1518 -14.1482 -14.1456
   -14.1395 -14.1287 -14.1179 -14.1091 -14.1052 -14.0924 -14.0881 -14.0833
   -14.0793 -14.0731 -14.0722 -14.0583 -14.0567 -14.0469 -14.0339 -14.0294
   -14.0227 -14.0202 -14.0167 -14.0158 -14.0100 -14.0065 -14.0040 -13.9904
   -13.9829 -13.9780 -13.9586 -13.9565 -13.9550 -13.9480 -13.9460 -13.9434
   -13.9366 -13.9288 -13.9247 -13.9167 -13.9153 -13.9104 -13.9081 -13.9065
   -13.9064 -13.9008 -13.8992 -13.8960 -13.8899 -13.8532 -13.8462 -13.8423
   -13.8377 -13.8262 -13.8151 -13.7911 -13.7875  -7.2314  -6.9143  -6.6898
    -5.7451  -5.1296  -4.4459  -4.3451  -4.0721  -3.8032  -3.6125  -2.8117
    -2.6118  -2.3983  -1.3779  -1.1399   0.0613   0.1303   0.5556   0.5951
     0.9597   1.1088   1.8842   1.9772   1.9826   2.1408   2.5295   2.7362
     2.9203   3.2918   3.3051

     the Fermi energy is     0.8831 ev

!    total energy              =   -1651.11268160 Ry
     Harris-Foulkes estimate   =   -1651.11268184 Ry
     estimated scf accuracy    <       0.00000005 Ry

     The total energy is the sum of the following terms:

     one-electron contribution =   -9209.64715268 Ry
     hartree contribution      =    4688.79640466 Ry
     xc contribution           =    -477.86622351 Ry
     ewald contribution        =    3347.64141648 Ry
     electric field correction =       0.00007705 Ry
     smearing contrib. (-TS)   =      -0.03720361 Ry

     convergence has been achieved in   6 iterations

 BEEF-vdW xc energy contributions
           1 :   -418.402881606250
           2 :    382.032593405647
           3 :   -320.741889039326
           4 :    251.903466139629
           5 :   -191.273954762519
           6 :    147.286850705892
           7 :   -119.522211895761
           8 :    101.429049182156
           9 :   -85.3121385831267
          10 :    66.6791700410847
          11 :   -45.8141479739865
          12 :    26.2825465260489
          13 :   -11.8516884426378
          14 :    3.94388239196957
          15 :   -1.03598416072185
          16 :  -1.557692145155443E-002
          17 :    1.90749452232154
          18 :   -5.50240878079887
          19 :    9.83426997345606
          20 :   -13.2155022107752
          21 :    14.5303091266642
          22 :   -13.8726118761962
          23 :    12.2670497332885
          24 :   -10.8578675350372
          25 :    10.2146130167992
          26 :   -10.1823030486360
          27 :    10.2344462573730
          28 :   -9.95625376460544
          29 :    9.28587571644920
          30 :   -8.41464893207666
          31 :   -38.1222891088476
          32 :   -27.5992906120091

     Forces acting on atoms (Ry/au):

     negative rho (up, down):  1.172E-03 0.000E+00
     atom    1 type  1   force =     0.00000002   -0.00000002   -0.01222085
     atom    2 type  1   force =    -0.00000004   -0.00056209   -0.01105471
     atom    3 type  1   force =    -0.00048677    0.00028104   -0.01105469
     atom    4 type  1   force =     0.00048677    0.00028106   -0.01105472
     atom    5 type  1   force =     0.00103611   -0.00059815    0.01304523
     atom    6 type  1   force =    -0.00103595   -0.00059823    0.01304549
     atom    7 type  1   force =    -0.00000015    0.00000008    0.00692045
     atom    8 type  1   force =     0.00000010    0.00119627    0.01304544
     atom    9 type  1   force =     0.00050008    0.00028830    0.00050509
     atom   10 type  1   force =    -0.00050021    0.00028878    0.00050499
     atom   11 type  1   force =     0.00000022   -0.00057718    0.00050505
     atom   12 type  1   force =    -0.00000025    0.00000019   -0.00173733
     atom   13 type  2   force =    -0.00000016    0.00000013    0.00014823
     atom   14 type  3   force =     0.00000024   -0.00000019   -0.00059767

     Total force =     0.002272     Total SCF correction =     0.000352
     SCF correction compared to forces is large: reduce conv_thr to get better values

     entering subroutine stress ...

     negative rho (up, down):  1.172E-03 0.000E+00
          total   stress  (Ry/bohr**3)                   (kbar)     P=    5.52
   0.00004246  -0.00000000  -0.00000000          6.25     -0.00     -0.00
  -0.00000000   0.00004246   0.00000000         -0.00      6.25      0.00
  -0.00000000   0.00000000   0.00002770         -0.00      0.00      4.07

     bfgs converged in  26 scf cycles and  25 bfgs steps
     (criteria: energy <  1.0E+00, force <  1.9E-03)

     End of BFGS Geometry Optimization

     Final energy   =   -1651.1126816027 Ry
Begin final coordinates

ATOMIC_POSITIONS (crystal)
In1      0.166666667   0.166666667   0.393650374    0   0   0
In1      0.666666667   0.166666667   0.393650374    0   0   0
In1      0.166666667   0.666666667   0.393650374    0   0   0
In1      0.666666667   0.666666667   0.393650374    0   0   0
In1      0.833333333   0.333333333   0.500000000    0   0   0
In1      0.333333333   0.333333333   0.500000000    0   0   0
In1      0.833333333   0.833333333   0.500000000    0   0   0
In1      0.333333333   0.833333333   0.500000000    0   0   0
In1     -0.003006640  -0.003013046   0.617568350
In1      0.506029531  -0.003014758   0.617568658
In1     -0.003005902   0.506020313   0.617568431
In1      0.500004843   0.499997847   0.610122169
O1       0.166669574   0.166666014   0.676765336
H1       0.166664862   0.166669009   0.715273986
End final coordinates

     Writing output data file calc.save

     General routines

     Parallel routines

   This run was terminated on:  11:28:51  18Apr2018

   JOB DONE.
Job  /afs/slac/g/suncat/bin/suncat-tsmpirun -x LD_LIBRARY_PATH -wdir /scratch/qe226201_DV3ks pw.x -npool 4 -in pw.inp

TID   HOST_NAME   COMMAND_LINE            STATUS            TERMINATION_TIME
00000 suncat0006 pw.x -npool 4 -i  Done                     04/18/2018 11:28:51
00001 suncat0006 pw.x -npool 4 -i  Done                     04/18/2018 11:28:51
00002 suncat0006 pw.x -npool 4 -i  Done                     04/18/2018 11:28:51
00003 suncat0006 pw.x -npool 4 -i  Done                     04/18/2018 11:28:51
00004 suncat0006 pw.x -npool 4 -i  Done                     04/18/2018 11:28:51
00005 suncat0006 pw.x -npool 4 -i  Done                     04/18/2018 11:28:51
00006 suncat0006 pw.x -npool 4 -i  Done                     04/18/2018 11:28:51
00007 suncat0006 pw.x -npool 4 -i  Done                     04/18/2018 11:28:51
00008 suncat0187 pw.x -npool 4 -i  Done                     04/18/2018 11:28:51
00009 suncat0187 pw.x -npool 4 -i  Done                     04/18/2018 11:28:51
00010 suncat0187 pw.x -npool 4 -i  Done                     04/18/2018 11:28:51
00011 suncat0187 pw.x -npool 4 -i  Done                     04/18/2018 11:28:51
00012 suncat0187 pw.x -npool 4 -i  Done                     04/18/2018 11:28:51
00013 suncat0187 pw.x -npool 4 -i  Done                     04/18/2018 11:28:51
00014 suncat0187 pw.x -npool 4 -i  Done                     04/18/2018 11:28:51
00015 suncat0187 pw.x -npool 4 -i  Done                     04/18/2018 11:28:51
00016 suncat0182 pw.x -npool 4 -i  Done                     04/18/2018 11:28:51
00017 suncat0182 pw.x -npool 4 -i  Done                     04/18/2018 11:28:51
00018 suncat0182 pw.x -npool 4 -i  Done                     04/18/2018 11:28:51
00019 suncat0182 pw.x -npool 4 -i  Done                     04/18/2018 11:28:51
00020 suncat0182 pw.x -npool 4 -i  Done                     04/18/2018 11:28:51
00021 suncat0182 pw.x -npool 4 -i  Done                     04/18/2018 11:28:51
00022 suncat0182 pw.x -npool 4 -i  Done                     04/18/2018 11:28:51
00023 suncat0182 pw.x -npool 4 -i  Done                     04/18/2018 11:28:51
00024 suncat0180 pw.x -npool 4 -i  Done                     04/18/2018 11:28:51
00025 suncat0180 pw.x -npool 4 -i  Done                     04/18/2018 11:28:51
00026 suncat0180 pw.x -npool 4 -i  Done                     04/18/2018 11:28:51
00027 suncat0180 pw.x -npool 4 -i  Done                     04/18/2018 11:28:51
00028 suncat0180 pw.x -npool 4 -i  Done                     04/18/2018 11:28:51
00029 suncat0180 pw.x -npool 4 -i  Done                     04/18/2018 11:28:51
00030 suncat0180 pw.x -npool 4 -i  Done                     04/18/2018 11:28:51
00031 suncat0180 pw.x -npool 4 -i  Done                     04/18/2018 11:28:51