     Program PWSCF v.5.1rc2 (svn rev. 11289) starts on 24Apr2018 at 18:10:22

     Current dimensions of program PWSCF are:
     Max number of different atomic species (ntypx) = 10
     Max number of k-points (npk) =  40000
     Max angular momentum in pseudopotentials (lmaxx) =  3
     Presently stress not available with electric field

     IMPORTANT: XC functional enforced from input :
     Exchange-correlation      = BEEF-VDW ( 1  4 27 13 2)
     Any further DFT definition will be discarded
     Please, verify this is what you really want

     Subspace diagonalization in iterative solution of the eigenvalue problem:
     a serial algorithm will be used

     bravais-lattice index     =            0
     lattice parameter (alat)  =       1.8897  a.u.
     unit-cell volume          =    4704.3541 (a.u.)^3
     number of atoms/cell      =           16
     number of atomic types    =            3
     number of electrons       =       175.00
     number of Kohn-Sham states=           97
     kinetic-energy cutoff     =      36.7493  Ry
     charge density cutoff     =     367.4932  Ry
     convergence threshold     =      1.0E-05
     mixing beta               =       0.3000
     number of iterations used =           10  plain     mixing
     Exchange-correlation      = BEEF-VDW ( 1  4 27 13 2)
     nstep                     =           50

     celldm(1)=   1.889726  celldm(2)=   0.000000  celldm(3)=   0.000000
     celldm(4)=   0.000000  celldm(5)=   0.000000  celldm(6)=   0.000000

     crystal axes: (cart. coord. in units of alat)
               a(1) = (   5.712816   0.000000   0.000000 )
               a(2) = (   2.856408   4.947444   0.000000 )
               a(3) = (   0.000000   0.000000  24.664495 )

     reciprocal axes: (cart. coord. in units 2 pi/alat)
               b(1) = (  0.175045 -0.101062  0.000000 )
               b(2) = (  0.000000  0.202125  0.000000 )
               b(3) = (  0.000000  0.000000  0.040544 )

     PseudoPot. # 1 for W  read from file:
     /u/if/mamunm/psp/gbrv1.5pbe/W.UPF
     MD5 check sum: 9c083fa34c2a2ea0f02f1f893e16e1c8
     Pseudo is Ultrasoft + core correction, Zval = 14.0
     Generated by new atomic code, or converted to UPF format
     Using radial grid of  923 points,  8 beta functions with:
                l(1) =   0
                l(2) =   0
                l(3) =   0
                l(4) =   1
                l(5) =   1
                l(6) =   2
                l(7) =   2
                l(8) =   3
     Q(r) pseudized with  6 coefficients,  rinner =    1.350   1.350   1.350
                                                       1.350   1.350   1.350
                                                       1.350

     PseudoPot. # 2 for C  read from file:
     /u/if/mamunm/psp/gbrv1.5pbe/C.UPF
     MD5 check sum: d1aef80898a10debaa0f26306b886e00
     Pseudo is Ultrasoft + core correction, Zval =  4.0
     Generated by new atomic code, or converted to UPF format
     Using radial grid of  721 points,  4 beta functions with:
                l(1) =   0
                l(2) =   0
                l(3) =   1
                l(4) =   1
     Q(r) pseudized with  8 coefficients,  rinner =    1.100   1.100   1.100

     PseudoPot. # 3 for H  read from file:
     /u/if/mamunm/psp/gbrv1.5pbe/H.UPF
     MD5 check sum: 761ae9a214b05c3daf00ab9f6b793d6f
     Pseudo is Ultrasoft, Zval =  1.0
     Generated by new atomic code, or converted to UPF format
     Using radial grid of  615 points,  2 beta functions with:
                l(1) =   0
                l(2) =   0
     Q(r) pseudized with  8 coefficients,  rinner =    0.700

     vdW kernel table read from file vdW_kernel_table
     MD5 check sum: 095c7af220d748ca6e76c0b4c6cfb241

     atomic species   valence    mass     pseudopotential
        W1            14.00   183.84000     W ( 1.00)
        C1             4.00    12.01100     C ( 1.00)
        H1             1.00     1.00800     H ( 1.00)

     No symmetry found

   Cartesian axes

     site n.     atom                  positions (alat units)
         1           W1  tau(   1) = (   1.4282041   0.8245740  10.0000000  )
         2           W1  tau(   2) = (   4.2846123   0.8245740  10.0000000  )
         3           W1  tau(   3) = (   2.8564082   3.2982961  10.0000000  )
         4           W1  tau(   4) = (   5.7128165   3.2982961  10.0000000  )
         5           W1  tau(   5) = (   5.7128165   1.6491481  12.3322476  )
         6           W1  tau(   6) = (   2.8564082   1.6491481  12.3322476  )
         7           W1  tau(   7) = (   7.1410206   4.1228701  12.3322476  )
         8           W1  tau(   8) = (   4.2846123   4.1228701  12.3322476  )
         9           W1  tau(   9) = (   0.0000000   0.0000000  14.6644951  )
        10           W1  tau(  10) = (   2.8564082   0.0000000  14.6644951  )
        11           W1  tau(  11) = (   1.4282041   2.4737221  14.6644951  )
        12           W1  tau(  12) = (   4.2846123   2.4737221  14.6644951  )
        13           C1  tau(  13) = (   0.0000000   0.0000000  16.6874951  )
        14           H1  tau(  14) = (   1.0900000   0.0000000  17.3174951  )
        15           H1  tau(  15) = (   5.2628165   0.8895000  17.3174951  )
        16           H1  tau(  16) = (   2.4064082   4.0579442  17.3174951  )

     number of k points=    20  Fermi-Dirac smearing, width (Ry)=  0.0110
                       cart. coord. in units 2pi/alat
        k(    1) = (   0.0000000   0.0000000   0.0000000), wk =   0.0555556
        k(    2) = (   0.0000000   0.0336874   0.0000000), wk =   0.1111111
        k(    3) = (   0.0000000   0.0673749   0.0000000), wk =   0.1111111
        k(    4) = (   0.0000000  -0.1010623   0.0000000), wk =   0.0555556
        k(    5) = (   0.0291742  -0.0168437   0.0000000), wk =   0.1111111
        k(    6) = (   0.0291742   0.0168437   0.0000000), wk =   0.1111111
        k(    7) = (   0.0291742   0.0505311   0.0000000), wk =   0.1111111
        k(    8) = (   0.0291742  -0.1179060   0.0000000), wk =   0.1111111
        k(    9) = (   0.0291742  -0.0842186   0.0000000), wk =   0.1111111
        k(   10) = (   0.0291742  -0.0505311   0.0000000), wk =   0.1111111
        k(   11) = (   0.0583483  -0.0336874   0.0000000), wk =   0.1111111
        k(   12) = (   0.0583483  -0.0000000   0.0000000), wk =   0.1111111
        k(   13) = (   0.0583483   0.0336874   0.0000000), wk =   0.1111111
        k(   14) = (   0.0583483  -0.1347497   0.0000000), wk =   0.1111111
        k(   15) = (   0.0583483  -0.1010623   0.0000000), wk =   0.1111111
        k(   16) = (   0.0583483  -0.0673749   0.0000000), wk =   0.1111111
        k(   17) = (  -0.0875225   0.0505311   0.0000000), wk =   0.0555556
        k(   18) = (  -0.0875225   0.0842186   0.0000000), wk =   0.1111111
        k(   19) = (  -0.0875225   0.1179060   0.0000000), wk =   0.1111111
        k(   20) = (  -0.0875225  -0.0505311   0.0000000), wk =   0.0555556

     Largest allocated arrays     est. size (Mb)     dimensions
     Largest temporary arrays     est. size (Mb)     dimensions

     Initial potential from superposition of free atoms
     Check: negative starting charge=   -0.760273

     starting charge  173.79585, renormalised to  175.00000

     negative rho (up, down):  7.655E-01 0.000E+00

     *
     * You are using vdW-DF for exchange-correlation in this calculation.
     * Please cite the following three references that made this development
     * possible:
     *
     *   M. Dion, H. Rydberg, E. Schroder, D. C. Langreth, and
     *   B. I. Lundqvist, Phys. Rev. Lett. 92, 246401 (2004).
     *
     *   T. Thonhauser, V. R. Cooper, S. Li, A. Puzder, P. Hyldgaard, and
     *   D. C. Langreth, Phys. Rev. B 76, 125112 (2007).
     *
     *   G. Roman-Perez and J. M. Soler, Phys. Rev. Lett. 103, 096102 (2009).
     *
     *
     * If you are using vdW-DF2, please also cite:
     *
     *   K. Lee, E. D. Murray, L. Kong, B. I. Lundqvist, and
     *   D. C. Langreth, Phys. Rev. B 82, 081101(R) (2010).
     *
     *
     * If you are calculating the stress with vdW-DF, please also cite:
     *
     *   R. Sabatini, E. Kucukbenli, B. Kolb, T. Thonhauser, and
     *   S. de Gironcoli, J. Phys.: Condens. Matter 24, 424209 (2012).
     *

     Carrying out vdW-DF run using the following parameters:

     Nqs =      20    Nr_points =    1024   r_max =   100.000
     q_mesh =
               0.00001000     0.04494208     0.09755937     0.15916263
               0.23128650     0.31572767     0.41458969     0.53033537
               0.66584808     0.82450364     1.01025438     1.22772762
               1.48234092     1.78043706     2.12944203     2.53805004
               3.01644009     3.57652955     4.23227104     5.00000000

     Gradients computed in reciprocal space

     Adding external electric field

     Computed dipole along edir(3) :
        Dipole               -0.4233 Ry au,         -1.0760 Debye
        Dipole field         -0.0011 Ry au

        Potential amp.        0.1028 Ry
        Total length         45.4439 bohr

     Starting wfc are  163 randomized atomic wfcs

     Self-consistent Calculation

     iteration #  1     ecut=    36.75 Ry     beta=0.30
     Davidson diagonalization with overlap
     ethr =  1.00E-02,  avg # of iterations =  2.0

[...]

     total energy              =   -1936.64956896 Ry
     Harris-Foulkes estimate   =   -1940.38683892 Ry
     estimated scf accuracy    <       8.00370045 Ry

[...]

     End of self-consistent calculation

          k = 0.0000 0.0000 0.0000 ( 17753 PWs)   bands (ev):

   -71.3852 -71.3387 -71.3234 -71.2936 -71.2917 -71.2882 -71.2722 -71.2713
   -71.2701 -71.2566 -71.2559 -71.2043 -35.9638 -35.9636 -35.9309 -35.8970
   -35.8384 -35.8368 -35.8351 -35.7515 -35.7494 -35.7458 -35.5588 -35.4537
   -35.4509 -35.4187 -35.3967 -35.3961 -35.3844 -35.2712 -35.2706 -35.2705
   -35.2023 -35.1849 -35.1844 -35.1343 -35.1206 -35.1201 -35.1151 -35.0725
   -35.0710 -35.0708 -35.0348 -35.0345 -34.9286 -34.9277 -34.9010 -34.9006
    -9.2166  -5.3497  -3.5857  -2.7456  -2.4281  -2.2986  -2.2536  -2.0784
    -2.0252  -1.9864  -1.9358  -1.7555  -1.3300  -1.1851  -1.1832  -1.1682
    -1.0959  -1.0657  -0.6043   0.3062   0.4723   0.5037   1.4696   1.5525
     1.5613   1.6005   1.8599   2.2579   2.2580   2.3354   2.3388   2.3578
     2.6063   2.6066   2.6659   2.6660   2.6676   2.8577   2.8577   3.1151
     3.4998   3.6670   3.7600   3.7740   4.4612   4.4657   4.4772   4.7156
     4.7872

[...]

          k =-0.0875 0.0505 0.0000 ( 17668 PWs)   bands (ev):

[...]

     the Fermi energy is     2.8433 ev

!    total energy              =   -1939.88850841 Ry
     Harris-Foulkes estimate   =   -1939.88852383 Ry
     estimated scf accuracy    <       0.00000981 Ry

     The total energy is the sum of the following terms:

     one-electron contribution =  -14940.14600212 Ry
     hartree contribution      =    7458.12804697 Ry
     xc contribution           =    -516.26461655 Ry
     ewald contribution        =    6058.49296310 Ry
     electric field correction =       0.00009940 Ry
     smearing contrib. (-TS)   =      -0.09899921 Ry

     convergence has been achieved in  16 iterations

 BEEF-vdW xc energy contributions
           1 :   -454.003898928205
           2 :    419.815572313824
           3 :   -359.723678392387
           4 :    286.985096226964
           5 :   -215.266404985628
           6 :    154.746059347840
           7 :   -110.008793076399
           8 :    80.1717932527766
           9 :   -60.8295760220625
          10 :    46.7497540031208
          11 :   -34.1204108028554
          12 :    21.5507990168750
          13 :   -9.72582401319715
          14 :   0.218922884111976
          15 :    5.78683912970303
          16 :   -8.25777854432602
          17 :    8.30130392432756
          18 :   -7.54551013177098
          19 :    7.32512932637559
          20 :   -8.11805594858322
          21 :    9.49248440504783
          22 :   -10.5352370700299
          23 :    10.4806803386524
          24 :   -9.18156489907210
          25 :    7.18289378604197
          26 :   -5.39514893751374
          27 :    4.57895784870982
          28 :   -4.93833268481887
          29 :    6.03913939440162
          30 :   -7.07846440474384
          31 :   -41.3144270430763
          32 :   -30.9172615611261

     Forces acting on atoms (Ry/au):

     negative rho (up, down):  7.918E-01 0.000E+00
     atom    1 type  1   force =     0.00021105    0.00004283   -0.00282091
     atom    2 type  1   force =    -0.00014837    0.00010149   -0.00301964
     atom    3 type  1   force =     0.00004016   -0.00021753   -0.00279540
     atom    4 type  1   force =     0.00000014    0.00008614   -0.00017689
     atom    5 type  1   force =    -0.00015016   -0.00073125   -0.00582085
     atom    6 type  1   force =     0.00031385   -0.00005768    0.00659783
     atom    7 type  1   force =     0.00071404    0.00038301   -0.00589976
     atom    8 type  1   force =    -0.00067031    0.00029452   -0.00605013
     atom    9 type  1   force =    -0.00085671    0.00049572   -0.02096539
     atom   10 type  1   force =     0.00048875   -0.00465807   -0.02149753
     atom   11 type  1   force =    -0.00418244    0.00197484   -0.02377112
     atom   12 type  1   force =     0.00361702    0.00231555   -0.02439249
     atom   13 type  2   force =     0.04481163   -0.00003740    0.27926035
     atom   14 type  3   force =    -0.07751236    0.00075500   -0.06776897
     atom   15 type  3   force =     0.01609678   -0.04429546   -0.05043735
     atom   16 type  3   force =     0.01722692    0.04354830   -0.05044175

     Total force =     0.319723     Total SCF correction =     0.009917

     entering subroutine stress ...

     negative rho (up, down):  7.918E-01 0.000E+00
          total   stress  (Ry/bohr**3)                   (kbar)     P=  -46.32
  -0.00047155   0.00000035  -0.00001105        -69.37      0.05     -1.63
   0.00000035  -0.00046072   0.00000003          0.05    -67.77      0.00
  -0.00001105   0.00000003  -0.00001229         -1.63      0.00     -1.81

     BFGS Geometry Optimization

     number of scf cycles    =   1
     number of bfgs steps    =   0

     energy   new            =   -1939.8885084128 Ry

     new trust radius        =       0.2828328578 bohr
     new conv_thr            =       0.0000099958 Ry

ATOMIC_POSITIONS (crystal)
W1       0.166666667   0.166666667   0.405441099    0   0   0
W1       0.666666667   0.166666667   0.405441099    0   0   0
W1       0.166666667   0.666666667   0.405441099    0   0   0
W1       0.666666667   0.666666667   0.405441099    0   0   0
W1       0.833333333   0.333333333   0.500000000    0   0   0
W1       0.333333333   0.333333333   0.500000000    0   0   0
W1       0.833333333   0.833333333   0.500000000    0   0   0
W1       0.333333333   0.833333333   0.500000000    0   0   0
W1      -0.000105868   0.000053022   0.594109088
W1       0.500294386  -0.000498226   0.594097671
W1      -0.000493032   0.500211228   0.594048891
W1       0.500211208   0.500247671   0.594035560
C1       0.004152894  -0.000004000   0.682571171
H1       0.183578725   0.000080755   0.700668440
H1       0.835194803   0.175051971   0.701040290
H1       0.010391417   0.824868114   0.701040196

     Writing output data file calc.save
     Check: negative starting charge=   -0.760273
     NEW-OLD atomic charge density approx. for the potential
     Check: negative starting charge=   -0.762359

[...]

     energy   old            =   -1939.8885084128 Ry
     energy   new            =   -1939.9467823556 Ry

     CASE: energy  _new < energy  _old

[...]

     Total force =     0.007806     Total SCF correction =     0.001048
     SCF correction compared to forces is large: reduce conv_thr to get better values

[...]

     Total force =     0.005512     Total SCF correction =     0.000383

[...]

     number of scf cycles    =  24
     number of bfgs steps    =  23

     energy   old            =   -1940.0031222229 Ry
     energy   new            =   -1940.0031880814 Ry

     CASE: energy  _new < energy  _old

     new trust radius        =       0.0073245660 bohr
     new conv_thr            =       0.0000001000 Ry

ATOMIC_POSITIONS (crystal)
W1       0.166666667   0.166666667   0.405441099    0   0   0
W1       0.666666667   0.166666667   0.405441099    0   0   0
W1       0.166666667   0.666666667   0.405441099    0   0   0
W1       0.666666667   0.666666667   0.405441099    0   0   0
W1       0.833333333   0.333333333   0.500000000    0   0   0
W1       0.333333333   0.333333333   0.500000000    0   0   0
W1       0.833333333   0.833333333   0.500000000    0   0   0
W1       0.333333333   0.833333333   0.500000000    0   0   0
W1      -0.001991876   0.000302312   0.612099389
W1       0.530641487  -0.005124346   0.588851619
W1      -0.009411055   0.472509749   0.588838644
W1       0.467999288   0.532903537   0.588737083
C1       0.006648883   0.000127923   0.698913057
H1       0.183292001   0.006233463   0.714359657
H1       0.825642969   0.176077833   0.715255400
H1       0.014424152   0.817622019   0.715133175

     Writing output data file calc.save
     Check: negative starting charge=   -0.760872
     NEW-OLD atomic charge density approx. for the potential
     Check: negative starting charge=   -0.760920

[...]

     Self-consistent Calculation

[...]

     Threshold (ethr) on eigenvalues was too large:
     Diagonalizing with lowered threshold

     Davidson diagonalization with overlap
     ethr =  4.12E-08,  avg # of iterations =  2.1

[...]

     total energy              =   -1940.00321729 Ry
     Harris-Foulkes estimate   =   -1940.00321734 Ry
     estimated scf accuracy    <       0.00000014 Ry

     iteration #  9     ecut=    36.75 Ry     beta=0.30
     Davidson diagonalization with overlap
     ethr =  7.94E-11,  avg # of iterations =  3.4

[...]

     negative rho (up, down):  7.924E-01 0.000E+00

     Adding external electric field

     Computed dipole along edir(3) :
        Dipole                0.1240 Ry au,          0.3151 Debye
        Dipole field          0.0003 Ry au

        Potential amp.       -0.0301 Ry
        Total length         45.4439 bohr

     End of self-consistent calculation

[...]

          k = 0.0583-0.0674 0.0000 ( 17692 PWs)   bands (ev):

[...]

          k =-0.0875-0.0505 0.0000 ( 17668 PWs)   bands (ev):

   -71.5158 -71.4399 -71.4251 -71.4051 -71.3926 -71.3885 -71.3809 -71.3678
   -71.3344 -71.2847 -71.2695 -71.2577 -35.9432 -35.9280 -35.8894 -35.8681
   -35.8390 -35.8210 -35.7482 -35.7220 -35.7202 -35.6831 -35.6754 -35.6445
   -35.5992 -35.5796 -35.4885 -35.4672 -35.4492 -35.4368 -35.4218 -35.4123
   -35.4000 -35.3835 -35.3717 -35.3333 -35.2765 -35.2620 -35.2461 -35.2216
   -35.1971 -35.1357 -35.1235 -35.1042 -35.0968 -35.0760 -35.0637 -35.0043
    -9.5572  -3.5468  -3.4572  -2.7191  -2.6457  -2.0190  -1.9516  -1.3516
    -1.2502  -1.2446  -1.2006  -1.1098  -0.9843  -0.4344  -0.3427  -0.1231
    -0.0897  -0.0156   0.1502   0.2873   0.4483   0.4746   0.5406   0.7531
     0.8038   1.0452   1.1091   1.3769   1.4500   1.5162   1.6053   1.6601
     1.7008   1.8014   1.8799   1.9752   2.0908   2.2566   2.3059   2.4164
     2.7287   2.9066   3.1825   3.3549   3.5939   3.7337   3.8764   3.9337
     4.0742

     the Fermi energy is     2.7549 ev

!    total energy              =   -1940.00321730 Ry
     Harris-Foulkes estimate   =   -1940.00321713 Ry
     estimated scf accuracy    <       0.00000003 Ry

     The total energy is the sum of the following terms:

     one-electron contribution =  -14775.03171071 Ry
     hartree contribution      =    7375.16265308 Ry
     xc contribution           =    -516.44283045 Ry
     ewald contribution        =    5976.39316060 Ry
     electric field correction =       0.00004106 Ry
     smearing contrib. (-TS)   =      -0.08453088 Ry

     convergence has been achieved in   9 iterations

 BEEF-vdW xc energy contributions
           1 :   -454.155576811305
           2 :    419.883498402542
           3 :   -359.700756876628
           4 :    286.907138554258
           5 :   -215.157141770474
           6 :    154.605980708809
           7 :   -109.820653324818
           8 :    79.9104183920305
           9 :   -60.4793903837698
          10 :    46.3255974738676
          11 :   -33.6751053347419
          12 :    21.1525029340720
          13 :   -9.41243905399466
          14 :  -3.913849694879445E-002
          15 :    6.08215123204070
          16 :   -8.69119364526364
          17 :    8.90817324759939
          18 :   -8.25335579178557
          19 :    7.97584004341985
          20 :   -8.54937152756838
          21 :    9.63378757768567
          22 :   -10.4575270594333
          23 :    10.3653618880269
          24 :   -9.22153068858728
          25 :    7.47246626434833
          26 :   -5.87425606626721
          27 :    5.06492805273388
          28 :   -5.22878924264933
          29 :    6.02778372923763
          30 :   -6.81574689315784
          31 :   -41.3211538747410
          32 :   -30.9016589101930

     Forces acting on atoms (Ry/au):

     negative rho (up, down):  7.924E-01 0.000E+00
     atom    1 type  1   force =    -0.00130951    0.00015904    0.00201213
     atom    2 type  1   force =     0.00104927   -0.00186537    0.00182405
     atom    3 type  1   force =     0.00119392    0.00144649    0.00253893
     atom    4 type  1   force =     0.00034916    0.00021575   -0.00792539
     atom    5 type  1   force =    -0.00480175   -0.03181954    0.01050805
     atom    6 type  1   force =     0.00059703   -0.00043939   -0.02958763
     atom    7 type  1   force =     0.03002017    0.01089896    0.01117250
     atom    8 type  1   force =    -0.02543304    0.02132383    0.01057333
     atom    9 type  1   force =     0.00007809   -0.00000966   -0.00004013
     atom   10 type  1   force =     0.00040621   -0.00014612   -0.00048112
     atom   11 type  1   force =    -0.00063824    0.00072623    0.00003732
     atom   12 type  1   force =    -0.00035773   -0.00054761   -0.00044560
     atom   13 type  2   force =    -0.00102183   -0.00003277   -0.00023284
     atom   14 type  3   force =     0.00125996    0.00048328   -0.00003208
     atom   15 type  3   force =    -0.00096304   -0.00025374    0.00006577
     atom   16 type  3   force =    -0.00042868   -0.00013936    0.00001270

     Total force =     0.002472     Total SCF correction =     0.000312
     SCF correction compared to forces is large: reduce conv_thr to get better values

     entering subroutine stress ...

     negative rho (up, down):  7.924E-01 0.000E+00
          total   stress  (Ry/bohr**3)                   (kbar)     P=  -41.49
  -0.00038410   0.00000268  -0.00000393        -56.50      0.39     -0.58
   0.00000268  -0.00038108   0.00000017          0.39    -56.06      0.02
  -0.00000393   0.00000017  -0.00008100         -0.58      0.02    -11.92

     bfgs converged in  25 scf cycles and  24 bfgs steps
     (criteria: energy <  1.0E+00, force <  1.9E-03)

     End of BFGS Geometry Optimization

     Final energy   =   -1940.0032173003 Ry
Begin final coordinates

ATOMIC_POSITIONS (crystal)
W1       0.166666667   0.166666667   0.405441099    0   0   0
W1       0.666666667   0.166666667   0.405441099    0   0   0
W1       0.166666667   0.666666667   0.405441099    0   0   0
W1       0.666666667   0.666666667   0.405441099    0   0   0
W1       0.833333333   0.333333333   0.500000000    0   0   0
W1       0.333333333   0.333333333   0.500000000    0   0   0
W1       0.833333333   0.833333333   0.500000000    0   0   0
W1       0.333333333   0.833333333   0.500000000    0   0   0
W1      -0.001991876   0.000302312   0.612099389
W1       0.530641487  -0.005124346   0.588851619
W1      -0.009411055   0.472509749   0.588838644
W1       0.467999288   0.532903537   0.588737083
C1       0.006648883   0.000127923   0.698913057
H1       0.183292001   0.006233463   0.714359657
H1       0.825642969   0.176077833   0.715255400
H1       0.014424152   0.817622019   0.715133175
End final coordinates

     Writing output data file calc.save

     General routines

     Parallel routines

   This run was terminated on:  22: 2:36  24Apr2018

   JOB DONE.
Job  /afs/slac/g/suncat/bin/suncat-tsmpirun -x LD_LIBRARY_PATH -wdir /scratch/qe111413_ATRFM pw.x -npool 4 -in pw.inp

TID   HOST_NAME   COMMAND_LINE            STATUS            TERMINATION_TIME
00000 suncat0002 pw.x -npool 4 -i  Done                     04/24/2018 22:02:36
00001 suncat0002 pw.x -npool 4 -i  Done                     04/24/2018 22:02:36
00002 suncat0002 pw.x -npool 4 -i  Done                     04/24/2018 22:02:36
00003 suncat0002 pw.x -npool 4 -i  Done                     04/24/2018 22:02:36
00004 suncat0002 pw.x -npool 4 -i  Done                     04/24/2018 22:02:36
00005 suncat0002 pw.x -npool 4 -i  Done                     04/24/2018 22:02:36
00006 suncat0002 pw.x -npool 4 -i  Done                     04/24/2018 22:02:36
00007 suncat0002 pw.x -npool 4 -i  Done                     04/24/2018 22:02:36
00008 suncat0168 pw.x -npool 4 -i  Done                     04/24/2018 22:02:36
00009 suncat0168 pw.x -npool 4 -i  Done                     04/24/2018 22:02:36
00010 suncat0168 pw.x -npool 4 -i  Done                     04/24/2018 22:02:36
00011 suncat0168 pw.x -npool 4 -i  Done                     04/24/2018 22:02:36
00012 suncat0168 pw.x -npool 4 -i  Done                     04/24/2018 22:02:36
00013 suncat0168 pw.x -npool 4 -i  Done                     04/24/2018 22:02:36
00014 suncat0168 pw.x -npool 4 -i  Done                     04/24/2018 22:02:36
00015 suncat0168 pw.x -npool 4 -i  Done                     04/24/2018 22:02:36
00016 suncat0153 pw.x -npool 4 -i  Done                     04/24/2018 22:02:36
00017 suncat0153 pw.x -npool 4 -i  Done                     04/24/2018 22:02:36
00018 suncat0153 pw.x -npool 4 -i  Done                     04/24/2018 22:02:36
00019 suncat0153 pw.x -npool 4 -i  Done                     04/24/2018 22:02:36
00020 suncat0153 pw.x -npool 4 -i  Done                     04/24/2018 22:02:36
00021 suncat0153 pw.x -npool 4 -i  Done                     04/24/2018 22:02:36
00022 suncat0153 pw.x -npool 4 -i  Done                     04/24/2018 22:02:36
00023 suncat0153 pw.x -npool 4 -i  Done                     04/24/2018 22:02:36
00024 suncat0139 pw.x -npool 4 -i  Done                     04/24/2018 22:02:36
00025 suncat0139 pw.x -npool 4 -i  Done                     04/24/2018 22:02:36
00026 suncat0139 pw.x -npool 4 -i  Done                     04/24/2018 22:02:36
00027 suncat0139 pw.x -npool 4 -i  Done                     04/24/2018 22:02:36
00028 suncat0139 pw.x -npool 4 -i  Done                     04/24/2018 22:02:36
00029 suncat0139 pw.x -npool 4 -i  Done                     04/24/2018 22:02:36
00030 suncat0139 pw.x -npool 4 -i  Done                     04/24/2018 22:02:36
00031 suncat0139 pw.x -npool 4 -i  Done                     04/24/2018 22:02:36