     Program PWSCF v.5.1rc2 (svn rev. 11289) starts on 16Jan2018 at 17:31:38

     Current dimensions of program PWSCF are:
     Max number of different atomic species (ntypx) = 10
     Max number of k-points (npk) =  40000
     Max angular momentum in pseudopotentials (lmaxx) =  3
     Presently stress not available with electric field

     IMPORTANT: XC functional enforced from input :
     Exchange-correlation      = BEEF-VDW ( 1  4 27 13 2)
     Any further DFT definition will be discarded
     Please, verify this is what you really want

     Subspace diagonalization in iterative solution of the eigenvalue problem:
     a serial algorithm will be used

     bravais-lattice index     =            0
     lattice parameter (alat)  =       1.8897  a.u.
     unit-cell volume          =    7171.5276 (a.u.)^3
     number of atoms/cell      =           13
     number of atomic types    =            2
     number of electrons       =       169.00
     number of Kohn-Sham states=           94
     kinetic-energy cutoff     =      36.7493  Ry
     charge density cutoff     =     367.4932  Ry
     convergence threshold     =      1.0E-05
     mixing beta               =       0.3000
     number of iterations used =           10  plain     mixing
     Exchange-correlation      = BEEF-VDW ( 1  4 27 13 2)
     nstep                     =           50

     celldm(1)=   1.889726  celldm(2)=   0.000000  celldm(3)=   0.000000
     celldm(4)=   0.000000  celldm(5)=   0.000000  celldm(6)=   0.000000

     crystal axes: (cart. coord. in units of alat)
               a(1) = (   6.917003   0.000000   0.000000 )
               a(2) = (   3.458501   5.990300   0.000000 )
               a(3) = (   0.000000   0.000000  25.647709 )

     reciprocal axes: (cart. coord. in units 2 pi/alat)
               b(1) = (  0.144571 -0.083468  0.000000 )
               b(2) = (  0.000000  0.166937  0.000000 )
               b(3) = (  0.000000  0.000000  0.038990 )

     PseudoPot. # 1 for Pb read from file:
     /afs/slac.stanford.edu/u/if/mamunm/psp/gbrv1.5pbe/Pb.UPF
     MD5 check sum: 3d1c1779aa92214d1e8f3a7db79003e2
     Pseudo is Ultrasoft + core correction, Zval = 14.0
     Generated by new atomic code, or converted to UPF format
     Using radial grid of  899 points,  6 beta functions with:
                l(1) =   0
                l(2) =   0
                l(3) =   1
                l(4) =   1
                l(5) =   2
                l(6) =   2
     Q(r) pseudized with  6 coefficients,  rinner =    1.000   1.000   1.000
                                                       1.000   1.000

     PseudoPot. # 2 for H  read from file:
     /afs/slac.stanford.edu/u/if/mamunm/psp/gbrv1.5pbe/H.UPF
     MD5 check sum: 761ae9a214b05c3daf00ab9f6b793d6f
     Pseudo is Ultrasoft, Zval =  1.0
     Generated by new atomic code, or converted to UPF format
     Using radial grid of  615 points,  2 beta functions with:
                l(1) =   0
                l(2) =   0
     Q(r) pseudized with  8 coefficients,  rinner =    0.700

     vdW kernel table read from file vdW_kernel_table
     MD5 check sum: 095c7af220d748ca6e76c0b4c6cfb241

     atomic species   valence    mass     pseudopotential
        Pb1           14.00   207.20000     Pb( 1.00)
        H1             1.00     1.00800     H ( 1.00)

     No symmetry found

   Cartesian axes

     site n.     atom                  positions (alat units)
         1           Pb1 tau(   1) = (   1.7292506   0.9983833  10.0000000  )
         2           Pb1 tau(   2) = (   5.1877519   0.9983833  10.0000000  )
         3           Pb1 tau(   3) = (   3.4585013   3.9935333  10.0000000  )
         4           Pb1 tau(   4) = (   6.9170025   3.9935333  10.0000000  )
         5           Pb1 tau(   5) = (   6.9170025   1.9967666  12.8238544  )
         6           Pb1 tau(   6) = (   3.4585013   1.9967666  12.8238544  )
         7           Pb1 tau(   7) = (   8.6462531   4.9919166  12.8238544  )
         8           Pb1 tau(   8) = (   5.1877519   4.9919166  12.8238544  )
         9           Pb1 tau(   9) = (   0.0000000   0.0000000  15.6477089  )
        10           Pb1 tau(  10) = (   3.4585013   0.0000000  15.6477089  )
        11           Pb1 tau(  11) = (   1.7292506   2.9951499  15.6477089  )
        12           Pb1 tau(  12) = (   5.1877519   2.9951499  15.6477089  )
        13           H1  tau(  13) = (   1.7292506   0.9983833  17.4177089  )

     number of k points=    20  Fermi-Dirac smearing, width (Ry)=  0.0110
                       cart. coord. in units 2pi/alat
        k(    1) = (   0.0000000   0.0000000   0.0000000), wk =   0.0555556
        k(    2) = (   0.0000000   0.0278228   0.0000000), wk =   0.1111111
        k(    3) = (   0.0000000   0.0556455   0.0000000), wk =   0.1111111
        k(    4) = (   0.0000000  -0.0834683   0.0000000), wk =   0.0555556
        k(    5) = (   0.0240952  -0.0139114   0.0000000), wk =   0.1111111
        k(    6) = (   0.0240952   0.0139114   0.0000000), wk =   0.1111111
        k(    7) = (   0.0240952   0.0417341   0.0000000), wk =   0.1111111
        k(    8) = (   0.0240952  -0.0973797   0.0000000), wk =   0.1111111
        k(    9) = (   0.0240952  -0.0695569   0.0000000), wk =   0.1111111
        k(   10) = (   0.0240952  -0.0417341   0.0000000), wk =   0.1111111
        k(   11) = (   0.0481904  -0.0278228   0.0000000), wk =   0.1111111
        k(   12) = (   0.0481904   0.0000000   0.0000000), wk =   0.1111111
        k(   13) = (   0.0481904   0.0278228   0.0000000), wk =   0.1111111
        k(   14) = (   0.0481904  -0.1112910   0.0000000), wk =   0.1111111
        k(   15) = (   0.0481904  -0.0834683   0.0000000), wk =   0.1111111
        k(   16) = (   0.0481904  -0.0556455   0.0000000), wk =   0.1111111
        k(   17) = (  -0.0722856   0.0417341   0.0000000), wk =   0.0555556
        k(   18) = (  -0.0722856   0.0695569   0.0000000), wk =   0.1111111
        k(   19) = (  -0.0722856   0.0973797   0.0000000), wk =   0.1111111
        k(   20) = (  -0.0722856  -0.0417341   0.0000000), wk =   0.0555556

     Largest allocated arrays     est. size (Mb)     dimensions
     Largest temporary arrays     est. size (Mb)     dimensions

     Check: negative/imaginary core charge=   -0.000001    0.000000

     Initial potential from superposition of free atoms
     Check: negative starting charge=   -0.198285

     starting charge  168.97177, renormalised to  169.00000

     negative rho (up, down):  1.983E-01 0.000E+00

     *
     * You are using vdW-DF for exchange-correlation in this calculation.
     * Please cite the following three references that made this development
     * possible:
     *
     *   M. Dion, H. Rydberg, E. Schroder, D. C. Langreth, and
     *   B. I. Lundqvist, Phys. Rev. Lett. 92, 246401 (2004).
     *
     *   T. Thonhauser, V. R. Cooper, S. Li, A. Puzder, P. Hyldgaard, and
     *   D. C. Langreth, Phys. Rev. B 76, 125112 (2007).
     *
     *   G. Roman-Perez and J. M. Soler, Phys. Rev. Lett. 103, 096102 (2009).
     *
     *
     * If you are using vdW-DF2, please also cite:
     *
     *   K. Lee, E. D. Murray, L. Kong, B. I. Lundqvist, and
     *   D. C. Langreth, Phys. Rev. B 82, 081101(R) (2010).
     *
     *
     * If you are calculating the stress with vdW-DF, please also cite:
     *
     *   R. Sabatini, E. Kucukbenli, B. Kolb, T. Thonhauser, and
     *   S. de Gironcoli, J. Phys.: Condens. Matter 24, 424209 (2012).
     *

     Carrying out vdW-DF run using the following parameters:

     Nqs =      20    Nr_points =    1024   r_max =   100.000
     q_mesh =
               0.00001000     0.04494208     0.09755937     0.15916263
               0.23128650     0.31572767     0.41458969     0.53033537
               0.66584808     0.82450364     1.01025438     1.22772762
               1.48234092     1.78043706     2.12944203     2.53805004
               3.01644009     3.57652955     4.23227104     5.00000000

     Gradients computed in reciprocal space

     Adding external electric field

     Computed dipole along edir(3) :
        Dipole               -0.0014 Ry au,         -0.0035 Debye
        Dipole field         -0.0000 Ry au

        Potential amp.        0.0002 Ry
        Total length         47.2555 bohr

     Starting wfc are  109 randomized atomic wfcs

     Self-consistent Calculation

     iteration #  1     ecut=    36.75 Ry     beta=0.30
     Davidson diagonalization with overlap
     ethr =  1.00E-02,  avg # of iterations =  2.0

     Threshold (ethr) on eigenvalues was too large:
     Diagonalizing with lowered threshold

     Davidson diagonalization with overlap
     ethr =  1.58E-04,  avg # of iterations =  2.4

[...]

     total energy              =   -1993.26247865 Ry
     Harris-Foulkes estimate   =   -1993.37124123 Ry
     estimated scf accuracy    <       0.28593041 Ry

[...]

     End of self-consistent calculation

          k = 0.0000 0.0000 0.0000 ( 27033 PWs)   bands (ev):

   -16.6384 -16.6313 -16.6313 -16.5918 -16.5861 -16.5861 -16.5510 -16.5445
   -16.5402 -16.5402 -16.5201 -16.5056 -16.5056 -16.4990 -16.4990 -16.4989
   -16.4871 -16.4720 -16.4720 -16.4673 -16.4673 -16.4585 -16.4571 -16.4571
   -16.4485 -16.4485 -16.4440 -16.4431 -16.4282 -16.4282 -16.3795 -16.3672
   -16.3671 -16.3454 -16.3454 -16.3304 -16.3304 -16.3155 -16.3155 -16.2950
   -16.2573 -16.2572 -16.2560 -16.2325 -16.2325 -16.2294 -16.2276 -16.2262
   -16.2261 -16.2093 -16.2085 -16.2085 -16.1955 -16.1955 -16.1854 -16.1780
   -16.1780 -16.1537 -16.1537 -16.1433 -10.5833  -9.4848  -7.9719  -7.0404
    -7.0345  -7.0345  -6.6125  -6.6124  -6.5934  -5.9761  -5.9700  -5.9700
    -2.9025  -2.7451  -2.7451  -2.4714  -1.9399  -1.6960  -1.6960  -1.6374
    -1.5669  -1.5669  -0.1930   1.2779   2.1500   2.1500   2.1549   2.1887
     2.1887   2.5122   3.4727   3.5622   3.5622   3.5635

[...]

          k =-0.0723 0.0417 0.0000 ( 26962 PWs)   bands (ev):

[...]

     the Fermi energy is     1.0093 ev

!    total energy              =   -1993.33186936 Ry
     Harris-Foulkes estimate   =   -1993.33189157 Ry
     estimated scf accuracy    <       0.00000354 Ry

     The total energy is the sum of the following terms:

     one-electron contribution =   -9423.31487983 Ry
     hartree contribution      =    4780.56373246 Ry
     xc contribution           =    -784.52987156 Ry
     ewald contribution        =    3433.98956827 Ry
     electric field correction =       0.00014935 Ry
     smearing contrib. (-TS)   =      -0.04056804 Ry

     convergence has been achieved in   9 iterations

 BEEF-vdW xc energy contributions
           1 :   -699.411775234555
           2 :    649.753788031332
           3 :   -562.278186677839
           4 :    456.113276914865
           5 :   -351.026084422771
           6 :    261.495338984625
           7 :   -193.562875796610
           8 :    145.229854735418
           9 :   -109.715544294320
          10 :    79.7968357746962
          11 :   -51.2125898775313
          12 :    23.8091546946814
          13 :  -0.353407811221359
          14 :   -15.9442725938742
          15 :    23.6971528760610
          16 :   -24.2591170134770
[...]
00030 suncat0214 pw.x -in pw.inp   Done                     01/16/2018 17:42:28
00031 suncat0214 pw.x -in pw.inp   Done                     01/16/2018 17:42:28

[...]

   This run was terminated on:  18: 4:24  16Jan2018

[...]

     Program PWSCF v.5.1rc2 (svn rev. 11289) starts on 16Jan2018 at 18: 4:30

[...]

     Program PWSCF v.5.1rc2 (svn rev. 11289) starts on 16Jan2018 at 23: 1:32

[...]

   This run was terminated on:  23:56:25  16Jan2018

[...]

     Program PWSCF v.5.1rc2 (svn rev. 11289) starts on 16Jan2018 at 23:56:30

     Current dimensions of program PWSCF are:
     Max number of different atomic species (ntypx) = 10
     Max number of k-points (npk) =  40000
     Max angular momentum in pseudopotentials (lmaxx) =  3
     Presently stress not available with electric field

     IMPORTANT: XC functional enforced from input :
     Exchange-correlation      = BEEF-VDW ( 1  4 27 13 2)
     Any further DFT definition will be discarded
     Please, verify this is what you really want

     Subspace diagonalization in iterative solution of the eigenvalue problem:
     a serial algorithm will be used

     bravais-lattice index     =            0
     lattice parameter (alat)  =       1.8897  a.u.
     unit-cell volume          =    7171.5276 (a.u.)^3
     number of atoms/cell      =           13
     number of atomic types    =            2
     number of electrons       =       169.00
     number of Kohn-Sham states=           94
     kinetic-energy cutoff     =      36.7493  Ry
     charge density cutoff     =     367.4932  Ry
     convergence threshold     =      1.0E-05
     mixing beta               =       0.3000
     number of iterations used =           10  plain     mixing
     Exchange-correlation      = BEEF-VDW ( 1  4 27 13 2)
     nstep                     =           50

     celldm(1)=   1.889726  celldm(2)=   0.000000  celldm(3)=   0.000000
     celldm(4)=   0.000000  celldm(5)=   0.000000  celldm(6)=   0.000000

     crystal axes: (cart. coord. in units of alat)
               a(1) = (   6.917003   0.000000   0.000000 )
               a(2) = (   3.458501   5.990300   0.000000 )
               a(3) = (   0.000000   0.000000  25.647709 )

     reciprocal axes: (cart. coord. in units 2 pi/alat)
               b(1) = (  0.144571 -0.083468  0.000000 )
               b(2) = (  0.000000  0.166937  0.000000 )
               b(3) = (  0.000000  0.000000  0.038990 )

     PseudoPot. # 1 for Pb read from file:
     /afs/slac.stanford.edu/u/if/mamunm/psp/gbrv1.5pbe/Pb.UPF
     MD5 check sum: 3d1c1779aa92214d1e8f3a7db79003e2
     Pseudo is Ultrasoft + core correction, Zval = 14.0
     Generated by new atomic code, or converted to UPF format
     Using radial grid of  899 points,  6 beta functions with:
                l(1) =   0
                l(2) =   0
                l(3) =   1
                l(4) =   1
                l(5) =   2
                l(6) =   2
     Q(r) pseudized with  6 coefficients,  rinner =    1.000   1.000   1.000
                                                       1.000   1.000

     PseudoPot. # 2 for H  read from file:
     /afs/slac.stanford.edu/u/if/mamunm/psp/gbrv1.5pbe/H.UPF
     MD5 check sum: 761ae9a214b05c3daf00ab9f6b793d6f
     Pseudo is Ultrasoft, Zval =  1.0
     Generated by new atomic code, or converted to UPF format
     Using radial grid of  615 points,  2 beta functions with:
                l(1) =   0
                l(2) =   0
     Q(r) pseudized with  8 coefficients,  rinner =    0.700

     vdW kernel table read from file vdW_kernel_table
     MD5 check sum: 095c7af220d748ca6e76c0b4c6cfb241

     atomic species   valence    mass     pseudopotential
        Pb1           14.00   207.20000     Pb( 1.00)
        H1             1.00     1.00800     H ( 1.00)

     No symmetry found

   Cartesian axes

     site n.     atom                  positions (alat units)
         1           Pb1 tau(   1) = (   1.7292506   0.9983833  10.0000000  )
         2           Pb1 tau(   2) = (   5.1877519   0.9983833  10.0000000  )
         3           Pb1 tau(   3) = (   3.4585013   3.9935333  10.0000000  )
         4           Pb1 tau(   4) = (   6.9170025   3.9935333  10.0000000  )
         5           Pb1 tau(   5) = (   6.9170025   1.9967666  12.8238544  )
         6           Pb1 tau(   6) = (   3.4585013   1.9967666  12.8238544  )
         7           Pb1 tau(   7) = (   8.6462531   4.9919166  12.8238544  )
         8           Pb1 tau(   8) = (   5.1877519   4.9919166  12.8238544  )
         9           Pb1 tau(   9) = (   0.0082018   0.0050201  15.9227754  )
        10           Pb1 tau(  10) = (   3.4500802   0.0049579  15.9225703  )
        11           Pb1 tau(  11) = (   1.7294062   2.9857496  15.9218239  )
        12           Pb1 tau(  12) = (   5.1877323   2.9953739  15.7444344  )
        13           H1  tau(  13) = (   1.7292651   0.9984545  17.0839013  )

     number of k points=    20  Fermi-Dirac smearing, width (Ry)=  0.0110
                       cart. coord. in units 2pi/alat
        k(    1) = (   0.0000000   0.0000000   0.0000000), wk =   0.0555556
        k(    2) = (   0.0000000   0.0278228   0.0000000), wk =   0.1111111
        k(    3) = (   0.0000000   0.0556455   0.0000000), wk =   0.1111111
        k(    4) = (   0.0000000  -0.0834683   0.0000000), wk =   0.0555556
        k(    5) = (   0.0240952  -0.0139114   0.0000000), wk =   0.1111111
        k(    6) = (   0.0240952   0.0139114   0.0000000), wk =   0.1111111
        k(    7) = (   0.0240952   0.0417341   0.0000000), wk =   0.1111111
        k(    8) = (   0.0240952  -0.0973797   0.0000000), wk =   0.1111111
        k(    9) = (   0.0240952  -0.0695569   0.0000000), wk =   0.1111111
        k(   10) = (   0.0240952  -0.0417341   0.0000000), wk =   0.1111111
        k(   11) = (   0.0481904  -0.0278228   0.0000000), wk =   0.1111111
        k(   12) = (   0.0481904   0.0000000   0.0000000), wk =   0.1111111
        k(   13) = (   0.0481904   0.0278228   0.0000000), wk =   0.1111111
        k(   14) = (   0.0481904  -0.1112910   0.0000000), wk =   0.1111111
        k(   15) = (   0.0481904  -0.0834683   0.0000000), wk =   0.1111111
        k(   16) = (   0.0481904  -0.0556455   0.0000000), wk =   0.1111111
        k(   17) = (  -0.0722856   0.0417341   0.0000000), wk =   0.0555556
        k(   18) = (  -0.0722856   0.0695569   0.0000000), wk =   0.1111111
        k(   19) = (  -0.0722856   0.0973797   0.0000000), wk =   0.1111111
        k(   20) = (  -0.0722856  -0.0417341   0.0000000), wk =   0.0555556

     Largest allocated arrays     est. size (Mb)     dimensions
     Largest temporary arrays     est. size (Mb)     dimensions

     Check: negative/imaginary core charge=   -0.000001    0.000000

     Initial potential from superposition of free atoms
     Check: negative starting charge=   -0.196725

     starting charge  168.97177, renormalised to  169.00000

[...]

     *
     * You are using vdW-DF for exchange-correlation in this calculation.
     * Please cite the following three references that made this development
     * possible:
     *
     *   M. Dion, H. Rydberg, E. Schroder, D. C. Langreth, and
     *   B. I. Lundqvist, Phys. Rev. Lett. 92, 246401 (2004).
     *
     *   T. Thonhauser, V. R. Cooper, S. Li, A. Puzder, P. Hyldgaard, and
     *   D. C. Langreth, Phys. Rev. B 76, 125112 (2007).
     *
     *   G. Roman-Perez and J. M. Soler, Phys. Rev. Lett. 103, 096102 (2009).
     *
     *
     * If you are using vdW-DF2, please also cite:
     *
     *   K. Lee, E. D. Murray, L. Kong, B. I. Lundqvist, and
     *   D. C. Langreth, Phys. Rev. B 82, 081101(R) (2010).
     *
     *
     * If you are calculating the stress with vdW-DF, please also cite:
     *
     *   R. Sabatini, E. Kucukbenli, B. Kolb, T. Thonhauser, and
     *   S. de Gironcoli, J. Phys.: Condens. Matter 24, 424209 (2012).
     *

     Carrying out vdW-DF run using the following parameters:

     Nqs =      20    Nr_points =    1024   r_max =   100.000
     q_mesh =
               0.00001000     0.04494208     0.09755937     0.15916263
               0.23128650     0.31572767     0.41458969     0.53033537
               0.66584808     0.82450364     1.01025438     1.22772762
               1.48234092     1.78043706     2.12944203     2.53805004
               3.01644009     3.57652955     4.23227104     5.00000000

     Gradients computed in reciprocal space

[...]

     Starting wfc are  109 randomized atomic wfcs

     Self-consistent Calculation

[...]

     Threshold (ethr) on eigenvalues was too large:
     Diagonalizing with lowered threshold

     Davidson diagonalization with overlap
     ethr =  9.51E-05,  avg # of iterations =  3.7

[...]

     total energy              =   -1993.35950270 Ry
     Harris-Foulkes estimate   =   -1993.35951959 Ry
     estimated scf accuracy    <       0.00001157 Ry

     iteration #  9     ecut=    36.75 Ry     beta=0.30
     Davidson diagonalization with overlap
     ethr =  6.84E-09,  avg # of iterations =  5.0

[...]

     negative rho (up, down):  2.125E-01 0.000E+00

     Adding external electric field

     Computed dipole along edir(3) :
        Dipole               -0.0675 Ry au,         -0.1716 Debye
        Dipole field         -0.0001 Ry au

        Potential amp.        0.0112 Ry
        Total length         47.2555 bohr

     End of self-consistent calculation

[...]

          k = 0.0482-0.0556 0.0000 ( 26956 PWs)   bands (ev):

[...]

          k =-0.0723-0.0417 0.0000 ( 26962 PWs)   bands (ev):

   -16.4482 -16.4037 -16.3906 -16.3754 -16.3747 -16.3502 -16.3409 -16.3359
   -16.3354 -16.3248 -16.3233 -16.3218 -16.3196 -16.3128 -16.3071 -16.3022
   -16.3005 -16.2983 -16.2951 -16.2901 -16.2900 -16.2753 -16.2745 -16.2654
   -16.2603 -16.2586 -16.2562 -16.2537 -16.2443 -16.2347 -16.2310 -16.2249
   -16.2206 -16.2141 -16.2082 -16.1944 -16.1887 -16.1854 -16.1780 -16.1739
   -16.1694 -16.1667 -16.1646 -16.1542 -16.1369 -16.1307 -16.1266 -16.1260
   -16.1225 -16.1187 -16.1146 -16.1103 -16.1070 -16.0851 -16.0803 -16.0726
   -16.0615 -16.0512 -16.0174 -16.0151  -9.2024  -9.1705  -8.4287  -8.2191
    -7.2478  -7.1977  -7.1217  -7.0316  -6.5313  -6.5131  -5.7797  -5.7683
    -2.2315  -0.9448  -0.8404  -0.8235  -0.7978  -0.6852  -0.4592  -0.0637
     0.2687   0.6956   0.7468   0.8820   1.3083   1.7865   1.8051   1.8569
     1.9783   2.1599   2.2647   2.3566   2.4391   2.5655

     the Fermi energy is     1.1521 ev

!    total energy              =   -1993.35948971 Ry
     Harris-Foulkes estimate   =   -1993.35952201 Ry
     estimated scf accuracy    <       0.00000307 Ry

     The total energy is the sum of the following terms:

     one-electron contribution =   -9134.03372210 Ry
     hartree contribution      =    4636.64460687 Ry
     xc contribution           =    -784.45396790 Ry
     ewald contribution        =    3288.52210921 Ry
     electric field correction =       0.00000799 Ry
     smearing contrib. (-TS)   =      -0.03852377 Ry

     convergence has been achieved in   9 iterations

 BEEF-vdW xc energy contributions
           1 :   -699.332248347876
           2 :    649.609334915698
           3 :   -562.039288226105
           4 :    455.818739427782
           5 :   -350.773344888744
           6 :    261.379083983584
           7 :   -193.606800909761
           8 :    145.361358232842
           9 :   -109.803835272775
          10 :    79.7326855951793
          11 :   -50.9798004909715
          12 :    23.5018485307157
          13 :  -0.125734911521704
          14 :   -15.9686236538898
          15 :    23.5023004921799
          16 :   -23.9532198790961
          17 :    20.7724950414110
          18 :   -17.6085477994520
          19 :    16.6160577833646
          20 :   -17.7485274892256
          21 :    19.3008714971294
          22 :   -19.2671735253651
          23 :    16.6769654925267
          24 :   -12.1713943419214
          25 :    7.57282784418680
          26 :   -4.78787740486541
          27 :    4.72378828342949
          28 :   -6.83273195509219
          29 :    9.49662819512946
          30 :   -10.9825923426897
          31 :   -55.8816738499834
          32 :   -40.9536662597574

     Forces acting on atoms (Ry/au):

     negative rho (up, down):  2.125E-01 0.000E+00
     atom    1 type  1   force =    -0.00000442   -0.00003401   -0.01039279
     atom    2 type  1   force =     0.00001587   -0.00031721   -0.00884684
     atom    3 type  1   force =    -0.00027767    0.00017861   -0.00881560
     atom    4 type  1   force =     0.00027690    0.00018942   -0.00885088
     atom    5 type  1   force =     0.00299228   -0.00174860    0.00981327
     atom    6 type  1   force =    -0.00299260   -0.00175103    0.00975995
     atom    7 type  1   force =     0.00000049    0.00000114    0.00731219
     atom    8 type  1   force =    -0.00000570    0.00346340    0.00978611
     atom    9 type  1   force =    -0.00001007   -0.00001130    0.00026312
     atom   10 type  1   force =     0.00002103   -0.00001068    0.00026801
     atom   11 type  1   force =    -0.00000995    0.00003967    0.00022946
     atom   12 type  1   force =    -0.00000585   -0.00000138   -0.00014344
     atom   13 type  2   force =    -0.00000031    0.00000198   -0.00038257

     Total force =     0.026830     Total SCF correction =     0.010050
     SCF correction compared to forces is large: reduce conv_thr to get better values

     entering subroutine stress ...

     negative rho (up, down):  2.125E-01 0.000E+00
          total   stress  (Ry/bohr**3)                   (kbar)     P=    7.57
   0.00006724   0.00000000   0.00000000          9.89      0.00      0.00
   0.00000000   0.00006724  -0.00000001          0.00      9.89     -0.00
   0.00000000  -0.00000001   0.00001991          0.00     -0.00      2.93

 !ASE

     Writing output data file calc.save

     General routines

     Parallel routines

   This run was terminated on:   0: 7:24  17Jan2018

   JOB DONE.
Job  /afs/slac/g/suncat/bin/suncat-tsmpirun -x LD_LIBRARY_PATH -wdir /scratch/qe842467_Qkyn4 pw.x -in pw.inp

TID   HOST_NAME   COMMAND_LINE            STATUS            TERMINATION_TIME
00000 suncat0100 pw.x -in pw.inp   Done                     01/17/2018 00:07:24
00001 suncat0100 pw.x -in pw.inp   Done                     01/17/2018 00:07:24
00002 suncat0100 pw.x -in pw.inp   Done                     01/17/2018 00:07:24
00003 suncat0100 pw.x -in pw.inp   Done                     01/17/2018 00:07:24
00004 suncat0100 pw.x -in pw.inp   Done                     01/17/2018 00:07:24
00005 suncat0100 pw.x -in pw.inp   Done                     01/17/2018 00:07:24
00006 suncat0100 pw.x -in pw.inp   Done                     01/17/2018 00:07:24
00007 suncat0100 pw.x -in pw.inp   Done                     01/17/2018 00:07:24
00008 suncat0283 pw.x -in pw.inp   Done                     01/17/2018 00:07:24
00009 suncat0283 pw.x -in pw.inp   Done                     01/17/2018 00:07:24
00010 suncat0283 pw.x -in pw.inp   Done                     01/17/2018 00:07:24
00011 suncat0283 pw.x -in pw.inp   Done                     01/17/2018 00:07:24
00012 suncat0283 pw.x -in pw.inp   Done                     01/17/2018 00:07:24
00013 suncat0283 pw.x -in pw.inp   Done                     01/17/2018 00:07:24
00014 suncat0283 pw.x -in pw.inp   Done                     01/17/2018 00:07:24
00015 suncat0283 pw.x -in pw.inp   Done                     01/17/2018 00:07:24
00016 suncat0282 pw.x -in pw.inp   Done                     01/17/2018 00:07:24
00017 suncat0282 pw.x -in pw.inp   Done                     01/17/2018 00:07:24
00018 suncat0282 pw.x -in pw.inp   Done                     01/17/2018 00:07:24
00019 suncat0282 pw.x -in pw.inp   Done                     01/17/2018 00:07:24
00020 suncat0282 pw.x -in pw.inp   Done                     01/17/2018 00:07:24
00021 suncat0282 pw.x -in pw.inp   Done                     01/17/2018 00:07:24
00022 suncat0282 pw.x -in pw.inp   Done                     01/17/2018 00:07:24
00023 suncat0282 pw.x -in pw.inp   Done                     01/17/2018 00:07:24
00024 suncat0214 pw.x -in pw.inp   Done                     01/17/2018 00:07:24
00025 suncat0214 pw.x -in pw.inp   Done                     01/17/2018 00:07:24
00026 suncat0214 pw.x -in pw.inp   Done                     01/17/2018 00:07:24
00027 suncat0214 pw.x -in pw.inp   Done                     01/17/2018 00:07:24
00028 suncat0214 pw.x -in pw.inp   Done                     01/17/2018 00:07:24
00029 suncat0214 pw.x -in pw.inp   Done                     01/17/2018 00:07:24
00030 suncat0214 pw.x -in pw.inp   Done                     01/17/2018 00:07:24
00031 suncat0214 pw.x -in pw.inp   Done                     01/17/2018 00:07:24