     Program PWSCF v.5.1rc2 (svn rev. 11289) starts on  3May2018 at 16:36:41

     Current dimensions of program PWSCF are:
     Max number of different atomic species (ntypx) = 10
     Max number of k-points (npk) =  40000
     Max angular momentum in pseudopotentials (lmaxx) =  3
     Presently stress not available with electric field

     IMPORTANT: XC functional enforced from input :
     Exchange-correlation      = BEEF-VDW ( 1  4 27 13 2)
     Any further DFT definition will be discarded
     Please, verify this is what you really want

     Subspace diagonalization in iterative solution of the eigenvalue problem:
     a serial algorithm will be used

     bravais-lattice index     =            0
     lattice parameter (alat)  =       1.8897  a.u.
     unit-cell volume          =    6024.3322 (a.u.)^3
     number of atoms/cell      =           13
     number of atomic types    =            2
     number of electrons       =       150.00
     number of Kohn-Sham states=           85
     kinetic-energy cutoff     =      36.7493  Ry
     charge density cutoff     =     367.4932  Ry
     convergence threshold     =      1.0E-05
     mixing beta               =       0.3000
     number of iterations used =           10  plain     mixing
     Exchange-correlation      = BEEF-VDW ( 1  4 27 13 2)
     nstep                     =           50

     celldm(1)=   1.889726  celldm(2)=   0.000000  celldm(3)=   0.000000
     celldm(4)=   0.000000  celldm(5)=   0.000000  celldm(6)=   0.000000

     crystal axes: (cart. coord. in units of alat)
               a(1) = (   6.393197   0.000000   0.000000 )
               a(2) = (   3.196599   5.536671   0.000000 )
               a(3) = (   0.000000   0.000000  25.220024 )

     reciprocal axes: (cart. coord. in units 2 pi/alat)
               b(1) = (  0.156416 -0.090307  0.000000 )
               b(2) = (  0.000000  0.180614  0.000000 )
               b(3) = (  0.000000  0.000000  0.039651 )

     PseudoPot. # 1 for Hf read from file:
     /u/if/mamunm/psp/gbrv1.5pbe/Hf.UPF
     MD5 check sum: 8ee9378dfe14276e333edf04c5e4aa26
     Pseudo is Ultrasoft + core correction, Zval = 12.0
     Generated by new atomic code, or converted to UPF format
     Using radial grid of  921 points,  8 beta functions with:
                l(1) =   0
                l(2) =   0
                l(3) =   0
                l(4) =   1
                l(5) =   1
                l(6) =   2
                l(7) =   2
                l(8) =   3
     Q(r) pseudized with  6 coefficients,  rinner =    1.200   1.200   1.200
                                                       1.200   1.200   1.200
                                                       1.200

     PseudoPot. # 2 for O  read from file:
     /u/if/mamunm/psp/gbrv1.5pbe/O.UPF
     MD5 check sum: 734c27235a0248c51dbae37a1fbe46ec
     Pseudo is Ultrasoft + core correction, Zval =  6.0
     Generated by new atomic code, or converted to UPF format
     Using radial grid of  737 points,  5 beta functions with:
                l(1) =   0
                l(2) =   0
                l(3) =   1
                l(4) =   1
                l(5) =   2
     Q(r) pseudized with  8 coefficients,  rinner =    0.900   0.900   0.900
                                                       0.900   0.900

     vdW kernel table read from file vdW_kernel_table
     MD5 check sum: 095c7af220d748ca6e76c0b4c6cfb241

     atomic species   valence    mass     pseudopotential
        Hf1           12.00   178.49000     Hf( 1.00)
        O1             6.00    15.99900     O ( 1.00)

     No symmetry found

   Cartesian axes

     site n.     atom                  positions (alat units)
         1           Hf1 tau(   1) = (   1.5982993   0.9227785  10.0000000  )
         2           Hf1 tau(   2) = (   4.7948978   0.9227785  10.0000000  )
         3           Hf1 tau(   3) = (   3.1965986   3.6911141  10.0000000  )
         4           Hf1 tau(   4) = (   6.3931971   3.6911141  10.0000000  )
         5           Hf1 tau(   5) = (   6.3931971   1.8455570  12.6100118  )
         6           Hf1 tau(   6) = (   3.1965986   1.8455570  12.6100118  )
         7           Hf1 tau(   7) = (   7.9914964   4.6138926  12.6100118  )
         8           Hf1 tau(   8) = (   4.7948978   4.6138926  12.6100118  )
         9           Hf1 tau(   9) = (   0.0000000   0.0000000  15.2200236  )
        10           Hf1 tau(  10) = (   3.1965986   0.0000000  15.2200236  )
        11           Hf1 tau(  11) = (   1.5982993   2.7683356  15.2200236  )
        12           Hf1 tau(  12) = (   4.7948978   2.7683356  15.2200236  )
        13           O1  tau(  13) = (   3.1965986   1.8455570  16.7865236  )

     number of k points=    20  Fermi-Dirac smearing, width (Ry)=  0.0110
                       cart. coord. in units 2pi/alat
        k(    1) = (   0.0000000   0.0000000   0.0000000), wk =   0.0555556
        k(    2) = (   0.0000000   0.0301023   0.0000000), wk =   0.1111111
        k(    3) = (   0.0000000   0.0602046   0.0000000), wk =   0.1111111
        k(    4) = (   0.0000000  -0.0903070   0.0000000), wk =   0.0555556
        k(    5) = (   0.0260694  -0.0150512   0.0000000), wk =   0.1111111
        k(    6) = (   0.0260694   0.0150512   0.0000000), wk =   0.1111111
        k(    7) = (   0.0260694   0.0451535   0.0000000), wk =   0.1111111
        k(    8) = (   0.0260694  -0.1053581   0.0000000), wk =   0.1111111
        k(    9) = (   0.0260694  -0.0752558   0.0000000), wk =   0.1111111
        k(   10) = (   0.0260694  -0.0451535   0.0000000), wk =   0.1111111
        k(   11) = (   0.0521388  -0.0301023   0.0000000), wk =   0.1111111
        k(   12) = (   0.0521388   0.0000000   0.0000000), wk =   0.1111111
        k(   13) = (   0.0521388   0.0301023   0.0000000), wk =   0.1111111
        k(   14) = (   0.0521388  -0.1204093   0.0000000), wk =   0.1111111
        k(   15) = (   0.0521388  -0.0903070   0.0000000), wk =   0.1111111
        k(   16) = (   0.0521388  -0.0602046   0.0000000), wk =   0.1111111
        k(   17) = (  -0.0782081   0.0451535   0.0000000), wk =   0.0555556
        k(   18) = (  -0.0782081   0.0752558   0.0000000), wk =   0.1111111
        k(   19) = (  -0.0782081   0.1053581   0.0000000), wk =   0.1111111
        k(   20) = (  -0.0782081  -0.0451535   0.0000000), wk =   0.0555556

     Largest allocated arrays     est. size (Mb)     dimensions
     Largest temporary arrays     est. size (Mb)     dimensions

     Check: negative/imaginary core charge=   -0.000003    0.000000

     Initial potential from superposition of free atoms
     Check: negative starting charge=   -1.301677

     starting charge  125.99997, renormalised to  150.00000

     negative rho (up, down):  1.550E+00 0.000E+00

     *
     * You are using vdW-DF for exchange-correlation in this calculation.
     * Please cite the following three references that made this development
     * possible:
     *
     *   M. Dion, H. Rydberg, E. Schroder, D. C. Langreth, and
     *   B. I. Lundqvist, Phys. Rev. Lett. 92, 246401 (2004).
     *
     *   T. Thonhauser, V. R. Cooper, S. Li, A. Puzder, P. Hyldgaard, and
     *   D. C. Langreth, Phys. Rev. B 76, 125112 (2007).
     *
     *   G. Roman-Perez and J. M. Soler, Phys. Rev. Lett. 103, 096102 (2009).
     *
     *
     * If you are using vdW-DF2, please also cite:
     *
     *   K. Lee, E. D. Murray, L. Kong, B. I. Lundqvist, and
     *   D. C. Langreth, Phys. Rev. B 82, 081101(R) (2010).
     *
     *
     * If you are calculating the stress with vdW-DF, please also cite:
     *
     *   R. Sabatini, E. Kucukbenli, B. Kolb, T. Thonhauser, and
     *   S. de Gironcoli, J. Phys.: Condens. Matter 24, 424209 (2012).
     *

     Carrying out vdW-DF run using the following parameters:

     Nqs =      20    Nr_points =    1024   r_max =   100.000
     q_mesh =
               0.00001000     0.04494208     0.09755937     0.15916263
               0.23128650     0.31572767     0.41458969     0.53033537
               0.66584808     0.82450364     1.01025438     1.22772762
               1.48234092     1.78043706     2.12944203     2.53805004
               3.01644009     3.57652955     4.23227104     5.00000000

     Gradients computed in reciprocal space

     Adding external electric field

     Computed dipole along edir(3) :
        Dipole               -9.0200 Ry au,        -22.9264 Debye
        Dipole field         -0.0188 Ry au

        Potential amp.        1.7486 Ry
        Total length         46.4675 bohr

     Starting wfc are  160 randomized atomic wfcs

     Self-consistent Calculation

     iteration #  1     ecut=    36.75 Ry     beta=0.30
     Davidson diagonalization with overlap
     ethr =  1.00E-02,  avg # of iterations =  9.7

[...]

     total energy              =   -1261.74415114 Ry
     Harris-Foulkes estimate   =   -1948.03020644 Ry
     estimated scf accuracy    <    1475.41452058 Ry

[...]

     End of self-consistent calculation

          k = 0.0000 0.0000 0.0000 ( 22729 PWs)   bands (ev):

   -61.4926 -61.4602 -61.4600 -61.4535 -61.4080 -61.3762 -61.3758 -61.3669
   -60.9832 -60.9547 -60.9547 -60.9151 -30.2394 -30.2393 -30.2377 -30.1569
   -30.1519 -30.1518 -30.1477 -30.0641 -30.0287 -30.0287 -30.0155 -29.9386
   -29.9384 -29.9378 -29.8388 -29.8159 -29.8159 -29.7460 -29.7450 -29.7449
   -29.6960 -29.6960 -29.6859 -29.6817 -29.6816 -29.6174 -29.6174 -29.4503
   -29.4407 -29.4406 -29.3935 -29.3514 -29.3307 -29.3307 -29.2143 -29.2143
   -15.8876  -5.2641  -3.9749  -2.7432  -2.3838  -2.3837  -2.1758  -1.7498
    -1.6284  -1.6284  -1.4747  -1.4747  -1.3755  -0.8697  -0.8697  -0.5392
    -0.4536  -0.4536  -0.3668   0.3575   0.3575   0.4000   1.2278   1.4378
     1.6083   1.6083   1.6436   1.8241   1.8241   1.8296   2.0842   2.2462
     2.3590   2.3590   2.4238   2.5234   2.5234

[...]

          k =-0.0782 0.0452 0.0000 ( 22668 PWs)   bands (ev):

[...]

     the Fermi energy is     1.2298 ev

!    total energy              =   -1959.32934259 Ry
     Harris-Foulkes estimate   =   -1959.32935217 Ry
     estimated scf accuracy    <       0.00000124 Ry

     The total energy is the sum of the following terms:

     one-electron contribution =   -8632.27330978 Ry
     hartree contribution      =    4301.16418634 Ry
     xc contribution           =    -935.18958168 Ry
     ewald contribution        =    3307.08511033 Ry
     electric field correction =       0.00005599 Ry
     smearing contrib. (-TS)   =      -0.11580379 Ry

     convergence has been achieved in  36 iterations

 BEEF-vdW xc energy contributions
           1 :   -845.383425236962
           2 :    785.397691787516
           3 :   -679.217419131503
           4 :    548.928827549572
           5 :   -417.271394354199
           6 :    301.260238162938
           7 :   -209.461382140799
           8 :    142.967420066667
           9 :   -98.4774038138293
          10 :    71.2836692099912
          11 :   -56.8412380989870
          12 :    50.8670317804488
          13 :   -48.9304601685102
          14 :    46.5185832297296
          15 :   -39.9345899583471
          16 :    27.5260080043254
          17 :   -10.3958022754608
          18 :   -8.01397103268948
          19 :    23.3776067033325
          20 :   -32.2934354202074
          21 :    33.5472706776785
          22 :   -28.2984075379565
          23 :    19.2681378147398
          24 :   -9.53060818655774
          25 :    1.55965234503662
          26 :    3.13644553948859
          27 :   -3.92115259901732
          28 :   0.830180653467437
          29 :    5.46685110294914
          30 :   -13.5801394898217
          31 :   -60.9067097997215
          32 :   -43.7397616004670

     Forces acting on atoms (Ry/au):

     negative rho (up, down):  1.380E+00 0.000E+00
     atom    1 type  1   force =    -0.00013856   -0.00007211    0.02394013
     atom    2 type  1   force =     0.00014334   -0.00007992    0.02395881
     atom    3 type  1   force =     0.00000124    0.00015785    0.02393351
     atom    4 type  1   force =    -0.00000322   -0.00000720    0.02435025
     atom    5 type  1   force =    -0.00001128    0.00055102   -0.00530209
     atom    6 type  1   force =     0.00000906   -0.00006041   -0.00618301
     atom    7 type  1   force =    -0.00052852   -0.00024235   -0.00528244
     atom    8 type  1   force =     0.00053099   -0.00025477   -0.00526590
     atom    9 type  1   force =    -0.00000309    0.00001206   -0.04768617
     atom   10 type  1   force =     0.00000062    0.04894764    0.04447926
     atom   11 type  1   force =     0.04237762   -0.02447739    0.04449191
     atom   12 type  1   force =    -0.04237583   -0.02447632    0.04448453
     atom   13 type  2   force =    -0.00000238    0.00000189   -0.15991879

     Total force =     0.202412     Total SCF correction =     0.002156

     entering subroutine stress ...

     negative rho (up, down):  1.380E+00 0.000E+00
          total   stress  (Ry/bohr**3)                   (kbar)     P=  -29.83
  -0.00018195   0.00000000  -0.00000000        -26.77      0.00     -0.00
   0.00000000  -0.00018194  -0.00000000          0.00    -26.76     -0.00
  -0.00000000  -0.00000000  -0.00024442         -0.00     -0.00    -35.95

     BFGS Geometry Optimization

     number of scf cycles    =   1
     number of bfgs steps    =   0

     energy   new            =   -1959.3293425924 Ry

     new trust radius        =       0.1599187940 bohr
     new conv_thr            =       0.0000099958 Ry

ATOMIC_POSITIONS (crystal)
Hf1      0.166666667   0.166666667   0.396510335    0   0   0
Hf1      0.666666667   0.166666667   0.396510335    0   0   0
Hf1      0.166666667   0.666666667   0.396510335    0   0   0
Hf1      0.666666667   0.666666667   0.396510335    0   0   0
Hf1      0.833333333   0.333333333   0.500000000    0   0   0
Hf1      0.333333333   0.333333333   0.500000000    0   0   0
Hf1      0.833333333   0.833333333   0.500000000    0   0   0
Hf1      0.333333333   0.833333333   0.500000000    0   0   0
Hf1     -0.000000832   0.000001153   0.602489094
Hf1      0.497660923   0.004678258   0.604422948
Hf1      0.004677412   0.497660530   0.604423213
Hf1      0.497662155   0.497660632   0.604423058
O1       0.333333046   0.333333514   0.662247525

     Writing output data file calc.save
     Check: negative starting charge=   -1.301677
     NEW-OLD atomic charge density approx. for the potential

     Check: negative/imaginary core charge=   -0.000003    0.000000
     Check: negative starting charge=   -1.299065

[...]

     energy   old            =   -1959.3293425924 Ry
     energy   new            =   -1959.3679614292 Ry

     CASE: energy  _new < energy  _old

     WARNING: bfgs curvature condition failed, Theta= 0.915
     new trust radius        =       0.2398781911 bohr
     new conv_thr            =       0.0000001000 Ry

[...]

     iteration #  1     ecut=    36.75 Ry     beta=0.30
     Davidson diagonalization with overlap
     c_bands:  2 eigenvalues not converged
     ethr =  1.00E-06,  avg # of iterations = 12.8

[...]

     WARNING: bfgs curvature condition failed, Theta= 0.868
     new trust radius        =       0.0556766977 bohr
     new conv_thr            =       0.0000001000 Ry

[...]

     iteration #  1     ecut=    36.75 Ry     beta=0.30
     Davidson diagonalization with overlap
     c_bands:  1 eigenvalues not converged
     c_bands:  1 eigenvalues not converged
     c_bands:  1 eigenvalues not converged
     ethr =  1.00E-06,  avg # of iterations = 14.7

[...]

     Total force =     0.005012     Total SCF correction =     0.001084
     SCF correction compared to forces is large: reduce conv_thr to get better values

[...]

     Total force =     0.004396     Total SCF correction =     0.001089
     SCF correction compared to forces is large: reduce conv_thr to get better values

[...]

     number of scf cycles    =  17
     number of bfgs steps    =  16

     energy   old            =   -1959.4547139095 Ry
     energy   new            =   -1959.4547565179 Ry

     CASE: energy  _new < energy  _old

     new trust radius        =       0.0108304503 bohr
     new conv_thr            =       0.0000001000 Ry

ATOMIC_POSITIONS (crystal)
Hf1      0.166666667   0.166666667   0.396510335    0   0   0
Hf1      0.666666667   0.166666667   0.396510335    0   0   0
Hf1      0.166666667   0.666666667   0.396510335    0   0   0
Hf1      0.666666667   0.666666667   0.396510335    0   0   0
Hf1      0.833333333   0.333333333   0.500000000    0   0   0
Hf1      0.333333333   0.333333333   0.500000000    0   0   0
Hf1      0.833333333   0.833333333   0.500000000    0   0   0
Hf1      0.333333333   0.833333333   0.500000000    0   0   0
Hf1     -0.000000143   0.000000156   0.593289820
Hf1      0.505654597  -0.011309386   0.603280754
Hf1     -0.011310067   0.505655127   0.603280782
Hf1      0.505654609   0.505655008   0.603280756
O1       0.333333572   0.333333244   0.636120409

     Writing output data file calc.save
     Check: negative starting charge=   -1.294617
     NEW-OLD atomic charge density approx. for the potential

     Check: negative/imaginary core charge=   -0.000003    0.000000
     Check: negative starting charge=   -1.294866

[...]

     Self-consistent Calculation

[...]

     total energy              =   -1959.45479305 Ry
     Harris-Foulkes estimate   =   -1959.45479306 Ry
     estimated scf accuracy    <       0.00000010 Ry

     iteration # 13     ecut=    36.75 Ry     beta=0.30
     Davidson diagonalization with overlap
     ethr =  6.81E-11,  avg # of iterations =  4.0

[...]

     negative rho (up, down):  1.372E+00 0.000E+00

     Adding external electric field

     Computed dipole along edir(3) :
        Dipole                0.1108 Ry au,          0.2816 Debye
        Dipole field          0.0002 Ry au

        Potential amp.       -0.0215 Ry
        Total length         46.4675 bohr

     End of self-consistent calculation

[...]

          k = 0.0521-0.0602 0.0000 ( 22643 PWs)   bands (ev):

[...]

          k =-0.0782-0.0452 0.0000 ( 22668 PWs)   bands (ev):

   -61.1369 -61.1234 -61.1158 -61.1150 -61.1132 -61.0987 -61.0950 -60.8397
   -60.7664 -60.6197 -60.6112 -60.6036 -29.9883 -29.7965 -29.7878 -29.7830
   -29.7745 -29.7409 -29.7289 -29.7079 -29.7057 -29.7047 -29.6692 -29.6673
   -29.6530 -29.6191 -29.6140 -29.6125 -29.5926 -29.5744 -29.5482 -29.4651
   -29.4142 -29.4099 -29.4014 -29.3479 -29.3010 -29.2612 -29.2499 -29.2450
   -29.1437 -29.1155 -29.1070 -29.0644 -29.0610 -29.0197 -29.0034 -28.9419
   -17.9272  -4.7338  -4.3439  -3.9826  -3.3195  -3.1747  -2.0833  -1.7949
    -1.1293  -1.0854  -0.8378  -0.5761  -0.5312  -0.5239   0.2932   0.3265
     0.4686   0.4782   0.6597   0.6983   0.8395   0.8507   0.9829   1.0226
     1.1460   1.1734   1.3113   1.3338   1.4164   1.4917   1.5185   1.7315
     1.7476   1.9274   2.1054   2.2857   2.4489

     the Fermi energy is     1.5073 ev

!    total energy              =   -1959.45479305 Ry
     Harris-Foulkes estimate   =   -1959.45479295 Ry
     estimated scf accuracy    <          3.3E-09 Ry

     The total energy is the sum of the following terms:

     one-electron contribution =   -8860.78779198 Ry
     hartree contribution      =    4416.50513613 Ry
     xc contribution           =    -935.64065222 Ry
     ewald contribution        =    3420.57645853 Ry
     electric field correction =       0.00002560 Ry
     smearing contrib. (-TS)   =      -0.10796911 Ry

     convergence has been achieved in  13 iterations

 BEEF-vdW xc energy contributions
           1 :   -845.845611229476
           2 :    785.996962177434
           3 :   -679.919528990530
           4 :    549.536672674459
           5 :   -417.574455354001
           6 :    301.177808799419
           7 :   -209.087507536291
           8 :    142.504389977167
           9 :   -98.1137590645898
          10 :    71.0975709999234
          11 :   -56.7859539080021
          12 :    50.8338642943201
          13 :   -48.8368498370412
          14 :    46.3586920518630
          15 :   -39.7652112183541
          16 :    27.4106658342170
          17 :   -10.3526220291989
          18 :   -8.02805624688267
          19 :    23.4397343163178
          20 :   -32.4621655300339
          21 :    33.8160842166589
          22 :   -28.5897252322720
          23 :    19.4770448809365
          24 :   -9.58946688563879
          25 :    1.47810405165865
          26 :    3.28234619979298
          27 :   -4.04124345541527
          28 :   0.876150838893409
          29 :    5.47996335142545
          30 :   -13.6000109061110
          31 :   -60.9351136015684
          32 :   -43.7891351806836

     Forces acting on atoms (Ry/au):

     negative rho (up, down):  1.372E+00 0.000E+00
     atom    1 type  1   force =     0.00213835    0.00123182    0.02597796
     atom    2 type  1   force =    -0.00213832    0.00123456    0.02598825
     atom    3 type  1   force =     0.00000154   -0.00246843    0.02597823
     atom    4 type  1   force =    -0.00000136    0.00000180    0.01955340
     atom    5 type  1   force =     0.00000017    0.01002392   -0.01834158
     atom    6 type  1   force =    -0.00000013    0.00000065   -0.03993533
     atom    7 type  1   force =    -0.00868011   -0.00501219   -0.01834198
     atom    8 type  1   force =     0.00868057   -0.00501246   -0.01834187
     atom    9 type  1   force =    -0.00000128   -0.00000047   -0.00132468
     atom   10 type  1   force =     0.00000047    0.00112536    0.00015789
     atom   11 type  1   force =     0.00097585   -0.00056250    0.00015642
     atom   12 type  1   force =    -0.00097515   -0.00056266    0.00015849
     atom   13 type  2   force =    -0.00000059    0.00000060   -0.00168518

     Total force =     0.002911     Total SCF correction =     0.000240

     entering subroutine stress ...

     negative rho (up, down):  1.372E+00 0.000E+00
          total   stress  (Ry/bohr**3)                   (kbar)     P=  -16.58
  -0.00011562  -0.00000000  -0.00000000        -17.01     -0.00     -0.00
  -0.00000000  -0.00011563   0.00000000         -0.00    -17.01      0.00
  -0.00000000   0.00000000  -0.00010689         -0.00      0.00    -15.72

     bfgs converged in  18 scf cycles and  17 bfgs steps
     (criteria: energy <  1.0E+00, force <  1.9E-03)

     End of BFGS Geometry Optimization

     Final energy   =   -1959.4547930534 Ry
Begin final coordinates

ATOMIC_POSITIONS (crystal)
Hf1      0.166666667   0.166666667   0.396510335    0   0   0
Hf1      0.666666667   0.166666667   0.396510335    0   0   0
Hf1      0.166666667   0.666666667   0.396510335    0   0   0
Hf1      0.666666667   0.666666667   0.396510335    0   0   0
Hf1      0.833333333   0.333333333   0.500000000    0   0   0
Hf1      0.333333333   0.333333333   0.500000000    0   0   0
Hf1      0.833333333   0.833333333   0.500000000    0   0   0
Hf1      0.333333333   0.833333333   0.500000000    0   0   0
Hf1     -0.000000143   0.000000156   0.593289820
Hf1      0.505654597  -0.011309386   0.603280754
Hf1     -0.011310067   0.505655127   0.603280782
Hf1      0.505654609   0.505655008   0.603280756
O1       0.333333572   0.333333244   0.636120409
End final coordinates

     Writing output data file calc.save

     General routines

     Parallel routines

   This run was terminated on:  20:52:17   3May2018

   JOB DONE.
Job  /afs/slac/g/suncat/bin/suncat-tsmpirun -x LD_LIBRARY_PATH -wdir /scratch/qe794544_cPKaE pw.x -npool 4 -in pw.inp

TID   HOST_NAME   COMMAND_LINE            STATUS            TERMINATION_TIME
00000 suncat0034 pw.x -npool 4 -i  Done                     05/03/2018 20:52:17
00001 suncat0034 pw.x -npool 4 -i  Done                     05/03/2018 20:52:17
00002 suncat0034 pw.x -npool 4 -i  Done                     05/03/2018 20:52:17
00003 suncat0034 pw.x -npool 4 -i  Done                     05/03/2018 20:52:17
00004 suncat0034 pw.x -npool 4 -i  Done                     05/03/2018 20:52:17
00005 suncat0034 pw.x -npool 4 -i  Done                     05/03/2018 20:52:17
00006 suncat0034 pw.x -npool 4 -i  Done                     05/03/2018 20:52:17
00007 suncat0034 pw.x -npool 4 -i  Done                     05/03/2018 20:52:17
00008 suncat0022 pw.x -npool 4 -i  Done                     05/03/2018 20:52:17
00009 suncat0022 pw.x -npool 4 -i  Done                     05/03/2018 20:52:17
00010 suncat0022 pw.x -npool 4 -i  Done                     05/03/2018 20:52:17
00011 suncat0022 pw.x -npool 4 -i  Done                     05/03/2018 20:52:17
00012 suncat0022 pw.x -npool 4 -i  Done                     05/03/2018 20:52:17
00013 suncat0022 pw.x -npool 4 -i  Done                     05/03/2018 20:52:17
00014 suncat0022 pw.x -npool 4 -i  Done                     05/03/2018 20:52:17
00015 suncat0022 pw.x -npool 4 -i  Done                     05/03/2018 20:52:17
00016 suncat0148 pw.x -npool 4 -i  Done                     05/03/2018 20:52:17
00017 suncat0148 pw.x -npool 4 -i  Done                     05/03/2018 20:52:17
00018 suncat0148 pw.x -npool 4 -i  Done                     05/03/2018 20:52:17
00019 suncat0148 pw.x -npool 4 -i  Done                     05/03/2018 20:52:17
00020 suncat0148 pw.x -npool 4 -i  Done                     05/03/2018 20:52:17
00021 suncat0148 pw.x -npool 4 -i  Done                     05/03/2018 20:52:17
00022 suncat0148 pw.x -npool 4 -i  Done                     05/03/2018 20:52:17
00023 suncat0148 pw.x -npool 4 -i  Done                     05/03/2018 20:52:17
00024 suncat0124 pw.x -npool 4 -i  Done                     05/03/2018 20:52:17
00025 suncat0124 pw.x -npool 4 -i  Done                     05/03/2018 20:52:17
00026 suncat0124 pw.x -npool 4 -i  Done                     05/03/2018 20:52:17
00027 suncat0124 pw.x -npool 4 -i  Done                     05/03/2018 20:52:17
00028 suncat0124 pw.x -npool 4 -i  Done                     05/03/2018 20:52:17
00029 suncat0124 pw.x -npool 4 -i  Done                     05/03/2018 20:52:17
00030 suncat0124 pw.x -npool 4 -i  Done                     05/03/2018 20:52:17
00031 suncat0124 pw.x -npool 4 -i  Done                     05/03/2018 20:52:17