     Program PWSCF v.5.1rc2 (svn rev. 11289) starts on  3May2018 at 18:33:59

     Current dimensions of program PWSCF are:
     Max number of different atomic species (ntypx) = 10
     Max number of k-points (npk) =  40000
     Max angular momentum in pseudopotentials (lmaxx) =  3
     Presently stress not available with electric field

     IMPORTANT: XC functional enforced from input :
     Exchange-correlation      = BEEF-VDW ( 1  4 27 13 2)
     Any further DFT definition will be discarded
     Please, verify this is what you really want

     Subspace diagonalization in iterative solution of the eigenvalue problem:
     a serial algorithm will be used

     bravais-lattice index     =            0
     lattice parameter (alat)  =       1.8897  a.u.
     unit-cell volume          =    5409.9593 (a.u.)^3
     number of atoms/cell      =           13
     number of atomic types    =            2
     number of electrons       =       229.00
     number of Kohn-Sham states=          124
     kinetic-energy cutoff     =      36.7493  Ry
     charge density cutoff     =     367.4932  Ry
     convergence threshold     =      1.0E-05
     mixing beta               =       0.3000
     number of iterations used =           10  plain     mixing
     Exchange-correlation      = BEEF-VDW ( 1  4 27 13 2)
     nstep                     =           50

     celldm(1)=   1.889726  celldm(2)=   0.000000  celldm(3)=   0.000000
     celldm(4)=   0.000000  celldm(5)=   0.000000  celldm(6)=   0.000000

     crystal axes: (cart. coord. in units of alat)
               a(1) = (   6.088539   0.000000   0.000000 )
               a(2) = (   3.044269   5.272829   0.000000 )
               a(3) = (   0.000000   0.000000  24.971271 )

     reciprocal axes: (cart. coord. in units 2 pi/alat)
               b(1) = (  0.164243 -0.094826  0.000000 )
               b(2) = (  0.000000  0.189652  0.000000 )
               b(3) = (  0.000000  0.000000  0.040046 )

     PseudoPot. # 1 for Ga read from file:
     /u/if/mamunm/psp/gbrv1.5pbe/Ga.UPF
     MD5 check sum: ccd671392a58a050fbb373893b4fcd66
     Pseudo is Ultrasoft + core correction, Zval = 19.0
     Generated by new atomic code, or converted to UPF format
     Using radial grid of  871 points,  6 beta functions with:
                l(1) =   0
                l(2) =   0
                l(3) =   1
                l(4) =   1
                l(5) =   2
                l(6) =   2
     Q(r) pseudized with  8 coefficients,  rinner =    1.250   1.250   1.250
                                                       1.250   1.250

     PseudoPot. # 2 for H  read from file:
     /u/if/mamunm/psp/gbrv1.5pbe/H.UPF
     MD5 check sum: 761ae9a214b05c3daf00ab9f6b793d6f
     Pseudo is Ultrasoft, Zval =  1.0
     Generated by new atomic code, or converted to UPF format
     Using radial grid of  615 points,  2 beta functions with:
                l(1) =   0
                l(2) =   0
     Q(r) pseudized with  8 coefficients,  rinner =    0.700

     vdW kernel table read from file vdW_kernel_table
     MD5 check sum: 095c7af220d748ca6e76c0b4c6cfb241

     atomic species   valence    mass     pseudopotential
        Ga1           19.00    69.72300     Ga( 1.00)
        H1             1.00     1.00800     H ( 1.00)

     No symmetry found

   Cartesian axes

     site n.     atom                  positions (alat units)
         1           Ga1 tau(   1) = (   1.5221346   0.8788048  10.0000000  )
         2           Ga1 tau(   2) = (   4.5664039   0.8788048  10.0000000  )
         3           Ga1 tau(   3) = (   3.0442693   3.5152194  10.0000000  )
         4           Ga1 tau(   4) = (   6.0885386   3.5152194  10.0000000  )
         5           Ga1 tau(   5) = (   6.0885386   1.7576097  12.4856355  )
         6           Ga1 tau(   6) = (   3.0442693   1.7576097  12.4856355  )
         7           Ga1 tau(   7) = (   7.6106732   4.3940242  12.4856355  )
         8           Ga1 tau(   8) = (   4.5664039   4.3940242  12.4856355  )
         9           Ga1 tau(   9) = (   0.0000000   0.0000000  14.9712709  )
        10           Ga1 tau(  10) = (   3.0442693   0.0000000  14.9712709  )
        11           Ga1 tau(  11) = (   1.5221346   2.6364145  14.9712709  )
        12           Ga1 tau(  12) = (   4.5664039   2.6364145  14.9712709  )
        13           H1  tau(  13) = (   1.5221346   0.8788048  15.9657709  )

     number of k points=    20  Fermi-Dirac smearing, width (Ry)=  0.0110
                       cart. coord. in units 2pi/alat
        k(    1) = (   0.0000000   0.0000000   0.0000000), wk =   0.0555556
        k(    2) = (   0.0000000   0.0316086   0.0000000), wk =   0.1111111
        k(    3) = (   0.0000000   0.0632172   0.0000000), wk =   0.1111111
        k(    4) = (   0.0000000  -0.0948258   0.0000000), wk =   0.0555556
        k(    5) = (   0.0273738  -0.0158043   0.0000000), wk =   0.1111111
        k(    6) = (   0.0273738   0.0158043   0.0000000), wk =   0.1111111
        k(    7) = (   0.0273738   0.0474129   0.0000000), wk =   0.1111111
        k(    8) = (   0.0273738  -0.1106300   0.0000000), wk =   0.1111111
        k(    9) = (   0.0273738  -0.0790215   0.0000000), wk =   0.1111111
        k(   10) = (   0.0273738  -0.0474129   0.0000000), wk =   0.1111111
        k(   11) = (   0.0547477  -0.0316086   0.0000000), wk =   0.1111111
        k(   12) = (   0.0547477   0.0000000   0.0000000), wk =   0.1111111
        k(   13) = (   0.0547477   0.0316086   0.0000000), wk =   0.1111111
        k(   14) = (   0.0547477  -0.1264343   0.0000000), wk =   0.1111111
        k(   15) = (   0.0547477  -0.0948258   0.0000000), wk =   0.1111111
        k(   16) = (   0.0547477  -0.0632172   0.0000000), wk =   0.1111111
        k(   17) = (  -0.0821215   0.0474129   0.0000000), wk =   0.0555556
        k(   18) = (  -0.0821215   0.0790215   0.0000000), wk =   0.1111111
        k(   19) = (  -0.0821215   0.1106300   0.0000000), wk =   0.1111111
        k(   20) = (  -0.0821215  -0.0474129   0.0000000), wk =   0.0555556

     Largest allocated arrays     est. size (Mb)     dimensions
     Largest temporary arrays     est. size (Mb)     dimensions

     Initial potential from superposition of free atoms
     Check: negative starting charge=   -0.001295

     starting charge  216.99998, renormalised to  229.00000

     negative rho (up, down):  1.366E-03 0.000E+00

     *
     * You are using vdW-DF for exchange-correlation in this calculation.
     * Please cite the following three references that made this development
     * possible:
     *
     *   M. Dion, H. Rydberg, E. Schroder, D. C. Langreth, and
     *   B. I. Lundqvist, Phys. Rev. Lett. 92, 246401 (2004).
     *
     *   T. Thonhauser, V. R. Cooper, S. Li, A. Puzder, P. Hyldgaard, and
     *   D. C. Langreth, Phys. Rev. B 76, 125112 (2007).
     *
     *   G. Roman-Perez and J. M. Soler, Phys. Rev. Lett. 103, 096102 (2009).
     *
     *
     * If you are using vdW-DF2, please also cite:
     *
     *   K. Lee, E. D. Murray, L. Kong, B. I. Lundqvist, and
     *   D. C. Langreth, Phys. Rev. B 82, 081101(R) (2010).
     *
     *
     * If you are calculating the stress with vdW-DF, please also cite:
     *
     *   R. Sabatini, E. Kucukbenli, B. Kolb, T. Thonhauser, and
     *   S. de Gironcoli, J. Phys.: Condens. Matter 24, 424209 (2012).
     *

     Carrying out vdW-DF run using the following parameters:

     Nqs =      20    Nr_points =    1024   r_max =   100.000
     q_mesh =
               0.00001000     0.04494208     0.09755937     0.15916263
               0.23128650     0.31572767     0.41458969     0.53033537
               0.66584808     0.82450364     1.01025438     1.22772762
               1.48234092     1.78043706     2.12944203     2.53805004
               3.01644009     3.57652955     4.23227104     5.00000000

     Gradients computed in reciprocal space

     Adding external electric field

     Computed dipole along edir(3) :
        Dipole               -0.3636 Ry au,         -0.9242 Debye
        Dipole field         -0.0008 Ry au

        Potential amp.        0.0777 Ry
        Total length         46.0091 bohr

     Starting wfc are  145 randomized atomic wfcs

     Self-consistent Calculation

     iteration #  1     ecut=    36.75 Ry     beta=0.30
     Davidson diagonalization with overlap
     ethr =  1.00E-02,  avg # of iterations =  8.4

[...]

     total energy              =   -4935.43207648 Ry
     Harris-Foulkes estimate   =   -5023.61225087 Ry
     estimated scf accuracy    <     184.16875148 Ry

[...]

     End of self-consistent calculation

          k = 0.0000 0.0000 0.0000 ( 20347 PWs)   bands (ev):

   -94.6518 -94.6513 -94.6513 -94.6406 -94.6395 -94.6395 -94.6344 -94.6344
   -94.6339 -94.6314 -94.6190 -94.6188 -94.6188 -94.6016 -94.6016 -94.5982
   -94.5970 -94.5970 -94.5955 -94.5955 -94.5952 -94.5752 -94.5732 -94.5732
   -94.5725 -94.5722 -94.5708 -94.5708 -94.5671 -94.5668 -94.5666 -94.5666
   -94.5665 -94.5665 -94.5532 -94.5532 -15.1419 -15.1058 -15.1058 -15.0795
   -15.0731 -15.0691 -15.0691 -15.0512 -15.0512 -15.0499 -15.0351 -15.0262
   -15.0248 -15.0248 -15.0114 -15.0028 -15.0028 -14.9947 -14.9947 -14.9869
   -14.9869 -14.9854 -14.9799 -14.9719 -14.9719 -14.9717 -14.9703 -14.9703
   -14.9553 -14.9553 -14.9212 -14.9212 -14.9180 -14.8982 -14.8982 -14.8875
   -14.8875 -14.8812 -14.8812 -14.8749 -14.8440 -14.8395 -14.8395 -14.8290
   -14.8237 -14.8226 -14.8226 -14.8138 -14.8138 -14.8037 -14.8037 -14.7991
   -14.7957 -14.7957 -14.7946 -14.7901 -14.7901 -14.7739 -14.7707 -14.7707
   -10.0432  -8.7359  -6.6671  -4.8461  -4.7959  -4.7959  -4.7215  -4.4115
    -4.4115  -4.0248  -3.1515  -3.1515  -2.8123  -2.6479  -2.6479  -2.4324
    -1.5459  -0.8654  -0.8654  -0.7212  -0.7040  -0.7040   0.6054   2.1450
     2.9474   3.0505   3.0505   3.1440

[...]

          k =-0.0821 0.0474 0.0000 ( 20384 PWs)   bands (ev):

[...]

     the Fermi energy is     0.1467 ev

!    total energy              =   -5000.19734220 Ry
     Harris-Foulkes estimate   =   -5000.19734830 Ry
     estimated scf accuracy    <       0.00000453 Ry

     The total energy is the sum of the following terms:

     one-electron contribution =  -27150.89092711 Ry
     hartree contribution      =   13579.61551467 Ry
     xc contribution           =    -597.19964793 Ry
     ewald contribution        =    9168.30861119 Ry
     electric field correction =       0.00000034 Ry
     smearing contrib. (-TS)   =      -0.03089336 Ry

     convergence has been achieved in  15 iterations

 BEEF-vdW xc energy contributions
           1 :   -533.995172843609
           2 :    484.847221421284
           3 :   -402.386624314838
           4 :    310.547477627310
           5 :   -230.594732657695
           6 :    173.105210461042
           7 :   -136.391390924626
           8 :    111.205847468366
           9 :   -88.1617002260708
          10 :    63.2481500531396
          11 :   -38.6455079907789
          12 :    19.3227195441273
          13 :   -8.45335106084235
          14 :    4.93484256234660
          15 :   -4.37364467156726
          16 :    2.32704439507893
          17 :    2.79687014490378
          18 :   -9.20377777922954
          19 :    13.6403372255074
          20 :   -14.1193535658638
          21 :    11.3846552939322
          22 :   -8.18617857697325
          23 :    7.11552013807648
          24 :   -8.73846204554491
          25 :    11.3873236181180
          26 :   -12.6381527169070
          27 :    11.2413278998920
          28 :   -8.02942287168594
          29 :    5.19065299188196
          30 :   -4.55762236786325
          31 :   -39.3359359673436
          32 :   -26.7061887861079

     Forces acting on atoms (Ry/au):

     negative rho (up, down):  1.029E-03 0.000E+00
     atom    1 type  1   force =    -0.00000328   -0.00000157    0.00592459
     atom    2 type  1   force =    -0.00000258   -0.00055875    0.00665807
     atom    3 type  1   force =    -0.00047968    0.00027648    0.00665807
     atom    4 type  1   force =     0.00048091    0.00027346    0.00667984
     atom    5 type  1   force =    -0.00151380    0.00088508    0.00273988
     atom    6 type  1   force =     0.00152398    0.00086568    0.00277743
     atom    7 type  1   force =    -0.00000234   -0.00000875   -0.00697056
     atom    8 type  1   force =     0.00001197   -0.00174567    0.00272091
     atom    9 type  1   force =    -0.01047989   -0.00605122   -0.00021935
     atom   10 type  1   force =     0.01047412   -0.00604176   -0.00018295
     atom   11 type  1   force =    -0.00000503    0.01210486   -0.00020658
     atom   12 type  1   force =    -0.00000183    0.00000368   -0.00813744
     atom   13 type  2   force =    -0.00000255   -0.00000154   -0.01844191

     Total force =     0.029080     Total SCF correction =     0.004126
     SCF correction compared to forces is large: reduce conv_thr to get better values

     entering subroutine stress ...

     negative rho (up, down):  1.029E-03 0.000E+00
          total   stress  (Ry/bohr**3)                   (kbar)     P=   -8.32
  -0.00006026  -0.00000000   0.00000000         -8.86     -0.00      0.00
  -0.00000000  -0.00006026   0.00000000         -0.00     -8.86      0.00
   0.00000000   0.00000000  -0.00004926          0.00      0.00     -7.25

     BFGS Geometry Optimization

     number of scf cycles    =   1
     number of bfgs steps    =   0

     energy   new            =   -5000.1973422017 Ry

     new trust radius        =       0.0184419115 bohr
     new conv_thr            =       0.0000099958 Ry

ATOMIC_POSITIONS (crystal)
Ga1      0.166666667   0.166666667   0.400460194    0   0   0
Ga1      0.666666667   0.166666667   0.400460194    0   0   0
Ga1      0.166666667   0.666666667   0.400460194    0   0   0
Ga1      0.666666667   0.666666667   0.400460194    0   0   0
Ga1      0.833333333   0.333333333   0.500000000    0   0   0
Ga1      0.333333333   0.333333333   0.500000000    0   0   0
Ga1      0.833333333   0.833333333   0.500000000    0   0   0
Ga1      0.333333333   0.833333333   0.500000000    0   0   0
Ga1     -0.000607198  -0.000607296   0.599535157
Ga1      0.501213517  -0.000606346   0.599535929
Ga1     -0.000607854   0.501214835   0.599535428
Ga1      0.499999656   0.500000369   0.599367362
H1       0.166666522   0.166666512   0.638974762

     Writing output data file calc.save
     Check: negative starting charge=   -0.001295
     NEW-OLD atomic charge density approx. for the potential
     Check: negative starting charge=   -0.001297

[...]

     energy   old            =   -5000.1973422017 Ry
     energy   new            =   -5000.1980941123 Ry

     CASE: energy  _new < energy  _old

     WARNING: bfgs curvature condition failed, Theta= 0.959
     new trust radius        =       0.0202861026 bohr
     new conv_thr            =       0.0000001000 Ry

[...]

     Threshold (ethr) on eigenvalues was too large:
     Diagonalizing with lowered threshold

     Davidson diagonalization with overlap
     ethr =  8.78E-08,  avg # of iterations =  1.1

[...]

     Total force =     0.024245     Total SCF correction =     0.001889

[...]

     Threshold (ethr) on eigenvalues was too large:
     Diagonalizing with lowered threshold

     Davidson diagonalization with overlap
     ethr =  4.13E-08,  avg # of iterations =  1.4

[...]

     WARNING: bfgs curvature condition failed, Theta= 0.836
     new trust radius        =       0.0074710574 bohr
     new conv_thr            =       0.0000001000 Ry

[...]

     Total force =     0.007533     Total SCF correction =     0.000641

[...]

     number of scf cycles    =  19
     number of bfgs steps    =  18

     energy   old            =   -5000.2071779609 Ry
     energy   new            =   -5000.2073668712 Ry

     CASE: energy  _new < energy  _old

     new trust radius        =       0.0245960851 bohr
     new conv_thr            =       0.0000001000 Ry

ATOMIC_POSITIONS (crystal)
Ga1      0.166666667   0.166666667   0.400460194    0   0   0
Ga1      0.666666667   0.166666667   0.400460194    0   0   0
Ga1      0.166666667   0.666666667   0.400460194    0   0   0
Ga1      0.666666667   0.666666667   0.400460194    0   0   0
Ga1      0.833333333   0.333333333   0.500000000    0   0   0
Ga1      0.333333333   0.333333333   0.500000000    0   0   0
Ga1      0.833333333   0.833333333   0.500000000    0   0   0
Ga1      0.333333333   0.833333333   0.500000000    0   0   0
Ga1     -0.008102737  -0.008099979   0.597303591
Ga1      0.516194087  -0.008097836   0.597293699
Ga1     -0.008098843   0.516197012   0.597299258
Ga1      0.500004213   0.499999066   0.595106961
H1       0.166672562   0.166666026   0.621516653

     Writing output data file calc.save
     Check: negative starting charge=   -0.001331
     NEW-OLD atomic charge density approx. for the potential
     Check: negative starting charge=   -0.001329

[...]

     Self-consistent Calculation

[...]

     total energy              =   -5000.20742550 Ry
     Harris-Foulkes estimate   =   -5000.20742547 Ry
     estimated scf accuracy    <       0.00000029 Ry

     iteration #  7     ecut=    36.75 Ry     beta=0.30
     Davidson diagonalization with overlap
     ethr =  1.28E-10,  avg # of iterations =  3.8

[...]

     negative rho (up, down):  1.044E-03 0.000E+00

     Adding external electric field

     Computed dipole along edir(3) :
        Dipole               -0.0005 Ry au,         -0.0014 Debye
        Dipole field         -0.0000 Ry au

        Potential amp.        0.0001 Ry
        Total length         46.0091 bohr

     End of self-consistent calculation

[...]

          k = 0.0547-0.0632 0.0000 ( 20377 PWs)   bands (ev):

[...]

          k =-0.0821-0.0474 0.0000 ( 20384 PWs)   bands (ev):

   -94.6434 -94.6432 -94.6432 -94.6305 -94.6296 -94.6293 -94.6287 -94.6285
   -94.6281 -94.5953 -94.5953 -94.5953 -94.5952 -94.5772 -94.5766 -94.5762
   -94.5752 -94.5752 -94.5748 -94.5713 -94.5712 -94.5651 -94.5651 -94.5610
   -94.5501 -94.5499 -94.5497 -94.5482 -94.5477 -94.5472 -94.5414 -94.5412
   -94.5412 -94.5399 -94.5235 -94.5235 -15.1050 -15.0577 -15.0444 -15.0350
   -15.0303 -15.0271 -15.0160 -15.0143 -15.0107 -15.0089 -15.0015 -14.9941
   -14.9882 -14.9752 -14.9741 -14.9731 -14.9708 -14.9663 -14.9625 -14.9581
   -14.9577 -14.9525 -14.9408 -14.9396 -14.9356 -14.9333 -14.9262 -14.9260
   -14.9228 -14.9199 -14.9150 -14.9099 -14.9012 -14.8954 -14.8915 -14.8801
   -14.8753 -14.8722 -14.8637 -14.8636 -14.8597 -14.8579 -14.8544 -14.8481
   -14.8446 -14.8419 -14.8385 -14.8360 -14.8329 -14.8217 -14.8191 -14.8174
   -14.8163 -14.8034 -14.8014 -14.7953 -14.7863 -14.7754 -14.7591 -14.7582
    -8.8608  -8.7229  -7.6149  -7.2461  -6.1906  -5.9226  -5.4385  -4.9706
    -4.6354  -4.5193  -2.8626  -2.5320  -1.4296  -0.8579  -0.5806  -0.3632
    -0.2375  -0.0580   0.4252   1.1093   1.1398   1.1780   2.0488   2.1154
     2.2795   2.2867   2.3878   2.5975

     the Fermi energy is     0.1522 ev

!    total energy              =   -5000.20742555 Ry
     Harris-Foulkes estimate   =   -5000.20742554 Ry
     estimated scf accuracy    <       0.00000005 Ry

     The total energy is the sum of the following terms:

     one-electron contribution =  -27410.79722462 Ry
     hartree contribution      =   13709.74951007 Ry
     xc contribution           =    -597.28140143 Ry
     ewald contribution        =    9298.15105977 Ry
     electric field correction =       0.00000000 Ry
     smearing contrib. (-TS)   =      -0.02936934 Ry

     convergence has been achieved in   7 iterations

 BEEF-vdW xc energy contributions
           1 :   -534.081497857705
           2 :    484.975431787912
           3 :   -402.561588528655
           4 :    310.730718384208
           5 :   -230.729946639424
           6 :    173.154295992923
           7 :   -136.357618610697
           8 :    111.130394457237
           9 :   -88.0970843248997
          10 :    63.2274765716706
          11 :   -38.6675898561789
          12 :    19.3606643589619
          13 :   -8.47789271680188
          14 :    4.93418019855881
          15 :   -4.35634674342293
          16 :    2.30941036610545
          17 :    2.80609453750992
          18 :   -9.20911871529597
          19 :    13.6523533494346
          20 :   -14.1424412643928
          21 :    11.4123927807857
          22 :   -8.20809539839297
          23 :    7.12885668183537
          24 :   -8.75328375494121
          25 :    11.4178183464006
          26 :   -12.6849232724858
          27 :    11.2794091722536
          28 :   -8.01442829723874
          29 :    5.08244868965357
          30 :   -4.34761741090870
          31 :   -39.3434404782740
          32 :   -26.7235819020948

     Forces acting on atoms (Ry/au):

     negative rho (up, down):  1.044E-03 0.000E+00
     atom    1 type  1   force =    -0.00000078    0.00000005    0.00242978
     atom    2 type  1   force =     0.00000032   -0.00103090    0.00337399
     atom    3 type  1   force =    -0.00089229    0.00051558    0.00337563
     atom    4 type  1   force =     0.00089303    0.00051546    0.00337466
     atom    5 type  1   force =     0.00107620   -0.00062322    0.00031713
     atom    6 type  1   force =    -0.00107757   -0.00061984    0.00032408
     atom    7 type  1   force =     0.00000427   -0.00000011   -0.01150466
     atom    8 type  1   force =    -0.00000358    0.00124325    0.00032038
     atom    9 type  1   force =    -0.00110941   -0.00064074   -0.00084135
     atom   10 type  1   force =     0.00110819   -0.00063976   -0.00083989
     atom   11 type  1   force =     0.00000006    0.00128001   -0.00083937
     atom   12 type  1   force =    -0.00000036    0.00000048   -0.00041545
     atom   13 type  2   force =     0.00000191   -0.00000027    0.00092507

     Total force =     0.002840     Total SCF correction =     0.000327
     SCF correction compared to forces is large: reduce conv_thr to get better values

     entering subroutine stress ...

     negative rho (up, down):  1.044E-03 0.000E+00
          total   stress  (Ry/bohr**3)                   (kbar)     P=   -4.57
  -0.00003765   0.00000000  -0.00000000         -5.54      0.00     -0.00
   0.00000000  -0.00003765   0.00000000          0.00     -5.54      0.00
  -0.00000000   0.00000000  -0.00001790         -0.00      0.00     -2.63

     bfgs converged in  20 scf cycles and  19 bfgs steps
     (criteria: energy <  1.0E+00, force <  1.9E-03)

     End of BFGS Geometry Optimization

     Final energy   =   -5000.2074255528 Ry
Begin final coordinates

ATOMIC_POSITIONS (crystal)
Ga1      0.166666667   0.166666667   0.400460194    0   0   0
Ga1      0.666666667   0.166666667   0.400460194    0   0   0
Ga1      0.166666667   0.666666667   0.400460194    0   0   0
Ga1      0.666666667   0.666666667   0.400460194    0   0   0
Ga1      0.833333333   0.333333333   0.500000000    0   0   0
Ga1      0.333333333   0.333333333   0.500000000    0   0   0
Ga1      0.833333333   0.833333333   0.500000000    0   0   0
Ga1      0.333333333   0.833333333   0.500000000    0   0   0
Ga1     -0.008102737  -0.008099979   0.597303591
Ga1      0.516194087  -0.008097836   0.597293699
Ga1     -0.008098843   0.516197012   0.597299258
Ga1      0.500004213   0.499999066   0.595106961
H1       0.166672562   0.166666026   0.621516653
End final coordinates

     Writing output data file calc.save

     General routines

     Parallel routines

   This run was terminated on:  20:27:25   3May2018

   JOB DONE.
Job  /afs/slac/g/suncat/bin/suncat-tsmpirun -x LD_LIBRARY_PATH -wdir /scratch/qe802622_X4Huk pw.x -npool 4 -in pw.inp

TID   HOST_NAME   COMMAND_LINE            STATUS            TERMINATION_TIME
00000 suncat0120 pw.x -npool 4 -i  Done                     05/03/2018 20:27:25
00001 suncat0120 pw.x -npool 4 -i  Done                     05/03/2018 20:27:25
00002 suncat0120 pw.x -npool 4 -i  Done                     05/03/2018 20:27:25
00003 suncat0120 pw.x -npool 4 -i  Done                     05/03/2018 20:27:25
00004 suncat0120 pw.x -npool 4 -i  Done                     05/03/2018 20:27:25
00005 suncat0120 pw.x -npool 4 -i  Done                     05/03/2018 20:27:25
00006 suncat0120 pw.x -npool 4 -i  Done                     05/03/2018 20:27:25
00007 suncat0120 pw.x -npool 4 -i  Done                     05/03/2018 20:27:25
00008 suncat0115 pw.x -npool 4 -i  Done                     05/03/2018 20:27:25
00009 suncat0115 pw.x -npool 4 -i  Done                     05/03/2018 20:27:25
00010 suncat0115 pw.x -npool 4 -i  Done                     05/03/2018 20:27:25
00011 suncat0115 pw.x -npool 4 -i  Done                     05/03/2018 20:27:25
00012 suncat0115 pw.x -npool 4 -i  Done                     05/03/2018 20:27:25
00013 suncat0115 pw.x -npool 4 -i  Done                     05/03/2018 20:27:25
00014 suncat0115 pw.x -npool 4 -i  Done                     05/03/2018 20:27:25
00015 suncat0115 pw.x -npool 4 -i  Done                     05/03/2018 20:27:25
00016 suncat0220 pw.x -npool 4 -i  Done                     05/03/2018 20:27:25
00017 suncat0220 pw.x -npool 4 -i  Done                     05/03/2018 20:27:25
00018 suncat0220 pw.x -npool 4 -i  Done                     05/03/2018 20:27:25
00019 suncat0220 pw.x -npool 4 -i  Done                     05/03/2018 20:27:25
00020 suncat0220 pw.x -npool 4 -i  Done                     05/03/2018 20:27:25
00021 suncat0220 pw.x -npool 4 -i  Done                     05/03/2018 20:27:25
00022 suncat0220 pw.x -npool 4 -i  Done                     05/03/2018 20:27:25
00023 suncat0220 pw.x -npool 4 -i  Done                     05/03/2018 20:27:25
00024 suncat0219 pw.x -npool 4 -i  Done                     05/03/2018 20:27:25
00025 suncat0219 pw.x -npool 4 -i  Done                     05/03/2018 20:27:25
00026 suncat0219 pw.x -npool 4 -i  Done                     05/03/2018 20:27:25
00027 suncat0219 pw.x -npool 4 -i  Done                     05/03/2018 20:27:25
00028 suncat0219 pw.x -npool 4 -i  Done                     05/03/2018 20:27:25
00029 suncat0219 pw.x -npool 4 -i  Done                     05/03/2018 20:27:25
00030 suncat0219 pw.x -npool 4 -i  Done                     05/03/2018 20:27:25
00031 suncat0219 pw.x -npool 4 -i  Done                     05/03/2018 20:27:25