     Program PWSCF v.5.1rc2 (svn rev. 11289) starts on 14Jan2018 at 18: 3:51

     Current dimensions of program PWSCF are:
     Max number of different atomic species (ntypx) = 10
     Max number of k-points (npk) =  40000
     Max angular momentum in pseudopotentials (lmaxx) =  3
     Presently stress not available with electric field

     IMPORTANT: XC functional enforced from input :
     Exchange-correlation      = BEEF-VDW ( 1  4 27 13 2)
     Any further DFT definition will be discarded
     Please, verify this is what you really want

     Subspace diagonalization in iterative solution of the eigenvalue problem:
     a serial algorithm will be used

     bravais-lattice index     =            0
     lattice parameter (alat)  =       1.8897  a.u.
     unit-cell volume          =    4299.0717 (a.u.)^3
     number of atoms/cell      =           13
     number of atomic types    =            2
     number of electrons       =       185.00
     number of Kohn-Sham states=          102
     kinetic-energy cutoff     =      36.7493  Ry
     charge density cutoff     =     367.4932  Ry
     convergence threshold     =      1.0E-05
     mixing beta               =       0.3000
     number of iterations used =           10  plain     mixing
     Exchange-correlation      = BEEF-VDW ( 1  4 27 13 2)
     nstep                     =           50

     celldm(1)=   1.889726  celldm(2)=   0.000000  celldm(3)=   0.000000
     celldm(4)=   0.000000  celldm(5)=   0.000000  celldm(6)=   0.000000

     crystal axes: (cart. coord. in units of alat)
               a(1) = (   5.482164   0.000000   0.000000 )
               a(2) = (   2.741082   4.747693   0.000000 )
               a(3) = (   0.000000   0.000000  24.476168 )

     reciprocal axes: (cart. coord. in units 2 pi/alat)
               b(1) = (  0.182410 -0.105314  0.000000 )
               b(2) = (  0.000000  0.210629  0.000000 )
               b(3) = (  0.000000  0.000000  0.040856 )

     PseudoPot. # 1 for Ir read from file:
     /afs/slac.stanford.edu/u/if/mamunm/psp/gbrv1.5pbe/Ir.UPF
     MD5 check sum: 8836f839c3459d2b385c504ce6d91f2c
     Pseudo is Ultrasoft + core correction, Zval = 15.0
     Generated by new atomic code, or converted to UPF format
     Using radial grid of  983 points,  7 beta functions with:
                l(1) =   0
                l(2) =   0
                l(3) =   1
                l(4) =   1
                l(5) =   1
                l(6) =   2
                l(7) =   2
     Q(r) pseudized with  8 coefficients,  rinner =    1.400   1.400   1.400
                                                       1.400   1.400

     PseudoPot. # 2 for N  read from file:
     /afs/slac.stanford.edu/u/if/mamunm/psp/gbrv1.5pbe/N.UPF
     MD5 check sum: 95339753478d7afb44899504a8723017
     Pseudo is Ultrasoft + core correction, Zval =  5.0
     Generated by new atomic code, or converted to UPF format
     Using radial grid of  729 points,  4 beta functions with:
                l(1) =   0
                l(2) =   0
                l(3) =   1
                l(4) =   1
     Q(r) pseudized with  8 coefficients,  rinner =    0.900   0.900   0.900

     vdW kernel table read from file vdW_kernel_table
     MD5 check sum: 095c7af220d748ca6e76c0b4c6cfb241

     atomic species   valence    mass     pseudopotential
        Ir1           15.00   192.21700     Ir( 1.00)
        N1             5.00    14.00700     N ( 1.00)

     No symmetry found

   Cartesian axes

     site n.     atom                  positions (alat units)
         1           Ir1 tau(   1) = (   1.3705410   0.7912822  10.0000000  )
         2           Ir1 tau(   2) = (   4.1116229   0.7912822  10.0000000  )
         3           Ir1 tau(   3) = (   2.7410819   3.1651288  10.0000000  )
         4           Ir1 tau(   4) = (   5.4821639   3.1651288  10.0000000  )
         5           Ir1 tau(   5) = (   5.4821639   1.5825644  12.2380840  )
         6           Ir1 tau(   6) = (   2.7410819   1.5825644  12.2380840  )
         7           Ir1 tau(   7) = (   6.8527049   3.9564110  12.2380840  )
         8           Ir1 tau(   8) = (   4.1116229   3.9564110  12.2380840  )
         9           Ir1 tau(   9) = (   0.0000000   0.0000000  14.4761681  )
        10           Ir1 tau(  10) = (   2.7410819   0.0000000  14.4761681  )
        11           Ir1 tau(  11) = (   1.3705410   2.3738466  14.4761681  )
        12           Ir1 tau(  12) = (   4.1116229   2.3738466  14.4761681  )
        13           N1  tau(  13) = (   1.3705410   0.0000000  16.5961681  )

     number of k points=    20  Fermi-Dirac smearing, width (Ry)=  0.0110
                       cart. coord. in units 2pi/alat
        k(    1) = (   0.0000000   0.0000000   0.0000000), wk =   0.0555556
        k(    2) = (   0.0000000   0.0351048   0.0000000), wk =   0.1111111
        k(    3) = (   0.0000000   0.0702095   0.0000000), wk =   0.1111111
        k(    4) = (   0.0000000  -0.1053143   0.0000000), wk =   0.0555556
        k(    5) = (   0.0304016  -0.0175524   0.0000000), wk =   0.1111111
        k(    6) = (   0.0304016   0.0175524   0.0000000), wk =   0.1111111
        k(    7) = (   0.0304016   0.0526572   0.0000000), wk =   0.1111111
        k(    8) = (   0.0304016  -0.1228667   0.0000000), wk =   0.1111111
        k(    9) = (   0.0304016  -0.0877619   0.0000000), wk =   0.1111111
        k(   10) = (   0.0304016  -0.0526572   0.0000000), wk =   0.1111111
        k(   11) = (   0.0608032  -0.0351048   0.0000000), wk =   0.1111111
        k(   12) = (   0.0608032   0.0000000   0.0000000), wk =   0.1111111
        k(   13) = (   0.0608032   0.0351048   0.0000000), wk =   0.1111111
        k(   14) = (   0.0608032  -0.1404191   0.0000000), wk =   0.1111111
        k(   15) = (   0.0608032  -0.1053143   0.0000000), wk =   0.1111111
        k(   16) = (   0.0608032  -0.0702095   0.0000000), wk =   0.1111111
        k(   17) = (  -0.0912049   0.0526572   0.0000000), wk =   0.0555556
        k(   18) = (  -0.0912049   0.0877619   0.0000000), wk =   0.1111111
        k(   19) = (  -0.0912049   0.1228667   0.0000000), wk =   0.1111111
        k(   20) = (  -0.0912049  -0.0526572   0.0000000), wk =   0.0555556

     Largest allocated arrays     est. size (Mb)     dimensions
     Largest temporary arrays     est. size (Mb)     dimensions

     Initial potential from superposition of free atoms
     Check: negative starting charge=   -4.361751

     starting charge  178.99961, renormalised to  185.00000

     negative rho (up, down):  4.508E+00 0.000E+00

     *
     * You are using vdW-DF for exchange-correlation in this calculation.
     * Please cite the following three references that made this development
     * possible:
     *
     *   M. Dion, H. Rydberg, E. Schroder, D. C. Langreth, and
     *   B. I. Lundqvist, Phys. Rev. Lett. 92, 246401 (2004).
     *
     *   T. Thonhauser, V. R. Cooper, S. Li, A. Puzder, P. Hyldgaard, and
     *   D. C. Langreth, Phys. Rev. B 76, 125112 (2007).
     *
     *   G. Roman-Perez and J. M. Soler, Phys. Rev. Lett. 103, 096102 (2009).
     *
     *
     * If you are using vdW-DF2, please also cite:
     *
     *   K. Lee, E. D. Murray, L. Kong, B. I. Lundqvist, and
     *   D. C. Langreth, Phys. Rev. B 82, 081101(R) (2010).
     *
     *
     * If you are calculating the stress with vdW-DF, please also cite:
     *
     *   R. Sabatini, E. Kucukbenli, B. Kolb, T. Thonhauser, and
     *   S. de Gironcoli, J. Phys.: Condens. Matter 24, 424209 (2012).
     *

     Carrying out vdW-DF run using the following parameters:

     Nqs =      20    Nr_points =    1024   r_max =   100.000
     q_mesh =
               0.00001000     0.04494208     0.09755937     0.15916263
               0.23128650     0.31572767     0.41458969     0.53033537
               0.66584808     0.82450364     1.01025438     1.22772762
               1.48234092     1.78043706     2.12944203     2.53805004
               3.01644009     3.57652955     4.23227104     5.00000000

     Gradients computed in reciprocal space

     Adding external electric field

     Computed dipole along edir(3) :
        Dipole               -1.3803 Ry au,         -3.5083 Debye
        Dipole field         -0.0040 Ry au

        Potential amp.        0.3639 Ry
        Total length         45.0969 bohr

     Starting wfc are  148 randomized atomic wfcs

     Self-consistent Calculation

     iteration #  1     ecut=    36.75 Ry     beta=0.30
     Davidson diagonalization with overlap
     ethr =  1.00E-02,  avg # of iterations =  2.4

[...]

     total energy              =   -2195.96838222 Ry
     Harris-Foulkes estimate   =   -2222.99261352 Ry
     estimated scf accuracy    <      57.18463391 Ry

[...]

     End of self-consistent calculation

          k = 0.0000 0.0000 0.0000 ( 16073 PWs)   bands (ev):

   -48.1154 -48.1087 -48.1005 -47.9800 -47.9101 -47.9019 -47.8748 -47.7194
   -47.7048 -47.6818 -47.6727 -47.6477 -47.6170 -47.5594 -47.5539 -47.5277
   -47.5247 -47.5134 -47.4137 -47.3815 -47.2971 -47.2825 -47.2266 -47.1880
   -47.1658 -47.1635 -47.1574 -47.1548 -47.1368 -47.1263 -47.1102 -47.0979
   -47.0974 -47.0864 -47.0337 -47.0322 -10.1344  -7.4717  -5.5551  -5.2289
    -4.9239  -4.9203  -4.9198  -4.6377  -4.6235  -4.6229  -4.1423  -4.1272
    -4.1234  -3.8575  -3.8470  -3.8349  -2.3935  -2.3840  -2.3437  -1.8294
    -1.8094  -1.8000  -1.6148  -1.4669  -1.4646  -1.2513  -1.0251  -1.0171
    -0.9835  -0.9600  -0.9579  -0.7149  -0.7093  -0.6025  -0.4220  -0.3848
     0.3978   0.6695   0.7123   0.8744   0.9171   0.9579   0.9810   0.9836
     1.1308   1.2510   1.6837   1.7507   1.7556   1.8581   2.3818   2.4033
     2.4200   2.4442   2.4926   2.5909   2.6097   2.9058   2.9421   2.9525
     2.9722   3.0388   3.3462   3.3886   3.4065   3.4314

[...]

          k =-0.0912 0.0527 0.0000 ( 16164 PWs)   bands (ev):

[...]

     the Fermi energy is     1.9936 ev

!    total energy              =   -2219.80337331 Ry
     Harris-Foulkes estimate   =   -2219.80342389 Ry
     estimated scf accuracy    <       0.00000677 Ry

     The total energy is the sum of the following terms:

     one-electron contribution =  -18693.59356424 Ry
     hartree contribution      =    9376.27243621 Ry
     xc contribution           =    -628.61747374 Ry
     ewald contribution        =    7726.23439446 Ry
     electric field correction =       0.00036222 Ry
     smearing contrib. (-TS)   =      -0.09952822 Ry

     convergence has been achieved in  20 iterations

 BEEF-vdW xc energy contributions
           1 :   -556.616297854306
           2 :    517.584558050054
           3 :   -447.898231855191
           4 :    361.345425610502
           5 :   -272.975204308769
           6 :    195.252421094373
           7 :   -135.461834943869
           8 :    94.9231801411451
           9 :   -70.0504350706607
          10 :    54.6748761985970
          11 :   -42.6883377963688
          12 :    30.0589392726559
          13 :   -15.6515140549246
          14 :   0.815874996664775
          15 :    11.8579407663951
          16 :   -20.0203541046995
          17 :    22.6847570234125
          18 :   -20.6158130869452
[...]

[...]

     Program PWSCF v.5.1rc2 (svn rev. 11289) starts on 15Jan2018 at  0:52:20

[...]

     Total force =     0.055403     Total SCF correction =     0.014505
     SCF correction compared to forces is large: reduce conv_thr to get better values

[...]

   This run was terminated on:   1: 5:35  15Jan2018

[...]

     Program PWSCF v.5.1rc2 (svn rev. 11289) starts on 15Jan2018 at  1: 5:41

     Current dimensions of program PWSCF are:
     Max number of different atomic species (ntypx) = 10
     Max number of k-points (npk) =  40000
     Max angular momentum in pseudopotentials (lmaxx) =  3
     Presently stress not available with electric field

     IMPORTANT: XC functional enforced from input :
     Exchange-correlation      = BEEF-VDW ( 1  4 27 13 2)
     Any further DFT definition will be discarded
     Please, verify this is what you really want

     Subspace diagonalization in iterative solution of the eigenvalue problem:
     a serial algorithm will be used

     bravais-lattice index     =            0
     lattice parameter (alat)  =       1.8897  a.u.
     unit-cell volume          =    4299.0717 (a.u.)^3
     number of atoms/cell      =           13
     number of atomic types    =            2
     number of electrons       =       185.00
     number of Kohn-Sham states=          102
     kinetic-energy cutoff     =      36.7493  Ry
     charge density cutoff     =     367.4932  Ry
     convergence threshold     =      1.0E-05
     mixing beta               =       0.3000
     number of iterations used =           10  plain     mixing
     Exchange-correlation      = BEEF-VDW ( 1  4 27 13 2)
     nstep                     =           50

     celldm(1)=   1.889726  celldm(2)=   0.000000  celldm(3)=   0.000000
     celldm(4)=   0.000000  celldm(5)=   0.000000  celldm(6)=   0.000000

     crystal axes: (cart. coord. in units of alat)
               a(1) = (   5.482164   0.000000   0.000000 )
               a(2) = (   2.741082   4.747693   0.000000 )
               a(3) = (   0.000000   0.000000  24.476168 )

     reciprocal axes: (cart. coord. in units 2 pi/alat)
               b(1) = (  0.182410 -0.105314  0.000000 )
               b(2) = (  0.000000  0.210629  0.000000 )
               b(3) = (  0.000000  0.000000  0.040856 )

     PseudoPot. # 1 for Ir read from file:
     /afs/slac.stanford.edu/u/if/mamunm/psp/gbrv1.5pbe/Ir.UPF
     MD5 check sum: 8836f839c3459d2b385c504ce6d91f2c
     Pseudo is Ultrasoft + core correction, Zval = 15.0
     Generated by new atomic code, or converted to UPF format
     Using radial grid of  983 points,  7 beta functions with:
                l(1) =   0
                l(2) =   0
                l(3) =   1
                l(4) =   1
                l(5) =   1
                l(6) =   2
                l(7) =   2
     Q(r) pseudized with  8 coefficients,  rinner =    1.400   1.400   1.400
                                                       1.400   1.400

     PseudoPot. # 2 for N  read from file:
     /afs/slac.stanford.edu/u/if/mamunm/psp/gbrv1.5pbe/N.UPF
     MD5 check sum: 95339753478d7afb44899504a8723017
     Pseudo is Ultrasoft + core correction, Zval =  5.0
     Generated by new atomic code, or converted to UPF format
     Using radial grid of  729 points,  4 beta functions with:
                l(1) =   0
                l(2) =   0
                l(3) =   1
                l(4) =   1
     Q(r) pseudized with  8 coefficients,  rinner =    0.900   0.900   0.900

     vdW kernel table read from file vdW_kernel_table
     MD5 check sum: 095c7af220d748ca6e76c0b4c6cfb241

     atomic species   valence    mass     pseudopotential
        Ir1           15.00   192.21700     Ir( 1.00)
        N1             5.00    14.00700     N ( 1.00)

     No symmetry found

   Cartesian axes

     site n.     atom                  positions (alat units)
         1           Ir1 tau(   1) = (   1.3705410   0.7912822  10.0000000  )
         2           Ir1 tau(   2) = (   4.1116229   0.7912822  10.0000000  )
         3           Ir1 tau(   3) = (   2.7410819   3.1651288  10.0000000  )
         4           Ir1 tau(   4) = (   5.4821639   3.1651288  10.0000000  )
         5           Ir1 tau(   5) = (   5.4821639   1.5825644  12.2380840  )
         6           Ir1 tau(   6) = (   2.7410819   1.5825644  12.2380840  )
         7           Ir1 tau(   7) = (   6.8527049   3.9564110  12.2380840  )
         8           Ir1 tau(   8) = (   4.1116229   3.9564110  12.2380840  )
         9           Ir1 tau(   9) = (   5.4398290   0.0232049  14.4999416  )
        10           Ir1 tau(  10) = (   2.7803489   0.0232945  14.5003862  )
        11           Ir1 tau(  11) = (   6.8515302   2.3732321  14.3954005  )
        12           Ir1 tau(  12) = (   4.1103883   2.3278608  14.5013434  )
        13           N1  tau(  13) = (   4.1092112   3.9582995  15.6103713  )

     number of k points=    20  Fermi-Dirac smearing, width (Ry)=  0.0110
                       cart. coord. in units 2pi/alat
        k(    1) = (   0.0000000   0.0000000   0.0000000), wk =   0.0555556
        k(    2) = (   0.0000000   0.0351048   0.0000000), wk =   0.1111111
        k(    3) = (   0.0000000   0.0702095   0.0000000), wk =   0.1111111
        k(    4) = (   0.0000000  -0.1053143   0.0000000), wk =   0.0555556
        k(    5) = (   0.0304016  -0.0175524   0.0000000), wk =   0.1111111
        k(    6) = (   0.0304016   0.0175524   0.0000000), wk =   0.1111111
        k(    7) = (   0.0304016   0.0526572   0.0000000), wk =   0.1111111
        k(    8) = (   0.0304016  -0.1228667   0.0000000), wk =   0.1111111
        k(    9) = (   0.0304016  -0.0877619   0.0000000), wk =   0.1111111
        k(   10) = (   0.0304016  -0.0526572   0.0000000), wk =   0.1111111
        k(   11) = (   0.0608032  -0.0351048   0.0000000), wk =   0.1111111
        k(   12) = (   0.0608032   0.0000000   0.0000000), wk =   0.1111111
        k(   13) = (   0.0608032   0.0351048   0.0000000), wk =   0.1111111
        k(   14) = (   0.0608032  -0.1404191   0.0000000), wk =   0.1111111
        k(   15) = (   0.0608032  -0.1053143   0.0000000), wk =   0.1111111
        k(   16) = (   0.0608032  -0.0702095   0.0000000), wk =   0.1111111
        k(   17) = (  -0.0912049   0.0526572   0.0000000), wk =   0.0555556
        k(   18) = (  -0.0912049   0.0877619   0.0000000), wk =   0.1111111
        k(   19) = (  -0.0912049   0.1228667   0.0000000), wk =   0.1111111
        k(   20) = (  -0.0912049  -0.0526572   0.0000000), wk =   0.0555556

     Largest allocated arrays     est. size (Mb)     dimensions
     Largest temporary arrays     est. size (Mb)     dimensions

     Initial potential from superposition of free atoms
     Check: negative starting charge=   -4.368044

     starting charge  178.99961, renormalised to  185.00000

[...]

     *
     * You are using vdW-DF for exchange-correlation in this calculation.
     * Please cite the following three references that made this development
     * possible:
     *
     *   M. Dion, H. Rydberg, E. Schroder, D. C. Langreth, and
     *   B. I. Lundqvist, Phys. Rev. Lett. 92, 246401 (2004).
     *
     *   T. Thonhauser, V. R. Cooper, S. Li, A. Puzder, P. Hyldgaard, and
     *   D. C. Langreth, Phys. Rev. B 76, 125112 (2007).
     *
     *   G. Roman-Perez and J. M. Soler, Phys. Rev. Lett. 103, 096102 (2009).
     *
     *
     * If you are using vdW-DF2, please also cite:
     *
     *   K. Lee, E. D. Murray, L. Kong, B. I. Lundqvist, and
     *   D. C. Langreth, Phys. Rev. B 82, 081101(R) (2010).
     *
     *
     * If you are calculating the stress with vdW-DF, please also cite:
     *
     *   R. Sabatini, E. Kucukbenli, B. Kolb, T. Thonhauser, and
     *   S. de Gironcoli, J. Phys.: Condens. Matter 24, 424209 (2012).
     *

     Carrying out vdW-DF run using the following parameters:

     Nqs =      20    Nr_points =    1024   r_max =   100.000
     q_mesh =
               0.00001000     0.04494208     0.09755937     0.15916263
               0.23128650     0.31572767     0.41458969     0.53033537
               0.66584808     0.82450364     1.01025438     1.22772762
               1.48234092     1.78043706     2.12944203     2.53805004
               3.01644009     3.57652955     4.23227104     5.00000000

     Gradients computed in reciprocal space

[...]

     Starting wfc are  148 randomized atomic wfcs

     Self-consistent Calculation

[...]

     iteration #  2     ecut=    36.75 Ry     beta=0.30
     Davidson diagonalization with overlap
     c_bands:  1 eigenvalues not converged
     c_bands:  1 eigenvalues not converged
     c_bands:  2 eigenvalues not converged
     c_bands:  1 eigenvalues not converged
     ethr =  1.00E-02,  avg # of iterations = 16.9

[...]

     total energy              =   -2220.07085839 Ry
     Harris-Foulkes estimate   =   -2220.07086992 Ry
     estimated scf accuracy    <       0.00005083 Ry

     iteration # 19     ecut=    36.75 Ry     beta=0.30
     Davidson diagonalization with overlap
     ethr =  2.75E-08,  avg # of iterations =  2.2

[...]

     negative rho (up, down):  3.883E+00 0.000E+00

     Adding external electric field

     Computed dipole along edir(3) :
        Dipole               -0.0712 Ry au,         -0.1810 Debye
        Dipole field         -0.0002 Ry au

        Potential amp.        0.0188 Ry
        Total length         45.0969 bohr

     End of self-consistent calculation

[...]

          k = 0.0608-0.0702 0.0000 ( 16191 PWs)   bands (ev):

[...]

          k =-0.0912-0.0527 0.0000 ( 16164 PWs)   bands (ev):

   -47.8011 -47.6606 -47.5963 -47.5656 -47.5110 -47.4968 -47.4855 -47.4463
   -47.4380 -47.4116 -47.3634 -47.3139 -47.2852 -47.2829 -47.2681 -47.2165
   -47.1756 -47.1172 -47.0951 -47.0532 -47.0304 -47.0233 -47.0186 -46.8879
   -46.8781 -46.8551 -46.8416 -46.8138 -46.7490 -46.7308 -46.7121 -46.7035
   -46.7003 -46.6889 -46.6883 -46.6831 -13.1994  -5.5181  -5.1887  -4.4502
    -3.8327  -3.7742  -3.6710  -3.5149  -3.4757  -3.4017  -3.3870  -3.2879
    -2.8883  -2.8277  -2.7363  -2.6748  -2.5394  -2.3769  -2.3333  -2.0428
    -1.9260  -1.8589  -1.8357  -1.6089  -1.5869  -1.4198  -1.2359  -1.1432
    -0.8884  -0.8630  -0.8350  -0.6880  -0.5654  -0.4208  -0.3808  -0.3579
    -0.3406  -0.2751  -0.2306  -0.2268  -0.1628   0.0401   0.4172   0.5596
     0.6185   0.6545   0.9181   0.9620   1.0701   1.0747   1.1460   1.3905
     1.5421   1.5818   1.7961   1.8834   1.9458   2.1104   2.2989   2.6080
     2.6779   2.9093   3.0669   3.2677   3.2714   3.4587

     the Fermi energy is     2.4133 ev

!    total energy              =   -2220.07085875 Ry
     Harris-Foulkes estimate   =   -2220.07086333 Ry
     estimated scf accuracy    <       0.00000339 Ry

     The total energy is the sum of the following terms:

     one-electron contribution =  -19001.22275252 Ry
     hartree contribution      =    9531.66436933 Ry
     xc contribution           =    -629.25232865 Ry
     ewald contribution        =    7878.83132599 Ry
     electric field correction =       0.00001482 Ry
     smearing contrib. (-TS)   =      -0.09148772 Ry

     convergence has been achieved in  19 iterations

 BEEF-vdW xc energy contributions
           1 :   -557.271957649311
           2 :    518.469773147085
           3 :   -449.052487438484
           4 :    362.597535501888
           5 :   -274.052148234873
           6 :    195.911808690554
           7 :   -135.590975060166
           8 :    94.5763921142189
           9 :   -69.4180544261030
          10 :    54.0018736588376
          11 :   -42.1788502276053
          12 :    29.8102447404700
          13 :   -15.6436666859307
          14 :   0.948460397599206
          15 :    11.7090737310015
          16 :   -19.9508183661563
          17 :    22.7314968545094
          18 :   -20.7546431567715
          19 :    16.1023339728240
          20 :   -11.3405329636138
          21 :    8.52099985342977
          22 :   -8.48502221698925
          23 :    10.7115311339031
          24 :   -13.7190353636256
          25 :    15.8086885735248
          26 :   -15.8187919803499
          27 :    13.5779955997563
          28 :   -9.89804268244404
          29 :    6.15047507822385
          30 :   -3.64070003692723
          31 :   -47.8732279614111
          32 :   -35.9123511937964

     Forces acting on atoms (Ry/au):

     negative rho (up, down):  3.883E+00 0.000E+00
     atom    1 type  1   force =     0.00000262   -0.00214930    0.01829343
     atom    2 type  1   force =    -0.00000974   -0.00000780    0.01684902
     atom    3 type  1   force =     0.00185989    0.00105648    0.01833115
     atom    4 type  1   force =    -0.00185467    0.00105634    0.01829571
     atom    5 type  1   force =    -0.00407599   -0.00213590   -0.01104582
     atom    6 type  1   force =     0.00383735   -0.00212647   -0.01096468
     atom    7 type  1   force =    -0.00013104    0.00430690   -0.01117344
     atom    8 type  1   force =    -0.00007604   -0.00011342   -0.03715163
     atom    9 type  1   force =     0.00035428    0.00018143   -0.00024411
     atom   10 type  1   force =    -0.00032849   -0.00003642   -0.00026353
     atom   11 type  1   force =     0.00008888    0.00019699    0.00005431
     atom   12 type  1   force =     0.00006852    0.00019678   -0.00052302
     atom   13 type  2   force =     0.00026445   -0.00042561   -0.00045740

     Total force =     0.055773     Total SCF correction =     0.005006

     entering subroutine stress ...

     negative rho (up, down):  3.883E+00 0.000E+00
          total   stress  (Ry/bohr**3)                   (kbar)     P=  -23.63
  -0.00018178   0.00000001   0.00000057        -26.74      0.00      0.08
   0.00000001  -0.00018197  -0.00000002          0.00    -26.77     -0.00
   0.00000057  -0.00000002  -0.00011819          0.08     -0.00    -17.39

 !ASE

     Writing output data file calc.save

     General routines

     Parallel routines

   This run was terminated on:   1:19: 3  15Jan2018

   JOB DONE.
Job  /afs/slac/g/suncat/bin/suncat-tsmpirun -x LD_LIBRARY_PATH -wdir /scratch/qe842452_lpi4e pw.x -in pw.inp

TID   HOST_NAME   COMMAND_LINE            STATUS            TERMINATION_TIME
00000 suncat0253 pw.x -in pw.inp   Done                     01/15/2018 01:19:03
00001 suncat0253 pw.x -in pw.inp   Done                     01/15/2018 01:19:03
00002 suncat0253 pw.x -in pw.inp   Done                     01/15/2018 01:19:03
00003 suncat0253 pw.x -in pw.inp   Done                     01/15/2018 01:19:03
00004 suncat0253 pw.x -in pw.inp   Done                     01/15/2018 01:19:03
00005 suncat0253 pw.x -in pw.inp   Done                     01/15/2018 01:19:03
00006 suncat0253 pw.x -in pw.inp   Done                     01/15/2018 01:19:03
00007 suncat0253 pw.x -in pw.inp   Done                     01/15/2018 01:19:03
00008 suncat0249 pw.x -in pw.inp   Done                     01/15/2018 01:19:03
00009 suncat0249 pw.x -in pw.inp   Done                     01/15/2018 01:19:03
00010 suncat0249 pw.x -in pw.inp   Done                     01/15/2018 01:19:03
00011 suncat0249 pw.x -in pw.inp   Done                     01/15/2018 01:19:03
00012 suncat0249 pw.x -in pw.inp   Done                     01/15/2018 01:19:03
00013 suncat0249 pw.x -in pw.inp   Done                     01/15/2018 01:19:03
00014 suncat0249 pw.x -in pw.inp   Done                     01/15/2018 01:19:03
00015 suncat0249 pw.x -in pw.inp   Done                     01/15/2018 01:19:03
00016 suncat0248 pw.x -in pw.inp   Done                     01/15/2018 01:19:03
00017 suncat0248 pw.x -in pw.inp   Done                     01/15/2018 01:19:03
00018 suncat0248 pw.x -in pw.inp   Done                     01/15/2018 01:19:03
00019 suncat0248 pw.x -in pw.inp   Done                     01/15/2018 01:19:03
00020 suncat0248 pw.x -in pw.inp   Done                     01/15/2018 01:19:03
00021 suncat0248 pw.x -in pw.inp   Done                     01/15/2018 01:19:03
00022 suncat0248 pw.x -in pw.inp   Done                     01/15/2018 01:19:03
00023 suncat0248 pw.x -in pw.inp   Done                     01/15/2018 01:19:03
00024 suncat0247 pw.x -in pw.inp   Done                     01/15/2018 01:19:03
00025 suncat0247 pw.x -in pw.inp   Done                     01/15/2018 01:19:03
00026 suncat0247 pw.x -in pw.inp   Done                     01/15/2018 01:19:03
00027 suncat0247 pw.x -in pw.inp   Done                     01/15/2018 01:19:03
00028 suncat0247 pw.x -in pw.inp   Done                     01/15/2018 01:19:03
00029 suncat0247 pw.x -in pw.inp   Done                     01/15/2018 01:19:03
00030 suncat0247 pw.x -in pw.inp   Done                     01/15/2018 01:19:03
00031 suncat0247 pw.x -in pw.inp   Done                     01/15/2018 01:19:03