     Program PWSCF v.5.1rc2 (svn rev. 11289) starts on  3May2018 at  9: 3: 5

     Current dimensions of program PWSCF are:
     Max number of different atomic species (ntypx) = 10
     Max number of k-points (npk) =  40000
     Max angular momentum in pseudopotentials (lmaxx) =  3
     Presently stress not available with electric field

     IMPORTANT: XC functional enforced from input :
     Exchange-correlation      = BEEF-VDW ( 1  4 27 13 2)
     Any further DFT definition will be discarded
     Please, verify this is what you really want

     Subspace diagonalization in iterative solution of the eigenvalue problem:
     a serial algorithm will be used

     bravais-lattice index     =            0
     lattice parameter (alat)  =       1.8897  a.u.
     unit-cell volume          =    5182.3421 (a.u.)^3
     number of atoms/cell      =           13
     number of atomic types    =            2
     number of electrons       =       157.00
     number of Kohn-Sham states=           88
     kinetic-energy cutoff     =      36.7493  Ry
     charge density cutoff     =     367.4932  Ry
     convergence threshold     =      1.0E-05
     mixing beta               =       0.3000
     number of iterations used =           10  plain     mixing
     Exchange-correlation      = BEEF-VDW ( 1  4 27 13 2)
     nstep                     =           50

     celldm(1)=   1.889726  celldm(2)=   0.000000  celldm(3)=   0.000000
     celldm(4)=   0.000000  celldm(5)=   0.000000  celldm(6)=   0.000000

     crystal axes: (cart. coord. in units of alat)
               a(1) = (   5.970602   0.000000   0.000000 )
               a(2) = (   2.985301   5.170693   0.000000 )
               a(3) = (   0.000000   0.000000  24.874976 )

     reciprocal axes: (cart. coord. in units 2 pi/alat)
               b(1) = (  0.167487 -0.096699  0.000000 )
               b(2) = (  0.000000  0.193398  0.000000 )
               b(3) = (  0.000000  0.000000  0.040201 )

     PseudoPot. # 1 for Nb read from file:
     /u/if/mamunm/psp/gbrv1.5pbe/Nb.UPF
     MD5 check sum: 573aab8a2fa660278ed4a62cd769473f
     Pseudo is Ultrasoft + core correction, Zval = 13.0
     Generated by new atomic code, or converted to UPF format
     Using radial grid of  887 points,  6 beta functions with:
                l(1) =   0
                l(2) =   0
                l(3) =   1
                l(4) =   1
                l(5) =   2
                l(6) =   2
     Q(r) pseudized with  6 coefficients,  rinner =    1.000   1.000   1.000
                                                       1.000   1.000

     PseudoPot. # 2 for H  read from file:
     /u/if/mamunm/psp/gbrv1.5pbe/H.UPF
     MD5 check sum: 761ae9a214b05c3daf00ab9f6b793d6f
     Pseudo is Ultrasoft, Zval =  1.0
     Generated by new atomic code, or converted to UPF format
     Using radial grid of  615 points,  2 beta functions with:
                l(1) =   0
                l(2) =   0
     Q(r) pseudized with  8 coefficients,  rinner =    0.700

     vdW kernel table read from file vdW_kernel_table
     MD5 check sum: 095c7af220d748ca6e76c0b4c6cfb241

     atomic species   valence    mass     pseudopotential
        Nb1           13.00    92.90637     Nb( 1.00)
        H1             1.00     1.00800     H ( 1.00)

     No symmetry found

   Cartesian axes

     site n.     atom                  positions (alat units)
         1           Nb1 tau(   1) = (   1.4926504   0.8617821  10.0000000  )
         2           Nb1 tau(   2) = (   4.4779512   0.8617821  10.0000000  )
         3           Nb1 tau(   3) = (   2.9853008   3.4471284  10.0000000  )
         4           Nb1 tau(   4) = (   5.9706016   3.4471284  10.0000000  )
         5           Nb1 tau(   5) = (   5.9706016   1.7235642  12.4374879  )
         6           Nb1 tau(   6) = (   2.9853008   1.7235642  12.4374879  )
         7           Nb1 tau(   7) = (   7.4632520   4.3089105  12.4374879  )
         8           Nb1 tau(   8) = (   4.4779512   4.3089105  12.4374879  )
         9           Nb1 tau(   9) = (   0.0000000   0.0000000  14.8749758  )
        10           Nb1 tau(  10) = (   2.9853008   0.0000000  14.8749758  )
        11           Nb1 tau(  11) = (   1.4926504   2.5853463  14.8749758  )
        12           Nb1 tau(  12) = (   4.4779512   2.5853463  14.8749758  )
        13           H1  tau(  13) = (   0.0000000   0.0000000  16.5324758  )

     number of k points=    20  Fermi-Dirac smearing, width (Ry)=  0.0110
                       cart. coord. in units 2pi/alat
        k(    1) = (   0.0000000   0.0000000   0.0000000), wk =   0.0555556
        k(    2) = (   0.0000000   0.0322329   0.0000000), wk =   0.1111111
        k(    3) = (   0.0000000   0.0644659   0.0000000), wk =   0.1111111
        k(    4) = (   0.0000000  -0.0966988   0.0000000), wk =   0.0555556
        k(    5) = (   0.0279146  -0.0161165   0.0000000), wk =   0.1111111
        k(    6) = (   0.0279146   0.0161165   0.0000000), wk =   0.1111111
        k(    7) = (   0.0279146   0.0483494   0.0000000), wk =   0.1111111
        k(    8) = (   0.0279146  -0.1128153   0.0000000), wk =   0.1111111
        k(    9) = (   0.0279146  -0.0805824   0.0000000), wk =   0.1111111
        k(   10) = (   0.0279146  -0.0483494   0.0000000), wk =   0.1111111
        k(   11) = (   0.0558291  -0.0322329   0.0000000), wk =   0.1111111
        k(   12) = (   0.0558291   0.0000000   0.0000000), wk =   0.1111111
        k(   13) = (   0.0558291   0.0322329   0.0000000), wk =   0.1111111
        k(   14) = (   0.0558291  -0.1289318   0.0000000), wk =   0.1111111
        k(   15) = (   0.0558291  -0.0966988   0.0000000), wk =   0.1111111
        k(   16) = (   0.0558291  -0.0644659   0.0000000), wk =   0.1111111
        k(   17) = (  -0.0837437   0.0483494   0.0000000), wk =   0.0555556
        k(   18) = (  -0.0837437   0.0805824   0.0000000), wk =   0.1111111
        k(   19) = (  -0.0837437   0.1128153   0.0000000), wk =   0.1111111
        k(   20) = (  -0.0837437  -0.0483494   0.0000000), wk =   0.0555556

     Largest allocated arrays     est. size (Mb)     dimensions
     Largest temporary arrays     est. size (Mb)     dimensions

     Initial potential from superposition of free atoms
     Check: negative starting charge=   -0.005216

     starting charge  156.96719, renormalised to  157.00000

     negative rho (up, down):  5.217E-03 0.000E+00

     *
     * You are using vdW-DF for exchange-correlation in this calculation.
     * Please cite the following three references that made this development
     * possible:
     *
     *   M. Dion, H. Rydberg, E. Schroder, D. C. Langreth, and
     *   B. I. Lundqvist, Phys. Rev. Lett. 92, 246401 (2004).
     *
     *   T. Thonhauser, V. R. Cooper, S. Li, A. Puzder, P. Hyldgaard, and
     *   D. C. Langreth, Phys. Rev. B 76, 125112 (2007).
     *
     *   G. Roman-Perez and J. M. Soler, Phys. Rev. Lett. 103, 096102 (2009).
     *
     *
     * If you are using vdW-DF2, please also cite:
     *
     *   K. Lee, E. D. Murray, L. Kong, B. I. Lundqvist, and
     *   D. C. Langreth, Phys. Rev. B 82, 081101(R) (2010).
     *
     *
     * If you are calculating the stress with vdW-DF, please also cite:
     *
     *   R. Sabatini, E. Kucukbenli, B. Kolb, T. Thonhauser, and
     *   S. de Gironcoli, J. Phys.: Condens. Matter 24, 424209 (2012).
     *

     Carrying out vdW-DF run using the following parameters:

     Nqs =      20    Nr_points =    1024   r_max =   100.000
     q_mesh =
               0.00001000     0.04494208     0.09755937     0.15916263
               0.23128650     0.31572767     0.41458969     0.53033537
               0.66584808     0.82450364     1.01025438     1.22772762
               1.48234092     1.78043706     2.12944203     2.53805004
               3.01644009     3.57652955     4.23227104     5.00000000

     Gradients computed in reciprocal space

     Adding external electric field

     Computed dipole along edir(3) :
        Dipole               -0.0016 Ry au,         -0.0040 Debye
        Dipole field         -0.0000 Ry au

        Potential amp.        0.0003 Ry
        Total length         45.8317 bohr

     Starting wfc are  157 randomized atomic wfcs

     Self-consistent Calculation

     iteration #  1     ecut=    36.75 Ry     beta=0.30
     Davidson diagonalization with overlap
     ethr =  1.00E-02,  avg # of iterations =  2.0

[...]

     total energy              =   -1421.25654371 Ry
     Harris-Foulkes estimate   =   -1423.75990209 Ry
     estimated scf accuracy    <       5.55652946 Ry

[...]

     End of self-consistent calculation

          k = 0.0000 0.0000 0.0000 ( 19435 PWs)   bands (ev):

   -53.3968 -53.3550 -53.2732 -53.2730 -53.2490 -53.2259 -53.2253 -53.2223
   -53.1721 -53.1459 -53.1456 -53.0005 -29.8258 -29.8249 -29.8249 -29.7817
   -29.7521 -29.7520 -29.7379 -29.7153 -29.6943 -29.6942 -29.4471 -29.3402
   -29.3400 -29.2701 -29.2637 -29.2635 -29.1491 -29.1451 -29.1163 -29.1162
   -29.0684 -29.0403 -29.0403 -29.0241 -29.0240 -29.0180 -28.9463 -28.9378
   -28.9377 -28.9045 -28.8738 -28.8738 -28.8206 -28.8205 -28.7638 -28.7637
    -3.7792  -2.5275  -1.9658  -1.7956  -1.7956  -1.7910  -1.7458  -1.4770
    -1.4770  -1.2387  -1.0940  -1.0940  -1.0171  -0.9981  -0.9980  -0.7452
     0.0901   0.1157   0.1158   1.1356   1.1637   1.1637   1.2428   1.5533
     1.8654   1.8654   1.9282   2.1066   2.1066   2.1175   2.1177   2.1893
     2.2030   2.2030   2.2563   2.2563   2.5690   2.9728   3.0259   3.0260

[...]

          k =-0.0837 0.0483 0.0000 ( 19524 PWs)   bands (ev):

[...]

     the Fermi energy is     1.7590 ev

!    total energy              =   -1423.27149927 Ry
     Harris-Foulkes estimate   =   -1423.27150177 Ry
     estimated scf accuracy    <       0.00000585 Ry

     The total energy is the sum of the following terms:

     one-electron contribution =  -11439.37334839 Ry
     hartree contribution      =    5711.29378113 Ry
     xc contribution           =    -228.96430093 Ry
     ewald contribution        =    4533.89262555 Ry
     electric field correction =       0.00005083 Ry
     smearing contrib. (-TS)   =      -0.12030747 Ry

     convergence has been achieved in  18 iterations

 BEEF-vdW xc energy contributions
           1 :   -196.338393294097
           2 :    178.523568927826
           3 :   -148.153585871486
           4 :    113.380741524873
           5 :   -82.0515194147136
           6 :    59.0704506981622
           7 :   -45.3565455854197
           8 :    38.5038858485449
           9 :   -34.5858781144244
          10 :    30.1260516926812
          11 :   -23.4127135335077
          12 :    14.7455481234117
          13 :   -5.74954723164032
          14 :   -1.76438203563768
          15 :    6.77790436353092
          16 :   -9.45829970114127
          17 :    10.8654791361354
          18 :   -12.2352442086919
          19 :    14.2677862831416
          20 :   -16.8075745317580
          21 :    19.0337115497319
          22 :   -20.0002240060130
          23 :    19.1900881938059
          24 :   -16.7890610062448
          25 :    13.5639784256556
          26 :   -10.4586231756040
          27 :    8.14542523737776
          28 :   -6.76987533444097
          29 :    5.99235820883143
          30 :   -5.27251405866747
          31 :   -22.6275941959350
          32 :   -17.0889398068630

     Forces acting on atoms (Ry/au):

     negative rho (up, down):  4.939E-03 0.000E+00
     atom    1 type  1   force =    -0.00028756   -0.00016208   -0.00606446
     atom    2 type  1   force =     0.00028165   -0.00016658   -0.00609435
     atom    3 type  1   force =    -0.00000740    0.00032413   -0.00609936
     atom    4 type  1   force =     0.00000640    0.00000029   -0.00485509
     atom    5 type  1   force =     0.00001175    0.00278723   -0.00695455
     atom    6 type  1   force =    -0.00000630   -0.00000457    0.00036666
     atom    7 type  1   force =    -0.00242418   -0.00139681   -0.00695579
     atom    8 type  1   force =     0.00242016   -0.00138376   -0.00695428
     atom    9 type  1   force =    -0.00000416    0.00000376   -0.04429651
     atom   10 type  1   force =     0.00000379   -0.00297107    0.00202981
     atom   11 type  1   force =    -0.00257421    0.00148486    0.00204819
     atom   12 type  1   force =     0.00257892    0.00148345    0.00201218
     atom   13 type  2   force =     0.00000115    0.00000117    0.08181755

     Total force =     0.093248     Total SCF correction =     0.000895

     entering subroutine stress ...

     negative rho (up, down):  4.939E-03 0.000E+00
          total   stress  (Ry/bohr**3)                   (kbar)     P=  -18.31
  -0.00024057  -0.00000000   0.00000000        -35.39     -0.00      0.00
  -0.00000000  -0.00024056   0.00000000         -0.00    -35.39      0.00
   0.00000000   0.00000000   0.00010769          0.00      0.00     15.84

     BFGS Geometry Optimization

     number of scf cycles    =   1
     number of bfgs steps    =   0

     energy   new            =   -1423.2714992720 Ry

     new trust radius        =       0.0818175485 bohr
     new conv_thr            =       0.0000099958 Ry

ATOMIC_POSITIONS (crystal)
Nb1      0.166666667   0.166666667   0.402010442    0   0   0
Nb1      0.666666667   0.166666667   0.402010442    0   0   0
Nb1      0.166666667   0.666666667   0.402010442    0   0   0
Nb1      0.666666667   0.666666667   0.402010442    0   0   0
Nb1      0.833333333   0.333333333   0.500000000    0   0   0
Nb1      0.333333333   0.333333333   0.500000000    0   0   0
Nb1      0.833333333   0.833333333   0.500000000    0   0   0
Nb1      0.333333333   0.833333333   0.500000000    0   0   0
Nb1     -0.000000561   0.000000384   0.597047217
Nb1      0.500152369  -0.000304064   0.598032739
Nb1     -0.000304135   0.500151963   0.598033130
Nb1      0.500152661   0.500151819   0.598032364
H1       0.000000042   0.000000120   0.666363333

     Writing output data file calc.save
     Check: negative starting charge=   -0.005216
     NEW-OLD atomic charge density approx. for the potential
     Check: negative starting charge=   -0.005220

[...]

     energy   old            =   -1423.2714992720 Ry
     energy   new            =   -1423.2778187982 Ry

     CASE: energy  _new < energy  _old

[...]

     iteration #  1     ecut=    36.75 Ry     beta=0.30
     Davidson diagonalization with overlap
     c_bands:  1 eigenvalues not converged
     ethr =  1.00E-06,  avg # of iterations = 14.9

[...]

     Total force =     0.003694     Total SCF correction =     0.000267

[...]

     number of scf cycles    =  13
     number of bfgs steps    =  12

     energy   old            =   -1423.2932884538 Ry
     energy   new            =   -1423.2934952797 Ry

     CASE: energy  _new < energy  _old

     new trust radius        =       0.0204183075 bohr
     new conv_thr            =       0.0000001000 Ry

ATOMIC_POSITIONS (crystal)
Nb1      0.166666667   0.166666667   0.402010442    0   0   0
Nb1      0.666666667   0.166666667   0.402010442    0   0   0
Nb1      0.166666667   0.666666667   0.402010442    0   0   0
Nb1      0.666666667   0.666666667   0.402010442    0   0   0
Nb1      0.833333333   0.333333333   0.500000000    0   0   0
Nb1      0.333333333   0.333333333   0.500000000    0   0   0
Nb1      0.833333333   0.833333333   0.500000000    0   0   0
Nb1      0.333333333   0.833333333   0.500000000    0   0   0
Nb1     -0.000004016   0.000006802   0.609029591
Nb1      0.503316237  -0.006631853   0.596698054
Nb1     -0.006638048   0.503321958   0.596699978
Nb1      0.503316270   0.503322207   0.596696977
H1       0.000004024  -0.000001433   0.681818793

     Writing output data file calc.save
     Check: negative starting charge=   -0.005243
     NEW-OLD atomic charge density approx. for the potential
     Check: negative starting charge=   -0.005230

[...]

     Self-consistent Calculation

[...]

     Threshold (ethr) on eigenvalues was too large:
     Diagonalizing with lowered threshold

     Davidson diagonalization with overlap
     ethr =  6.71E-08,  avg # of iterations =  1.8

[...]

     total energy              =   -1423.29352342 Ry
     Harris-Foulkes estimate   =   -1423.29352358 Ry
     estimated scf accuracy    <       0.00000019 Ry

     iteration # 11     ecut=    36.75 Ry     beta=0.30
     Davidson diagonalization with overlap
     ethr =  9.80E-11,  avg # of iterations =  3.1

[...]

     negative rho (up, down):  4.972E-03 0.000E+00

     Adding external electric field

     Computed dipole along edir(3) :
        Dipole               -0.2885 Ry au,         -0.7333 Debye
        Dipole field         -0.0007 Ry au

        Potential amp.        0.0641 Ry
        Total length         45.8317 bohr

     End of self-consistent calculation

[...]

          k = 0.0558-0.0645 0.0000 ( 19505 PWs)   bands (ev):

[...]

          k =-0.0837-0.0483 0.0000 ( 19524 PWs)   bands (ev):

   -53.4899 -53.4705 -53.4482 -53.4440 -53.4083 -53.3883 -53.3780 -53.3679
   -53.3592 -53.3496 -53.3229 -53.3154 -29.8343 -29.8204 -29.8147 -29.8071
   -29.7809 -29.7633 -29.7106 -29.6913 -29.6566 -29.6307 -29.6039 -29.5478
   -29.4974 -29.4598 -29.4480 -29.4307 -29.4184 -29.3996 -29.3788 -29.3572
   -29.3260 -29.3148 -29.3099 -29.3053 -29.2837 -29.2792 -29.1862 -29.1679
   -29.1578 -29.1508 -29.1235 -29.1163 -29.1109 -29.1036 -29.0274 -29.0191
    -2.3744  -2.3296  -1.5155  -1.3939  -1.0546  -0.9559  -0.9490  -0.8890
    -0.8459  -0.7513  -0.6036  -0.2878  -0.2364  -0.1762  -0.1096  -0.0536
     0.0484   0.3445   0.3884   0.4749   0.5245   0.5560   0.7299   0.8118
     1.0679   1.0803   1.1368   1.2338   1.2738   1.3122   1.3832   1.4329
     1.4764   1.4844   1.7319   1.7459   1.7648   2.0724   2.1663   2.4690

     the Fermi energy is     1.6014 ev

!    total energy              =   -1423.29352342 Ry
     Harris-Foulkes estimate   =   -1423.29352333 Ry
     estimated scf accuracy    <       0.00000001 Ry

     The total energy is the sum of the following terms:

     one-electron contribution =  -11344.36691872 Ry
     hartree contribution      =    5662.92213406 Ry
     xc contribution           =    -228.83592776 Ry
     ewald contribution        =    4487.10475265 Ry
     electric field correction =       0.00020180 Ry
     smearing contrib. (-TS)   =      -0.11776546 Ry

     convergence has been achieved in  11 iterations

 BEEF-vdW xc energy contributions
           1 :   -196.208575403397
           2 :    178.348431304575
           3 :   -147.927484321172
           4 :    113.142120913279
           5 :   -81.8594419907983
           6 :    58.9704776576877
           7 :   -45.3509784112249
           8 :    38.5450030929572
           9 :   -34.6009948462147
          10 :    30.0609934425784
          11 :   -23.2648404782411
          12 :    14.5617519285218
          13 :   -5.58963572705866
          14 :   -1.87074738835292
          15 :    6.84908814053261
          16 :   -9.54430187017269
          17 :    11.0107363258243
          18 :   -12.4456843036228
          19 :    14.5047826819566
          20 :   -17.0121725527796
          21 :    19.1645042566985
          22 :   -20.0596909272900
          23 :    19.2227221728486
          24 :   -16.8532579597775
          25 :    13.6963172349703
          26 :   -10.6536684131491
          27 :    8.36199562225016
          28 :   -6.95816299523736
          29 :    6.12412895857727
          30 :   -5.35450548193435
          31 :   -22.6179095292803
          32 :   -17.0685041104561

     Forces acting on atoms (Ry/au):

     negative rho (up, down):  4.972E-03 0.000E+00
     atom    1 type  1   force =    -0.00145127   -0.00083766   -0.00519283
     atom    2 type  1   force =     0.00145129   -0.00083963   -0.00519127
     atom    3 type  1   force =    -0.00000168    0.00167622   -0.00519082
     atom    4 type  1   force =     0.00000149   -0.00000022   -0.00610297
     atom    5 type  1   force =     0.00000493   -0.01230268    0.00700001
     atom    6 type  1   force =    -0.00000466   -0.00000066    0.00012145
     atom    7 type  1   force =     0.01065392    0.00614663    0.00700362
     atom    8 type  1   force =    -0.01065465    0.00615285    0.00699753
     atom    9 type  1   force =    -0.00000043   -0.00000004    0.00006400
     atom   10 type  1   force =     0.00000178    0.00100272    0.00004049
     atom   11 type  1   force =     0.00086677   -0.00049734    0.00003723
     atom   12 type  1   force =    -0.00086757   -0.00049968    0.00004502
     atom   13 type  2   force =     0.00000007   -0.00000051    0.00036854

     Total force =     0.001775     Total SCF correction =     0.000366
     SCF correction compared to forces is large: reduce conv_thr to get better values

     entering subroutine stress ...

     negative rho (up, down):  4.972E-03 0.000E+00
          total   stress  (Ry/bohr**3)                   (kbar)     P=  -23.24
  -0.00024615  -0.00000000   0.00000000        -36.21     -0.00      0.00
  -0.00000000  -0.00024615   0.00000000         -0.00    -36.21      0.00
   0.00000000   0.00000000   0.00001834          0.00      0.00      2.70

     bfgs converged in  14 scf cycles and  13 bfgs steps
     (criteria: energy <  1.0E+00, force <  1.9E-03)

     End of BFGS Geometry Optimization

     Final energy   =   -1423.2935234229 Ry
Begin final coordinates

ATOMIC_POSITIONS (crystal)
Nb1      0.166666667   0.166666667   0.402010442    0   0   0
Nb1      0.666666667   0.166666667   0.402010442    0   0   0
Nb1      0.166666667   0.666666667   0.402010442    0   0   0
Nb1      0.666666667   0.666666667   0.402010442    0   0   0
Nb1      0.833333333   0.333333333   0.500000000    0   0   0
Nb1      0.333333333   0.333333333   0.500000000    0   0   0
Nb1      0.833333333   0.833333333   0.500000000    0   0   0
Nb1      0.333333333   0.833333333   0.500000000    0   0   0
Nb1     -0.000004016   0.000006802   0.609029591
Nb1      0.503316237  -0.006631853   0.596698054
Nb1     -0.006638048   0.503321958   0.596699978
Nb1      0.503316270   0.503322207   0.596696977
H1       0.000004024  -0.000001433   0.681818793
End final coordinates

     Writing output data file calc.save

     General routines

     Parallel routines

   This run was terminated on:  10:41:24   3May2018

   JOB DONE.
Job  /afs/slac/g/suncat/bin/suncat-tsmpirun -x LD_LIBRARY_PATH -wdir /scratch/qe698186_ACNZQ pw.x -npool 4 -in pw.inp

TID   HOST_NAME   COMMAND_LINE            STATUS            TERMINATION_TIME
00000 suncat0028 pw.x -npool 4 -i  Done                     05/03/2018 10:41:24
00001 suncat0028 pw.x -npool 4 -i  Done                     05/03/2018 10:41:24
00002 suncat0028 pw.x -npool 4 -i  Done                     05/03/2018 10:41:24
00003 suncat0028 pw.x -npool 4 -i  Done                     05/03/2018 10:41:24
00004 suncat0028 pw.x -npool 4 -i  Done                     05/03/2018 10:41:24
00005 suncat0028 pw.x -npool 4 -i  Done                     05/03/2018 10:41:24
00006 suncat0028 pw.x -npool 4 -i  Done                     05/03/2018 10:41:24
00007 suncat0028 pw.x -npool 4 -i  Done                     05/03/2018 10:41:24
00008 suncat0016 pw.x -npool 4 -i  Done                     05/03/2018 10:41:24
00009 suncat0016 pw.x -npool 4 -i  Done                     05/03/2018 10:41:24
00010 suncat0016 pw.x -npool 4 -i  Done                     05/03/2018 10:41:24
00011 suncat0016 pw.x -npool 4 -i  Done                     05/03/2018 10:41:24
00012 suncat0016 pw.x -npool 4 -i  Done                     05/03/2018 10:41:24
00013 suncat0016 pw.x -npool 4 -i  Done                     05/03/2018 10:41:24
00014 suncat0016 pw.x -npool 4 -i  Done                     05/03/2018 10:41:24
00015 suncat0016 pw.x -npool 4 -i  Done                     05/03/2018 10:41:24
00016 suncat0170 pw.x -npool 4 -i  Done                     05/03/2018 10:41:24
00017 suncat0170 pw.x -npool 4 -i  Done                     05/03/2018 10:41:24
00018 suncat0170 pw.x -npool 4 -i  Done                     05/03/2018 10:41:24
00019 suncat0170 pw.x -npool 4 -i  Done                     05/03/2018 10:41:24
00020 suncat0170 pw.x -npool 4 -i  Done                     05/03/2018 10:41:24
00021 suncat0170 pw.x -npool 4 -i  Done                     05/03/2018 10:41:24
00022 suncat0170 pw.x -npool 4 -i  Done                     05/03/2018 10:41:24
00023 suncat0170 pw.x -npool 4 -i  Done                     05/03/2018 10:41:24
00024 suncat0169 pw.x -npool 4 -i  Done                     05/03/2018 10:41:24
00025 suncat0169 pw.x -npool 4 -i  Done                     05/03/2018 10:41:24
00026 suncat0169 pw.x -npool 4 -i  Done                     05/03/2018 10:41:24
00027 suncat0169 pw.x -npool 4 -i  Done                     05/03/2018 10:41:24
00028 suncat0169 pw.x -npool 4 -i  Done                     05/03/2018 10:41:24
00029 suncat0169 pw.x -npool 4 -i  Done                     05/03/2018 10:41:24
00030 suncat0169 pw.x -npool 4 -i  Done                     05/03/2018 10:41:24
00031 suncat0169 pw.x -npool 4 -i  Done                     05/03/2018 10:41:24