     Program PWSCF v.5.1rc2 (svn rev. 11289) starts on  2May2018 at 14:10:26

     Current dimensions of program PWSCF are:
     Max number of different atomic species (ntypx) = 10
     Max number of k-points (npk) =  40000
     Max angular momentum in pseudopotentials (lmaxx) =  3
     Presently stress not available with electric field

     IMPORTANT: XC functional enforced from input :
     Exchange-correlation      = BEEF-VDW ( 1  4 27 13 2)
     Any further DFT definition will be discarded
     Please, verify this is what you really want

     Subspace diagonalization in iterative solution of the eigenvalue problem:
     a serial algorithm will be used

     bravais-lattice index     =            0
     lattice parameter (alat)  =       1.8897  a.u.
     unit-cell volume          =    3724.3394 (a.u.)^3
     number of atoms/cell      =           13
     number of atomic types    =            2
     number of electrons       =       174.00
     number of Kohn-Sham states=           97
     kinetic-energy cutoff     =      36.7493  Ry
     charge density cutoff     =     367.4932  Ry
     convergence threshold     =      1.0E-05
     mixing beta               =       0.3000
     number of iterations used =           10  plain     mixing
     Exchange-correlation      = BEEF-VDW ( 1  4 27 13 2)
     nstep                     =           50

     celldm(1)=   1.889726  celldm(2)=   0.000000  celldm(3)=   0.000000
     celldm(4)=   0.000000  celldm(5)=   0.000000  celldm(6)=   0.000000

     crystal axes: (cart. coord. in units of alat)
               a(1) = (   5.132588   0.000000   0.000000 )
               a(2) = (   2.566294   4.444952   0.000000 )
               a(3) = (   0.000000   0.000000  24.190741 )

     reciprocal axes: (cart. coord. in units 2 pi/alat)
               b(1) = (  0.194833 -0.112487  0.000000 )
               b(2) = (  0.000000  0.224974  0.000000 )
               b(3) = (  0.000000  0.000000  0.041338 )

     PseudoPot. # 1 for Cr read from file:
     /u/if/mamunm/psp/gbrv1.5pbe/Cr.UPF
     MD5 check sum: 0d52af634a40206e4dee301ad30da4bf
     Pseudo is Ultrasoft + core correction, Zval = 14.0
     Generated by new atomic code, or converted to UPF format
     Using radial grid of  857 points,  6 beta functions with:
                l(1) =   0
                l(2) =   0
                l(3) =   1
                l(4) =   1
                l(5) =   2
                l(6) =   2
     Q(r) pseudized with  8 coefficients,  rinner =    0.950   0.950   0.950
                                                       0.950   0.950

     PseudoPot. # 2 for S  read from file:
     /u/if/mamunm/psp/gbrv1.5pbe/S.UPF
     MD5 check sum: 88d86576ff6df21479756cfb9bdac1df
     Pseudo is Ultrasoft + core correction, Zval =  6.0
     Generated by new atomic code, or converted to UPF format
     Using radial grid of  907 points,  6 beta functions with:
                l(1) =   0
                l(2) =   0
                l(3) =   1
                l(4) =   1
                l(5) =   2
                l(6) =   2
     Q(r) pseudized with  8 coefficients,  rinner =    1.300   1.300   1.300
                                                       1.300   1.300

     vdW kernel table read from file vdW_kernel_table
     MD5 check sum: 095c7af220d748ca6e76c0b4c6cfb241

     atomic species   valence    mass     pseudopotential
        Cr1           14.00    51.99610     Cr( 1.00)
        S1             6.00    32.06000     S ( 1.00)

     No symmetry found

   Cartesian axes

     site n.     atom                  positions (alat units)
         1           Cr1 tau(   1) = (   1.2831471   0.7408253  10.0000000  )
         2           Cr1 tau(   2) = (   3.8494412   0.7408253  10.0000000  )
         3           Cr1 tau(   3) = (   2.5662941   2.9633012  10.0000000  )
         4           Cr1 tau(   4) = (   5.1325882   2.9633012  10.0000000  )
         5           Cr1 tau(   5) = (   5.1325882   1.4816506  12.0953704  )
         6           Cr1 tau(   6) = (   2.5662941   1.4816506  12.0953704  )
         7           Cr1 tau(   7) = (   6.4157353   3.7041265  12.0953704  )
         8           Cr1 tau(   8) = (   3.8494412   3.7041265  12.0953704  )
         9           Cr1 tau(   9) = (   0.0000000   0.0000000  14.1907408  )
        10           Cr1 tau(  10) = (   2.5662941   0.0000000  14.1907408  )
        11           Cr1 tau(  11) = (   1.2831471   2.2224759  14.1907408  )
        12           Cr1 tau(  12) = (   3.8494412   2.2224759  14.1907408  )
        13           S1  tau(  13) = (   0.0000000   0.0000000  16.2647408  )

     number of k points=    20  Fermi-Dirac smearing, width (Ry)=  0.0110
                       cart. coord. in units 2pi/alat
        k(    1) = (   0.0000000   0.0000000   0.0000000), wk =   0.0555556
        k(    2) = (   0.0000000   0.0374957   0.0000000), wk =   0.1111111
        k(    3) = (   0.0000000   0.0749914   0.0000000), wk =   0.1111111
        k(    4) = (   0.0000000  -0.1124872   0.0000000), wk =   0.0555556
        k(    5) = (   0.0324722  -0.0187479   0.0000000), wk =   0.1111111
        k(    6) = (   0.0324722   0.0187479   0.0000000), wk =   0.1111111
        k(    7) = (   0.0324722   0.0562436   0.0000000), wk =   0.1111111
        k(    8) = (   0.0324722  -0.1312350   0.0000000), wk =   0.1111111
        k(    9) = (   0.0324722  -0.0937393   0.0000000), wk =   0.1111111
        k(   10) = (   0.0324722  -0.0562436   0.0000000), wk =   0.1111111
        k(   11) = (   0.0649445  -0.0374957   0.0000000), wk =   0.1111111
        k(   12) = (   0.0649445   0.0000000   0.0000000), wk =   0.1111111
        k(   13) = (   0.0649445   0.0374957   0.0000000), wk =   0.1111111
        k(   14) = (   0.0649445  -0.1499829   0.0000000), wk =   0.1111111
        k(   15) = (   0.0649445  -0.1124872   0.0000000), wk =   0.1111111
        k(   16) = (   0.0649445  -0.0749914   0.0000000), wk =   0.1111111
        k(   17) = (  -0.0974167   0.0562436   0.0000000), wk =   0.0555556
        k(   18) = (  -0.0974167   0.0937393   0.0000000), wk =   0.1111111
        k(   19) = (  -0.0974167   0.1312350   0.0000000), wk =   0.1111111
        k(   20) = (  -0.0974167  -0.0562436   0.0000000), wk =   0.0555556

     Largest allocated arrays     est. size (Mb)     dimensions
     Largest temporary arrays     est. size (Mb)     dimensions

     Check: negative/imaginary core charge=   -0.000004    0.000000

     Initial potential from superposition of free atoms
     Check: negative starting charge=   -0.014822

     starting charge  161.99978, renormalised to  174.00000

     negative rho (up, down):  1.592E-02 0.000E+00

     *
     * You are using vdW-DF for exchange-correlation in this calculation.
     * Please cite the following three references that made this development
     * possible:
     *
     *   M. Dion, H. Rydberg, E. Schroder, D. C. Langreth, and
     *   B. I. Lundqvist, Phys. Rev. Lett. 92, 246401 (2004).
     *
     *   T. Thonhauser, V. R. Cooper, S. Li, A. Puzder, P. Hyldgaard, and
     *   D. C. Langreth, Phys. Rev. B 76, 125112 (2007).
     *
     *   G. Roman-Perez and J. M. Soler, Phys. Rev. Lett. 103, 096102 (2009).
     *
     *
     * If you are using vdW-DF2, please also cite:
     *
     *   K. Lee, E. D. Murray, L. Kong, B. I. Lundqvist, and
     *   D. C. Langreth, Phys. Rev. B 82, 081101(R) (2010).
     *
     *
     * If you are calculating the stress with vdW-DF, please also cite:
     *
     *   R. Sabatini, E. Kucukbenli, B. Kolb, T. Thonhauser, and
     *   S. de Gironcoli, J. Phys.: Condens. Matter 24, 424209 (2012).
     *

     Carrying out vdW-DF run using the following parameters:

     Nqs =      20    Nr_points =    1024   r_max =   100.000
     q_mesh =
               0.00001000     0.04494208     0.09755937     0.15916263
               0.23128650     0.31572767     0.41458969     0.53033537
               0.66584808     0.82450364     1.01025438     1.22772762
               1.48234092     1.78043706     2.12944203     2.53805004
               3.01644009     3.57652955     4.23227104     5.00000000

     Gradients computed in reciprocal space

     Adding external electric field

     Computed dipole along edir(3) :
        Dipole               -3.5015 Ry au,         -8.9000 Debye
        Dipole field         -0.0118 Ry au

        Potential amp.        1.0532 Ry
        Total length         44.5710 bohr

     Starting wfc are  124 randomized atomic wfcs

     Self-consistent Calculation

     iteration #  1     ecut=    36.75 Ry     beta=0.30
     Davidson diagonalization with overlap
     ethr =  1.00E-02,  avg # of iterations =  8.5

[...]

     total energy              =   -1843.78365003 Ry
     Harris-Foulkes estimate   =   -2137.32918600 Ry
     estimated scf accuracy    <     613.46418208 Ry

     iteration #  2     ecut=    36.75 Ry     beta=0.30
     Davidson diagonalization with overlap
     c_bands:  2 eigenvalues not converged
     c_bands:  2 eigenvalues not converged
     c_bands:  5 eigenvalues not converged
     ethr =  1.00E-02,  avg # of iterations = 20.8

[...]

     End of self-consistent calculation

          k = 0.0000 0.0000 0.0000 ( 14081 PWs)   bands (ev):

   -70.4294 -70.3544 -70.2850 -70.2520 -70.2390 -70.2383 -70.2258 -70.2088
   -70.2087 -70.1356 -70.1344 -70.1329 -42.0216 -41.9901 -41.9899 -41.9480
   -41.9379 -41.9376 -41.9040 -41.8022 -41.8015 -41.7962 -41.7554 -41.6406
   -41.5903 -41.5892 -41.5320 -41.5232 -41.5225 -41.4764 -41.4763 -41.4745
   -41.4197 -41.3965 -41.3965 -41.3887 -41.3855 -41.3854 -41.3500 -41.3018
   -41.3016 -41.2804 -41.2760 -41.2755 -41.2483 -41.2480 -41.1456 -41.1456
   -11.0647  -5.3549  -3.6658  -2.6167  -2.4287  -2.4286  -2.3081  -2.2644
    -2.0432  -2.0431  -1.7851  -1.7850  -1.6926  -1.5475  -1.5322  -1.5319
    -1.3536  -1.3534  -1.3008  -0.5932  -0.1773  -0.1770   0.3817   0.4548
     0.5770   0.5771   0.6442   0.9079   0.9079   1.0559   1.0740   1.0740
     1.1543   1.1546   1.1744   1.1963   1.1968   1.2547   1.2547   1.6287
     1.9105   2.1620   2.1621   2.2199   2.3211   2.3211   2.4461   2.5251
     2.5251

[...]

          k =-0.0974 0.0562 0.0000 ( 14010 PWs)   bands (ev):

[...]

     the Fermi energy is     1.3383 ev

!    total energy              =   -2139.39241568 Ry
     Harris-Foulkes estimate   =   -2139.39242581 Ry
     estimated scf accuracy    <       0.00000964 Ry

     The total energy is the sum of the following terms:

     one-electron contribution =  -19854.61922027 Ry
     hartree contribution      =    9921.20105774 Ry
     xc contribution           =    -287.89160410 Ry
     ewald contribution        =    8082.05228564 Ry
     electric field correction =       0.00002419 Ry
     smearing contrib. (-TS)   =      -0.13495889 Ry

     convergence has been achieved in  52 iterations

 BEEF-vdW xc energy contributions
           1 :   -249.087931649292
           2 :    224.059306200737
           3 :   -182.278803103430
           4 :    136.293248964152
           5 :   -97.4818015910039
           6 :    71.9601864664949
           7 :   -59.4620490706785
           8 :    55.2006325663426
           9 :   -53.2849186793399
          10 :    49.7416003007107
          11 :   -43.7780829545815
          12 :    37.0785677586255
          13 :   -31.9751760012502
          14 :    29.7348050342073
          15 :   -29.8816940007899
          16 :    30.7251237488917
          17 :   -30.5632423527563
          18 :    28.7264886473612
          19 :   -25.8370346610794
          20 :    23.2169661884976
          21 :   -21.9225248434500
          22 :    22.0667032467471
          23 :   -22.8378150948234
          24 :    23.1236144181651
          25 :   -22.2679508138954
          26 :    20.4522882263896
          27 :   -18.4960424939704
          28 :    17.2635229991135
          29 :   -17.0966002685718
          30 :    17.6322048222813
          31 :   -24.7784530036402
          32 :   -17.7783514414877

     Forces acting on atoms (Ry/au):

     negative rho (up, down):  1.450E-02 0.000E+00
     atom    1 type  1   force =     0.00024175    0.00012625    0.00056870
     atom    2 type  1   force =    -0.00023882    0.00013229    0.00055359
     atom    3 type  1   force =    -0.00000244   -0.00026920    0.00055535
     atom    4 type  1   force =    -0.00000365    0.00001206    0.00110050
     atom    5 type  1   force =    -0.00000506    0.00296698   -0.00091991
     atom    6 type  1   force =     0.00000793    0.00001209    0.01137489
     atom    7 type  1   force =    -0.00254997   -0.00149292   -0.00096561
     atom    8 type  1   force =     0.00254208   -0.00149045   -0.00096110
     atom    9 type  1   force =     0.00000974   -0.00001910    0.02484081
     atom   10 type  1   force =    -0.00000492    0.00186435   -0.00798640
     atom   11 type  1   force =     0.00161502   -0.00092538   -0.00795747
     atom   12 type  1   force =    -0.00161304   -0.00091663   -0.00796072
     atom   13 type  2   force =     0.00000138   -0.00000035   -0.01224262

     Total force =     0.031110     Total SCF correction =     0.003299
     SCF correction compared to forces is large: reduce conv_thr to get better values

     entering subroutine stress ...

     negative rho (up, down):  1.450E-02 0.000E+00
          total   stress  (Ry/bohr**3)                   (kbar)     P=  -26.04
  -0.00024187  -0.00000002  -0.00000000        -35.58     -0.00     -0.00
  -0.00000002  -0.00024214   0.00000000         -0.00    -35.62      0.00
  -0.00000000   0.00000000  -0.00004702         -0.00      0.00     -6.92

     BFGS Geometry Optimization

     number of scf cycles    =   1
     number of bfgs steps    =   0

     energy   new            =   -2139.3924156822 Ry

     new trust radius        =       0.0248408155 bohr
     new conv_thr            =       0.0000099958 Ry

ATOMIC_POSITIONS (crystal)
Cr1      0.166666667   0.166666667   0.413381306    0   0   0
Cr1      0.666666667   0.166666667   0.413381306    0   0   0
Cr1      0.166666667   0.666666667   0.413381306    0   0   0
Cr1      0.666666667   0.666666667   0.413381306    0   0   0
Cr1      0.833333333   0.333333333   0.500000000    0   0   0
Cr1      0.333333333   0.333333333   0.500000000    0   0   0
Cr1      0.833333333   0.833333333   0.500000000    0   0   0
Cr1      0.333333333   0.833333333   0.500000000    0   0   0
Cr1      0.000002141  -0.000002274   0.587162092
Cr1      0.499888516   0.000221954   0.586443990
Cr1      0.000221594   0.499889833   0.586444623
Cr1      0.499888256   0.499890874   0.586444552
S1       0.000000163  -0.000000041   0.672086167

     Writing output data file calc.save
     Check: negative starting charge=   -0.014822
     NEW-OLD atomic charge density approx. for the potential

     Check: negative/imaginary core charge=   -0.000004    0.000000
     Check: negative starting charge=   -0.014755

[...]

     energy   old            =   -2139.3924156822 Ry
     energy   new            =   -2139.3931995499 Ry

     CASE: energy  _new < energy  _old

[...]

     Total force =     0.020738     Total SCF correction =     0.000683

[...]

     iteration #  1     ecut=    36.75 Ry     beta=0.30
     Davidson diagonalization with overlap
     c_bands:  1 eigenvalues not converged
     ethr =  1.00E-06,  avg # of iterations = 14.9

[...]

     Total force =     0.005610     Total SCF correction =     0.000108

[...]

     number of scf cycles    =  15
     number of bfgs steps    =  14

     energy   old            =   -2139.4045279825 Ry
     energy   new            =   -2139.4045937445 Ry

     CASE: energy  _new < energy  _old

     new trust radius        =       0.0106522792 bohr
     new conv_thr            =       0.0000001000 Ry

ATOMIC_POSITIONS (crystal)
Cr1      0.166666667   0.166666667   0.413381306    0   0   0
Cr1      0.666666667   0.166666667   0.413381306    0   0   0
Cr1      0.166666667   0.666666667   0.413381306    0   0   0
Cr1      0.666666667   0.666666667   0.413381306    0   0   0
Cr1      0.833333333   0.333333333   0.500000000    0   0   0
Cr1      0.333333333   0.333333333   0.500000000    0   0   0
Cr1      0.833333333   0.833333333   0.500000000    0   0   0
Cr1      0.333333333   0.833333333   0.500000000    0   0   0
Cr1     -0.000007559   0.000021386   0.596839012
Cr1      0.501533540  -0.002972001   0.579849938
Cr1     -0.003066021   0.501527493   0.579874845
Cr1      0.501484426   0.501604688   0.579875934
S1       0.000006185  -0.000016955   0.680188225

     Writing output data file calc.save
     Check: negative starting charge=   -0.014517
     NEW-OLD atomic charge density approx. for the potential

     Check: negative/imaginary core charge=   -0.000004    0.000000
     Check: negative starting charge=   -0.014589

[...]

     Self-consistent Calculation

[...]

     total energy              =   -2139.40461662 Ry
     Harris-Foulkes estimate   =   -2139.40461663 Ry
     estimated scf accuracy    <       0.00000011 Ry

     iteration # 20     ecut=    36.75 Ry     beta=0.30
     Davidson diagonalization with overlap
     ethr =  6.52E-11,  avg # of iterations =  2.3

[...]

     negative rho (up, down):  1.443E-02 0.000E+00

     Adding external electric field

     Computed dipole along edir(3) :
        Dipole               -0.1560 Ry au,         -0.3966 Debye
        Dipole field         -0.0005 Ry au

        Potential amp.        0.0469 Ry
        Total length         44.5710 bohr

     End of self-consistent calculation

[...]

          k = 0.0649-0.0750 0.0000 ( 13990 PWs)   bands (ev):

[...]

          k =-0.0974-0.0562 0.0000 ( 14010 PWs)   bands (ev):

   -70.4560 -70.4337 -70.4128 -70.3499 -70.3446 -70.3297 -70.3194 -70.2896
   -70.2780 -70.2718 -70.2703 -70.2616 -42.0420 -42.0144 -42.0066 -41.9917
   -41.9342 -41.9102 -41.8925 -41.8529 -41.8329 -41.8167 -41.7940 -41.7835
   -41.7321 -41.6724 -41.6483 -41.6215 -41.6188 -41.6072 -41.6017 -41.5992
   -41.5799 -41.5654 -41.5534 -41.5460 -41.5261 -41.5174 -41.5105 -41.5015
   -41.4410 -41.4279 -41.3878 -41.3875 -41.3675 -41.3591 -41.3462 -41.3199
   -10.7852  -3.6603  -3.6570  -2.3966  -2.3672  -1.8141  -1.7634  -1.7257
    -1.6724  -1.6430  -1.6202  -1.3904  -1.3805  -1.3399  -0.9880  -0.9808
    -0.8897  -0.7471  -0.7326  -0.6288  -0.3824  -0.3306  -0.1897  -0.1849
    -0.1447  -0.0878   0.0581   0.2638   0.3422   0.3926   0.4671   0.5076
     0.5403   0.6337   0.6771   0.7461   0.8783   0.9322   0.9348   1.1133
     1.1848   1.2392   1.6276   1.7780   1.7872   1.9325   1.9716   2.0134
     2.0860

     the Fermi energy is     1.2157 ev

!    total energy              =   -2139.40461658 Ry
     Harris-Foulkes estimate   =   -2139.40461759 Ry
     estimated scf accuracy    <       0.00000005 Ry

     The total energy is the sum of the following terms:

     one-electron contribution =  -19928.24981638 Ry
     hartree contribution      =    9957.58375714 Ry
     xc contribution           =    -287.99748399 Ry
     ewald contribution        =    8119.38247612 Ry
     electric field correction =       0.00008216 Ry
     smearing contrib. (-TS)   =      -0.12363163 Ry

     convergence has been achieved in  20 iterations

 BEEF-vdW xc energy contributions
           1 :   -249.197359920008
           2 :    224.185448030126
           3 :   -182.422732164800
           4 :    136.416356670056
           5 :   -97.5146552138093
           6 :    71.8556863030358
           7 :   -59.2430517252426
           8 :    54.9571525706244
           9 :   -53.1210640076321
          10 :    49.7114068897654
          11 :   -43.8547226294932
          12 :    37.1738501185372
          13 :   -31.9916222320825
          14 :    29.6170150057203
          15 :   -29.6411277359941
          16 :    30.4303263961488
          17 :   -30.3025066991891
          18 :    28.5598889255836
          19 :   -25.7604427252072
          20 :    23.1601199940105
          21 :   -21.7890971620753
          22 :    21.7968521908568
          23 :   -22.4522907998343
          24 :    22.7157258954939
          25 :   -21.9451867748734
          26 :    20.2664778433446
          27 :   -18.4092952505705
          28 :    17.1725066744744
          29 :   -16.8994499840938
          30 :    17.2957209435351
          31 :   -24.7848462411501
          32 :   -17.7833974154712

     Forces acting on atoms (Ry/au):

     negative rho (up, down):  1.443E-02 0.000E+00
     atom    1 type  1   force =     0.00027692    0.00016157    0.00613687
     atom    2 type  1   force =    -0.00027955    0.00015922    0.00613921
     atom    3 type  1   force =     0.00000145   -0.00032556    0.00615285
     atom    4 type  1   force =    -0.00000068   -0.00000586   -0.00205365
     atom    5 type  1   force =    -0.00000488   -0.01940496    0.00173479
     atom    6 type  1   force =    -0.00000374    0.00000898   -0.02102752
     atom    7 type  1   force =     0.01682046    0.00967078    0.00168357
     atom    8 type  1   force =    -0.01682316    0.00966913    0.00168708
     atom    9 type  1   force =     0.00000477    0.00000671   -0.00153929
     atom   10 type  1   force =     0.00002749    0.00024969   -0.00014318
     atom   11 type  1   force =     0.00018511   -0.00011667   -0.00013863
     atom   12 type  1   force =    -0.00020329   -0.00006627   -0.00013578
     atom   13 type  2   force =    -0.00000088   -0.00000675    0.00150367

     Total force =     0.002201     Total SCF correction =     0.000739
     SCF correction compared to forces is large: reduce conv_thr to get better values

     entering subroutine stress ...

     negative rho (up, down):  1.443E-02 0.000E+00
          total   stress  (Ry/bohr**3)                   (kbar)     P=  -16.59
  -0.00015684  -0.00000000   0.00000002        -23.07     -0.00      0.00
  -0.00000000  -0.00015675   0.00000007         -0.00    -23.06      0.01
   0.00000002   0.00000007  -0.00002483          0.00      0.01     -3.65

     bfgs converged in  16 scf cycles and  15 bfgs steps
     (criteria: energy <  1.0E+00, force <  1.9E-03)

     End of BFGS Geometry Optimization

     Final energy   =   -2139.4046165799 Ry
Begin final coordinates

ATOMIC_POSITIONS (crystal)
Cr1      0.166666667   0.166666667   0.413381306    0   0   0
Cr1      0.666666667   0.166666667   0.413381306    0   0   0
Cr1      0.166666667   0.666666667   0.413381306    0   0   0
Cr1      0.666666667   0.666666667   0.413381306    0   0   0
Cr1      0.833333333   0.333333333   0.500000000    0   0   0
Cr1      0.333333333   0.333333333   0.500000000    0   0   0
Cr1      0.833333333   0.833333333   0.500000000    0   0   0
Cr1      0.333333333   0.833333333   0.500000000    0   0   0
Cr1     -0.000007559   0.000021386   0.596839012
Cr1      0.501533540  -0.002972001   0.579849938
Cr1     -0.003066021   0.501527493   0.579874845
Cr1      0.501484426   0.501604688   0.579875934
S1       0.000006185  -0.000016955   0.680188225
End final coordinates

     Writing output data file calc.save

     General routines

     Parallel routines

   This run was terminated on:  16:33:32   2May2018

   JOB DONE.
Job  /afs/slac/g/suncat/bin/suncat-tsmpirun -x LD_LIBRARY_PATH -wdir /scratch/qe690472_UcbMx pw.x -npool 4 -in pw.inp

TID   HOST_NAME   COMMAND_LINE            STATUS            TERMINATION_TIME
00000 suncat0069 pw.x -npool 4 -i  Done                     05/02/2018 16:33:32
00001 suncat0069 pw.x -npool 4 -i  Done                     05/02/2018 16:33:32
00002 suncat0069 pw.x -npool 4 -i  Done                     05/02/2018 16:33:32
00003 suncat0069 pw.x -npool 4 -i  Done                     05/02/2018 16:33:32
00004 suncat0069 pw.x -npool 4 -i  Done                     05/02/2018 16:33:32
00005 suncat0069 pw.x -npool 4 -i  Done                     05/02/2018 16:33:32
00006 suncat0069 pw.x -npool 4 -i  Done                     05/02/2018 16:33:32
00007 suncat0069 pw.x -npool 4 -i  Done                     05/02/2018 16:33:32
00008 suncat0053 pw.x -npool 4 -i  Done                     05/02/2018 16:33:32
00009 suncat0053 pw.x -npool 4 -i  Done                     05/02/2018 16:33:32
00010 suncat0053 pw.x -npool 4 -i  Done                     05/02/2018 16:33:32
00011 suncat0053 pw.x -npool 4 -i  Done                     05/02/2018 16:33:32
00012 suncat0053 pw.x -npool 4 -i  Done                     05/02/2018 16:33:32
00013 suncat0053 pw.x -npool 4 -i  Done                     05/02/2018 16:33:32
00014 suncat0053 pw.x -npool 4 -i  Done                     05/02/2018 16:33:32
00015 suncat0053 pw.x -npool 4 -i  Done                     05/02/2018 16:33:32
00016 suncat0042 pw.x -npool 4 -i  Done                     05/02/2018 16:33:32
00017 suncat0042 pw.x -npool 4 -i  Done                     05/02/2018 16:33:32
00018 suncat0042 pw.x -npool 4 -i  Done                     05/02/2018 16:33:32
00019 suncat0042 pw.x -npool 4 -i  Done                     05/02/2018 16:33:32
00020 suncat0042 pw.x -npool 4 -i  Done                     05/02/2018 16:33:32
00021 suncat0042 pw.x -npool 4 -i  Done                     05/02/2018 16:33:32
00022 suncat0042 pw.x -npool 4 -i  Done                     05/02/2018 16:33:32
00023 suncat0042 pw.x -npool 4 -i  Done                     05/02/2018 16:33:32
00024 suncat0033 pw.x -npool 4 -i  Done                     05/02/2018 16:33:32
00025 suncat0033 pw.x -npool 4 -i  Done                     05/02/2018 16:33:32
00026 suncat0033 pw.x -npool 4 -i  Done                     05/02/2018 16:33:32
00027 suncat0033 pw.x -npool 4 -i  Done                     05/02/2018 16:33:32
00028 suncat0033 pw.x -npool 4 -i  Done                     05/02/2018 16:33:32
00029 suncat0033 pw.x -npool 4 -i  Done                     05/02/2018 16:33:32
00030 suncat0033 pw.x -npool 4 -i  Done                     05/02/2018 16:33:32
00031 suncat0033 pw.x -npool 4 -i  Done                     05/02/2018 16:33:32