     Program PWSCF v.5.1rc2 (svn rev. ) starts on 23Apr2018 at  3:18:59

     Current dimensions of program PWSCF are:
     Max number of different atomic species (ntypx) = 10
     Max number of k-points (npk) =  40000
     Max angular momentum in pseudopotentials (lmaxx) =  3
     Presently stress not available with electric field

     IMPORTANT: XC functional enforced from input :
     Exchange-correlation      = BEEF-VDW ( 1  4 27 13 2)
     Any further DFT definition will be discarded
     Please, verify this is what you really want

     Subspace diagonalization in iterative solution of the eigenvalue problem:
     a serial algorithm will be used

     bravais-lattice index     =            0
     lattice parameter (alat)  =       1.8897  a.u.
     unit-cell volume          =    6741.9070 (a.u.)^3
     number of atoms/cell      =           14
     number of atomic types    =            3
     number of electrons       =       173.00
     number of Kohn-Sham states=           96
     kinetic-energy cutoff     =      36.7493  Ry
     charge density cutoff     =     367.4932  Ry
     convergence threshold     =      1.0E-05
     mixing beta               =       0.3000
     number of iterations used =           10  plain     mixing
     Exchange-correlation      = BEEF-VDW ( 1  4 27 13 2)
     nstep                     =           50

     celldm(1)=   1.889726  celldm(2)=   0.000000  celldm(3)=   0.000000
     celldm(4)=   0.000000  celldm(5)=   0.000000  celldm(6)=   0.000000

     crystal axes: (cart. coord. in units of alat)
               a(1) = (   6.726993   0.000000   0.000000 )
               a(2) = (   3.363497   5.825747   0.000000 )
               a(3) = (   0.000000   0.000000  25.492567 )

     reciprocal axes: (cart. coord. in units 2 pi/alat)
               b(1) = (  0.148655 -0.085826  0.000000 )
               b(2) = (  0.000000  0.171652  0.000000 )
               b(3) = (  0.000000  0.000000  0.039227 )

     PseudoPot. # 1 for Sn read from file:
     /home/mamunm/src/pseudo/gbrv1.5pbe/Sn.UPF
     MD5 check sum: 469debedee59599fedebd795477fea03
     Pseudo is Ultrasoft + core correction, Zval = 14.0
     Generated by new atomic code, or converted to UPF format
     Using radial grid of  891 points,  6 beta functions with:
                l(1) =   0
                l(2) =   0
                l(3) =   1
                l(4) =   1
                l(5) =   2
                l(6) =   2
     Q(r) pseudized with  8 coefficients,  rinner =    1.350   1.350   1.350
                                                       1.350   1.350

     PseudoPot. # 2 for C  read from file:
     /home/mamunm/src/pseudo/gbrv1.5pbe/C.UPF
     MD5 check sum: d1aef80898a10debaa0f26306b886e00
     Pseudo is Ultrasoft + core correction, Zval =  4.0
     Generated by new atomic code, or converted to UPF format
     Using radial grid of  721 points,  4 beta functions with:
                l(1) =   0
                l(2) =   0
                l(3) =   1
                l(4) =   1
     Q(r) pseudized with  8 coefficients,  rinner =    1.100   1.100   1.100

     PseudoPot. # 3 for H  read from file:
     /home/mamunm/src/pseudo/gbrv1.5pbe/H.UPF
     MD5 check sum: 761ae9a214b05c3daf00ab9f6b793d6f
     Pseudo is Ultrasoft, Zval =  1.0
     Generated by new atomic code, or converted to UPF format
     Using radial grid of  615 points,  2 beta functions with:
                l(1) =   0
                l(2) =   0
     Q(r) pseudized with  8 coefficients,  rinner =    0.700

     vdW kernel table read from file vdW_kernel_table
     MD5 check sum: 095c7af220d748ca6e76c0b4c6cfb241

     atomic species   valence    mass     pseudopotential
        Sn1           14.00   118.71000     Sn( 1.00)
        C1             4.00    12.01100     C ( 1.00)
        H1             1.00     1.00800     H ( 1.00)

     No symmetry found

   Cartesian axes

     site n.     atom                  positions (alat units)
         1           Sn1 tau(   1) = (   1.6817483   0.9709578  10.0000000  )
         2           Sn1 tau(   2) = (   5.0452448   0.9709578  10.0000000  )
         3           Sn1 tau(   3) = (   3.3634965   3.8838312  10.0000000  )
         4           Sn1 tau(   4) = (   6.7269931   3.8838312  10.0000000  )
         5           Sn1 tau(   5) = (   6.7269931   1.9419156  12.7462834  )
         6           Sn1 tau(   6) = (   3.3634965   1.9419156  12.7462834  )
         7           Sn1 tau(   7) = (   8.4087413   4.8547891  12.7462834  )
         8           Sn1 tau(   8) = (   5.0452448   4.8547891  12.7462834  )
         9           Sn1 tau(   9) = (   0.0000000   0.0000000  15.4925668  )
        10           Sn1 tau(  10) = (   3.3634965   0.0000000  15.4925668  )
        11           Sn1 tau(  11) = (   1.6817483   2.9128734  15.4925668  )
        12           Sn1 tau(  12) = (   5.0452448   2.9128734  15.4925668  )
        13           C1  tau(  13) = (   1.6817483   0.9709578  16.8900668  )
        14           H1  tau(  14) = (   1.6817483   0.9709578  17.9900668  )

     number of k points=    20  Fermi-Dirac smearing, width (Ry)=  0.0110
                       cart. coord. in units 2pi/alat
        k(    1) = (   0.0000000   0.0000000   0.0000000), wk =   0.0555556
        k(    2) = (   0.0000000   0.0286086   0.0000000), wk =   0.1111111
        k(    3) = (   0.0000000   0.0572173   0.0000000), wk =   0.1111111
        k(    4) = (   0.0000000  -0.0858259   0.0000000), wk =   0.0555556
        k(    5) = (   0.0247758  -0.0143043   0.0000000), wk =   0.1111111
        k(    6) = (   0.0247758   0.0143043   0.0000000), wk =   0.1111111
        k(    7) = (   0.0247758   0.0429130   0.0000000), wk =   0.1111111
        k(    8) = (   0.0247758  -0.1001302   0.0000000), wk =   0.1111111
        k(    9) = (   0.0247758  -0.0715216   0.0000000), wk =   0.1111111
        k(   10) = (   0.0247758  -0.0429130   0.0000000), wk =   0.1111111
        k(   11) = (   0.0495516  -0.0286086   0.0000000), wk =   0.1111111
        k(   12) = (   0.0495516   0.0000000   0.0000000), wk =   0.1111111
        k(   13) = (   0.0495516   0.0286086   0.0000000), wk =   0.1111111
        k(   14) = (   0.0495516  -0.1144345   0.0000000), wk =   0.1111111
        k(   15) = (   0.0495516  -0.0858259   0.0000000), wk =   0.1111111
        k(   16) = (   0.0495516  -0.0572173   0.0000000), wk =   0.1111111
        k(   17) = (  -0.0743274   0.0429130   0.0000000), wk =   0.0555556
        k(   18) = (  -0.0743274   0.0715216   0.0000000), wk =   0.1111111
        k(   19) = (  -0.0743274   0.1001302   0.0000000), wk =   0.1111111
        k(   20) = (  -0.0743274  -0.0429130   0.0000000), wk =   0.0555556

     Largest allocated arrays     est. size (Mb)     dimensions
     Largest temporary arrays     est. size (Mb)     dimensions

     Initial potential from superposition of free atoms
     Check: negative starting charge=   -0.001381

     starting charge  160.99941, renormalised to  173.00000

     negative rho (up, down):  1.484E-03 0.000E+00

     *
     * You are using vdW-DF for exchange-correlation in this calculation.
     * Please cite the following three references that made this development
     * possible:
     *
     *   M. Dion, H. Rydberg, E. Schroder, D. C. Langreth, and
     *   B. I. Lundqvist, Phys. Rev. Lett. 92, 246401 (2004).
     *
     *   T. Thonhauser, V. R. Cooper, S. Li, A. Puzder, P. Hyldgaard, and
     *   D. C. Langreth, Phys. Rev. B 76, 125112 (2007).
     *
     *   G. Roman-Perez and J. M. Soler, Phys. Rev. Lett. 103, 096102 (2009).
     *
     *
     * If you are using vdW-DF2, please also cite:
     *
     *   K. Lee, E. D. Murray, L. Kong, B. I. Lundqvist, and
     *   D. C. Langreth, Phys. Rev. B 82, 081101(R) (2010).
     *
     *
     * If you are calculating the stress with vdW-DF, please also cite:
     *
     *   R. Sabatini, E. Kucukbenli, B. Kolb, T. Thonhauser, and
     *   S. de Gironcoli, J. Phys.: Condens. Matter 24, 424209 (2012).
     *

     Carrying out vdW-DF run using the following parameters:

     Nqs =      20    Nr_points =    1024   r_max =   100.000
     q_mesh =
               0.00001000     0.04494208     0.09755937     0.15916263
               0.23128650     0.31572767     0.41458969     0.53033537
               0.66584808     0.82450364     1.01025438     1.22772762
               1.48234092     1.78043706     2.12944203     2.53805004
               3.01644009     3.57652955     4.23227104     5.00000000

     Gradients computed in reciprocal space

     Adding external electric field

     Computed dipole along edir(3) :
        Dipole               -3.0729 Ry au,         -7.8105 Debye
        Dipole field         -0.0057 Ry au

        Potential amp.        0.5381 Ry
        Total length         46.9696 bohr

     Starting wfc are  113 randomized atomic wfcs

     Self-consistent Calculation

     iteration #  1     ecut=    36.75 Ry     beta=0.30
     Davidson diagonalization with overlap
     ethr =  1.00E-02,  avg # of iterations =  6.9

[...]

     total energy              =   -1911.50940377 Ry
     Harris-Foulkes estimate   =   -1945.95135468 Ry
     estimated scf accuracy    <      72.92222787 Ry

[...]

     End of self-consistent calculation

          k = 0.0000 0.0000 0.0000 ( 25377 PWs)   bands (ev):

   -21.3071 -21.3004 -21.3004 -21.2687 -21.2686 -21.2686 -21.2574 -21.2554
   -21.2554 -21.2404 -21.2331 -21.2331 -21.2299 -21.2279 -21.2279 -21.2260
   -21.2260 -21.2181 -21.2181 -21.2080 -21.2035 -21.2035 -21.1977 -21.1932
   -21.1932 -21.1858 -21.1670 -21.1670 -21.1591 -21.1591 -21.1564 -21.1492
   -21.1296 -21.1296 -21.1177 -21.1159 -21.1159 -21.1121 -21.0959 -21.0959
   -21.0925 -21.0925 -21.0841 -21.0830 -21.0804 -21.0804 -21.0664 -21.0664
   -21.0607 -21.0607 -21.0564 -21.0445 -21.0402 -21.0402 -21.0351 -20.9905
   -20.9905 -20.9792 -20.9792 -20.9713 -10.7373  -9.8018  -8.4754  -6.8788
    -5.9529  -5.9529  -5.9104  -5.5226  -5.5075  -5.5075  -4.8515  -4.6138
    -4.6138  -3.7285  -3.3209  -3.3209  -2.9035  -2.4560  -2.1155  -2.1155
    -1.8795  -1.8795  -1.8651   0.0266   0.2003   0.2003   0.9041   1.7825
     1.7924   1.7924   2.8054   2.8588   2.8588   3.1775   3.3359   3.5427

[...]

          k =-0.0743 0.0429 0.0000 ( 25386 PWs)   bands (ev):

[...]

     the Fermi energy is     0.8023 ev

!    total energy              =   -1940.92752672 Ry
     Harris-Foulkes estimate   =   -1940.92753934 Ry
     estimated scf accuracy    <       0.00000811 Ry

     The total energy is the sum of the following terms:

     one-electron contribution =  -10598.18095812 Ry
     hartree contribution      =    5364.15773548 Ry
     xc contribution           =    -538.25731156 Ry
     ewald contribution        =    3831.39835802 Ry
     electric field correction =       0.00000087 Ry
     smearing contrib. (-TS)   =      -0.04535140 Ry

     convergence has been achieved in  15 iterations

 BEEF-vdW xc energy contributions
           1 :   -472.854189390713
           2 :    432.831090118446
           3 :   -364.953581576333
           4 :    288.090604558675
           5 :   -220.134918920855
           6 :    171.736360912427
           7 :   -143.930239408297
           8 :    130.174901434504
           9 :   -121.277653309647
          10 :    110.445283894816
          11 :   -95.9786694914193
          12 :    80.6597212273971
          13 :   -68.7888103295033
          14 :    62.9527828837884
          15 :   -62.4301715837553
          16 :    63.9036005154918
          17 :   -63.7118305633978
          18 :    60.0575873259959
          19 :   -53.8289352722009
          20 :    47.6866164177906
          21 :   -44.1674371795345
          22 :    44.0733009784188
          23 :   -46.1162561830572
          24 :    47.9092645534516
          25 :   -47.5510602747511
          26 :    44.7528560874010
          27 :   -40.8471521864900
          28 :    37.7794800970247
          29 :   -36.8164711633262
          30 :    37.8090266209275
          31 :   -41.5127530204395
          32 :   -30.2294979027746

     Forces acting on atoms (Ry/au):

     negative rho (up, down):  4.672E-04 0.000E+00
     atom    1 type  1   force =    -0.00000760   -0.00000410   -0.00351127
     atom    2 type  1   force =     0.00001645   -0.00496273    0.00016248
     atom    3 type  1   force =    -0.00430283    0.00248147    0.00016383
     atom    4 type  1   force =     0.00429297    0.00248931    0.00016812
     atom    5 type  1   force =    -0.00072712    0.00044759    0.00494001
     atom    6 type  1   force =     0.00073408    0.00042054    0.00496070
     atom    7 type  1   force =    -0.00000012   -0.00000153   -0.02507766
     atom    8 type  1   force =     0.00000254   -0.00086581    0.00492916
     atom    9 type  1   force =     0.01786548    0.01031130    0.03184781
     atom   10 type  1   force =    -0.01785859    0.01030922    0.03186329
     atom   11 type  1   force =    -0.00000575   -0.02062916    0.03182921
     atom   12 type  1   force =    -0.00000235   -0.00000139   -0.00820759
     atom   13 type  2   force =    -0.00000328    0.00000274   -0.06693208
     atom   14 type  3   force =    -0.00000388    0.00000256   -0.00713600

     Total force =     0.094430     Total SCF correction =     0.005708

     entering subroutine stress ...

     negative rho (up, down):  4.672E-04 0.000E+00
          total   stress  (Ry/bohr**3)                   (kbar)     P=   -2.99
  -0.00001204   0.00000000  -0.00000000         -1.77      0.00     -0.00
   0.00000000  -0.00001204   0.00000000          0.00     -1.77      0.00
  -0.00000000   0.00000000  -0.00003696         -0.00      0.00     -5.44

     BFGS Geometry Optimization

     number of scf cycles    =   1
     number of bfgs steps    =   0

     energy   new            =   -1940.9275267203 Ry

     new trust radius        =       0.0669320801 bohr
     new conv_thr            =       0.0000099958 Ry

ATOMIC_POSITIONS (crystal)
Sn1      0.166666667   0.166666667   0.392271209    0   0   0
Sn1      0.666666667   0.166666667   0.392271209    0   0   0
Sn1      0.166666667   0.666666667   0.392271209    0   0   0
Sn1      0.666666667   0.666666667   0.392271209    0   0   0
Sn1      0.833333333   0.333333333   0.500000000    0   0   0
Sn1      0.333333333   0.333333333   0.500000000    0   0   0
Sn1      0.833333333   0.833333333   0.500000000    0   0   0
Sn1      0.333333333   0.833333333   0.500000000    0   0   0
Sn1      0.000937074   0.000936619   0.608389891
Sn1      0.498126944   0.000936430   0.608390213
Sn1      0.000936465   0.498126166   0.608389505
Sn1      0.499999878   0.499999874   0.607558417
C1       0.166666284   0.166666915   0.661159310
H1       0.166666245   0.166666899   0.705550396

     Writing output data file calc.save
     Check: negative starting charge=   -0.001381
     NEW-OLD atomic charge density approx. for the potential
     Check: negative starting charge=   -0.001374

[...]

     energy   old            =   -1940.9275267203 Ry
     energy   new            =   -1940.9347678750 Ry

     CASE: energy  _new < energy  _old

[...]

     iteration #  1     ecut=    36.75 Ry     beta=0.30
     Davidson diagonalization with overlap
     c_bands:  1 eigenvalues not converged
     c_bands:  1 eigenvalues not converged
     c_bands:  1 eigenvalues not converged
     c_bands:  1 eigenvalues not converged
     c_bands:  1 eigenvalues not converged
     c_bands:  1 eigenvalues not converged
     ethr =  1.00E-06,  avg # of iterations = 13.3

[...]

     iteration #  1     ecut=    36.75 Ry     beta=0.30
     Davidson diagonalization with overlap
     c_bands:  1 eigenvalues not converged
     c_bands:  1 eigenvalues not converged
     c_bands:  1 eigenvalues not converged
     c_bands:  1 eigenvalues not converged
     c_bands:  1 eigenvalues not converged
     c_bands:  1 eigenvalues not converged
     ethr =  1.00E-06,  avg # of iterations = 12.8

[...]

     Threshold (ethr) on eigenvalues was too large:
     Diagonalizing with lowered threshold

     Davidson diagonalization with overlap
     ethr =  3.50E-08,  avg # of iterations =  2.6

[...]

     Total force =     0.005012     Total SCF correction =     0.000614
     SCF correction compared to forces is large: reduce conv_thr to get better values

[...]

     WARNING: bfgs curvature condition failed, Theta= 0.983
     new trust radius        =       0.0227320941 bohr
     new conv_thr            =       0.0000001000 Ry

[...]

     Threshold (ethr) on eigenvalues was too large:
     Diagonalizing with lowered threshold

     Davidson diagonalization with overlap
     ethr =  4.26E-08,  avg # of iterations =  1.9

[...]

     Total force =     0.003328     Total SCF correction =     0.000126

[...]

     new trust radius        =       0.0030857339 bohr
     new conv_thr            =       0.0000001000 Ry

[...]

     number of scf cycles    =  17
     number of bfgs steps    =  16

     energy   old            =   -1940.9588656069 Ry
     energy   new            =   -1940.9588747675 Ry

     CASE: energy  _new < energy  _old

     WARNING: bfgs curvature condition failed, Theta= 0.844
     new trust radius        =       0.0033943073 bohr
     new conv_thr            =       0.0000001000 Ry

ATOMIC_POSITIONS (crystal)
Sn1      0.166666667   0.166666667   0.392271209    0   0   0
Sn1      0.666666667   0.166666667   0.392271209    0   0   0
Sn1      0.166666667   0.666666667   0.392271209    0   0   0
Sn1      0.666666667   0.666666667   0.392271209    0   0   0
Sn1      0.833333333   0.333333333   0.500000000    0   0   0
Sn1      0.333333333   0.333333333   0.500000000    0   0   0
Sn1      0.833333333   0.833333333   0.500000000    0   0   0
Sn1      0.333333333   0.833333333   0.500000000    0   0   0
Sn1     -0.002429020  -0.002439466   0.616833763
Sn1      0.504866688  -0.002431827   0.616832764
Sn1     -0.002434260   0.504864872   0.616832392
Sn1      0.499997952   0.499999797   0.602033120
C1       0.166666272   0.166665335   0.657620145
H1       0.166662780   0.166670204   0.700510182

     Writing output data file calc.save
     Check: negative starting charge=   -0.001378
     NEW-OLD atomic charge density approx. for the potential
     Check: negative starting charge=   -0.001378

[...]

     Self-consistent Calculation

[...]

     total energy              =   -1940.95888400 Ry
     Harris-Foulkes estimate   =   -1940.95888407 Ry
     estimated scf accuracy    <       0.00000033 Ry

     iteration #  6     ecut=    36.75 Ry     beta=0.30
     Davidson diagonalization with overlap
     ethr =  1.91E-10,  avg # of iterations =  3.0

[...]

     negative rho (up, down):  4.526E-04 0.000E+00

     Adding external electric field

     Computed dipole along edir(3) :
        Dipole                0.0703 Ry au,          0.1787 Debye
        Dipole field          0.0001 Ry au

        Potential amp.       -0.0123 Ry
        Total length         46.9696 bohr

     End of self-consistent calculation

[...]

          k = 0.0496-0.0572 0.0000 ( 25368 PWs)   bands (ev):

[...]

          k =-0.0743-0.0429 0.0000 ( 25386 PWs)   bands (ev):

   -21.1864 -21.1662 -21.1598 -21.1543 -21.1482 -21.1380 -21.1347 -21.1321
   -21.1253 -21.1230 -21.1171 -21.1138 -21.1050 -21.1039 -21.1027 -21.0938
   -21.0934 -21.0888 -21.0857 -21.0856 -21.0818 -21.0775 -21.0744 -21.0681
   -21.0679 -21.0619 -21.0616 -21.0570 -21.0556 -21.0529 -21.0455 -21.0414
   -21.0335 -21.0312 -21.0289 -21.0253 -21.0251 -21.0249 -21.0161 -21.0159
   -21.0144 -21.0108 -21.0060 -21.0008 -20.9943 -20.9914 -20.9874 -20.9836
   -20.9728 -20.9648 -20.9643 -20.9517 -20.9508 -20.9378 -20.9294 -20.9183
   -20.9161 -20.9049 -20.8970 -20.8640 -11.1378  -8.6868  -8.5087  -7.5540
    -7.1640  -6.4364  -6.4346  -6.0510  -5.8790  -5.6748  -5.4353  -4.3891
    -4.2722  -2.7895  -1.8464  -1.4728  -1.3953  -1.1669  -1.0010  -0.9931
    -0.6568  -0.5786   0.1300   0.1952   0.3446   0.8187   1.0156   1.0926
     1.3871   1.5144   1.7145   1.7234   2.0983   2.1165   2.2261   2.3139

     the Fermi energy is     0.8875 ev

!    total energy              =   -1940.95888404 Ry
     Harris-Foulkes estimate   =   -1940.95888398 Ry
     estimated scf accuracy    <       0.00000006 Ry

     The total energy is the sum of the following terms:

     one-electron contribution =  -10432.21815081 Ry
     hartree contribution      =    5281.77331523 Ry
     xc contribution           =    -538.33378031 Ry
     ewald contribution        =    3747.86524382 Ry
     electric field correction =       0.00000921 Ry
     smearing contrib. (-TS)   =      -0.04552118 Ry

     convergence has been achieved in   6 iterations

 BEEF-vdW xc energy contributions
           1 :   -472.925677943984
           2 :    432.881263707138
           3 :   -364.958639924884
           4 :    288.041129590560
           5 :   -220.047919943278
           6 :    171.645554701514
           7 :   -143.866050573541
           8 :    130.150250319570
           9 :   -121.286338163516
          10 :    110.469781258134
          11 :   -95.9997907660454
          12 :    80.6628938094886
          13 :   -68.7659121699913
          14 :    62.9026762351465
          15 :   -62.3604553495941
          16 :    63.8317549188227
          17 :   -63.6624530016027
          18 :    60.0547406542034
          19 :   -53.8858841110232
          20 :    47.7976381515855
          21 :   -44.3070422003706
          22 :    44.2057424072293
          23 :   -46.2115815420914
          24 :    47.9570387804682
          25 :   -47.5633789047100
          26 :    44.7549191649697
          27 :   -40.8606093999429
          28 :    37.8092819415046
          29 :   -36.8497223693493
          30 :    37.8260017922520
          31 :   -41.5156849584326
          32 :   -30.2228674807450

     Forces acting on atoms (Ry/au):

     negative rho (up, down):  4.526E-04 0.000E+00
     atom    1 type  1   force =    -0.00000023   -0.00000028   -0.00660114
     atom    2 type  1   force =     0.00000002   -0.00400750   -0.00265553
     atom    3 type  1   force =    -0.00347031    0.00200407   -0.00265528
     atom    4 type  1   force =     0.00347040    0.00200360   -0.00265531
     atom    5 type  1   force =     0.00325696   -0.00188118    0.00681389
     atom    6 type  1   force =    -0.00325619   -0.00187991    0.00681373
     atom    7 type  1   force =     0.00000060    0.00000061   -0.01221817
     atom    8 type  1   force =    -0.00000018    0.00376042    0.00681378
     atom    9 type  1   force =     0.00013738    0.00008074    0.00091549
     atom   10 type  1   force =    -0.00014062    0.00008129    0.00091692
     atom   11 type  1   force =    -0.00000115   -0.00016199    0.00091717
     atom   12 type  1   force =     0.00000142   -0.00000062    0.00190658
     atom   13 type  2   force =     0.00000083    0.00000154   -0.00000186
     atom   14 type  3   force =     0.00000108   -0.00000080    0.00168971

     Total force =     0.003015     Total SCF correction =     0.000518
     SCF correction compared to forces is large: reduce conv_thr to get better values

     entering subroutine stress ...

     negative rho (up, down):  4.526E-04 0.000E+00
          total   stress  (Ry/bohr**3)                   (kbar)     P=    1.68
   0.00001749   0.00000000   0.00000000          2.57      0.00      0.00
   0.00000000   0.00001749   0.00000000          0.00      2.57      0.00
   0.00000000   0.00000000  -0.00000065          0.00      0.00     -0.10

     bfgs converged in  18 scf cycles and  17 bfgs steps
     (criteria: energy <  1.0E+00, force <  1.9E-03)

     End of BFGS Geometry Optimization

     Final energy   =   -1940.9588840360 Ry
Begin final coordinates

ATOMIC_POSITIONS (crystal)
Sn1      0.166666667   0.166666667   0.392271209    0   0   0
Sn1      0.666666667   0.166666667   0.392271209    0   0   0
Sn1      0.166666667   0.666666667   0.392271209    0   0   0
Sn1      0.666666667   0.666666667   0.392271209    0   0   0
Sn1      0.833333333   0.333333333   0.500000000    0   0   0
Sn1      0.333333333   0.333333333   0.500000000    0   0   0
Sn1      0.833333333   0.833333333   0.500000000    0   0   0
Sn1      0.333333333   0.833333333   0.500000000    0   0   0
Sn1     -0.002429020  -0.002439466   0.616833763
Sn1      0.504866688  -0.002431827   0.616832764
Sn1     -0.002434260   0.504864872   0.616832392
Sn1      0.499997952   0.499999797   0.602033120
C1       0.166666272   0.166665335   0.657620145
H1       0.166662780   0.166670204   0.700510182
End final coordinates

     Writing output data file calc.save

     General routines

     Parallel routines

   This run was terminated on:   4:43:52  23Apr2018

   JOB DONE.