     Program PWSCF v.5.1rc2 (svn rev. 11289) starts on 16Jan2018 at 12:56:35

     Current dimensions of program PWSCF are:
     Max number of different atomic species (ntypx) = 10
     Max number of k-points (npk) =  40000
     Max angular momentum in pseudopotentials (lmaxx) =  3
     Presently stress not available with electric field

     IMPORTANT: XC functional enforced from input :
     Exchange-correlation      = BEEF-VDW ( 1  4 27 13 2)
     Any further DFT definition will be discarded
     Please, verify this is what you really want

     Subspace diagonalization in iterative solution of the eigenvalue problem:
     a serial algorithm will be used

     bravais-lattice index     =            0
     lattice parameter (alat)  =       1.8897  a.u.
     unit-cell volume          =    4204.8134 (a.u.)^3
     number of atoms/cell      =           13
     number of atomic types    =            2
     number of electrons       =       181.00
     number of Kohn-Sham states=          100
     kinetic-energy cutoff     =      36.7493  Ry
     charge density cutoff     =     367.4932  Ry
     convergence threshold     =      1.0E-05
     mixing beta               =       0.3000
     number of iterations used =           10  plain     mixing
     Exchange-correlation      = BEEF-VDW ( 1  4 27 13 2)
     nstep                     =           50

     celldm(1)=   1.889726  celldm(2)=   0.000000  celldm(3)=   0.000000
     celldm(4)=   0.000000  celldm(5)=   0.000000  celldm(6)=   0.000000

     crystal axes: (cart. coord. in units of alat)
               a(1) = (   5.426750   0.000000   0.000000 )
               a(2) = (   2.713375   4.699703   0.000000 )
               a(3) = (   0.000000   0.000000  24.430923 )

     reciprocal axes: (cart. coord. in units 2 pi/alat)
               b(1) = (  0.184272 -0.106390  0.000000 )
               b(2) = (  0.000000  0.212779  0.000000 )
               b(3) = (  0.000000  0.000000  0.040932 )

     PseudoPot. # 1 for Rh read from file:
     /afs/slac.stanford.edu/u/if/mamunm/psp/gbrv1.5pbe/Rh.UPF
     MD5 check sum: 761627e959a2e3a1f56b0b5fe687810e
     Pseudo is Ultrasoft + core correction, Zval = 15.0
     Generated by new atomic code, or converted to UPF format
     Using radial grid of  969 points,  7 beta functions with:
                l(1) =   0
                l(2) =   0
                l(3) =   1
                l(4) =   1
                l(5) =   2
                l(6) =   2
                l(7) =   2
     Q(r) pseudized with  8 coefficients,  rinner =    1.200   1.200   1.200
                                                       1.200   1.200

     PseudoPot. # 2 for H  read from file:
     /afs/slac.stanford.edu/u/if/mamunm/psp/gbrv1.5pbe/H.UPF
     MD5 check sum: 761ae9a214b05c3daf00ab9f6b793d6f
     Pseudo is Ultrasoft, Zval =  1.0
     Generated by new atomic code, or converted to UPF format
     Using radial grid of  615 points,  2 beta functions with:
                l(1) =   0
                l(2) =   0
     Q(r) pseudized with  8 coefficients,  rinner =    0.700

     vdW kernel table read from file vdW_kernel_table
     MD5 check sum: 095c7af220d748ca6e76c0b4c6cfb241

     atomic species   valence    mass     pseudopotential
        Rh1           15.00   102.90550     Rh( 1.00)
        H1             1.00     1.00800     H ( 1.00)

     No symmetry found

   Cartesian axes

     site n.     atom                  positions (alat units)
         1           Rh1 tau(   1) = (   1.3566875   0.7832839  10.0000000  )
         2           Rh1 tau(   2) = (   4.0700625   0.7832839  10.0000000  )
         3           Rh1 tau(   3) = (   2.7133750   3.1331356  10.0000000  )
         4           Rh1 tau(   4) = (   5.4267500   3.1331356  10.0000000  )
         5           Rh1 tau(   5) = (   5.4267500   1.5665678  12.2154614  )
         6           Rh1 tau(   6) = (   2.7133750   1.5665678  12.2154614  )
         7           Rh1 tau(   7) = (   6.7834375   3.9164194  12.2154614  )
         8           Rh1 tau(   8) = (   4.0700625   3.9164194  12.2154614  )
         9           Rh1 tau(   9) = (   0.0000000   0.0000000  14.4309228  )
        10           Rh1 tau(  10) = (   2.7133750   0.0000000  14.4309228  )
        11           Rh1 tau(  11) = (   1.3566875   2.3498517  14.4309228  )
        12           Rh1 tau(  12) = (   4.0700625   2.3498517  14.4309228  )
        13           H1  tau(  13) = (   0.0000000   0.0000000  16.1609228  )

     number of k points=    20  Fermi-Dirac smearing, width (Ry)=  0.0110
                       cart. coord. in units 2pi/alat
        k(    1) = (   0.0000000   0.0000000   0.0000000), wk =   0.0555556
        k(    2) = (   0.0000000   0.0354632   0.0000000), wk =   0.1111111
        k(    3) = (   0.0000000   0.0709265   0.0000000), wk =   0.1111111
        k(    4) = (   0.0000000  -0.1063897   0.0000000), wk =   0.0555556
        k(    5) = (   0.0307121  -0.0177316   0.0000000), wk =   0.1111111
        k(    6) = (   0.0307121   0.0177316   0.0000000), wk =   0.1111111
        k(    7) = (   0.0307121   0.0531948   0.0000000), wk =   0.1111111
        k(    8) = (   0.0307121  -0.1241213   0.0000000), wk =   0.1111111
        k(    9) = (   0.0307121  -0.0886581   0.0000000), wk =   0.1111111
        k(   10) = (   0.0307121  -0.0531948   0.0000000), wk =   0.1111111
        k(   11) = (   0.0614241  -0.0354632   0.0000000), wk =   0.1111111
        k(   12) = (   0.0614241   0.0000000   0.0000000), wk =   0.1111111
        k(   13) = (   0.0614241   0.0354632   0.0000000), wk =   0.1111111
        k(   14) = (   0.0614241  -0.1418529   0.0000000), wk =   0.1111111
        k(   15) = (   0.0614241  -0.1063897   0.0000000), wk =   0.1111111
        k(   16) = (   0.0614241  -0.0709265   0.0000000), wk =   0.1111111
        k(   17) = (  -0.0921362   0.0531948   0.0000000), wk =   0.0555556
        k(   18) = (  -0.0921362   0.0886581   0.0000000), wk =   0.1111111
        k(   19) = (  -0.0921362   0.1241213   0.0000000), wk =   0.1111111
        k(   20) = (  -0.0921362  -0.0531948   0.0000000), wk =   0.0555556

     Largest allocated arrays     est. size (Mb)     dimensions
     Largest temporary arrays     est. size (Mb)     dimensions

     Initial potential from superposition of free atoms
     Check: negative starting charge=   -0.652724

     starting charge  174.99881, renormalised to  181.00000

     negative rho (up, down):  6.751E-01 0.000E+00

     *
     * You are using vdW-DF for exchange-correlation in this calculation.
     * Please cite the following three references that made this development
     * possible:
     *
     *   M. Dion, H. Rydberg, E. Schroder, D. C. Langreth, and
     *   B. I. Lundqvist, Phys. Rev. Lett. 92, 246401 (2004).
     *
     *   T. Thonhauser, V. R. Cooper, S. Li, A. Puzder, P. Hyldgaard, and
     *   D. C. Langreth, Phys. Rev. B 76, 125112 (2007).
     *
     *   G. Roman-Perez and J. M. Soler, Phys. Rev. Lett. 103, 096102 (2009).
     *
     *
     * If you are using vdW-DF2, please also cite:
     *
     *   K. Lee, E. D. Murray, L. Kong, B. I. Lundqvist, and
     *   D. C. Langreth, Phys. Rev. B 82, 081101(R) (2010).
     *
     *
     * If you are calculating the stress with vdW-DF, please also cite:
     *
     *   R. Sabatini, E. Kucukbenli, B. Kolb, T. Thonhauser, and
     *   S. de Gironcoli, J. Phys.: Condens. Matter 24, 424209 (2012).
     *

     Carrying out vdW-DF run using the following parameters:

     Nqs =      20    Nr_points =    1024   r_max =   100.000
     q_mesh =
               0.00001000     0.04494208     0.09755937     0.15916263
               0.23128650     0.31572767     0.41458969     0.53033537
               0.66584808     0.82450364     1.01025438     1.22772762
               1.48234092     1.78043706     2.12944203     2.53805004
               3.01644009     3.57652955     4.23227104     5.00000000

     Gradients computed in reciprocal space

     Adding external electric field

     Computed dipole along edir(3) :
        Dipole               -0.2556 Ry au,         -0.6497 Debye
        Dipole field         -0.0008 Ry au

        Potential amp.        0.0688 Ry
        Total length         45.0136 bohr

     Starting wfc are  145 randomized atomic wfcs

     Self-consistent Calculation

     iteration #  1     ecut=    36.75 Ry     beta=0.30
     Davidson diagonalization with overlap
     ethr =  1.00E-02,  avg # of iterations =  2.0

[...]

     total energy              =   -2065.03395697 Ry
     Harris-Foulkes estimate   =   -2069.14970289 Ry
     estimated scf accuracy    <       9.26171826 Ry

[...]

     End of self-consistent calculation

          k = 0.0000 0.0000 0.0000 ( 15785 PWs)   bands (ev):

   -45.4608 -45.4603 -45.4520 -45.3282 -45.2658 -45.2597 -45.2590 -45.0790
   -45.0788 -45.0686 -45.0642 -45.0639 -45.0533 -44.9787 -44.9784 -44.9783
   -44.9419 -44.9418 -44.8513 -44.7180 -44.7178 -44.6731 -44.6651 -44.6633
   -44.6629 -44.6559 -44.6042 -44.6031 -44.5851 -44.5749 -44.5746 -44.5741
   -44.5731 -44.5469 -44.5459 -44.5459  -5.1422  -3.8638  -3.8620  -3.8617
    -3.8087  -3.7175  -3.6225  -3.5643  -3.5641  -3.3371  -3.3370  -3.3369
    -3.0231  -3.0202  -3.0200  -2.0746  -1.9116  -1.9112  -1.8853  -1.4531
    -1.4531  -1.4131  -1.1701  -1.1645  -1.1645  -0.8418  -0.8418  -0.7619
    -0.7615  -0.7507  -0.6149  -0.6149  -0.4586   0.0322   0.0328   0.5512
     0.6754   0.6757   0.7068   0.7356   0.7356   0.8832   0.8835   0.8995
     1.3043   1.3043   1.6640   1.8144   1.8149   1.8315   1.8512   1.8518
     1.9577   1.9577   2.2031   2.2036   2.2073   2.4435   2.5376   2.5381
     2.5517   2.5968   2.5973   2.6001

[...]

          k =-0.0921 0.0532 0.0000 ( 15852 PWs)   bands (ev):

[...]

     the Fermi energy is     1.5878 ev

!    total energy              =   -2067.56630064 Ry
     Harris-Foulkes estimate   =   -2067.56630276 Ry
     estimated scf accuracy    <       0.00000795 Ry

     The total energy is the sum of the following terms:

     one-electron contribution =  -19132.11497309 Ry
     hartree contribution      =    9606.72640448 Ry
     xc contribution           =    -372.78128699 Ry
     ewald contribution        =    7830.72495498 Ry
     electric field correction =       0.00002788 Ry
     smearing contrib. (-TS)   =      -0.12142790 Ry

     convergence has been achieved in  19 iterations

 BEEF-vdW xc energy contributions
           1 :   -324.693969947644
           2 :    298.217598630577
           3 :   -252.411986629478
           4 :    198.655863297639
           5 :   -148.434972281895
           6 :    109.779312992328
           7 :   -85.4273604797603
           8 :    73.1319512211019
           9 :   -67.6698036401507
          10 :    63.5243708207657
          11 :   -57.0864831535793
          12 :    47.5824893275429
          13 :   -36.5989978873438
          14 :    26.6903430656385
          15 :   -19.8628756049744
          16 :    16.6362267554408
          17 :   -15.9978555699789
          18 :    16.1119814935257
          19 :   -15.3229863375964
          20 :    12.9203662476594
          21 :   -9.31808048177368
[...]
00029 suncat0233 pw.x -in pw.inp   Done                     01/16/2018 13:08:28
00030 suncat0233 pw.x -in pw.inp   Done                     01/16/2018 13:08:28
00031 suncat0233 pw.x -in pw.inp   Done                     01/16/2018 13:08:28

     Program PWSCF v.5.1rc2 (svn rev. 11289) starts on 16Jan2018 at 13: 8:34

[...]

   This run was terminated on:  13:19:35  16Jan2018

[...]

   This run was terminated on:  13:42: 1  16Jan2018

[...]

     Program PWSCF v.5.1rc2 (svn rev. 11289) starts on 16Jan2018 at 13:42: 7

[...]

     Program PWSCF v.5.1rc2 (svn rev. 11289) starts on 16Jan2018 at 13:53:38

[...]

   This run was terminated on:  14: 4:36  16Jan2018

[...]

     Program PWSCF v.5.1rc2 (svn rev. 11289) starts on 16Jan2018 at 14: 4:42

     Current dimensions of program PWSCF are:
     Max number of different atomic species (ntypx) = 10
     Max number of k-points (npk) =  40000
     Max angular momentum in pseudopotentials (lmaxx) =  3
     Presently stress not available with electric field

     IMPORTANT: XC functional enforced from input :
     Exchange-correlation      = BEEF-VDW ( 1  4 27 13 2)
     Any further DFT definition will be discarded
     Please, verify this is what you really want

     Subspace diagonalization in iterative solution of the eigenvalue problem:
     a serial algorithm will be used

     bravais-lattice index     =            0
     lattice parameter (alat)  =       1.8897  a.u.
     unit-cell volume          =    4204.8134 (a.u.)^3
     number of atoms/cell      =           13
     number of atomic types    =            2
     number of electrons       =       181.00
     number of Kohn-Sham states=          100
     kinetic-energy cutoff     =      36.7493  Ry
     charge density cutoff     =     367.4932  Ry
     convergence threshold     =      1.0E-05
     mixing beta               =       0.3000
     number of iterations used =           10  plain     mixing
     Exchange-correlation      = BEEF-VDW ( 1  4 27 13 2)
     nstep                     =           50

     celldm(1)=   1.889726  celldm(2)=   0.000000  celldm(3)=   0.000000
     celldm(4)=   0.000000  celldm(5)=   0.000000  celldm(6)=   0.000000

     crystal axes: (cart. coord. in units of alat)
               a(1) = (   5.426750   0.000000   0.000000 )
               a(2) = (   2.713375   4.699703   0.000000 )
               a(3) = (   0.000000   0.000000  24.430923 )

     reciprocal axes: (cart. coord. in units 2 pi/alat)
               b(1) = (  0.184272 -0.106390  0.000000 )
               b(2) = (  0.000000  0.212779  0.000000 )
               b(3) = (  0.000000  0.000000  0.040932 )

     PseudoPot. # 1 for Rh read from file:
     /afs/slac.stanford.edu/u/if/mamunm/psp/gbrv1.5pbe/Rh.UPF
     MD5 check sum: 761627e959a2e3a1f56b0b5fe687810e
     Pseudo is Ultrasoft + core correction, Zval = 15.0
     Generated by new atomic code, or converted to UPF format
     Using radial grid of  969 points,  7 beta functions with:
                l(1) =   0
                l(2) =   0
                l(3) =   1
                l(4) =   1
                l(5) =   2
                l(6) =   2
                l(7) =   2
     Q(r) pseudized with  8 coefficients,  rinner =    1.200   1.200   1.200
                                                       1.200   1.200

     PseudoPot. # 2 for H  read from file:
     /afs/slac.stanford.edu/u/if/mamunm/psp/gbrv1.5pbe/H.UPF
     MD5 check sum: 761ae9a214b05c3daf00ab9f6b793d6f
     Pseudo is Ultrasoft, Zval =  1.0
     Generated by new atomic code, or converted to UPF format
     Using radial grid of  615 points,  2 beta functions with:
                l(1) =   0
                l(2) =   0
     Q(r) pseudized with  8 coefficients,  rinner =    0.700

     vdW kernel table read from file vdW_kernel_table
     MD5 check sum: 095c7af220d748ca6e76c0b4c6cfb241

     atomic species   valence    mass     pseudopotential
        Rh1           15.00   102.90550     Rh( 1.00)
        H1             1.00     1.00800     H ( 1.00)

     No symmetry found

   Cartesian axes

     site n.     atom                  positions (alat units)
         1           Rh1 tau(   1) = (   1.3566875   0.7832839  10.0000000  )
         2           Rh1 tau(   2) = (   4.0700625   0.7832839  10.0000000  )
         3           Rh1 tau(   3) = (   2.7133750   3.1331356  10.0000000  )
         4           Rh1 tau(   4) = (   5.4267500   3.1331356  10.0000000  )
         5           Rh1 tau(   5) = (   5.4267500   1.5665678  12.2154614  )
         6           Rh1 tau(   6) = (   2.7133750   1.5665678  12.2154614  )
         7           Rh1 tau(   7) = (   6.7834375   3.9164194  12.2154614  )
         8           Rh1 tau(   8) = (   4.0700625   3.9164194  12.2154614  )
         9           Rh1 tau(   9) = (   0.0001818   0.0000199  14.4754273  )
        10           Rh1 tau(  10) = (   5.4266238   4.6979440  14.3894242  )
        11           Rh1 tau(  11) = (   6.7821549   2.3507598  14.3897096  )
        12           Rh1 tau(  12) = (   4.0713602   2.3509612  14.3898441  )
        13           H1  tau(  13) = (   5.4267130   0.0000470  16.0540807  )

     number of k points=    20  Fermi-Dirac smearing, width (Ry)=  0.0110
                       cart. coord. in units 2pi/alat
        k(    1) = (   0.0000000   0.0000000   0.0000000), wk =   0.0555556
        k(    2) = (   0.0000000   0.0354632   0.0000000), wk =   0.1111111
        k(    3) = (   0.0000000   0.0709265   0.0000000), wk =   0.1111111
        k(    4) = (   0.0000000  -0.1063897   0.0000000), wk =   0.0555556
        k(    5) = (   0.0307121  -0.0177316   0.0000000), wk =   0.1111111
        k(    6) = (   0.0307121   0.0177316   0.0000000), wk =   0.1111111
        k(    7) = (   0.0307121   0.0531948   0.0000000), wk =   0.1111111
        k(    8) = (   0.0307121  -0.1241213   0.0000000), wk =   0.1111111
        k(    9) = (   0.0307121  -0.0886581   0.0000000), wk =   0.1111111
        k(   10) = (   0.0307121  -0.0531948   0.0000000), wk =   0.1111111
        k(   11) = (   0.0614241  -0.0354632   0.0000000), wk =   0.1111111
        k(   12) = (   0.0614241   0.0000000   0.0000000), wk =   0.1111111
        k(   13) = (   0.0614241   0.0354632   0.0000000), wk =   0.1111111
        k(   14) = (   0.0614241  -0.1418529   0.0000000), wk =   0.1111111
        k(   15) = (   0.0614241  -0.1063897   0.0000000), wk =   0.1111111
        k(   16) = (   0.0614241  -0.0709265   0.0000000), wk =   0.1111111
        k(   17) = (  -0.0921362   0.0531948   0.0000000), wk =   0.0555556
        k(   18) = (  -0.0921362   0.0886581   0.0000000), wk =   0.1111111
        k(   19) = (  -0.0921362   0.1241213   0.0000000), wk =   0.1111111
        k(   20) = (  -0.0921362  -0.0531948   0.0000000), wk =   0.0555556

     Largest allocated arrays     est. size (Mb)     dimensions
     Largest temporary arrays     est. size (Mb)     dimensions

     Initial potential from superposition of free atoms
     Check: negative starting charge=   -0.658731

     starting charge  174.99881, renormalised to  181.00000

[...]

     *
     * You are using vdW-DF for exchange-correlation in this calculation.
     * Please cite the following three references that made this development
     * possible:
     *
     *   M. Dion, H. Rydberg, E. Schroder, D. C. Langreth, and
     *   B. I. Lundqvist, Phys. Rev. Lett. 92, 246401 (2004).
     *
     *   T. Thonhauser, V. R. Cooper, S. Li, A. Puzder, P. Hyldgaard, and
     *   D. C. Langreth, Phys. Rev. B 76, 125112 (2007).
     *
     *   G. Roman-Perez and J. M. Soler, Phys. Rev. Lett. 103, 096102 (2009).
     *
     *
     * If you are using vdW-DF2, please also cite:
     *
     *   K. Lee, E. D. Murray, L. Kong, B. I. Lundqvist, and
     *   D. C. Langreth, Phys. Rev. B 82, 081101(R) (2010).
     *
     *
     * If you are calculating the stress with vdW-DF, please also cite:
     *
     *   R. Sabatini, E. Kucukbenli, B. Kolb, T. Thonhauser, and
     *   S. de Gironcoli, J. Phys.: Condens. Matter 24, 424209 (2012).
     *

     Carrying out vdW-DF run using the following parameters:

     Nqs =      20    Nr_points =    1024   r_max =   100.000
     q_mesh =
               0.00001000     0.04494208     0.09755937     0.15916263
               0.23128650     0.31572767     0.41458969     0.53033537
               0.66584808     0.82450364     1.01025438     1.22772762
               1.48234092     1.78043706     2.12944203     2.53805004
               3.01644009     3.57652955     4.23227104     5.00000000

     Gradients computed in reciprocal space

[...]

     Starting wfc are  145 randomized atomic wfcs

     Self-consistent Calculation

[...]

     total energy              =   -2067.57633139 Ry
     Harris-Foulkes estimate   =   -2067.57633251 Ry
     estimated scf accuracy    <       0.00001203 Ry

     iteration # 18     ecut=    36.75 Ry     beta=0.30
     Davidson diagonalization with overlap
     ethr =  6.64E-09,  avg # of iterations =  3.6

[...]

     negative rho (up, down):  6.934E-01 0.000E+00

     Adding external electric field

     Computed dipole along edir(3) :
        Dipole               -0.0608 Ry au,         -0.1546 Debye
        Dipole field         -0.0002 Ry au

        Potential amp.        0.0164 Ry
        Total length         45.0136 bohr

     End of self-consistent calculation

[...]

          k = 0.0614-0.0709 0.0000 ( 15838 PWs)   bands (ev):

[...]

          k =-0.0921-0.0532 0.0000 ( 15852 PWs)   bands (ev):

   -45.3761 -45.3437 -45.3086 -45.2591 -45.2449 -45.2241 -45.2217 -45.1956
   -45.1634 -45.1451 -45.0164 -44.9781 -44.9703 -44.9628 -44.9030 -44.8952
   -44.8398 -44.8306 -44.8151 -44.7954 -44.7817 -44.7754 -44.7671 -44.7425
   -44.7327 -44.6469 -44.6442 -44.6350 -44.6349 -44.6238 -44.5913 -44.5834
   -44.5768 -44.5705 -44.5635 -44.5349  -3.7316  -3.6513  -3.1302  -3.0807
    -3.0239  -3.0202  -2.8594  -2.7845  -2.7619  -2.6338  -2.5793  -2.5518
    -2.2829  -2.2389  -2.1698  -2.1225  -2.1200  -1.7778  -1.7327  -1.6622
    -1.5600  -1.5528  -1.3451  -1.1610  -1.0587  -0.8591  -0.8184  -0.7803
    -0.7504  -0.6431  -0.5443  -0.4882  -0.4474  -0.4422  -0.3945  -0.3750
    -0.3440  -0.3147  -0.3025  -0.2631  -0.1458   0.1384   0.1638   0.3242
     0.4083   0.4211   0.5753   0.6823   0.7665   0.7849   0.8547   0.8800
     0.9018   1.1904   1.2935   1.3092   1.3401   1.6535   1.7946   1.8857
     2.0075   2.0538   2.2474   2.3130

     the Fermi energy is     1.6037 ev

!    total energy              =   -2067.57632885 Ry
     Harris-Foulkes estimate   =   -2067.57634075 Ry
     estimated scf accuracy    <       0.00000648 Ry

     The total energy is the sum of the following terms:

     one-electron contribution =  -19192.47779552 Ry
     hartree contribution      =    9636.93279419 Ry
     xc contribution           =    -372.86911202 Ry
     ewald contribution        =    7860.95740685 Ry
     electric field correction =       0.00001106 Ry
     smearing contrib. (-TS)   =      -0.11963341 Ry

     convergence has been achieved in  18 iterations

 BEEF-vdW xc energy contributions
           1 :   -324.783623682509
           2 :    298.333873086882
           3 :   -252.560438638440
           4 :    198.813544533489
           5 :   -148.561030931131
           6 :    109.836972698615
           7 :   -85.4042520063448
           8 :    73.0478974223054
           9 :   -67.5686121701899
          10 :    63.4540968994519
          11 :   -57.0779802617883
          12 :    47.6361448541596
          13 :   -36.6855404278388
          14 :    26.7666750754959
          15 :   -19.8954637058768
          16 :    16.6174161477230
          17 :   -15.9470321903552
          18 :    16.0642287860551
          19 :   -15.3107045142362
          20 :    12.9566855406995
          21 :   -9.39132111688934
          22 :    5.72613793488040
          23 :   -3.09943879254649
          24 :    2.06957902539318
          25 :   -2.38460358135080
          26 :    3.19707516913348
          27 :   -3.56535331393957
          28 :    2.95368123438044
          29 :   -1.46842876150379
          30 :  -0.269840503914679
          31 :   -32.0929123599626
          32 :   -24.0774825927623

     Forces acting on atoms (Ry/au):

     negative rho (up, down):  6.934E-01 0.000E+00
     atom    1 type  1   force =    -0.00107037   -0.00066667    0.00725097
     atom    2 type  1   force =     0.00108454   -0.00064726    0.00724291
     atom    3 type  1   force =     0.00000265    0.00127868    0.00720582
     atom    4 type  1   force =     0.00000152    0.00001778    0.00034551
     atom    5 type  1   force =    -0.00001294   -0.00325729   -0.00407520
     atom    6 type  1   force =     0.00000348    0.00000954   -0.01217080
     atom    7 type  1   force =     0.00285221    0.00163659   -0.00409296
     atom    8 type  1   force =    -0.00284114    0.00163254   -0.00412063
     atom    9 type  1   force =    -0.00010011    0.00004509   -0.00150636
     atom   10 type  1   force =     0.00007586   -0.00009778    0.00084183
     atom   11 type  1   force =    -0.00017640    0.00007206    0.00080392
     atom   12 type  1   force =     0.00017877   -0.00002380    0.00073545
     atom   13 type  2   force =     0.00000194    0.00000050    0.00153956

     Total force =     0.019979     Total SCF correction =     0.020824
     SCF correction compared to forces is large: reduce conv_thr to get better values

     entering subroutine stress ...

     negative rho (up, down):  6.934E-01 0.000E+00
          total   stress  (Ry/bohr**3)                   (kbar)     P=  -31.00
  -0.00022404  -0.00000001  -0.00000002        -32.96     -0.00     -0.00
  -0.00000001  -0.00022400  -0.00000002         -0.00    -32.95     -0.00
  -0.00000002  -0.00000002  -0.00018408         -0.00     -0.00    -27.08

 !ASE

     Writing output data file calc.save

     General routines

     Parallel routines

   This run was terminated on:  14:16:12  16Jan2018

   JOB DONE.
Job  /afs/slac/g/suncat/bin/suncat-tsmpirun -x LD_LIBRARY_PATH -wdir /scratch/qe842475_Og5ai pw.x -in pw.inp

TID   HOST_NAME   COMMAND_LINE            STATUS            TERMINATION_TIME
00000 suncat0273 pw.x -in pw.inp   Done                     01/16/2018 14:16:12
00001 suncat0273 pw.x -in pw.inp   Done                     01/16/2018 14:16:12
00002 suncat0273 pw.x -in pw.inp   Done                     01/16/2018 14:16:12
00003 suncat0273 pw.x -in pw.inp   Done                     01/16/2018 14:16:12
00004 suncat0273 pw.x -in pw.inp   Done                     01/16/2018 14:16:12
00005 suncat0273 pw.x -in pw.inp   Done                     01/16/2018 14:16:12
00006 suncat0273 pw.x -in pw.inp   Done                     01/16/2018 14:16:12
00007 suncat0273 pw.x -in pw.inp   Done                     01/16/2018 14:16:12
00008 suncat0268 pw.x -in pw.inp   Done                     01/16/2018 14:16:12
00009 suncat0268 pw.x -in pw.inp   Done                     01/16/2018 14:16:12
00010 suncat0268 pw.x -in pw.inp   Done                     01/16/2018 14:16:12
00011 suncat0268 pw.x -in pw.inp   Done                     01/16/2018 14:16:12
00012 suncat0268 pw.x -in pw.inp   Done                     01/16/2018 14:16:12
00013 suncat0268 pw.x -in pw.inp   Done                     01/16/2018 14:16:12
00014 suncat0268 pw.x -in pw.inp   Done                     01/16/2018 14:16:12
00015 suncat0268 pw.x -in pw.inp   Done                     01/16/2018 14:16:12
00016 suncat0266 pw.x -in pw.inp   Done                     01/16/2018 14:16:12
00017 suncat0266 pw.x -in pw.inp   Done                     01/16/2018 14:16:12
00018 suncat0266 pw.x -in pw.inp   Done                     01/16/2018 14:16:12
00019 suncat0266 pw.x -in pw.inp   Done                     01/16/2018 14:16:12
00020 suncat0266 pw.x -in pw.inp   Done                     01/16/2018 14:16:12
00021 suncat0266 pw.x -in pw.inp   Done                     01/16/2018 14:16:12
00022 suncat0266 pw.x -in pw.inp   Done                     01/16/2018 14:16:12
00023 suncat0266 pw.x -in pw.inp   Done                     01/16/2018 14:16:12
00024 suncat0233 pw.x -in pw.inp   Done                     01/16/2018 14:16:12
00025 suncat0233 pw.x -in pw.inp   Done                     01/16/2018 14:16:12
00026 suncat0233 pw.x -in pw.inp   Done                     01/16/2018 14:16:12
00027 suncat0233 pw.x -in pw.inp   Done                     01/16/2018 14:16:12
00028 suncat0233 pw.x -in pw.inp   Done                     01/16/2018 14:16:12
00029 suncat0233 pw.x -in pw.inp   Done                     01/16/2018 14:16:12
00030 suncat0233 pw.x -in pw.inp   Done                     01/16/2018 14:16:12
00031 suncat0233 pw.x -in pw.inp   Done                     01/16/2018 14:16:12