     Program PWSCF v.5.1rc2 (svn rev. 11289) starts on  4May2018 at 10:21:51

     Current dimensions of program PWSCF are:
     Max number of different atomic species (ntypx) = 10
     Max number of k-points (npk) =  40000
     Max angular momentum in pseudopotentials (lmaxx) =  3
     Presently stress not available with electric field

     IMPORTANT: XC functional enforced from input :
     Exchange-correlation      = BEEF-VDW ( 1  4 27 13 2)
     Any further DFT definition will be discarded
     Please, verify this is what you really want

     Subspace diagonalization in iterative solution of the eigenvalue problem:
     a serial algorithm will be used

     bravais-lattice index     =            0
     lattice parameter (alat)  =       1.8897  a.u.
     unit-cell volume          =    5174.6160 (a.u.)^3
     number of atoms/cell      =           13
     number of atomic types    =            2
     number of electrons       =       232.00
     number of Kohn-Sham states=          126
     kinetic-energy cutoff     =      36.7493  Ry
     charge density cutoff     =     367.4932  Ry
     convergence threshold     =      1.0E-05
     mixing beta               =       0.3000
     number of iterations used =           10  plain     mixing
     Exchange-correlation      = BEEF-VDW ( 1  4 27 13 2)
     nstep                     =           50

     celldm(1)=   1.889726  celldm(2)=   0.000000  celldm(3)=   0.000000
     celldm(4)=   0.000000  celldm(5)=   0.000000  celldm(6)=   0.000000

     crystal axes: (cart. coord. in units of alat)
               a(1) = (   5.966546   0.000000   0.000000 )
               a(2) = (   2.983273   5.167181   0.000000 )
               a(3) = (   0.000000   0.000000  24.871665 )

     reciprocal axes: (cart. coord. in units 2 pi/alat)
               b(1) = (  0.167601 -0.096765  0.000000 )
               b(2) = (  0.000000  0.193529  0.000000 )
               b(3) = (  0.000000  0.000000  0.040206 )

     PseudoPot. # 1 for Ag read from file:
     /u/if/mamunm/psp/gbrv1.5pbe/Ag.UPF
     MD5 check sum: d66d668201baa78d5eb5b04ef7011058
     Pseudo is Ultrasoft + core correction, Zval = 19.0
     Generated by new atomic code, or converted to UPF format
     Using radial grid of  887 points,  6 beta functions with:
                l(1) =   0
                l(2) =   0
                l(3) =   1
                l(4) =   1
                l(5) =   2
                l(6) =   2
     Q(r) pseudized with  6 coefficients,  rinner =    1.300   1.300   1.300
                                                       1.300   1.300

     PseudoPot. # 2 for C  read from file:
     /u/if/mamunm/psp/gbrv1.5pbe/C.UPF
     MD5 check sum: d1aef80898a10debaa0f26306b886e00
     Pseudo is Ultrasoft + core correction, Zval =  4.0
     Generated by new atomic code, or converted to UPF format
     Using radial grid of  721 points,  4 beta functions with:
                l(1) =   0
                l(2) =   0
                l(3) =   1
                l(4) =   1
     Q(r) pseudized with  8 coefficients,  rinner =    1.100   1.100   1.100

     vdW kernel table read from file vdW_kernel_table
     MD5 check sum: 095c7af220d748ca6e76c0b4c6cfb241

     atomic species   valence    mass     pseudopotential
        Ag1           19.00   107.86820     Ag( 1.00)
        C1             4.00    12.01100     C ( 1.00)

     No symmetry found

   Cartesian axes

     site n.     atom                  positions (alat units)
         1           Ag1 tau(   1) = (   1.4916366   0.8611968  10.0000000  )
         2           Ag1 tau(   2) = (   4.4749098   0.8611968  10.0000000  )
         3           Ag1 tau(   3) = (   2.9832732   3.4447871  10.0000000  )
         4           Ag1 tau(   4) = (   5.9665464   3.4447871  10.0000000  )
         5           Ag1 tau(   5) = (   5.9665464   1.7223936  12.4358324  )
         6           Ag1 tau(   6) = (   2.9832732   1.7223936  12.4358324  )
         7           Ag1 tau(   7) = (   7.4581830   4.3059839  12.4358324  )
         8           Ag1 tau(   8) = (   4.4749098   4.3059839  12.4358324  )
         9           Ag1 tau(   9) = (   0.0000000   0.0000000  14.8716647  )
        10           Ag1 tau(  10) = (   2.9832732   0.0000000  14.8716647  )
        11           Ag1 tau(  11) = (   1.4916366   2.5835904  14.8716647  )
        12           Ag1 tau(  12) = (   4.4749098   2.5835904  14.8716647  )
        13           C1  tau(  13) = (   2.9832732   1.7223936  16.3081647  )

     number of k points=    20  Fermi-Dirac smearing, width (Ry)=  0.0110
                       cart. coord. in units 2pi/alat
        k(    1) = (   0.0000000   0.0000000   0.0000000), wk =   0.0555556
        k(    2) = (   0.0000000   0.0322549   0.0000000), wk =   0.1111111
        k(    3) = (   0.0000000   0.0645097   0.0000000), wk =   0.1111111
        k(    4) = (   0.0000000  -0.0967646   0.0000000), wk =   0.0555556
        k(    5) = (   0.0279335  -0.0161274   0.0000000), wk =   0.1111111
        k(    6) = (   0.0279335   0.0161274   0.0000000), wk =   0.1111111
        k(    7) = (   0.0279335   0.0483823   0.0000000), wk =   0.1111111
        k(    8) = (   0.0279335  -0.1128920   0.0000000), wk =   0.1111111
        k(    9) = (   0.0279335  -0.0806371   0.0000000), wk =   0.1111111
        k(   10) = (   0.0279335  -0.0483823   0.0000000), wk =   0.1111111
        k(   11) = (   0.0558670  -0.0322549   0.0000000), wk =   0.1111111
        k(   12) = (   0.0558670   0.0000000   0.0000000), wk =   0.1111111
        k(   13) = (   0.0558670   0.0322549   0.0000000), wk =   0.1111111
        k(   14) = (   0.0558670  -0.1290194   0.0000000), wk =   0.1111111
        k(   15) = (   0.0558670  -0.0967646   0.0000000), wk =   0.1111111
        k(   16) = (   0.0558670  -0.0645097   0.0000000), wk =   0.1111111
        k(   17) = (  -0.0838006   0.0483823   0.0000000), wk =   0.0555556
        k(   18) = (  -0.0838006   0.0806371   0.0000000), wk =   0.1111111
        k(   19) = (  -0.0838006   0.1128920   0.0000000), wk =   0.1111111
        k(   20) = (  -0.0838006  -0.0483823   0.0000000), wk =   0.0555556

     Largest allocated arrays     est. size (Mb)     dimensions
     Largest temporary arrays     est. size (Mb)     dimensions

     Initial potential from superposition of free atoms
     Check: negative starting charge=   -0.002170

     starting charge  225.99939, renormalised to  232.00000

     negative rho (up, down):  2.228E-03 0.000E+00

     *
     * You are using vdW-DF for exchange-correlation in this calculation.
     * Please cite the following three references that made this development
     * possible:
     *
     *   M. Dion, H. Rydberg, E. Schroder, D. C. Langreth, and
     *   B. I. Lundqvist, Phys. Rev. Lett. 92, 246401 (2004).
     *
     *   T. Thonhauser, V. R. Cooper, S. Li, A. Puzder, P. Hyldgaard, and
     *   D. C. Langreth, Phys. Rev. B 76, 125112 (2007).
     *
     *   G. Roman-Perez and J. M. Soler, Phys. Rev. Lett. 103, 096102 (2009).
     *
     *
     * If you are using vdW-DF2, please also cite:
     *
     *   K. Lee, E. D. Murray, L. Kong, B. I. Lundqvist, and
     *   D. C. Langreth, Phys. Rev. B 82, 081101(R) (2010).
     *
     *
     * If you are calculating the stress with vdW-DF, please also cite:
     *
     *   R. Sabatini, E. Kucukbenli, B. Kolb, T. Thonhauser, and
     *   S. de Gironcoli, J. Phys.: Condens. Matter 24, 424209 (2012).
     *

     Carrying out vdW-DF run using the following parameters:

     Nqs =      20    Nr_points =    1024   r_max =   100.000
     q_mesh =
               0.00001000     0.04494208     0.09755937     0.15916263
               0.23128650     0.31572767     0.41458969     0.53033537
               0.66584808     0.82450364     1.01025438     1.22772762
               1.48234092     1.78043706     2.12944203     2.53805004
               3.01644009     3.57652955     4.23227104     5.00000000

     Gradients computed in reciprocal space

     Adding external electric field

     Computed dipole along edir(3) :
        Dipole               -0.7769 Ry au,         -1.9746 Debye
        Dipole field         -0.0019 Ry au

        Potential amp.        0.1729 Ry
        Total length         45.8256 bohr

     Starting wfc are  160 randomized atomic wfcs

     Self-consistent Calculation

     iteration #  1     ecut=    36.75 Ry     beta=0.30
     Davidson diagonalization with overlap
     ethr =  1.00E-02,  avg # of iterations =  5.3

[...]

     total energy              =   -3564.31752602 Ry
     Harris-Foulkes estimate   =   -3574.69180490 Ry
     estimated scf accuracy    <      22.65177871 Ry

[...]

     End of self-consistent calculation

          k = 0.0000 0.0000 0.0000 ( 19435 PWs)   bands (ev):

   -91.2207 -91.2153 -91.2153 -91.1844 -91.1778 -91.1778 -91.1765 -91.0040
   -90.9986 -90.9985 -90.9547 -90.8582 -54.8108 -54.7675 -54.7675 -54.7249
   -54.7249 -54.7167 -54.6948 -54.6890 -54.6890 -54.6698 -54.6673 -54.6657
   -54.6657 -54.6581 -54.6581 -54.6530 -54.6466 -54.6390 -54.6390 -54.6309
   -54.6309 -54.5493 -54.5353 -54.5353 -54.4859 -54.4805 -54.4805 -54.4779
   -54.4725 -54.4725 -54.4446 -54.4445 -54.4244 -54.3639 -54.3639 -54.3397
    -8.9535  -5.5581  -4.9372  -4.9372  -4.9146  -4.9120  -4.8194  -4.8194
    -4.7729  -4.7710  -4.7469  -4.7469  -4.6305  -4.5550  -4.5550  -4.5252
    -4.0444  -4.0444  -3.8837  -3.8695  -3.8695  -3.8346  -3.7780  -3.7780
    -3.6883  -3.6819  -3.6819  -3.5899  -3.5899  -3.5754  -3.5161  -3.5161
    -3.2250  -3.2249  -3.0265  -3.0265  -2.9627  -2.9506  -2.9073  -2.9072
    -2.8388  -2.7045  -2.7045  -2.6714  -2.6714  -2.4967  -2.4967  -2.4856
    -2.4603  -2.4054  -2.4054  -2.3726  -2.3726  -2.2855  -2.2840  -2.2789
    -2.2789  -2.2269  -2.1425  -2.1425  -2.0992  -2.0821  -2.0821   0.0610
     0.5828   0.6698   0.6698   1.5052   1.5052   1.5647   2.0095   2.2652
     2.2652   2.3465   2.6242   2.6242   4.4775   4.5408

[...]

          k =-0.0838 0.0484 0.0000 ( 19500 PWs)   bands (ev):

[...]

     the Fermi energy is     0.8491 ev

!    total energy              =   -3571.06348799 Ry
     Harris-Foulkes estimate   =   -3571.06350382 Ry
     estimated scf accuracy    <       0.00000112 Ry

     The total energy is the sum of the following terms:

     one-electron contribution =  -26073.32181795 Ry
     hartree contribution      =   13025.71700525 Ry
     xc contribution           =    -364.27647032 Ry
     ewald contribution        =    9840.84400580 Ry
     electric field correction =       0.00034090 Ry
     smearing contrib. (-TS)   =      -0.02655168 Ry

     convergence has been achieved in  13 iterations

 BEEF-vdW xc energy contributions
           1 :   -315.604011378714
           2 :    285.767053340486
           3 :   -235.977750027387
           4 :    181.253487770454
           5 :   -135.258006149806
           6 :    105.365552298071
           7 :   -91.2705066844353
           8 :    87.1546081318849
           9 :   -85.7625051478333
          10 :    82.0676955725210
          11 :   -74.8491460837319
          12 :    65.8864509908599
          13 :   -57.8157187914921
          14 :    52.1883494456416
          15 :   -48.8027346138328
          16 :    46.3519711360971
          17 :   -43.6198681010755
          18 :    40.2913340963228
          19 :   -36.9182698779312
          20 :    34.2501878496628
          21 :   -32.5443546431507
          22 :    31.3698836325486
          23 :   -29.9845113910683
          24 :    27.9325532606907
          25 :   -25.3970342445017
          26 :    23.0600010348460
          27 :   -21.6019758796516
          28 :    21.2179009779954
          29 :   -21.4924546992531
          30 :    21.7008957793295
          31 :   -31.5660775311821
          32 :   -22.9747898380232

     Forces acting on atoms (Ry/au):

     negative rho (up, down):  2.150E-03 0.000E+00
     atom    1 type  1   force =    -0.00093273   -0.00053843    0.00018050
     atom    2 type  1   force =     0.00093237   -0.00053897    0.00019933
     atom    3 type  1   force =    -0.00000055    0.00107705    0.00019391
     atom    4 type  1   force =     0.00000050    0.00000024   -0.00206847
     atom    5 type  1   force =    -0.00000318    0.00202311    0.00174538
     atom    6 type  1   force =     0.00000488    0.00000206   -0.00331312
     atom    7 type  1   force =    -0.00175109   -0.00101035    0.00174272
     atom    8 type  1   force =     0.00175037   -0.00101421    0.00174557
     atom    9 type  1   force =     0.00000181    0.00000031    0.00346142
     atom   10 type  1   force =    -0.00000215    0.00363657    0.01730582
     atom   11 type  1   force =     0.00314856   -0.00181965    0.01730581
     atom   12 type  1   force =    -0.00314865   -0.00181756    0.01730676
     atom   13 type  2   force =    -0.00000015   -0.00000016   -0.05580564

     Total force =     0.063753     Total SCF correction =     0.007180
     SCF correction compared to forces is large: reduce conv_thr to get better values

     entering subroutine stress ...

     negative rho (up, down):  2.150E-03 0.000E+00
          total   stress  (Ry/bohr**3)                   (kbar)     P=   -8.38
  -0.00006308   0.00000000   0.00000000         -9.28      0.00      0.00
   0.00000000  -0.00006308   0.00000000          0.00     -9.28      0.00
   0.00000000   0.00000000  -0.00004477          0.00      0.00     -6.59

     BFGS Geometry Optimization

     number of scf cycles    =   1
     number of bfgs steps    =   0

     energy   new            =   -3571.0634879945 Ry

     new trust radius        =       0.0558056375 bohr
     new conv_thr            =       0.0000099958 Ry

ATOMIC_POSITIONS (crystal)
Ag1      0.166666667   0.166666667   0.402063960    0   0   0
Ag1      0.666666667   0.166666667   0.402063960    0   0   0
Ag1      0.166666667   0.666666667   0.402063960    0   0   0
Ag1      0.666666667   0.666666667   0.402063960    0   0   0
Ag1      0.833333333   0.333333333   0.500000000    0   0   0
Ag1      0.333333333   0.333333333   0.500000000    0   0   0
Ag1      0.833333333   0.833333333   0.500000000    0   0   0
Ag1      0.333333333   0.833333333   0.500000000    0   0   0
Ag1      0.000000145   0.000000032   0.598009686
Ag1      0.499813597   0.000372425   0.598304244
Ag1      0.000372425   0.499813648   0.598304244
Ag1      0.499813813   0.499813862   0.598304264
C1       0.333333328   0.333333317   0.654505190

     Writing output data file calc.save
     Check: negative starting charge=   -0.002170
     NEW-OLD atomic charge density approx. for the potential
     Check: negative starting charge=   -0.002174

[...]

     Total force =     0.055700     Total SCF correction =     0.004382

[...]

     energy   old            =   -3571.0634879945 Ry
     energy   new            =   -3571.0672703601 Ry

     CASE: energy  _new < energy  _old

     WARNING: bfgs curvature condition failed, Theta= 0.919
     new trust radius        =       0.0613862012 bohr
     new conv_thr            =       0.0000001000 Ry

[...]

     Total force =     0.009563     Total SCF correction =     0.000462

[...]

     number of scf cycles    =  14
     number of bfgs steps    =  13

     energy   old            =   -3571.0827220043 Ry
     energy   new            =   -3571.0828424464 Ry

     CASE: energy  _new < energy  _old

     new trust radius        =       0.0120692491 bohr
     new conv_thr            =       0.0000001000 Ry

ATOMIC_POSITIONS (crystal)
Ag1      0.166666667   0.166666667   0.402063960    0   0   0
Ag1      0.666666667   0.166666667   0.402063960    0   0   0
Ag1      0.166666667   0.666666667   0.402063960    0   0   0
Ag1      0.666666667   0.666666667   0.402063960    0   0   0
Ag1      0.833333333   0.333333333   0.500000000    0   0   0
Ag1      0.333333333   0.333333333   0.500000000    0   0   0
Ag1      0.833333333   0.833333333   0.500000000    0   0   0
Ag1      0.333333333   0.833333333   0.500000000    0   0   0
Ag1     -0.000000266  -0.000000128   0.598524759
Ag1      0.506745734  -0.013490874   0.598122667
Ag1     -0.013490873   0.506745646   0.598122673
Ag1      0.506745421   0.506745266   0.598122673
C1       0.333333217   0.333333251   0.640867789

     Writing output data file calc.save
     Check: negative starting charge=   -0.002271
     NEW-OLD atomic charge density approx. for the potential
     Check: negative starting charge=   -0.002273

[...]

     Self-consistent Calculation

[...]

     total energy              =   -3571.08286171 Ry
     Harris-Foulkes estimate   =   -3571.08286166 Ry
     estimated scf accuracy    <       0.00000038 Ry

     iteration #  6     ecut=    36.75 Ry     beta=0.30
     Davidson diagonalization with overlap
     ethr =  1.62E-10,  avg # of iterations =  2.0

[...]

     negative rho (up, down):  2.213E-03 0.000E+00

     Adding external electric field

     Computed dipole along edir(3) :
        Dipole               -0.2799 Ry au,         -0.7116 Debye
        Dipole field         -0.0007 Ry au

        Potential amp.        0.0623 Ry
        Total length         45.8256 bohr

     End of self-consistent calculation

[...]

          k = 0.0559-0.0645 0.0000 ( 19479 PWs)   bands (ev):

[...]

          k =-0.0838-0.0484 0.0000 ( 19500 PWs)   bands (ev):

   -91.3583 -91.3545 -91.3533 -91.0962 -91.0946 -91.0927 -91.0632 -90.8972
   -90.8955 -90.8937 -90.8518 -90.8034 -54.9911 -54.9605 -54.9452 -54.7977
   -54.7923 -54.7749 -54.7665 -54.7549 -54.7481 -54.6198 -54.6127 -54.5967
   -54.5924 -54.5909 -54.5866 -54.5832 -54.5814 -54.5669 -54.5627 -54.5508
   -54.5499 -54.4295 -54.4123 -54.4035 -54.4016 -54.3976 -54.3743 -54.3703
   -54.3687 -54.3669 -54.3590 -54.3447 -54.3219 -54.3136 -54.3119 -54.2875
    -9.5010  -5.0572  -4.6032  -4.5819  -4.5417  -4.4688  -4.4345  -4.4302
    -4.3928  -4.3138  -4.2907  -4.2241  -4.1887  -4.1881  -4.1446  -4.1061
    -4.0599  -4.0109  -3.9453  -3.8223  -3.7800  -3.7726  -3.7377  -3.7196
    -3.6866  -3.6485  -3.5819  -3.4949  -3.4784  -3.4675  -3.4217  -3.3686
    -3.3575  -3.2943  -3.2849  -3.2097  -3.1257  -3.1065  -3.0818  -3.0553
    -3.0382  -3.0252  -3.0157  -2.9983  -2.9104  -2.8996  -2.8692  -2.8662
    -2.8427  -2.8015  -2.7968  -2.7239  -2.6521  -2.6228  -2.6068  -2.5703
    -2.3872  -2.3410  -2.3242  -2.2784  -2.2419  -2.1641  -2.1367  -1.4985
    -0.7653   0.0697   0.3335   0.6447   1.1406   1.4947   1.6377   2.4514
     2.8517   3.5366   4.1306   4.3503   5.0250   6.0349

     the Fermi energy is     0.9753 ev

!    total energy              =   -3571.08286177 Ry
     Harris-Foulkes estimate   =   -3571.08286166 Ry
     estimated scf accuracy    <       0.00000005 Ry

     The total energy is the sum of the following terms:

     one-electron contribution =  -26142.34075920 Ry
     hartree contribution      =   13060.40314422 Ry
     xc contribution           =    -364.36473886 Ry
     ewald contribution        =    9875.24442226 Ry
     electric field correction =       0.00019032 Ry
     smearing contrib. (-TS)   =      -0.02512052 Ry

     convergence has been achieved in   6 iterations

 BEEF-vdW xc energy contributions
           1 :   -315.709271197221
           2 :    285.948982679146
           3 :   -236.242132197268
           4 :    181.529122166312
           5 :   -135.445900614271
           6 :    105.400512556303
           7 :   -91.1601881342749
           8 :    86.9743354501567
           9 :   -85.6102260168014
          10 :    82.0083130995522
          11 :   -74.8822510734476
          12 :    65.9552630670386
          13 :   -57.8496152180801
          14 :    52.1491743088377
          15 :   -48.7049091183176
          16 :    46.2479536051103
          17 :   -43.5646609697072
          18 :    40.3094488886268
          19 :   -36.9926217106664
          20 :    34.3369736082084
          21 :   -32.6013732033315
          22 :    31.3795294104643
          23 :   -29.9587708623366
          24 :    27.8999871351829
          25 :   -25.3828636603129
          26 :    23.0724980927718
          27 :   -21.6318154880448
          28 :    21.2470805650399
          29 :   -21.5044594271469
          30 :    21.6851770868132
          31 :   -31.5749302333450
          32 :   -23.0000306443464

     Forces acting on atoms (Ry/au):

     negative rho (up, down):  2.213E-03 0.000E+00
     atom    1 type  1   force =    -0.00067400   -0.00038913    0.00003646
     atom    2 type  1   force =     0.00067400   -0.00038914    0.00003647
     atom    3 type  1   force =     0.00000000    0.00077827    0.00003647
     atom    4 type  1   force =     0.00000000    0.00000000   -0.00255322
     atom    5 type  1   force =     0.00000003    0.00136585    0.00089248
     atom    6 type  1   force =    -0.00000002   -0.00000001   -0.00090554
     atom    7 type  1   force =    -0.00118287   -0.00068294    0.00089235
     atom    8 type  1   force =     0.00118286   -0.00068290    0.00089252
     atom    9 type  1   force =     0.00000047    0.00000014    0.00017298
     atom   10 type  1   force =    -0.00000050    0.00015079    0.00024074
     atom   11 type  1   force =     0.00013042   -0.00007574    0.00024070
     atom   12 type  1   force =    -0.00013046   -0.00007519    0.00024077
     atom   13 type  2   force =     0.00000005   -0.00000000   -0.00022317

     Total force =     0.000567     Total SCF correction =     0.000178
     SCF correction compared to forces is large: reduce conv_thr to get better values

     entering subroutine stress ...

     negative rho (up, down):  2.213E-03 0.000E+00
          total   stress  (Ry/bohr**3)                   (kbar)     P=   -5.09
  -0.00004240  -0.00000000   0.00000000         -6.24     -0.00      0.00
  -0.00000000  -0.00004240   0.00000000         -0.00     -6.24      0.00
   0.00000000   0.00000000  -0.00001903          0.00      0.00     -2.80

     bfgs converged in  15 scf cycles and  14 bfgs steps
     (criteria: energy <  1.0E+00, force <  1.9E-03)

     End of BFGS Geometry Optimization

     Final energy   =   -3571.0828617719 Ry
Begin final coordinates

ATOMIC_POSITIONS (crystal)
Ag1      0.166666667   0.166666667   0.402063960    0   0   0
Ag1      0.666666667   0.166666667   0.402063960    0   0   0
Ag1      0.166666667   0.666666667   0.402063960    0   0   0
Ag1      0.666666667   0.666666667   0.402063960    0   0   0
Ag1      0.833333333   0.333333333   0.500000000    0   0   0
Ag1      0.333333333   0.333333333   0.500000000    0   0   0
Ag1      0.833333333   0.833333333   0.500000000    0   0   0
Ag1      0.333333333   0.833333333   0.500000000    0   0   0
Ag1     -0.000000266  -0.000000128   0.598524759
Ag1      0.506745734  -0.013490874   0.598122667
Ag1     -0.013490873   0.506745646   0.598122673
Ag1      0.506745421   0.506745266   0.598122673
C1       0.333333217   0.333333251   0.640867789
End final coordinates

     Writing output data file calc.save

     General routines

     Parallel routines

   This run was terminated on:  11:52:46   4May2018

   JOB DONE.
Job  /afs/slac/g/suncat/bin/suncat-tsmpirun -x LD_LIBRARY_PATH -wdir /scratch/qe933768_BPiN1 pw.x -npool 4 -in pw.inp

TID   HOST_NAME   COMMAND_LINE            STATUS            TERMINATION_TIME
00000 suncat0116 pw.x -npool 4 -i  Done                     05/04/2018 11:52:47
00001 suncat0116 pw.x -npool 4 -i  Done                     05/04/2018 11:52:47
00002 suncat0116 pw.x -npool 4 -i  Done                     05/04/2018 11:52:47
00003 suncat0116 pw.x -npool 4 -i  Done                     05/04/2018 11:52:47
00004 suncat0116 pw.x -npool 4 -i  Done                     05/04/2018 11:52:47
00005 suncat0116 pw.x -npool 4 -i  Done                     05/04/2018 11:52:47
00006 suncat0116 pw.x -npool 4 -i  Done                     05/04/2018 11:52:47
00007 suncat0116 pw.x -npool 4 -i  Done                     05/04/2018 11:52:47
00008 suncat0114 pw.x -npool 4 -i  Done                     05/04/2018 11:52:47
00009 suncat0114 pw.x -npool 4 -i  Done                     05/04/2018 11:52:47
00010 suncat0114 pw.x -npool 4 -i  Done                     05/04/2018 11:52:47
00011 suncat0114 pw.x -npool 4 -i  Done                     05/04/2018 11:52:47
00012 suncat0114 pw.x -npool 4 -i  Done                     05/04/2018 11:52:47
00013 suncat0114 pw.x -npool 4 -i  Done                     05/04/2018 11:52:47
00014 suncat0114 pw.x -npool 4 -i  Done                     05/04/2018 11:52:47
00015 suncat0114 pw.x -npool 4 -i  Done                     05/04/2018 11:52:47
00016 suncat0212 pw.x -npool 4 -i  Done                     05/04/2018 11:52:47
00017 suncat0212 pw.x -npool 4 -i  Done                     05/04/2018 11:52:47
00018 suncat0212 pw.x -npool 4 -i  Done                     05/04/2018 11:52:47
00019 suncat0212 pw.x -npool 4 -i  Done                     05/04/2018 11:52:47
00020 suncat0212 pw.x -npool 4 -i  Done                     05/04/2018 11:52:47
00021 suncat0212 pw.x -npool 4 -i  Done                     05/04/2018 11:52:47
00022 suncat0212 pw.x -npool 4 -i  Done                     05/04/2018 11:52:47
00023 suncat0212 pw.x -npool 4 -i  Done                     05/04/2018 11:52:47
00024 suncat0211 pw.x -npool 4 -i  Done                     05/04/2018 11:52:47
00025 suncat0211 pw.x -npool 4 -i  Done                     05/04/2018 11:52:47
00026 suncat0211 pw.x -npool 4 -i  Done                     05/04/2018 11:52:47
00027 suncat0211 pw.x -npool 4 -i  Done                     05/04/2018 11:52:47
00028 suncat0211 pw.x -npool 4 -i  Done                     05/04/2018 11:52:47
00029 suncat0211 pw.x -npool 4 -i  Done                     05/04/2018 11:52:47
00030 suncat0211 pw.x -npool 4 -i  Done                     05/04/2018 11:52:47
00031 suncat0211 pw.x -npool 4 -i  Done                     05/04/2018 11:52:47