     Program PWSCF v.5.1rc2 (svn rev. 11289) starts on 24Apr2018 at 15:45:29

     Current dimensions of program PWSCF are:
     Max number of different atomic species (ntypx) = 10
     Max number of k-points (npk) =  40000
     Max angular momentum in pseudopotentials (lmaxx) =  3
     Presently stress not available with electric field

     IMPORTANT: XC functional enforced from input :
     Exchange-correlation      = BEEF-VDW ( 1  4 27 13 2)
     Any further DFT definition will be discarded
     Please, verify this is what you really want

     Subspace diagonalization in iterative solution of the eigenvalue problem:
     a serial algorithm will be used

     bravais-lattice index     =            0
     lattice parameter (alat)  =       1.8897  a.u.
     unit-cell volume          =    4704.3541 (a.u.)^3
     number of atoms/cell      =           14
     number of atomic types    =            3
     number of electrons       =       175.00
     number of Kohn-Sham states=           97
     kinetic-energy cutoff     =      36.7493  Ry
     charge density cutoff     =     367.4932  Ry
     convergence threshold     =      1.0E-05
     mixing beta               =       0.3000
     number of iterations used =           10  plain     mixing
     Exchange-correlation      = BEEF-VDW ( 1  4 27 13 2)
     nstep                     =           50

     celldm(1)=   1.889726  celldm(2)=   0.000000  celldm(3)=   0.000000
     celldm(4)=   0.000000  celldm(5)=   0.000000  celldm(6)=   0.000000

     crystal axes: (cart. coord. in units of alat)
               a(1) = (   5.712816   0.000000   0.000000 )
               a(2) = (   2.856408   4.947444   0.000000 )
               a(3) = (   0.000000   0.000000  24.664495 )

     reciprocal axes: (cart. coord. in units 2 pi/alat)
               b(1) = (  0.175045 -0.101062  0.000000 )
               b(2) = (  0.000000  0.202125  0.000000 )
               b(3) = (  0.000000  0.000000  0.040544 )

     PseudoPot. # 1 for W  read from file:
     /u/if/mamunm/psp/gbrv1.5pbe/W.UPF
     MD5 check sum: 9c083fa34c2a2ea0f02f1f893e16e1c8
     Pseudo is Ultrasoft + core correction, Zval = 14.0
     Generated by new atomic code, or converted to UPF format
     Using radial grid of  923 points,  8 beta functions with:
                l(1) =   0
                l(2) =   0
                l(3) =   0
                l(4) =   1
                l(5) =   1
                l(6) =   2
                l(7) =   2
                l(8) =   3
     Q(r) pseudized with  6 coefficients,  rinner =    1.350   1.350   1.350
                                                       1.350   1.350   1.350
                                                       1.350

     PseudoPot. # 2 for O  read from file:
     /u/if/mamunm/psp/gbrv1.5pbe/O.UPF
     MD5 check sum: 734c27235a0248c51dbae37a1fbe46ec
     Pseudo is Ultrasoft + core correction, Zval =  6.0
     Generated by new atomic code, or converted to UPF format
     Using radial grid of  737 points,  5 beta functions with:
                l(1) =   0
                l(2) =   0
                l(3) =   1
                l(4) =   1
                l(5) =   2
     Q(r) pseudized with  8 coefficients,  rinner =    0.900   0.900   0.900
                                                       0.900   0.900

     PseudoPot. # 3 for H  read from file:
     /u/if/mamunm/psp/gbrv1.5pbe/H.UPF
     MD5 check sum: 761ae9a214b05c3daf00ab9f6b793d6f
     Pseudo is Ultrasoft, Zval =  1.0
     Generated by new atomic code, or converted to UPF format
     Using radial grid of  615 points,  2 beta functions with:
                l(1) =   0
                l(2) =   0
     Q(r) pseudized with  8 coefficients,  rinner =    0.700

     vdW kernel table read from file vdW_kernel_table
     MD5 check sum: 095c7af220d748ca6e76c0b4c6cfb241

     atomic species   valence    mass     pseudopotential
        W1            14.00   183.84000     W ( 1.00)
        O1             6.00    15.99900     O ( 1.00)
        H1             1.00     1.00800     H ( 1.00)

     No symmetry found

   Cartesian axes

     site n.     atom                  positions (alat units)
         1           W1  tau(   1) = (   1.4282041   0.8245740  10.0000000  )
         2           W1  tau(   2) = (   4.2846123   0.8245740  10.0000000  )
         3           W1  tau(   3) = (   2.8564082   3.2982961  10.0000000  )
         4           W1  tau(   4) = (   5.7128165   3.2982961  10.0000000  )
         5           W1  tau(   5) = (   5.7128165   1.6491481  12.3322476  )
         6           W1  tau(   6) = (   2.8564082   1.6491481  12.3322476  )
         7           W1  tau(   7) = (   7.1410206   4.1228701  12.3322476  )
         8           W1  tau(   8) = (   4.2846123   4.1228701  12.3322476  )
         9           W1  tau(   9) = (   0.0000000   0.0000000  14.6644951  )
        10           W1  tau(  10) = (   2.8564082   0.0000000  14.6644951  )
        11           W1  tau(  11) = (   1.4282041   2.4737221  14.6644951  )
        12           W1  tau(  12) = (   4.2846123   2.4737221  14.6644951  )
        13           O1  tau(  13) = (   1.4282041   0.0000000  16.3744951  )
        14           H1  tau(  14) = (   1.4282041   0.0000000  17.3244951  )

     number of k points=    20  Fermi-Dirac smearing, width (Ry)=  0.0110
                       cart. coord. in units 2pi/alat
        k(    1) = (   0.0000000   0.0000000   0.0000000), wk =   0.0555556
        k(    2) = (   0.0000000   0.0336874   0.0000000), wk =   0.1111111
        k(    3) = (   0.0000000   0.0673749   0.0000000), wk =   0.1111111
        k(    4) = (   0.0000000  -0.1010623   0.0000000), wk =   0.0555556
        k(    5) = (   0.0291742  -0.0168437   0.0000000), wk =   0.1111111
        k(    6) = (   0.0291742   0.0168437   0.0000000), wk =   0.1111111
        k(    7) = (   0.0291742   0.0505311   0.0000000), wk =   0.1111111
        k(    8) = (   0.0291742  -0.1179060   0.0000000), wk =   0.1111111
        k(    9) = (   0.0291742  -0.0842186   0.0000000), wk =   0.1111111
        k(   10) = (   0.0291742  -0.0505311   0.0000000), wk =   0.1111111
        k(   11) = (   0.0583483  -0.0336874   0.0000000), wk =   0.1111111
        k(   12) = (   0.0583483  -0.0000000   0.0000000), wk =   0.1111111
        k(   13) = (   0.0583483   0.0336874   0.0000000), wk =   0.1111111
        k(   14) = (   0.0583483  -0.1347497   0.0000000), wk =   0.1111111
        k(   15) = (   0.0583483  -0.1010623   0.0000000), wk =   0.1111111
        k(   16) = (   0.0583483  -0.0673749   0.0000000), wk =   0.1111111
        k(   17) = (  -0.0875225   0.0505311   0.0000000), wk =   0.0555556
        k(   18) = (  -0.0875225   0.0842186   0.0000000), wk =   0.1111111
        k(   19) = (  -0.0875225   0.1179060   0.0000000), wk =   0.1111111
        k(   20) = (  -0.0875225  -0.0505311   0.0000000), wk =   0.0555556

     Largest allocated arrays     est. size (Mb)     dimensions
     Largest temporary arrays     est. size (Mb)     dimensions

     Initial potential from superposition of free atoms
     Check: negative starting charge=   -0.760474

     starting charge  173.79591, renormalised to  175.00000

     negative rho (up, down):  7.657E-01 0.000E+00

     *
     * You are using vdW-DF for exchange-correlation in this calculation.
     * Please cite the following three references that made this development
     * possible:
     *
     *   M. Dion, H. Rydberg, E. Schroder, D. C. Langreth, and
     *   B. I. Lundqvist, Phys. Rev. Lett. 92, 246401 (2004).
     *
     *   T. Thonhauser, V. R. Cooper, S. Li, A. Puzder, P. Hyldgaard, and
     *   D. C. Langreth, Phys. Rev. B 76, 125112 (2007).
     *
     *   G. Roman-Perez and J. M. Soler, Phys. Rev. Lett. 103, 096102 (2009).
     *
     *
     * If you are using vdW-DF2, please also cite:
     *
     *   K. Lee, E. D. Murray, L. Kong, B. I. Lundqvist, and
     *   D. C. Langreth, Phys. Rev. B 82, 081101(R) (2010).
     *
     *
     * If you are calculating the stress with vdW-DF, please also cite:
     *
     *   R. Sabatini, E. Kucukbenli, B. Kolb, T. Thonhauser, and
     *   S. de Gironcoli, J. Phys.: Condens. Matter 24, 424209 (2012).
     *

     Carrying out vdW-DF run using the following parameters:

     Nqs =      20    Nr_points =    1024   r_max =   100.000
     q_mesh =
               0.00001000     0.04494208     0.09755937     0.15916263
               0.23128650     0.31572767     0.41458969     0.53033537
               0.66584808     0.82450364     1.01025438     1.22772762
               1.48234092     1.78043706     2.12944203     2.53805004
               3.01644009     3.57652955     4.23227104     5.00000000

     Gradients computed in reciprocal space

     Adding external electric field

     Computed dipole along edir(3) :
        Dipole               -0.3828 Ry au,         -0.9730 Debye
        Dipole field         -0.0010 Ry au

        Potential amp.        0.0929 Ry
        Total length         45.4439 bohr

     Starting wfc are  161 randomized atomic wfcs

     Self-consistent Calculation

     iteration #  1     ecut=    36.75 Ry     beta=0.30
     Davidson diagonalization with overlap
     ethr =  1.00E-02,  avg # of iterations =  2.0

[...]

     total energy              =   -1954.25397935 Ry
     Harris-Foulkes estimate   =   -1958.99932743 Ry
     estimated scf accuracy    <      10.03121407 Ry

[...]

     End of self-consistent calculation

          k = 0.0000 0.0000 0.0000 ( 17753 PWs)   bands (ev):

   -71.3399 -71.2990 -71.1572 -71.1338 -71.1110 -71.0918 -71.0718 -71.0713
   -71.0528 -71.0433 -71.0408 -71.0359 -35.8724 -35.7599 -35.7531 -35.7403
   -35.7065 -35.6994 -35.6771 -35.5648 -35.5553 -35.5529 -35.4063 -35.3987
   -35.2989 -35.2497 -35.1872 -35.1840 -35.1775 -35.1380 -35.1038 -35.0871
   -35.0115 -34.9915 -34.9886 -34.9851 -34.9830 -34.9647 -34.9208 -34.8751
   -34.8686 -34.8590 -34.8580 -34.8334 -34.7872 -34.7785 -34.6855 -34.6824
   -17.7212  -6.2580  -4.9829  -3.2189  -2.4917  -2.3387  -2.3088  -1.9386
    -1.9278  -1.9162  -1.6622  -1.4895  -1.4505  -0.9929  -0.9878  -0.9312
    -0.8324  -0.8146  -0.5482   0.5100   0.7164   0.7799   1.6106   1.7136
     1.7400   1.8762   2.0342   2.4649   2.4658   2.5375   2.5501   2.7083
     2.7310   2.7775   2.8343   2.8709   2.9090   2.9422   3.0346   3.0460
     3.5669   3.7812   4.0365   4.2504   4.6551   4.6805   4.7087   4.9005
     5.0053

[...]

          k =-0.0875 0.0505 0.0000 ( 17668 PWs)   bands (ev):

[...]

     the Fermi energy is     3.0613 ev

!    total energy              =   -1958.56496743 Ry
     Harris-Foulkes estimate   =   -1958.56497793 Ry
     estimated scf accuracy    <       0.00000231 Ry

     The total energy is the sum of the following terms:

     one-electron contribution =  -15119.90234371 Ry
     hartree contribution      =    7549.44959806 Ry
     xc contribution           =    -518.68645598 Ry
     ewald contribution        =    6130.66992524 Ry
     electric field correction =       0.00049412 Ry
     smearing contrib. (-TS)   =      -0.09618516 Ry

     convergence has been achieved in  18 iterations

 BEEF-vdW xc energy contributions
           1 :   -456.174031202329
           2 :    421.721129625769
           3 :   -361.155275968634
           4 :    287.869552126448
           5 :   -215.697190479760
           6 :    154.917355149961
           7 :   -110.107714788438
           8 :    80.2950169523644
           9 :   -60.9696530710876
          10 :    46.8432491723854
          11 :   -34.1162770692175
          12 :    21.4531158791046
          13 :   -9.58599220886839
          14 :   8.696375073429863E-002
          15 :    5.90711177598507
          16 :   -8.40852113887240
          17 :    8.52867055476747
          18 :   -7.85489144838175
          19 :    7.66610556156502
          20 :   -8.41002425417776
          21 :    9.67344988146078
          22 :   -10.5991337384102
          23 :    10.4777010831325
          24 :   -9.18321174815298
          25 :    7.23596901504516
          26 :   -5.49637404953603
          27 :    4.68554438263260
          28 :   -5.00253273352166
          29 :    6.04053566760172
          30 :   -7.03439579037070
          31 :   -41.4267467900740
          32 :   -30.9649722272904

     Forces acting on atoms (Ry/au):

     negative rho (up, down):  7.924E-01 0.000E+00
     atom    1 type  1   force =     0.00004377    0.00207461   -0.00172118
     atom    2 type  1   force =    -0.00003940   -0.00123608   -0.00407127
     atom    3 type  1   force =    -0.00168123   -0.00013137   -0.00426032
     atom    4 type  1   force =     0.00169162   -0.00006913   -0.00429156
     atom    5 type  1   force =     0.00099886   -0.00417628    0.00369409
     atom    6 type  1   force =    -0.00099034   -0.00416835    0.00368555
     atom    7 type  1   force =     0.00001189   -0.00547230   -0.00916678
     atom    8 type  1   force =    -0.00000225    0.00671191    0.00932385
     atom    9 type  1   force =    -0.02918879    0.01657070    0.04167607
     atom   10 type  1   force =     0.02919247    0.01663614    0.04162036
     atom   11 type  1   force =     0.00004940    0.01729849   -0.01106733
     atom   12 type  1   force =    -0.00004449   -0.04012329   -0.02001842
     atom   13 type  2   force =    -0.00004462   -0.00196303   -0.09105010
     atom   14 type  3   force =     0.00000311   -0.00195201    0.04564704

     Total force =     0.136156     Total SCF correction =     0.001383

     entering subroutine stress ...

     negative rho (up, down):  7.924E-01 0.000E+00
          total   stress  (Ry/bohr**3)                   (kbar)     P=  -47.37
  -0.00044918   0.00000001   0.00000001        -66.08      0.00      0.00
   0.00000001  -0.00044040   0.00000202          0.00    -64.79      0.30
   0.00000001   0.00000202  -0.00007646          0.00      0.30    -11.25

     BFGS Geometry Optimization

     number of scf cycles    =   1
     number of bfgs steps    =   0

     energy   new            =   -1958.5649674321 Ry

     new trust radius        =       0.0910712701 bohr
     new conv_thr            =       0.0000099958 Ry

ATOMIC_POSITIONS (crystal)
W1       0.166666667   0.166666667   0.405441099    0   0   0
W1       0.666666667   0.166666667   0.405441099    0   0   0
W1       0.166666667   0.666666667   0.405441099    0   0   0
W1       0.666666667   0.666666667   0.405441099    0   0   0
W1       0.833333333   0.333333333   0.500000000    0   0   0
W1       0.333333333   0.333333333   0.500000000    0   0   0
W1       0.833333333   0.833333333   0.500000000    0   0   0
W1       0.333333333   0.833333333   0.500000000    0   0   0
W1      -0.003589951   0.001772398   0.595453062
W1       0.501814395   0.001779397   0.595451867
W1      -0.000920545   0.501850242   0.594321451
W1       0.502141667   0.495708424   0.594129405
O1       0.250100850  -0.000209965   0.661935847
H1       0.250104681  -0.000208786   0.703385591

     Writing output data file calc.save
     Check: negative starting charge=   -0.760474
     NEW-OLD atomic charge density approx. for the potential
     Check: negative starting charge=   -0.760215

[...]

     energy   old            =   -1958.5649674321 Ry
     energy   new            =   -1958.5725396111 Ry

     CASE: energy  _new < energy  _old

[...]

     iteration #  1     ecut=    36.75 Ry     beta=0.30
     Davidson diagonalization with overlap
     c_bands:  1 eigenvalues not converged
     ethr =  1.00E-06,  avg # of iterations = 12.5

[...]

     iteration #  1     ecut=    36.75 Ry     beta=0.30
     Davidson diagonalization with overlap
     c_bands:  1 eigenvalues not converged
     ethr =  1.00E-06,  avg # of iterations = 12.2

[...]

     Threshold (ethr) on eigenvalues was too large:
     Diagonalizing with lowered threshold

     Davidson diagonalization with overlap
     ethr =  7.83E-08,  avg # of iterations =  1.6

[...]

     number of scf cycles    =  29
     number of bfgs steps    =  28

     energy   old            =   -1958.6166064875 Ry
     energy   new            =   -1958.6167409303 Ry

     CASE: energy  _new < energy  _old

     new trust radius        =       0.0452204534 bohr
     new conv_thr            =       0.0000001000 Ry

ATOMIC_POSITIONS (crystal)
W1       0.166666667   0.166666667   0.405441099    0   0   0
W1       0.666666667   0.166666667   0.405441099    0   0   0
W1       0.166666667   0.666666667   0.405441099    0   0   0
W1       0.666666667   0.666666667   0.405441099    0   0   0
W1       0.833333333   0.333333333   0.500000000    0   0   0
W1       0.333333333   0.333333333   0.500000000    0   0   0
W1       0.833333333   0.833333333   0.500000000    0   0   0
W1       0.333333333   0.833333333   0.500000000    0   0   0
W1      -0.005991743   0.012785744   0.598550977
W1       0.493192156   0.012787857   0.598550716
W1      -0.030625797   0.561241982   0.588063119
W1       0.524242842   0.451505360   0.592010994
O1       0.282707120  -0.065419458   0.659802499
H1       0.231338362   0.037318507   0.693551365

     Writing output data file calc.save
     Check: negative starting charge=   -0.761848
     NEW-OLD atomic charge density approx. for the potential
     Check: negative starting charge=   -0.761277

[...]

     Self-consistent Calculation

[...]

     total energy              =   -1958.61681635 Ry
     Harris-Foulkes estimate   =   -1958.61681637 Ry
     estimated scf accuracy    <       0.00000011 Ry

     iteration # 10     ecut=    36.75 Ry     beta=0.30
     Davidson diagonalization with overlap
     ethr =  6.22E-11,  avg # of iterations =  3.4

[...]

     negative rho (up, down):  7.936E-01 0.000E+00

     Adding external electric field

     Computed dipole along edir(3) :
        Dipole                0.4296 Ry au,          1.0919 Debye
        Dipole field          0.0011 Ry au

        Potential amp.       -0.1043 Ry
        Total length         45.4439 bohr

     End of self-consistent calculation

[...]

          k = 0.0583-0.0674 0.0000 ( 17692 PWs)   bands (ev):

[...]

          k =-0.0875-0.0505 0.0000 ( 17668 PWs)   bands (ev):

   -71.3158 -71.3099 -71.2008 -71.0885 -71.0744 -71.0586 -71.0522 -71.0429
   -71.0343 -71.0283 -71.0216 -70.9610 -35.7885 -35.7249 -35.6834 -35.6242
   -35.6019 -35.5837 -35.5108 -35.4712 -35.4524 -35.4324 -35.4056 -35.3846
   -35.3437 -35.3302 -35.2496 -35.2199 -35.1644 -35.1502 -35.1186 -35.1090
   -35.0821 -35.0691 -35.0550 -35.0414 -35.0244 -35.0003 -34.9626 -34.9446
   -34.9008 -34.8855 -34.8513 -34.8131 -34.7817 -34.7688 -34.7632 -34.6936
   -18.3857  -6.4223  -3.5843  -3.1277  -2.7846  -2.6099  -1.5947  -1.5528
    -1.0210  -0.9378  -0.8824  -0.8361  -0.7582  -0.6722  -0.0916   0.0212
     0.1042   0.2911   0.4240   0.5344   0.7538   0.8050   0.8853   0.9480
     1.0957   1.3204   1.4684   1.5043   1.5285   1.7266   1.8848   1.9824
     1.9944   2.0758   2.1707   2.3438   2.5262   2.5968   2.6062   2.6906
     3.0294   3.4369   3.5974   3.7154   3.7617   4.1335   4.2555   4.3102
     4.4114

     the Fermi energy is     3.0820 ev

!    total energy              =   -1958.61681634 Ry
     Harris-Foulkes estimate   =   -1958.61681660 Ry
     estimated scf accuracy    <       0.00000003 Ry

     The total energy is the sum of the following terms:

     one-electron contribution =  -15175.69568323 Ry
     hartree contribution      =    7577.22490062 Ry
     xc contribution           =    -518.88913013 Ry
     ewald contribution        =    6158.82817859 Ry
     electric field correction =       0.00049293 Ry
     smearing contrib. (-TS)   =      -0.08557511 Ry

     convergence has been achieved in  10 iterations

 BEEF-vdW xc energy contributions
           1 :   -456.383350028752
           2 :    421.976772487491
           3 :   -361.455434390692
           4 :    288.150433135955
           5 :   -215.857913953533
           6 :    154.866367536382
           7 :   -109.806539516486
           8 :    79.7796860467649
           9 :   -60.3417607347800
          10 :    46.2351759055421
          11 :   -33.6432769559219
          12 :    21.1694689211179
          13 :   -9.46337262856548
          14 :   2.747735443711008E-002
          15 :    6.02760290909725
          16 :   -8.68633882676318
          17 :    8.98760693584296
          18 :   -8.42857302246921
          19 :    8.22144083368471
          20 :   -8.80733678083527
          21 :    9.83629268811899
          22 :   -10.5570200319992
          23 :    10.3552418064930
          24 :   -9.13791685351941
          25 :    7.37737880848067
          26 :   -5.82822493784522
          27 :    5.10076713869177
          28 :   -5.33856524654016
          29 :    6.16866114477898
          30 :   -6.93190015750497
          31 :   -41.4386506156530
          32 :   -30.9818203530035

     Forces acting on atoms (Ry/au):

     negative rho (up, down):  7.936E-01 0.000E+00
     atom    1 type  1   force =     0.00000032   -0.00318944    0.00080593
     atom    2 type  1   force =     0.00000019    0.00185024   -0.00185049
     atom    3 type  1   force =    -0.00022074   -0.00078714   -0.00887362
     atom    4 type  1   force =     0.00022146   -0.00078775   -0.00887279
     atom    5 type  1   force =     0.00241173   -0.01291920   -0.00578426
     atom    6 type  1   force =    -0.00241219   -0.01291567   -0.00578643
     atom    7 type  1   force =    -0.00000049    0.00817260   -0.01780026
     atom    8 type  1   force =     0.00000137    0.01924180    0.04783241
     atom    9 type  1   force =    -0.00001889    0.00036218    0.00003324
     atom   10 type  1   force =     0.00002571    0.00036068    0.00002778
     atom   11 type  1   force =    -0.00000233   -0.00079796   -0.00084569
     atom   12 type  1   force =    -0.00000151   -0.00126069    0.00047156
     atom   13 type  2   force =    -0.00000441    0.00192945    0.00154899
     atom   14 type  3   force =    -0.00000021    0.00074092   -0.00090638

     Total force =     0.003305     Total SCF correction =     0.000263

     entering subroutine stress ...

     negative rho (up, down):  7.936E-01 0.000E+00
          total   stress  (Ry/bohr**3)                   (kbar)     P=  -38.04
  -0.00031308   0.00000000  -0.00000001        -46.06      0.00     -0.00
   0.00000000  -0.00039850   0.00000607          0.00    -58.62      0.89
  -0.00000001   0.00000607  -0.00006422         -0.00      0.89     -9.45

     bfgs converged in  30 scf cycles and  29 bfgs steps
     (criteria: energy <  1.0E+00, force <  1.9E-03)

     End of BFGS Geometry Optimization

     Final energy   =   -1958.6168163361 Ry
Begin final coordinates

ATOMIC_POSITIONS (crystal)
W1       0.166666667   0.166666667   0.405441099    0   0   0
W1       0.666666667   0.166666667   0.405441099    0   0   0
W1       0.166666667   0.666666667   0.405441099    0   0   0
W1       0.666666667   0.666666667   0.405441099    0   0   0
W1       0.833333333   0.333333333   0.500000000    0   0   0
W1       0.333333333   0.333333333   0.500000000    0   0   0
W1       0.833333333   0.833333333   0.500000000    0   0   0
W1       0.333333333   0.833333333   0.500000000    0   0   0
W1      -0.005991743   0.012785744   0.598550977
W1       0.493192156   0.012787857   0.598550716
W1      -0.030625797   0.561241982   0.588063119
W1       0.524242842   0.451505360   0.592010994
O1       0.282707120  -0.065419458   0.659802499
H1       0.231338362   0.037318507   0.693551365
End final coordinates

     Writing output data file calc.save

     General routines

     Parallel routines

   This run was terminated on:  20: 4:28  24Apr2018

   JOB DONE.
Job  /afs/slac/g/suncat/bin/suncat-tsmpirun -x LD_LIBRARY_PATH -wdir /scratch/qe915913_ZDnkl pw.x -npool 4 -in pw.inp

TID   HOST_NAME   COMMAND_LINE            STATUS            TERMINATION_TIME
00000 suncat0078 pw.x -npool 4 -i  Done                     04/24/2018 20:04:28
00001 suncat0078 pw.x -npool 4 -i  Done                     04/24/2018 20:04:28
00002 suncat0078 pw.x -npool 4 -i  Done                     04/24/2018 20:04:28
00003 suncat0078 pw.x -npool 4 -i  Done                     04/24/2018 20:04:28
00004 suncat0078 pw.x -npool 4 -i  Done                     04/24/2018 20:04:28
00005 suncat0078 pw.x -npool 4 -i  Done                     04/24/2018 20:04:28
00006 suncat0078 pw.x -npool 4 -i  Done                     04/24/2018 20:04:28
00007 suncat0078 pw.x -npool 4 -i  Done                     04/24/2018 20:04:28
00008 suncat0068 pw.x -npool 4 -i  Done                     04/24/2018 20:04:28
00009 suncat0068 pw.x -npool 4 -i  Done                     04/24/2018 20:04:28
00010 suncat0068 pw.x -npool 4 -i  Done                     04/24/2018 20:04:28
00011 suncat0068 pw.x -npool 4 -i  Done                     04/24/2018 20:04:28
00012 suncat0068 pw.x -npool 4 -i  Done                     04/24/2018 20:04:28
00013 suncat0068 pw.x -npool 4 -i  Done                     04/24/2018 20:04:28
00014 suncat0068 pw.x -npool 4 -i  Done                     04/24/2018 20:04:28
00015 suncat0068 pw.x -npool 4 -i  Done                     04/24/2018 20:04:28
00016 suncat0043 pw.x -npool 4 -i  Done                     04/24/2018 20:04:28
00017 suncat0043 pw.x -npool 4 -i  Done                     04/24/2018 20:04:28
00018 suncat0043 pw.x -npool 4 -i  Done                     04/24/2018 20:04:28
00019 suncat0043 pw.x -npool 4 -i  Done                     04/24/2018 20:04:28
00020 suncat0043 pw.x -npool 4 -i  Done                     04/24/2018 20:04:28
00021 suncat0043 pw.x -npool 4 -i  Done                     04/24/2018 20:04:28
00022 suncat0043 pw.x -npool 4 -i  Done                     04/24/2018 20:04:28
00023 suncat0043 pw.x -npool 4 -i  Done                     04/24/2018 20:04:28
00024 suncat0037 pw.x -npool 4 -i  Done                     04/24/2018 20:04:28
00025 suncat0037 pw.x -npool 4 -i  Done                     04/24/2018 20:04:28
00026 suncat0037 pw.x -npool 4 -i  Done                     04/24/2018 20:04:28
00027 suncat0037 pw.x -npool 4 -i  Done                     04/24/2018 20:04:28
00028 suncat0037 pw.x -npool 4 -i  Done                     04/24/2018 20:04:28
00029 suncat0037 pw.x -npool 4 -i  Done                     04/24/2018 20:04:28
00030 suncat0037 pw.x -npool 4 -i  Done                     04/24/2018 20:04:28
00031 suncat0037 pw.x -npool 4 -i  Done                     04/24/2018 20:04:28