     Program PWSCF v.5.1rc2 (svn rev. 11289) starts on 16Apr2018 at 13: 0:36

     Current dimensions of program PWSCF are:
     Max number of different atomic species (ntypx) = 10
     Max number of k-points (npk) =  40000
     Max angular momentum in pseudopotentials (lmaxx) =  3
     Presently stress not available with electric field

     IMPORTANT: XC functional enforced from input :
     Exchange-correlation      = BEEF-VDW ( 1  4 27 13 2)
     Any further DFT definition will be discarded
     Please, verify this is what you really want

     Subspace diagonalization in iterative solution of the eigenvalue problem:
     a serial algorithm will be used

     bravais-lattice index     =            0
     lattice parameter (alat)  =       1.8897  a.u.
     unit-cell volume          =    5739.2980 (a.u.)^3
     number of atoms/cell      =           14
     number of atomic types    =            3
     number of electrons       =       149.00
     number of Kohn-Sham states=           84
     kinetic-energy cutoff     =      36.7493  Ry
     charge density cutoff     =     367.4932  Ry
     convergence threshold     =      1.0E-05
     mixing beta               =       0.3000
     number of iterations used =           10  plain     mixing
     Exchange-correlation      = BEEF-VDW ( 1  4 27 13 2)
     nstep                     =           50

     celldm(1)=   1.889726  celldm(2)=   0.000000  celldm(3)=   0.000000
     celldm(4)=   0.000000  celldm(5)=   0.000000  celldm(6)=   0.000000

     crystal axes: (cart. coord. in units of alat)
               a(1) = (   6.254208   0.000000   0.000000 )
               a(2) = (   3.127104   5.416303   0.000000 )
               a(3) = (   0.000000   0.000000  25.106540 )

     reciprocal axes: (cart. coord. in units 2 pi/alat)
               b(1) = (  0.159892 -0.092314  0.000000 )
               b(2) = (  0.000000  0.184628  0.000000 )
               b(3) = (  0.000000  0.000000  0.039830 )

     PseudoPot. # 1 for Cd read from file:
     /u/if/mamunm/psp/gbrv1.5pbe/Cd.UPF
     MD5 check sum: 17164a7926edb8e0dc231208abae86a6
     Pseudo is Ultrasoft + core correction, Zval = 12.0
     Generated by new atomic code, or converted to UPF format
     Using radial grid of  889 points,  6 beta functions with:
                l(1) =   0
                l(2) =   0
                l(3) =   1
                l(4) =   1
                l(5) =   2
                l(6) =   2
     Q(r) pseudized with  6 coefficients,  rinner =    1.000   1.000   1.000
                                                       1.000   1.000

     PseudoPot. # 2 for C  read from file:
     /u/if/mamunm/psp/gbrv1.5pbe/C.UPF
     MD5 check sum: d1aef80898a10debaa0f26306b886e00
     Pseudo is Ultrasoft + core correction, Zval =  4.0
     Generated by new atomic code, or converted to UPF format
     Using radial grid of  721 points,  4 beta functions with:
                l(1) =   0
                l(2) =   0
                l(3) =   1
                l(4) =   1
     Q(r) pseudized with  8 coefficients,  rinner =    1.100   1.100   1.100

     PseudoPot. # 3 for H  read from file:
     /u/if/mamunm/psp/gbrv1.5pbe/H.UPF
     MD5 check sum: 761ae9a214b05c3daf00ab9f6b793d6f
     Pseudo is Ultrasoft, Zval =  1.0
     Generated by new atomic code, or converted to UPF format
     Using radial grid of  615 points,  2 beta functions with:
                l(1) =   0
                l(2) =   0
     Q(r) pseudized with  8 coefficients,  rinner =    0.700

     vdW kernel table read from file vdW_kernel_table
     MD5 check sum: 095c7af220d748ca6e76c0b4c6cfb241

     atomic species   valence    mass     pseudopotential
        Cd1           12.00   112.41400     Cd( 1.00)
        C1             4.00    12.01100     C ( 1.00)
        H1             1.00     1.00800     H ( 1.00)

     No symmetry found

   Cartesian axes

     site n.     atom                  positions (alat units)
         1           Cd1 tau(   1) = (   1.5635521   0.9027172  10.0000000  )
         2           Cd1 tau(   2) = (   4.6906562   0.9027172  10.0000000  )
         3           Cd1 tau(   3) = (   3.1271041   3.6108688  10.0000000  )
         4           Cd1 tau(   4) = (   6.2542083   3.6108688  10.0000000  )
         5           Cd1 tau(   5) = (   6.2542083   1.8054344  12.5532698  )
         6           Cd1 tau(   6) = (   3.1271041   1.8054344  12.5532698  )
         7           Cd1 tau(   7) = (   7.8177603   4.5135860  12.5532698  )
         8           Cd1 tau(   8) = (   4.6906562   4.5135860  12.5532698  )
         9           Cd1 tau(   9) = (   0.0000000   0.0000000  15.1065397  )
        10           Cd1 tau(  10) = (   3.1271041   0.0000000  15.1065397  )
        11           Cd1 tau(  11) = (   1.5635521   2.7081516  15.1065397  )
        12           Cd1 tau(  12) = (   4.6906562   2.7081516  15.1065397  )
        13           C1  tau(  13) = (   3.1271041   1.8054344  16.5365397  )
        14           H1  tau(  14) = (   3.1271041   1.8054344  17.6365397  )

     number of k points=    20  Fermi-Dirac smearing, width (Ry)=  0.0110
                       cart. coord. in units 2pi/alat
        k(    1) = (   0.0000000   0.0000000   0.0000000), wk =   0.0555556
        k(    2) = (   0.0000000   0.0307713   0.0000000), wk =   0.1111111
        k(    3) = (   0.0000000   0.0615426   0.0000000), wk =   0.1111111
        k(    4) = (   0.0000000  -0.0923139   0.0000000), wk =   0.0555556
        k(    5) = (   0.0266487  -0.0153856   0.0000000), wk =   0.1111111
        k(    6) = (   0.0266487   0.0153856   0.0000000), wk =   0.1111111
        k(    7) = (   0.0266487   0.0461569   0.0000000), wk =   0.1111111
        k(    8) = (   0.0266487  -0.1076995   0.0000000), wk =   0.1111111
        k(    9) = (   0.0266487  -0.0769282   0.0000000), wk =   0.1111111
        k(   10) = (   0.0266487  -0.0461569   0.0000000), wk =   0.1111111
        k(   11) = (   0.0532974  -0.0307713   0.0000000), wk =   0.1111111
        k(   12) = (   0.0532974   0.0000000   0.0000000), wk =   0.1111111
        k(   13) = (   0.0532974   0.0307713   0.0000000), wk =   0.1111111
        k(   14) = (   0.0532974  -0.1230852   0.0000000), wk =   0.1111111
        k(   15) = (   0.0532974  -0.0923139   0.0000000), wk =   0.1111111
        k(   16) = (   0.0532974  -0.0615426   0.0000000), wk =   0.1111111
        k(   17) = (  -0.0799462   0.0461569   0.0000000), wk =   0.0555556
        k(   18) = (  -0.0799462   0.0769282   0.0000000), wk =   0.1111111
        k(   19) = (  -0.0799462   0.1076995   0.0000000), wk =   0.1111111
        k(   20) = (  -0.0799462  -0.0461569   0.0000000), wk =   0.0555556

     Largest allocated arrays     est. size (Mb)     dimensions
     Largest temporary arrays     est. size (Mb)     dimensions

     Initial potential from superposition of free atoms
     Check: negative starting charge=   -0.257781

     starting charge  142.99945, renormalised to  149.00000

     negative rho (up, down):  2.686E-01 0.000E+00

     *
     * You are using vdW-DF for exchange-correlation in this calculation.
     * Please cite the following three references that made this development
     * possible:
     *
     *   M. Dion, H. Rydberg, E. Schroder, D. C. Langreth, and
     *   B. I. Lundqvist, Phys. Rev. Lett. 92, 246401 (2004).
     *
     *   T. Thonhauser, V. R. Cooper, S. Li, A. Puzder, P. Hyldgaard, and
     *   D. C. Langreth, Phys. Rev. B 76, 125112 (2007).
     *
     *   G. Roman-Perez and J. M. Soler, Phys. Rev. Lett. 103, 096102 (2009).
     *
     *
     * If you are using vdW-DF2, please also cite:
     *
     *   K. Lee, E. D. Murray, L. Kong, B. I. Lundqvist, and
     *   D. C. Langreth, Phys. Rev. B 82, 081101(R) (2010).
     *
     *
     * If you are calculating the stress with vdW-DF, please also cite:
     *
     *   R. Sabatini, E. Kucukbenli, B. Kolb, T. Thonhauser, and
     *   S. de Gironcoli, J. Phys.: Condens. Matter 24, 424209 (2012).
     *

     Carrying out vdW-DF run using the following parameters:

     Nqs =      20    Nr_points =    1024   r_max =   100.000
     q_mesh =
               0.00001000     0.04494208     0.09755937     0.15916263
               0.23128650     0.31572767     0.41458969     0.53033537
               0.66584808     0.82450364     1.01025438     1.22772762
               1.48234092     1.78043706     2.12944203     2.53805004
               3.01644009     3.57652955     4.23227104     5.00000000

     Gradients computed in reciprocal space

     Adding external electric field

     Computed dipole along edir(3) :
        Dipole               -1.6661 Ry au,         -4.2349 Debye
        Dipole field         -0.0036 Ry au

        Potential amp.        0.3375 Ry
        Total length         46.2584 bohr

     Starting wfc are  113 randomized atomic wfcs

     Self-consistent Calculation

     iteration #  1     ecut=    36.75 Ry     beta=0.30
     Davidson diagonalization with overlap
     ethr =  1.00E-02,  avg # of iterations =  4.7

[...]

     total energy              =   -1403.40323955 Ry
     Harris-Foulkes estimate   =   -1406.19264513 Ry
     estimated scf accuracy    <       5.86382707 Ry

[...]

     End of self-consistent calculation

          k = 0.0000 0.0000 0.0000 ( 21643 PWs)   bands (ev):

   -10.6900  -9.3862  -9.3862  -9.3841  -9.2501  -9.2501  -9.2387  -9.2020
    -9.1315  -9.1246  -9.1246  -9.0293  -9.0293  -9.0145  -8.9144  -8.8564
    -8.8564  -8.8147  -8.8076  -8.8076  -8.7778  -8.7308  -8.7308  -8.7071
    -8.7071  -8.6963  -8.6834  -8.6834  -8.5673  -8.5673  -8.5133  -8.3780
    -8.3780  -8.2836  -8.2836  -8.2542  -8.2245  -8.2204  -8.2204  -8.1720
    -8.1720  -8.1415  -8.1415  -8.1063  -8.1063  -8.0785  -8.0686  -8.0459
    -8.0459  -7.9996  -7.9912  -7.9912  -7.9495  -7.9278  -7.9278  -7.8915
    -7.8810  -7.8810  -7.7821  -7.7821  -7.7238  -7.6607  -5.9415  -3.8002
    -2.5270  -1.8542  -1.8542  -1.6793  -1.4129  -1.4129  -1.1644  -0.8105
    -0.8105  -0.4731  -0.4191  -0.4191   0.4335   1.0264   1.0264   1.0880
     2.0026   2.3798   2.3798   2.8833

[...]

          k =-0.0799 0.0462 0.0000 ( 21576 PWs)   bands (ev):

[...]

     the Fermi energy is     0.5415 ev

!    total energy              =   -1405.61026161 Ry
     Harris-Foulkes estimate   =   -1405.61026214 Ry
     estimated scf accuracy    <       0.00000439 Ry

     The total energy is the sum of the following terms:

     one-electron contribution =   -8996.93386471 Ry
     hartree contribution      =    4592.76402652 Ry
     xc contribution           =    -494.05111259 Ry
     ewald contribution        =    3492.63873357 Ry
     electric field correction =       0.00004324 Ry
     smearing contrib. (-TS)   =      -0.02808764 Ry

     convergence has been achieved in  10 iterations

 BEEF-vdW xc energy contributions
           1 :   -432.804413237030
           2 :    395.913807417151
           3 :   -333.665506661712
           4 :    263.710196300128
           5 :   -202.338543067115
           6 :    158.704076782121
           7 :   -133.081147442776
           8 :    119.329307452145
           9 :   -109.648499907952
          10 :    98.8470993871099
          11 :   -86.0724596954341
          12 :    73.6851624320644
          13 :   -64.5967582213389
          14 :    59.9837842832460
          15 :   -58.6599210728427
          16 :    58.1261437023406
          17 :   -56.2898234043712
          18 :    52.6284193659542
          19 :   -48.1651435610269
          20 :    44.4890913467972
          21 :   -42.6053935231103
          22 :    42.3665858917245
          23 :   -42.7347550078513
          24 :    42.5569788686664
          25 :   -41.2767976671199
          26 :    39.1544456544107
          27 :   -36.9554274872389
          28 :    35.3986944642729
          29 :   -34.7413896836508
          30 :    34.7166259434188
          31 :   -39.1342501467751
          32 :   -28.5883882890229

     Forces acting on atoms (Ry/au):

     negative rho (up, down):  2.666E-01 0.000E+00
     atom    1 type  1   force =    -0.00216906   -0.00124332   -0.01688140
     atom    2 type  1   force =     0.00216107   -0.00124677   -0.01688034
     atom    3 type  1   force =     0.00000119    0.00249043   -0.01688016
     atom    4 type  1   force =     0.00000438   -0.00000258   -0.01617113
     atom    5 type  1   force =    -0.00000229    0.00201348    0.00501897
     atom    6 type  1   force =    -0.00001332    0.00000445    0.00248427
     atom    7 type  1   force =    -0.00175236   -0.00101107    0.00504524
     atom    8 type  1   force =     0.00173675   -0.00099796    0.00501889
     atom    9 type  1   force =    -0.00000884   -0.00001299    0.01086682
     atom   10 type  1   force =    -0.00000007   -0.01253760    0.03228808
     atom   11 type  1   force =    -0.01083564    0.00627417    0.03228434
     atom   12 type  1   force =     0.01087134    0.00626078    0.03230238
     atom   13 type  2   force =     0.00000340    0.00000425   -0.04787352
     atom   14 type  3   force =     0.00000345    0.00000475   -0.01062243

     Total force =     0.078246     Total SCF correction =     0.004281

     entering subroutine stress ...

     negative rho (up, down):  2.666E-01 0.000E+00
          total   stress  (Ry/bohr**3)                   (kbar)     P=    3.37
   0.00001260   0.00000000  -0.00000000          1.85      0.00     -0.00
   0.00000000   0.00001260   0.00000000          0.00      1.85      0.00
  -0.00000000   0.00000000   0.00004348         -0.00      0.00      6.40

     BFGS Geometry Optimization

     number of scf cycles    =   1
     number of bfgs steps    =   0

     energy   new            =   -1405.6102616100 Ry

     new trust radius        =       0.0478735180 bohr
     new conv_thr            =       0.0000099958 Ry

ATOMIC_POSITIONS (crystal)
Cd1      0.166666667   0.166666667   0.398302599    0   0   0
Cd1      0.666666667   0.166666667   0.398302599    0   0   0
Cd1      0.166666667   0.666666667   0.398302599    0   0   0
Cd1      0.666666667   0.666666667   0.398302599    0   0   0
Cd1      0.833333333   0.333333333   0.500000000    0   0   0
Cd1      0.333333333   0.333333333   0.500000000    0   0   0
Cd1      0.833333333   0.833333333   0.500000000    0   0   0
Cd1      0.333333333   0.833333333   0.500000000    0   0   0
Cd1     -0.000000113  -0.000001269   0.601926444
Cd1      0.500612461  -0.001224934   0.602377945
Cd1     -0.001223315   0.500612992   0.602377867
Cd1      0.500613998   0.500611683   0.602378247
C1       0.333333414   0.333333748   0.657645630
H1       0.333333394   0.333333797   0.702244067

     Writing output data file calc.save
     Check: negative starting charge=   -0.257781
     NEW-OLD atomic charge density approx. for the potential
     Check: negative starting charge=   -0.258105

[...]

     energy   old            =   -1405.6102616100 Ry
     energy   new            =   -1405.6155747016 Ry

     CASE: energy  _new < energy  _old

[...]

     Threshold (ethr) on eigenvalues was too large:
     Diagonalizing with lowered threshold

     Davidson diagonalization with overlap
     ethr =  4.39E-08,  avg # of iterations =  3.3

[...]

     WARNING: bfgs curvature condition failed, Theta= 0.845
     new trust radius        =       0.0088821210 bohr
     new conv_thr            =       0.0000001000 Ry

[...]

     Total force =     0.003323     Total SCF correction =     0.000265

[...]

     Total force =     0.003460     Total SCF correction =     0.000627
     SCF correction compared to forces is large: reduce conv_thr to get better values

[...]

     WARNING: bfgs curvature condition failed, Theta= 0.664
     new trust radius        =       0.0083791216 bohr
     new conv_thr            =       0.0000001000 Ry

[...]

     WARNING: info= 30 for Hessian
     new trust radius        =       0.0125686824 bohr
     new conv_thr            =       0.0000001000 Ry

[...]

     CASE: energy  _new > energy  _old

[...]

     number of scf cycles    =  26
     number of bfgs steps    =  24

     energy   old            =   -1405.6618311744 Ry
     energy   new            =   -1405.6618316117 Ry

     CASE: energy  _new < energy  _old

     WARNING: info= 30 for Hessian
     uphill step: resetting bfgs history

     new trust radius        =       0.0027764556 bohr
     new conv_thr            =       0.0000001000 Ry

ATOMIC_POSITIONS (crystal)
Cd1      0.166666667   0.166666667   0.398302599    0   0   0
Cd1      0.666666667   0.166666667   0.398302599    0   0   0
Cd1      0.166666667   0.666666667   0.398302599    0   0   0
Cd1      0.666666667   0.666666667   0.398302599    0   0   0
Cd1      0.833333333   0.333333333   0.500000000    0   0   0
Cd1      0.333333333   0.333333333   0.500000000    0   0   0
Cd1      0.833333333   0.833333333   0.500000000    0   0   0
Cd1      0.333333333   0.833333333   0.500000000    0   0   0
Cd1      0.000002770  -0.000008081   0.606080747
Cd1      0.515350163  -0.030697314   0.622337169
Cd1     -0.030682887   0.515342573   0.622334219
Cd1      0.515357253   0.515341653   0.622339684
C1       0.333337659   0.333329982   0.657912913
H1       0.333331968   0.333327737   0.701541142

     Writing output data file calc.save
     Check: negative starting charge=   -0.260343
     NEW-OLD atomic charge density approx. for the potential
     Check: negative starting charge=   -0.260283

[...]

     Self-consistent Calculation

[...]

     Threshold (ethr) on eigenvalues was too large:
     Diagonalizing with lowered threshold

     Davidson diagonalization with overlap
     ethr =  6.47E-09,  avg # of iterations =  4.0

[...]

     total energy              =   -1405.66184015 Ry
     Harris-Foulkes estimate   =   -1405.66184021 Ry
     estimated scf accuracy    <       0.00000028 Ry

     iteration #  4     ecut=    36.75 Ry     beta=0.30
     Davidson diagonalization with overlap
     ethr =  1.90E-10,  avg # of iterations =  2.2

[...]

     negative rho (up, down):  2.692E-01 0.000E+00

     Adding external electric field

     Computed dipole along edir(3) :
        Dipole               -0.0257 Ry au,         -0.0654 Debye
        Dipole field         -0.0001 Ry au

        Potential amp.        0.0052 Ry
        Total length         46.2584 bohr

     End of self-consistent calculation

[...]

          k = 0.0533-0.0615 0.0000 ( 21571 PWs)   bands (ev):

[...]

          k =-0.0799-0.0462 0.0000 ( 21576 PWs)   bands (ev):

   -10.9861  -8.9171  -8.9123  -8.8262  -8.8066  -8.8001  -8.7794  -8.7737
    -8.7381  -8.7297  -8.7129  -8.7123  -8.6258  -8.6068  -8.5977  -8.5813
    -8.5699  -8.5548  -8.5494  -8.4792  -8.4767  -8.4562  -8.4429  -8.4199
    -8.3975  -8.3908  -8.3617  -8.3440  -8.3352  -8.3136  -8.3075  -8.2896
    -8.2329  -8.2325  -8.2172  -8.1921  -8.1891  -8.1862  -8.1745  -8.1403
    -8.1385  -8.1219  -8.1106  -8.0930  -8.0863  -8.0853  -8.0541  -8.0131
    -8.0089  -7.9948  -7.9655  -7.9604  -7.9525  -7.8837  -7.8554  -7.8490
    -7.8276  -7.7987  -7.7772  -7.6085  -7.4578  -5.7735  -5.6728  -4.4782
    -4.2892  -2.9325  -2.7012  -2.4346  -2.3916  -1.9514  -1.7249  -0.1236
     0.0032   0.1974   1.1178   1.5832   1.9225   2.6076   3.0474   3.0964
     3.4073   3.4831   3.7486   3.9174

     the Fermi energy is     0.7224 ev

!    total energy              =   -1405.66184019 Ry
     Harris-Foulkes estimate   =   -1405.66184015 Ry
     estimated scf accuracy    <       0.00000003 Ry

     The total energy is the sum of the following terms:

     one-electron contribution =   -8516.87639638 Ry
     hartree contribution      =    4353.68856973 Ry
     xc contribution           =    -494.02617453 Ry
     ewald contribution        =    3251.57466253 Ry
     electric field correction =       0.00000145 Ry
     smearing contrib. (-TS)   =      -0.02250299 Ry

     convergence has been achieved in   4 iterations

 BEEF-vdW xc energy contributions
           1 :   -432.767393655825
           2 :    395.763090435567
           3 :   -333.367014490691
           4 :    263.338298910827
           5 :   -202.017343094545
           6 :    158.506657799272
           7 :   -132.977418153315
           8 :    119.224173452302
           9 :   -109.473224325414
          10 :    98.6228423239061
          11 :   -85.8912261893745
          12 :    73.6252150921028
          13 :   -64.6460943951002
          14 :    60.0410334165164
          15 :   -58.6170983056567
          16 :    57.9647580339386
          17 :   -56.1081836596474
          18 :    52.5734723629756
          19 :   -48.3172157442735
          20 :    44.7891327640712
          21 :   -42.8869172453964
          22 :    42.4737647639661
          23 :   -42.6381252060667
          24 :    42.3749379828195
          25 :   -41.1830954640719
          26 :    39.2429255574191
          27 :   -37.1673296099733
          28 :    35.5687726306966
          29 :   -34.7264945539363
          30 :    34.5072496989351
          31 :   -39.1275806987021
          32 :   -28.5470647842430

     Forces acting on atoms (Ry/au):

     negative rho (up, down):  2.692E-01 0.000E+00
     atom    1 type  1   force =    -0.00258679   -0.00149328   -0.01876209
     atom    2 type  1   force =     0.00258668   -0.00149348   -0.01876234
     atom    3 type  1   force =    -0.00000020    0.00298691   -0.01876216
     atom    4 type  1   force =     0.00000009    0.00000004   -0.01748859
     atom    5 type  1   force =    -0.00000032    0.00393469    0.01891687
     atom    6 type  1   force =     0.00000035   -0.00000004    0.01758901
     atom    7 type  1   force =    -0.00340796   -0.00196730    0.01891611
     atom    8 type  1   force =     0.00340787   -0.00196760    0.01891617
     atom    9 type  1   force =     0.00000204    0.00000159   -0.00193502
     atom   10 type  1   force =     0.00000006   -0.00010171    0.00035530
     atom   11 type  1   force =    -0.00009024    0.00005105    0.00035520
     atom   12 type  1   force =     0.00008763    0.00005014    0.00035613
     atom   13 type  2   force =     0.00000134   -0.00000193    0.00016873
     atom   14 type  3   force =    -0.00000052    0.00000092    0.00013667

     Total force =     0.002050     Total SCF correction =     0.000931
     SCF correction compared to forces is large: reduce conv_thr to get better values

     entering subroutine stress ...

     negative rho (up, down):  2.692E-01 0.000E+00
          total   stress  (Ry/bohr**3)                   (kbar)     P=    3.17
   0.00001539   0.00000000  -0.00000000          2.26      0.00     -0.00
   0.00000000   0.00001539   0.00000000          0.00      2.26      0.00
  -0.00000000   0.00000000   0.00003395         -0.00      0.00      4.99

     bfgs converged in  27 scf cycles and  25 bfgs steps
     (criteria: energy <  1.0E+00, force <  1.9E-03)

     End of BFGS Geometry Optimization

     Final energy   =   -1405.6618401928 Ry
Begin final coordinates

ATOMIC_POSITIONS (crystal)
Cd1      0.166666667   0.166666667   0.398302599    0   0   0
Cd1      0.666666667   0.166666667   0.398302599    0   0   0
Cd1      0.166666667   0.666666667   0.398302599    0   0   0
Cd1      0.666666667   0.666666667   0.398302599    0   0   0
Cd1      0.833333333   0.333333333   0.500000000    0   0   0
Cd1      0.333333333   0.333333333   0.500000000    0   0   0
Cd1      0.833333333   0.833333333   0.500000000    0   0   0
Cd1      0.333333333   0.833333333   0.500000000    0   0   0
Cd1      0.000002770  -0.000008081   0.606080747
Cd1      0.515350163  -0.030697314   0.622337169
Cd1     -0.030682887   0.515342573   0.622334219
Cd1      0.515357253   0.515341653   0.622339684
C1       0.333337659   0.333329982   0.657912913
H1       0.333331968   0.333327737   0.701541142
End final coordinates

     Writing output data file calc.save

     General routines

     Parallel routines

   This run was terminated on:  15:38:54  16Apr2018

   JOB DONE.
Job  /afs/slac/g/suncat/bin/suncat-tsmpirun -x LD_LIBRARY_PATH -wdir /scratch/qe129155_cjtAj pw.x -npool 4 -in pw.inp

TID   HOST_NAME   COMMAND_LINE            STATUS            TERMINATION_TIME
00000 suncat0170 pw.x -npool 4 -i  Done                     04/16/2018 15:38:54
00001 suncat0170 pw.x -npool 4 -i  Done                     04/16/2018 15:38:54
00002 suncat0170 pw.x -npool 4 -i  Done                     04/16/2018 15:38:54
00003 suncat0170 pw.x -npool 4 -i  Done                     04/16/2018 15:38:54
00004 suncat0170 pw.x -npool 4 -i  Done                     04/16/2018 15:38:54
00005 suncat0170 pw.x -npool 4 -i  Done                     04/16/2018 15:38:54
00006 suncat0170 pw.x -npool 4 -i  Done                     04/16/2018 15:38:54
00007 suncat0170 pw.x -npool 4 -i  Done                     04/16/2018 15:38:54
00008 suncat0164 pw.x -npool 4 -i  Done                     04/16/2018 15:38:54
00009 suncat0164 pw.x -npool 4 -i  Done                     04/16/2018 15:38:54
00010 suncat0164 pw.x -npool 4 -i  Done                     04/16/2018 15:38:54
00011 suncat0164 pw.x -npool 4 -i  Done                     04/16/2018 15:38:54
00012 suncat0164 pw.x -npool 4 -i  Done                     04/16/2018 15:38:54
00013 suncat0164 pw.x -npool 4 -i  Done                     04/16/2018 15:38:54
00014 suncat0164 pw.x -npool 4 -i  Done                     04/16/2018 15:38:54
00015 suncat0164 pw.x -npool 4 -i  Done                     04/16/2018 15:38:54
00016 suncat0114 pw.x -npool 4 -i  Done                     04/16/2018 15:38:54
00017 suncat0114 pw.x -npool 4 -i  Done                     04/16/2018 15:38:54
00018 suncat0114 pw.x -npool 4 -i  Done                     04/16/2018 15:38:54
00019 suncat0114 pw.x -npool 4 -i  Done                     04/16/2018 15:38:54
00020 suncat0114 pw.x -npool 4 -i  Done                     04/16/2018 15:38:54
00021 suncat0114 pw.x -npool 4 -i  Done                     04/16/2018 15:38:54
00022 suncat0114 pw.x -npool 4 -i  Done                     04/16/2018 15:38:54
00023 suncat0114 pw.x -npool 4 -i  Done                     04/16/2018 15:38:54
00024 suncat0277 pw.x -npool 4 -i  Done                     04/16/2018 15:38:54
00025 suncat0277 pw.x -npool 4 -i  Done                     04/16/2018 15:38:54
00026 suncat0277 pw.x -npool 4 -i  Done                     04/16/2018 15:38:54
00027 suncat0277 pw.x -npool 4 -i  Done                     04/16/2018 15:38:54
00028 suncat0277 pw.x -npool 4 -i  Done                     04/16/2018 15:38:54
00029 suncat0277 pw.x -npool 4 -i  Done                     04/16/2018 15:38:54
00030 suncat0277 pw.x -npool 4 -i  Done                     04/16/2018 15:38:54
00031 suncat0277 pw.x -npool 4 -i  Done                     04/16/2018 15:38:54