     Program PWSCF v.5.1rc2 (svn rev. 11289) starts on  4May2018 at 10:20:42

     Current dimensions of program PWSCF are:
     Max number of different atomic species (ntypx) = 10
     Max number of k-points (npk) =  40000
     Max angular momentum in pseudopotentials (lmaxx) =  3
     Presently stress not available with electric field

     IMPORTANT: XC functional enforced from input :
     Exchange-correlation      = BEEF-VDW ( 1  4 27 13 2)
     Any further DFT definition will be discarded
     Please, verify this is what you really want

     Subspace diagonalization in iterative solution of the eigenvalue problem:
     a serial algorithm will be used

     bravais-lattice index     =            0
     lattice parameter (alat)  =       1.8897  a.u.
     unit-cell volume          =    5174.6160 (a.u.)^3
     number of atoms/cell      =           13
     number of atomic types    =            2
     number of electrons       =       232.00
     number of Kohn-Sham states=          126
     kinetic-energy cutoff     =      36.7493  Ry
     charge density cutoff     =     367.4932  Ry
     convergence threshold     =      1.0E-05
     mixing beta               =       0.3000
     number of iterations used =           10  plain     mixing
     Exchange-correlation      = BEEF-VDW ( 1  4 27 13 2)
     nstep                     =           50

     celldm(1)=   1.889726  celldm(2)=   0.000000  celldm(3)=   0.000000
     celldm(4)=   0.000000  celldm(5)=   0.000000  celldm(6)=   0.000000

     crystal axes: (cart. coord. in units of alat)
               a(1) = (   5.966546   0.000000   0.000000 )
               a(2) = (   2.983273   5.167181   0.000000 )
               a(3) = (   0.000000   0.000000  24.871665 )

     reciprocal axes: (cart. coord. in units 2 pi/alat)
               b(1) = (  0.167601 -0.096765  0.000000 )
               b(2) = (  0.000000  0.193529  0.000000 )
               b(3) = (  0.000000  0.000000  0.040206 )

     PseudoPot. # 1 for Ag read from file:
     /u/if/mamunm/psp/gbrv1.5pbe/Ag.UPF
     MD5 check sum: d66d668201baa78d5eb5b04ef7011058
     Pseudo is Ultrasoft + core correction, Zval = 19.0
     Generated by new atomic code, or converted to UPF format
     Using radial grid of  887 points,  6 beta functions with:
                l(1) =   0
                l(2) =   0
                l(3) =   1
                l(4) =   1
                l(5) =   2
                l(6) =   2
     Q(r) pseudized with  6 coefficients,  rinner =    1.300   1.300   1.300
                                                       1.300   1.300

     PseudoPot. # 2 for C  read from file:
     /u/if/mamunm/psp/gbrv1.5pbe/C.UPF
     MD5 check sum: d1aef80898a10debaa0f26306b886e00
     Pseudo is Ultrasoft + core correction, Zval =  4.0
     Generated by new atomic code, or converted to UPF format
     Using radial grid of  721 points,  4 beta functions with:
                l(1) =   0
                l(2) =   0
                l(3) =   1
                l(4) =   1
     Q(r) pseudized with  8 coefficients,  rinner =    1.100   1.100   1.100

     vdW kernel table read from file vdW_kernel_table
     MD5 check sum: 095c7af220d748ca6e76c0b4c6cfb241

     atomic species   valence    mass     pseudopotential
        Ag1           19.00   107.86820     Ag( 1.00)
        C1             4.00    12.01100     C ( 1.00)

     No symmetry found

   Cartesian axes

     site n.     atom                  positions (alat units)
         1           Ag1 tau(   1) = (   1.4916366   0.8611968  10.0000000  )
         2           Ag1 tau(   2) = (   4.4749098   0.8611968  10.0000000  )
         3           Ag1 tau(   3) = (   2.9832732   3.4447871  10.0000000  )
         4           Ag1 tau(   4) = (   5.9665464   3.4447871  10.0000000  )
         5           Ag1 tau(   5) = (   5.9665464   1.7223936  12.4358324  )
         6           Ag1 tau(   6) = (   2.9832732   1.7223936  12.4358324  )
         7           Ag1 tau(   7) = (   7.4581830   4.3059839  12.4358324  )
         8           Ag1 tau(   8) = (   4.4749098   4.3059839  12.4358324  )
         9           Ag1 tau(   9) = (   0.0000000   0.0000000  14.8716647  )
        10           Ag1 tau(  10) = (   2.9832732   0.0000000  14.8716647  )
        11           Ag1 tau(  11) = (   1.4916366   2.5835904  14.8716647  )
        12           Ag1 tau(  12) = (   4.4749098   2.5835904  14.8716647  )
        13           C1  tau(  13) = (   1.4916366   0.8611968  16.3081647  )

     number of k points=    20  Fermi-Dirac smearing, width (Ry)=  0.0110
                       cart. coord. in units 2pi/alat
        k(    1) = (   0.0000000   0.0000000   0.0000000), wk =   0.0555556
        k(    2) = (   0.0000000   0.0322549   0.0000000), wk =   0.1111111
        k(    3) = (   0.0000000   0.0645097   0.0000000), wk =   0.1111111
        k(    4) = (   0.0000000  -0.0967646   0.0000000), wk =   0.0555556
        k(    5) = (   0.0279335  -0.0161274   0.0000000), wk =   0.1111111
        k(    6) = (   0.0279335   0.0161274   0.0000000), wk =   0.1111111
        k(    7) = (   0.0279335   0.0483823   0.0000000), wk =   0.1111111
        k(    8) = (   0.0279335  -0.1128920   0.0000000), wk =   0.1111111
        k(    9) = (   0.0279335  -0.0806371   0.0000000), wk =   0.1111111
        k(   10) = (   0.0279335  -0.0483823   0.0000000), wk =   0.1111111
        k(   11) = (   0.0558670  -0.0322549   0.0000000), wk =   0.1111111
        k(   12) = (   0.0558670   0.0000000   0.0000000), wk =   0.1111111
        k(   13) = (   0.0558670   0.0322549   0.0000000), wk =   0.1111111
        k(   14) = (   0.0558670  -0.1290194   0.0000000), wk =   0.1111111
        k(   15) = (   0.0558670  -0.0967646   0.0000000), wk =   0.1111111
        k(   16) = (   0.0558670  -0.0645097   0.0000000), wk =   0.1111111
        k(   17) = (  -0.0838006   0.0483823   0.0000000), wk =   0.0555556
        k(   18) = (  -0.0838006   0.0806371   0.0000000), wk =   0.1111111
        k(   19) = (  -0.0838006   0.1128920   0.0000000), wk =   0.1111111
        k(   20) = (  -0.0838006  -0.0483823   0.0000000), wk =   0.0555556

     Largest allocated arrays     est. size (Mb)     dimensions
     Largest temporary arrays     est. size (Mb)     dimensions

     Initial potential from superposition of free atoms
     Check: negative starting charge=   -0.002174

     starting charge  225.99939, renormalised to  232.00000

     negative rho (up, down):  2.232E-03 0.000E+00

     *
     * You are using vdW-DF for exchange-correlation in this calculation.
     * Please cite the following three references that made this development
     * possible:
     *
     *   M. Dion, H. Rydberg, E. Schroder, D. C. Langreth, and
     *   B. I. Lundqvist, Phys. Rev. Lett. 92, 246401 (2004).
     *
     *   T. Thonhauser, V. R. Cooper, S. Li, A. Puzder, P. Hyldgaard, and
     *   D. C. Langreth, Phys. Rev. B 76, 125112 (2007).
     *
     *   G. Roman-Perez and J. M. Soler, Phys. Rev. Lett. 103, 096102 (2009).
     *
     *
     * If you are using vdW-DF2, please also cite:
     *
     *   K. Lee, E. D. Murray, L. Kong, B. I. Lundqvist, and
     *   D. C. Langreth, Phys. Rev. B 82, 081101(R) (2010).
     *
     *
     * If you are calculating the stress with vdW-DF, please also cite:
     *
     *   R. Sabatini, E. Kucukbenli, B. Kolb, T. Thonhauser, and
     *   S. de Gironcoli, J. Phys.: Condens. Matter 24, 424209 (2012).
     *

     Carrying out vdW-DF run using the following parameters:

     Nqs =      20    Nr_points =    1024   r_max =   100.000
     q_mesh =
               0.00001000     0.04494208     0.09755937     0.15916263
               0.23128650     0.31572767     0.41458969     0.53033537
               0.66584808     0.82450364     1.01025438     1.22772762
               1.48234092     1.78043706     2.12944203     2.53805004
               3.01644009     3.57652955     4.23227104     5.00000000

     Gradients computed in reciprocal space

     Adding external electric field

     Computed dipole along edir(3) :
        Dipole               -0.7769 Ry au,         -1.9746 Debye
        Dipole field         -0.0019 Ry au

        Potential amp.        0.1729 Ry
        Total length         45.8256 bohr

     Starting wfc are  160 randomized atomic wfcs

     Self-consistent Calculation

     iteration #  1     ecut=    36.75 Ry     beta=0.30
     Davidson diagonalization with overlap
     ethr =  1.00E-02,  avg # of iterations =  5.3

[...]

     total energy              =   -3564.38419763 Ry
     Harris-Foulkes estimate   =   -3574.70613434 Ry
     estimated scf accuracy    <      22.54504645 Ry

[...]

     End of self-consistent calculation

          k = 0.0000 0.0000 0.0000 ( 19435 PWs)   bands (ev):

   -91.2200 -91.2146 -91.2146 -91.1844 -91.1788 -91.1788 -91.1603 -91.0201
   -90.9870 -90.9820 -90.9820 -90.8514 -54.8100 -54.7661 -54.7661 -54.7292
   -54.7130 -54.7130 -54.6931 -54.6924 -54.6924 -54.6625 -54.6625 -54.6617
   -54.6577 -54.6577 -54.6556 -54.6487 -54.6485 -54.6332 -54.6332 -54.6282
   -54.6282 -54.5492 -54.5492 -54.5299 -54.4981 -54.4852 -54.4852 -54.4746
   -54.4585 -54.4578 -54.4578 -54.4512 -54.4512 -54.3567 -54.3567 -54.3335
    -8.9353  -5.5532  -4.9543  -4.9376  -4.9376  -4.9031  -4.8292  -4.8292
    -4.7925  -4.7257  -4.6932  -4.6932  -4.5880  -4.5670  -4.5670  -4.5202
    -4.0737  -4.0737  -3.8794  -3.8697  -3.8697  -3.8011  -3.7507  -3.7507
    -3.7285  -3.7231  -3.7231  -3.5693  -3.5693  -3.5681  -3.5154  -3.5154
    -3.1991  -3.1991  -3.0109  -3.0109  -2.9698  -2.9542  -2.9208  -2.9208
    -2.8427  -2.7126  -2.7126  -2.6904  -2.6904  -2.5295  -2.4716  -2.4716
    -2.4621  -2.3877  -2.3877  -2.3801  -2.3801  -2.2934  -2.2630  -2.2630
    -2.2556  -2.2130  -2.1464  -2.1464  -2.0962  -2.0962  -2.0842   0.0616
     0.5886   0.6619   0.6619   1.4551   1.4551   1.5955   2.0127   2.2373
     2.2373   2.3797   2.8926   2.8926   3.7884   4.6278

[...]

          k =-0.0838 0.0484 0.0000 ( 19500 PWs)   bands (ev):

[...]

     the Fermi energy is     0.8458 ev

!    total energy              =   -3571.06759225 Ry
     Harris-Foulkes estimate   =   -3571.06758476 Ry
     estimated scf accuracy    <       0.00000053 Ry

     The total energy is the sum of the following terms:

     one-electron contribution =  -26073.24441196 Ry
     hartree contribution      =   13025.64935309 Ry
     xc contribution           =    -364.27067187 Ry
     ewald contribution        =    9840.82432945 Ry
     electric field correction =       0.00037142 Ry
     smearing contrib. (-TS)   =      -0.02656238 Ry

     convergence has been achieved in  13 iterations

 BEEF-vdW xc energy contributions
           1 :   -315.598963980293
           2 :    285.762682068116
           3 :   -235.973872389439
           4 :    181.248467323226
           5 :   -135.249583181183
           6 :    105.352823090320
           7 :   -91.2552632557070
           8 :    87.1407477992557
           9 :   -85.7536423014429
          10 :    82.0646625488865
          11 :   -74.8494652083506
          12 :    65.8862066028803
          13 :   -57.8124997124897
          14 :    52.1830150461133
          15 :   -48.7988134407479
          16 :    46.3533330820485
          17 :   -43.6278724401676
          18 :    40.3035132915649
          19 :   -36.9298829373525
          20 :    34.2573426747667
          21 :   -32.5464616321624
          22 :    31.3695485409673
          23 :   -29.9850825465090
          24 :    27.9355296681879
          25 :   -25.4010481327468
          26 :    23.0618318833305
          27 :   -21.5988584264450
          28 :    21.2094339236430
          29 :   -21.4808009397397
          30 :    21.6893190782607
          31 :   -31.5659051105118
          32 :   -22.9746500455621

     Forces acting on atoms (Ry/au):

     negative rho (up, down):  2.157E-03 0.000E+00
     atom    1 type  1   force =     0.00000015   -0.00000001    0.00014180
     atom    2 type  1   force =    -0.00000018   -0.00141751   -0.00011329
     atom    3 type  1   force =    -0.00122780    0.00070895   -0.00011357
     atom    4 type  1   force =     0.00122750    0.00070859   -0.00011347
     atom    5 type  1   force =    -0.00129684    0.00074925    0.00011927
     atom    6 type  1   force =     0.00129699    0.00074926    0.00011937
     atom    7 type  1   force =     0.00000001   -0.00000017    0.00488530
     atom    8 type  1   force =     0.00000006   -0.00149777    0.00011909
     atom    9 type  1   force =     0.00378859    0.00218736    0.01640845
     atom   10 type  1   force =    -0.00378862    0.00218726    0.01640846
     atom   11 type  1   force =     0.00000013   -0.00437518    0.01640902
     atom   12 type  1   force =    -0.00000002   -0.00000017    0.00283212
     atom   13 type  2   force =     0.00000004    0.00000016   -0.05710255

     Total force =     0.064295     Total SCF correction =     0.004979

     entering subroutine stress ...

     negative rho (up, down):  2.157E-03 0.000E+00
          total   stress  (Ry/bohr**3)                   (kbar)     P=   -9.73
  -0.00007050  -0.00000000  -0.00000000        -10.37     -0.00     -0.00
  -0.00000000  -0.00007050  -0.00000000         -0.00    -10.37     -0.00
  -0.00000000  -0.00000000  -0.00005738         -0.00     -0.00     -8.44

     BFGS Geometry Optimization

     number of scf cycles    =   1
     number of bfgs steps    =   0

     energy   new            =   -3571.0675922494 Ry

     new trust radius        =       0.0571025543 bohr
     new conv_thr            =       0.0000099958 Ry

ATOMIC_POSITIONS (crystal)
Ag1      0.166666667   0.166666667   0.402063960    0   0   0
Ag1      0.666666667   0.166666667   0.402063960    0   0   0
Ag1      0.166666667   0.666666667   0.402063960    0   0   0
Ag1      0.666666667   0.666666667   0.402063960    0   0   0
Ag1      0.833333333   0.333333333   0.500000000    0   0   0
Ag1      0.333333333   0.333333333   0.500000000    0   0   0
Ag1      0.833333333   0.833333333   0.500000000    0   0   0
Ag1      0.333333333   0.833333333   0.500000000    0   0   0
Ag1      0.000224007   0.000224010   0.598285151
Ag1      0.499551984   0.000224000   0.598285152
Ag1      0.000224045   0.499551933   0.598285163
Ag1      0.500000007   0.499999982   0.597996297
C1       0.166666663   0.166666683   0.654477596

     Writing output data file calc.save
     Check: negative starting charge=   -0.002174
     NEW-OLD atomic charge density approx. for the potential
     Check: negative starting charge=   -0.002179

[...]

     energy   old            =   -3571.0675922494 Ry
     energy   new            =   -3571.0714827310 Ry

     CASE: energy  _new < energy  _old

     WARNING: bfgs curvature condition failed, Theta= 0.909
     new trust radius        =       0.0628128097 bohr
     new conv_thr            =       0.0000001000 Ry

[...]

     Total force =     0.010000     Total SCF correction =     0.001234
     SCF correction compared to forces is large: reduce conv_thr to get better values

[...]

     Total force =     0.010038     Total SCF correction =     0.000347

[...]

     number of scf cycles    =  13
     number of bfgs steps    =  12

     energy   old            =   -3571.0867604614 Ry
     energy   new            =   -3571.0869898733 Ry

     CASE: energy  _new < energy  _old

     new trust radius        =       0.0511971814 bohr
     new conv_thr            =       0.0000001000 Ry

ATOMIC_POSITIONS (crystal)
Ag1      0.166666667   0.166666667   0.402063960    0   0   0
Ag1      0.666666667   0.166666667   0.402063960    0   0   0
Ag1      0.166666667   0.666666667   0.402063960    0   0   0
Ag1      0.666666667   0.666666667   0.402063960    0   0   0
Ag1      0.833333333   0.333333333   0.500000000    0   0   0
Ag1      0.333333333   0.333333333   0.500000000    0   0   0
Ag1      0.833333333   0.833333333   0.500000000    0   0   0
Ag1      0.333333333   0.833333333   0.500000000    0   0   0
Ag1     -0.006212207  -0.006212264   0.597568194
Ag1      0.512424492  -0.006212269   0.597568193
Ag1     -0.006212213   0.512424428   0.597568196
Ag1      0.500000010   0.500000005   0.598449183
C1       0.166666708   0.166666601   0.640915225

     Writing output data file calc.save
     Check: negative starting charge=   -0.002284
     NEW-OLD atomic charge density approx. for the potential
     Check: negative starting charge=   -0.002287

[...]

     Self-consistent Calculation

[...]

     total energy              =   -3571.08713687 Ry
     Harris-Foulkes estimate   =   -3571.08713634 Ry
     estimated scf accuracy    <       0.00000051 Ry

     iteration #  8     ecut=    36.75 Ry     beta=0.30
     Davidson diagonalization with overlap
     ethr =  2.20E-10,  avg # of iterations =  2.0

[...]

     negative rho (up, down):  2.235E-03 0.000E+00

     Adding external electric field

     Computed dipole along edir(3) :
        Dipole               -0.2902 Ry au,         -0.7376 Debye
        Dipole field         -0.0007 Ry au

        Potential amp.        0.0646 Ry
        Total length         45.8256 bohr

     End of self-consistent calculation

[...]

          k = 0.0559-0.0645 0.0000 ( 19479 PWs)   bands (ev):

[...]

          k =-0.0838-0.0484 0.0000 ( 19500 PWs)   bands (ev):

   -91.3383 -91.3348 -91.3334 -91.0898 -91.0893 -91.0863 -91.0857 -90.9191
   -90.8939 -90.8921 -90.8904 -90.7982 -54.9675 -54.9382 -54.9227 -54.7759
   -54.7699 -54.7543 -54.7508 -54.7401 -54.7325 -54.6207 -54.6093 -54.5953
   -54.5884 -54.5852 -54.5830 -54.5803 -54.5777 -54.5751 -54.5735 -54.5620
   -54.5535 -54.4409 -54.4245 -54.4230 -54.4012 -54.3970 -54.3970 -54.3959
   -54.3815 -54.3704 -54.3651 -54.3631 -54.3604 -54.3076 -54.3059 -54.2830
    -9.4521  -5.0503  -4.6388  -4.5688  -4.4929  -4.4738  -4.4511  -4.4240
    -4.3445  -4.2895  -4.2780  -4.2317  -4.1856  -4.1823  -4.1656  -4.1213
    -4.0870  -4.0127  -3.8910  -3.8757  -3.8242  -3.7658  -3.7578  -3.7404
    -3.6758  -3.6396  -3.5960  -3.5249  -3.4603  -3.4167  -3.3773  -3.3313
    -3.3246  -3.3059  -3.2838  -3.1621  -3.1588  -3.1208  -3.1066  -3.0815
    -3.0471  -3.0404  -2.9996  -2.9661  -2.8927  -2.8901  -2.8837  -2.8690
    -2.8353  -2.8044  -2.7780  -2.7444  -2.6523  -2.6215  -2.6211  -2.5579
    -2.3839  -2.3436  -2.3213  -2.2834  -2.2233  -2.1892  -2.1594  -1.4806
    -0.7767   0.0969   0.3310   0.6320   1.0913   1.4932   1.6396   2.4796
     2.9118   3.5283   4.1066   4.3671   5.1969   5.8665

     the Fermi energy is     0.9631 ev

!    total energy              =   -3571.08713688 Ry
     Harris-Foulkes estimate   =   -3571.08713797 Ry
     estimated scf accuracy    <       0.00000003 Ry

     The total energy is the sum of the following terms:

     one-electron contribution =  -26178.74898925 Ry
     hartree contribution      =   13078.63442862 Ry
     xc contribution           =    -364.36449209 Ry
     ewald contribution        =    9893.41740020 Ry
     electric field correction =       0.00020451 Ry
     smearing contrib. (-TS)   =      -0.02568887 Ry

     convergence has been achieved in   8 iterations

 BEEF-vdW xc energy contributions
           1 :   -315.710394452134
           2 :    285.954904033333
           3 :   -236.252442139040
           4 :    181.536257317554
           5 :   -135.439722148217
           6 :    105.376762777412
           7 :   -91.1259826933871
           8 :    86.9454356068593
           9 :   -85.6011430298227
          10 :    82.0221639146133
          11 :   -74.9081113656503
          12 :    65.9752350925345
          13 :   -57.8508181988929
          14 :    52.1322576218761
          15 :   -48.6833515140024
          16 :    46.2385202094523
          17 :   -43.5755116336827
          18 :    40.3344902741775
          19 :   -37.0161279635056
          20 :    34.3447551098807
          21 :   -32.5903352150796
          22 :    31.3585770692306
          23 :   -29.9407254980666
          24 :    27.8915650126622
          25 :   -25.3801769743127
          26 :    23.0651804816079
          27 :   -21.6129729841030
          28 :    21.2218263325815
          29 :   -21.4901738833083
          30 :    21.7026944863549
          31 :   -31.5753080601178
          32 :   -23.0011599156708

     Forces acting on atoms (Ry/au):

     negative rho (up, down):  2.235E-03 0.000E+00
     atom    1 type  1   force =     0.00000000   -0.00000001   -0.00085624
     atom    2 type  1   force =    -0.00000000   -0.00125955   -0.00030554
     atom    3 type  1   force =    -0.00109079    0.00062978   -0.00030553
     atom    4 type  1   force =     0.00109079    0.00062979   -0.00030552
     atom    5 type  1   force =    -0.00108633    0.00062722    0.00000135
     atom    6 type  1   force =     0.00108634    0.00062723    0.00000135
     atom    7 type  1   force =     0.00000000   -0.00000002    0.00106274
     atom    8 type  1   force =    -0.00000000   -0.00125442    0.00000132
     atom    9 type  1   force =     0.00085120    0.00049147    0.00076009
     atom   10 type  1   force =    -0.00085121    0.00049149    0.00076009
     atom   11 type  1   force =     0.00000001   -0.00098298    0.00076010
     atom   12 type  1   force =    -0.00000001   -0.00000003    0.00019035
     atom   13 type  2   force =     0.00000001    0.00000003   -0.00176457

     Total force =     0.002790     Total SCF correction =     0.001048
     SCF correction compared to forces is large: reduce conv_thr to get better values

     entering subroutine stress ...

     negative rho (up, down):  2.235E-03 0.000E+00
          total   stress  (Ry/bohr**3)                   (kbar)     P=   -5.02
  -0.00004136  -0.00000000  -0.00000000         -6.08     -0.00     -0.00
  -0.00000000  -0.00004136   0.00000000         -0.00     -6.08      0.00
  -0.00000000   0.00000000  -0.00001961         -0.00      0.00     -2.89

     bfgs converged in  14 scf cycles and  13 bfgs steps
     (criteria: energy <  1.0E+00, force <  1.9E-03)

     End of BFGS Geometry Optimization

     Final energy   =   -3571.0871368847 Ry
Begin final coordinates

ATOMIC_POSITIONS (crystal)
Ag1      0.166666667   0.166666667   0.402063960    0   0   0
Ag1      0.666666667   0.166666667   0.402063960    0   0   0
Ag1      0.166666667   0.666666667   0.402063960    0   0   0
Ag1      0.666666667   0.666666667   0.402063960    0   0   0
Ag1      0.833333333   0.333333333   0.500000000    0   0   0
Ag1      0.333333333   0.333333333   0.500000000    0   0   0
Ag1      0.833333333   0.833333333   0.500000000    0   0   0
Ag1      0.333333333   0.833333333   0.500000000    0   0   0
Ag1     -0.006212207  -0.006212264   0.597568194
Ag1      0.512424492  -0.006212269   0.597568193
Ag1     -0.006212213   0.512424428   0.597568196
Ag1      0.500000010   0.500000005   0.598449183
C1       0.166666708   0.166666601   0.640915225
End final coordinates

     Writing output data file calc.save

     General routines

     Parallel routines

   This run was terminated on:  11:40:53   4May2018

   JOB DONE.
Job  /afs/slac/g/suncat/bin/suncat-tsmpirun -x LD_LIBRARY_PATH -wdir /scratch/qe933040_EQ1j0 pw.x -npool 4 -in pw.inp

TID   HOST_NAME   COMMAND_LINE            STATUS            TERMINATION_TIME
00000 suncat0188 pw.x -npool 4 -i  Done                     05/04/2018 11:40:53
00001 suncat0188 pw.x -npool 4 -i  Done                     05/04/2018 11:40:53
00002 suncat0188 pw.x -npool 4 -i  Done                     05/04/2018 11:40:53
00003 suncat0188 pw.x -npool 4 -i  Done                     05/04/2018 11:40:53
00004 suncat0188 pw.x -npool 4 -i  Done                     05/04/2018 11:40:53
00005 suncat0188 pw.x -npool 4 -i  Done                     05/04/2018 11:40:53
00006 suncat0188 pw.x -npool 4 -i  Done                     05/04/2018 11:40:53
00007 suncat0188 pw.x -npool 4 -i  Done                     05/04/2018 11:40:53
00008 suncat0147 pw.x -npool 4 -i  Done                     05/04/2018 11:40:53
00009 suncat0147 pw.x -npool 4 -i  Done                     05/04/2018 11:40:53
00010 suncat0147 pw.x -npool 4 -i  Done                     05/04/2018 11:40:53
00011 suncat0147 pw.x -npool 4 -i  Done                     05/04/2018 11:40:53
00012 suncat0147 pw.x -npool 4 -i  Done                     05/04/2018 11:40:53
00013 suncat0147 pw.x -npool 4 -i  Done                     05/04/2018 11:40:53
00014 suncat0147 pw.x -npool 4 -i  Done                     05/04/2018 11:40:53
00015 suncat0147 pw.x -npool 4 -i  Done                     05/04/2018 11:40:53
00016 suncat0207 pw.x -npool 4 -i  Done                     05/04/2018 11:40:53
00017 suncat0207 pw.x -npool 4 -i  Done                     05/04/2018 11:40:53
00018 suncat0207 pw.x -npool 4 -i  Done                     05/04/2018 11:40:53
00019 suncat0207 pw.x -npool 4 -i  Done                     05/04/2018 11:40:53
00020 suncat0207 pw.x -npool 4 -i  Done                     05/04/2018 11:40:53
00021 suncat0207 pw.x -npool 4 -i  Done                     05/04/2018 11:40:53
00022 suncat0207 pw.x -npool 4 -i  Done                     05/04/2018 11:40:53
00023 suncat0207 pw.x -npool 4 -i  Done                     05/04/2018 11:40:53
00024 suncat0200 pw.x -npool 4 -i  Done                     05/04/2018 11:40:53
00025 suncat0200 pw.x -npool 4 -i  Done                     05/04/2018 11:40:53
00026 suncat0200 pw.x -npool 4 -i  Done                     05/04/2018 11:40:53
00027 suncat0200 pw.x -npool 4 -i  Done                     05/04/2018 11:40:53
00028 suncat0200 pw.x -npool 4 -i  Done                     05/04/2018 11:40:53
00029 suncat0200 pw.x -npool 4 -i  Done                     05/04/2018 11:40:53
00030 suncat0200 pw.x -npool 4 -i  Done                     05/04/2018 11:40:53
00031 suncat0200 pw.x -npool 4 -i  Done                     05/04/2018 11:40:53