     Program PWSCF v.5.1rc2 (svn rev. ) starts on 17Apr2018 at 23:17:24

     Current dimensions of program PWSCF are:
     Max number of different atomic species (ntypx) = 10
     Max number of k-points (npk) =  40000
     Max angular momentum in pseudopotentials (lmaxx) =  3
     Presently stress not available with electric field

     IMPORTANT: XC functional enforced from input :
     Exchange-correlation      = BEEF-VDW ( 1  4 27 13 2)
     Any further DFT definition will be discarded
     Please, verify this is what you really want

     Subspace diagonalization in iterative solution of the eigenvalue problem:
     a serial algorithm will be used

     bravais-lattice index     =            0
     lattice parameter (alat)  =       1.8897  a.u.
     unit-cell volume          =    5409.9593 (a.u.)^3
     number of atoms/cell      =           14
     number of atomic types    =            3
     number of electrons       =       235.00
     number of Kohn-Sham states=          127
     kinetic-energy cutoff     =      36.7493  Ry
     charge density cutoff     =     367.4932  Ry
     convergence threshold     =      1.0E-05
     mixing beta               =       0.3000
     number of iterations used =           10  plain     mixing
     Exchange-correlation      = BEEF-VDW ( 1  4 27 13 2)
     nstep                     =           50

     celldm(1)=   1.889726  celldm(2)=   0.000000  celldm(3)=   0.000000
     celldm(4)=   0.000000  celldm(5)=   0.000000  celldm(6)=   0.000000

     crystal axes: (cart. coord. in units of alat)
               a(1) = (   6.088539   0.000000   0.000000 )
               a(2) = (   3.044269   5.272829   0.000000 )
               a(3) = (   0.000000   0.000000  24.971271 )

     reciprocal axes: (cart. coord. in units 2 pi/alat)
               b(1) = (  0.164243 -0.094826  0.000000 )
               b(2) = (  0.000000  0.189652  0.000000 )
               b(3) = (  0.000000  0.000000  0.040046 )

     PseudoPot. # 1 for Ga read from file:
     /home/mamunm/src/pseudo/gbrv1.5pbe/Ga.UPF
     MD5 check sum: ccd671392a58a050fbb373893b4fcd66
     Pseudo is Ultrasoft + core correction, Zval = 19.0
     Generated by new atomic code, or converted to UPF format
     Using radial grid of  871 points,  6 beta functions with:
                l(1) =   0
                l(2) =   0
                l(3) =   1
                l(4) =   1
                l(5) =   2
                l(6) =   2
     Q(r) pseudized with  8 coefficients,  rinner =    1.250   1.250   1.250
                                                       1.250   1.250

     PseudoPot. # 2 for S  read from file:
     /home/mamunm/src/pseudo/gbrv1.5pbe/S.UPF
     MD5 check sum: 88d86576ff6df21479756cfb9bdac1df
     Pseudo is Ultrasoft + core correction, Zval =  6.0
     Generated by new atomic code, or converted to UPF format
     Using radial grid of  907 points,  6 beta functions with:
                l(1) =   0
                l(2) =   0
                l(3) =   1
                l(4) =   1
                l(5) =   2
                l(6) =   2
     Q(r) pseudized with  8 coefficients,  rinner =    1.300   1.300   1.300
                                                       1.300   1.300

     PseudoPot. # 3 for H  read from file:
     /home/mamunm/src/pseudo/gbrv1.5pbe/H.UPF
     MD5 check sum: 761ae9a214b05c3daf00ab9f6b793d6f
     Pseudo is Ultrasoft, Zval =  1.0
     Generated by new atomic code, or converted to UPF format
     Using radial grid of  615 points,  2 beta functions with:
                l(1) =   0
                l(2) =   0
     Q(r) pseudized with  8 coefficients,  rinner =    0.700

     vdW kernel table read from file vdW_kernel_table
     MD5 check sum: 095c7af220d748ca6e76c0b4c6cfb241

     atomic species   valence    mass     pseudopotential
        Ga1           19.00    69.72300     Ga( 1.00)
        S1             6.00    32.06000     S ( 1.00)
        H1             1.00     1.00800     H ( 1.00)

     No symmetry found

   Cartesian axes

     site n.     atom                  positions (alat units)
         1           Ga1 tau(   1) = (   1.5221346   0.8788048  10.0000000  )
         2           Ga1 tau(   2) = (   4.5664039   0.8788048  10.0000000  )
         3           Ga1 tau(   3) = (   3.0442693   3.5152194  10.0000000  )
         4           Ga1 tau(   4) = (   6.0885386   3.5152194  10.0000000  )
         5           Ga1 tau(   5) = (   6.0885386   1.7576097  12.4856355  )
         6           Ga1 tau(   6) = (   3.0442693   1.7576097  12.4856355  )
         7           Ga1 tau(   7) = (   7.6106732   4.3940242  12.4856355  )
         8           Ga1 tau(   8) = (   4.5664039   4.3940242  12.4856355  )
         9           Ga1 tau(   9) = (   0.0000000   0.0000000  14.9712709  )
        10           Ga1 tau(  10) = (   3.0442693   0.0000000  14.9712709  )
        11           Ga1 tau(  11) = (   1.5221346   2.6364145  14.9712709  )
        12           Ga1 tau(  12) = (   4.5664039   2.6364145  14.9712709  )
        13           S1  tau(  13) = (   1.5221346   0.0000000  16.6737709  )
        14           H1  tau(  14) = (   1.5221346   0.0000000  17.9237709  )

     number of k points=    20  Fermi-Dirac smearing, width (Ry)=  0.0110
                       cart. coord. in units 2pi/alat
        k(    1) = (   0.0000000   0.0000000   0.0000000), wk =   0.0555556
        k(    2) = (   0.0000000   0.0316086   0.0000000), wk =   0.1111111
        k(    3) = (   0.0000000   0.0632172   0.0000000), wk =   0.1111111
        k(    4) = (   0.0000000  -0.0948258   0.0000000), wk =   0.0555556
        k(    5) = (   0.0273738  -0.0158043   0.0000000), wk =   0.1111111
        k(    6) = (   0.0273738   0.0158043   0.0000000), wk =   0.1111111
        k(    7) = (   0.0273738   0.0474129   0.0000000), wk =   0.1111111
        k(    8) = (   0.0273738  -0.1106300   0.0000000), wk =   0.1111111
        k(    9) = (   0.0273738  -0.0790215   0.0000000), wk =   0.1111111
        k(   10) = (   0.0273738  -0.0474129   0.0000000), wk =   0.1111111
        k(   11) = (   0.0547477  -0.0316086   0.0000000), wk =   0.1111111
        k(   12) = (   0.0547477   0.0000000   0.0000000), wk =   0.1111111
        k(   13) = (   0.0547477   0.0316086   0.0000000), wk =   0.1111111
        k(   14) = (   0.0547477  -0.1264343   0.0000000), wk =   0.1111111
        k(   15) = (   0.0547477  -0.0948258   0.0000000), wk =   0.1111111
        k(   16) = (   0.0547477  -0.0632172   0.0000000), wk =   0.1111111
        k(   17) = (  -0.0821215   0.0474129   0.0000000), wk =   0.0555556
        k(   18) = (  -0.0821215   0.0790215   0.0000000), wk =   0.1111111
        k(   19) = (  -0.0821215   0.1106300   0.0000000), wk =   0.1111111
        k(   20) = (  -0.0821215  -0.0474129   0.0000000), wk =   0.0555556

     Largest allocated arrays     est. size (Mb)     dimensions
     Largest temporary arrays     est. size (Mb)     dimensions

     Initial potential from superposition of free atoms
     Check: negative starting charge=   -0.001054

     starting charge  222.99994, renormalised to  235.00000

     negative rho (up, down):  1.111E-03 0.000E+00

     *
     * You are using vdW-DF for exchange-correlation in this calculation.
     * Please cite the following three references that made this development
     * possible:
     *
     *   M. Dion, H. Rydberg, E. Schroder, D. C. Langreth, and
     *   B. I. Lundqvist, Phys. Rev. Lett. 92, 246401 (2004).
     *
     *   T. Thonhauser, V. R. Cooper, S. Li, A. Puzder, P. Hyldgaard, and
     *   D. C. Langreth, Phys. Rev. B 76, 125112 (2007).
     *
     *   G. Roman-Perez and J. M. Soler, Phys. Rev. Lett. 103, 096102 (2009).
     *
     *
     * If you are using vdW-DF2, please also cite:
     *
     *   K. Lee, E. D. Murray, L. Kong, B. I. Lundqvist, and
     *   D. C. Langreth, Phys. Rev. B 82, 081101(R) (2010).
     *
     *
     * If you are calculating the stress with vdW-DF, please also cite:
     *
     *   R. Sabatini, E. Kucukbenli, B. Kolb, T. Thonhauser, and
     *   S. de Gironcoli, J. Phys.: Condens. Matter 24, 424209 (2012).
     *

     Carrying out vdW-DF run using the following parameters:

     Nqs =      20    Nr_points =    1024   r_max =   100.000
     q_mesh =
               0.00001000     0.04494208     0.09755937     0.15916263
               0.23128650     0.31572767     0.41458969     0.53033537
               0.66584808     0.82450364     1.01025438     1.22772762
               1.48234092     1.78043706     2.12944203     2.53805004
               3.01644009     3.57652955     4.23227104     5.00000000

     Gradients computed in reciprocal space

     Adding external electric field

     Computed dipole along edir(3) :
        Dipole               -3.1079 Ry au,         -7.8996 Debye
        Dipole field         -0.0072 Ry au

        Potential amp.        0.6643 Ry
        Total length         46.0091 bohr

     Starting wfc are  149 randomized atomic wfcs

     Self-consistent Calculation

     iteration #  1     ecut=    36.75 Ry     beta=0.30
     Davidson diagonalization with overlap
     ethr =  1.00E-02,  avg # of iterations =  7.0

[...]

     total energy              =   -4666.58727995 Ry
     Harris-Foulkes estimate   =   -5031.95335913 Ry
     estimated scf accuracy    <     770.42828406 Ry

     iteration #  2     ecut=    36.75 Ry     beta=0.30
     Davidson diagonalization with overlap
     c_bands:  4 eigenvalues not converged
     c_bands:  1 eigenvalues not converged
     c_bands:  2 eigenvalues not converged
     c_bands:  4 eigenvalues not converged
     c_bands:  1 eigenvalues not converged
     c_bands:  2 eigenvalues not converged
     c_bands:  1 eigenvalues not converged
     ethr =  1.00E-02,  avg # of iterations = 20.1

[...]

     End of self-consistent calculation

          k = 0.0000 0.0000 0.0000 ( 20347 PWs)   bands (ev):

   -94.3395 -94.3385 -94.3265 -94.3262 -94.3235 -94.3233 -94.1952 -94.1839
   -94.1678 -94.1668 -94.1607 -94.1607 -94.1553 -94.1553 -94.1518 -94.1515
   -94.1466 -94.1433 -94.1388 -94.1387 -94.1384 -94.1371 -94.1251 -94.1250
   -94.1237 -94.1226 -94.1220 -94.1214 -94.1213 -94.1207 -94.1202 -94.1199
   -94.1140 -94.1096 -94.1072 -94.1004 -15.3115 -14.7885 -14.7717 -14.7531
   -14.6990 -14.6933 -14.6829 -14.6742 -14.6523 -14.6377 -14.6342 -14.6338
   -14.6236 -14.5891 -14.5874 -14.5869 -14.5803 -14.5781 -14.5730 -14.5726
   -14.5547 -14.5425 -14.5395 -14.5282 -14.5245 -14.5225 -14.5191 -14.5191
   -14.5128 -14.5059 -14.5032 -14.4956 -14.4671 -14.4658 -14.4553 -14.4490
   -14.4441 -14.4349 -14.4324 -14.4299 -14.4185 -14.4027 -14.3929 -14.3866
   -14.3834 -14.3793 -14.3780 -14.3776 -14.3746 -14.3717 -14.3619 -14.3590
   -14.3512 -14.3490 -14.3412 -14.3401 -14.3350 -14.3320 -14.3269 -14.3256
   -13.9885  -9.6137  -8.5813  -7.0958  -5.3253  -5.2787  -4.4199  -4.3277
    -4.2302  -4.0487  -3.7931  -3.4752  -3.3951  -2.6855  -2.3963  -2.2861
    -2.1226  -1.7258  -1.6869  -1.3082  -0.4553  -0.3132  -0.3058   0.2878
     0.3616   0.4263   1.7482   3.1295   3.3948   3.4831   3.5374

[...]

          k =-0.0821 0.0474 0.0000 ( 20384 PWs)   bands (ev):

[...]

     the Fermi energy is     0.5951 ev

!    total energy              =   -5024.61384503 Ry
     Harris-Foulkes estimate   =   -5024.61382407 Ry
     estimated scf accuracy    <       0.00000944 Ry

     The total energy is the sum of the following terms:

     one-electron contribution =  -27565.41756947 Ry
     hartree contribution      =   13791.61776788 Ry
     xc contribution           =    -606.20891168 Ry
     ewald contribution        =    9355.43113670 Ry
     electric field correction =       0.00010927 Ry
     smearing contrib. (-TS)   =      -0.03637773 Ry

     convergence has been achieved in  19 iterations

 BEEF-vdW xc energy contributions
           1 :   -541.587510348283
           2 :    491.456935838690
           3 :   -407.380402323042
           4 :    313.739611348271
           5 :   -232.160898531581
           6 :    173.455406105938
           7 :   -136.034401040523
           8 :    110.609355704166
           9 :   -87.6365558614170
          10 :    62.8990579040895
          11 :   -38.4092942100224
          12 :    19.0677406365940
          13 :   -8.08438040699752
          14 :    4.45332351211846
          15 :   -3.87215019129587
          16 :    1.93125471948474
          17 :    2.99917382259343
          18 :   -9.20425646455237
          19 :    13.5025132355825
          20 :   -13.9350687519997
          21 :    11.2269898076977
          22 :   -8.08583019097068
          23 :    7.06650425633950
          24 :   -8.71902399627629
          25 :    11.3768736084826
          26 :   -12.6209365585723
          27 :    11.2028089671463
          28 :   -7.95737542274765
          29 :    5.08491673751780
          30 :   -4.44032121940211
          31 :   -40.2959734816402
          32 :   -27.3674278064000

     Forces acting on atoms (Ry/au):

     negative rho (up, down):  8.834E-04 0.000E+00
     atom    1 type  1   force =    -0.00000117    0.00280965    0.00390855
     atom    2 type  1   force =     0.00000526   -0.00042835    0.00583684
     atom    3 type  1   force =    -0.00071082   -0.00165556    0.00316349
     atom    4 type  1   force =     0.00069843   -0.00167689    0.00323380
     atom    5 type  1   force =     0.00085623    0.00269777    0.00147285
     atom    6 type  1   force =    -0.00085382    0.00271344    0.00171935
     atom    7 type  1   force =     0.00000090   -0.00364089   -0.00458680
     atom    8 type  1   force =    -0.00000604   -0.00404281    0.00765932
     atom    9 type  1   force =    -0.06259520    0.00034642   -0.05320385
     atom   10 type  1   force =     0.06261620    0.00034625   -0.05331877
     atom   11 type  1   force =    -0.00000678    0.01380526   -0.01283323
     atom   12 type  1   force =     0.00000126   -0.01368363   -0.01342344
     atom   13 type  2   force =    -0.00000316    0.00201328   -0.02992517
     atom   14 type  3   force =    -0.00000129    0.00039605    0.14029705

     Total force =     0.186597     Total SCF correction =     0.004920

     entering subroutine stress ...

     negative rho (up, down):  8.834E-04 0.000E+00
          total   stress  (Ry/bohr**3)                   (kbar)     P=   -1.30
  -0.00004003  -0.00000000  -0.00000001         -5.89     -0.00     -0.00
  -0.00000000  -0.00007108   0.00000534         -0.00    -10.46      0.79
  -0.00000001   0.00000534   0.00008457         -0.00      0.79     12.44

     BFGS Geometry Optimization

     number of scf cycles    =   1
     number of bfgs steps    =   0

     energy   new            =   -5024.6138450341 Ry

     new trust radius        =       0.1402976061 bohr
     new conv_thr            =       0.0000099958 Ry

ATOMIC_POSITIONS (crystal)
Ga1      0.166666667   0.166666667   0.400460194    0   0   0
Ga1      0.666666667   0.166666667   0.400460194    0   0   0
Ga1      0.166666667   0.666666667   0.400460194    0   0   0
Ga1      0.666666667   0.666666667   0.400460194    0   0   0
Ga1      0.833333333   0.333333333   0.500000000    0   0   0
Ga1      0.333333333   0.333333333   0.500000000    0   0   0
Ga1      0.833333333   0.833333333   0.500000000    0   0   0
Ga1      0.333333333   0.833333333   0.500000000    0   0   0
Ga1     -0.005457762   0.000034766   0.598412340
Ga1      0.505424829   0.000034750   0.598409904
Ga1     -0.000693332   0.501385485   0.599267851
Ga1      0.500686749   0.498626721   0.599255344
S1       0.249898699   0.000202051   0.667083997
H1       0.249980015   0.000039747   0.720748775

     Writing output data file calc.save
     Check: negative starting charge=   -0.001054
     NEW-OLD atomic charge density approx. for the potential
     Check: negative starting charge=   -0.001062

[...]

     energy   old            =   -5024.6138450341 Ry
     energy   new            =   -5024.6376613565 Ry

     CASE: energy  _new < energy  _old

[...]

     WARNING: bfgs curvature condition failed, Theta= 0.778
     new trust radius        =       0.4906957746 bohr
     new conv_thr            =       0.0000001000 Ry

[...]

     CASE: energy  _new > energy  _old

[...]

     Threshold (ethr) on eigenvalues was too large:
     Diagonalizing with lowered threshold

     Davidson diagonalization with overlap
     ethr =  9.48E-08,  avg # of iterations =  1.0

[...]

     Total force =     0.020715     Total SCF correction =     0.002375
     SCF correction compared to forces is large: reduce conv_thr to get better values

[...]

     iteration #  1     ecut=    36.75 Ry     beta=0.30
     Davidson diagonalization with overlap
     c_bands:  1 eigenvalues not converged
     c_bands:  1 eigenvalues not converged
     ethr =  1.00E-06,  avg # of iterations = 12.2

[...]

     WARNING: bfgs curvature condition failed, Theta= 0.922
     new trust radius        =       0.0388614546 bohr
     new conv_thr            =       0.0000001000 Ry

[...]

     Total force =     0.012738     Total SCF correction =     0.000696

[...]

     new trust radius        =       0.1558124176 bohr
     new conv_thr            =       0.0000001000 Ry

ATOMIC_POSITIONS (crystal)
Ga1      0.166666667   0.166666667   0.400460194    0   0   0
Ga1      0.666666667   0.166666667   0.400460194    0   0   0
Ga1      0.166666667   0.666666667   0.400460194    0   0   0
Ga1      0.666666667   0.666666667   0.400460194    0   0   0
Ga1      0.833333333   0.333333333   0.500000000    0   0   0
Ga1      0.333333333   0.333333333   0.500000000    0   0   0
Ga1      0.833333333   0.833333333   0.500000000    0   0   0
Ga1      0.333333333   0.833333333   0.500000000    0   0   0
Ga1      0.000452800   0.003198042   0.609787800
Ga1      0.496377584   0.003283679   0.609790845
Ga1     -0.015768617   0.531292483   0.598102227
Ga1      0.521434000   0.457340057   0.592696067
S1       0.288465194  -0.076969219   0.693862752
H1       0.168192750   0.163641450   0.711650426

     Writing output data file calc.save
     Check: negative starting charge=   -0.001021
     NEW-OLD atomic charge density approx. for the potential
     Check: negative starting charge=   -0.001012

[...]

     Self-consistent Calculation

[...]

     total energy              =   -5024.70595970 Ry
     Harris-Foulkes estimate   =   -5024.70595938 Ry
     estimated scf accuracy    <       0.00000052 Ry

     iteration #  9     ecut=    36.75 Ry     beta=0.30
     Davidson diagonalization with overlap
     ethr =  2.22E-10,  avg # of iterations =  3.2

[...]

     negative rho (up, down):  8.398E-04 0.000E+00

     Adding external electric field

     Computed dipole along edir(3) :
        Dipole               -0.2184 Ry au,         -0.5551 Debye
        Dipole field         -0.0005 Ry au

        Potential amp.        0.0467 Ry
        Total length         46.0091 bohr

     End of self-consistent calculation

[...]

          k = 0.0547-0.0632 0.0000 ( 20377 PWs)   bands (ev):

[...]

          k =-0.0821-0.0474 0.0000 ( 20384 PWs)   bands (ev):

   -94.6594 -94.6467 -94.6466 -94.6347 -94.6347 -94.6310 -94.6300 -94.6268
   -94.6267 -94.6266 -94.6231 -94.6169 -94.6149 -94.6063 -94.6052 -94.5992
   -94.5992 -94.5951 -94.5950 -94.5941 -94.5940 -94.5935 -94.5883 -94.5882
   -94.5862 -94.5818 -94.5772 -94.5768 -94.5767 -94.5761 -94.5760 -94.5670
   -94.5667 -94.5625 -94.5463 -94.5438 -15.0650 -15.0627 -15.0512 -15.0425
   -15.0380 -15.0335 -15.0289 -15.0247 -15.0229 -15.0104 -15.0094 -15.0085
   -15.0032 -15.0023 -14.9990 -14.9937 -14.9930 -14.9899 -14.9828 -14.9805
   -14.9737 -14.9692 -14.9657 -14.9636 -14.9603 -14.9544 -14.9504 -14.9469
   -14.9402 -14.9360 -14.9333 -14.9303 -14.9189 -14.9152 -14.9064 -14.9046
   -14.8992 -14.8943 -14.8887 -14.8862 -14.8813 -14.8782 -14.8727 -14.8697
   -14.8693 -14.8663 -14.8645 -14.8586 -14.8513 -14.8465 -14.8418 -14.8354
   -14.8337 -14.8306 -14.8213 -14.8149 -14.8076 -14.8058 -14.7991 -14.7883
   -13.3430  -8.6122  -8.4931  -7.2442  -7.0933  -6.0806  -5.7930  -5.6090
    -5.2329  -4.9057  -4.6022  -4.1531  -2.9913  -2.9136  -2.0052  -1.7700
    -0.6079  -0.4765  -0.3236  -0.0779   0.0606   0.2370   1.1519   1.1819
     1.2759   1.3806   2.2120   2.3128   2.3543   2.6563   2.7661

     the Fermi energy is     0.1366 ev

!    total energy              =   -5024.70595986 Ry
     Harris-Foulkes estimate   =   -5024.70596029 Ry
     estimated scf accuracy    <       0.00000006 Ry

     The total energy is the sum of the following terms:

     one-electron contribution =  -27086.02515782 Ry
     hartree contribution      =   13549.26884640 Ry
     xc contribution           =    -605.94625180 Ry
     ewald contribution        =    9118.03216292 Ry
     electric field correction =       0.00011077 Ry
     smearing contrib. (-TS)   =      -0.03567033 Ry

     convergence has been achieved in   9 iterations

 BEEF-vdW xc energy contributions
           1 :   -541.316296452981
           2 :    491.062316368862
           3 :   -406.856864714974
           4 :    313.196827070375
           5 :   -231.734210374873
           6 :    173.219947250555
           7 :   -135.970532122116
           8 :    110.629893213442
           9 :   -87.6497778197585
          10 :    62.8636855637594
          11 :   -38.3480530652616
          12 :    19.0349945995746
          13 :   -8.11444510129547
          14 :    4.53074042677270
          15 :   -3.94617215682786
          16 :    1.95943965349227
          17 :    3.01725113672694
          18 :   -9.23011582664492
          19 :    13.4936443932414
          20 :   -13.8816026541137
          21 :    11.1596797304513
          22 :   -8.04839324797820
          23 :    7.07623817332126
          24 :   -8.75025257340860
          25 :    11.3832892841082
          26 :   -12.5797166143713
          27 :    11.1426240350437
          28 :   -7.94240539016300
          29 :    5.16202886000372
          30 :   -4.58863374544524
          31 :   -40.2748114119028
          32 :   -27.3155857375061

     Forces acting on atoms (Ry/au):

     negative rho (up, down):  8.398E-04 0.000E+00
     atom    1 type  1   force =    -0.00000364    0.00459454    0.00079698
     atom    2 type  1   force =     0.00000404   -0.00043257    0.00148084
     atom    3 type  1   force =    -0.00120545   -0.00181597   -0.00035499
     atom    4 type  1   force =     0.00120153   -0.00181192   -0.00035496
     atom    5 type  1   force =     0.00332789   -0.00167656   -0.00328802
     atom    6 type  1   force =    -0.00331948   -0.00167114   -0.00324598
     atom    7 type  1   force =    -0.00000270   -0.00187306   -0.00277540
     atom    8 type  1   force =     0.00000127    0.00336584    0.00955892
     atom    9 type  1   force =     0.00059209   -0.00473026   -0.00109297
     atom   10 type  1   force =    -0.00060016   -0.00469621   -0.00109386
     atom   11 type  1   force =     0.00004377   -0.00038901   -0.00388169
     atom   12 type  1   force =    -0.00004590    0.00539923    0.00379068
     atom   13 type  2   force =     0.00001561   -0.00040195   -0.00277541
     atom   14 type  3   force =    -0.00000887    0.00613903    0.00323586

     Total force =     0.012740     Total SCF correction =     0.001539
     SCF correction compared to forces is large: reduce conv_thr to get better values

     entering subroutine stress ...

     negative rho (up, down):  8.398E-04 0.000E+00
          total   stress  (Ry/bohr**3)                   (kbar)     P=   -5.67
  -0.00005896  -0.00000001   0.00000000         -8.67     -0.00      0.00
  -0.00000001  -0.00005083   0.00000493         -0.00     -7.48      0.72
   0.00000000   0.00000493  -0.00000574          0.00      0.72     -0.84

     number of scf cycles    =  50
     number of bfgs steps    =  48

     energy   old            =   -5024.7053306899 Ry
     energy   new            =   -5024.7059598614 Ry

     CASE: energy  _new < energy  _old

     new trust radius        =       0.1086288073 bohr

     The maximum number of steps has been reached.

     End of BFGS Geometry Optimization
Begin final coordinates

ATOMIC_POSITIONS (crystal)
Ga1      0.166666667   0.166666667   0.400460194    0   0   0
Ga1      0.666666667   0.166666667   0.400460194    0   0   0
Ga1      0.166666667   0.666666667   0.400460194    0   0   0
Ga1      0.666666667   0.666666667   0.400460194    0   0   0
Ga1      0.833333333   0.333333333   0.500000000    0   0   0
Ga1      0.333333333   0.333333333   0.500000000    0   0   0
Ga1      0.833333333   0.833333333   0.500000000    0   0   0
Ga1      0.333333333   0.833333333   0.500000000    0   0   0
Ga1      0.000891721   0.000589012   0.611031594
Ga1      0.498561762   0.000674795   0.611027588
Ga1     -0.014644512   0.529036647   0.598765362
Ga1      0.520511723   0.459181790   0.592795815
S1       0.285731461  -0.071529743   0.695857738
H1       0.164852854   0.170335147   0.712782028
End final coordinates

     Writing output data file calc.save

     General routines

     Parallel routines

   This run was terminated on:   3: 7:52  18Apr2018

   JOB DONE.