     Program PWSCF v.5.1rc2 (svn rev. 11289) starts on 19Jan2018 at 18: 8: 0

     Current dimensions of program PWSCF are:
     Max number of different atomic species (ntypx) = 10
     Max number of k-points (npk) =  40000
     Max angular momentum in pseudopotentials (lmaxx) =  3
     Presently stress not available with electric field

     IMPORTANT: XC functional enforced from input :
     Exchange-correlation      = BEEF-VDW ( 1  4 27 13 2)
     Any further DFT definition will be discarded
     Please, verify this is what you really want

     Subspace diagonalization in iterative solution of the eigenvalue problem:
     a serial algorithm will be used

     bravais-lattice index     =            0
     lattice parameter (alat)  =       1.8897  a.u.
     unit-cell volume          =    7171.5276 (a.u.)^3
     number of atoms/cell      =           13
     number of atomic types    =            2
     number of electrons       =       174.00
     number of Kohn-Sham states=           97
     kinetic-energy cutoff     =      36.7493  Ry
     charge density cutoff     =     367.4932  Ry
     convergence threshold     =      1.0E-05
     mixing beta               =       0.3000
     number of iterations used =           10  plain     mixing
     Exchange-correlation      = BEEF-VDW ( 1  4 27 13 2)
     nstep                     =           50

     celldm(1)=   1.889726  celldm(2)=   0.000000  celldm(3)=   0.000000
     celldm(4)=   0.000000  celldm(5)=   0.000000  celldm(6)=   0.000000

     crystal axes: (cart. coord. in units of alat)
               a(1) = (   6.917003   0.000000   0.000000 )
               a(2) = (   3.458501   5.990300   0.000000 )
               a(3) = (   0.000000   0.000000  25.647709 )

     reciprocal axes: (cart. coord. in units 2 pi/alat)
               b(1) = (  0.144571 -0.083468  0.000000 )
               b(2) = (  0.000000  0.166937  0.000000 )
               b(3) = (  0.000000  0.000000  0.038990 )

     PseudoPot. # 1 for Pb read from file:
     /afs/slac.stanford.edu/u/if/mamunm/psp/gbrv1.5pbe/Pb.UPF
     MD5 check sum: 3d1c1779aa92214d1e8f3a7db79003e2
     Pseudo is Ultrasoft + core correction, Zval = 14.0
     Generated by new atomic code, or converted to UPF format
     Using radial grid of  899 points,  6 beta functions with:
                l(1) =   0
                l(2) =   0
                l(3) =   1
                l(4) =   1
                l(5) =   2
                l(6) =   2
     Q(r) pseudized with  6 coefficients,  rinner =    1.000   1.000   1.000
                                                       1.000   1.000

     PseudoPot. # 2 for O  read from file:
     /afs/slac.stanford.edu/u/if/mamunm/psp/gbrv1.5pbe/O.UPF
     MD5 check sum: 734c27235a0248c51dbae37a1fbe46ec
     Pseudo is Ultrasoft + core correction, Zval =  6.0
     Generated by new atomic code, or converted to UPF format
     Using radial grid of  737 points,  5 beta functions with:
                l(1) =   0
                l(2) =   0
                l(3) =   1
                l(4) =   1
                l(5) =   2
     Q(r) pseudized with  8 coefficients,  rinner =    0.900   0.900   0.900
                                                       0.900   0.900

     vdW kernel table read from file vdW_kernel_table
     MD5 check sum: 095c7af220d748ca6e76c0b4c6cfb241

     atomic species   valence    mass     pseudopotential
        Pb1           14.00   207.20000     Pb( 1.00)
        O1             6.00    15.99900     O ( 1.00)

     No symmetry found

   Cartesian axes

     site n.     atom                  positions (alat units)
         1           Pb1 tau(   1) = (   1.7292506   0.9983833  10.0000000  )
         2           Pb1 tau(   2) = (   5.1877519   0.9983833  10.0000000  )
         3           Pb1 tau(   3) = (   3.4585013   3.9935333  10.0000000  )
         4           Pb1 tau(   4) = (   6.9170025   3.9935333  10.0000000  )
         5           Pb1 tau(   5) = (   6.9170025   1.9967666  12.8238544  )
         6           Pb1 tau(   6) = (   3.4585013   1.9967666  12.8238544  )
         7           Pb1 tau(   7) = (   8.6462531   4.9919166  12.8238544  )
         8           Pb1 tau(   8) = (   5.1877519   4.9919166  12.8238544  )
         9           Pb1 tau(   9) = (  10.3607690   5.9818107  16.0188792  )
        10           Pb1 tau(  10) = (   6.9316172   5.9818588  16.0189444  )
        11           Pb1 tau(  11) = (   8.6463893   3.0121016  16.0187985  )
        12           Pb1 tau(  12) = (   5.1877749   2.9951207  15.7275928  )
        13           O1  tau(  13) = (   1.7292146   0.9984924  17.0954166  )

     number of k points=    20  Fermi-Dirac smearing, width (Ry)=  0.0110
                       cart. coord. in units 2pi/alat
        k(    1) = (   0.0000000   0.0000000   0.0000000), wk =   0.0555556
        k(    2) = (   0.0000000   0.0278228   0.0000000), wk =   0.1111111
        k(    3) = (   0.0000000   0.0556455   0.0000000), wk =   0.1111111
        k(    4) = (   0.0000000  -0.0834683   0.0000000), wk =   0.0555556
        k(    5) = (   0.0240952  -0.0139114   0.0000000), wk =   0.1111111
        k(    6) = (   0.0240952   0.0139114   0.0000000), wk =   0.1111111
        k(    7) = (   0.0240952   0.0417341   0.0000000), wk =   0.1111111
        k(    8) = (   0.0240952  -0.0973797   0.0000000), wk =   0.1111111
        k(    9) = (   0.0240952  -0.0695569   0.0000000), wk =   0.1111111
        k(   10) = (   0.0240952  -0.0417341   0.0000000), wk =   0.1111111
        k(   11) = (   0.0481904  -0.0278228   0.0000000), wk =   0.1111111
        k(   12) = (   0.0481904   0.0000000   0.0000000), wk =   0.1111111
        k(   13) = (   0.0481904   0.0278228   0.0000000), wk =   0.1111111
        k(   14) = (   0.0481904  -0.1112910   0.0000000), wk =   0.1111111
        k(   15) = (   0.0481904  -0.0834683   0.0000000), wk =   0.1111111
        k(   16) = (   0.0481904  -0.0556455   0.0000000), wk =   0.1111111
        k(   17) = (  -0.0722856   0.0417341   0.0000000), wk =   0.0555556
        k(   18) = (  -0.0722856   0.0695569   0.0000000), wk =   0.1111111
        k(   19) = (  -0.0722856   0.0973797   0.0000000), wk =   0.1111111
        k(   20) = (  -0.0722856  -0.0417341   0.0000000), wk =   0.0555556

     Largest allocated arrays     est. size (Mb)     dimensions
     Largest temporary arrays     est. size (Mb)     dimensions

     Check: negative/imaginary core charge=   -0.000001    0.000000

     Initial potential from superposition of free atoms
     Check: negative starting charge=   -0.196199

     starting charge  173.97178, renormalised to  174.00000

     negative rho (up, down):  1.962E-01 0.000E+00

     *
     * You are using vdW-DF for exchange-correlation in this calculation.
     * Please cite the following three references that made this development
     * possible:
     *
     *   M. Dion, H. Rydberg, E. Schroder, D. C. Langreth, and
     *   B. I. Lundqvist, Phys. Rev. Lett. 92, 246401 (2004).
     *
     *   T. Thonhauser, V. R. Cooper, S. Li, A. Puzder, P. Hyldgaard, and
     *   D. C. Langreth, Phys. Rev. B 76, 125112 (2007).
     *
     *   G. Roman-Perez and J. M. Soler, Phys. Rev. Lett. 103, 096102 (2009).
     *
     *
     * If you are using vdW-DF2, please also cite:
     *
     *   K. Lee, E. D. Murray, L. Kong, B. I. Lundqvist, and
     *   D. C. Langreth, Phys. Rev. B 82, 081101(R) (2010).
     *
     *
     * If you are calculating the stress with vdW-DF, please also cite:
     *
     *   R. Sabatini, E. Kucukbenli, B. Kolb, T. Thonhauser, and
     *   S. de Gironcoli, J. Phys.: Condens. Matter 24, 424209 (2012).
     *

     Carrying out vdW-DF run using the following parameters:

     Nqs =      20    Nr_points =    1024   r_max =   100.000
     q_mesh =
               0.00001000     0.04494208     0.09755937     0.15916263
               0.23128650     0.31572767     0.41458969     0.53033537
               0.66584808     0.82450364     1.01025438     1.22772762
               1.48234092     1.78043706     2.12944203     2.53805004
               3.01644009     3.57652955     4.23227104     5.00000000

     Gradients computed in reciprocal space

     Adding external electric field

     Computed dipole along edir(3) :
        Dipole               -0.0077 Ry au,         -0.0195 Debye
        Dipole field         -0.0000 Ry au

        Potential amp.        0.0013 Ry
        Total length         47.2555 bohr

     Starting wfc are  112 randomized atomic wfcs

     Self-consistent Calculation

     iteration #  1     ecut=    36.75 Ry     beta=0.30
     Davidson diagonalization with overlap
     ethr =  1.00E-02,  avg # of iterations =  2.2

     Threshold (ethr) on eigenvalues was too large:
     Diagonalizing with lowered threshold

     Davidson diagonalization with overlap
     ethr =  7.79E-04,  avg # of iterations =  1.8

[...]

     total energy              =   -2024.40201914 Ry
     Harris-Foulkes estimate   =   -2025.01755269 Ry
     estimated scf accuracy    <       1.34624661 Ry

[...]

     End of self-consistent calculation

          k = 0.0000 0.0000 0.0000 ( 27033 PWs)   bands (ev):

   -17.8372 -16.5465 -16.5465 -16.5184 -16.5137 -16.5137 -16.5136 -16.4767
   -16.4416 -16.4416 -16.4330 -16.4330 -16.4313 -16.4298 -16.4109 -16.4109
   -16.4073 -16.4026 -16.4026 -16.3941 -16.3941 -16.3627 -16.3612 -16.3502
   -16.3502 -16.3469 -16.3469 -16.3436 -16.3313 -16.3313 -16.3111 -16.3082
   -16.3082 -16.2692 -16.2692 -16.2427 -16.2427 -16.2117 -16.2117 -16.2010
   -16.1948 -16.1742 -16.1742 -16.1543 -16.1485 -16.1485 -16.1475 -16.1343
   -16.1308 -16.1308 -16.1234 -16.1234 -16.1123 -16.1123 -16.1104 -16.0867
   -16.0867 -16.0637 -16.0637 -16.0588 -15.4603 -10.2640  -9.0495  -7.9242
    -6.9257  -6.9257  -6.8456  -6.7057  -6.7057  -6.3724  -6.0132  -6.0132
    -5.7972  -2.8345  -2.8344  -2.8320  -2.2468  -2.0689  -2.0688  -1.9550
    -1.5953  -1.5953  -1.5483  -0.8161  -0.8160   0.4567   0.8708   2.1472
     2.1678   2.1678   2.6128   2.6880   2.6881   3.1505   3.8660   3.8873
     3.8873

[...]

          k =-0.0723 0.0417 0.0000 ( 26962 PWs)   bands (ev):

[...]

     the Fermi energy is     1.0714 ev

!    total energy              =   -2024.75444647 Ry
     Harris-Foulkes estimate   =   -2024.75447048 Ry
     estimated scf accuracy    <       0.00000751 Ry

     The total energy is the sum of the following terms:

     one-electron contribution =   -9363.10983105 Ry
     hartree contribution      =    4753.68158034 Ry
     xc contribution           =    -791.35678694 Ry
     ewald contribution        =    3376.07608223 Ry
     electric field correction =       0.00005842 Ry
     smearing contrib. (-TS)   =      -0.04554947 Ry

     convergence has been achieved in  10 iterations

 BEEF-vdW xc energy contributions
           1 :   -705.203817090123
           2 :    654.683391136539
           3 :   -565.854059589376
           4 :    458.339225244349
           5 :   -352.257729865837
           6 :    262.178339896647
           7 :   -194.015812074130
           8 :    145.559601351048
           9 :   -109.873942763157
          10 :    79.7163923162252
[...]

[...]

   This run was terminated on:  23:20: 0  19Jan2018

[...]

   This run was terminated on:   0: 2:16  20Jan2018

[...]

     Program PWSCF v.5.1rc2 (svn rev. 11289) starts on 20Jan2018 at  0: 2:22

[...]

     Program PWSCF v.5.1rc2 (svn rev. 11289) starts on 20Jan2018 at  0:31: 3

[...]

     Program PWSCF v.5.1rc2 (svn rev. 11289) starts on 20Jan2018 at  1:56:33

     Current dimensions of program PWSCF are:
     Max number of different atomic species (ntypx) = 10
     Max number of k-points (npk) =  40000
     Max angular momentum in pseudopotentials (lmaxx) =  3
     Presently stress not available with electric field

     IMPORTANT: XC functional enforced from input :
     Exchange-correlation      = BEEF-VDW ( 1  4 27 13 2)
     Any further DFT definition will be discarded
     Please, verify this is what you really want

     Subspace diagonalization in iterative solution of the eigenvalue problem:
     a serial algorithm will be used

     bravais-lattice index     =            0
     lattice parameter (alat)  =       1.8897  a.u.
     unit-cell volume          =    7171.5276 (a.u.)^3
     number of atoms/cell      =           13
     number of atomic types    =            2
     number of electrons       =       174.00
     number of Kohn-Sham states=           97
     kinetic-energy cutoff     =      36.7493  Ry
     charge density cutoff     =     367.4932  Ry
     convergence threshold     =      1.0E-05
     mixing beta               =       0.3000
     number of iterations used =           10  plain     mixing
     Exchange-correlation      = BEEF-VDW ( 1  4 27 13 2)
     nstep                     =           50

     celldm(1)=   1.889726  celldm(2)=   0.000000  celldm(3)=   0.000000
     celldm(4)=   0.000000  celldm(5)=   0.000000  celldm(6)=   0.000000

     crystal axes: (cart. coord. in units of alat)
               a(1) = (   6.917003   0.000000   0.000000 )
               a(2) = (   3.458501   5.990300   0.000000 )
               a(3) = (   0.000000   0.000000  25.647709 )

     reciprocal axes: (cart. coord. in units 2 pi/alat)
               b(1) = (  0.144571 -0.083468  0.000000 )
               b(2) = (  0.000000  0.166937  0.000000 )
               b(3) = (  0.000000  0.000000  0.038990 )

     PseudoPot. # 1 for Pb read from file:
     /afs/slac.stanford.edu/u/if/mamunm/psp/gbrv1.5pbe/Pb.UPF
     MD5 check sum: 3d1c1779aa92214d1e8f3a7db79003e2
     Pseudo is Ultrasoft + core correction, Zval = 14.0
     Generated by new atomic code, or converted to UPF format
     Using radial grid of  899 points,  6 beta functions with:
                l(1) =   0
                l(2) =   0
                l(3) =   1
                l(4) =   1
                l(5) =   2
                l(6) =   2
     Q(r) pseudized with  6 coefficients,  rinner =    1.000   1.000   1.000
                                                       1.000   1.000

     PseudoPot. # 2 for O  read from file:
     /afs/slac.stanford.edu/u/if/mamunm/psp/gbrv1.5pbe/O.UPF
     MD5 check sum: 734c27235a0248c51dbae37a1fbe46ec
     Pseudo is Ultrasoft + core correction, Zval =  6.0
     Generated by new atomic code, or converted to UPF format
     Using radial grid of  737 points,  5 beta functions with:
                l(1) =   0
                l(2) =   0
                l(3) =   1
                l(4) =   1
                l(5) =   2
     Q(r) pseudized with  8 coefficients,  rinner =    0.900   0.900   0.900
                                                       0.900   0.900

     vdW kernel table read from file vdW_kernel_table
     MD5 check sum: 095c7af220d748ca6e76c0b4c6cfb241

     atomic species   valence    mass     pseudopotential
        Pb1           14.00   207.20000     Pb( 1.00)
        O1             6.00    15.99900     O ( 1.00)

     No symmetry found

   Cartesian axes

     site n.     atom                  positions (alat units)
         1           Pb1 tau(   1) = (   1.7292506   0.9983833  10.0000000  )
         2           Pb1 tau(   2) = (   5.1877519   0.9983833  10.0000000  )
         3           Pb1 tau(   3) = (   3.4585013   3.9935333  10.0000000  )
         4           Pb1 tau(   4) = (   6.9170025   3.9935333  10.0000000  )
         5           Pb1 tau(   5) = (   6.9170025   1.9967666  12.8238544  )
         6           Pb1 tau(   6) = (   3.4585013   1.9967666  12.8238544  )
         7           Pb1 tau(   7) = (   8.6462531   4.9919166  12.8238544  )
         8           Pb1 tau(   8) = (   5.1877519   4.9919166  12.8238544  )
         9           Pb1 tau(   9) = (  10.3603300   5.9812826  16.0238081  )
        10           Pb1 tau(  10) = (   6.9320749   5.9815506  16.0239645  )
        11           Pb1 tau(  11) = (   8.6463685   3.0127026  16.0236963  )
        12           Pb1 tau(  12) = (   5.1878501   2.9952318  15.7429645  )
        13           O1  tau(  13) = (   1.7292232   0.9984176  17.0908925  )

     number of k points=    20  Fermi-Dirac smearing, width (Ry)=  0.0110
                       cart. coord. in units 2pi/alat
        k(    1) = (   0.0000000   0.0000000   0.0000000), wk =   0.0555556
        k(    2) = (   0.0000000   0.0278228   0.0000000), wk =   0.1111111
        k(    3) = (   0.0000000   0.0556455   0.0000000), wk =   0.1111111
        k(    4) = (   0.0000000  -0.0834683   0.0000000), wk =   0.0555556
        k(    5) = (   0.0240952  -0.0139114   0.0000000), wk =   0.1111111
        k(    6) = (   0.0240952   0.0139114   0.0000000), wk =   0.1111111
        k(    7) = (   0.0240952   0.0417341   0.0000000), wk =   0.1111111
        k(    8) = (   0.0240952  -0.0973797   0.0000000), wk =   0.1111111
        k(    9) = (   0.0240952  -0.0695569   0.0000000), wk =   0.1111111
        k(   10) = (   0.0240952  -0.0417341   0.0000000), wk =   0.1111111
        k(   11) = (   0.0481904  -0.0278228   0.0000000), wk =   0.1111111
        k(   12) = (   0.0481904   0.0000000   0.0000000), wk =   0.1111111
        k(   13) = (   0.0481904   0.0278228   0.0000000), wk =   0.1111111
        k(   14) = (   0.0481904  -0.1112910   0.0000000), wk =   0.1111111
        k(   15) = (   0.0481904  -0.0834683   0.0000000), wk =   0.1111111
        k(   16) = (   0.0481904  -0.0556455   0.0000000), wk =   0.1111111
        k(   17) = (  -0.0722856   0.0417341   0.0000000), wk =   0.0555556
        k(   18) = (  -0.0722856   0.0695569   0.0000000), wk =   0.1111111
        k(   19) = (  -0.0722856   0.0973797   0.0000000), wk =   0.1111111
        k(   20) = (  -0.0722856  -0.0417341   0.0000000), wk =   0.0555556

     Largest allocated arrays     est. size (Mb)     dimensions
     Largest temporary arrays     est. size (Mb)     dimensions

     Check: negative/imaginary core charge=   -0.000001    0.000000

     Initial potential from superposition of free atoms
     Check: negative starting charge=   -0.195824

     starting charge  173.97178, renormalised to  174.00000

[...]

     *
     * You are using vdW-DF for exchange-correlation in this calculation.
     * Please cite the following three references that made this development
     * possible:
     *
     *   M. Dion, H. Rydberg, E. Schroder, D. C. Langreth, and
     *   B. I. Lundqvist, Phys. Rev. Lett. 92, 246401 (2004).
     *
     *   T. Thonhauser, V. R. Cooper, S. Li, A. Puzder, P. Hyldgaard, and
     *   D. C. Langreth, Phys. Rev. B 76, 125112 (2007).
     *
     *   G. Roman-Perez and J. M. Soler, Phys. Rev. Lett. 103, 096102 (2009).
     *
     *
     * If you are using vdW-DF2, please also cite:
     *
     *   K. Lee, E. D. Murray, L. Kong, B. I. Lundqvist, and
     *   D. C. Langreth, Phys. Rev. B 82, 081101(R) (2010).
     *
     *
     * If you are calculating the stress with vdW-DF, please also cite:
     *
     *   R. Sabatini, E. Kucukbenli, B. Kolb, T. Thonhauser, and
     *   S. de Gironcoli, J. Phys.: Condens. Matter 24, 424209 (2012).
     *

     Carrying out vdW-DF run using the following parameters:

     Nqs =      20    Nr_points =    1024   r_max =   100.000
     q_mesh =
               0.00001000     0.04494208     0.09755937     0.15916263
               0.23128650     0.31572767     0.41458969     0.53033537
               0.66584808     0.82450364     1.01025438     1.22772762
               1.48234092     1.78043706     2.12944203     2.53805004
               3.01644009     3.57652955     4.23227104     5.00000000

     Gradients computed in reciprocal space

[...]

     Starting wfc are  112 randomized atomic wfcs

     Self-consistent Calculation

[...]

     Threshold (ethr) on eigenvalues was too large:
     Diagonalizing with lowered threshold

     Davidson diagonalization with overlap
     ethr =  7.74E-04,  avg # of iterations =  1.8

[...]

     total energy              =   -2024.75444978 Ry
     Harris-Foulkes estimate   =   -2024.75446791 Ry
     estimated scf accuracy    <       0.00005381 Ry

     iteration # 10     ecut=    36.75 Ry     beta=0.30
     Davidson diagonalization with overlap
     ethr =  3.09E-08,  avg # of iterations =  4.8

[...]

     negative rho (up, down):  2.111E-01 0.000E+00

     Adding external electric field

     Computed dipole along edir(3) :
        Dipole               -0.1725 Ry au,         -0.4384 Debye
        Dipole field         -0.0003 Ry au

        Potential amp.        0.0286 Ry
        Total length         47.2555 bohr

     End of self-consistent calculation

[...]

          k = 0.0482-0.0556 0.0000 ( 26956 PWs)   bands (ev):

[...]

          k =-0.0723-0.0417 0.0000 ( 26962 PWs)   bands (ev):

   -17.8299 -16.5168 -16.4673 -16.4577 -16.4508 -16.4460 -16.4304 -16.4239
   -16.4063 -16.4032 -16.3947 -16.3941 -16.3914 -16.3905 -16.3888 -16.3832
   -16.3769 -16.3742 -16.3709 -16.3704 -16.3618 -16.3566 -16.3460 -16.3408
   -16.3316 -16.3295 -16.3264 -16.3231 -16.3217 -16.3078 -16.2943 -16.2898
   -16.2808 -16.2786 -16.2649 -16.2563 -16.2518 -16.2489 -16.2395 -16.2346
   -16.2301 -16.2173 -16.2101 -16.1972 -16.1953 -16.1882 -16.1830 -16.1803
   -16.1800 -16.1721 -16.1691 -16.1670 -16.1576 -16.1462 -16.1402 -16.1362
   -16.1278 -16.1139 -16.0787 -16.0769 -15.4049  -9.2331  -9.1489  -8.3859
    -7.9456  -7.3007  -7.2676  -7.1771  -6.9530  -6.8692  -6.3954  -5.9254
    -5.7976  -2.8668  -2.0335  -1.8266  -0.9207  -0.8614  -0.8160  -0.8126
    -0.6232  -0.5288  -0.1189   0.6502   0.6819   0.8210   1.0062   1.1541
     1.7101   1.8678   2.0248   2.0396   2.1897   2.3982   2.4046   2.4831
     2.9913

     the Fermi energy is     1.0762 ev

!    total energy              =   -2024.75446772 Ry
     Harris-Foulkes estimate   =   -2024.75449545 Ry
     estimated scf accuracy    <       0.00000925 Ry

     The total energy is the sum of the following terms:

     one-electron contribution =   -9354.84502310 Ry
     hartree contribution      =    4749.56453206 Ry
     xc contribution           =    -791.35611783 Ry
     ewald contribution        =    3371.92761521 Ry
     electric field correction =       0.00005212 Ry
     smearing contrib. (-TS)   =      -0.04552617 Ry

     convergence has been achieved in  10 iterations

 BEEF-vdW xc energy contributions
           1 :   -705.203107611038
           2 :    654.681245646040
           3 :   -565.849582378402
           4 :    458.333228020490
           5 :   -352.252832828140
           6 :    262.177185378393
           7 :   -194.018886515276
           8 :    145.564538373215
           9 :   -109.876908043391
          10 :    79.7146130263781
          11 :   -50.9190733406383
          12 :    23.4639052111180
          13 :  -0.158906669010889
          14 :   -15.8749778187697
          15 :    23.4237455877186
          16 :   -23.9860590483814
          17 :    20.9692858407416
          18 :   -17.9384094675898
          19 :    16.9742483218334
          20 :   -18.0106233742707
          21 :    19.3915992026654
          22 :   -19.2033042522444
          23 :    16.5564883938711
          24 :   -12.1142498113146
          25 :    7.64941070935299
          26 :   -4.97973291971539
          27 :    4.93915947495509
          28 :   -6.96482119457039
          29 :    9.48910720227320
          30 :   -10.8642640542096
          31 :   -56.5429446412121
          32 :   -41.3813940782156

     Forces acting on atoms (Ry/au):

     negative rho (up, down):  2.111E-01 0.000E+00
     atom    1 type  1   force =    -0.00003184   -0.00001466   -0.01079309
     atom    2 type  1   force =     0.00003694   -0.00313872   -0.00953384
     atom    3 type  1   force =    -0.00273032    0.00155809   -0.00956880
     atom    4 type  1   force =     0.00274310    0.00158296   -0.00955413
     atom    5 type  1   force =     0.00186141   -0.00108062    0.01199500
     atom    6 type  1   force =    -0.00190605   -0.00110629    0.01204240
     atom    7 type  1   force =     0.00001286    0.00002740    0.00100697
     atom    8 type  1   force =    -0.00004039    0.00220572    0.01201170
     atom    9 type  1   force =    -0.00099322   -0.00057044    0.00007001
     atom   10 type  1   force =     0.00108068   -0.00061021    0.00007105
     atom   11 type  1   force =    -0.00001934    0.00115107    0.00008814
     atom   12 type  1   force =     0.00000930   -0.00001235    0.00163590
     atom   13 type  2   force =    -0.00002314    0.00000805    0.00052869

     Total force =     0.029592     Total SCF correction =     0.012299
     SCF correction compared to forces is large: reduce conv_thr to get better values

     entering subroutine stress ...

     negative rho (up, down):  2.111E-01 0.000E+00
          total   stress  (Ry/bohr**3)                   (kbar)     P=    8.32
   0.00007112  -0.00000001  -0.00000001         10.46     -0.00     -0.00
  -0.00000001   0.00007112   0.00000000         -0.00     10.46      0.00
  -0.00000001   0.00000000   0.00002744         -0.00      0.00      4.04

 !ASE

     Writing output data file calc.save

     General routines

     Parallel routines

   This run was terminated on:   2:10:57  20Jan2018

   JOB DONE.
Job  /afs/slac/g/suncat/bin/suncat-tsmpirun -x LD_LIBRARY_PATH -wdir /scratch/qe864359_6JleX pw.x -in pw.inp

TID   HOST_NAME   COMMAND_LINE            STATUS            TERMINATION_TIME
00000 suncat1043 pw.x -in pw.inp   Done                     01/20/2018 02:10:57
00001 suncat1043 pw.x -in pw.inp   Done                     01/20/2018 02:10:57
00002 suncat1043 pw.x -in pw.inp   Done                     01/20/2018 02:10:57
00003 suncat1043 pw.x -in pw.inp   Done                     01/20/2018 02:10:57
00004 suncat1043 pw.x -in pw.inp   Done                     01/20/2018 02:10:57
00005 suncat1043 pw.x -in pw.inp   Done                     01/20/2018 02:10:57
00006 suncat1043 pw.x -in pw.inp   Done                     01/20/2018 02:10:57
00007 suncat1043 pw.x -in pw.inp   Done                     01/20/2018 02:10:57
00008 suncat1041 pw.x -in pw.inp   Done                     01/20/2018 02:10:57
00009 suncat1041 pw.x -in pw.inp   Done                     01/20/2018 02:10:57
00010 suncat1041 pw.x -in pw.inp   Done                     01/20/2018 02:10:57
00011 suncat1041 pw.x -in pw.inp   Done                     01/20/2018 02:10:57
00012 suncat1041 pw.x -in pw.inp   Done                     01/20/2018 02:10:57
00013 suncat1041 pw.x -in pw.inp   Done                     01/20/2018 02:10:57
00014 suncat1041 pw.x -in pw.inp   Done                     01/20/2018 02:10:57
00015 suncat1041 pw.x -in pw.inp   Done                     01/20/2018 02:10:57
00016 suncat1041 pw.x -in pw.inp   Done                     01/20/2018 02:10:57
00017 suncat1041 pw.x -in pw.inp   Done                     01/20/2018 02:10:57
00018 suncat1041 pw.x -in pw.inp   Done                     01/20/2018 02:10:57
00019 suncat1041 pw.x -in pw.inp   Done                     01/20/2018 02:10:57
00020 suncat1040 pw.x -in pw.inp   Done                     01/20/2018 02:10:57
00021 suncat1040 pw.x -in pw.inp   Done                     01/20/2018 02:10:57
00022 suncat1040 pw.x -in pw.inp   Done                     01/20/2018 02:10:57
00023 suncat1040 pw.x -in pw.inp   Done                     01/20/2018 02:10:57
00024 suncat1040 pw.x -in pw.inp   Done                     01/20/2018 02:10:57
00025 suncat1040 pw.x -in pw.inp   Done                     01/20/2018 02:10:57
00026 suncat1040 pw.x -in pw.inp   Done                     01/20/2018 02:10:57
00027 suncat1040 pw.x -in pw.inp   Done                     01/20/2018 02:10:57
00028 suncat1040 pw.x -in pw.inp   Done                     01/20/2018 02:10:57
00029 suncat1040 pw.x -in pw.inp   Done                     01/20/2018 02:10:57
00030 suncat1040 pw.x -in pw.inp   Done                     01/20/2018 02:10:57
00031 suncat1040 pw.x -in pw.inp   Done                     01/20/2018 02:10:57