     Program PWSCF v.5.1rc2 (svn rev. 11289) starts on  3May2018 at  9:38:20

     Current dimensions of program PWSCF are:
     Max number of different atomic species (ntypx) = 10
     Max number of k-points (npk) =  40000
     Max angular momentum in pseudopotentials (lmaxx) =  3
     Presently stress not available with electric field

     IMPORTANT: XC functional enforced from input :
     Exchange-correlation      = BEEF-VDW ( 1  4 27 13 2)
     Any further DFT definition will be discarded
     Please, verify this is what you really want

     Subspace diagonalization in iterative solution of the eigenvalue problem:
     a serial algorithm will be used

     bravais-lattice index     =            0
     lattice parameter (alat)  =       1.8897  a.u.
     unit-cell volume          =    5182.3421 (a.u.)^3
     number of atoms/cell      =           13
     number of atomic types    =            2
     number of electrons       =       162.00
     number of Kohn-Sham states=           91
     kinetic-energy cutoff     =      36.7493  Ry
     charge density cutoff     =     367.4932  Ry
     convergence threshold     =      1.0E-05
     mixing beta               =       0.3000
     number of iterations used =           10  plain     mixing
     Exchange-correlation      = BEEF-VDW ( 1  4 27 13 2)
     nstep                     =           50

     celldm(1)=   1.889726  celldm(2)=   0.000000  celldm(3)=   0.000000
     celldm(4)=   0.000000  celldm(5)=   0.000000  celldm(6)=   0.000000

     crystal axes: (cart. coord. in units of alat)
               a(1) = (   5.970602   0.000000   0.000000 )
               a(2) = (   2.985301   5.170693   0.000000 )
               a(3) = (   0.000000   0.000000  24.874976 )

     reciprocal axes: (cart. coord. in units 2 pi/alat)
               b(1) = (  0.167487 -0.096699  0.000000 )
               b(2) = (  0.000000  0.193398  0.000000 )
               b(3) = (  0.000000  0.000000  0.040201 )

     PseudoPot. # 1 for Nb read from file:
     /u/if/mamunm/psp/gbrv1.5pbe/Nb.UPF
     MD5 check sum: 573aab8a2fa660278ed4a62cd769473f
     Pseudo is Ultrasoft + core correction, Zval = 13.0
     Generated by new atomic code, or converted to UPF format
     Using radial grid of  887 points,  6 beta functions with:
                l(1) =   0
                l(2) =   0
                l(3) =   1
                l(4) =   1
                l(5) =   2
                l(6) =   2
     Q(r) pseudized with  6 coefficients,  rinner =    1.000   1.000   1.000
                                                       1.000   1.000

     PseudoPot. # 2 for S  read from file:
     /u/if/mamunm/psp/gbrv1.5pbe/S.UPF
     MD5 check sum: 88d86576ff6df21479756cfb9bdac1df
     Pseudo is Ultrasoft + core correction, Zval =  6.0
     Generated by new atomic code, or converted to UPF format
     Using radial grid of  907 points,  6 beta functions with:
                l(1) =   0
                l(2) =   0
                l(3) =   1
                l(4) =   1
                l(5) =   2
                l(6) =   2
     Q(r) pseudized with  8 coefficients,  rinner =    1.300   1.300   1.300
                                                       1.300   1.300

     vdW kernel table read from file vdW_kernel_table
     MD5 check sum: 095c7af220d748ca6e76c0b4c6cfb241

     atomic species   valence    mass     pseudopotential
        Nb1           13.00    92.90637     Nb( 1.00)
        S1             6.00    32.06000     S ( 1.00)

     No symmetry found

   Cartesian axes

     site n.     atom                  positions (alat units)
         1           Nb1 tau(   1) = (   1.4926504   0.8617821  10.0000000  )
         2           Nb1 tau(   2) = (   4.4779512   0.8617821  10.0000000  )
         3           Nb1 tau(   3) = (   2.9853008   3.4471284  10.0000000  )
         4           Nb1 tau(   4) = (   5.9706016   3.4471284  10.0000000  )
         5           Nb1 tau(   5) = (   5.9706016   1.7235642  12.4374879  )
         6           Nb1 tau(   6) = (   2.9853008   1.7235642  12.4374879  )
         7           Nb1 tau(   7) = (   7.4632520   4.3089105  12.4374879  )
         8           Nb1 tau(   8) = (   4.4779512   4.3089105  12.4374879  )
         9           Nb1 tau(   9) = (   0.0000000   0.0000000  14.8749758  )
        10           Nb1 tau(  10) = (   2.9853008   0.0000000  14.8749758  )
        11           Nb1 tau(  11) = (   1.4926504   2.5853463  14.8749758  )
        12           Nb1 tau(  12) = (   4.4779512   2.5853463  14.8749758  )
        13           S1  tau(  13) = (   0.0000000   0.0000000  17.1614758  )

     number of k points=    20  Fermi-Dirac smearing, width (Ry)=  0.0110
                       cart. coord. in units 2pi/alat
        k(    1) = (   0.0000000   0.0000000   0.0000000), wk =   0.0555556
        k(    2) = (   0.0000000   0.0322329   0.0000000), wk =   0.1111111
        k(    3) = (   0.0000000   0.0644659   0.0000000), wk =   0.1111111
        k(    4) = (   0.0000000  -0.0966988   0.0000000), wk =   0.0555556
        k(    5) = (   0.0279146  -0.0161165   0.0000000), wk =   0.1111111
        k(    6) = (   0.0279146   0.0161165   0.0000000), wk =   0.1111111
        k(    7) = (   0.0279146   0.0483494   0.0000000), wk =   0.1111111
        k(    8) = (   0.0279146  -0.1128153   0.0000000), wk =   0.1111111
        k(    9) = (   0.0279146  -0.0805824   0.0000000), wk =   0.1111111
        k(   10) = (   0.0279146  -0.0483494   0.0000000), wk =   0.1111111
        k(   11) = (   0.0558291  -0.0322329   0.0000000), wk =   0.1111111
        k(   12) = (   0.0558291   0.0000000   0.0000000), wk =   0.1111111
        k(   13) = (   0.0558291   0.0322329   0.0000000), wk =   0.1111111
        k(   14) = (   0.0558291  -0.1289318   0.0000000), wk =   0.1111111
        k(   15) = (   0.0558291  -0.0966988   0.0000000), wk =   0.1111111
        k(   16) = (   0.0558291  -0.0644659   0.0000000), wk =   0.1111111
        k(   17) = (  -0.0837437   0.0483494   0.0000000), wk =   0.0555556
        k(   18) = (  -0.0837437   0.0805824   0.0000000), wk =   0.1111111
        k(   19) = (  -0.0837437   0.1128153   0.0000000), wk =   0.1111111
        k(   20) = (  -0.0837437  -0.0483494   0.0000000), wk =   0.0555556

     Largest allocated arrays     est. size (Mb)     dimensions
     Largest temporary arrays     est. size (Mb)     dimensions

     Initial potential from superposition of free atoms
     Check: negative starting charge=   -0.004859

     starting charge  161.96717, renormalised to  162.00000

     negative rho (up, down):  4.860E-03 0.000E+00

     *
     * You are using vdW-DF for exchange-correlation in this calculation.
     * Please cite the following three references that made this development
     * possible:
     *
     *   M. Dion, H. Rydberg, E. Schroder, D. C. Langreth, and
     *   B. I. Lundqvist, Phys. Rev. Lett. 92, 246401 (2004).
     *
     *   T. Thonhauser, V. R. Cooper, S. Li, A. Puzder, P. Hyldgaard, and
     *   D. C. Langreth, Phys. Rev. B 76, 125112 (2007).
     *
     *   G. Roman-Perez and J. M. Soler, Phys. Rev. Lett. 103, 096102 (2009).
     *
     *
     * If you are using vdW-DF2, please also cite:
     *
     *   K. Lee, E. D. Murray, L. Kong, B. I. Lundqvist, and
     *   D. C. Langreth, Phys. Rev. B 82, 081101(R) (2010).
     *
     *
     * If you are calculating the stress with vdW-DF, please also cite:
     *
     *   R. Sabatini, E. Kucukbenli, B. Kolb, T. Thonhauser, and
     *   S. de Gironcoli, J. Phys.: Condens. Matter 24, 424209 (2012).
     *

     Carrying out vdW-DF run using the following parameters:

     Nqs =      20    Nr_points =    1024   r_max =   100.000
     q_mesh =
               0.00001000     0.04494208     0.09755937     0.15916263
               0.23128650     0.31572767     0.41458969     0.53033537
               0.66584808     0.82450364     1.01025438     1.22772762
               1.48234092     1.78043706     2.12944203     2.53805004
               3.01644009     3.57652955     4.23227104     5.00000000

     Gradients computed in reciprocal space

     Adding external electric field

     Computed dipole along edir(3) :
        Dipole               -0.0105 Ry au,         -0.0267 Debye
        Dipole field         -0.0000 Ry au

        Potential amp.        0.0023 Ry
        Total length         45.8317 bohr

     Starting wfc are  160 randomized atomic wfcs

     Self-consistent Calculation

     iteration #  1     ecut=    36.75 Ry     beta=0.30
     Davidson diagonalization with overlap
     ethr =  1.00E-02,  avg # of iterations =  2.0

[...]

     total energy              =   -1444.69846055 Ry
     Harris-Foulkes estimate   =   -1447.11641993 Ry
     estimated scf accuracy    <       5.36622660 Ry

[...]

     End of self-consistent calculation

          k = 0.0000 0.0000 0.0000 ( 19435 PWs)   bands (ev):

   -53.3509 -53.2440 -53.2355 -53.2353 -53.1346 -53.1233 -53.1062 -53.1061
   -53.1032 -53.0368 -52.9997 -52.9996 -29.7539 -29.7539 -29.7351 -29.6904
   -29.6644 -29.6643 -29.6473 -29.6102 -29.6087 -29.6087 -29.3741 -29.2809
   -29.2807 -29.2487 -29.1432 -29.1431 -29.1427 -29.1070 -29.0313 -29.0312
   -28.9591 -28.9516 -28.9516 -28.9377 -28.9007 -28.9006 -28.8501 -28.8274
   -28.8274 -28.8242 -28.8242 -28.8140 -28.7414 -28.7414 -28.6495 -28.6495
   -10.0259  -3.6176  -2.3628  -1.8669  -1.7532  -1.7532  -1.6626  -1.5316
    -1.4064  -1.4064  -1.1043  -1.1043  -1.1018  -0.9331  -0.9331  -0.9250
    -0.5902  -0.5902  -0.5334   0.1901   0.6735   0.6736   1.2394   1.3329
     1.4719   1.4719   1.6365   1.9682   1.9682   2.0169   2.1979   2.1979
     2.2382   2.2383   2.3058   2.3238   2.3238   2.3378   2.3378   2.6424
     3.0635   3.3018   3.3945

[...]

          k =-0.0837 0.0483 0.0000 ( 19524 PWs)   bands (ev):

[...]

     the Fermi energy is     1.8727 ev

!    total energy              =   -1446.63928718 Ry
     Harris-Foulkes estimate   =   -1446.63925928 Ry
     estimated scf accuracy    <       0.00000567 Ry

     The total energy is the sum of the following terms:

     one-electron contribution =  -11613.85133283 Ry
     hartree contribution      =    5800.99123918 Ry
     xc contribution           =    -236.94871861 Ry
     ewald contribution        =    4603.28671741 Ry
     electric field correction =       0.00021677 Ry
     smearing contrib. (-TS)   =      -0.11740910 Ry

     convergence has been achieved in  17 iterations

 BEEF-vdW xc energy contributions
           1 :   -203.065319363791
           2 :    184.356104809306
           3 :   -152.532985784323
           4 :    116.169528257238
           5 :   -83.4309014540535
           6 :    59.4018974234787
           7 :   -45.0572367062378
           8 :    37.9453650288009
           9 :   -34.0252279359347
          10 :    29.6805908651862
          11 :   -23.0811695480118
          12 :    14.4623210270375
          13 :   -5.44548090982795
          14 :   -2.11671521184783
          15 :    7.14791009307237
          16 :   -9.77328437215027
          17 :    11.0481449720259
          18 :   -12.2422936897563
          19 :    14.1113396721273
          20 :   -16.5502226410196
          21 :    18.7614623604964
          22 :   -19.7865555006758
          23 :    19.0681004783389
          24 :   -16.7446730242947
          25 :    13.5522591824546
          26 :   -10.4329008829479
          27 :    8.08333342261881
          28 :   -6.68400422480701
          29 :    5.92191158103321
          30 :   -5.26129659574514
          31 :   -23.4716161339404
          32 :   -17.6662456664077

     Forces acting on atoms (Ry/au):

     negative rho (up, down):  4.534E-03 0.000E+00
     atom    1 type  1   force =    -0.00009000   -0.00005284   -0.00678127
     atom    2 type  1   force =     0.00009187   -0.00005153   -0.00678212
     atom    3 type  1   force =     0.00000202    0.00010343   -0.00678306
     atom    4 type  1   force =     0.00000113    0.00000320   -0.00450851
     atom    5 type  1   force =     0.00000037    0.00746689   -0.00756349
     atom    6 type  1   force =    -0.00000059   -0.00000374    0.01103259
     atom    7 type  1   force =    -0.00647460   -0.00373421   -0.00756771
     atom    8 type  1   force =     0.00647207   -0.00373527   -0.00756814
     atom    9 type  1   force =     0.00000059    0.00000224    0.06826169
     atom   10 type  1   force =    -0.00000158    0.00294627    0.00066687
     atom   11 type  1   force =     0.00254252   -0.00147240    0.00069084
     atom   12 type  1   force =    -0.00254363   -0.00147140    0.00068805
     atom   13 type  2   force =    -0.00000016   -0.00000065   -0.03378573

     Total force =     0.076344     Total SCF correction =     0.009638
     SCF correction compared to forces is large: reduce conv_thr to get better values

     entering subroutine stress ...

     negative rho (up, down):  4.534E-03 0.000E+00
          total   stress  (Ry/bohr**3)                   (kbar)     P=  -21.14
  -0.00022544  -0.00000000  -0.00000000        -33.16     -0.00     -0.00
  -0.00000000  -0.00022544  -0.00000000         -0.00    -33.16     -0.00
  -0.00000000  -0.00000000   0.00001986         -0.00     -0.00      2.92

     BFGS Geometry Optimization

     number of scf cycles    =   1
     number of bfgs steps    =   0

     energy   new            =   -1446.6392871836 Ry

     new trust radius        =       0.0682616922 bohr
     new conv_thr            =       0.0000099958 Ry

ATOMIC_POSITIONS (crystal)
Nb1      0.166666667   0.166666667   0.402010442    0   0   0
Nb1      0.666666667   0.166666667   0.402010442    0   0   0
Nb1      0.166666667   0.666666667   0.402010442    0   0   0
Nb1      0.666666667   0.666666667   0.402010442    0   0   0
Nb1      0.833333333   0.333333333   0.500000000    0   0   0
Nb1      0.333333333   0.333333333   0.500000000    0   0   0
Nb1      0.833333333   0.833333333   0.500000000    0   0   0
Nb1      0.333333333   0.833333333   0.500000000    0   0   0
Nb1     -0.000000063   0.000000229   0.599441722
Nb1      0.499849097   0.000301526   0.598003745
Nb1      0.000300689   0.499849312   0.598004255
Nb1      0.499849849   0.499849415   0.598004195
S1       0.000000019  -0.000000066   0.689190506

     Writing output data file calc.save
     Check: negative starting charge=   -0.004859
     NEW-OLD atomic charge density approx. for the potential
     Check: negative starting charge=   -0.004856

[...]

     Total force =     0.033868     Total SCF correction =     0.002795

[...]

     energy   old            =   -1446.6392871836 Ry
     energy   new            =   -1446.6434661060 Ry

     CASE: energy  _new < energy  _old

[...]

     WARNING: bfgs curvature condition failed, Theta= 0.865
     new trust radius        =       0.0233198338 bohr
     new conv_thr            =       0.0000001000 Ry

[...]

     Total force =     0.007817     Total SCF correction =     0.000123

[...]

     number of scf cycles    =   8
     number of bfgs steps    =   7

     energy   old            =   -1446.6474807113 Ry
     energy   new            =   -1446.6483860125 Ry

     CASE: energy  _new < energy  _old

     new trust radius        =       0.0874597820 bohr
     new conv_thr            =       0.0000001000 Ry

ATOMIC_POSITIONS (crystal)
Nb1      0.166666667   0.166666667   0.402010442    0   0   0
Nb1      0.666666667   0.166666667   0.402010442    0   0   0
Nb1      0.166666667   0.666666667   0.402010442    0   0   0
Nb1      0.666666667   0.666666667   0.402010442    0   0   0
Nb1      0.833333333   0.333333333   0.500000000    0   0   0
Nb1      0.333333333   0.333333333   0.500000000    0   0   0
Nb1      0.833333333   0.833333333   0.500000000    0   0   0
Nb1      0.333333333   0.833333333   0.500000000    0   0   0
Nb1     -0.000000370   0.000001126   0.606317938
Nb1      0.498755853   0.002488138   0.597071852
Nb1      0.002486439   0.498757606   0.597070700
Nb1      0.498755151   0.498758336   0.597070237
S1      -0.000000054  -0.000000358   0.695384631

     Writing output data file calc.save
     Check: negative starting charge=   -0.004931
     NEW-OLD atomic charge density approx. for the potential
     Check: negative starting charge=   -0.004949

[...]

     Self-consistent Calculation

[...]

     total energy              =   -1446.64871898 Ry
     Harris-Foulkes estimate   =   -1446.64871903 Ry
     estimated scf accuracy    <       0.00000018 Ry

     iteration # 16     ecut=    36.75 Ry     beta=0.30
     Davidson diagonalization with overlap
     ethr =  9.52E-11,  avg # of iterations =  1.0

[...]

     negative rho (up, down):  4.635E-03 0.000E+00

     Adding external electric field

     Computed dipole along edir(3) :
        Dipole               -0.3300 Ry au,         -0.8387 Debye
        Dipole field         -0.0008 Ry au

        Potential amp.        0.0733 Ry
        Total length         45.8317 bohr

     End of self-consistent calculation

[...]

          k = 0.0558-0.0645 0.0000 ( 19505 PWs)   bands (ev):

[...]

          k =-0.0837-0.0483 0.0000 ( 19524 PWs)   bands (ev):

   -53.3515 -53.3222 -53.2830 -53.2456 -53.2408 -53.1738 -53.1702 -53.1497
   -53.1395 -53.1233 -53.0957 -53.0868 -29.6593 -29.6313 -29.6178 -29.6153
   -29.5869 -29.5658 -29.5096 -29.5095 -29.4686 -29.4528 -29.4187 -29.3729
   -29.3332 -29.2867 -29.2807 -29.2586 -29.2499 -29.2218 -29.2145 -29.1487
   -29.1328 -29.1232 -29.0987 -29.0824 -29.0767 -29.0711 -29.0066 -28.9555
   -28.9473 -28.9378 -28.9198 -28.9179 -28.9060 -28.9032 -28.8118 -28.8022
    -9.9447  -2.1559  -2.1246  -1.2878  -1.2439  -0.9991  -0.9300  -0.8230
    -0.7472  -0.7341  -0.6694  -0.5681  -0.4427  -0.4161  -0.0106   0.0056
     0.0324   0.1015   0.1701   0.2337   0.5950   0.6268   0.7223   0.7289
     0.8070   0.9270   1.0611   1.2332   1.3135   1.3872   1.4341   1.4993
     1.5959   1.6096   1.6405   1.6850   1.9288   1.9593   2.0566   2.1965
     2.1969   2.6632   2.8885

     the Fermi energy is     1.8076 ev

!    total energy              =   -1446.64871897 Ry
     Harris-Foulkes estimate   =   -1446.64871763 Ry
     estimated scf accuracy    <       0.00000002 Ry

     The total energy is the sum of the following terms:

     one-electron contribution =  -11527.71298868 Ry
     hartree contribution      =    5757.66876971 Ry
     xc contribution           =    -236.91898478 Ry
     ewald contribution        =    4560.42946336 Ry
     electric field correction =       0.00026402 Ry
     smearing contrib. (-TS)   =      -0.11524260 Ry

     convergence has been achieved in  16 iterations

 BEEF-vdW xc energy contributions
           1 :   -203.035451480922
           2 :    184.306041084605
           3 :   -152.461458168358
           4 :    116.090710246947
           5 :   -83.3629404834087
           6 :    59.3581003562362
           7 :   -45.0389585482154
           8 :    37.9387661935740
           9 :   -34.0063935099663
          10 :    29.6289394447666
          11 :   -22.9940734042767
          12 :    14.3595034442159
          13 :   -5.35731352517791
          14 :   -2.17098534001516
          15 :    7.17602596567076
          16 :   -9.80779420923943
          17 :    11.1268068716312
          18 :   -12.3834353921547
          19 :    14.3006400676616
          20 :   -16.7477781824269
          21 :    18.9243148965569
          22 :   -19.8928000952168
          23 :    19.1277834244866
          24 :   -16.7915308002729
          25 :    13.6223984639823
          26 :   -10.5431797780205
          27 :    8.22249906154588
          28 :   -6.82211700835143
          29 :    6.03091995601392
          30 :   -5.33261628717813
          31 :   -23.4687396929027
          32 :   -17.6581814524090

     Forces acting on atoms (Ry/au):

     negative rho (up, down):  4.635E-03 0.000E+00
     atom    1 type  1   force =    -0.00163158   -0.00094271   -0.00643933
     atom    2 type  1   force =     0.00163151   -0.00094229   -0.00644019
     atom    3 type  1   force =     0.00000006    0.00188412   -0.00644042
     atom    4 type  1   force =    -0.00000045    0.00000002   -0.00416712
     atom    5 type  1   force =    -0.00000010   -0.00170749    0.00608280
     atom    6 type  1   force =     0.00000020   -0.00000204    0.00586048
     atom    7 type  1   force =     0.00147746    0.00085484    0.00608336
     atom    8 type  1   force =    -0.00147695    0.00085420    0.00608322
     atom    9 type  1   force =     0.00000035    0.00000110    0.00028992
     atom   10 type  1   force =     0.00000015   -0.00167429   -0.00009013
     atom   11 type  1   force =    -0.00144992    0.00083776   -0.00008929
     atom   12 type  1   force =     0.00144967    0.00083726   -0.00008941
     atom   13 type  2   force =    -0.00000040   -0.00000047   -0.00064389

     Total force =     0.002989     Total SCF correction =     0.000317
     SCF correction compared to forces is large: reduce conv_thr to get better values

     entering subroutine stress ...

     negative rho (up, down):  4.635E-03 0.000E+00
          total   stress  (Ry/bohr**3)                   (kbar)     P=  -20.73
  -0.00022096  -0.00000000  -0.00000000        -32.50     -0.00     -0.00
  -0.00000000  -0.00022095   0.00000000         -0.00    -32.50      0.00
  -0.00000000   0.00000000   0.00001907         -0.00      0.00      2.80

     bfgs converged in   9 scf cycles and   8 bfgs steps
     (criteria: energy <  1.0E+00, force <  1.9E-03)

     End of BFGS Geometry Optimization

     Final energy   =   -1446.6487189724 Ry
Begin final coordinates

ATOMIC_POSITIONS (crystal)
Nb1      0.166666667   0.166666667   0.402010442    0   0   0
Nb1      0.666666667   0.166666667   0.402010442    0   0   0
Nb1      0.166666667   0.666666667   0.402010442    0   0   0
Nb1      0.666666667   0.666666667   0.402010442    0   0   0
Nb1      0.833333333   0.333333333   0.500000000    0   0   0
Nb1      0.333333333   0.333333333   0.500000000    0   0   0
Nb1      0.833333333   0.833333333   0.500000000    0   0   0
Nb1      0.333333333   0.833333333   0.500000000    0   0   0
Nb1     -0.000000370   0.000001126   0.606317938
Nb1      0.498755853   0.002488138   0.597071852
Nb1      0.002486439   0.498757606   0.597070700
Nb1      0.498755151   0.498758336   0.597070237
S1      -0.000000054  -0.000000358   0.695384631
End final coordinates

     Writing output data file calc.save

     General routines

     Parallel routines

   This run was terminated on:  10:48:24   3May2018

   JOB DONE.
Job  /afs/slac/g/suncat/bin/suncat-tsmpirun -x LD_LIBRARY_PATH -wdir /scratch/qe710496_xcE6X pw.x -npool 4 -in pw.inp

TID   HOST_NAME   COMMAND_LINE            STATUS            TERMINATION_TIME
00000 suncat0182 pw.x -npool 4 -i  Done                     05/03/2018 10:48:24
00001 suncat0182 pw.x -npool 4 -i  Done                     05/03/2018 10:48:24
00002 suncat0182 pw.x -npool 4 -i  Done                     05/03/2018 10:48:24
00003 suncat0182 pw.x -npool 4 -i  Done                     05/03/2018 10:48:24
00004 suncat0182 pw.x -npool 4 -i  Done                     05/03/2018 10:48:24
00005 suncat0182 pw.x -npool 4 -i  Done                     05/03/2018 10:48:24
00006 suncat0182 pw.x -npool 4 -i  Done                     05/03/2018 10:48:24
00007 suncat0182 pw.x -npool 4 -i  Done                     05/03/2018 10:48:24
00008 suncat0173 pw.x -npool 4 -i  Done                     05/03/2018 10:48:24
00009 suncat0173 pw.x -npool 4 -i  Done                     05/03/2018 10:48:24
00010 suncat0173 pw.x -npool 4 -i  Done                     05/03/2018 10:48:24
00011 suncat0173 pw.x -npool 4 -i  Done                     05/03/2018 10:48:24
00012 suncat0173 pw.x -npool 4 -i  Done                     05/03/2018 10:48:24
00013 suncat0173 pw.x -npool 4 -i  Done                     05/03/2018 10:48:24
00014 suncat0173 pw.x -npool 4 -i  Done                     05/03/2018 10:48:24
00015 suncat0173 pw.x -npool 4 -i  Done                     05/03/2018 10:48:24
00016 suncat0244 pw.x -npool 4 -i  Done                     05/03/2018 10:48:24
00017 suncat0244 pw.x -npool 4 -i  Done                     05/03/2018 10:48:24
00018 suncat0244 pw.x -npool 4 -i  Done                     05/03/2018 10:48:24
00019 suncat0244 pw.x -npool 4 -i  Done                     05/03/2018 10:48:24
00020 suncat0244 pw.x -npool 4 -i  Done                     05/03/2018 10:48:24
00021 suncat0244 pw.x -npool 4 -i  Done                     05/03/2018 10:48:24
00022 suncat0244 pw.x -npool 4 -i  Done                     05/03/2018 10:48:24
00023 suncat0244 pw.x -npool 4 -i  Done                     05/03/2018 10:48:24
00024 suncat0243 pw.x -npool 4 -i  Done                     05/03/2018 10:48:24
00025 suncat0243 pw.x -npool 4 -i  Done                     05/03/2018 10:48:24
00026 suncat0243 pw.x -npool 4 -i  Done                     05/03/2018 10:48:24
00027 suncat0243 pw.x -npool 4 -i  Done                     05/03/2018 10:48:24
00028 suncat0243 pw.x -npool 4 -i  Done                     05/03/2018 10:48:24
00029 suncat0243 pw.x -npool 4 -i  Done                     05/03/2018 10:48:24
00030 suncat0243 pw.x -npool 4 -i  Done                     05/03/2018 10:48:24
00031 suncat0243 pw.x -npool 4 -i  Done                     05/03/2018 10:48:24