     Program PWSCF v.5.1rc2 (svn rev. 11289) starts on 30Apr2018 at 16:46:25

     Current dimensions of program PWSCF are:
     Max number of different atomic species (ntypx) = 10
     Max number of k-points (npk) =  40000
     Max angular momentum in pseudopotentials (lmaxx) =  3
     Presently stress not available with electric field

     IMPORTANT: XC functional enforced from input :
     Exchange-correlation      = BEEF-VDW ( 1  4 27 13 2)
     Any further DFT definition will be discarded
     Please, verify this is what you really want

     Subspace diagonalization in iterative solution of the eigenvalue problem:
     a serial algorithm will be used

     bravais-lattice index     =            0
     lattice parameter (alat)  =       1.8897  a.u.
     unit-cell volume          =    4650.5773 (a.u.)^3
     number of atoms/cell      =           13
     number of atomic types    =            2
     number of electrons       =        41.00
     number of Kohn-Sham states=           30
     kinetic-energy cutoff     =      36.7493  Ry
     charge density cutoff     =     367.4932  Ry
     convergence threshold     =      1.0E-05
     mixing beta               =       0.3000
     number of iterations used =           10  plain     mixing
     Exchange-correlation      = BEEF-VDW ( 1  4 27 13 2)
     nstep                     =           50

     celldm(1)=   1.889726  celldm(2)=   0.000000  celldm(3)=   0.000000
     celldm(4)=   0.000000  celldm(5)=   0.000000  celldm(6)=   0.000000

     crystal axes: (cart. coord. in units of alat)
               a(1) = (   5.682886   0.000000   0.000000 )
               a(2) = (   2.841443   4.921524   0.000000 )
               a(3) = (   0.000000   0.000000  24.640057 )

     reciprocal axes: (cart. coord. in units 2 pi/alat)
               b(1) = (  0.175967 -0.101595  0.000000 )
               b(2) = (  0.000000  0.203189  0.000000 )
               b(3) = (  0.000000  0.000000  0.040584 )

     PseudoPot. # 1 for Al read from file:
     /u/if/mamunm/psp/gbrv1.5pbe/Al.UPF
     MD5 check sum: 0a6289f5291fc8f409219462bc851e1f
     Pseudo is Ultrasoft + core correction, Zval =  3.0
     Generated by new atomic code, or converted to UPF format
     Using radial grid of  893 points,  3 beta functions with:
                l(1) =   0
                l(2) =   1
                l(3) =   2
     Q(r) pseudized with  8 coefficients,  rinner =    0.900   0.900   0.900
                                                       0.900   0.900

     PseudoPot. # 2 for N  read from file:
     /u/if/mamunm/psp/gbrv1.5pbe/N.UPF
     MD5 check sum: 95339753478d7afb44899504a8723017
     Pseudo is Ultrasoft + core correction, Zval =  5.0
     Generated by new atomic code, or converted to UPF format
     Using radial grid of  729 points,  4 beta functions with:
                l(1) =   0
                l(2) =   0
                l(3) =   1
                l(4) =   1
     Q(r) pseudized with  8 coefficients,  rinner =    0.900   0.900   0.900

     vdW kernel table read from file vdW_kernel_table
     MD5 check sum: 095c7af220d748ca6e76c0b4c6cfb241

     atomic species   valence    mass     pseudopotential
        Al1            3.00    26.98154     Al( 1.00)
        N1             5.00    14.00700     N ( 1.00)

     No symmetry found

   Cartesian axes

     site n.     atom                  positions (alat units)
         1           Al1 tau(   1) = (   1.4207216   0.8202540  10.0000000  )
         2           Al1 tau(   2) = (   4.2621647   0.8202540  10.0000000  )
         3           Al1 tau(   3) = (   2.8414431   3.2810159  10.0000000  )
         4           Al1 tau(   4) = (   5.6828862   3.2810159  10.0000000  )
         5           Al1 tau(   5) = (   5.6828862   1.6405079  12.3200286  )
         6           Al1 tau(   6) = (   2.8414431   1.6405079  12.3200286  )
         7           Al1 tau(   7) = (   7.1036078   4.1012699  12.3200286  )
         8           Al1 tau(   8) = (   4.2621647   4.1012699  12.3200286  )
         9           Al1 tau(   9) = (   0.0000000   0.0000000  14.6400572  )
        10           Al1 tau(  10) = (   2.8414431   0.0000000  14.6400572  )
        11           Al1 tau(  11) = (   1.4207216   2.4607619  14.6400572  )
        12           Al1 tau(  12) = (   4.2621647   2.4607619  14.6400572  )
        13           N1  tau(  13) = (   1.4207216   0.8202540  15.8880572  )

     number of k points=    20  Fermi-Dirac smearing, width (Ry)=  0.0110
                       cart. coord. in units 2pi/alat
        k(    1) = (   0.0000000   0.0000000   0.0000000), wk =   0.0555556
        k(    2) = (   0.0000000   0.0338648   0.0000000), wk =   0.1111111
        k(    3) = (   0.0000000   0.0677297   0.0000000), wk =   0.1111111
        k(    4) = (   0.0000000  -0.1015945   0.0000000), wk =   0.0555556
        k(    5) = (   0.0293278  -0.0169324   0.0000000), wk =   0.1111111
        k(    6) = (   0.0293278   0.0169324   0.0000000), wk =   0.1111111
        k(    7) = (   0.0293278   0.0507973   0.0000000), wk =   0.1111111
        k(    8) = (   0.0293278  -0.1185270   0.0000000), wk =   0.1111111
        k(    9) = (   0.0293278  -0.0846621   0.0000000), wk =   0.1111111
        k(   10) = (   0.0293278  -0.0507973   0.0000000), wk =   0.1111111
        k(   11) = (   0.0586556  -0.0338648   0.0000000), wk =   0.1111111
        k(   12) = (   0.0586556   0.0000000   0.0000000), wk =   0.1111111
        k(   13) = (   0.0586556   0.0338648   0.0000000), wk =   0.1111111
        k(   14) = (   0.0586556  -0.1354594   0.0000000), wk =   0.1111111
        k(   15) = (   0.0586556  -0.1015945   0.0000000), wk =   0.1111111
        k(   16) = (   0.0586556  -0.0677297   0.0000000), wk =   0.1111111
        k(   17) = (  -0.0879835   0.0507973   0.0000000), wk =   0.0555556
        k(   18) = (  -0.0879835   0.0846621   0.0000000), wk =   0.1111111
        k(   19) = (  -0.0879835   0.1185270   0.0000000), wk =   0.1111111
        k(   20) = (  -0.0879835  -0.0507973   0.0000000), wk =   0.0555556

     Largest allocated arrays     est. size (Mb)     dimensions
     Largest temporary arrays     est. size (Mb)     dimensions

     Initial potential from superposition of free atoms
     Check: negative starting charge=   -0.000174

     starting charge   40.97041, renormalised to   41.00000

     negative rho (up, down):  1.736E-04 0.000E+00

     *
     * You are using vdW-DF for exchange-correlation in this calculation.
     * Please cite the following three references that made this development
     * possible:
     *
     *   M. Dion, H. Rydberg, E. Schroder, D. C. Langreth, and
     *   B. I. Lundqvist, Phys. Rev. Lett. 92, 246401 (2004).
     *
     *   T. Thonhauser, V. R. Cooper, S. Li, A. Puzder, P. Hyldgaard, and
     *   D. C. Langreth, Phys. Rev. B 76, 125112 (2007).
     *
     *   G. Roman-Perez and J. M. Soler, Phys. Rev. Lett. 103, 096102 (2009).
     *
     *
     * If you are using vdW-DF2, please also cite:
     *
     *   K. Lee, E. D. Murray, L. Kong, B. I. Lundqvist, and
     *   D. C. Langreth, Phys. Rev. B 82, 081101(R) (2010).
     *
     *
     * If you are calculating the stress with vdW-DF, please also cite:
     *
     *   R. Sabatini, E. Kucukbenli, B. Kolb, T. Thonhauser, and
     *   S. de Gironcoli, J. Phys.: Condens. Matter 24, 424209 (2012).
     *

     Carrying out vdW-DF run using the following parameters:

     Nqs =      20    Nr_points =    1024   r_max =   100.000
     q_mesh =
               0.00001000     0.04494208     0.09755937     0.15916263
               0.23128650     0.31572767     0.41458969     0.53033537
               0.66584808     0.82450364     1.01025438     1.22772762
               1.48234092     1.78043706     2.12944203     2.53805004
               3.01644009     3.57652955     4.23227104     5.00000000

     Gradients computed in reciprocal space

     Adding external electric field

     Computed dipole along edir(3) :
        Dipole               -0.0243 Ry au,         -0.0617 Debye
        Dipole field         -0.0001 Ry au

        Potential amp.        0.0060 Ry
        Total length         45.3989 bohr

     Starting wfc are   52 randomized atomic wfcs

     Self-consistent Calculation

     iteration #  1     ecut=    36.75 Ry     beta=0.30
     Davidson diagonalization with overlap
     ethr =  1.00E-02,  avg # of iterations =  3.0

[...]

     total energy              =    -102.01910509 Ry
     Harris-Foulkes estimate   =    -103.03200679 Ry
     estimated scf accuracy    <       2.27799815 Ry

[...]

     End of self-consistent calculation

          k = 0.0000 0.0000 0.0000 ( 17579 PWs)   bands (ev):

   -14.6422 -11.7244  -9.8123  -7.0514  -6.0141  -6.0141  -5.8886  -5.8886
    -5.8833  -5.8279  -4.9439  -4.9439  -4.5861  -4.1928  -4.0043  -4.0043
    -3.6335  -3.1793  -3.1793  -2.3166  -1.5017  -1.5017  -1.3645  -0.2649
    -0.1130  -0.1130   0.3125   1.5035   1.5035   1.5200

[...]

          k =-0.0880 0.0508 0.0000 ( 17464 PWs)   bands (ev):

[...]

     the Fermi energy is    -1.2237 ev

!    total energy              =    -102.73104512 Ry
     Harris-Foulkes estimate   =    -102.73107951 Ry
     estimated scf accuracy    <       0.00000386 Ry

     The total energy is the sum of the following terms:

     one-electron contribution =    -760.91333414 Ry
     hartree contribution      =     388.75956408 Ry
     xc contribution           =     -58.61090124 Ry
     ewald contribution        =     328.06129966 Ry
     electric field correction =       0.00048602 Ry
     smearing contrib. (-TS)   =      -0.02815951 Ry

     convergence has been achieved in  11 iterations

 BEEF-vdW xc energy contributions
           1 :   -48.2068394260357
           2 :    41.4095607805367
           3 :   -30.9671832871954
           4 :    20.9780964626416
           5 :   -14.0671519912256
           6 :    10.4144685347245
           7 :   -8.53694533822635
           8 :    6.89637770955665
           9 :   -5.01244042045045
          10 :    3.38644136125151
          11 :   -2.62143934412196
          12 :    2.68585600052192
          13 :   -2.94322276598165
          14 :    2.76771380784884
          15 :   -2.07455908964402
          16 :    1.28331020862441
          17 :  -0.832219444684348
          18 :   0.762359194077810
          19 :  -0.751705341497576
          20 :   0.494389494125897
          21 :  -9.375545508000016E-003
          22 :  -0.410790508597366
          23 :   0.514799820384447
          24 :  -0.336734406445572
          25 :   0.140923589678586
          26 :  -0.151683549931398
          27 :   0.349203588499428
          28 :  -0.521288217105841
          29 :   0.494192668042160
          30 :  -0.303157555939812
          31 :   -7.13191590710580
          32 :   -5.18509780203514

     Forces acting on atoms (Ry/au):

     negative rho (up, down):  7.008E-04 0.000E+00
     atom    1 type  1   force =     0.00000016    0.00000014   -0.00264037
     atom    2 type  1   force =     0.00000004   -0.00080996   -0.00080929
     atom    3 type  1   force =    -0.00070153    0.00040474   -0.00080962
     atom    4 type  1   force =     0.00070151    0.00040480   -0.00080939
     atom    5 type  1   force =    -0.00104505    0.00060311    0.00145796
     atom    6 type  1   force =     0.00104510    0.00060299    0.00145824
     atom    7 type  1   force =    -0.00000009    0.00000006   -0.00330778
     atom    8 type  1   force =     0.00000026   -0.00120673    0.00145825
     atom    9 type  1   force =     0.02884311    0.01665266    0.05296886
     atom   10 type  1   force =    -0.02884298    0.01665240    0.05296856
     atom   11 type  1   force =    -0.00000017   -0.03330514    0.05296872
     atom   12 type  1   force =     0.00000006   -0.00000023   -0.01268866
     atom   13 type  2   force =    -0.00000042    0.00000117   -0.14221549

     Total force =     0.179251     Total SCF correction =     0.001823

     entering subroutine stress ...

     negative rho (up, down):  7.008E-04 0.000E+00
          total   stress  (Ry/bohr**3)                   (kbar)     P=  -12.57
  -0.00009587  -0.00000000  -0.00000000        -14.10     -0.00     -0.00
  -0.00000000  -0.00009587  -0.00000000         -0.00    -14.10     -0.00
  -0.00000000  -0.00000000  -0.00006453         -0.00     -0.00     -9.49

     BFGS Geometry Optimization

     number of scf cycles    =   1
     number of bfgs steps    =   0

     energy   new            =    -102.7310451213 Ry

     new trust radius        =       0.1422154929 bohr
     new conv_thr            =       0.0000099958 Ry

ATOMIC_POSITIONS (crystal)
Al1      0.166666667   0.166666667   0.405843214    0   0   0
Al1      0.666666667   0.166666667   0.405843214    0   0   0
Al1      0.166666667   0.666666667   0.405843214    0   0   0
Al1      0.666666667   0.666666667   0.405843214    0   0   0
Al1      0.833333333   0.333333333   0.500000000    0   0   0
Al1      0.333333333   0.333333333   0.500000000    0   0   0
Al1      0.833333333   0.833333333   0.500000000    0   0   0
Al1      0.333333333   0.833333333   0.500000000    0   0   0
Al1      0.001790531   0.001790545   0.595294361
Al1      0.496418950   0.001790516   0.595294355
Al1      0.001790520   0.496418930   0.595294358
Al1      0.500000018   0.499999975   0.593884280
N1       0.166666565   0.166666793   0.641751757

     Writing output data file calc.save
     Check: negative starting charge=   -0.000174
     NEW-OLD atomic charge density approx. for the potential
     Check: negative starting charge=   -0.000167

[...]

     energy   old            =    -102.7310451213 Ry
     energy   new            =    -102.7594536824 Ry

     CASE: energy  _new < energy  _old

[...]

     Threshold (ethr) on eigenvalues was too large:
     Diagonalizing with lowered threshold

     Davidson diagonalization with overlap
     ethr =  1.94E-08,  avg # of iterations =  2.0

[...]

     number of scf cycles    =  11
     number of bfgs steps    =  10

     energy   old            =    -102.7990531982 Ry
     energy   new            =    -102.7991101400 Ry

     CASE: energy  _new < energy  _old

     new trust radius        =       0.0239459380 bohr
     new conv_thr            =       0.0000001000 Ry

ATOMIC_POSITIONS (crystal)
Al1      0.166666667   0.166666667   0.405843214    0   0   0
Al1      0.666666667   0.166666667   0.405843214    0   0   0
Al1      0.166666667   0.666666667   0.405843214    0   0   0
Al1      0.666666667   0.666666667   0.405843214    0   0   0
Al1      0.833333333   0.333333333   0.500000000    0   0   0
Al1      0.333333333   0.333333333   0.500000000    0   0   0
Al1      0.833333333   0.833333333   0.500000000    0   0   0
Al1      0.333333333   0.833333333   0.500000000    0   0   0
Al1     -0.004138563  -0.004138512   0.599575469
Al1      0.508277057  -0.004138513   0.599575468
Al1     -0.004138565   0.508277120   0.599575466
Al1      0.499999982   0.500000020   0.588686733
N1       0.166666639   0.166666707   0.630187214

     Writing output data file calc.save
     Check: negative starting charge=   -0.000165
     NEW-OLD atomic charge density approx. for the potential
     Check: negative starting charge=   -0.000164

[...]

     Self-consistent Calculation

[...]

     Threshold (ethr) on eigenvalues was too large:
     Diagonalizing with lowered threshold

     Davidson diagonalization with overlap
     ethr =  8.18E-08,  avg # of iterations =  1.6

[...]

     total energy              =    -102.79914856 Ry
     Harris-Foulkes estimate   =    -102.79914859 Ry
     estimated scf accuracy    <       0.00000013 Ry

     iteration #  7     ecut=    36.75 Ry     beta=0.30
     Davidson diagonalization with overlap
     ethr =  3.05E-10,  avg # of iterations =  1.9

[...]

     negative rho (up, down):  7.125E-04 0.000E+00

     Adding external electric field

     Computed dipole along edir(3) :
        Dipole               -0.1882 Ry au,         -0.4785 Debye
        Dipole field         -0.0005 Ry au

        Potential amp.        0.0462 Ry
        Total length         45.3989 bohr

     End of self-consistent calculation

[...]

          k = 0.0587-0.0677 0.0000 ( 17495 PWs)   bands (ev):

[...]

          k =-0.0880-0.0508 0.0000 ( 17464 PWs)   bands (ev):

   -15.4783 -10.0174  -9.7805  -8.4793  -7.8028  -7.1250  -6.8754  -6.1383
    -6.0679  -5.5213  -4.6569  -4.1138  -4.0402  -3.2241  -2.3688  -2.0538
    -1.9681  -1.6217  -1.1879  -0.9771  -0.9757  -0.3893   0.1112   0.4154
     0.6961   0.9203   1.0047   1.3735   1.9207   2.0387

     the Fermi energy is    -0.9190 ev

!    total energy              =    -102.79914857 Ry
     Harris-Foulkes estimate   =    -102.79914841 Ry
     estimated scf accuracy    <       0.00000002 Ry

     The total energy is the sum of the following terms:

     one-electron contribution =    -776.28602123 Ry
     hartree contribution      =     396.81323827 Ry
     xc contribution           =     -58.84360427 Ry
     ewald contribution        =     335.54606842 Ry
     electric field correction =       0.00009575 Ry
     smearing contrib. (-TS)   =      -0.02892552 Ry

     convergence has been achieved in   7 iterations

 BEEF-vdW xc energy contributions
           1 :   -48.4320258225566
           2 :    41.6387697418525
           3 :   -31.1613950790705
           4 :    21.0680945510086
           5 :   -13.9930455882108
           6 :    10.1555124884572
           7 :   -8.12564597499778
           8 :    6.41042599125851
           9 :   -4.54046751265437
          10 :    2.98395574370780
          11 :   -2.28798916777607
          12 :    2.38154205068847
          13 :   -2.62965922826985
          14 :    2.43829311450791
          15 :   -1.74936246657207
          16 :   0.979085176666231
          17 :  -0.543594363511176
          18 :   0.473499863516238
          19 :  -0.460255426913889
          20 :   0.218797409959457
          21 :   0.227292164500739
          22 :  -0.602004941658926
          23 :   0.674821774863858
          24 :  -0.484991790094128
          25 :   0.284235012437932
          26 :  -0.282800745045634
          27 :   0.460352911511897
          28 :  -0.615419430034578
          29 :   0.581450770942411
          30 :  -0.386142824134666
          31 :   -7.14471873378596
          32 :   -5.19144710650326

     Forces acting on atoms (Ry/au):

     negative rho (up, down):  7.125E-04 0.000E+00
     atom    1 type  1   force =    -0.00000000   -0.00000000   -0.00257594
     atom    2 type  1   force =     0.00000000   -0.00017848   -0.00128822
     atom    3 type  1   force =    -0.00015457    0.00008924   -0.00128822
     atom    4 type  1   force =     0.00015457    0.00008924   -0.00128822
     atom    5 type  1   force =     0.00470416   -0.00271595    0.00007577
     atom    6 type  1   force =    -0.00470417   -0.00271595    0.00007577
     atom    7 type  1   force =     0.00000000   -0.00000000    0.00636937
     atom    8 type  1   force =    -0.00000000    0.00543191    0.00007576
     atom    9 type  1   force =    -0.00016243   -0.00009378   -0.00038636
     atom   10 type  1   force =     0.00016243   -0.00009378   -0.00038636
     atom   11 type  1   force =    -0.00000000    0.00018755   -0.00038636
     atom   12 type  1   force =    -0.00000000    0.00000001    0.00017034
     atom   13 type  2   force =     0.00000000   -0.00000001    0.00083267

     Total force =     0.001129     Total SCF correction =     0.000094

     entering subroutine stress ...

     negative rho (up, down):  7.125E-04 0.000E+00
          total   stress  (Ry/bohr**3)                   (kbar)     P=   -5.62
  -0.00005996  -0.00000000   0.00000000         -8.82     -0.00      0.00
  -0.00000000  -0.00005996  -0.00000000         -0.00     -8.82     -0.00
   0.00000000  -0.00000000   0.00000528          0.00     -0.00      0.78

     bfgs converged in  12 scf cycles and  11 bfgs steps
     (criteria: energy <  1.0E+00, force <  1.9E-03)

     End of BFGS Geometry Optimization

     Final energy   =    -102.7991485708 Ry
Begin final coordinates

ATOMIC_POSITIONS (crystal)
Al1      0.166666667   0.166666667   0.405843214    0   0   0
Al1      0.666666667   0.166666667   0.405843214    0   0   0
Al1      0.166666667   0.666666667   0.405843214    0   0   0
Al1      0.666666667   0.666666667   0.405843214    0   0   0
Al1      0.833333333   0.333333333   0.500000000    0   0   0
Al1      0.333333333   0.333333333   0.500000000    0   0   0
Al1      0.833333333   0.833333333   0.500000000    0   0   0
Al1      0.333333333   0.833333333   0.500000000    0   0   0
Al1     -0.004138563  -0.004138512   0.599575469
Al1      0.508277057  -0.004138513   0.599575468
Al1     -0.004138565   0.508277120   0.599575466
Al1      0.499999982   0.500000020   0.588686733
N1       0.166666639   0.166666707   0.630187214
End final coordinates

     Writing output data file calc.save

     General routines

     Parallel routines

   This run was terminated on:  17:11:23  30Apr2018

   JOB DONE.
Job  /afs/slac/g/suncat/bin/suncat-tsmpirun -x LD_LIBRARY_PATH -wdir /scratch/qe521063_5fwec pw.x -npool 4 -in pw.inp

TID   HOST_NAME   COMMAND_LINE            STATUS            TERMINATION_TIME
00000 suncat0121 pw.x -npool 4 -i  Done                     04/30/2018 17:11:23
00001 suncat0121 pw.x -npool 4 -i  Done                     04/30/2018 17:11:23
00002 suncat0121 pw.x -npool 4 -i  Done                     04/30/2018 17:11:23
00003 suncat0121 pw.x -npool 4 -i  Done                     04/30/2018 17:11:23
00004 suncat0121 pw.x -npool 4 -i  Done                     04/30/2018 17:11:23
00005 suncat0121 pw.x -npool 4 -i  Done                     04/30/2018 17:11:23
00006 suncat0121 pw.x -npool 4 -i  Done                     04/30/2018 17:11:23
00007 suncat0121 pw.x -npool 4 -i  Done                     04/30/2018 17:11:23
00008 suncat0114 pw.x -npool 4 -i  Done                     04/30/2018 17:11:23
00009 suncat0114 pw.x -npool 4 -i  Done                     04/30/2018 17:11:23
00010 suncat0114 pw.x -npool 4 -i  Done                     04/30/2018 17:11:23
00011 suncat0114 pw.x -npool 4 -i  Done                     04/30/2018 17:11:23
00012 suncat0114 pw.x -npool 4 -i  Done                     04/30/2018 17:11:23
00013 suncat0114 pw.x -npool 4 -i  Done                     04/30/2018 17:11:23
00014 suncat0114 pw.x -npool 4 -i  Done                     04/30/2018 17:11:23
00015 suncat0114 pw.x -npool 4 -i  Done                     04/30/2018 17:11:23
00016 suncat0109 pw.x -npool 4 -i  Done                     04/30/2018 17:11:23
00017 suncat0109 pw.x -npool 4 -i  Done                     04/30/2018 17:11:23
00018 suncat0109 pw.x -npool 4 -i  Done                     04/30/2018 17:11:23
00019 suncat0109 pw.x -npool 4 -i  Done                     04/30/2018 17:11:23
00020 suncat0109 pw.x -npool 4 -i  Done                     04/30/2018 17:11:23
00021 suncat0109 pw.x -npool 4 -i  Done                     04/30/2018 17:11:23
00022 suncat0109 pw.x -npool 4 -i  Done                     04/30/2018 17:11:23
00023 suncat0109 pw.x -npool 4 -i  Done                     04/30/2018 17:11:23
00024 suncat0225 pw.x -npool 4 -i  Done                     04/30/2018 17:11:23
00025 suncat0225 pw.x -npool 4 -i  Done                     04/30/2018 17:11:23
00026 suncat0225 pw.x -npool 4 -i  Done                     04/30/2018 17:11:23
00027 suncat0225 pw.x -npool 4 -i  Done                     04/30/2018 17:11:23
00028 suncat0225 pw.x -npool 4 -i  Done                     04/30/2018 17:11:23
00029 suncat0225 pw.x -npool 4 -i  Done                     04/30/2018 17:11:23
00030 suncat0225 pw.x -npool 4 -i  Done                     04/30/2018 17:11:23
00031 suncat0225 pw.x -npool 4 -i  Done                     04/30/2018 17:11:23