     Program PWSCF v.5.1rc2 (svn rev. 11289) starts on  3May2018 at 10:54:43

     Current dimensions of program PWSCF are:
     Max number of different atomic species (ntypx) = 10
     Max number of k-points (npk) =  40000
     Max angular momentum in pseudopotentials (lmaxx) =  3
     Presently stress not available with electric field

     IMPORTANT: XC functional enforced from input :
     Exchange-correlation      = BEEF-VDW ( 1  4 27 13 2)
     Any further DFT definition will be discarded
     Please, verify this is what you really want

     Subspace diagonalization in iterative solution of the eigenvalue problem:
     a serial algorithm will be used

     bravais-lattice index     =            0
     lattice parameter (alat)  =       1.8897  a.u.
     unit-cell volume          =    8507.0471 (a.u.)^3
     number of atoms/cell      =           13
     number of atomic types    =            2
     number of electrons       =       137.00
     number of Kohn-Sham states=           78
     kinetic-energy cutoff     =      36.7493  Ry
     charge density cutoff     =     367.4932  Ry
     convergence threshold     =      1.0E-05
     mixing beta               =       0.3000
     number of iterations used =           10  plain     mixing
     Exchange-correlation      = BEEF-VDW ( 1  4 27 13 2)
     nstep                     =           50

     celldm(1)=   1.889726  celldm(2)=   0.000000  celldm(3)=   0.000000
     celldm(4)=   0.000000  celldm(5)=   0.000000  celldm(6)=   0.000000

     crystal axes: (cart. coord. in units of alat)
               a(1) = (   7.468327   0.000000   0.000000 )
               a(2) = (   3.734164   6.467761   0.000000 )
               a(3) = (   0.000000   0.000000  26.097863 )

     reciprocal axes: (cart. coord. in units 2 pi/alat)
               b(1) = (  0.133899 -0.077307  0.000000 )
               b(2) = (  0.000000  0.154613  0.000000 )
               b(3) = (  0.000000  0.000000  0.038317 )

     PseudoPot. # 1 for La read from file:
     /u/if/mamunm/psp/gbrv1.5pbe/La.UPF
     MD5 check sum: 5937b0c7494ba0601a847275249473aa
     Pseudo is Ultrasoft + core correction, Zval = 11.0
     Generated by new atomic code, or converted to UPF format
     Using radial grid of  995 points,  8 beta functions with:
                l(1) =   0
                l(2) =   0
                l(3) =   1
                l(4) =   1
                l(5) =   2
                l(6) =   2
                l(7) =   3
                l(8) =   3
     Q(r) pseudized with  8 coefficients,  rinner =    1.700   1.700   1.700
                                                       1.700   1.700   1.700
                                                       1.700

     PseudoPot. # 2 for N  read from file:
     /u/if/mamunm/psp/gbrv1.5pbe/N.UPF
     MD5 check sum: 95339753478d7afb44899504a8723017
     Pseudo is Ultrasoft + core correction, Zval =  5.0
     Generated by new atomic code, or converted to UPF format
     Using radial grid of  729 points,  4 beta functions with:
                l(1) =   0
                l(2) =   0
                l(3) =   1
                l(4) =   1
     Q(r) pseudized with  8 coefficients,  rinner =    0.900   0.900   0.900

     vdW kernel table read from file vdW_kernel_table
     MD5 check sum: 095c7af220d748ca6e76c0b4c6cfb241

     atomic species   valence    mass     pseudopotential
        La1           11.00   138.90547     La( 1.00)
        N1             5.00    14.00700     N ( 1.00)

     No symmetry found

   Cartesian axes

     site n.     atom                  positions (alat units)
         1           La1 tau(   1) = (   1.8670818   1.0779602  10.0000000  )
         2           La1 tau(   2) = (   5.6012453   1.0779602  10.0000000  )
         3           La1 tau(   3) = (   3.7341635   4.3118406  10.0000000  )
         4           La1 tau(   4) = (   7.4683270   4.3118406  10.0000000  )
         5           La1 tau(   5) = (   7.4683270   2.1559203  13.0489317  )
         6           La1 tau(   6) = (   3.7341635   2.1559203  13.0489317  )
         7           La1 tau(   7) = (   9.3354088   5.3898008  13.0489317  )
         8           La1 tau(   8) = (   5.6012453   5.3898008  13.0489317  )
         9           La1 tau(   9) = (   0.0000000   0.0000000  16.0978635  )
        10           La1 tau(  10) = (   3.7341635   0.0000000  16.0978635  )
        11           La1 tau(  11) = (   1.8670818   3.2338805  16.0978635  )
        12           La1 tau(  12) = (   5.6012453   3.2338805  16.0978635  )
        13           N1  tau(  13) = (   0.0000000   0.0000000  18.4608635  )

     number of k points=    20  Fermi-Dirac smearing, width (Ry)=  0.0110
                       cart. coord. in units 2pi/alat
        k(    1) = (   0.0000000   0.0000000   0.0000000), wk =   0.0555556
        k(    2) = (   0.0000000   0.0257688   0.0000000), wk =   0.1111111
        k(    3) = (   0.0000000   0.0515377   0.0000000), wk =   0.1111111
        k(    4) = (   0.0000000  -0.0773065   0.0000000), wk =   0.0555556
        k(    5) = (   0.0223165  -0.0128844   0.0000000), wk =   0.1111111
        k(    6) = (   0.0223165   0.0128844   0.0000000), wk =   0.1111111
        k(    7) = (   0.0223165   0.0386533   0.0000000), wk =   0.1111111
        k(    8) = (   0.0223165  -0.0901909   0.0000000), wk =   0.1111111
        k(    9) = (   0.0223165  -0.0644221   0.0000000), wk =   0.1111111
        k(   10) = (   0.0223165  -0.0386533   0.0000000), wk =   0.1111111
        k(   11) = (   0.0446329  -0.0257688   0.0000000), wk =   0.1111111
        k(   12) = (   0.0446329   0.0000000   0.0000000), wk =   0.1111111
        k(   13) = (   0.0446329   0.0257688   0.0000000), wk =   0.1111111
        k(   14) = (   0.0446329  -0.1030753   0.0000000), wk =   0.1111111
        k(   15) = (   0.0446329  -0.0773065   0.0000000), wk =   0.1111111
        k(   16) = (   0.0446329  -0.0515377   0.0000000), wk =   0.1111111
        k(   17) = (  -0.0669494   0.0386533   0.0000000), wk =   0.0555556
        k(   18) = (  -0.0669494   0.0644221   0.0000000), wk =   0.1111111
        k(   19) = (  -0.0669494   0.0901909   0.0000000), wk =   0.1111111
        k(   20) = (  -0.0669494  -0.0386533   0.0000000), wk =   0.0555556

     Largest allocated arrays     est. size (Mb)     dimensions
     Largest temporary arrays     est. size (Mb)     dimensions

     Initial potential from superposition of free atoms
     Check: negative starting charge=   -0.831106

     starting charge  136.61517, renormalised to  137.00000

     negative rho (up, down):  8.334E-01 0.000E+00

     *
     * You are using vdW-DF for exchange-correlation in this calculation.
     * Please cite the following three references that made this development
     * possible:
     *
     *   M. Dion, H. Rydberg, E. Schroder, D. C. Langreth, and
     *   B. I. Lundqvist, Phys. Rev. Lett. 92, 246401 (2004).
     *
     *   T. Thonhauser, V. R. Cooper, S. Li, A. Puzder, P. Hyldgaard, and
     *   D. C. Langreth, Phys. Rev. B 76, 125112 (2007).
     *
     *   G. Roman-Perez and J. M. Soler, Phys. Rev. Lett. 103, 096102 (2009).
     *
     *
     * If you are using vdW-DF2, please also cite:
     *
     *   K. Lee, E. D. Murray, L. Kong, B. I. Lundqvist, and
     *   D. C. Langreth, Phys. Rev. B 82, 081101(R) (2010).
     *
     *
     * If you are calculating the stress with vdW-DF, please also cite:
     *
     *   R. Sabatini, E. Kucukbenli, B. Kolb, T. Thonhauser, and
     *   S. de Gironcoli, J. Phys.: Condens. Matter 24, 424209 (2012).
     *

     Carrying out vdW-DF run using the following parameters:

     Nqs =      20    Nr_points =    1024   r_max =   100.000
     q_mesh =
               0.00001000     0.04494208     0.09755937     0.15916263
               0.23128650     0.31572767     0.41458969     0.53033537
               0.66584808     0.82450364     1.01025438     1.22772762
               1.48234092     1.78043706     2.12944203     2.53805004
               3.01644009     3.57652955     4.23227104     5.00000000

     Gradients computed in reciprocal space

     Adding external electric field

     Computed dipole along edir(3) :
        Dipole               -0.1440 Ry au,         -0.3659 Debye
        Dipole field         -0.0002 Ry au

        Potential amp.        0.0204 Ry
        Total length         48.0849 bohr

     Starting wfc are  244 randomized atomic wfcs

     Self-consistent Calculation

     iteration #  1     ecut=    36.75 Ry     beta=0.30
     Davidson diagonalization with overlap
     ethr =  1.00E-02,  avg # of iterations =  2.0

[...]

     total energy              =   -1265.52268298 Ry
     Harris-Foulkes estimate   =   -1269.07817846 Ry
     estimated scf accuracy    <       7.61952400 Ry

[...]

     iteration # 15     ecut=    36.75 Ry     beta=0.30
     Davidson diagonalization with overlap
     c_bands:  1 eigenvalues not converged
     c_bands:  1 eigenvalues not converged
     ethr =  2.62E-06,  avg # of iterations = 14.8

[...]

     End of self-consistent calculation

          k = 0.0000 0.0000 0.0000 ( 31997 PWs)   bands (ev):

   -32.2090 -32.1086 -32.1077 -32.0959 -31.9672 -31.9668 -31.9563 -31.6527
   -31.5364 -31.5361 -31.5037 -31.0656 -16.2748 -16.1861 -16.1861 -16.1572
   -16.1025 -16.1021 -16.0898 -15.9885 -15.9882 -15.9217 -15.8011 -15.6780
   -15.6778 -15.4930 -15.4851 -15.4520 -15.4520 -15.3547 -15.3533 -15.3532
   -15.3255 -15.3250 -15.1361 -15.0999 -15.0999 -15.0558 -15.0555 -15.0038
   -14.9355 -14.9353 -14.9329 -14.7483 -14.7072 -14.7072 -14.6186 -14.6184
    -9.6067  -1.5128  -0.7779  -0.4401  -0.3862  -0.3861  -0.3768  -0.1013
    -0.1012  -0.0997   0.1176   0.1460   0.1461   0.1623   0.1973   0.1974
     0.6099   0.6100   0.9106   0.9758   1.4145   1.4145   1.4718   1.8377
     2.0213   2.0214   2.0703   2.1425   2.3580   2.4389

[...]

          k =-0.0669 0.0387 0.0000 ( 31970 PWs)   bands (ev):

[...]

     the Fermi energy is     1.2631 ev

!    total energy              =   -1268.31980482 Ry
     Harris-Foulkes estimate   =   -1268.31982742 Ry
     estimated scf accuracy    <       0.00000296 Ry

     The total energy is the sum of the following terms:

     one-electron contribution =   -4721.35563458 Ry
     hartree contribution      =    2372.14487237 Ry
     xc contribution           =    -613.80480415 Ry
     ewald contribution        =    1694.81758764 Ry
     electric field correction =       0.00136909 Ry
     smearing contrib. (-TS)   =      -0.12319520 Ry

     convergence has been achieved in  19 iterations

 BEEF-vdW xc energy contributions
           1 :   -543.738662034766
           2 :    500.059264185967
           3 :   -422.870106138972
           4 :    328.671102964762
           5 :   -234.922165656944
           6 :    155.426078205340
           7 :   -97.7569842166558
           8 :    62.9469433270410
           9 :   -46.9480534158447
          10 :    43.0176845608966
          11 :   -44.1231413964920
          12 :    44.6684307767596
          13 :   -41.2946075495922
          14 :    32.9188831198630
          15 :   -20.3566729881209
          16 :    5.76737942064858
          17 :    8.00816762254294
          18 :   -18.2214007561824
          19 :    23.0092221705016
          20 :   -21.9953827083987
          21 :    16.4530634299526
          22 :   -8.90040041924362
          23 :    2.22025015420957
          24 :    1.37094762329718
          25 :   -1.08204582869053
          26 :   -2.29215096059136
          27 :    6.86360589052720
          28 :   -10.5519500134119
          29 :    11.9652684646348
          30 :   -10.8769423103863
          31 :   -46.3092034946233
          32 :   -33.2103648915704

     Forces acting on atoms (Ry/au):

     negative rho (up, down):  5.840E-01 0.000E+00
     atom    1 type  1   force =    -0.00037000   -0.00022068    0.00401865
     atom    2 type  1   force =     0.00037178   -0.00023072    0.00399350
     atom    3 type  1   force =    -0.00000584    0.00044531    0.00399914
     atom    4 type  1   force =     0.00001163    0.00001598    0.00519090
     atom    5 type  1   force =     0.00003730    0.00355737   -0.00550315
     atom    6 type  1   force =    -0.00004676   -0.00001448   -0.00308357
     atom    7 type  1   force =    -0.00310130   -0.00179183   -0.00544265
     atom    8 type  1   force =     0.00309654   -0.00175061   -0.00549704
     atom    9 type  1   force =    -0.00000211   -0.00001106    0.10443605
     atom   10 type  1   force =     0.00001053   -0.00206501    0.01165981
     atom   11 type  1   force =    -0.00177996    0.00103673    0.01166776
     atom   12 type  1   force =     0.00178266    0.00103061    0.01174786
     atom   13 type  2   force =    -0.00000446   -0.00000161   -0.13718726

     Total force =     0.173638     Total SCF correction =     0.001036

     entering subroutine stress ...

     negative rho (up, down):  5.840E-01 0.000E+00
          total   stress  (Ry/bohr**3)                   (kbar)     P=   -4.75
  -0.00000643   0.00000001   0.00000000         -0.95      0.00      0.00
   0.00000001  -0.00000644   0.00000001          0.00     -0.95      0.00
   0.00000000   0.00000001  -0.00008403          0.00      0.00    -12.36

     BFGS Geometry Optimization

     number of scf cycles    =   1
     number of bfgs steps    =   0

     energy   new            =   -1268.3198048231 Ry

     new trust radius        =       0.1371872622 bohr
     new conv_thr            =       0.0000099958 Ry

ATOMIC_POSITIONS (crystal)
La1      0.166666667   0.166666667   0.383173129    0   0   0
La1      0.666666667   0.166666667   0.383173129    0   0   0
La1      0.166666667   0.666666667   0.383173129    0   0   0
La1      0.666666667   0.666666667   0.383173129    0   0   0
La1      0.833333333   0.333333333   0.500000000    0   0   0
La1      0.333333333   0.333333333   0.500000000    0   0   0
La1      0.833333333   0.833333333   0.500000000    0   0   0
La1      0.333333333   0.833333333   0.500000000    0   0   0
La1      0.000000303  -0.000000905   0.618944484
La1      0.500085223  -0.000168954   0.617063293
La1     -0.000168533   0.500084823   0.617063454
La1      0.500084151   0.500084322   0.617065078
N1      -0.000000250  -0.000000132   0.704588984

     Writing output data file calc.save
     Check: negative starting charge=   -0.831106
     NEW-OLD atomic charge density approx. for the potential
     Check: negative starting charge=   -0.832049

[...]

     energy   old            =   -1268.3198048231 Ry
     energy   new            =   -1268.3492702087 Ry

     CASE: energy  _new < energy  _old

     WARNING: bfgs curvature condition failed, Theta= 0.856
     new trust radius        =       0.2057808934 bohr
     new conv_thr            =       0.0000001000 Ry

[...]

     CASE: energy  _new > energy  _old

[...]

     WARNING: bfgs curvature condition failed, Theta= 0.833
     new trust radius        =       0.0218645701 bohr
     new conv_thr            =       0.0000001000 Ry

[...]

     number of scf cycles    =  13
     number of bfgs steps    =  11

     energy   old            =   -1268.4055177200 Ry
     energy   new            =   -1268.4085312727 Ry

     CASE: energy  _new < energy  _old

     new trust radius        =       0.2490511194 bohr
     new conv_thr            =       0.0000001000 Ry

ATOMIC_POSITIONS (crystal)
La1      0.166666667   0.166666667   0.383173129    0   0   0
La1      0.666666667   0.166666667   0.383173129    0   0   0
La1      0.166666667   0.666666667   0.383173129    0   0   0
La1      0.666666667   0.666666667   0.383173129    0   0   0
La1      0.833333333   0.333333333   0.500000000    0   0   0
La1      0.333333333   0.333333333   0.500000000    0   0   0
La1      0.833333333   0.833333333   0.500000000    0   0   0
La1      0.333333333   0.833333333   0.500000000    0   0   0
La1      0.000002044   0.000002663   0.609428934
La1      0.501542470  -0.003087289   0.625074118
La1     -0.003088539   0.501543629   0.625073424
La1      0.501545215   0.501544396   0.625074639
N1      -0.000002676  -0.000002654   0.683639731

     Writing output data file calc.save
     Check: negative starting charge=   -0.832211
     NEW-OLD atomic charge density approx. for the potential
     Check: negative starting charge=   -0.833945

[...]

     Self-consistent Calculation

[...]

     iteration # 14     ecut=    36.75 Ry     beta=0.30
     Davidson diagonalization with overlap
     c_bands:  1 eigenvalues not converged
     ethr =  5.08E-09,  avg # of iterations =  8.5

[...]

     total energy              =   -1268.41006220 Ry
     Harris-Foulkes estimate   =   -1268.41006223 Ry
     estimated scf accuracy    <       0.00000039 Ry

     iteration # 16     ecut=    36.75 Ry     beta=0.30
     Davidson diagonalization with overlap
     ethr =  2.88E-10,  avg # of iterations = 12.1

[...]

     negative rho (up, down):  5.704E-01 0.000E+00

     Adding external electric field

     Computed dipole along edir(3) :
        Dipole               -0.3763 Ry au,         -0.9565 Debye
        Dipole field         -0.0006 Ry au

        Potential amp.        0.0535 Ry
        Total length         48.0849 bohr

     End of self-consistent calculation

[...]

          k = 0.0446-0.0515 0.0000 ( 31991 PWs)   bands (ev):

[...]

          k =-0.0669-0.0387 0.0000 ( 31970 PWs)   bands (ev):

   -31.9256 -31.8929 -31.8611 -31.6257 -31.6201 -31.5586 -31.5517 -31.2508
   -31.2470 -31.1861 -31.1851 -30.0656 -15.7940 -15.6924 -15.6275 -15.6024
   -15.5764 -15.5744 -15.5569 -15.5248 -15.5239 -15.4455 -15.4363 -15.3986
   -15.3911 -15.3461 -15.3419 -15.2551 -15.2486 -15.1913 -15.1807 -15.0581
   -15.0177 -15.0090 -14.8578 -14.8523 -14.8264 -14.8229 -14.8120 -14.7942
   -14.7111 -14.6916 -14.6613 -14.6517 -14.4840 -14.4674 -13.7736 -13.6944
    -8.1944  -0.0817  -0.0805   0.0353   0.1068   0.3838   0.5357   0.6129
     0.8328   0.8569   0.9145   0.9746   1.1429   1.1559   1.3348   1.4188
     1.4953   1.5567   1.6058   1.6212   1.7528   1.8214   1.8456   1.8546
     1.9763   2.0535   2.1308   2.1335   2.1595   2.2775

     the Fermi energy is     1.6645 ev

!    total energy              =   -1268.41006229 Ry
     Harris-Foulkes estimate   =   -1268.41006545 Ry
     estimated scf accuracy    <       0.00000009 Ry

     The total energy is the sum of the following terms:

     one-electron contribution =   -4716.07676714 Ry
     hartree contribution      =    2371.21733597 Ry
     xc contribution           =    -614.10486657 Ry
     ewald contribution        =    1690.67257211 Ry
     electric field correction =       0.00020919 Ry
     smearing contrib. (-TS)   =      -0.11854585 Ry

     convergence has been achieved in  16 iterations

 BEEF-vdW xc energy contributions
           1 :   -544.024883324788
           2 :    500.363352696171
           3 :   -423.196649787581
           4 :    329.024806682326
           5 :   -235.305633007152
           6 :    155.814560846778
           7 :   -98.0875327800208
           8 :    63.1394882779528
           9 :   -46.9460208975198
          10 :    42.8235661694299
          11 :   -43.8054327696426
          12 :    44.3318863452376
          13 :   -41.0299322639913
          14 :    32.7638719833723
          15 :   -20.2915955767246
          16 :    5.74172637052027
          17 :    8.03665985252167
          18 :   -18.2586015859703
          19 :    23.0261847744840
          20 :   -21.9602239607408
          21 :    16.3685271428842
          22 :   -8.81534280378207
          23 :    2.20401314681806
          24 :    1.27439253241130
          25 :  -0.888824663550849
          26 :   -2.50750296957187
          27 :    7.00774448404889
          28 :   -10.5657844907229
          29 :    11.8578204883651
          30 :   -10.7192982543169
          31 :   -46.3230064643056
          32 :   -33.2295544133983

     Forces acting on atoms (Ry/au):

     negative rho (up, down):  5.704E-01 0.000E+00
     atom    1 type  1   force =    -0.00032913   -0.00019095    0.00504097
     atom    2 type  1   force =     0.00032906   -0.00019072    0.00503967
     atom    3 type  1   force =    -0.00000046    0.00038002    0.00504008
     atom    4 type  1   force =     0.00000018    0.00000045    0.00713410
     atom    5 type  1   force =     0.00000230    0.01081927   -0.00870062
     atom    6 type  1   force =    -0.00000205   -0.00000115    0.00846263
     atom    7 type  1   force =    -0.00937010   -0.00540994   -0.00869877
     atom    8 type  1   force =     0.00937074   -0.00540751   -0.00870008
     atom    9 type  1   force =    -0.00000242   -0.00000321    0.00113200
     atom   10 type  1   force =     0.00000300    0.00116958   -0.00141600
     atom   11 type  1   force =     0.00101542   -0.00058123   -0.00141571
     atom   12 type  1   force =    -0.00101492   -0.00058401   -0.00141379
     atom   13 type  2   force =    -0.00000162   -0.00000061   -0.00150448

     Total force =     0.003696     Total SCF correction =     0.000104

     entering subroutine stress ...

     negative rho (up, down):  5.704E-01 0.000E+00
          total   stress  (Ry/bohr**3)                   (kbar)     P=   -2.41
  -0.00001436   0.00000000  -0.00000000         -2.11      0.00     -0.00
   0.00000000  -0.00001436  -0.00000000          0.00     -2.11     -0.00
  -0.00000000  -0.00000000  -0.00002040         -0.00     -0.00     -3.00

     bfgs converged in  14 scf cycles and  12 bfgs steps
     (criteria: energy <  1.0E+00, force <  1.9E-03)

     End of BFGS Geometry Optimization

     Final energy   =   -1268.4100622933 Ry
Begin final coordinates

ATOMIC_POSITIONS (crystal)
La1      0.166666667   0.166666667   0.383173129    0   0   0
La1      0.666666667   0.166666667   0.383173129    0   0   0
La1      0.166666667   0.666666667   0.383173129    0   0   0
La1      0.666666667   0.666666667   0.383173129    0   0   0
La1      0.833333333   0.333333333   0.500000000    0   0   0
La1      0.333333333   0.333333333   0.500000000    0   0   0
La1      0.833333333   0.833333333   0.500000000    0   0   0
La1      0.333333333   0.833333333   0.500000000    0   0   0
La1      0.000002044   0.000002663   0.609428934
La1      0.501542470  -0.003087289   0.625074118
La1     -0.003088539   0.501543629   0.625073424
La1      0.501545215   0.501544396   0.625074639
N1      -0.000002676  -0.000002654   0.683639731
End final coordinates

     Writing output data file calc.save

     General routines

     Parallel routines

   This run was terminated on:  17:18:24   3May2018

   JOB DONE.
Job  /afs/slac/g/suncat/bin/suncat-tsmpirun -x LD_LIBRARY_PATH -wdir /scratch/qe736255_AZI9i pw.x -npool 4 -in pw.inp

TID   HOST_NAME   COMMAND_LINE            STATUS            TERMINATION_TIME
00000 suncat0002 pw.x -npool 4 -i  Done                     05/03/2018 17:18:24
00001 suncat0002 pw.x -npool 4 -i  Done                     05/03/2018 17:18:24
00002 suncat0002 pw.x -npool 4 -i  Done                     05/03/2018 17:18:24
00003 suncat0002 pw.x -npool 4 -i  Done                     05/03/2018 17:18:24
00004 suncat0002 pw.x -npool 4 -i  Done                     05/03/2018 17:18:24
00005 suncat0002 pw.x -npool 4 -i  Done                     05/03/2018 17:18:24
00006 suncat0002 pw.x -npool 4 -i  Done                     05/03/2018 17:18:24
00007 suncat0002 pw.x -npool 4 -i  Done                     05/03/2018 17:18:24
00008 suncat0185 pw.x -npool 4 -i  Done                     05/03/2018 17:18:24
00009 suncat0185 pw.x -npool 4 -i  Done                     05/03/2018 17:18:24
00010 suncat0185 pw.x -npool 4 -i  Done                     05/03/2018 17:18:24
00011 suncat0185 pw.x -npool 4 -i  Done                     05/03/2018 17:18:24
00012 suncat0185 pw.x -npool 4 -i  Done                     05/03/2018 17:18:24
00013 suncat0185 pw.x -npool 4 -i  Done                     05/03/2018 17:18:24
00014 suncat0185 pw.x -npool 4 -i  Done                     05/03/2018 17:18:24
00015 suncat0185 pw.x -npool 4 -i  Done                     05/03/2018 17:18:24
00016 suncat0278 pw.x -npool 4 -i  Done                     05/03/2018 17:18:24
00017 suncat0278 pw.x -npool 4 -i  Done                     05/03/2018 17:18:24
00018 suncat0278 pw.x -npool 4 -i  Done                     05/03/2018 17:18:24
00019 suncat0278 pw.x -npool 4 -i  Done                     05/03/2018 17:18:24
00020 suncat0278 pw.x -npool 4 -i  Done                     05/03/2018 17:18:24
00021 suncat0278 pw.x -npool 4 -i  Done                     05/03/2018 17:18:24
00022 suncat0278 pw.x -npool 4 -i  Done                     05/03/2018 17:18:24
00023 suncat0278 pw.x -npool 4 -i  Done                     05/03/2018 17:18:24
00024 suncat0264 pw.x -npool 4 -i  Done                     05/03/2018 17:18:24
00025 suncat0264 pw.x -npool 4 -i  Done                     05/03/2018 17:18:24
00026 suncat0264 pw.x -npool 4 -i  Done                     05/03/2018 17:18:24
00027 suncat0264 pw.x -npool 4 -i  Done                     05/03/2018 17:18:24
00028 suncat0264 pw.x -npool 4 -i  Done                     05/03/2018 17:18:24
00029 suncat0264 pw.x -npool 4 -i  Done                     05/03/2018 17:18:24
00030 suncat0264 pw.x -npool 4 -i  Done                     05/03/2018 17:18:24
00031 suncat0264 pw.x -npool 4 -i  Done                     05/03/2018 17:18:24