     Program PWSCF v.5.1rc2 (svn rev. 11289) starts on 25Apr2018 at  6:55:55

     Current dimensions of program PWSCF are:
     Max number of different atomic species (ntypx) = 10
     Max number of k-points (npk) =  40000
     Max angular momentum in pseudopotentials (lmaxx) =  3
     Presently stress not available with electric field

     IMPORTANT: XC functional enforced from input :
     Exchange-correlation      = BEEF-VDW ( 1  4 27 13 2)
     Any further DFT definition will be discarded
     Please, verify this is what you really want

     Subspace diagonalization in iterative solution of the eigenvalue problem:
     a serial algorithm will be used

     bravais-lattice index     =            0
     lattice parameter (alat)  =       1.8897  a.u.
     unit-cell volume          =    6082.7792 (a.u.)^3
     number of atoms/cell      =           14
     number of atomic types    =            3
     number of electrons       =       149.00
     number of Kohn-Sham states=           84
     kinetic-energy cutoff     =      36.7493  Ry
     charge density cutoff     =     367.4932  Ry
     convergence threshold     =      1.0E-05
     mixing beta               =       0.3000
     number of iterations used =           10  plain     mixing
     Exchange-correlation      = BEEF-VDW ( 1  4 27 13 2)
     nstep                     =           50

     celldm(1)=   1.889726  celldm(2)=   0.000000  celldm(3)=   0.000000
     celldm(4)=   0.000000  celldm(5)=   0.000000  celldm(6)=   0.000000

     crystal axes: (cart. coord. in units of alat)
               a(1) = (   6.421223   0.000000   0.000000 )
               a(2) = (   3.210611   5.560942   0.000000 )
               a(3) = (   0.000000   0.000000  25.242906 )

     reciprocal axes: (cart. coord. in units 2 pi/alat)
               b(1) = (  0.155734 -0.089913  0.000000 )
               b(2) = (  0.000000  0.179826  0.000000 )
               b(3) = (  0.000000  0.000000  0.039615 )

     PseudoPot. # 1 for Zr read from file:
     /u/if/mamunm/psp/gbrv1.5pbe/Zr.UPF
     MD5 check sum: 5db81b1e868ab7776c4564c113de050b
     Pseudo is Ultrasoft + core correction, Zval = 12.0
     Generated by new atomic code, or converted to UPF format
     Using radial grid of  887 points,  6 beta functions with:
                l(1) =   0
                l(2) =   0
                l(3) =   1
                l(4) =   1
                l(5) =   2
                l(6) =   2
     Q(r) pseudized with  6 coefficients,  rinner =    1.200   1.200   1.200
                                                       1.200   1.200

     PseudoPot. # 2 for C  read from file:
     /u/if/mamunm/psp/gbrv1.5pbe/C.UPF
     MD5 check sum: d1aef80898a10debaa0f26306b886e00
     Pseudo is Ultrasoft + core correction, Zval =  4.0
     Generated by new atomic code, or converted to UPF format
     Using radial grid of  721 points,  4 beta functions with:
                l(1) =   0
                l(2) =   0
                l(3) =   1
                l(4) =   1
     Q(r) pseudized with  8 coefficients,  rinner =    1.100   1.100   1.100

     PseudoPot. # 3 for H  read from file:
     /u/if/mamunm/psp/gbrv1.5pbe/H.UPF
     MD5 check sum: 761ae9a214b05c3daf00ab9f6b793d6f
     Pseudo is Ultrasoft, Zval =  1.0
     Generated by new atomic code, or converted to UPF format
     Using radial grid of  615 points,  2 beta functions with:
                l(1) =   0
                l(2) =   0
     Q(r) pseudized with  8 coefficients,  rinner =    0.700

     vdW kernel table read from file vdW_kernel_table
     MD5 check sum: 095c7af220d748ca6e76c0b4c6cfb241

     atomic species   valence    mass     pseudopotential
        Zr1           12.00    91.22400     Zr( 1.00)
        C1             4.00    12.01100     C ( 1.00)
        H1             1.00     1.00800     H ( 1.00)

     No symmetry found

   Cartesian axes

     site n.     atom                  positions (alat units)
         1           Zr1 tau(   1) = (   1.6053057   0.9268237  10.0000000  )
         2           Zr1 tau(   2) = (   4.8159170   0.9268237  10.0000000  )
         3           Zr1 tau(   3) = (   3.2106113   3.7072946  10.0000000  )
         4           Zr1 tau(   4) = (   6.4212227   3.7072946  10.0000000  )
         5           Zr1 tau(   5) = (   6.4212227   1.8536473  12.6214532  )
         6           Zr1 tau(   6) = (   3.2106113   1.8536473  12.6214532  )
         7           Zr1 tau(   7) = (   8.0265283   4.6341183  12.6214532  )
         8           Zr1 tau(   8) = (   4.8159170   4.6341183  12.6214532  )
         9           Zr1 tau(   9) = (   0.0000000   0.0000000  15.2429064  )
        10           Zr1 tau(  10) = (   3.2106113   0.0000000  15.2429064  )
        11           Zr1 tau(  11) = (   1.6053057   2.7804710  15.2429064  )
        12           Zr1 tau(  12) = (   4.8159170   2.7804710  15.2429064  )
        13           C1  tau(  13) = (   0.0000000   0.0000000  17.3764064  )
        14           H1  tau(  14) = (   0.0000000   0.0000000  18.4764064  )

     number of k points=    20  Fermi-Dirac smearing, width (Ry)=  0.0110
                       cart. coord. in units 2pi/alat
        k(    1) = (   0.0000000   0.0000000   0.0000000), wk =   0.0555556
        k(    2) = (   0.0000000   0.0299709   0.0000000), wk =   0.1111111
        k(    3) = (   0.0000000   0.0599419   0.0000000), wk =   0.1111111
        k(    4) = (   0.0000000  -0.0899128   0.0000000), wk =   0.0555556
        k(    5) = (   0.0259556  -0.0149855   0.0000000), wk =   0.1111111
        k(    6) = (   0.0259556   0.0149855   0.0000000), wk =   0.1111111
        k(    7) = (   0.0259556   0.0449564   0.0000000), wk =   0.1111111
        k(    8) = (   0.0259556  -0.1048983   0.0000000), wk =   0.1111111
        k(    9) = (   0.0259556  -0.0749274   0.0000000), wk =   0.1111111
        k(   10) = (   0.0259556  -0.0449564   0.0000000), wk =   0.1111111
        k(   11) = (   0.0519112  -0.0299709   0.0000000), wk =   0.1111111
        k(   12) = (   0.0519112   0.0000000   0.0000000), wk =   0.1111111
        k(   13) = (   0.0519112   0.0299709   0.0000000), wk =   0.1111111
        k(   14) = (   0.0519112  -0.1198838   0.0000000), wk =   0.1111111
        k(   15) = (   0.0519112  -0.0899128   0.0000000), wk =   0.1111111
        k(   16) = (   0.0519112  -0.0599419   0.0000000), wk =   0.1111111
        k(   17) = (  -0.0778668   0.0449564   0.0000000), wk =   0.0555556
        k(   18) = (  -0.0778668   0.0749274   0.0000000), wk =   0.1111111
        k(   19) = (  -0.0778668   0.1048983   0.0000000), wk =   0.1111111
        k(   20) = (  -0.0778668  -0.0449564   0.0000000), wk =   0.0555556

     Largest allocated arrays     est. size (Mb)     dimensions
     Largest temporary arrays     est. size (Mb)     dimensions

     Initial potential from superposition of free atoms
     Check: negative starting charge=   -0.729050

     starting charge  148.97416, renormalised to  149.00000

     negative rho (up, down):  7.292E-01 0.000E+00

     *
     * You are using vdW-DF for exchange-correlation in this calculation.
     * Please cite the following three references that made this development
     * possible:
     *
     *   M. Dion, H. Rydberg, E. Schroder, D. C. Langreth, and
     *   B. I. Lundqvist, Phys. Rev. Lett. 92, 246401 (2004).
     *
     *   T. Thonhauser, V. R. Cooper, S. Li, A. Puzder, P. Hyldgaard, and
     *   D. C. Langreth, Phys. Rev. B 76, 125112 (2007).
     *
     *   G. Roman-Perez and J. M. Soler, Phys. Rev. Lett. 103, 096102 (2009).
     *
     *
     * If you are using vdW-DF2, please also cite:
     *
     *   K. Lee, E. D. Murray, L. Kong, B. I. Lundqvist, and
     *   D. C. Langreth, Phys. Rev. B 82, 081101(R) (2010).
     *
     *
     * If you are calculating the stress with vdW-DF, please also cite:
     *
     *   R. Sabatini, E. Kucukbenli, B. Kolb, T. Thonhauser, and
     *   S. de Gironcoli, J. Phys.: Condens. Matter 24, 424209 (2012).
     *

     Carrying out vdW-DF run using the following parameters:

     Nqs =      20    Nr_points =    1024   r_max =   100.000
     q_mesh =
               0.00001000     0.04494208     0.09755937     0.15916263
               0.23128650     0.31572767     0.41458969     0.53033537
               0.66584808     0.82450364     1.01025438     1.22772762
               1.48234092     1.78043706     2.12944203     2.53805004
               3.01644009     3.57652955     4.23227104     5.00000000

     Gradients computed in reciprocal space

     Adding external electric field

     Computed dipole along edir(3) :
        Dipole               -0.0077 Ry au,         -0.0195 Debye
        Dipole field         -0.0000 Ry au

        Potential amp.        0.0015 Ry
        Total length         46.5096 bohr

     Starting wfc are  161 randomized atomic wfcs

     Self-consistent Calculation

     iteration #  1     ecut=    36.75 Ry     beta=0.30
     Davidson diagonalization with overlap
     ethr =  1.00E-02,  avg # of iterations =  2.0

[...]

     total energy              =   -1206.38641953 Ry
     Harris-Foulkes estimate   =   -1210.13860538 Ry
     estimated scf accuracy    <       8.03098041 Ry

[...]

     iteration # 11     ecut=    36.75 Ry     beta=0.30
     Davidson diagonalization with overlap
     c_bands:  1 eigenvalues not converged
     ethr =  5.42E-06,  avg # of iterations =  7.4

[...]

     End of self-consistent calculation

          k = 0.0000 0.0000 0.0000 ( 22923 PWs)   bands (ev):

   -47.9810 -47.9125 -47.9125 -47.8790 -47.7945 -47.7855 -47.7854 -47.5844
   -47.5063 -47.5061 -47.4850 -47.2233 -26.2256 -26.1696 -26.1695 -26.1491
   -26.1420 -26.1193 -26.1193 -26.0606 -26.0606 -26.0000 -25.9303 -25.8661
   -25.8660 -25.7262 -25.7196 -25.6814 -25.6814 -25.6170 -25.6170 -25.6088
   -25.6003 -25.6003 -25.4735 -25.4471 -25.4471 -25.4367 -25.4366 -25.4002
   -25.3238 -25.3237 -25.3173 -25.1800 -25.1800 -25.1461 -25.1461 -25.0988
    -8.7312  -3.6025  -2.6184  -2.0662  -1.6048  -1.1780  -1.1780  -1.1643
    -1.0394  -1.0393  -0.9581  -0.5822  -0.5822  -0.5759  -0.4390  -0.4390
    -0.3815   0.1711   0.1711   0.4150   1.1355   1.1355   1.3308   1.5647
     1.7734   1.8630   1.8630   1.9500   2.1656   2.1656   2.2073   2.3114
     2.3114   2.5530   2.5537   2.5777

[...]

          k =-0.0779 0.0450 0.0000 ( 22880 PWs)   bands (ev):

[...]

     the Fermi energy is     1.4008 ev

!    total energy              =   -1209.53948941 Ry
     Harris-Foulkes estimate   =   -1209.53950155 Ry
     estimated scf accuracy    <       0.00000698 Ry

     The total energy is the sum of the following terms:

     one-electron contribution =   -8316.82517561 Ry
     hartree contribution      =    4150.68345235 Ry
     xc contribution           =    -224.73448075 Ry
     ewald contribution        =    3181.45187505 Ry
     electric field correction =       0.00001679 Ry
     smearing contrib. (-TS)   =      -0.11517725 Ry

     convergence has been achieved in  17 iterations

 BEEF-vdW xc energy contributions
           1 :   -192.404902205857
           2 :    174.031772962508
           3 :   -143.138305414475
           4 :    108.468821077785
           5 :   -77.8386392795726
           6 :    55.4418858905632
           7 :   -41.2475352983151
           8 :    32.3492469795311
           9 :   -25.2264150176761
          10 :    17.6500598350519
          11 :   -9.41036978958203
          12 :    1.79076922540787
          13 :    3.64718178769792
          14 :   -6.17002305621693
          15 :    6.27847463929163
          16 :   -5.30240194177728
          17 :    4.55497533311814
          18 :   -4.62515400688937
          19 :    5.21762977606804
          20 :   -5.55829018888946
          21 :    5.03183114304031
          22 :   -3.61694131574109
          23 :    1.87181068874500
          24 :  -0.538406065394099
          25 :   6.609536108436487E-002
          26 :  -0.369131234881024
          27 :   0.945145773905296
          28 :   -1.24002881408501
          29 :    1.00184095679177
          30 :  -0.400551456379077
          31 :   -22.3712562483025
          32 :   -16.6585834968229

     Forces acting on atoms (Ry/au):

     negative rho (up, down):  7.492E-01 0.000E+00
     atom    1 type  1   force =     0.00066367    0.00037825    0.01521286
     atom    2 type  1   force =    -0.00066312    0.00037778    0.01521935
     atom    3 type  1   force =    -0.00000071   -0.00075991    0.01522767
     atom    4 type  1   force =    -0.00000079    0.00000594    0.01520325
     atom    5 type  1   force =     0.00001168    0.00724765   -0.01243137
     atom    6 type  1   force =    -0.00001116    0.00000260   -0.00048439
     atom    7 type  1   force =    -0.00627915   -0.00363365   -0.01242626
     atom    8 type  1   force =     0.00627980   -0.00361972   -0.01244591
     atom    9 type  1   force =     0.00000104   -0.00000258    0.04829818
     atom   10 type  1   force =    -0.00000140   -0.00060914    0.00476640
     atom   11 type  1   force =    -0.00052426    0.00030492    0.00476647
     atom   12 type  1   force =     0.00052491    0.00030703    0.00476366
     atom   13 type  2   force =    -0.00000041    0.00000057   -0.08025981
     atom   14 type  3   force =    -0.00000010    0.00000026   -0.00541011

     Total force =     0.094196     Total SCF correction =     0.001136

     entering subroutine stress ...

     negative rho (up, down):  7.492E-01 0.000E+00
          total   stress  (Ry/bohr**3)                   (kbar)     P=  -14.22
  -0.00007877  -0.00000000   0.00000000        -11.59     -0.00      0.00
  -0.00000000  -0.00007877  -0.00000000         -0.00    -11.59     -0.00
   0.00000000  -0.00000000  -0.00013250          0.00     -0.00    -19.49

     BFGS Geometry Optimization

     number of scf cycles    =   1
     number of bfgs steps    =   0

     energy   new            =   -1209.5394894083 Ry

     new trust radius        =       0.0802598101 bohr
     new conv_thr            =       0.0000099958 Ry

ATOMIC_POSITIONS (crystal)
Zr1      0.166666667   0.166666667   0.396150897    0   0   0
Zr1      0.666666667   0.166666667   0.396150897    0   0   0
Zr1      0.166666667   0.666666667   0.396150897    0   0   0
Zr1      0.666666667   0.666666667   0.396150897    0   0   0
Zr1      0.833333333   0.333333333   0.500000000    0   0   0
Zr1      0.333333333   0.333333333   0.500000000    0   0   0
Zr1      0.833333333   0.833333333   0.500000000    0   0   0
Zr1      0.333333333   0.833333333   0.500000000    0   0   0
Zr1      0.000000208  -0.000000246   0.604861597
Zr1      0.500028867  -0.000057965   0.603949023
Zr1     -0.000057712   0.500029016   0.603949024
Zr1      0.500028650   0.500029217   0.603948965
C1      -0.000000061   0.000000054   0.686685378
H1      -0.000000021   0.000000025   0.731831081

     Writing output data file calc.save
     Check: negative starting charge=   -0.729050
     NEW-OLD atomic charge density approx. for the potential
     Check: negative starting charge=   -0.728104

[...]

     energy   old            =   -1209.5394894083 Ry
     energy   new            =   -1209.5444658791 Ry

     CASE: energy  _new < energy  _old

[...]

     Total force =     0.011163     Total SCF correction =     0.000261

[...]

     Total force =     0.006630     Total SCF correction =     0.000665
     SCF correction compared to forces is large: reduce conv_thr to get better values

[...]

     number of scf cycles    =  15
     number of bfgs steps    =  14

     energy   old            =   -1209.5598012451 Ry
     energy   new            =   -1209.5598653787 Ry

     CASE: energy  _new < energy  _old

     new trust radius        =       0.0142704936 bohr
     new conv_thr            =       0.0000001000 Ry

ATOMIC_POSITIONS (crystal)
Zr1      0.166666667   0.166666667   0.396150897    0   0   0
Zr1      0.666666667   0.166666667   0.396150897    0   0   0
Zr1      0.166666667   0.666666667   0.396150897    0   0   0
Zr1      0.666666667   0.666666667   0.396150897    0   0   0
Zr1      0.833333333   0.333333333   0.500000000    0   0   0
Zr1      0.333333333   0.333333333   0.500000000    0   0   0
Zr1      0.833333333   0.833333333   0.500000000    0   0   0
Zr1      0.333333333   0.833333333   0.500000000    0   0   0
Zr1     -0.000001770   0.000000124   0.595970253
Zr1      0.501599312  -0.003199210   0.604188602
Zr1     -0.003200285   0.501599438   0.604188938
Zr1      0.501599729   0.501599012   0.604188883
C1       0.000001990   0.000001167   0.675122729
H1       0.000001673   0.000000470   0.718547086

     Writing output data file calc.save
     Check: negative starting charge=   -0.729017
     NEW-OLD atomic charge density approx. for the potential
     Check: negative starting charge=   -0.728992

[...]

     Self-consistent Calculation

[...]

     Threshold (ethr) on eigenvalues was too large:
     Diagonalizing with lowered threshold

     Davidson diagonalization with overlap
     ethr =  4.01E-08,  avg # of iterations =  3.1

[...]

     total energy              =   -1209.55989559 Ry
     Harris-Foulkes estimate   =   -1209.55989561 Ry
     estimated scf accuracy    <       0.00000012 Ry

     iteration #  9     ecut=    36.75 Ry     beta=0.30
     Davidson diagonalization with overlap
     ethr =  7.75E-11,  avg # of iterations =  3.1

[...]

     negative rho (up, down):  7.491E-01 0.000E+00

     Adding external electric field

     Computed dipole along edir(3) :
        Dipole                0.0095 Ry au,          0.0241 Debye
        Dipole field          0.0000 Ry au

        Potential amp.       -0.0018 Ry
        Total length         46.5096 bohr

     End of self-consistent calculation

[...]

          k = 0.0519-0.0599 0.0000 ( 22856 PWs)   bands (ev):

[...]

          k =-0.0779-0.0450 0.0000 ( 22880 PWs)   bands (ev):

   -47.8694 -47.8467 -47.8245 -47.7119 -47.7032 -47.6643 -47.6580 -47.4098
   -47.3955 -47.3617 -47.3517 -46.8220 -26.0082 -25.9896 -25.9571 -25.9301
   -25.9063 -25.8930 -25.8605 -25.8442 -25.8145 -25.7871 -25.7819 -25.7646
   -25.7227 -25.7216 -25.6896 -25.6755 -25.6474 -25.6293 -25.5532 -25.5111
   -25.4829 -25.4158 -25.4050 -25.4012 -25.3438 -25.3354 -25.3263 -25.3027
   -25.2957 -25.2724 -25.2665 -25.1132 -25.1023 -24.8643 -24.8154 -24.8096
    -8.6464  -2.5870  -2.0075  -1.7975  -1.1228  -0.8958  -0.4300  -0.4177
    -0.3588  -0.2656  -0.2287  -0.2014   0.0426   0.2253   0.5331   0.5364
     0.5409   0.5943   0.6112   0.6863   0.9732   1.0568   1.0610   1.1086
     1.1879   1.1944   1.3269   1.4929   1.5144   1.5425   1.6090   1.8098
     1.8177   1.9123   2.0854   2.2158

     the Fermi energy is     1.5255 ev

!    total energy              =   -1209.55989560 Ry
     Harris-Foulkes estimate   =   -1209.55989560 Ry
     estimated scf accuracy    <       0.00000004 Ry

     The total energy is the sum of the following terms:

     one-electron contribution =   -8418.24177287 Ry
     hartree contribution      =    4202.11287335 Ry
     xc contribution           =    -224.91291936 Ry
     ewald contribution        =    3231.59400655 Ry
     electric field correction =       0.00000019 Ry
     smearing contrib. (-TS)   =      -0.11208345 Ry

     convergence has been achieved in   9 iterations

 BEEF-vdW xc energy contributions
           1 :   -192.578864713115
           2 :    174.247465633567
           3 :   -143.400617299508
           4 :    108.741663039653
           5 :   -78.0651435696780
           6 :    55.5739991452812
           7 :   -41.2740088965795
           8 :    32.3054031234438
           9 :   -25.1758733622368
          10 :    17.6467283569452
          11 :   -9.46599162279446
          12 :    1.87162447454247
          13 :    3.59236188522627
          14 :   -6.17196059520697
          15 :    6.32730640098626
          16 :   -5.35904136875050
          17 :    4.58158134214494
          18 :   -4.61065274782257
          19 :    5.18199119522174
          20 :   -5.53427936352648
          21 :    5.03844221998594
          22 :   -3.64397480073754
          23 :    1.88617339420520
          24 :  -0.507948189916220
          25 :  -1.590590401670511E-002
          26 :  -0.261472896702145
          27 :   0.854678963412795
          28 :   -1.19881485157137
          29 :    1.01055954323593
          30 :  -0.429148164987964
          31 :   -22.3842612750164
          32 :   -16.6810076819071

     Forces acting on atoms (Ry/au):

     negative rho (up, down):  7.491E-01 0.000E+00
     atom    1 type  1   force =     0.00049853    0.00028779    0.01501872
     atom    2 type  1   force =    -0.00049861    0.00028727    0.01501966
     atom    3 type  1   force =    -0.00000047   -0.00057555    0.01501935
     atom    4 type  1   force =     0.00000061    0.00000038    0.01410016
     atom    5 type  1   force =    -0.00000028    0.01928938   -0.02279032
     atom    6 type  1   force =     0.00000045    0.00000057    0.00893680
     atom    7 type  1   force =    -0.01670502   -0.00964493   -0.02279116
     atom    8 type  1   force =     0.01670439   -0.00964486   -0.02278972
     atom    9 type  1   force =     0.00000133   -0.00000094    0.00028666
     atom   10 type  1   force =    -0.00000131    0.00040589    0.00009024
     atom   11 type  1   force =     0.00035212   -0.00020336    0.00008903
     atom   12 type  1   force =    -0.00035247   -0.00020208    0.00008984
     atom   13 type  2   force =    -0.00000013    0.00000005    0.00003012
     atom   14 type  3   force =     0.00000086    0.00000038   -0.00030938

     Total force =     0.000836     Total SCF correction =     0.000177
     SCF correction compared to forces is large: reduce conv_thr to get better values

     entering subroutine stress ...

     negative rho (up, down):  7.491E-01 0.000E+00
          total   stress  (Ry/bohr**3)                   (kbar)     P=   -9.55
  -0.00007284   0.00000000   0.00000000        -10.72      0.00      0.00
   0.00000000  -0.00007284   0.00000000          0.00    -10.72      0.00
   0.00000000   0.00000000  -0.00004903          0.00      0.00     -7.21

     bfgs converged in  16 scf cycles and  15 bfgs steps
     (criteria: energy <  1.0E+00, force <  1.9E-03)

     End of BFGS Geometry Optimization

     Final energy   =   -1209.5598955989 Ry
Begin final coordinates

ATOMIC_POSITIONS (crystal)
Zr1      0.166666667   0.166666667   0.396150897    0   0   0
Zr1      0.666666667   0.166666667   0.396150897    0   0   0
Zr1      0.166666667   0.666666667   0.396150897    0   0   0
Zr1      0.666666667   0.666666667   0.396150897    0   0   0
Zr1      0.833333333   0.333333333   0.500000000    0   0   0
Zr1      0.333333333   0.333333333   0.500000000    0   0   0
Zr1      0.833333333   0.833333333   0.500000000    0   0   0
Zr1      0.333333333   0.833333333   0.500000000    0   0   0
Zr1     -0.000001770   0.000000124   0.595970253
Zr1      0.501599312  -0.003199210   0.604188602
Zr1     -0.003200285   0.501599438   0.604188938
Zr1      0.501599729   0.501599012   0.604188883
C1       0.000001990   0.000001167   0.675122729
H1       0.000001673   0.000000470   0.718547086
End final coordinates

     Writing output data file calc.save

     General routines

     Parallel routines

   This run was terminated on:   9: 0: 9  25Apr2018

   JOB DONE.
Job  /afs/slac/g/suncat/bin/suncat-tsmpirun -x LD_LIBRARY_PATH -wdir /scratch/qe365458_kf0sB pw.x -npool 4 -in pw.inp

TID   HOST_NAME   COMMAND_LINE            STATUS            TERMINATION_TIME
00000 suncat0199 pw.x -npool 4 -i  Done                     04/25/2018 09:00:09
00001 suncat0199 pw.x -npool 4 -i  Done                     04/25/2018 09:00:09
00002 suncat0199 pw.x -npool 4 -i  Done                     04/25/2018 09:00:09
00003 suncat0199 pw.x -npool 4 -i  Done                     04/25/2018 09:00:09
00004 suncat0199 pw.x -npool 4 -i  Done                     04/25/2018 09:00:09
00005 suncat0199 pw.x -npool 4 -i  Done                     04/25/2018 09:00:09
00006 suncat0199 pw.x -npool 4 -i  Done                     04/25/2018 09:00:09
00007 suncat0199 pw.x -npool 4 -i  Done                     04/25/2018 09:00:09
00008 suncat0194 pw.x -npool 4 -i  Done                     04/25/2018 09:00:09
00009 suncat0194 pw.x -npool 4 -i  Done                     04/25/2018 09:00:09
00010 suncat0194 pw.x -npool 4 -i  Done                     04/25/2018 09:00:09
00011 suncat0194 pw.x -npool 4 -i  Done                     04/25/2018 09:00:09
00012 suncat0194 pw.x -npool 4 -i  Done                     04/25/2018 09:00:09
00013 suncat0194 pw.x -npool 4 -i  Done                     04/25/2018 09:00:09
00014 suncat0194 pw.x -npool 4 -i  Done                     04/25/2018 09:00:09
00015 suncat0194 pw.x -npool 4 -i  Done                     04/25/2018 09:00:09
00016 suncat0002 pw.x -npool 4 -i  Done                     04/25/2018 09:00:09
00017 suncat0002 pw.x -npool 4 -i  Done                     04/25/2018 09:00:09
00018 suncat0002 pw.x -npool 4 -i  Done                     04/25/2018 09:00:09
00019 suncat0002 pw.x -npool 4 -i  Done                     04/25/2018 09:00:09
00020 suncat0002 pw.x -npool 4 -i  Done                     04/25/2018 09:00:09
00021 suncat0002 pw.x -npool 4 -i  Done                     04/25/2018 09:00:09
00022 suncat0002 pw.x -npool 4 -i  Done                     04/25/2018 09:00:09
00023 suncat0002 pw.x -npool 4 -i  Done                     04/25/2018 09:00:09
00024 suncat0168 pw.x -npool 4 -i  Done                     04/25/2018 09:00:09
00025 suncat0168 pw.x -npool 4 -i  Done                     04/25/2018 09:00:09
00026 suncat0168 pw.x -npool 4 -i  Done                     04/25/2018 09:00:09
00027 suncat0168 pw.x -npool 4 -i  Done                     04/25/2018 09:00:09
00028 suncat0168 pw.x -npool 4 -i  Done                     04/25/2018 09:00:09
00029 suncat0168 pw.x -npool 4 -i  Done                     04/25/2018 09:00:09
00030 suncat0168 pw.x -npool 4 -i  Done                     04/25/2018 09:00:09
00031 suncat0168 pw.x -npool 4 -i  Done                     04/25/2018 09:00:09