     Program PWSCF v.5.1rc2 starts on 27Apr2018 at 11:24:17

     Current dimensions of program PWSCF are:
     Max number of different atomic species (ntypx) = 10
     Max number of k-points (npk) =  40000
     Max angular momentum in pseudopotentials (lmaxx) =  3
     Presently stress not available with electric field

     IMPORTANT: XC functional enforced from input :
     Exchange-correlation      = BEEF-VDW ( 1  4 27 13 2)
     Any further DFT definition will be discarded
     Please, verify this is what you really want

     bravais-lattice index     =            0
     lattice parameter (alat)  =       1.8897  a.u.
     unit-cell volume          =    6082.7792 (a.u.)^3
     number of atoms/cell      =           15
     number of atomic types    =            3
     number of electrons       =       150.00
     number of Kohn-Sham states=           85
     kinetic-energy cutoff     =      36.7493  Ry
     charge density cutoff     =     367.4932  Ry
     convergence threshold     =      1.0E-05
     mixing beta               =       0.3000
     number of iterations used =           10  plain     mixing
     Exchange-correlation      = BEEF-VDW ( 1  4 27 13 2)
     nstep                     =           50

     celldm(1)=   1.889726  celldm(2)=   0.000000  celldm(3)=   0.000000
     celldm(4)=   0.000000  celldm(5)=   0.000000  celldm(6)=   0.000000

     crystal axes: (cart. coord. in units of alat)
               a(1) = (   6.421223   0.000000   0.000000 )
               a(2) = (   3.210611   5.560942   0.000000 )
               a(3) = (   0.000000   0.000000  25.242906 )

     reciprocal axes: (cart. coord. in units 2 pi/alat)
               b(1) = (  0.155734 -0.089913  0.000000 )
               b(2) = (  0.000000  0.179826  0.000000 )
               b(3) = (  0.000000  0.000000  0.039615 )

     PseudoPot. # 1 for Zr read from file:
     /home/users/mamunm/src/pseudo/gbrv1.5pbe/Zr.UPF
     MD5 check sum: 5db81b1e868ab7776c4564c113de050b
     Pseudo is Ultrasoft + core correction, Zval = 12.0
     Generated by new atomic code, or converted to UPF format
     Using radial grid of  887 points,  6 beta functions with:
                l(1) =   0
                l(2) =   0
                l(3) =   1
                l(4) =   1
                l(5) =   2
                l(6) =   2
     Q(r) pseudized with  6 coefficients,  rinner =    1.200   1.200   1.200
                                                       1.200   1.200

     PseudoPot. # 2 for C  read from file:
     /home/users/mamunm/src/pseudo/gbrv1.5pbe/C.UPF
     MD5 check sum: d1aef80898a10debaa0f26306b886e00
     Pseudo is Ultrasoft + core correction, Zval =  4.0
     Generated by new atomic code, or converted to UPF format
     Using radial grid of  721 points,  4 beta functions with:
                l(1) =   0
                l(2) =   0
                l(3) =   1
                l(4) =   1
     Q(r) pseudized with  8 coefficients,  rinner =    1.100   1.100   1.100

     PseudoPot. # 3 for H  read from file:
     /home/users/mamunm/src/pseudo/gbrv1.5pbe/H.UPF
     MD5 check sum: 761ae9a214b05c3daf00ab9f6b793d6f
     Pseudo is Ultrasoft, Zval =  1.0
     Generated by new atomic code, or converted to UPF format
     Using radial grid of  615 points,  2 beta functions with:
                l(1) =   0
                l(2) =   0
     Q(r) pseudized with  8 coefficients,  rinner =    0.700

     vdW kernel table read from file vdW_kernel_table
     MD5 check sum: 095c7af220d748ca6e76c0b4c6cfb241

     atomic species   valence    mass     pseudopotential
        Zr1           12.00    91.22400     Zr( 1.00)
        C1             4.00    12.01100     C ( 1.00)
        H1             1.00     1.00800     H ( 1.00)

     No symmetry found

   Cartesian axes

     site n.     atom                  positions (alat units)
         1           Zr1 tau(   1) = (   1.6053057   0.9268237  10.0000000  )
         2           Zr1 tau(   2) = (   4.8159170   0.9268237  10.0000000  )
         3           Zr1 tau(   3) = (   3.2106113   3.7072946  10.0000000  )
         4           Zr1 tau(   4) = (   6.4212227   3.7072946  10.0000000  )
         5           Zr1 tau(   5) = (   6.4212227   1.8536473  12.6214532  )
         6           Zr1 tau(   6) = (   3.2106113   1.8536473  12.6214532  )
         7           Zr1 tau(   7) = (   8.0265283   4.6341183  12.6214532  )
         8           Zr1 tau(   8) = (   4.8159170   4.6341183  12.6214532  )
         9           Zr1 tau(   9) = (   0.0000000   0.0000000  15.2429064  )
        10           Zr1 tau(  10) = (   3.2106113   0.0000000  15.2429064  )
        11           Zr1 tau(  11) = (   1.6053057   2.7804710  15.2429064  )
        12           Zr1 tau(  12) = (   4.8159170   2.7804710  15.2429064  )
        13           C1  tau(  13) = (   3.2106113   1.8536473  16.8744064  )
        14           H1  tau(  14) = (   3.8406113   2.4836473  17.5044064  )
        15           H1  tau(  15) = (   2.5806113   1.2236473  17.5044064  )

     number of k points=    20  Fermi-Dirac smearing, width (Ry)=  0.0110
                       cart. coord. in units 2pi/alat
        k(    1) = (   0.0000000   0.0000000   0.0000000), wk =   0.0555556
        k(    2) = (   0.0000000   0.0299709   0.0000000), wk =   0.1111111
        k(    3) = (   0.0000000   0.0599419   0.0000000), wk =   0.1111111
        k(    4) = (   0.0000000  -0.0899128   0.0000000), wk =   0.0555556
        k(    5) = (   0.0259556  -0.0149855   0.0000000), wk =   0.1111111
        k(    6) = (   0.0259556   0.0149855   0.0000000), wk =   0.1111111
        k(    7) = (   0.0259556   0.0449564   0.0000000), wk =   0.1111111
        k(    8) = (   0.0259556  -0.1048983   0.0000000), wk =   0.1111111
        k(    9) = (   0.0259556  -0.0749274   0.0000000), wk =   0.1111111
        k(   10) = (   0.0259556  -0.0449564   0.0000000), wk =   0.1111111
        k(   11) = (   0.0519112  -0.0299709   0.0000000), wk =   0.1111111
        k(   12) = (   0.0519112   0.0000000   0.0000000), wk =   0.1111111
        k(   13) = (   0.0519112   0.0299709   0.0000000), wk =   0.1111111
        k(   14) = (   0.0519112  -0.1198838   0.0000000), wk =   0.1111111
        k(   15) = (   0.0519112  -0.0899128   0.0000000), wk =   0.1111111
        k(   16) = (   0.0519112  -0.0599419   0.0000000), wk =   0.1111111
        k(   17) = (  -0.0778668   0.0449564   0.0000000), wk =   0.0555556
        k(   18) = (  -0.0778668   0.0749274   0.0000000), wk =   0.1111111
        k(   19) = (  -0.0778668   0.1048983   0.0000000), wk =   0.1111111
        k(   20) = (  -0.0778668  -0.0449564   0.0000000), wk =   0.0555556

     Largest allocated arrays     est. size (Mb)     dimensions
     Largest temporary arrays     est. size (Mb)     dimensions

     Initial potential from superposition of free atoms
     Check: negative starting charge=   -0.729018

     starting charge  149.97415, renormalised to  150.00000

     negative rho (up, down):  7.291E-01 0.000E+00

     *
     * You are using vdW-DF for exchange-correlation in this calculation.
     * Please cite the following three references that made this development
     * possible:
     *
     *   M. Dion, H. Rydberg, E. Schroder, D. C. Langreth, and
     *   B. I. Lundqvist, Phys. Rev. Lett. 92, 246401 (2004).
     *
     *   T. Thonhauser, V. R. Cooper, S. Li, A. Puzder, P. Hyldgaard, and
     *   D. C. Langreth, Phys. Rev. B 76, 125112 (2007).
     *
     *   G. Roman-Perez and J. M. Soler, Phys. Rev. Lett. 103, 096102 (2009).
     *
     *
     * If you are using vdW-DF2, please also cite:
     *
     *   K. Lee, E. D. Murray, L. Kong, B. I. Lundqvist, and
     *   D. C. Langreth, Phys. Rev. B 82, 081101(R) (2010).
     *
     *
     * If you are calculating the stress with vdW-DF, please also cite:
     *
     *   R. Sabatini, E. Kucukbenli, B. Kolb, T. Thonhauser, and
     *   S. de Gironcoli, J. Phys.: Condens. Matter 24, 424209 (2012).
     *

     Carrying out vdW-DF run using the following parameters:

     Nqs =      20    Nr_points =    1024   r_max =   100.000
     q_mesh =
               0.00001000     0.04494208     0.09755937     0.15916263
               0.23128650     0.31572767     0.41458969     0.53033537
               0.66584808     0.82450364     1.01025438     1.22772762
               1.48234092     1.78043706     2.12944203     2.53805004
               3.01644009     3.57652955     4.23227104     5.00000000

     Gradients computed in reciprocal space

     Adding external electric field

     Computed dipole along edir(3) :
        Dipole               -0.0082 Ry au,         -0.0209 Debye
        Dipole field         -0.0000 Ry au

        Potential amp.        0.0016 Ry
        Total length         46.5096 bohr

     Starting wfc are  162 randomized atomic wfcs

     Self-consistent Calculation

     iteration #  1     ecut=    36.75 Ry     beta=0.30
     Davidson diagonalization with overlap
     ethr =  1.00E-02,  avg # of iterations =  2.0

[...]

     total energy              =   -1207.98840697 Ry
     Harris-Foulkes estimate   =   -1211.65894398 Ry
     estimated scf accuracy    <       7.84065909 Ry

[...]

     End of self-consistent calculation

          k = 0.0000 0.0000 0.0000 ( 22923 PWs)   bands (ev):

   -47.6418 -47.6280 -47.5773 -47.5396 -47.5386 -47.5379 -47.5286 -47.4627
   -47.3057 -47.2300 -47.2268 -47.2123 -25.9339 -25.9234 -25.9151 -25.8847
   -25.8756 -25.8638 -25.8445 -25.7614 -25.7470 -25.7318 -25.6562 -25.5772
   -25.5432 -25.5049 -25.4102 -25.4016 -25.3826 -25.3811 -25.3670 -25.3630
   -25.3604 -25.3485 -25.3232 -25.1986 -25.1983 -25.1772 -25.1769 -25.1493
   -25.1391 -25.1352 -25.1128 -25.0509 -25.0363 -25.0353 -24.8918 -24.8900
   -10.5609  -4.9148  -3.3670  -2.6057  -1.8425  -1.2786  -1.0514  -0.9165
    -0.9162  -0.8208  -0.7355  -0.6518  -0.4987  -0.3352  -0.1825  -0.1660
    -0.1547   0.1710   0.2358   0.7149   0.9641   1.0469   1.5703   1.8413
     1.8705   1.9108   2.1678   2.2410   2.4227   2.4777   2.4843   2.5488
     2.5643   2.6031   2.7948   2.8127   2.8162

[...]

          k =-0.0779 0.0450 0.0000 ( 22880 PWs)   bands (ev):

[...]

     the Fermi energy is     1.6467 ev

!    total energy              =   -1210.91706757 Ry
     Harris-Foulkes estimate   =   -1210.91706605 Ry
     estimated scf accuracy    <       0.00000093 Ry

     The total energy is the sum of the following terms:

     one-electron contribution =   -8449.97446809 Ry
     hartree contribution      =    4218.61369854 Ry
     xc contribution           =    -225.76201276 Ry
     ewald contribution        =    3246.32344523 Ry
     electric field correction =       0.00001944 Ry
     smearing contrib. (-TS)   =      -0.11774992 Ry

     convergence has been achieved in  18 iterations

 BEEF-vdW xc energy contributions
           1 :   -193.272663907187
           2 :    174.838993021952
           3 :   -143.815257487788
           4 :    108.967554088594
           5 :   -78.1646750131928
           6 :    55.6507654175376
           7 :   -41.4069209638759
           8 :    32.4952506639791
           9 :   -25.3546711051766
          10 :    17.7449878110071
          11 :   -9.47700624795345
          12 :    1.85731811367390
          13 :    3.55147972082318
          14 :   -6.03209488063800
          15 :    6.09844522765837
          16 :   -5.08553635004938
          17 :    4.31422012607078
          18 :   -4.38611473024463
          19 :    5.01186042147154
          20 :   -5.40518600643128
          21 :    4.92444972695992
          22 :   -3.52658402428028
          23 :    1.76762448396323
          24 :  -0.405609840827310
          25 :  -8.906825348105940E-002
          26 :  -0.211005359439753
          27 :   0.804021459065609
          28 :   -1.12552344874999
          29 :   0.907903811013568
          30 :  -0.309033699269946
          31 :   -22.4908996836666
          32 :   -16.7556910359717

     Forces acting on atoms (Ry/au):

     negative rho (up, down):  7.493E-01 0.000E+00
     atom    1 type  1   force =     0.00036883    0.00025837    0.01356328
     atom    2 type  1   force =    -0.00010018   -0.00000768    0.01427260
     atom    3 type  1   force =    -0.00010581   -0.00026265    0.01387110
     atom    4 type  1   force =     0.00035083    0.00001158    0.01502245
     atom    5 type  1   force =    -0.00116632    0.00066013   -0.00396580
     atom    6 type  1   force =     0.00101130    0.00002469   -0.00429219
     atom    7 type  1   force =     0.00003679    0.00075171   -0.00492123
     atom    8 type  1   force =     0.00142911   -0.00144842   -0.00273270
     atom    9 type  1   force =    -0.00292022    0.00024255   -0.03093744
     atom   10 type  1   force =    -0.00268858    0.02828594    0.01212392
     atom   11 type  1   force =     0.01455502   -0.01027710    0.00201322
     atom   12 type  1   force =    -0.03518443   -0.01876911    0.02167060
     atom   13 type  2   force =     0.01786110    0.00024541   -0.07459571
     atom   14 type  3   force =     0.00844067    0.00500709    0.01473133
     atom   15 type  3   force =    -0.00188810   -0.00472251    0.01417657

     Total force =     0.103562     Total SCF correction =     0.003674

     entering subroutine stress ...

     negative rho (up, down):  7.493E-01 0.000E+00
          total   stress  (Ry/bohr**3)                   (kbar)     P=  -12.26
  -0.00007677  -0.00000543   0.00001171        -11.29     -0.80      1.72
  -0.00000543  -0.00007696   0.00000032         -0.80    -11.32      0.05
   0.00001171   0.00000032  -0.00009640          1.72      0.05    -14.18

     BFGS Geometry Optimization

     number of scf cycles    =   1
     number of bfgs steps    =   0

     energy   new            =   -1210.9170675667 Ry

     new trust radius        =       0.0767046245 bohr
     new conv_thr            =       0.0000099958 Ry

ATOMIC_POSITIONS (crystal)
Zr1      0.166666667   0.166666667   0.396150897    0   0   0
Zr1      0.666666667   0.166666667   0.396150897    0   0   0
Zr1      0.166666667   0.666666667   0.396150897    0   0   0
Zr1      0.666666667   0.666666667   0.396150897    0   0   0
Zr1      0.833333333   0.333333333   0.500000000    0   0   0
Zr1      0.333333333   0.333333333   0.500000000    0   0   0
Zr1      0.833333333   0.833333333   0.500000000    0   0   0
Zr1      0.333333333   0.833333333   0.500000000    0   0   0
Zr1     -0.000252198   0.000023081   0.603200549
Zr1      0.498432592   0.002691680   0.604103261
Zr1      0.001688471   0.499022035   0.603891307
Zr1      0.497993459   0.498213939   0.604303392
C1       0.334793602   0.333356686   0.666917342
H1       0.375257774   0.447099966   0.693747447
H1       0.291935354   0.219593781   0.693735817

     Writing output data file calc.save
     Check: negative starting charge=   -0.729018
     NEW-OLD atomic charge density approx. for the potential
     Check: negative starting charge=   -0.729597

[...]

     energy   old            =   -1210.9170675667 Ry
     energy   new            =   -1210.9247167346 Ry

     CASE: energy  _new < energy  _old

[...]

     iteration #  1     ecut=    36.75 Ry     beta=0.30
     Davidson diagonalization with overlap
     c_bands:  1 eigenvalues not converged
     ethr =  1.00E-06,  avg # of iterations = 13.6

[...]

     Threshold (ethr) on eigenvalues was too large:
     Diagonalizing with lowered threshold

     Davidson diagonalization with overlap
     ethr =  6.60E-08,  avg # of iterations =  1.9

[...]

     Total force =     0.003079     Total SCF correction =     0.000368
     SCF correction compared to forces is large: reduce conv_thr to get better values

[...]

     Total force =     0.004817     Total SCF correction =     0.000249

[...]

     number of scf cycles    =  23
     number of bfgs steps    =  22

     energy   old            =   -1210.9424817152 Ry
     energy   new            =   -1210.9425063726 Ry

     CASE: energy  _new < energy  _old

     new trust radius        =       0.0229573105 bohr
     new conv_thr            =       0.0000001000 Ry

ATOMIC_POSITIONS (crystal)
Zr1      0.166666667   0.166666667   0.396150897    0   0   0
Zr1      0.666666667   0.166666667   0.396150897    0   0   0
Zr1      0.166666667   0.666666667   0.396150897    0   0   0
Zr1      0.666666667   0.666666667   0.396150897    0   0   0
Zr1      0.833333333   0.333333333   0.500000000    0   0   0
Zr1      0.333333333   0.333333333   0.500000000    0   0   0
Zr1      0.833333333   0.833333333   0.500000000    0   0   0
Zr1      0.333333333   0.833333333   0.500000000    0   0   0
Zr1     -0.005428363   0.001425936   0.595501979
Zr1      0.491103640   0.008567348   0.602894401
Zr1      0.001624949   0.498199333   0.600986827
Zr1      0.488157083   0.494645855   0.603793856
C1       0.356968555   0.325446195   0.662006708
H1       0.388294217   0.444646209   0.688743332
H1       0.315012108   0.216810927   0.689231186

     Writing output data file calc.save
     Check: negative starting charge=   -0.728085
     NEW-OLD atomic charge density approx. for the potential
     Check: negative starting charge=   -0.728218

[...]

     Self-consistent Calculation

[...]

     Threshold (ethr) on eigenvalues was too large:
     Diagonalizing with lowered threshold

     Davidson diagonalization with overlap
     ethr =  8.47E-08,  avg # of iterations =  2.1

[...]

     total energy              =   -1210.94253086 Ry
     Harris-Foulkes estimate   =   -1210.94253088 Ry
     estimated scf accuracy    <       0.00000020 Ry

     iteration # 11     ecut=    36.75 Ry     beta=0.30
     Davidson diagonalization with overlap
     ethr =  1.36E-10,  avg # of iterations =  1.9

[...]

     negative rho (up, down):  7.488E-01 0.000E+00

     Adding external electric field

     Computed dipole along edir(3) :
        Dipole                0.1614 Ry au,          0.4101 Debye
        Dipole field          0.0003 Ry au

        Potential amp.       -0.0310 Ry
        Total length         46.5096 bohr

     End of self-consistent calculation

[...]

          k = 0.0519-0.0599 0.0000 ( 22856 PWs)   bands (ev):

[...]

          k =-0.0779-0.0450 0.0000 ( 22880 PWs)   bands (ev):

   -47.5223 -47.5191 -47.4956 -47.4773 -47.4740 -47.4720 -47.4220 -47.3360
   -47.1514 -47.1419 -47.1123 -47.1009 -25.7422 -25.7207 -25.6941 -25.6849
   -25.6679 -25.6470 -25.6068 -25.5791 -25.5732 -25.5595 -25.5308 -25.5257
   -25.5133 -25.4853 -25.4842 -25.4339 -25.4324 -25.4015 -25.3899 -25.3419
   -25.2248 -25.2201 -25.2172 -25.2051 -25.1883 -25.1465 -25.0945 -25.0754
   -25.0513 -25.0452 -25.0015 -24.9939 -24.9806 -24.9558 -24.8548 -24.8485
   -10.8639  -5.1261  -2.7739  -1.7795  -1.7239  -0.9414  -0.7664  -0.6124
    -0.1696  -0.1661  -0.0879  -0.0427  -0.0166   0.0848   0.6099   0.6748
     0.7243   0.7419   0.7825   0.8839   1.1096   1.1752   1.2276   1.2400
     1.3327   1.4182   1.5091   1.5979   1.7174   1.7241   1.7350   1.8642
     1.9323   2.0182   2.0792   2.1492   2.4248

     the Fermi energy is     1.7037 ev

!    total energy              =   -1210.94253083 Ry
     Harris-Foulkes estimate   =   -1210.94253092 Ry
     estimated scf accuracy    <       0.00000005 Ry

     The total energy is the sum of the following terms:

     one-electron contribution =   -8567.26968920 Ry
     hartree contribution      =    4277.62760438 Ry
     xc contribution           =    -225.94535354 Ry
     ewald contribution        =    3304.75871545 Ry
     electric field correction =       0.00005379 Ry
     smearing contrib. (-TS)   =      -0.11386172 Ry

     convergence has been achieved in  11 iterations

 BEEF-vdW xc energy contributions
           1 :   -193.460620100947
           2 :    175.097347467625
           3 :   -144.150131985789
           4 :    109.310140128804
           5 :   -78.4171318641592
           6 :    55.7505507242823
           7 :   -41.3643559640510
           8 :    32.3827832823184
           9 :   -25.2605331638843
          10 :    17.7227361682571
          11 :   -9.51966011056197
          12 :    1.90798687056963
          13 :    3.56025864795484
          14 :   -6.13270223552149
          15 :    6.26341721748946
          16 :   -5.24082081553172
          17 :    4.38463537089382
          18 :   -4.34459920816712
          19 :    4.89877552084229
          20 :   -5.30311674048914
          21 :    4.90523909148496
          22 :   -3.60683934384403
          23 :    1.90203330058716
          24 :  -0.520219325642927
          25 :  -4.813627020678268E-002
          26 :  -0.176386096564784
          27 :   0.740670099987199
          28 :   -1.09527439869157
          29 :   0.946505547490176
          30 :  -0.403704062820992
          31 :   -22.5048567610693
          32 :   -16.7845122347183

     Forces acting on atoms (Ry/au):

     negative rho (up, down):  7.488E-01 0.000E+00
     atom    1 type  1   force =    -0.00027961    0.00013615    0.01218961
     atom    2 type  1   force =     0.00072228   -0.00059890    0.01232572
     atom    3 type  1   force =    -0.00039033    0.00048407    0.01228180
     atom    4 type  1   force =     0.00079437   -0.00015153    0.01164356
     atom    5 type  1   force =    -0.00296203    0.00828403   -0.01455497
     atom    6 type  1   force =     0.00007174   -0.00052302   -0.00834285
     atom    7 type  1   force =    -0.00773504   -0.00194302   -0.01565822
     atom    8 type  1   force =     0.00692569   -0.00482499   -0.01162600
     atom    9 type  1   force =    -0.00104406    0.00040779   -0.00001899
     atom   10 type  1   force =     0.00098928    0.00085365    0.00095267
     atom   11 type  1   force =     0.00142791   -0.00022670   -0.00033395
     atom   12 type  1   force =     0.00015319   -0.00006681   -0.00034353
     atom   13 type  2   force =    -0.00000920   -0.00040069    0.00156301
     atom   14 type  3   force =     0.00064839   -0.00017748   -0.00035360
     atom   15 type  3   force =     0.00068742   -0.00125257    0.00027574

     Total force =     0.003394     Total SCF correction =     0.000433
     SCF correction compared to forces is large: reduce conv_thr to get better values

     entering subroutine stress ...

     negative rho (up, down):  7.488E-01 0.000E+00
          total   stress  (Ry/bohr**3)                   (kbar)     P=   -6.73
  -0.00004972  -0.00000202   0.00000258         -7.31     -0.30      0.38
  -0.00000202  -0.00004931  -0.00000175         -0.30     -7.25     -0.26
   0.00000258  -0.00000175  -0.00003814          0.38     -0.26     -5.61

     bfgs converged in  24 scf cycles and  23 bfgs steps
     (criteria: energy <  1.0E+00, force <  1.9E-03)

     End of BFGS Geometry Optimization

     Final energy   =   -1210.9425308349 Ry
Begin final coordinates

ATOMIC_POSITIONS (crystal)
Zr1      0.166666667   0.166666667   0.396150897    0   0   0
Zr1      0.666666667   0.166666667   0.396150897    0   0   0
Zr1      0.166666667   0.666666667   0.396150897    0   0   0
Zr1      0.666666667   0.666666667   0.396150897    0   0   0
Zr1      0.833333333   0.333333333   0.500000000    0   0   0
Zr1      0.333333333   0.333333333   0.500000000    0   0   0
Zr1      0.833333333   0.833333333   0.500000000    0   0   0
Zr1      0.333333333   0.833333333   0.500000000    0   0   0
Zr1     -0.005428363   0.001425936   0.595501979
Zr1      0.491103640   0.008567348   0.602894401
Zr1      0.001624949   0.498199333   0.600986827
Zr1      0.488157083   0.494645855   0.603793856
C1       0.356968555   0.325446195   0.662006708
H1       0.388294217   0.444646209   0.688743332
H1       0.315012108   0.216810927   0.689231186
End final coordinates

     Writing output data file calc.save

     General routines

     Parallel routines

   This run was terminated on:  12:34:43  27Apr2018

   JOB DONE.