     Program PWSCF v.5.1rc2 (svn rev. 11289) starts on  3May2018 at 10:36:21

     Current dimensions of program PWSCF are:
     Max number of different atomic species (ntypx) = 10
     Max number of k-points (npk) =  40000
     Max angular momentum in pseudopotentials (lmaxx) =  3
     Presently stress not available with electric field

     IMPORTANT: XC functional enforced from input :
     Exchange-correlation      = BEEF-VDW ( 1  4 27 13 2)
     Any further DFT definition will be discarded
     Please, verify this is what you really want

     Subspace diagonalization in iterative solution of the eigenvalue problem:
     a serial algorithm will be used

     bravais-lattice index     =            0
     lattice parameter (alat)  =       1.8897  a.u.
     unit-cell volume          =    8507.0471 (a.u.)^3
     number of atoms/cell      =           13
     number of atomic types    =            2
     number of electrons       =       133.00
     number of Kohn-Sham states=           76
     kinetic-energy cutoff     =      36.7493  Ry
     charge density cutoff     =     367.4932  Ry
     convergence threshold     =      1.0E-05
     mixing beta               =       0.3000
     number of iterations used =           10  plain     mixing
     Exchange-correlation      = BEEF-VDW ( 1  4 27 13 2)
     nstep                     =           50

     celldm(1)=   1.889726  celldm(2)=   0.000000  celldm(3)=   0.000000
     celldm(4)=   0.000000  celldm(5)=   0.000000  celldm(6)=   0.000000

     crystal axes: (cart. coord. in units of alat)
               a(1) = (   7.468327   0.000000   0.000000 )
               a(2) = (   3.734164   6.467761   0.000000 )
               a(3) = (   0.000000   0.000000  26.097863 )

     reciprocal axes: (cart. coord. in units 2 pi/alat)
               b(1) = (  0.133899 -0.077307  0.000000 )
               b(2) = (  0.000000  0.154613  0.000000 )
               b(3) = (  0.000000  0.000000  0.038317 )

     PseudoPot. # 1 for La read from file:
     /u/if/mamunm/psp/gbrv1.5pbe/La.UPF
     MD5 check sum: 5937b0c7494ba0601a847275249473aa
     Pseudo is Ultrasoft + core correction, Zval = 11.0
     Generated by new atomic code, or converted to UPF format
     Using radial grid of  995 points,  8 beta functions with:
                l(1) =   0
                l(2) =   0
                l(3) =   1
                l(4) =   1
                l(5) =   2
                l(6) =   2
                l(7) =   3
                l(8) =   3
     Q(r) pseudized with  8 coefficients,  rinner =    1.700   1.700   1.700
                                                       1.700   1.700   1.700
                                                       1.700

     PseudoPot. # 2 for H  read from file:
     /u/if/mamunm/psp/gbrv1.5pbe/H.UPF
     MD5 check sum: 761ae9a214b05c3daf00ab9f6b793d6f
     Pseudo is Ultrasoft, Zval =  1.0
     Generated by new atomic code, or converted to UPF format
     Using radial grid of  615 points,  2 beta functions with:
                l(1) =   0
                l(2) =   0
     Q(r) pseudized with  8 coefficients,  rinner =    0.700

     vdW kernel table read from file vdW_kernel_table
     MD5 check sum: 095c7af220d748ca6e76c0b4c6cfb241

     atomic species   valence    mass     pseudopotential
        La1           11.00   138.90547     La( 1.00)
        H1             1.00     1.00800     H ( 1.00)

     No symmetry found

   Cartesian axes

     site n.     atom                  positions (alat units)
         1           La1 tau(   1) = (   1.8670818   1.0779602  10.0000000  )
         2           La1 tau(   2) = (   5.6012453   1.0779602  10.0000000  )
         3           La1 tau(   3) = (   3.7341635   4.3118406  10.0000000  )
         4           La1 tau(   4) = (   7.4683270   4.3118406  10.0000000  )
         5           La1 tau(   5) = (   7.4683270   2.1559203  13.0489317  )
         6           La1 tau(   6) = (   3.7341635   2.1559203  13.0489317  )
         7           La1 tau(   7) = (   9.3354088   5.3898008  13.0489317  )
         8           La1 tau(   8) = (   5.6012453   5.3898008  13.0489317  )
         9           La1 tau(   9) = (   0.0000000   0.0000000  16.0978635  )
        10           La1 tau(  10) = (   3.7341635   0.0000000  16.0978635  )
        11           La1 tau(  11) = (   1.8670818   3.2338805  16.0978635  )
        12           La1 tau(  12) = (   5.6012453   3.2338805  16.0978635  )
        13           H1  tau(  13) = (   1.8670818   0.0000000  17.8828635  )

     number of k points=    20  Fermi-Dirac smearing, width (Ry)=  0.0110
                       cart. coord. in units 2pi/alat
        k(    1) = (   0.0000000   0.0000000   0.0000000), wk =   0.0555556
        k(    2) = (   0.0000000   0.0257688   0.0000000), wk =   0.1111111
        k(    3) = (   0.0000000   0.0515377   0.0000000), wk =   0.1111111
        k(    4) = (   0.0000000  -0.0773065   0.0000000), wk =   0.0555556
        k(    5) = (   0.0223165  -0.0128844   0.0000000), wk =   0.1111111
        k(    6) = (   0.0223165   0.0128844   0.0000000), wk =   0.1111111
        k(    7) = (   0.0223165   0.0386533   0.0000000), wk =   0.1111111
        k(    8) = (   0.0223165  -0.0901909   0.0000000), wk =   0.1111111
        k(    9) = (   0.0223165  -0.0644221   0.0000000), wk =   0.1111111
        k(   10) = (   0.0223165  -0.0386533   0.0000000), wk =   0.1111111
        k(   11) = (   0.0446329  -0.0257688   0.0000000), wk =   0.1111111
        k(   12) = (   0.0446329   0.0000000   0.0000000), wk =   0.1111111
        k(   13) = (   0.0446329   0.0257688   0.0000000), wk =   0.1111111
        k(   14) = (   0.0446329  -0.1030753   0.0000000), wk =   0.1111111
        k(   15) = (   0.0446329  -0.0773065   0.0000000), wk =   0.1111111
        k(   16) = (   0.0446329  -0.0515377   0.0000000), wk =   0.1111111
        k(   17) = (  -0.0669494   0.0386533   0.0000000), wk =   0.0555556
        k(   18) = (  -0.0669494   0.0644221   0.0000000), wk =   0.1111111
        k(   19) = (  -0.0669494   0.0901909   0.0000000), wk =   0.1111111
        k(   20) = (  -0.0669494  -0.0386533   0.0000000), wk =   0.0555556

     Largest allocated arrays     est. size (Mb)     dimensions
     Largest temporary arrays     est. size (Mb)     dimensions

     Initial potential from superposition of free atoms
     Check: negative starting charge=   -0.831247

     starting charge  132.61517, renormalised to  133.00000

     negative rho (up, down):  8.337E-01 0.000E+00

     *
     * You are using vdW-DF for exchange-correlation in this calculation.
     * Please cite the following three references that made this development
     * possible:
     *
     *   M. Dion, H. Rydberg, E. Schroder, D. C. Langreth, and
     *   B. I. Lundqvist, Phys. Rev. Lett. 92, 246401 (2004).
     *
     *   T. Thonhauser, V. R. Cooper, S. Li, A. Puzder, P. Hyldgaard, and
     *   D. C. Langreth, Phys. Rev. B 76, 125112 (2007).
     *
     *   G. Roman-Perez and J. M. Soler, Phys. Rev. Lett. 103, 096102 (2009).
     *
     *
     * If you are using vdW-DF2, please also cite:
     *
     *   K. Lee, E. D. Murray, L. Kong, B. I. Lundqvist, and
     *   D. C. Langreth, Phys. Rev. B 82, 081101(R) (2010).
     *
     *
     * If you are calculating the stress with vdW-DF, please also cite:
     *
     *   R. Sabatini, E. Kucukbenli, B. Kolb, T. Thonhauser, and
     *   S. de Gironcoli, J. Phys.: Condens. Matter 24, 424209 (2012).
     *

     Carrying out vdW-DF run using the following parameters:

     Nqs =      20    Nr_points =    1024   r_max =   100.000
     q_mesh =
               0.00001000     0.04494208     0.09755937     0.15916263
               0.23128650     0.31572767     0.41458969     0.53033537
               0.66584808     0.82450364     1.01025438     1.22772762
               1.48234092     1.78043706     2.12944203     2.53805004
               3.01644009     3.57652955     4.23227104     5.00000000

     Gradients computed in reciprocal space

     Adding external electric field

     Computed dipole along edir(3) :
        Dipole               -0.0264 Ry au,         -0.0672 Debye
        Dipole field         -0.0000 Ry au

        Potential amp.        0.0038 Ry
        Total length         48.0849 bohr

     Starting wfc are  241 randomized atomic wfcs

     Self-consistent Calculation

     iteration #  1     ecut=    36.75 Ry     beta=0.30
     Davidson diagonalization with overlap
     ethr =  1.00E-02,  avg # of iterations =  2.0

[...]

     total energy              =   -1246.59050623 Ry
     Harris-Foulkes estimate   =   -1250.16163093 Ry
     estimated scf accuracy    <       7.46999750 Ry

[...]

     iteration # 11     ecut=    36.75 Ry     beta=0.30
     Davidson diagonalization with overlap
     c_bands:  2 eigenvalues not converged
     ethr =  3.74E-06,  avg # of iterations = 12.4

[...]

     End of self-consistent calculation

          k = 0.0000 0.0000 0.0000 ( 31997 PWs)   bands (ev):

   -31.6100 -31.5914 -31.5137 -31.4610 -31.4603 -31.4595 -31.4296 -31.3921
   -31.1289 -31.0131 -31.0044 -31.0028 -15.7078 -15.6997 -15.6873 -15.6372
   -15.6306 -15.6096 -15.5448 -15.4524 -15.4394 -15.4297 -15.2606 -15.1211
   -15.0765 -15.0526 -14.9250 -14.9066 -14.8861 -14.8716 -14.8568 -14.8523
   -14.8413 -14.8313 -14.8141 -14.6000 -14.5980 -14.5917 -14.5676 -14.5187
   -14.5094 -14.5023 -14.4803 -14.4094 -14.4071 -14.4042 -14.1793 -14.1784
    -1.4047  -0.8272  -0.1844   0.0780   0.1137   0.1153   0.2135   0.3983
     0.3992   0.4873   0.5954   0.6137   0.6871   0.7293   0.7346   0.8695
     1.4648   1.4876   1.6993   1.9683   2.2677   2.3032   2.3131   2.5852
     2.6906   2.8571   2.9512   2.9559

[...]

          k =-0.0669 0.0387 0.0000 ( 31970 PWs)   bands (ev):

[...]

     the Fermi energy is     1.7655 ev

!    total energy              =   -1249.38773177 Ry
     Harris-Foulkes estimate   =   -1249.38774664 Ry
     estimated scf accuracy    <       0.00000658 Ry

     The total energy is the sum of the following terms:

     one-electron contribution =   -4659.18606388 Ry
     hartree contribution      =    2340.73619599 Ry
     xc contribution           =    -609.20529195 Ry
     ewald contribution        =    1678.38952040 Ry
     electric field correction =       0.00003766 Ry
     smearing contrib. (-TS)   =      -0.12212999 Ry

     convergence has been achieved in  18 iterations

 BEEF-vdW xc energy contributions
           1 :   -539.870901898023
           2 :    496.745690799654
           3 :   -420.392067515271
           4 :    327.020445784660
           5 :   -233.947461885919
           6 :    154.951639652104
           7 :   -97.6223183560473
           8 :    63.0171896726870
           9 :   -47.1256199110095
          10 :    43.2425396337180
          11 :   -44.3562603079572
          12 :    44.8798995856691
          13 :   -41.4673541237385
          14 :    33.0549989975867
          15 :   -20.4729793438353
          16 :    5.88317368722380
          17 :    7.88136282742266
          18 :   -18.0829403754503
          19 :    22.8664485638262
          20 :   -21.8563649655302
          21 :    16.3190409002274
          22 :   -8.76532476786792
          23 :    2.08035637049898
          24 :    1.50705777238454
          25 :   -1.19402345966864
          26 :   -2.22485628678919
          27 :    6.84876045502597
          28 :   -10.5777324676177
          29 :    12.0037629096430
          30 :   -10.8981620756082
          31 :   -45.8149285624717
          32 :   -32.8837794127563

     Forces acting on atoms (Ry/au):

     negative rho (up, down):  5.883E-01 0.000E+00
     atom    1 type  1   force =    -0.00000389    0.00008503    0.00333662
     atom    2 type  1   force =     0.00000021   -0.00089878    0.00409859
     atom    3 type  1   force =    -0.00103097    0.00026699    0.00388860
     atom    4 type  1   force =     0.00103543    0.00025699    0.00388938
     atom    5 type  1   force =    -0.00118272    0.00202774   -0.00251619
     atom    6 type  1   force =     0.00118725    0.00202954   -0.00251462
     atom    7 type  1   force =     0.00001204   -0.00027693   -0.00253703
     atom    8 type  1   force =    -0.00000804   -0.00201292   -0.00232587
     atom    9 type  1   force =     0.01650757   -0.00235237    0.01055390
     atom   10 type  1   force =    -0.01651526   -0.00232554    0.01055287
     atom   11 type  1   force =     0.00000694   -0.00523549   -0.00024625
     atom   12 type  1   force =    -0.00000935    0.00791237    0.00014762
     atom   13 type  2   force =     0.00000079    0.00052338   -0.02632762

     Total force =     0.039528     Total SCF correction =     0.001031

     entering subroutine stress ...

     negative rho (up, down):  5.883E-01 0.000E+00
          total   stress  (Ry/bohr**3)                   (kbar)     P=   -2.42
  -0.00001298   0.00000001   0.00000000         -1.91      0.00      0.00
   0.00000001  -0.00001025  -0.00000063          0.00     -1.51     -0.09
   0.00000000  -0.00000063  -0.00002621          0.00     -0.09     -3.86

     BFGS Geometry Optimization

     number of scf cycles    =   1
     number of bfgs steps    =   0

     energy   new            =   -1249.3877317736 Ry

     new trust radius        =       0.0263328216 bohr
     new conv_thr            =       0.0000099958 Ry

ATOMIC_POSITIONS (crystal)
La1      0.166666667   0.166666667   0.383173129    0   0   0
La1      0.666666667   0.166666667   0.383173129    0   0   0
La1      0.166666667   0.666666667   0.383173129    0   0   0
La1      0.666666667   0.666666667   0.383173129    0   0   0
La1      0.833333333   0.333333333   0.500000000    0   0   0
La1      0.333333333   0.333333333   0.500000000    0   0   0
La1      0.833333333   0.833333333   0.500000000    0   0   0
La1      0.333333333   0.833333333   0.500000000    0   0   0
La1      0.001265896  -0.000192465   0.617040869
La1      0.498924927  -0.000190271   0.617040848
La1      0.000214670   0.499571644   0.616821878
La1      0.499675652   0.500647371   0.616829864
H1       0.249978645   0.000042822   0.684689439

     Writing output data file calc.save
     Check: negative starting charge=   -0.831247
     NEW-OLD atomic charge density approx. for the potential
     Check: negative starting charge=   -0.831403

[...]

     energy   old            =   -1249.3877317736 Ry
     energy   new            =   -1249.3892490803 Ry

     CASE: energy  _new < energy  _old

     WARNING: bfgs curvature condition failed, Theta= 0.843
     new trust radius        =       0.0394992324 bohr
     new conv_thr            =       0.0000001000 Ry

[...]

     Threshold (ethr) on eigenvalues was too large:
     Diagonalizing with lowered threshold

     Davidson diagonalization with overlap
     ethr =  8.52E-08,  avg # of iterations =  6.0

[...]

     number of scf cycles    =  17
     number of bfgs steps    =  16

     energy   old            =   -1249.3991739116 Ry
     energy   new            =   -1249.3993239600 Ry

     CASE: energy  _new < energy  _old

     new trust radius        =       0.0363382754 bohr
     new conv_thr            =       0.0000001000 Ry

ATOMIC_POSITIONS (crystal)
La1      0.166666667   0.166666667   0.383173129    0   0   0
La1      0.666666667   0.166666667   0.383173129    0   0   0
La1      0.166666667   0.666666667   0.383173129    0   0   0
La1      0.666666667   0.666666667   0.383173129    0   0   0
La1      0.833333333   0.333333333   0.500000000    0   0   0
La1      0.333333333   0.333333333   0.500000000    0   0   0
La1      0.833333333   0.833333333   0.500000000    0   0   0
La1      0.333333333   0.833333333   0.500000000    0   0   0
La1      0.006568921  -0.004963032   0.615492500
La1      0.498390634  -0.004963987   0.615493220
La1      0.006494476   0.487009411   0.615670065
La1      0.491869197   0.516260998   0.616463706
H1       0.252771786  -0.005543736   0.670379152

     Writing output data file calc.save
     Check: negative starting charge=   -0.833518
     NEW-OLD atomic charge density approx. for the potential
     Check: negative starting charge=   -0.833290

[...]

     Self-consistent Calculation

[...]

     iteration #  3     ecut=    36.75 Ry     beta=0.30
     Davidson diagonalization with overlap
     c_bands:  1 eigenvalues not converged
     ethr =  1.00E-06,  avg # of iterations = 11.6

[...]

     total energy              =   -1249.39942619 Ry
     Harris-Foulkes estimate   =   -1249.39942616 Ry
     estimated scf accuracy    <       0.00000014 Ry

     iteration # 11     ecut=    36.75 Ry     beta=0.30
     Davidson diagonalization with overlap
     ethr =  1.08E-10,  avg # of iterations = 10.8

[...]

     negative rho (up, down):  5.869E-01 0.000E+00

     Adding external electric field

     Computed dipole along edir(3) :
        Dipole               -0.0572 Ry au,         -0.1455 Debye
        Dipole field         -0.0001 Ry au

        Potential amp.        0.0081 Ry
        Total length         48.0849 bohr

     End of self-consistent calculation

[...]

          k = 0.0446-0.0515 0.0000 ( 31991 PWs)   bands (ev):

[...]

          k =-0.0669-0.0387 0.0000 ( 31970 PWs)   bands (ev):

   -31.4766 -31.4623 -31.4450 -31.4445 -31.3786 -31.3780 -31.2851 -31.2808
   -30.9901 -30.9659 -30.9254 -30.8976 -15.4357 -15.4244 -15.3702 -15.3656
   -15.3312 -15.3161 -15.2315 -15.2184 -15.1741 -15.1607 -15.1141 -15.0910
   -15.0867 -15.0636 -15.0502 -15.0446 -14.9689 -14.9675 -14.9154 -14.8816
   -14.7230 -14.7092 -14.6468 -14.6431 -14.6250 -14.5815 -14.5742 -14.5555
   -14.5287 -14.5005 -14.4006 -14.3813 -14.3671 -14.3382 -14.2129 -14.1894
    -1.4810   0.2483   0.2899   0.6632   0.7323   0.9948   1.0080   1.0659
     1.0856   1.1076   1.1510   1.4814   1.4836   1.6195   1.6307   1.6725
     1.7353   1.9446   1.9463   2.0326   2.0513   2.0643   2.0680   2.1054
     2.2484   2.3193   2.3686   2.4036

     the Fermi energy is     1.8483 ev

!    total energy              =   -1249.39942629 Ry
     Harris-Foulkes estimate   =   -1249.39942685 Ry
     estimated scf accuracy    <       0.00000009 Ry

     The total energy is the sum of the following terms:

     one-electron contribution =   -4687.79366441 Ry
     hartree contribution      =    2355.45983032 Ry
     xc contribution           =    -609.29848133 Ry
     ewald contribution        =    1692.35526612 Ry
     electric field correction =       0.00000484 Ry
     smearing contrib. (-TS)   =      -0.12238183 Ry

     convergence has been achieved in  11 iterations

 BEEF-vdW xc energy contributions
           1 :   -539.965279246638
           2 :    496.868485701003
           3 :   -420.537379414243
           4 :    327.150033981121
           5 :   -234.017993689141
           6 :    154.941018983109
           7 :   -97.5415884304443
           8 :    62.9045529099957
           9 :   -47.0276983645540
          10 :    43.1925424163928
          11 :   -44.3598597111745
          12 :    44.9162294627606
          13 :   -41.5044230320781
          14 :    33.0693918063471
          15 :   -20.4612396054861
          16 :    5.85919680195889
          17 :    7.89868154865712
          18 :   -18.0831157595312
          19 :    22.8544198599288
          20 :   -21.8493599402711
          21 :    16.3349448402209
          22 :   -8.81004520622628
          23 :    2.14300052947783
          24 :    1.44792603709072
          25 :   -1.15813957616365
          26 :   -2.22963134216093
          27 :    6.82890057566897
          28 :   -10.5486868388773
          29 :    11.9806662158735
          30 :   -10.8881958063284
          31 :   -45.8221750306595
          32 :   -32.8970961794437

     Forces acting on atoms (Ry/au):

     negative rho (up, down):  5.869E-01 0.000E+00
     atom    1 type  1   force =    -0.00000046   -0.00018820    0.00318914
     atom    2 type  1   force =     0.00000028   -0.00095274    0.00367767
     atom    3 type  1   force =    -0.00110881    0.00033578    0.00374308
     atom    4 type  1   force =     0.00110888    0.00033479    0.00374308
     atom    5 type  1   force =    -0.00115871    0.00234884   -0.00303853
     atom    6 type  1   force =     0.00115869    0.00234965   -0.00303786
     atom    7 type  1   force =     0.00000033   -0.00221982   -0.00275900
     atom    8 type  1   force =    -0.00000045   -0.00062873   -0.00577164
     atom    9 type  1   force =    -0.00148669    0.00022154   -0.00084519
     atom   10 type  1   force =     0.00149053    0.00022223   -0.00084806
     atom   11 type  1   force =     0.00000017    0.00085733    0.00022463
     atom   12 type  1   force =    -0.00000086   -0.00128882    0.00060186
     atom   13 type  2   force =    -0.00000289   -0.00139185    0.00112081

     Total force =     0.003459     Total SCF correction =     0.000161

     entering subroutine stress ...

     negative rho (up, down):  5.869E-01 0.000E+00
          total   stress  (Ry/bohr**3)                   (kbar)     P=   -1.08
  -0.00000216   0.00000000  -0.00000000         -0.32      0.00     -0.00
   0.00000000  -0.00000992  -0.00000106          0.00     -1.46     -0.16
  -0.00000000  -0.00000106  -0.00000996         -0.00     -0.16     -1.46

     bfgs converged in  18 scf cycles and  17 bfgs steps
     (criteria: energy <  1.0E+00, force <  1.9E-03)

     End of BFGS Geometry Optimization

     Final energy   =   -1249.3994262861 Ry
Begin final coordinates

ATOMIC_POSITIONS (crystal)
La1      0.166666667   0.166666667   0.383173129    0   0   0
La1      0.666666667   0.166666667   0.383173129    0   0   0
La1      0.166666667   0.666666667   0.383173129    0   0   0
La1      0.666666667   0.666666667   0.383173129    0   0   0
La1      0.833333333   0.333333333   0.500000000    0   0   0
La1      0.333333333   0.333333333   0.500000000    0   0   0
La1      0.833333333   0.833333333   0.500000000    0   0   0
La1      0.333333333   0.833333333   0.500000000    0   0   0
La1      0.006568921  -0.004963032   0.615492500
La1      0.498390634  -0.004963987   0.615493220
La1      0.006494476   0.487009411   0.615670065
La1      0.491869197   0.516260998   0.616463706
H1       0.252771786  -0.005543736   0.670379152
End final coordinates

     Writing output data file calc.save

     General routines

     Parallel routines

   This run was terminated on:  17:14:54   3May2018

   JOB DONE.
Job  /afs/slac/g/suncat/bin/suncat-tsmpirun -x LD_LIBRARY_PATH -wdir /scratch/qe731716_cpg4D pw.x -npool 4 -in pw.inp

TID   HOST_NAME   COMMAND_LINE            STATUS            TERMINATION_TIME
00000 suncat0026 pw.x -npool 4 -i  Done                     05/03/2018 17:14:54
00001 suncat0026 pw.x -npool 4 -i  Done                     05/03/2018 17:14:54
00002 suncat0026 pw.x -npool 4 -i  Done                     05/03/2018 17:14:54
00003 suncat0026 pw.x -npool 4 -i  Done                     05/03/2018 17:14:54
00004 suncat0026 pw.x -npool 4 -i  Done                     05/03/2018 17:14:54
00005 suncat0026 pw.x -npool 4 -i  Done                     05/03/2018 17:14:54
00006 suncat0026 pw.x -npool 4 -i  Done                     05/03/2018 17:14:54
00007 suncat0026 pw.x -npool 4 -i  Done                     05/03/2018 17:14:54
00008 suncat0023 pw.x -npool 4 -i  Done                     05/03/2018 17:14:54
00009 suncat0023 pw.x -npool 4 -i  Done                     05/03/2018 17:14:54
00010 suncat0023 pw.x -npool 4 -i  Done                     05/03/2018 17:14:54
00011 suncat0023 pw.x -npool 4 -i  Done                     05/03/2018 17:14:54
00012 suncat0023 pw.x -npool 4 -i  Done                     05/03/2018 17:14:54
00013 suncat0023 pw.x -npool 4 -i  Done                     05/03/2018 17:14:54
00014 suncat0023 pw.x -npool 4 -i  Done                     05/03/2018 17:14:54
00015 suncat0023 pw.x -npool 4 -i  Done                     05/03/2018 17:14:54
00016 suncat0015 pw.x -npool 4 -i  Done                     05/03/2018 17:14:54
00017 suncat0015 pw.x -npool 4 -i  Done                     05/03/2018 17:14:54
00018 suncat0015 pw.x -npool 4 -i  Done                     05/03/2018 17:14:54
00019 suncat0015 pw.x -npool 4 -i  Done                     05/03/2018 17:14:54
00020 suncat0015 pw.x -npool 4 -i  Done                     05/03/2018 17:14:54
00021 suncat0015 pw.x -npool 4 -i  Done                     05/03/2018 17:14:54
00022 suncat0015 pw.x -npool 4 -i  Done                     05/03/2018 17:14:54
00023 suncat0015 pw.x -npool 4 -i  Done                     05/03/2018 17:14:54
00024 suncat0010 pw.x -npool 4 -i  Done                     05/03/2018 17:14:54
00025 suncat0010 pw.x -npool 4 -i  Done                     05/03/2018 17:14:54
00026 suncat0010 pw.x -npool 4 -i  Done                     05/03/2018 17:14:54
00027 suncat0010 pw.x -npool 4 -i  Done                     05/03/2018 17:14:54
00028 suncat0010 pw.x -npool 4 -i  Done                     05/03/2018 17:14:54
00029 suncat0010 pw.x -npool 4 -i  Done                     05/03/2018 17:14:54
00030 suncat0010 pw.x -npool 4 -i  Done                     05/03/2018 17:14:54
00031 suncat0010 pw.x -npool 4 -i  Done                     05/03/2018 17:14:54