     Program PWSCF v.5.1rc2 (svn rev. 11289) starts on  3May2018 at 10:36:29

     Current dimensions of program PWSCF are:
     Max number of different atomic species (ntypx) = 10
     Max number of k-points (npk) =  40000
     Max angular momentum in pseudopotentials (lmaxx) =  3
     Presently stress not available with electric field

     IMPORTANT: XC functional enforced from input :
     Exchange-correlation      = BEEF-VDW ( 1  4 27 13 2)
     Any further DFT definition will be discarded
     Please, verify this is what you really want

     Subspace diagonalization in iterative solution of the eigenvalue problem:
     a serial algorithm will be used

     bravais-lattice index     =            0
     lattice parameter (alat)  =       1.8897  a.u.
     unit-cell volume          =    8507.0471 (a.u.)^3
     number of atoms/cell      =           13
     number of atomic types    =            2
     number of electrons       =       133.00
     number of Kohn-Sham states=           76
     kinetic-energy cutoff     =      36.7493  Ry
     charge density cutoff     =     367.4932  Ry
     convergence threshold     =      1.0E-05
     mixing beta               =       0.3000
     number of iterations used =           10  plain     mixing
     Exchange-correlation      = BEEF-VDW ( 1  4 27 13 2)
     nstep                     =           50

     celldm(1)=   1.889726  celldm(2)=   0.000000  celldm(3)=   0.000000
     celldm(4)=   0.000000  celldm(5)=   0.000000  celldm(6)=   0.000000

     crystal axes: (cart. coord. in units of alat)
               a(1) = (   7.468327   0.000000   0.000000 )
               a(2) = (   3.734164   6.467761   0.000000 )
               a(3) = (   0.000000   0.000000  26.097863 )

     reciprocal axes: (cart. coord. in units 2 pi/alat)
               b(1) = (  0.133899 -0.077307  0.000000 )
               b(2) = (  0.000000  0.154613  0.000000 )
               b(3) = (  0.000000  0.000000  0.038317 )

     PseudoPot. # 1 for La read from file:
     /u/if/mamunm/psp/gbrv1.5pbe/La.UPF
     MD5 check sum: 5937b0c7494ba0601a847275249473aa
     Pseudo is Ultrasoft + core correction, Zval = 11.0
     Generated by new atomic code, or converted to UPF format
     Using radial grid of  995 points,  8 beta functions with:
                l(1) =   0
                l(2) =   0
                l(3) =   1
                l(4) =   1
                l(5) =   2
                l(6) =   2
                l(7) =   3
                l(8) =   3
     Q(r) pseudized with  8 coefficients,  rinner =    1.700   1.700   1.700
                                                       1.700   1.700   1.700
                                                       1.700

     PseudoPot. # 2 for H  read from file:
     /u/if/mamunm/psp/gbrv1.5pbe/H.UPF
     MD5 check sum: 761ae9a214b05c3daf00ab9f6b793d6f
     Pseudo is Ultrasoft, Zval =  1.0
     Generated by new atomic code, or converted to UPF format
     Using radial grid of  615 points,  2 beta functions with:
                l(1) =   0
                l(2) =   0
     Q(r) pseudized with  8 coefficients,  rinner =    0.700

     vdW kernel table read from file vdW_kernel_table
     MD5 check sum: 095c7af220d748ca6e76c0b4c6cfb241

     atomic species   valence    mass     pseudopotential
        La1           11.00   138.90547     La( 1.00)
        H1             1.00     1.00800     H ( 1.00)

     No symmetry found

   Cartesian axes

     site n.     atom                  positions (alat units)
         1           La1 tau(   1) = (   1.8670818   1.0779602  10.0000000  )
         2           La1 tau(   2) = (   5.6012453   1.0779602  10.0000000  )
         3           La1 tau(   3) = (   3.7341635   4.3118406  10.0000000  )
         4           La1 tau(   4) = (   7.4683270   4.3118406  10.0000000  )
         5           La1 tau(   5) = (   7.4683270   2.1559203  13.0489317  )
         6           La1 tau(   6) = (   3.7341635   2.1559203  13.0489317  )
         7           La1 tau(   7) = (   9.3354088   5.3898008  13.0489317  )
         8           La1 tau(   8) = (   5.6012453   5.3898008  13.0489317  )
         9           La1 tau(   9) = (   0.0000000   0.0000000  16.0978635  )
        10           La1 tau(  10) = (   3.7341635   0.0000000  16.0978635  )
        11           La1 tau(  11) = (   1.8670818   3.2338805  16.0978635  )
        12           La1 tau(  12) = (   5.6012453   3.2338805  16.0978635  )
        13           H1  tau(  13) = (   1.8670818   1.0779602  17.6448635  )

     number of k points=    20  Fermi-Dirac smearing, width (Ry)=  0.0110
                       cart. coord. in units 2pi/alat
        k(    1) = (   0.0000000   0.0000000   0.0000000), wk =   0.0555556
        k(    2) = (   0.0000000   0.0257688   0.0000000), wk =   0.1111111
        k(    3) = (   0.0000000   0.0515377   0.0000000), wk =   0.1111111
        k(    4) = (   0.0000000  -0.0773065   0.0000000), wk =   0.0555556
        k(    5) = (   0.0223165  -0.0128844   0.0000000), wk =   0.1111111
        k(    6) = (   0.0223165   0.0128844   0.0000000), wk =   0.1111111
        k(    7) = (   0.0223165   0.0386533   0.0000000), wk =   0.1111111
        k(    8) = (   0.0223165  -0.0901909   0.0000000), wk =   0.1111111
        k(    9) = (   0.0223165  -0.0644221   0.0000000), wk =   0.1111111
        k(   10) = (   0.0223165  -0.0386533   0.0000000), wk =   0.1111111
        k(   11) = (   0.0446329  -0.0257688   0.0000000), wk =   0.1111111
        k(   12) = (   0.0446329   0.0000000   0.0000000), wk =   0.1111111
        k(   13) = (   0.0446329   0.0257688   0.0000000), wk =   0.1111111
        k(   14) = (   0.0446329  -0.1030753   0.0000000), wk =   0.1111111
        k(   15) = (   0.0446329  -0.0773065   0.0000000), wk =   0.1111111
        k(   16) = (   0.0446329  -0.0515377   0.0000000), wk =   0.1111111
        k(   17) = (  -0.0669494   0.0386533   0.0000000), wk =   0.0555556
        k(   18) = (  -0.0669494   0.0644221   0.0000000), wk =   0.1111111
        k(   19) = (  -0.0669494   0.0901909   0.0000000), wk =   0.1111111
        k(   20) = (  -0.0669494  -0.0386533   0.0000000), wk =   0.0555556

     Largest allocated arrays     est. size (Mb)     dimensions
     Largest temporary arrays     est. size (Mb)     dimensions

     Initial potential from superposition of free atoms
     Check: negative starting charge=   -0.831250

     starting charge  132.61517, renormalised to  133.00000

     negative rho (up, down):  8.337E-01 0.000E+00

     *
     * You are using vdW-DF for exchange-correlation in this calculation.
     * Please cite the following three references that made this development
     * possible:
     *
     *   M. Dion, H. Rydberg, E. Schroder, D. C. Langreth, and
     *   B. I. Lundqvist, Phys. Rev. Lett. 92, 246401 (2004).
     *
     *   T. Thonhauser, V. R. Cooper, S. Li, A. Puzder, P. Hyldgaard, and
     *   D. C. Langreth, Phys. Rev. B 76, 125112 (2007).
     *
     *   G. Roman-Perez and J. M. Soler, Phys. Rev. Lett. 103, 096102 (2009).
     *
     *
     * If you are using vdW-DF2, please also cite:
     *
     *   K. Lee, E. D. Murray, L. Kong, B. I. Lundqvist, and
     *   D. C. Langreth, Phys. Rev. B 82, 081101(R) (2010).
     *
     *
     * If you are calculating the stress with vdW-DF, please also cite:
     *
     *   R. Sabatini, E. Kucukbenli, B. Kolb, T. Thonhauser, and
     *   S. de Gironcoli, J. Phys.: Condens. Matter 24, 424209 (2012).
     *

     Carrying out vdW-DF run using the following parameters:

     Nqs =      20    Nr_points =    1024   r_max =   100.000
     q_mesh =
               0.00001000     0.04494208     0.09755937     0.15916263
               0.23128650     0.31572767     0.41458969     0.53033537
               0.66584808     0.82450364     1.01025438     1.22772762
               1.48234092     1.78043706     2.12944203     2.53805004
               3.01644009     3.57652955     4.23227104     5.00000000

     Gradients computed in reciprocal space

     Adding external electric field

     Computed dipole along edir(3) :
        Dipole               -0.0251 Ry au,         -0.0639 Debye
        Dipole field         -0.0000 Ry au

        Potential amp.        0.0036 Ry
        Total length         48.0849 bohr

     Starting wfc are  241 randomized atomic wfcs

     Self-consistent Calculation

     iteration #  1     ecut=    36.75 Ry     beta=0.30
     Davidson diagonalization with overlap
     ethr =  1.00E-02,  avg # of iterations =  2.0

[...]

     total energy              =   -1246.56679112 Ry
     Harris-Foulkes estimate   =   -1250.19721861 Ry
     estimated scf accuracy    <       7.58703596 Ry

[...]

     iteration # 10     ecut=    36.75 Ry     beta=0.30
     Davidson diagonalization with overlap
     c_bands:  1 eigenvalues not converged
     ethr =  1.81E-05,  avg # of iterations =  8.4

[...]

     End of self-consistent calculation

          k = 0.0000 0.0000 0.0000 ( 31997 PWs)   bands (ev):

   -31.5452 -31.5361 -31.4241 -31.4101 -31.4099 -31.4062 -31.3935 -31.3934
   -31.0772 -30.9597 -30.9528 -30.9526 -15.6468 -15.6468 -15.6437 -15.5779
   -15.5778 -15.5719 -15.4917 -15.3916 -15.3870 -15.3869 -15.2063 -15.0489
   -15.0278 -15.0277 -14.8654 -14.8541 -14.8540 -14.8072 -14.8072 -14.8045
   -14.7810 -14.7809 -14.7770 -14.5469 -14.5469 -14.5361 -14.5361 -14.4689
   -14.4572 -14.4569 -14.4322 -14.3555 -14.3554 -14.3537 -14.1266 -14.1266
    -1.6979  -0.8398  -0.1366   0.1511   0.1696   0.1718   0.1719   0.4472
     0.4473   0.5625   0.6538   0.6539   0.7452   0.7803   0.7803   1.0161
     1.5182   1.5182   1.8413   2.0352   2.3274   2.3709   2.3710   2.5842
     2.6939   2.9021   3.0041   3.0101

[...]

          k =-0.0669 0.0387 0.0000 ( 31970 PWs)   bands (ev):

[...]

     the Fermi energy is     1.8186 ev

!    total energy              =   -1249.40647431 Ry
     Harris-Foulkes estimate   =   -1249.40646963 Ry
     estimated scf accuracy    <       0.00000179 Ry

     The total energy is the sum of the following terms:

     one-electron contribution =   -4664.69663684 Ry
     hartree contribution      =    2343.70439843 Ry
     xc contribution           =    -609.22053033 Ry
     ewald contribution        =    1680.92803414 Ry
     electric field correction =       0.00002254 Ry
     smearing contrib. (-TS)   =      -0.12176225 Ry

     convergence has been achieved in  19 iterations

 BEEF-vdW xc energy contributions
           1 :   -539.887008068812
           2 :    496.770279257428
           3 :   -420.420429113553
           4 :    327.040451203814
           5 :   -233.952925878575
           6 :    154.946989524138
           7 :   -97.6171989343489
           8 :    63.0181261854243
           9 :   -47.1326562899126
          10 :    43.2521336146073
          11 :   -44.3659197253735
          12 :    44.8904166283928
          13 :   -41.4817186968580
          14 :    33.0751012814767
          15 :   -20.4965074858301
          16 :    5.90344564957195
          17 :    7.87148172865386
          18 :   -18.0853703911882
          19 :    22.8749357311531
          20 :   -21.8590277864139
          21 :    16.3050474721574
          22 :   -8.73134048022280
          23 :    2.03286486238073
          24 :    1.55492239543901
          25 :   -1.22965013313171
          26 :   -2.20670597608580
          27 :    6.84371396253391
          28 :   -10.5754982554633
          29 :    11.9949725722886
          30 :   -10.8796247839093
          31 :   -45.8160472784089
          32 :   -32.8868860135476

     Forces acting on atoms (Ry/au):

     negative rho (up, down):  5.880E-01 0.000E+00
     atom    1 type  1   force =     0.00000356    0.00002019    0.00289040
     atom    2 type  1   force =    -0.00001229   -0.00162954    0.00402864
     atom    3 type  1   force =    -0.00143040    0.00080358    0.00400862
     atom    4 type  1   force =     0.00143470    0.00081500    0.00398022
     atom    5 type  1   force =    -0.00160214    0.00090652   -0.00157202
     atom    6 type  1   force =     0.00160170    0.00092282   -0.00156850
     atom    7 type  1   force =     0.00001030    0.00000801   -0.00153054
     atom    8 type  1   force =    -0.00001418   -0.00184324   -0.00159063
     atom    9 type  1   force =     0.01472594    0.00851115    0.00665883
     atom   10 type  1   force =    -0.01471751    0.00852421    0.00665701
     atom   11 type  1   force =     0.00001638   -0.01701661    0.00666086
     atom   12 type  1   force =    -0.00001642   -0.00002323   -0.00512192
     atom   13 type  2   force =     0.00000036    0.00000114   -0.02350097

     Total force =     0.039745     Total SCF correction =     0.003514

     entering subroutine stress ...

     negative rho (up, down):  5.880E-01 0.000E+00
          total   stress  (Ry/bohr**3)                   (kbar)     P=   -2.28
  -0.00001088   0.00000000  -0.00000000         -1.60      0.00     -0.00
   0.00000000  -0.00001087  -0.00000000          0.00     -1.60     -0.00
  -0.00000000  -0.00000000  -0.00002485         -0.00     -0.00     -3.66

     BFGS Geometry Optimization

     number of scf cycles    =   1
     number of bfgs steps    =   0

     energy   new            =   -1249.4064743066 Ry

     new trust radius        =       0.0235009750 bohr
     new conv_thr            =       0.0000099958 Ry

ATOMIC_POSITIONS (crystal)
La1      0.166666667   0.166666667   0.383173129    0   0   0
La1      0.666666667   0.166666667   0.383173129    0   0   0
La1      0.166666667   0.666666667   0.383173129    0   0   0
La1      0.666666667   0.666666667   0.383173129    0   0   0
La1      0.833333333   0.333333333   0.500000000    0   0   0
La1      0.333333333   0.333333333   0.500000000    0   0   0
La1      0.833333333   0.833333333   0.500000000    0   0   0
La1      0.333333333   0.833333333   0.500000000    0   0   0
La1      0.000695243   0.000696363   0.616961890
La1      0.498608458   0.000697431   0.616961853
La1      0.000697291   0.498607740   0.616961931
La1      0.499999787   0.499998099   0.616723016
H1       0.166666646   0.166666760   0.675627233

     Writing output data file calc.save
     Check: negative starting charge=   -0.831250
     NEW-OLD atomic charge density approx. for the potential
     Check: negative starting charge=   -0.831341

[...]

     Total force =     0.037146     Total SCF correction =     0.006408
     SCF correction compared to forces is large: reduce conv_thr to get better values

[...]

     energy   old            =   -1249.4064743066 Ry
     energy   new            =   -1249.4079972989 Ry

     CASE: energy  _new < energy  _old

     WARNING: bfgs curvature condition failed, Theta= 0.856
     new trust radius        =       0.0352514625 bohr
     new conv_thr            =       0.0000001000 Ry

[...]

     iteration #  2     ecut=    36.75 Ry     beta=0.30
     Davidson diagonalization with overlap
     c_bands:  1 eigenvalues not converged
     ethr =  5.24E-06,  avg # of iterations = 10.4

[...]

     Threshold (ethr) on eigenvalues was too large:
     Diagonalizing with lowered threshold

     Davidson diagonalization with overlap
     ethr =  8.53E-09,  avg # of iterations =  9.3

[...]

     Total force =     0.007576     Total SCF correction =     0.000803
     SCF correction compared to forces is large: reduce conv_thr to get better values

[...]

     WARNING: bfgs curvature condition failed, Theta= 0.857
     new trust radius        =       0.0089370630 bohr
     new conv_thr            =       0.0000001000 Ry

[...]

     Threshold (ethr) on eigenvalues was too large:
     Diagonalizing with lowered threshold

     Davidson diagonalization with overlap
     ethr =  3.36E-08,  avg # of iterations =  7.0

[...]

     number of scf cycles    =  17
     number of bfgs steps    =  16

     energy   old            =   -1249.4179081890 Ry
     energy   new            =   -1249.4179762354 Ry

     CASE: energy  _new < energy  _old

     new trust radius        =       0.0201083919 bohr
     new conv_thr            =       0.0000001000 Ry

ATOMIC_POSITIONS (crystal)
La1      0.166666667   0.166666667   0.383173129    0   0   0
La1      0.666666667   0.166666667   0.383173129    0   0   0
La1      0.166666667   0.666666667   0.383173129    0   0   0
La1      0.666666667   0.666666667   0.383173129    0   0   0
La1      0.833333333   0.333333333   0.500000000    0   0   0
La1      0.333333333   0.333333333   0.500000000    0   0   0
La1      0.833333333   0.833333333   0.500000000    0   0   0
La1      0.333333333   0.833333333   0.500000000    0   0   0
La1      0.004812832   0.004808268   0.617622699
La1      0.490381637   0.004803399   0.617622373
La1      0.004805378   0.490382821   0.617622495
La1      0.500001658   0.500004822   0.612777108
H1       0.166668255   0.166668127   0.664074769

     Writing output data file calc.save
     Check: negative starting charge=   -0.833374
     NEW-OLD atomic charge density approx. for the potential
     Check: negative starting charge=   -0.833244

[...]

     Self-consistent Calculation

[...]

     total energy              =   -1249.41808413 Ry
     Harris-Foulkes estimate   =   -1249.41808419 Ry
     estimated scf accuracy    <       0.00000108 Ry

     iteration # 10     ecut=    36.75 Ry     beta=0.30
     Davidson diagonalization with overlap
     ethr =  5.11E-10,  avg # of iterations =  5.0

[...]

     negative rho (up, down):  5.875E-01 0.000E+00

     Adding external electric field

     Computed dipole along edir(3) :
        Dipole               -0.0318 Ry au,         -0.0809 Debye
        Dipole field         -0.0000 Ry au

        Potential amp.        0.0045 Ry
        Total length         48.0849 bohr

     End of self-consistent calculation

[...]

          k = 0.0446-0.0515 0.0000 ( 31991 PWs)   bands (ev):

[...]

          k =-0.0669-0.0387 0.0000 ( 31970 PWs)   bands (ev):

   -31.4230 -31.4218 -31.4156 -31.3858 -31.3561 -31.3537 -31.3380 -31.3161
   -30.9881 -30.9450 -30.9017 -30.8841 -15.4165 -15.4006 -15.3601 -15.3307
   -15.3005 -15.2856 -15.2047 -15.1954 -15.1446 -15.1364 -15.1067 -15.0651
   -15.0613 -15.0367 -15.0330 -14.9752 -14.9508 -14.9490 -14.9405 -14.9001
   -14.7234 -14.6865 -14.6254 -14.6228 -14.6068 -14.5758 -14.5745 -14.5391
   -14.5033 -14.4881 -14.4095 -14.3612 -14.3447 -14.3266 -14.1986 -14.1709
    -1.9324   0.2707   0.3213   0.6890   0.7917   1.0266   1.0394   1.0895
     1.1115   1.1213   1.1873   1.4982   1.5420   1.6535   1.6685   1.6924
     1.7218   1.9409   1.9833   2.0406   2.0710   2.0785   2.0952   2.1085
     2.3235   2.3689   2.3745   2.4113

     the Fermi energy is     1.8732 ev

!    total energy              =   -1249.41808409 Ry
     Harris-Foulkes estimate   =   -1249.41808413 Ry
     estimated scf accuracy    <       0.00000006 Ry

     The total energy is the sum of the following terms:

     one-electron contribution =   -4680.12577384 Ry
     hartree contribution      =    2351.67286515 Ry
     xc contribution           =    -609.28751905 Ry
     ewald contribution        =    1688.44501012 Ry
     electric field correction =       0.00000150 Ry
     smearing contrib. (-TS)   =      -0.12266797 Ry

     convergence has been achieved in  10 iterations

 BEEF-vdW xc energy contributions
           1 :   -539.956393907025
           2 :    496.863539849151
           3 :   -420.532566713500
           4 :    327.139647837421
           5 :   -234.003573818374
           6 :    154.931188519244
           7 :   -97.5435312754607
           8 :    62.9157672679584
           9 :   -47.0368553031731
          10 :    43.1897623547715
          11 :   -44.3464263926176
          12 :    44.9043253812788
          13 :   -41.5075722375309
          14 :    33.0918334062185
          15 :   -20.4940162805132
          16 :    5.88482181756740
          17 :    7.89615659554113
          18 :   -18.1075301397537
          19 :    22.8925666543596
          20 :   -21.8767228158677
          21 :    16.3299754553070
          22 :   -8.76719038878559
          23 :    2.07509347651137
          24 :    1.51844648714814
          25 :   -1.21143020678221
          26 :   -2.20284928898184
          27 :    6.82630296898276
          28 :   -10.5607589675421
          29 :    11.9973819760551
          30 :   -10.9037867220355
          31 :   -45.8213312114553
          32 :   -32.8972953596207

     Forces acting on atoms (Ry/au):

     negative rho (up, down):  5.875E-01 0.000E+00
     atom    1 type  1   force =     0.00000015   -0.00000036    0.00269635
     atom    2 type  1   force =    -0.00000015   -0.00148713    0.00431394
     atom    3 type  1   force =    -0.00128730    0.00074346    0.00431466
     atom    4 type  1   force =     0.00128794    0.00074403    0.00431457
     atom    5 type  1   force =     0.00038868   -0.00022403   -0.00385005
     atom    6 type  1   force =    -0.00038874   -0.00022347   -0.00384800
     atom    7 type  1   force =    -0.00000024   -0.00000042    0.00068326
     atom    8 type  1   force =     0.00000009    0.00044802   -0.00385189
     atom    9 type  1   force =     0.00058301    0.00033836   -0.00177806
     atom   10 type  1   force =    -0.00058290    0.00034208   -0.00177681
     atom   11 type  1   force =     0.00000335   -0.00067719   -0.00177795
     atom   12 type  1   force =    -0.00000315   -0.00000308    0.00057947
     atom   13 type  2   force =    -0.00000076   -0.00000026   -0.00001949

     Total force =     0.003344     Total SCF correction =     0.000153

     entering subroutine stress ...

     negative rho (up, down):  5.875E-01 0.000E+00
          total   stress  (Ry/bohr**3)                   (kbar)     P=   -1.01
  -0.00000292   0.00000000  -0.00000000         -0.43      0.00     -0.00
   0.00000000  -0.00000292   0.00000000          0.00     -0.43      0.00
  -0.00000000   0.00000000  -0.00001474         -0.00      0.00     -2.17

     bfgs converged in  18 scf cycles and  17 bfgs steps
     (criteria: energy <  1.0E+00, force <  1.9E-03)

     End of BFGS Geometry Optimization

     Final energy   =   -1249.4180840851 Ry
Begin final coordinates

ATOMIC_POSITIONS (crystal)
La1      0.166666667   0.166666667   0.383173129    0   0   0
La1      0.666666667   0.166666667   0.383173129    0   0   0
La1      0.166666667   0.666666667   0.383173129    0   0   0
La1      0.666666667   0.666666667   0.383173129    0   0   0
La1      0.833333333   0.333333333   0.500000000    0   0   0
La1      0.333333333   0.333333333   0.500000000    0   0   0
La1      0.833333333   0.833333333   0.500000000    0   0   0
La1      0.333333333   0.833333333   0.500000000    0   0   0
La1      0.004812832   0.004808268   0.617622699
La1      0.490381637   0.004803399   0.617622373
La1      0.004805378   0.490382821   0.617622495
La1      0.500001658   0.500004822   0.612777108
H1       0.166668255   0.166668127   0.664074769
End final coordinates

     Writing output data file calc.save

     General routines

     Parallel routines

   This run was terminated on:  17: 7:57   3May2018

   JOB DONE.
Job  /afs/slac/g/suncat/bin/suncat-tsmpirun -x LD_LIBRARY_PATH -wdir /scratch/qe732241_cVlOB pw.x -npool 4 -in pw.inp

TID   HOST_NAME   COMMAND_LINE            STATUS            TERMINATION_TIME
00000 suncat0046 pw.x -npool 4 -i  Done                     05/03/2018 17:07:57
00001 suncat0046 pw.x -npool 4 -i  Done                     05/03/2018 17:07:57
00002 suncat0046 pw.x -npool 4 -i  Done                     05/03/2018 17:07:57
00003 suncat0046 pw.x -npool 4 -i  Done                     05/03/2018 17:07:57
00004 suncat0046 pw.x -npool 4 -i  Done                     05/03/2018 17:07:57
00005 suncat0046 pw.x -npool 4 -i  Done                     05/03/2018 17:07:57
00006 suncat0046 pw.x -npool 4 -i  Done                     05/03/2018 17:07:57
00007 suncat0046 pw.x -npool 4 -i  Done                     05/03/2018 17:07:57
00008 suncat0031 pw.x -npool 4 -i  Done                     05/03/2018 17:07:57
00009 suncat0031 pw.x -npool 4 -i  Done                     05/03/2018 17:07:57
00010 suncat0031 pw.x -npool 4 -i  Done                     05/03/2018 17:07:57
00011 suncat0031 pw.x -npool 4 -i  Done                     05/03/2018 17:07:57
00012 suncat0031 pw.x -npool 4 -i  Done                     05/03/2018 17:07:57
00013 suncat0031 pw.x -npool 4 -i  Done                     05/03/2018 17:07:57
00014 suncat0031 pw.x -npool 4 -i  Done                     05/03/2018 17:07:57
00015 suncat0031 pw.x -npool 4 -i  Done                     05/03/2018 17:07:57
00016 suncat0159 pw.x -npool 4 -i  Done                     05/03/2018 17:07:57
00017 suncat0159 pw.x -npool 4 -i  Done                     05/03/2018 17:07:57
00018 suncat0159 pw.x -npool 4 -i  Done                     05/03/2018 17:07:57
00019 suncat0159 pw.x -npool 4 -i  Done                     05/03/2018 17:07:57
00020 suncat0159 pw.x -npool 4 -i  Done                     05/03/2018 17:07:57
00021 suncat0159 pw.x -npool 4 -i  Done                     05/03/2018 17:07:57
00022 suncat0159 pw.x -npool 4 -i  Done                     05/03/2018 17:07:57
00023 suncat0159 pw.x -npool 4 -i  Done                     05/03/2018 17:07:57
00024 suncat0151 pw.x -npool 4 -i  Done                     05/03/2018 17:07:57
00025 suncat0151 pw.x -npool 4 -i  Done                     05/03/2018 17:07:57
00026 suncat0151 pw.x -npool 4 -i  Done                     05/03/2018 17:07:57
00027 suncat0151 pw.x -npool 4 -i  Done                     05/03/2018 17:07:57
00028 suncat0151 pw.x -npool 4 -i  Done                     05/03/2018 17:07:57
00029 suncat0151 pw.x -npool 4 -i  Done                     05/03/2018 17:07:57
00030 suncat0151 pw.x -npool 4 -i  Done                     05/03/2018 17:07:57
00031 suncat0151 pw.x -npool 4 -i  Done                     05/03/2018 17:07:57