     Program PWSCF v.5.1rc2 (svn rev. 11289) starts on 21Apr2018 at 22:40:17

     Current dimensions of program PWSCF are:
     Max number of different atomic species (ntypx) = 10
     Max number of k-points (npk) =  40000
     Max angular momentum in pseudopotentials (lmaxx) =  3
     Presently stress not available with electric field

     IMPORTANT: XC functional enforced from input :
     Exchange-correlation      = BEEF-VDW ( 1  4 27 13 2)
     Any further DFT definition will be discarded
     Please, verify this is what you really want

     Subspace diagonalization in iterative solution of the eigenvalue problem:
     a serial algorithm will be used

     bravais-lattice index     =            0
     lattice parameter (alat)  =       1.8897  a.u.
     unit-cell volume          =    4569.9960 (a.u.)^3
     number of atoms/cell      =           14
     number of atomic types    =            3
     number of electrons       =       199.00
     number of Kohn-Sham states=          109
     kinetic-energy cutoff     =      36.7493  Ry
     charge density cutoff     =     367.4932  Ry
     convergence threshold     =      1.0E-05
     mixing beta               =       0.3000
     number of iterations used =           10  plain     mixing
     Exchange-correlation      = BEEF-VDW ( 1  4 27 13 2)
     nstep                     =           50

     celldm(1)=   1.889726  celldm(2)=   0.000000  celldm(3)=   0.000000
     celldm(4)=   0.000000  celldm(5)=   0.000000  celldm(6)=   0.000000

     crystal axes: (cart. coord. in units of alat)
               a(1) = (   5.637663   0.000000   0.000000 )
               a(2) = (   2.818831   4.882359   0.000000 )
               a(3) = (   0.000000   0.000000  24.603132 )

     reciprocal axes: (cart. coord. in units 2 pi/alat)
               b(1) = (  0.177378 -0.102410  0.000000 )
               b(2) = (  0.000000  0.204819  0.000000 )
               b(3) = (  0.000000  0.000000  0.040645 )

     PseudoPot. # 1 for Pd read from file:
     /u/if/mamunm/psp/gbrv1.5pbe/Pd.UPF
     MD5 check sum: 2d733d2bc2cbfd217af676df1668a4bc
     Pseudo is Ultrasoft + core correction, Zval = 16.0
     Generated by new atomic code, or converted to UPF format
     Using radial grid of  887 points,  6 beta functions with:
                l(1) =   0
                l(2) =   0
                l(3) =   1
                l(4) =   1
                l(5) =   2
                l(6) =   2
     Q(r) pseudized with  8 coefficients,  rinner =    1.130   1.130   1.130
                                                       1.130   1.130

     PseudoPot. # 2 for S  read from file:
     /u/if/mamunm/psp/gbrv1.5pbe/S.UPF
     MD5 check sum: 88d86576ff6df21479756cfb9bdac1df
     Pseudo is Ultrasoft + core correction, Zval =  6.0
     Generated by new atomic code, or converted to UPF format
     Using radial grid of  907 points,  6 beta functions with:
                l(1) =   0
                l(2) =   0
                l(3) =   1
                l(4) =   1
                l(5) =   2
                l(6) =   2
     Q(r) pseudized with  8 coefficients,  rinner =    1.300   1.300   1.300
                                                       1.300   1.300

     PseudoPot. # 3 for H  read from file:
     /u/if/mamunm/psp/gbrv1.5pbe/H.UPF
     MD5 check sum: 761ae9a214b05c3daf00ab9f6b793d6f
     Pseudo is Ultrasoft, Zval =  1.0
     Generated by new atomic code, or converted to UPF format
     Using radial grid of  615 points,  2 beta functions with:
                l(1) =   0
                l(2) =   0
     Q(r) pseudized with  8 coefficients,  rinner =    0.700

     vdW kernel table read from file vdW_kernel_table
     MD5 check sum: 095c7af220d748ca6e76c0b4c6cfb241

     atomic species   valence    mass     pseudopotential
        Pd1           16.00   106.42000     Pd( 1.00)
        S1             6.00    32.06000     S ( 1.00)
        H1             1.00     1.00800     H ( 1.00)

     No symmetry found

   Cartesian axes

     site n.     atom                  positions (alat units)
         1           Pd1 tau(   1) = (   1.4094157   0.8137265  10.0000000  )
         2           Pd1 tau(   2) = (   4.2282471   0.8137265  10.0000000  )
         3           Pd1 tau(   3) = (   2.8188314   3.2549061  10.0000000  )
         4           Pd1 tau(   4) = (   5.6376627   3.2549061  10.0000000  )
         5           Pd1 tau(   5) = (   5.6376627   1.6274531  12.3015662  )
         6           Pd1 tau(   6) = (   2.8188314   1.6274531  12.3015662  )
         7           Pd1 tau(   7) = (   7.0470784   4.0686326  12.3015662  )
         8           Pd1 tau(   8) = (   4.2282471   4.0686326  12.3015662  )
         9           Pd1 tau(   9) = (   0.0000000   0.0000000  14.6031324  )
        10           Pd1 tau(  10) = (   2.8188314   0.0000000  14.6031324  )
        11           Pd1 tau(  11) = (   1.4094157   2.4411796  14.6031324  )
        12           Pd1 tau(  12) = (   4.2282471   2.4411796  14.6031324  )
        13           S1  tau(  13) = (   1.4094157   0.0000000  16.4331324  )
        14           H1  tau(  14) = (   1.4094157   0.0000000  17.6831324  )

     number of k points=    20  Fermi-Dirac smearing, width (Ry)=  0.0110
                       cart. coord. in units 2pi/alat
        k(    1) = (   0.0000000   0.0000000   0.0000000), wk =   0.0555556
        k(    2) = (   0.0000000   0.0341365   0.0000000), wk =   0.1111111
        k(    3) = (   0.0000000   0.0682730   0.0000000), wk =   0.1111111
        k(    4) = (   0.0000000  -0.1024095   0.0000000), wk =   0.0555556
        k(    5) = (   0.0295631  -0.0170683   0.0000000), wk =   0.1111111
        k(    6) = (   0.0295631   0.0170683   0.0000000), wk =   0.1111111
        k(    7) = (   0.0295631   0.0512048   0.0000000), wk =   0.1111111
        k(    8) = (   0.0295631  -0.1194778   0.0000000), wk =   0.1111111
        k(    9) = (   0.0295631  -0.0853413   0.0000000), wk =   0.1111111
        k(   10) = (   0.0295631  -0.0512048   0.0000000), wk =   0.1111111
        k(   11) = (   0.0591262  -0.0341365   0.0000000), wk =   0.1111111
        k(   12) = (   0.0591262  -0.0000000   0.0000000), wk =   0.1111111
        k(   13) = (   0.0591262   0.0341365   0.0000000), wk =   0.1111111
        k(   14) = (   0.0591262  -0.1365460   0.0000000), wk =   0.1111111
        k(   15) = (   0.0591262  -0.1024095   0.0000000), wk =   0.1111111
        k(   16) = (   0.0591262  -0.0682730   0.0000000), wk =   0.1111111
        k(   17) = (  -0.0886892   0.0512048   0.0000000), wk =   0.0555556
        k(   18) = (  -0.0886892   0.0853413   0.0000000), wk =   0.1111111
        k(   19) = (  -0.0886892   0.1194778   0.0000000), wk =   0.1111111
        k(   20) = (  -0.0886892  -0.0512048   0.0000000), wk =   0.0555556

     Largest allocated arrays     est. size (Mb)     dimensions
     Largest temporary arrays     est. size (Mb)     dimensions

     Initial potential from superposition of free atoms
     Check: negative starting charge=   -0.903966

     starting charge  192.99987, renormalised to  199.00000

     negative rho (up, down):  9.321E-01 0.000E+00

     *
     * You are using vdW-DF for exchange-correlation in this calculation.
     * Please cite the following three references that made this development
     * possible:
     *
     *   M. Dion, H. Rydberg, E. Schroder, D. C. Langreth, and
     *   B. I. Lundqvist, Phys. Rev. Lett. 92, 246401 (2004).
     *
     *   T. Thonhauser, V. R. Cooper, S. Li, A. Puzder, P. Hyldgaard, and
     *   D. C. Langreth, Phys. Rev. B 76, 125112 (2007).
     *
     *   G. Roman-Perez and J. M. Soler, Phys. Rev. Lett. 103, 096102 (2009).
     *
     *
     * If you are using vdW-DF2, please also cite:
     *
     *   K. Lee, E. D. Murray, L. Kong, B. I. Lundqvist, and
     *   D. C. Langreth, Phys. Rev. B 82, 081101(R) (2010).
     *
     *
     * If you are calculating the stress with vdW-DF, please also cite:
     *
     *   R. Sabatini, E. Kucukbenli, B. Kolb, T. Thonhauser, and
     *   S. de Gironcoli, J. Phys.: Condens. Matter 24, 424209 (2012).
     *

     Carrying out vdW-DF run using the following parameters:

     Nqs =      20    Nr_points =    1024   r_max =   100.000
     q_mesh =
               0.00001000     0.04494208     0.09755937     0.15916263
               0.23128650     0.31572767     0.41458969     0.53033537
               0.66584808     0.82450364     1.01025438     1.22772762
               1.48234092     1.78043706     2.12944203     2.53805004
               3.01644009     3.57652955     4.23227104     5.00000000

     Gradients computed in reciprocal space

     Adding external electric field

     Computed dipole along edir(3) :
        Dipole               -1.7721 Ry au,         -4.5043 Debye
        Dipole field         -0.0049 Ry au

        Potential amp.        0.4418 Ry
        Total length         45.3309 bohr

     Starting wfc are  149 randomized atomic wfcs

     Self-consistent Calculation

     iteration #  1     ecut=    36.75 Ry     beta=0.30
     Davidson diagonalization with overlap
     ethr =  1.00E-02,  avg # of iterations =  4.7

[...]

     total energy              =   -2359.90296713 Ry
     Harris-Foulkes estimate   =   -2425.10575556 Ry
     estimated scf accuracy    <     137.41406583 Ry

[...]

     End of self-consistent calculation

          k = 0.0000 0.0000 0.0000 ( 17231 PWs)   bands (ev):

   -48.6984 -48.6117 -48.4641 -48.4565 -48.4445 -48.4337 -48.4186 -48.4062
   -48.3638 -48.3339 -48.3086 -48.2944 -48.2650 -48.2603 -48.2513 -48.2376
   -48.1845 -48.1829 -48.1640 -48.1621 -48.1495 -48.0874 -48.0081 -48.0003
   -47.9968 -47.9939 -47.9867 -47.9474 -47.9371 -47.9343 -47.8737 -47.8554
   -47.8537 -47.8433 -47.8303 -47.8236 -12.6513  -6.0727  -4.1415  -3.2310
    -3.0575  -3.0273  -2.9506  -2.9322  -2.9205  -2.8404  -2.7111  -2.6578
    -2.6115  -2.5624  -2.4423  -2.3969  -2.3662  -2.2335  -1.8545  -1.5109
    -1.3930  -1.2472  -1.1446  -1.1406  -1.0310  -0.9609  -0.9555  -0.8553
    -0.8505  -0.7002  -0.6561  -0.6511  -0.6354  -0.6341  -0.4906  -0.3602
    -0.0453   0.0429   0.0957   0.2212   0.3390   0.3712   0.4072   0.4942
     0.6412   0.6777   0.7327   0.7781   0.8852   1.1238   1.1328   1.1510
     1.2092   1.2506   1.2651   1.3657   1.3804   1.4418   1.4573   1.4970
     1.5542   1.6111   1.6910   1.6972   1.7004   1.7218   2.1601   3.2767
     3.7266   3.8799   4.1008   4.7925   4.9451

[...]

          k =-0.0887 0.0512 0.0000 ( 17240 PWs)   bands (ev):

[...]

     the Fermi energy is     1.4753 ev

!    total energy              =   -2423.03826282 Ry
     Harris-Foulkes estimate   =   -2423.03824269 Ry
     estimated scf accuracy    <       0.00000602 Ry

     The total energy is the sum of the following terms:

     one-electron contribution =  -20609.94389178 Ry
     hartree contribution      =   10359.56168658 Ry
     xc contribution           =    -399.80240820 Ry
     ewald contribution        =    8227.26467691 Ry
     electric field correction =       0.00014451 Ry
     smearing contrib. (-TS)   =      -0.11847083 Ry

     convergence has been achieved in  21 iterations

 BEEF-vdW xc energy contributions
           1 :   -347.858946583640
           2 :    317.556245207531
           3 :   -265.905754311286
           4 :    206.821180247043
           5 :   -153.737619441958
           6 :    115.221094378337
           7 :   -93.1235100910219
           8 :    83.5963164617097
           9 :   -80.0988149527222
          10 :    76.7878395115363
          11 :   -70.7591410541863
          12 :    62.3726291875200
          13 :   -53.9442745243647
          14 :    47.8188483803441
          15 :   -44.9391166776575
          16 :    44.5308293968147
          17 :   -44.8226176987359
          18 :    44.1886526371799
          19 :   -41.9972085498499
          20 :    38.7419304421269
          21 :   -35.5164208221180
          22 :    33.2478233677847
          23 :   -32.1713541965167
          24 :    31.8050071652545
          25 :   -31.3570615688054
          26 :    30.2561417998728
          27 :   -28.4691642845048
          28 :    26.4420712374391
          29 :   -24.7494998444297
          30 :    23.7061592371457
          31 :   -34.0819070576378
          32 :   -25.1255846507177

     Forces acting on atoms (Ry/au):

     negative rho (up, down):  9.418E-01 0.000E+00
     atom    1 type  1   force =     0.00003778    0.00015262    0.00115088
     atom    2 type  1   force =    -0.00003436   -0.00007511    0.00157669
     atom    3 type  1   force =    -0.00005663   -0.00001839   -0.00106610
     atom    4 type  1   force =     0.00006227    0.00001213   -0.00109174
     atom    5 type  1   force =    -0.00190502   -0.00052767   -0.00089217
     atom    6 type  1   force =     0.00187776   -0.00049530   -0.00091630
     atom    7 type  1   force =     0.00001330    0.00164963    0.00903036
     atom    8 type  1   force =    -0.00000470   -0.00134419   -0.01040964
     atom    9 type  1   force =    -0.02701717   -0.00161015   -0.00319339
     atom   10 type  1   force =     0.02702647   -0.00156895   -0.00323272
     atom   11 type  1   force =     0.00002976    0.00194243    0.00285516
     atom   12 type  1   force =    -0.00003405    0.00124193    0.00356652
     atom   13 type  2   force =     0.00000291   -0.00036410   -0.13064788
     atom   14 type  3   force =     0.00000168    0.00100512    0.13327033

     Total force =     0.190639     Total SCF correction =     0.005333

     entering subroutine stress ...

     negative rho (up, down):  9.418E-01 0.000E+00
          total   stress  (Ry/bohr**3)                   (kbar)     P=   -2.40
  -0.00003800   0.00000000  -0.00000002         -5.59      0.00     -0.00
   0.00000000  -0.00007224   0.00000155          0.00    -10.63      0.23
  -0.00000002   0.00000155   0.00006121         -0.00      0.23      9.00

     BFGS Geometry Optimization

     number of scf cycles    =   1
     number of bfgs steps    =   0

     energy   new            =   -2423.0382628160 Ry

     new trust radius        =       0.1332741221 bohr
     new conv_thr            =       0.0000099958 Ry

ATOMIC_POSITIONS (crystal)
Pd1      0.166666667   0.166666667   0.406452311    0   0   0
Pd1      0.666666667   0.166666667   0.406452311    0   0   0
Pd1      0.166666667   0.666666667   0.406452311    0   0   0
Pd1      0.666666667   0.666666667   0.406452311    0   0   0
Pd1      0.833333333   0.333333333   0.500000000    0   0   0
Pd1      0.333333333   0.333333333   0.500000000    0   0   0
Pd1      0.833333333   0.833333333   0.500000000    0   0   0
Pd1      0.333333333   0.833333333   0.500000000    0   0   0
Pd1     -0.002448698  -0.000174517   0.593479004
Pd1      0.502621856  -0.000170052   0.593478158
Pd1     -0.000102472   0.500210531   0.593609099
Pd1      0.499929500   0.500134608   0.593624400
S1       0.250020005  -0.000039463   0.665118418
H1       0.249945687   0.000108941   0.721601450

     Writing output data file calc.save
     Check: negative starting charge=   -0.903966
     NEW-OLD atomic charge density approx. for the potential
     Check: negative starting charge=   -0.903661

[...]

     Total force =     0.057357     Total SCF correction =     0.013336
     SCF correction compared to forces is large: reduce conv_thr to get better values

[...]

     energy   old            =   -2423.0382628160 Ry
     energy   new            =   -2423.0512362599 Ry

     CASE: energy  _new < energy  _old

[...]

     WARNING: bfgs curvature condition failed, Theta= 0.889
     new trust radius        =       0.0378175963 bohr
     new conv_thr            =       0.0000001000 Ry

[...]

     WARNING: bfgs curvature condition failed, Theta= 0.877
     new trust radius        =       0.0718997200 bohr
     new conv_thr            =       0.0000001000 Ry

[...]

     Total force =     0.008193     Total SCF correction =     0.000137

[...]

     new trust radius        =       0.0654274502 bohr
     new conv_thr            =       0.0000001000 Ry

ATOMIC_POSITIONS (crystal)
Pd1      0.166666667   0.166666667   0.406452311    0   0   0
Pd1      0.666666667   0.166666667   0.406452311    0   0   0
Pd1      0.166666667   0.666666667   0.406452311    0   0   0
Pd1      0.666666667   0.666666667   0.406452311    0   0   0
Pd1      0.833333333   0.333333333   0.500000000    0   0   0
Pd1      0.333333333   0.333333333   0.500000000    0   0   0
Pd1      0.833333333   0.833333333   0.500000000    0   0   0
Pd1      0.333333333   0.833333333   0.500000000    0   0   0
Pd1      0.010562252  -0.026062912   0.595698496
Pd1      0.515475263  -0.026072136   0.595704711
Pd1      0.009822819   0.480347248   0.591463849
Pd1      0.513835474   0.472307582   0.594362405
S1       0.261909626  -0.023839243   0.671655899
H1       0.125866297   0.248283357   0.684078016

     Writing output data file calc.save
     Check: negative starting charge=   -0.906257
     NEW-OLD atomic charge density approx. for the potential
     Check: negative starting charge=   -0.906878

[...]

     Self-consistent Calculation

[...]

     total energy              =   -2423.09901279 Ry
     Harris-Foulkes estimate   =   -2423.09901278 Ry
     estimated scf accuracy    <       0.00000013 Ry

     iteration # 12     ecut=    36.75 Ry     beta=0.30
     Davidson diagonalization with overlap
     ethr =  6.62E-11,  avg # of iterations =  1.8

[...]

     negative rho (up, down):  9.450E-01 0.000E+00

     Adding external electric field

     Computed dipole along edir(3) :
        Dipole                0.0586 Ry au,          0.1488 Debye
        Dipole field          0.0002 Ry au

        Potential amp.       -0.0146 Ry
        Total length         45.3309 bohr

     End of self-consistent calculation

[...]

          k = 0.0591-0.0683 0.0000 ( 17183 PWs)   bands (ev):

[...]

          k =-0.0887-0.0512 0.0000 ( 17240 PWs)   bands (ev):

   -48.8770 -48.8669 -48.6209 -48.6162 -48.5790 -48.5702 -48.5653 -48.5290
   -48.5111 -48.4969 -48.4890 -48.4768 -48.4679 -48.4566 -48.4507 -48.4250
   -48.4020 -48.3626 -48.3074 -48.2929 -48.2766 -48.2477 -48.2470 -48.2312
   -48.2130 -48.2126 -48.1829 -48.1551 -48.1478 -48.1381 -48.1279 -48.0452
   -48.0243 -47.9985 -47.9979 -47.9898 -12.5285  -5.0924  -3.3497  -3.0998
    -2.9486  -2.7647  -2.5501  -2.5091  -2.4447  -2.3876  -2.3109  -2.2622
    -2.1953  -2.1036  -2.0791  -2.0153  -1.9996  -1.8879  -1.8522  -1.8082
    -1.5555  -1.5321  -1.4727  -1.4457  -1.4370  -1.3601  -1.1928  -1.1159
    -0.9616  -0.8894  -0.8838  -0.8378  -0.7842  -0.7585  -0.7009  -0.6287
    -0.5664  -0.5438  -0.5246  -0.4838  -0.4605  -0.4492  -0.3875  -0.2232
    -0.1635  -0.1439  -0.0979   0.0059   0.0503   0.1134   0.1279   0.1865
     0.2572   0.2720   0.3103   0.4436   0.5239   0.5910   0.6832   0.8172
     0.9948   1.0712   1.0802   1.0959   1.2890   1.3330   1.6506   2.3522
     3.6278   3.7793   4.0386   4.0620   4.8563

     the Fermi energy is     1.2934 ev

!    total energy              =   -2423.09901273 Ry
     Harris-Foulkes estimate   =   -2423.09901234 Ry
     estimated scf accuracy    <       0.00000009 Ry

     The total energy is the sum of the following terms:

     one-electron contribution =  -20571.85450834 Ry
     hartree contribution      =   10339.44767556 Ry
     xc contribution           =    -399.70321273 Ry
     ewald contribution        =    8209.12597772 Ry
     electric field correction =       0.00000943 Ry
     smearing contrib. (-TS)   =      -0.11495437 Ry

     convergence has been achieved in  12 iterations

 BEEF-vdW xc energy contributions
           1 :   -347.765644422202
           2 :    317.454461970094
           3 :   -265.789033697395
           4 :    206.690164301162
           5 :   -153.604573728124
           6 :    115.109114520057
           7 :   -93.0555128513938
           8 :    83.5791848237285
           9 :   -80.1157380964133
          10 :    76.8067698593413
          11 :   -70.7523015742419
          12 :    62.3337154682204
          13 :   -53.8909446547756
          14 :    47.7796306933984
          15 :   -44.9343610482446
          16 :    44.5596787194925
          17 :   -44.8640147117956
          18 :    44.2158421353574
          19 :   -41.9957455263136
          20 :    38.7183729268704
          21 :   -35.4919258001585
          22 :    33.2418881282290
          23 :   -32.1871119025141
          24 :    31.8266786566574
          25 :   -31.3613152440153
          26 :    30.2293228705965
          27 :   -28.4176542913589
          28 :    26.3880694230872
          29 :   -24.7152179176635
          30 :    23.6977394666209
          31 :   -34.0765700913212
          32 :   -25.1170657142924

     Forces acting on atoms (Ry/au):

     negative rho (up, down):  9.450E-01 0.000E+00
     atom    1 type  1   force =    -0.00000402    0.00018704   -0.00005388
     atom    2 type  1   force =     0.00000351    0.00101401    0.00105985
     atom    3 type  1   force =     0.00140714    0.00016780   -0.00239540
     atom    4 type  1   force =    -0.00140636    0.00016442   -0.00238967
     atom    5 type  1   force =    -0.00342594   -0.00578940   -0.00357101
     atom    6 type  1   force =     0.00342072   -0.00579923   -0.00356397
     atom    7 type  1   force =    -0.00001270    0.00301815    0.01278921
     atom    8 type  1   force =     0.00000584   -0.00137690    0.00064455
     atom    9 type  1   force =    -0.00206689    0.00112639   -0.00205722
     atom   10 type  1   force =     0.00209742    0.00112532   -0.00209735
     atom   11 type  1   force =    -0.00000993    0.00171346    0.00293498
     atom   12 type  1   force =     0.00000738    0.00239832   -0.00401162
     atom   13 type  2   force =    -0.00001373   -0.00047202    0.00090712
     atom   14 type  3   force =    -0.00000243    0.00252263    0.00180443

     Total force =     0.007994     Total SCF correction =     0.001478
     SCF correction compared to forces is large: reduce conv_thr to get better values

     entering subroutine stress ...

     negative rho (up, down):  9.450E-01 0.000E+00
          total   stress  (Ry/bohr**3)                   (kbar)     P=   -7.46
  -0.00006491   0.00000000  -0.00000001         -9.55      0.00     -0.00
   0.00000000  -0.00007514   0.00000852          0.00    -11.05      1.25
  -0.00000001   0.00000852  -0.00001205         -0.00      1.25     -1.77

     number of scf cycles    =  50
     number of bfgs steps    =  49

     energy   old            =   -2423.0989005648 Ry
     energy   new            =   -2423.0990127287 Ry

     CASE: energy  _new < energy  _old

     new trust radius        =       0.0679254076 bohr

     The maximum number of steps has been reached.

     End of BFGS Geometry Optimization
Begin final coordinates

ATOMIC_POSITIONS (crystal)
Pd1      0.166666667   0.166666667   0.406452311    0   0   0
Pd1      0.666666667   0.166666667   0.406452311    0   0   0
Pd1      0.166666667   0.666666667   0.406452311    0   0   0
Pd1      0.666666667   0.666666667   0.406452311    0   0   0
Pd1      0.833333333   0.333333333   0.500000000    0   0   0
Pd1      0.333333333   0.333333333   0.500000000    0   0   0
Pd1      0.833333333   0.833333333   0.500000000    0   0   0
Pd1      0.333333333   0.833333333   0.500000000    0   0   0
Pd1      0.010692968  -0.025938048   0.595360177
Pd1      0.515244167  -0.025943736   0.595357757
Pd1      0.009968718   0.480063475   0.591784754
Pd1      0.513779125   0.472413823   0.593937707
S1       0.258937559  -0.017928990   0.671202813
H1       0.122627935   0.254756993   0.683382241
End final coordinates

     Writing output data file calc.save

     General routines

     Parallel routines

   This run was terminated on:   4:37:56  22Apr2018

   JOB DONE.
Job  /afs/slac/g/suncat/bin/suncat-tsmpirun -x LD_LIBRARY_PATH -wdir /scratch/qe470079_00LDR pw.x -npool 4 -in pw.inp

TID   HOST_NAME   COMMAND_LINE            STATUS            TERMINATION_TIME
00000 suncat0143 pw.x -npool 4 -i  Done                     04/22/2018 04:37:56
00001 suncat0143 pw.x -npool 4 -i  Done                     04/22/2018 04:37:56
00002 suncat0143 pw.x -npool 4 -i  Done                     04/22/2018 04:37:56
00003 suncat0143 pw.x -npool 4 -i  Done                     04/22/2018 04:37:56
00004 suncat0143 pw.x -npool 4 -i  Done                     04/22/2018 04:37:56
00005 suncat0143 pw.x -npool 4 -i  Done                     04/22/2018 04:37:56
00006 suncat0143 pw.x -npool 4 -i  Done                     04/22/2018 04:37:56
00007 suncat0143 pw.x -npool 4 -i  Done                     04/22/2018 04:37:56
00008 suncat0249 pw.x -npool 4 -i  Done                     04/22/2018 04:37:56
00009 suncat0249 pw.x -npool 4 -i  Done                     04/22/2018 04:37:56
00010 suncat0249 pw.x -npool 4 -i  Done                     04/22/2018 04:37:56
00011 suncat0249 pw.x -npool 4 -i  Done                     04/22/2018 04:37:56
00012 suncat0249 pw.x -npool 4 -i  Done                     04/22/2018 04:37:56
00013 suncat0249 pw.x -npool 4 -i  Done                     04/22/2018 04:37:56
00014 suncat0249 pw.x -npool 4 -i  Done                     04/22/2018 04:37:56
00015 suncat0249 pw.x -npool 4 -i  Done                     04/22/2018 04:37:56
00016 suncat0238 pw.x -npool 4 -i  Done                     04/22/2018 04:37:56
00017 suncat0238 pw.x -npool 4 -i  Done                     04/22/2018 04:37:56
00018 suncat0238 pw.x -npool 4 -i  Done                     04/22/2018 04:37:56
00019 suncat0238 pw.x -npool 4 -i  Done                     04/22/2018 04:37:56
00020 suncat0238 pw.x -npool 4 -i  Done                     04/22/2018 04:37:56
00021 suncat0238 pw.x -npool 4 -i  Done                     04/22/2018 04:37:56
00022 suncat0238 pw.x -npool 4 -i  Done                     04/22/2018 04:37:56
00023 suncat0238 pw.x -npool 4 -i  Done                     04/22/2018 04:37:56
00024 suncat0200 pw.x -npool 4 -i  Done                     04/22/2018 04:37:56
00025 suncat0200 pw.x -npool 4 -i  Done                     04/22/2018 04:37:56
00026 suncat0200 pw.x -npool 4 -i  Done                     04/22/2018 04:37:56
00027 suncat0200 pw.x -npool 4 -i  Done                     04/22/2018 04:37:56
00028 suncat0200 pw.x -npool 4 -i  Done                     04/22/2018 04:37:56
00029 suncat0200 pw.x -npool 4 -i  Done                     04/22/2018 04:37:56
00030 suncat0200 pw.x -npool 4 -i  Done                     04/22/2018 04:37:56
00031 suncat0200 pw.x -npool 4 -i  Done                     04/22/2018 04:37:56