     Program PWSCF v.5.1rc2 (svn rev. 11289) starts on 16Jan2018 at 21:19:38

     Current dimensions of program PWSCF are:
     Max number of different atomic species (ntypx) = 10
     Max number of k-points (npk) =  40000
     Max angular momentum in pseudopotentials (lmaxx) =  3
     Presently stress not available with electric field

     IMPORTANT: XC functional enforced from input :
     Exchange-correlation      = BEEF-VDW ( 1  4 27 13 2)
     Any further DFT definition will be discarded
     Please, verify this is what you really want

     Subspace diagonalization in iterative solution of the eigenvalue problem:
     a serial algorithm will be used

     bravais-lattice index     =            0
     lattice parameter (alat)  =       1.8897  a.u.
     unit-cell volume          =    4299.0717 (a.u.)^3
     number of atoms/cell      =           13
     number of atomic types    =            2
     number of electrons       =       186.00
     number of Kohn-Sham states=          103
     kinetic-energy cutoff     =      36.7493  Ry
     charge density cutoff     =     367.4932  Ry
     convergence threshold     =      1.0E-05
     mixing beta               =       0.3000
     number of iterations used =           10  plain     mixing
     Exchange-correlation      = BEEF-VDW ( 1  4 27 13 2)
     nstep                     =           50

     celldm(1)=   1.889726  celldm(2)=   0.000000  celldm(3)=   0.000000
     celldm(4)=   0.000000  celldm(5)=   0.000000  celldm(6)=   0.000000

     crystal axes: (cart. coord. in units of alat)
               a(1) = (   5.482164   0.000000   0.000000 )
               a(2) = (   2.741082   4.747693   0.000000 )
               a(3) = (   0.000000   0.000000  24.476168 )

     reciprocal axes: (cart. coord. in units 2 pi/alat)
               b(1) = (  0.182410 -0.105314  0.000000 )
               b(2) = (  0.000000  0.210629  0.000000 )
               b(3) = (  0.000000  0.000000  0.040856 )

     PseudoPot. # 1 for Ir read from file:
     /afs/slac.stanford.edu/u/if/mamunm/psp/gbrv1.5pbe/Ir.UPF
     MD5 check sum: 8836f839c3459d2b385c504ce6d91f2c
     Pseudo is Ultrasoft + core correction, Zval = 15.0
     Generated by new atomic code, or converted to UPF format
     Using radial grid of  983 points,  7 beta functions with:
                l(1) =   0
                l(2) =   0
                l(3) =   1
                l(4) =   1
                l(5) =   1
                l(6) =   2
                l(7) =   2
     Q(r) pseudized with  8 coefficients,  rinner =    1.400   1.400   1.400
                                                       1.400   1.400

     PseudoPot. # 2 for S  read from file:
     /afs/slac.stanford.edu/u/if/mamunm/psp/gbrv1.5pbe/S.UPF
     MD5 check sum: 88d86576ff6df21479756cfb9bdac1df
     Pseudo is Ultrasoft + core correction, Zval =  6.0
     Generated by new atomic code, or converted to UPF format
     Using radial grid of  907 points,  6 beta functions with:
                l(1) =   0
                l(2) =   0
                l(3) =   1
                l(4) =   1
                l(5) =   2
                l(6) =   2
     Q(r) pseudized with  8 coefficients,  rinner =    1.300   1.300   1.300
                                                       1.300   1.300

     vdW kernel table read from file vdW_kernel_table
     MD5 check sum: 095c7af220d748ca6e76c0b4c6cfb241

     atomic species   valence    mass     pseudopotential
        Ir1           15.00   192.21700     Ir( 1.00)
        S1             6.00    32.06000     S ( 1.00)

     No symmetry found

   Cartesian axes

     site n.     atom                  positions (alat units)
         1           Ir1 tau(   1) = (   1.3705410   0.7912822  10.0000000  )
         2           Ir1 tau(   2) = (   4.1116229   0.7912822  10.0000000  )
         3           Ir1 tau(   3) = (   2.7410819   3.1651288  10.0000000  )
         4           Ir1 tau(   4) = (   5.4821639   3.1651288  10.0000000  )
         5           Ir1 tau(   5) = (   5.4821639   1.5825644  12.2380840  )
         6           Ir1 tau(   6) = (   2.7410819   1.5825644  12.2380840  )
         7           Ir1 tau(   7) = (   6.8527049   3.9564110  12.2380840  )
         8           Ir1 tau(   8) = (   4.1116229   3.9564110  12.2380840  )
         9           Ir1 tau(   9) = (   0.0000000   0.0000000  14.4761681  )
        10           Ir1 tau(  10) = (   2.7410819   0.0000000  14.4761681  )
        11           Ir1 tau(  11) = (   1.3705410   2.3738466  14.4761681  )
        12           Ir1 tau(  12) = (   4.1116229   2.3738466  14.4761681  )
        13           S1  tau(  13) = (   2.7410819   1.5825644  16.9361681  )

     number of k points=    20  Fermi-Dirac smearing, width (Ry)=  0.0110
                       cart. coord. in units 2pi/alat
        k(    1) = (   0.0000000   0.0000000   0.0000000), wk =   0.0555556
        k(    2) = (   0.0000000   0.0351048   0.0000000), wk =   0.1111111
        k(    3) = (   0.0000000   0.0702095   0.0000000), wk =   0.1111111
        k(    4) = (   0.0000000  -0.1053143   0.0000000), wk =   0.0555556
        k(    5) = (   0.0304016  -0.0175524   0.0000000), wk =   0.1111111
        k(    6) = (   0.0304016   0.0175524   0.0000000), wk =   0.1111111
        k(    7) = (   0.0304016   0.0526572   0.0000000), wk =   0.1111111
        k(    8) = (   0.0304016  -0.1228667   0.0000000), wk =   0.1111111
        k(    9) = (   0.0304016  -0.0877619   0.0000000), wk =   0.1111111
        k(   10) = (   0.0304016  -0.0526572   0.0000000), wk =   0.1111111
        k(   11) = (   0.0608032  -0.0351048   0.0000000), wk =   0.1111111
        k(   12) = (   0.0608032   0.0000000   0.0000000), wk =   0.1111111
        k(   13) = (   0.0608032   0.0351048   0.0000000), wk =   0.1111111
        k(   14) = (   0.0608032  -0.1404191   0.0000000), wk =   0.1111111
        k(   15) = (   0.0608032  -0.1053143   0.0000000), wk =   0.1111111
        k(   16) = (   0.0608032  -0.0702095   0.0000000), wk =   0.1111111
        k(   17) = (  -0.0912049   0.0526572   0.0000000), wk =   0.0555556
        k(   18) = (  -0.0912049   0.0877619   0.0000000), wk =   0.1111111
        k(   19) = (  -0.0912049   0.1228667   0.0000000), wk =   0.1111111
        k(   20) = (  -0.0912049  -0.0526572   0.0000000), wk =   0.0555556

     Largest allocated arrays     est. size (Mb)     dimensions
     Largest temporary arrays     est. size (Mb)     dimensions

     Initial potential from superposition of free atoms
     Check: negative starting charge=   -4.361416

     starting charge  179.99958, renormalised to  186.00000

     negative rho (up, down):  4.507E+00 0.000E+00

     *
     * You are using vdW-DF for exchange-correlation in this calculation.
     * Please cite the following three references that made this development
     * possible:
     *
     *   M. Dion, H. Rydberg, E. Schroder, D. C. Langreth, and
     *   B. I. Lundqvist, Phys. Rev. Lett. 92, 246401 (2004).
     *
     *   T. Thonhauser, V. R. Cooper, S. Li, A. Puzder, P. Hyldgaard, and
     *   D. C. Langreth, Phys. Rev. B 76, 125112 (2007).
     *
     *   G. Roman-Perez and J. M. Soler, Phys. Rev. Lett. 103, 096102 (2009).
     *
     *
     * If you are using vdW-DF2, please also cite:
     *
     *   K. Lee, E. D. Murray, L. Kong, B. I. Lundqvist, and
     *   D. C. Langreth, Phys. Rev. B 82, 081101(R) (2010).
     *
     *
     * If you are calculating the stress with vdW-DF, please also cite:
     *
     *   R. Sabatini, E. Kucukbenli, B. Kolb, T. Thonhauser, and
     *   S. de Gironcoli, J. Phys.: Condens. Matter 24, 424209 (2012).
     *

     Carrying out vdW-DF run using the following parameters:

     Nqs =      20    Nr_points =    1024   r_max =   100.000
     q_mesh =
               0.00001000     0.04494208     0.09755937     0.15916263
               0.23128650     0.31572767     0.41458969     0.53033537
               0.66584808     0.82450364     1.01025438     1.22772762
               1.48234092     1.78043706     2.12944203     2.53805004
               3.01644009     3.57652955     4.23227104     5.00000000

     Gradients computed in reciprocal space

     Adding external electric field

     Computed dipole along edir(3) :
        Dipole               -1.7754 Ry au,         -4.5126 Debye
        Dipole field         -0.0052 Ry au

        Potential amp.        0.4681 Ry
        Total length         45.0969 bohr

     Starting wfc are  148 randomized atomic wfcs

     Self-consistent Calculation

     iteration #  1     ecut=    36.75 Ry     beta=0.30
     Davidson diagonalization with overlap
     ethr =  1.00E-02,  avg # of iterations =  2.6

[...]

     total energy              =   -2187.32265532 Ry
     Harris-Foulkes estimate   =   -2226.69603829 Ry
     estimated scf accuracy    <      82.76106308 Ry

     iteration #  2     ecut=    36.75 Ry     beta=0.30
     Davidson diagonalization with overlap
     c_bands:  2 eigenvalues not converged
     ethr =  1.00E-02,  avg # of iterations = 16.9

[...]

     End of self-consistent calculation

          k = 0.0000 0.0000 0.0000 ( 16073 PWs)   bands (ev):

   -47.6625 -47.6505 -47.6503 -47.5258 -47.4436 -47.4380 -47.4378 -47.2497
   -47.2495 -47.2268 -47.1961 -47.1517 -47.1516 -47.1085 -47.1085 -47.0546
   -47.0545 -47.0529 -46.8656 -46.8643 -46.8641 -46.8183 -46.7557 -46.7555
   -46.7080 -46.6955 -46.6954 -46.6830 -46.6541 -46.6371 -46.6371 -46.6319
   -46.6317 -46.6300 -46.5636 -46.5635  -8.9586  -7.0152  -5.1120  -4.7740
    -4.4667  -4.4666  -4.4654  -4.1790  -4.1640  -4.1640  -3.6700  -3.6699
    -3.6665  -3.3940  -3.3743  -3.3743  -1.9963  -1.9030  -1.9029  -1.3909
    -1.3513  -1.3513  -1.1614  -1.0095  -1.0095  -0.8569  -0.5501  -0.5500
    -0.5116  -0.5115  -0.5016  -0.2416  -0.2416  -0.1114  -0.1113   0.0797
     0.3689   1.1144   1.1144   1.3423   1.3839   1.3839   1.4415   1.4415
     1.4882   1.6386   1.6386   2.1770   2.1770   2.2599   2.8116   2.8707
     2.8707   2.8778   3.0608   3.0608   3.0955   3.0956   3.4028   3.4029
     3.4063   3.4241   3.7107   3.7107   3.8595   3.8958   3.8959

[...]

          k =-0.0912 0.0527 0.0000 ( 16164 PWs)   bands (ev):

[...]

     the Fermi energy is     2.4640 ev

!    total energy              =   -2224.16139725 Ry
     Harris-Foulkes estimate   =   -2224.16141538 Ry
     estimated scf accuracy    <       0.00000513 Ry

     The total energy is the sum of the following terms:

     one-electron contribution =  -18643.61649177 Ry
     hartree contribution      =    9354.06950894 Ry
     xc contribution           =    -632.10727528 Ry
     ewald contribution        =    7697.59028900 Ry
     electric field correction =       0.00008486 Ry
     smearing contrib. (-TS)   =      -0.09751299 Ry

     convergence has been achieved in  20 iterations

 BEEF-vdW xc energy contributions
           1 :   -559.570261551579
           2 :    520.150020222639
           3 :   -449.768539960758
           4 :    362.368818586918
           5 :   -273.190784069108
           6 :    194.869447661564
           7 :   -134.779664677921
           8 :    94.2251360431541
           9 :   -69.5180743415622
[...]

[...]

   This run was terminated on:  23: 2: 4  16Jan2018

[...]

     Program PWSCF v.5.1rc2 (svn rev. 11289) starts on 16Jan2018 at 23: 2:10

[...]

     Program PWSCF v.5.1rc2 (svn rev. 11289) starts on 16Jan2018 at 23:32:21

     Current dimensions of program PWSCF are:
     Max number of different atomic species (ntypx) = 10
     Max number of k-points (npk) =  40000
     Max angular momentum in pseudopotentials (lmaxx) =  3
     Presently stress not available with electric field

     IMPORTANT: XC functional enforced from input :
     Exchange-correlation      = BEEF-VDW ( 1  4 27 13 2)
     Any further DFT definition will be discarded
     Please, verify this is what you really want

     Subspace diagonalization in iterative solution of the eigenvalue problem:
     a serial algorithm will be used

     bravais-lattice index     =            0
     lattice parameter (alat)  =       1.8897  a.u.
     unit-cell volume          =    4299.0717 (a.u.)^3
     number of atoms/cell      =           13
     number of atomic types    =            2
     number of electrons       =       186.00
     number of Kohn-Sham states=          103
     kinetic-energy cutoff     =      36.7493  Ry
     charge density cutoff     =     367.4932  Ry
     convergence threshold     =      1.0E-05
     mixing beta               =       0.3000
     number of iterations used =           10  plain     mixing
     Exchange-correlation      = BEEF-VDW ( 1  4 27 13 2)
     nstep                     =           50

     celldm(1)=   1.889726  celldm(2)=   0.000000  celldm(3)=   0.000000
     celldm(4)=   0.000000  celldm(5)=   0.000000  celldm(6)=   0.000000

     crystal axes: (cart. coord. in units of alat)
               a(1) = (   5.482164   0.000000   0.000000 )
               a(2) = (   2.741082   4.747693   0.000000 )
               a(3) = (   0.000000   0.000000  24.476168 )

     reciprocal axes: (cart. coord. in units 2 pi/alat)
               b(1) = (  0.182410 -0.105314  0.000000 )
               b(2) = (  0.000000  0.210629  0.000000 )
               b(3) = (  0.000000  0.000000  0.040856 )

     PseudoPot. # 1 for Ir read from file:
     /afs/slac.stanford.edu/u/if/mamunm/psp/gbrv1.5pbe/Ir.UPF
     MD5 check sum: 8836f839c3459d2b385c504ce6d91f2c
     Pseudo is Ultrasoft + core correction, Zval = 15.0
     Generated by new atomic code, or converted to UPF format
     Using radial grid of  983 points,  7 beta functions with:
                l(1) =   0
                l(2) =   0
                l(3) =   1
                l(4) =   1
                l(5) =   1
                l(6) =   2
                l(7) =   2
     Q(r) pseudized with  8 coefficients,  rinner =    1.400   1.400   1.400
                                                       1.400   1.400

     PseudoPot. # 2 for S  read from file:
     /afs/slac.stanford.edu/u/if/mamunm/psp/gbrv1.5pbe/S.UPF
     MD5 check sum: 88d86576ff6df21479756cfb9bdac1df
     Pseudo is Ultrasoft + core correction, Zval =  6.0
     Generated by new atomic code, or converted to UPF format
     Using radial grid of  907 points,  6 beta functions with:
                l(1) =   0
                l(2) =   0
                l(3) =   1
                l(4) =   1
                l(5) =   2
                l(6) =   2
     Q(r) pseudized with  8 coefficients,  rinner =    1.300   1.300   1.300
                                                       1.300   1.300

     vdW kernel table read from file vdW_kernel_table
     MD5 check sum: 095c7af220d748ca6e76c0b4c6cfb241

     atomic species   valence    mass     pseudopotential
        Ir1           15.00   192.21700     Ir( 1.00)
        S1             6.00    32.06000     S ( 1.00)

     No symmetry found

   Cartesian axes

     site n.     atom                  positions (alat units)
         1           Ir1 tau(   1) = (   1.3705410   0.7912822  10.0000000  )
         2           Ir1 tau(   2) = (   4.1116229   0.7912822  10.0000000  )
         3           Ir1 tau(   3) = (   2.7410819   3.1651288  10.0000000  )
         4           Ir1 tau(   4) = (   5.4821639   3.1651288  10.0000000  )
         5           Ir1 tau(   5) = (   5.4821639   1.5825644  12.2380840  )
         6           Ir1 tau(   6) = (   2.7410819   1.5825644  12.2380840  )
         7           Ir1 tau(   7) = (   6.8527049   3.9564110  12.2380840  )
         8           Ir1 tau(   8) = (   4.1116229   3.9564110  12.2380840  )
         9           Ir1 tau(   9) = (   2.7411106   4.7474886  14.3695954  )
        10           Ir1 tau(  10) = (   5.4821364   4.7231561  14.4855380  )
        11           Ir1 tau(  11) = (   6.8315654   2.3861499  14.4856360  )
        12           Ir1 tau(  12) = (   4.1327423   2.3861932  14.4855965  )
        13           S1  tau(  13) = (   2.7410597   1.5825630  16.1577666  )

     number of k points=    20  Fermi-Dirac smearing, width (Ry)=  0.0110
                       cart. coord. in units 2pi/alat
        k(    1) = (   0.0000000   0.0000000   0.0000000), wk =   0.0555556
        k(    2) = (   0.0000000   0.0351048   0.0000000), wk =   0.1111111
        k(    3) = (   0.0000000   0.0702095   0.0000000), wk =   0.1111111
        k(    4) = (   0.0000000  -0.1053143   0.0000000), wk =   0.0555556
        k(    5) = (   0.0304016  -0.0175524   0.0000000), wk =   0.1111111
        k(    6) = (   0.0304016   0.0175524   0.0000000), wk =   0.1111111
        k(    7) = (   0.0304016   0.0526572   0.0000000), wk =   0.1111111
        k(    8) = (   0.0304016  -0.1228667   0.0000000), wk =   0.1111111
        k(    9) = (   0.0304016  -0.0877619   0.0000000), wk =   0.1111111
        k(   10) = (   0.0304016  -0.0526572   0.0000000), wk =   0.1111111
        k(   11) = (   0.0608032  -0.0351048   0.0000000), wk =   0.1111111
        k(   12) = (   0.0608032   0.0000000   0.0000000), wk =   0.1111111
        k(   13) = (   0.0608032   0.0351048   0.0000000), wk =   0.1111111
        k(   14) = (   0.0608032  -0.1404191   0.0000000), wk =   0.1111111
        k(   15) = (   0.0608032  -0.1053143   0.0000000), wk =   0.1111111
        k(   16) = (   0.0608032  -0.0702095   0.0000000), wk =   0.1111111
        k(   17) = (  -0.0912049   0.0526572   0.0000000), wk =   0.0555556
        k(   18) = (  -0.0912049   0.0877619   0.0000000), wk =   0.1111111
        k(   19) = (  -0.0912049   0.1228667   0.0000000), wk =   0.1111111
        k(   20) = (  -0.0912049  -0.0526572   0.0000000), wk =   0.0555556

     Largest allocated arrays     est. size (Mb)     dimensions
     Largest temporary arrays     est. size (Mb)     dimensions

     Initial potential from superposition of free atoms
     Check: negative starting charge=   -4.367435

     starting charge  179.99958, renormalised to  186.00000

[...]

     *
     * You are using vdW-DF for exchange-correlation in this calculation.
     * Please cite the following three references that made this development
     * possible:
     *
     *   M. Dion, H. Rydberg, E. Schroder, D. C. Langreth, and
     *   B. I. Lundqvist, Phys. Rev. Lett. 92, 246401 (2004).
     *
     *   T. Thonhauser, V. R. Cooper, S. Li, A. Puzder, P. Hyldgaard, and
     *   D. C. Langreth, Phys. Rev. B 76, 125112 (2007).
     *
     *   G. Roman-Perez and J. M. Soler, Phys. Rev. Lett. 103, 096102 (2009).
     *
     *
     * If you are using vdW-DF2, please also cite:
     *
     *   K. Lee, E. D. Murray, L. Kong, B. I. Lundqvist, and
     *   D. C. Langreth, Phys. Rev. B 82, 081101(R) (2010).
     *
     *
     * If you are calculating the stress with vdW-DF, please also cite:
     *
     *   R. Sabatini, E. Kucukbenli, B. Kolb, T. Thonhauser, and
     *   S. de Gironcoli, J. Phys.: Condens. Matter 24, 424209 (2012).
     *

     Carrying out vdW-DF run using the following parameters:

     Nqs =      20    Nr_points =    1024   r_max =   100.000
     q_mesh =
               0.00001000     0.04494208     0.09755937     0.15916263
               0.23128650     0.31572767     0.41458969     0.53033537
               0.66584808     0.82450364     1.01025438     1.22772762
               1.48234092     1.78043706     2.12944203     2.53805004
               3.01644009     3.57652955     4.23227104     5.00000000

     Gradients computed in reciprocal space

[...]

     Starting wfc are  148 randomized atomic wfcs

     Self-consistent Calculation

[...]

     iteration #  2     ecut=    36.75 Ry     beta=0.30
     Davidson diagonalization with overlap
     c_bands:  2 eigenvalues not converged
     c_bands:  2 eigenvalues not converged
     ethr =  1.00E-02,  avg # of iterations = 18.4

[...]

     total energy              =   -2224.31580146 Ry
     Harris-Foulkes estimate   =   -2224.31580187 Ry
     estimated scf accuracy    <       0.00001708 Ry

     iteration # 21     ecut=    36.75 Ry     beta=0.30
     Davidson diagonalization with overlap
     ethr =  9.18E-09,  avg # of iterations =  1.6

[...]

     negative rho (up, down):  3.878E+00 0.000E+00

     Adding external electric field

     Computed dipole along edir(3) :
        Dipole                0.0732 Ry au,          0.1860 Debye
        Dipole field          0.0002 Ry au

        Potential amp.       -0.0193 Ry
        Total length         45.0969 bohr

     End of self-consistent calculation

[...]

          k = 0.0608-0.0702 0.0000 ( 16191 PWs)   bands (ev):

[...]

          k =-0.0912-0.0527 0.0000 ( 16164 PWs)   bands (ev):

   -47.1969 -47.1336 -47.1269 -47.1043 -47.0663 -47.0404 -47.0030 -46.9821
   -46.9576 -46.9399 -46.9083 -46.8527 -46.8002 -46.7783 -46.7655 -46.7395
   -46.7292 -46.6232 -46.6030 -46.5917 -46.5450 -46.5141 -46.4904 -46.4497
   -46.4452 -46.4449 -46.4166 -46.4133 -46.3947 -46.3720 -46.2863 -46.2799
   -46.2665 -46.2663 -46.2569 -46.2487 -11.1439  -4.9820  -4.7935  -3.7580
    -3.4568  -3.2451  -3.0953  -3.0896  -3.0289  -2.9856  -2.9630  -2.6831
    -2.5275  -2.3426  -2.2367  -2.2221  -2.0878  -1.9414  -1.8999  -1.6761
    -1.5314  -1.5087  -1.3379  -1.2332  -1.0881  -1.0345  -0.8272  -0.7038
    -0.4868  -0.3576  -0.3465  -0.3367  -0.1567  -0.0607   0.0438   0.0665
     0.0695   0.1243   0.1770   0.1852   0.2574   0.4316   0.6535   0.9632
     0.9959   1.1142   1.1608   1.4135   1.4556   1.5667   1.6632   1.7577
     1.8051   1.9760   2.0763   2.2138   2.3704   2.3909   2.5338   2.8674
     2.8782   3.3809   3.5146   3.5283   3.6072   3.8742   4.1954

     the Fermi energy is     2.8341 ev

!    total energy              =   -2224.31579818 Ry
     Harris-Foulkes estimate   =   -2224.31580886 Ry
     estimated scf accuracy    <       0.00000384 Ry

     The total energy is the sum of the following terms:

     one-electron contribution =  -18970.65990914 Ry
     hartree contribution      =    9519.24965479 Ry
     xc contribution           =    -632.63012147 Ry
     ewald contribution        =    7859.81461479 Ry
     electric field correction =       0.00001566 Ry
     smearing contrib. (-TS)   =      -0.09005282 Ry

     convergence has been achieved in  21 iterations

 BEEF-vdW xc energy contributions
           1 :   -560.112654397044
           2 :    520.931944573848
           3 :   -450.856159108537
           4 :    363.618145520374
           5 :   -274.342112333832
           6 :    195.685952426130
           7 :   -135.157645495413
           8 :    94.2305890661495
           9 :   -69.3392078015792
          10 :    54.2013324386121
          11 :   -42.5190144408655
          12 :    30.0827257232786
          13 :   -15.6715327840079
          14 :   0.669030566373408
          15 :    12.2193997523796
          16 :   -20.5173943267580
          17 :    23.1616635563764
          18 :   -20.9193651260251
          19 :    15.9853879020303
          20 :   -11.0337714142472
          21 :    8.17065272309969
          22 :   -8.21951959654575
          23 :    10.5876817751598
          24 :   -13.7102710231600
          25 :    15.8346085803062
          26 :   -15.7948536481638
          27 :    13.4596960310729
          28 :   -9.70058273047516
          29 :    5.93774717299561
          30 :   -3.49231260997260
          31 :   -48.2237055677340
          32 :   -36.1547046849100

     Forces acting on atoms (Ry/au):

     negative rho (up, down):  3.878E+00 0.000E+00
     atom    1 type  1   force =     0.00349729    0.00202240    0.01429758
     atom    2 type  1   force =    -0.00349210    0.00202661    0.01427019
     atom    3 type  1   force =     0.00000832   -0.00403694    0.01426192
     atom    4 type  1   force =    -0.00000297    0.00000041    0.01807138
     atom    5 type  1   force =    -0.00000371    0.00632057   -0.01271182
     atom    6 type  1   force =     0.00000371   -0.00001309   -0.02739265
     atom    7 type  1   force =    -0.00548923   -0.00315933   -0.01273928
     atom    8 type  1   force =     0.00549475   -0.00316414   -0.01275523
     atom    9 type  1   force =    -0.00001422    0.00012662    0.00132623
     atom   10 type  1   force =     0.00001587    0.00123808    0.00056351
     atom   11 type  1   force =     0.00094115   -0.00064654    0.00051223
     atom   12 type  1   force =    -0.00098078   -0.00069481    0.00057055
     atom   13 type  2   force =     0.00002194   -0.00001986    0.00172537

     Total force =     0.048519     Total SCF correction =     0.017102
     SCF correction compared to forces is large: reduce conv_thr to get better values

     entering subroutine stress ...

     negative rho (up, down):  3.878E+00 0.000E+00
          total   stress  (Ry/bohr**3)                   (kbar)     P=  -23.00
  -0.00018506   0.00000000   0.00000000        -27.22      0.00      0.00
   0.00000000  -0.00018506  -0.00000003          0.00    -27.22     -0.00
   0.00000000  -0.00000003  -0.00009896          0.00     -0.00    -14.56

 !ASE

     Writing output data file calc.save

     General routines

     Parallel routines

   This run was terminated on:  23:47:13  16Jan2018

   JOB DONE.
Job  /afs/slac/g/suncat/bin/suncat-tsmpirun -x LD_LIBRARY_PATH -wdir /scratch/qe749821_admDr pw.x -in pw.inp

TID   HOST_NAME   COMMAND_LINE            STATUS            TERMINATION_TIME
00000 suncat0089 pw.x -in pw.inp   Done                     01/16/2018 23:47:13
00001 suncat0089 pw.x -in pw.inp   Done                     01/16/2018 23:47:13
00002 suncat0089 pw.x -in pw.inp   Done                     01/16/2018 23:47:13
00003 suncat0089 pw.x -in pw.inp   Done                     01/16/2018 23:47:13
00004 suncat0089 pw.x -in pw.inp   Done                     01/16/2018 23:47:13
00005 suncat0089 pw.x -in pw.inp   Done                     01/16/2018 23:47:13
00006 suncat0089 pw.x -in pw.inp   Done                     01/16/2018 23:47:13
00007 suncat0089 pw.x -in pw.inp   Done                     01/16/2018 23:47:13
00008 suncat0074 pw.x -in pw.inp   Done                     01/16/2018 23:47:13
00009 suncat0074 pw.x -in pw.inp   Done                     01/16/2018 23:47:13
00010 suncat0074 pw.x -in pw.inp   Done                     01/16/2018 23:47:13
00011 suncat0074 pw.x -in pw.inp   Done                     01/16/2018 23:47:13
00012 suncat0074 pw.x -in pw.inp   Done                     01/16/2018 23:47:13
00013 suncat0074 pw.x -in pw.inp   Done                     01/16/2018 23:47:13
00014 suncat0074 pw.x -in pw.inp   Done                     01/16/2018 23:47:13
00015 suncat0074 pw.x -in pw.inp   Done                     01/16/2018 23:47:13
00016 suncat0041 pw.x -in pw.inp   Done                     01/16/2018 23:47:13
00017 suncat0041 pw.x -in pw.inp   Done                     01/16/2018 23:47:13
00018 suncat0041 pw.x -in pw.inp   Done                     01/16/2018 23:47:13
00019 suncat0041 pw.x -in pw.inp   Done                     01/16/2018 23:47:13
00020 suncat0041 pw.x -in pw.inp   Done                     01/16/2018 23:47:13
00021 suncat0041 pw.x -in pw.inp   Done                     01/16/2018 23:47:13
00022 suncat0041 pw.x -in pw.inp   Done                     01/16/2018 23:47:13
00023 suncat0041 pw.x -in pw.inp   Done                     01/16/2018 23:47:13
00024 suncat0122 pw.x -in pw.inp   Done                     01/16/2018 23:47:13
00025 suncat0122 pw.x -in pw.inp   Done                     01/16/2018 23:47:13
00026 suncat0122 pw.x -in pw.inp   Done                     01/16/2018 23:47:13
00027 suncat0122 pw.x -in pw.inp   Done                     01/16/2018 23:47:13
00028 suncat0122 pw.x -in pw.inp   Done                     01/16/2018 23:47:13
00029 suncat0122 pw.x -in pw.inp   Done                     01/16/2018 23:47:13
00030 suncat0122 pw.x -in pw.inp   Done                     01/16/2018 23:47:13
00031 suncat0122 pw.x -in pw.inp   Done                     01/16/2018 23:47:13