     Program PWSCF v.5.1rc2 (svn rev. 11289) starts on 17Jan2018 at 18: 3:29

     Current dimensions of program PWSCF are:
     Max number of different atomic species (ntypx) = 10
     Max number of k-points (npk) =  40000
     Max angular momentum in pseudopotentials (lmaxx) =  3
     Presently stress not available with electric field

     IMPORTANT: XC functional enforced from input :
     Exchange-correlation      = BEEF-VDW ( 1  4 27 13 2)
     Any further DFT definition will be discarded
     Please, verify this is what you really want

     Subspace diagonalization in iterative solution of the eigenvalue problem:
     a serial algorithm will be used

     bravais-lattice index     =            0
     lattice parameter (alat)  =       1.8897  a.u.
     unit-cell volume          =    4228.3700 (a.u.)^3
     number of atoms/cell      =           13
     number of atomic types    =            2
     number of electrons       =       198.00
     number of Kohn-Sham states=          109
     kinetic-energy cutoff     =      36.7493  Ry
     charge density cutoff     =     367.4932  Ry
     convergence threshold     =      1.0E-05
     mixing beta               =       0.3000
     number of iterations used =           10  plain     mixing
     Exchange-correlation      = BEEF-VDW ( 1  4 27 13 2)
     nstep                     =           50

     celldm(1)=   1.889726  celldm(2)=   0.000000  celldm(3)=   0.000000
     celldm(4)=   0.000000  celldm(5)=   0.000000  celldm(6)=   0.000000

     crystal axes: (cart. coord. in units of alat)
               a(1) = (   5.440665   0.000000   0.000000 )
               a(2) = (   2.720332   4.711754   0.000000 )
               a(3) = (   0.000000   0.000000  24.442284 )

     reciprocal axes: (cart. coord. in units 2 pi/alat)
               b(1) = (  0.183801 -0.106118  0.000000 )
               b(2) = (  0.000000  0.212235  0.000000 )
               b(3) = (  0.000000  0.000000  0.040913 )

     PseudoPot. # 1 for Os read from file:
     /afs/slac.stanford.edu/u/if/mamunm/psp/gbrv1.5pbe/Os.UPF
     MD5 check sum: a3fb40a04f0c37c25c34bbc47164c9a8
     Pseudo is Ultrasoft + core correction, Zval = 16.0
     Generated by new atomic code, or converted to UPF format
     Using radial grid of  983 points,  8 beta functions with:
                l(1) =   0
                l(2) =   0
                l(3) =   1
                l(4) =   1
                l(5) =   2
                l(6) =   2
                l(7) =   3
                l(8) =   3
     Q(r) pseudized with  8 coefficients,  rinner =    1.150   1.150   1.150
                                                       1.150   1.150   1.150
                                                       1.150

     PseudoPot. # 2 for O  read from file:
     /afs/slac.stanford.edu/u/if/mamunm/psp/gbrv1.5pbe/O.UPF
     MD5 check sum: 734c27235a0248c51dbae37a1fbe46ec
     Pseudo is Ultrasoft + core correction, Zval =  6.0
     Generated by new atomic code, or converted to UPF format
     Using radial grid of  737 points,  5 beta functions with:
                l(1) =   0
                l(2) =   0
                l(3) =   1
                l(4) =   1
                l(5) =   2
     Q(r) pseudized with  8 coefficients,  rinner =    0.900   0.900   0.900
                                                       0.900   0.900

     vdW kernel table read from file vdW_kernel_table
     MD5 check sum: 095c7af220d748ca6e76c0b4c6cfb241

     atomic species   valence    mass     pseudopotential
        Os1           16.00   190.23000     Os( 1.00)
        O1             6.00    15.99900     O ( 1.00)

     No symmetry found

   Cartesian axes

     site n.     atom                  positions (alat units)
         1           Os1 tau(   1) = (   1.3601662   0.7852923  10.0000000  )
         2           Os1 tau(   2) = (   4.0804987   0.7852923  10.0000000  )
         3           Os1 tau(   3) = (   2.7203325   3.1411694  10.0000000  )
         4           Os1 tau(   4) = (   5.4406649   3.1411694  10.0000000  )
         5           Os1 tau(   5) = (   5.4406649   1.5705847  12.2211422  )
         6           Os1 tau(   6) = (   2.7203325   1.5705847  12.2211422  )
         7           Os1 tau(   7) = (   6.8008312   3.9264617  12.2211422  )
         8           Os1 tau(   8) = (   4.0804987   3.9264617  12.2211422  )
         9           Os1 tau(   9) = (   0.0000000   0.0000000  14.4422843  )
        10           Os1 tau(  10) = (   2.7203325   0.0000000  14.4422843  )
        11           Os1 tau(  11) = (   1.3601662   2.3558770  14.4422843  )
        12           Os1 tau(  12) = (   4.0804987   2.3558770  14.4422843  )
        13           O1  tau(  13) = (   2.7203325   1.5705847  16.5422843  )

     number of k points=    20  Fermi-Dirac smearing, width (Ry)=  0.0110
                       cart. coord. in units 2pi/alat
        k(    1) = (   0.0000000   0.0000000   0.0000000), wk =   0.0555556
        k(    2) = (   0.0000000   0.0353725   0.0000000), wk =   0.1111111
        k(    3) = (   0.0000000   0.0707451   0.0000000), wk =   0.1111111
        k(    4) = (   0.0000000  -0.1061176   0.0000000), wk =   0.0555556
        k(    5) = (   0.0306335  -0.0176863   0.0000000), wk =   0.1111111
        k(    6) = (   0.0306335   0.0176863   0.0000000), wk =   0.1111111
        k(    7) = (   0.0306335   0.0530588   0.0000000), wk =   0.1111111
        k(    8) = (   0.0306335  -0.1238039   0.0000000), wk =   0.1111111
        k(    9) = (   0.0306335  -0.0884313   0.0000000), wk =   0.1111111
        k(   10) = (   0.0306335  -0.0530588   0.0000000), wk =   0.1111111
        k(   11) = (   0.0612670  -0.0353725   0.0000000), wk =   0.1111111
        k(   12) = (   0.0612670   0.0000000   0.0000000), wk =   0.1111111
        k(   13) = (   0.0612670   0.0353725   0.0000000), wk =   0.1111111
        k(   14) = (   0.0612670  -0.1414901   0.0000000), wk =   0.1111111
        k(   15) = (   0.0612670  -0.1061176   0.0000000), wk =   0.1111111
        k(   16) = (   0.0612670  -0.0707451   0.0000000), wk =   0.1111111
        k(   17) = (  -0.0919005   0.0530588   0.0000000), wk =   0.0555556
        k(   18) = (  -0.0919005   0.0884313   0.0000000), wk =   0.1111111
        k(   19) = (  -0.0919005   0.1238039   0.0000000), wk =   0.1111111
        k(   20) = (  -0.0919005  -0.0530588   0.0000000), wk =   0.0555556

     Largest allocated arrays     est. size (Mb)     dimensions
     Largest temporary arrays     est. size (Mb)     dimensions

     Initial potential from superposition of free atoms
     Check: negative starting charge=   -1.495933

     starting charge  191.99956, renormalised to  198.00000

     negative rho (up, down):  1.543E+00 0.000E+00

     *
     * You are using vdW-DF for exchange-correlation in this calculation.
     * Please cite the following three references that made this development
     * possible:
     *
     *   M. Dion, H. Rydberg, E. Schroder, D. C. Langreth, and
     *   B. I. Lundqvist, Phys. Rev. Lett. 92, 246401 (2004).
     *
     *   T. Thonhauser, V. R. Cooper, S. Li, A. Puzder, P. Hyldgaard, and
     *   D. C. Langreth, Phys. Rev. B 76, 125112 (2007).
     *
     *   G. Roman-Perez and J. M. Soler, Phys. Rev. Lett. 103, 096102 (2009).
     *
     *
     * If you are using vdW-DF2, please also cite:
     *
     *   K. Lee, E. D. Murray, L. Kong, B. I. Lundqvist, and
     *   D. C. Langreth, Phys. Rev. B 82, 081101(R) (2010).
     *
     *
     * If you are calculating the stress with vdW-DF, please also cite:
     *
     *   R. Sabatini, E. Kucukbenli, B. Kolb, T. Thonhauser, and
     *   S. de Gironcoli, J. Phys.: Condens. Matter 24, 424209 (2012).
     *

     Carrying out vdW-DF run using the following parameters:

     Nqs =      20    Nr_points =    1024   r_max =   100.000
     q_mesh =
               0.00001000     0.04494208     0.09755937     0.15916263
               0.23128650     0.31572767     0.41458969     0.53033537
               0.66584808     0.82450364     1.01025438     1.22772762
               1.48234092     1.78043706     2.12944203     2.53805004
               3.01644009     3.57652955     4.23227104     5.00000000

     Gradients computed in reciprocal space

     Adding external electric field

     Computed dipole along edir(3) :
        Dipole               -1.5312 Ry au,         -3.8919 Debye
        Dipole field         -0.0046 Ry au

        Potential amp.        0.4099 Ry
        Total length         45.0345 bohr

     Starting wfc are  160 randomized atomic wfcs

     Self-consistent Calculation

     iteration #  1     ecut=    36.75 Ry     beta=0.30
     Davidson diagonalization with overlap
     ethr =  1.00E-02,  avg # of iterations =  2.0

[...]

     total energy              =   -2396.73902607 Ry
     Harris-Foulkes estimate   =   -2430.04449645 Ry
     estimated scf accuracy    <      68.62323504 Ry

[...]

     End of self-consistent calculation

          k = 0.0000 0.0000 0.0000 ( 15845 PWs)   bands (ev):

   -84.7591 -84.6901 -84.6569 -84.6558 -84.3554 -84.3086 -84.3074 -84.2135
   -84.1763 -84.1559 -84.1549 -84.1538 -44.4071 -44.4066 -44.3921 -44.2347
   -44.1487 -44.1030 -44.1023 -43.9214 -43.8741 -43.8736 -43.8133 -43.8129
   -43.7769 -43.7303 -43.7072 -43.7067 -43.6083 -43.6082 -43.5947 -43.5426
   -43.5415 -43.4488 -43.3786 -43.3776 -43.3764 -43.3754 -43.3559 -43.3531
   -43.3522 -43.2552 -43.2546 -43.2542 -43.1694 -43.1692 -43.0786 -43.0786
   -13.5969  -7.3110  -5.3085  -4.9027  -4.5672  -4.5671  -4.5628  -4.2416
    -4.2315  -4.2314  -3.6426  -3.6381  -3.6380  -3.3772  -3.3530  -3.3528
    -1.8578  -1.7948  -1.7945  -1.0747  -1.0097  -1.0096  -0.7532  -0.6049
    -0.5304  -0.5304  -0.0451  -0.0449  -0.0071  -0.0069   0.0222   0.1719
     0.1723   0.3255   0.3255   0.3799   0.5877   1.2158   1.2159   1.6951
     1.9732   1.9734   2.0555   2.1601   2.1603   2.3388   2.3454   2.3455
     3.0640   3.0640   3.2669   3.6578   3.8062   3.8062   3.8683   3.8686
     3.9782   4.0459   4.0461   4.2010   4.2011

[...]

          k =-0.0919 0.0531 0.0000 ( 15968 PWs)   bands (ev):

[...]

     the Fermi energy is     2.3538 ev

!    total energy              =   -2429.69660831 Ry
     Harris-Foulkes estimate   =   -2429.69656079 Ry
     estimated scf accuracy    <       0.00000549 Ry

     The total energy is the sum of the following terms:

     one-electron contribution =  -21876.84432253 Ry
     hartree contribution      =   10919.99766064 Ry
     xc contribution           =    -471.53118140 Ry
     ewald contribution        =    8998.75214221 Ry
     electric field correction =       0.00083332 Ry
     smearing contrib. (-TS)   =      -0.07174054 Ry

     convergence has been achieved in  21 iterations

 BEEF-vdW xc energy contributions
           1 :   -412.933181920496
           2 :    382.284606629065
           3 :   -328.338276765793
           4 :    262.989253182201
           5 :   -198.867516744194
           6 :    145.930972638406
           7 :   -109.315063017414
           8 :    88.8770805142917
           9 :   -80.3918594321004
          10 :    77.7858514727012
          11 :   -75.5074524526784
[...]

[...]

   This run was terminated on:  18:56: 2  17Jan2018

[...]

     Program PWSCF v.5.1rc2 (svn rev. 11289) starts on 17Jan2018 at 18:56: 8

[...]

   This run was terminated on:  19: 2:44  17Jan2018

[...]

   This run was terminated on:  19: 9:21  17Jan2018

[...]

     Program PWSCF v.5.1rc2 (svn rev. 11289) starts on 17Jan2018 at 19: 9:26

     Current dimensions of program PWSCF are:
     Max number of different atomic species (ntypx) = 10
     Max number of k-points (npk) =  40000
     Max angular momentum in pseudopotentials (lmaxx) =  3
     Presently stress not available with electric field

     IMPORTANT: XC functional enforced from input :
     Exchange-correlation      = BEEF-VDW ( 1  4 27 13 2)
     Any further DFT definition will be discarded
     Please, verify this is what you really want

     Subspace diagonalization in iterative solution of the eigenvalue problem:
     a serial algorithm will be used

     bravais-lattice index     =            0
     lattice parameter (alat)  =       1.8897  a.u.
     unit-cell volume          =    4228.3700 (a.u.)^3
     number of atoms/cell      =           13
     number of atomic types    =            2
     number of electrons       =       198.00
     number of Kohn-Sham states=          109
     kinetic-energy cutoff     =      36.7493  Ry
     charge density cutoff     =     367.4932  Ry
     convergence threshold     =      1.0E-05
     mixing beta               =       0.3000
     number of iterations used =           10  plain     mixing
     Exchange-correlation      = BEEF-VDW ( 1  4 27 13 2)
     nstep                     =           50

     celldm(1)=   1.889726  celldm(2)=   0.000000  celldm(3)=   0.000000
     celldm(4)=   0.000000  celldm(5)=   0.000000  celldm(6)=   0.000000

     crystal axes: (cart. coord. in units of alat)
               a(1) = (   5.440665   0.000000   0.000000 )
               a(2) = (   2.720332   4.711754   0.000000 )
               a(3) = (   0.000000   0.000000  24.442284 )

     reciprocal axes: (cart. coord. in units 2 pi/alat)
               b(1) = (  0.183801 -0.106118  0.000000 )
               b(2) = (  0.000000  0.212235  0.000000 )
               b(3) = (  0.000000  0.000000  0.040913 )

     PseudoPot. # 1 for Os read from file:
     /afs/slac.stanford.edu/u/if/mamunm/psp/gbrv1.5pbe/Os.UPF
     MD5 check sum: a3fb40a04f0c37c25c34bbc47164c9a8
     Pseudo is Ultrasoft + core correction, Zval = 16.0
     Generated by new atomic code, or converted to UPF format
     Using radial grid of  983 points,  8 beta functions with:
                l(1) =   0
                l(2) =   0
                l(3) =   1
                l(4) =   1
                l(5) =   2
                l(6) =   2
                l(7) =   3
                l(8) =   3
     Q(r) pseudized with  8 coefficients,  rinner =    1.150   1.150   1.150
                                                       1.150   1.150   1.150
                                                       1.150

     PseudoPot. # 2 for O  read from file:
     /afs/slac.stanford.edu/u/if/mamunm/psp/gbrv1.5pbe/O.UPF
     MD5 check sum: 734c27235a0248c51dbae37a1fbe46ec
     Pseudo is Ultrasoft + core correction, Zval =  6.0
     Generated by new atomic code, or converted to UPF format
     Using radial grid of  737 points,  5 beta functions with:
                l(1) =   0
                l(2) =   0
                l(3) =   1
                l(4) =   1
                l(5) =   2
     Q(r) pseudized with  8 coefficients,  rinner =    0.900   0.900   0.900
                                                       0.900   0.900

     vdW kernel table read from file vdW_kernel_table
     MD5 check sum: 095c7af220d748ca6e76c0b4c6cfb241

     atomic species   valence    mass     pseudopotential
        Os1           16.00   190.23000     Os( 1.00)
        O1             6.00    15.99900     O ( 1.00)

     No symmetry found

   Cartesian axes

     site n.     atom                  positions (alat units)
         1           Os1 tau(   1) = (   1.3601662   0.7852923  10.0000000  )
         2           Os1 tau(   2) = (   4.0804987   0.7852923  10.0000000  )
         3           Os1 tau(   3) = (   2.7203325   3.1411694  10.0000000  )
         4           Os1 tau(   4) = (   5.4406649   3.1411694  10.0000000  )
         5           Os1 tau(   5) = (   5.4406649   1.5705847  12.2211422  )
         6           Os1 tau(   6) = (   2.7203325   1.5705847  12.2211422  )
         7           Os1 tau(   7) = (   6.8008312   3.9264617  12.2211422  )
         8           Os1 tau(   8) = (   4.0804987   3.9264617  12.2211422  )
         9           Os1 tau(   9) = (   5.4406403   0.0001940  14.3242305  )
        10           Os1 tau(  10) = (   5.4407674   4.6183120  14.4062097  )
        11           Os1 tau(  11) = (   6.7197992   2.4025065  14.4056962  )
        12           Os1 tau(  12) = (   4.1614056   2.4023582  14.4060428  )
        13           O1  tau(  13) = (   2.7202880   1.5706850  15.6105878  )

     number of k points=    20  Fermi-Dirac smearing, width (Ry)=  0.0110
                       cart. coord. in units 2pi/alat
        k(    1) = (   0.0000000   0.0000000   0.0000000), wk =   0.0555556
        k(    2) = (   0.0000000   0.0353725   0.0000000), wk =   0.1111111
        k(    3) = (   0.0000000   0.0707451   0.0000000), wk =   0.1111111
        k(    4) = (   0.0000000  -0.1061176   0.0000000), wk =   0.0555556
        k(    5) = (   0.0306335  -0.0176863   0.0000000), wk =   0.1111111
        k(    6) = (   0.0306335   0.0176863   0.0000000), wk =   0.1111111
        k(    7) = (   0.0306335   0.0530588   0.0000000), wk =   0.1111111
        k(    8) = (   0.0306335  -0.1238039   0.0000000), wk =   0.1111111
        k(    9) = (   0.0306335  -0.0884313   0.0000000), wk =   0.1111111
        k(   10) = (   0.0306335  -0.0530588   0.0000000), wk =   0.1111111
        k(   11) = (   0.0612670  -0.0353725   0.0000000), wk =   0.1111111
        k(   12) = (   0.0612670   0.0000000   0.0000000), wk =   0.1111111
        k(   13) = (   0.0612670   0.0353725   0.0000000), wk =   0.1111111
        k(   14) = (   0.0612670  -0.1414901   0.0000000), wk =   0.1111111
        k(   15) = (   0.0612670  -0.1061176   0.0000000), wk =   0.1111111
        k(   16) = (   0.0612670  -0.0707451   0.0000000), wk =   0.1111111
        k(   17) = (  -0.0919005   0.0530588   0.0000000), wk =   0.0555556
        k(   18) = (  -0.0919005   0.0884313   0.0000000), wk =   0.1111111
        k(   19) = (  -0.0919005   0.1238039   0.0000000), wk =   0.1111111
        k(   20) = (  -0.0919005  -0.0530588   0.0000000), wk =   0.0555556

     Largest allocated arrays     est. size (Mb)     dimensions
     Largest temporary arrays     est. size (Mb)     dimensions

     Initial potential from superposition of free atoms
     Check: negative starting charge=   -1.487859

     starting charge  191.99956, renormalised to  198.00000

[...]

     *
     * You are using vdW-DF for exchange-correlation in this calculation.
     * Please cite the following three references that made this development
     * possible:
     *
     *   M. Dion, H. Rydberg, E. Schroder, D. C. Langreth, and
     *   B. I. Lundqvist, Phys. Rev. Lett. 92, 246401 (2004).
     *
     *   T. Thonhauser, V. R. Cooper, S. Li, A. Puzder, P. Hyldgaard, and
     *   D. C. Langreth, Phys. Rev. B 76, 125112 (2007).
     *
     *   G. Roman-Perez and J. M. Soler, Phys. Rev. Lett. 103, 096102 (2009).
     *
     *
     * If you are using vdW-DF2, please also cite:
     *
     *   K. Lee, E. D. Murray, L. Kong, B. I. Lundqvist, and
     *   D. C. Langreth, Phys. Rev. B 82, 081101(R) (2010).
     *
     *
     * If you are calculating the stress with vdW-DF, please also cite:
     *
     *   R. Sabatini, E. Kucukbenli, B. Kolb, T. Thonhauser, and
     *   S. de Gironcoli, J. Phys.: Condens. Matter 24, 424209 (2012).
     *

     Carrying out vdW-DF run using the following parameters:

     Nqs =      20    Nr_points =    1024   r_max =   100.000
     q_mesh =
               0.00001000     0.04494208     0.09755937     0.15916263
               0.23128650     0.31572767     0.41458969     0.53033537
               0.66584808     0.82450364     1.01025438     1.22772762
               1.48234092     1.78043706     2.12944203     2.53805004
               3.01644009     3.57652955     4.23227104     5.00000000

     Gradients computed in reciprocal space

[...]

     Starting wfc are  160 randomized atomic wfcs

     Self-consistent Calculation

[...]

     total energy              =   -2429.90763492 Ry
     Harris-Foulkes estimate   =   -2429.90764166 Ry
     estimated scf accuracy    <       0.00011002 Ry

     iteration # 21     ecut=    36.75 Ry     beta=0.30
     Davidson diagonalization with overlap
     ethr =  5.56E-08,  avg # of iterations =  1.9

[...]

     negative rho (up, down):  1.509E+00 0.000E+00

     Adding external electric field

     Computed dipole along edir(3) :
        Dipole               -0.0031 Ry au,         -0.0079 Debye
        Dipole field         -0.0000 Ry au

        Potential amp.        0.0008 Ry
        Total length         45.0345 bohr

     End of self-consistent calculation

[...]

          k = 0.0613-0.0707 0.0000 ( 15922 PWs)   bands (ev):

[...]

          k =-0.0919-0.0531 0.0000 ( 15968 PWs)   bands (ev):

   -84.0075 -83.9925 -83.9743 -83.9062 -83.8929 -83.8651 -83.8570 -83.4042
   -83.3960 -83.3748 -83.3580 -83.3563 -43.7622 -43.5863 -43.5438 -43.5375
   -43.4784 -43.4458 -43.3572 -43.3399 -43.3087 -43.3063 -43.2400 -43.1953
   -43.1642 -43.0969 -43.0766 -43.0096 -43.0079 -42.9667 -42.9538 -42.9055
   -42.8562 -42.8534 -42.8123 -42.6694 -42.6638 -42.6537 -42.6350 -42.6211
   -42.6031 -42.6003 -42.5950 -42.5664 -42.5548 -42.4967 -42.3830 -42.3772
   -16.6365  -5.0145  -4.6610  -3.8823  -3.3424  -3.2519  -3.1109  -2.8080
    -2.7793  -2.6657  -2.6480  -2.6051  -2.1542  -2.1300  -2.0088  -1.9256
    -1.6833  -1.5320  -1.5114  -1.2198  -1.0436  -0.9718  -0.9596  -0.8309
    -0.6735  -0.5710  -0.1239   0.0134   0.1282   0.1998   0.2777   0.3900
     0.5977   0.6734   0.7320   0.8020   0.8073   0.8785   0.9017   0.9858
     1.0325   1.3356   1.3447   1.8989   1.9237   2.0329   2.2403   2.4123
     2.4491   2.5572   2.6000   2.8001   3.0974   3.2067   3.3281   3.5215
     3.5291   3.7046   3.8581   4.0217   4.3485

     the Fermi energy is     3.1542 ev

!    total energy              =   -2429.90763604 Ry
     Harris-Foulkes estimate   =   -2429.90763909 Ry
     estimated scf accuracy    <       0.00000351 Ry

     The total energy is the sum of the following terms:

     one-electron contribution =  -22418.18518601 Ry
     hartree contribution      =   11194.17798681 Ry
     xc contribution           =    -472.19882342 Ry
     ewald contribution        =    9266.36238776 Ry
     electric field correction =       0.00000003 Ry
     smearing contrib. (-TS)   =      -0.06400122 Ry

     convergence has been achieved in  21 iterations

 BEEF-vdW xc energy contributions
           1 :   -413.624758858996
           2 :    383.223936664683
           3 :   -329.552831161652
           4 :    264.270303738744
           5 :   -199.906100536867
           6 :    146.476887576309
           7 :   -109.288200467156
           8 :    88.3964607998119
           9 :   -79.7194058808977
          10 :    77.2151995459523
          11 :   -75.2492685673058
          12 :    70.3027432299477
          13 :   -61.5731113935020
          14 :    50.4958142035861
          15 :   -39.5849874683215
          16 :    31.1351648221419
          17 :   -26.2898873497194
          18 :    24.7544573162804
          19 :   -25.1441274290756
          20 :    25.7119313363702
          21 :   -25.1025075694478
          22 :    22.8208792281390
          23 :   -19.2722062851141
          24 :    15.4212103895852
          25 :   -12.2756370252619
          26 :    10.4350738016278
          27 :   -9.88576052120311
          28 :    10.0931484415815
          29 :   -10.3135469391378
          30 :    9.95677332536093
          31 :   -39.2851255360213
          32 :   -29.9722858748610

     Forces acting on atoms (Ry/au):

     negative rho (up, down):  1.509E+00 0.000E+00
     atom    1 type  1   force =     0.00547771    0.00313373    0.03072344
     atom    2 type  1   force =    -0.00547796    0.00318892    0.03067362
     atom    3 type  1   force =     0.00009168   -0.00632237    0.03068680
     atom    4 type  1   force =    -0.00009538    0.00002398    0.01356962
     atom    5 type  1   force =    -0.00012208   -0.00976542   -0.01395035
     atom    6 type  1   force =     0.00005545   -0.00000807   -0.06013071
     atom    7 type  1   force =     0.00839957    0.00491505   -0.01404360
     atom    8 type  1   force =    -0.00838894    0.00479225   -0.01391764
     atom    9 type  1   force =     0.00005519   -0.00016572   -0.00123556
     atom   10 type  1   force =    -0.00006542   -0.00018022   -0.00081730
     atom   11 type  1   force =     0.00000593    0.00011074   -0.00069768
     atom   12 type  1   force =     0.00014051    0.00026333   -0.00068154
     atom   13 type  2   force =    -0.00007626    0.00001379   -0.00017910

     Total force =     0.087285     Total SCF correction =     0.011538
     SCF correction compared to forces is large: reduce conv_thr to get better values

     entering subroutine stress ...

     negative rho (up, down):  1.509E+00 0.000E+00
          total   stress  (Ry/bohr**3)                   (kbar)     P=  -17.29
  -0.00011068  -0.00000006   0.00000002        -16.28     -0.01      0.00
  -0.00000006  -0.00011071  -0.00000002         -0.01    -16.29     -0.00
   0.00000002  -0.00000002  -0.00013125          0.00     -0.00    -19.31

 !ASE

     Writing output data file calc.save

     General routines

     Parallel routines

   This run was terminated on:  19:15:57  17Jan2018

   JOB DONE.
Job  /afs/slac/g/suncat/bin/suncat-tsmpirun -x LD_LIBRARY_PATH -wdir /scratch/qe842464_xY79e pw.x -in pw.inp

TID   HOST_NAME   COMMAND_LINE            STATUS            TERMINATION_TIME
00000 suncat2041 pw.x -in pw.inp   Done                     01/17/2018 19:15:57
00001 suncat2041 pw.x -in pw.inp   Done                     01/17/2018 19:15:57
00002 suncat2041 pw.x -in pw.inp   Done                     01/17/2018 19:15:57
00003 suncat2041 pw.x -in pw.inp   Done                     01/17/2018 19:15:57
00004 suncat2041 pw.x -in pw.inp   Done                     01/17/2018 19:15:57
00005 suncat2041 pw.x -in pw.inp   Done                     01/17/2018 19:15:57
00006 suncat2041 pw.x -in pw.inp   Done                     01/17/2018 19:15:57
00007 suncat2041 pw.x -in pw.inp   Done                     01/17/2018 19:15:57
00008 suncat2041 pw.x -in pw.inp   Done                     01/17/2018 19:15:57
00009 suncat2041 pw.x -in pw.inp   Done                     01/17/2018 19:15:57
00010 suncat2041 pw.x -in pw.inp   Done                     01/17/2018 19:15:57
00011 suncat2041 pw.x -in pw.inp   Done                     01/17/2018 19:15:57
00012 suncat2041 pw.x -in pw.inp   Done                     01/17/2018 19:15:57
00013 suncat2041 pw.x -in pw.inp   Done                     01/17/2018 19:15:57
00014 suncat2041 pw.x -in pw.inp   Done                     01/17/2018 19:15:57
00015 suncat2041 pw.x -in pw.inp   Done                     01/17/2018 19:15:57
00016 suncat2040 pw.x -in pw.inp   Done                     01/17/2018 19:15:57
00017 suncat2040 pw.x -in pw.inp   Done                     01/17/2018 19:15:57
00018 suncat2040 pw.x -in pw.inp   Done                     01/17/2018 19:15:57
00019 suncat2040 pw.x -in pw.inp   Done                     01/17/2018 19:15:57
00020 suncat2040 pw.x -in pw.inp   Done                     01/17/2018 19:15:57
00021 suncat2040 pw.x -in pw.inp   Done                     01/17/2018 19:15:57
00022 suncat2040 pw.x -in pw.inp   Done                     01/17/2018 19:15:57
00023 suncat2040 pw.x -in pw.inp   Done                     01/17/2018 19:15:57
00024 suncat2040 pw.x -in pw.inp   Done                     01/17/2018 19:15:57
00025 suncat2040 pw.x -in pw.inp   Done                     01/17/2018 19:15:57
00026 suncat2040 pw.x -in pw.inp   Done                     01/17/2018 19:15:57
00027 suncat2040 pw.x -in pw.inp   Done                     01/17/2018 19:15:57
00028 suncat2040 pw.x -in pw.inp   Done                     01/17/2018 19:15:57
00029 suncat2040 pw.x -in pw.inp   Done                     01/17/2018 19:15:57
00030 suncat2040 pw.x -in pw.inp   Done                     01/17/2018 19:15:57
00031 suncat2040 pw.x -in pw.inp   Done                     01/17/2018 19:15:57