     Program PWSCF v.5.1rc2 (svn rev. 11289) starts on 16Apr2018 at 12:21:23

     Current dimensions of program PWSCF are:
     Max number of different atomic species (ntypx) = 10
     Max number of k-points (npk) =  40000
     Max angular momentum in pseudopotentials (lmaxx) =  3
     Presently stress not available with electric field

     IMPORTANT: XC functional enforced from input :
     Exchange-correlation      = BEEF-VDW ( 1  4 27 13 2)
     Any further DFT definition will be discarded
     Please, verify this is what you really want

     Subspace diagonalization in iterative solution of the eigenvalue problem:
     a serial algorithm will be used

     bravais-lattice index     =            0
     lattice parameter (alat)  =       1.8897  a.u.
     unit-cell volume          =    5144.9564 (a.u.)^3
     number of atoms/cell      =           16
     number of atomic types    =            3
     number of electrons       =       139.00
     number of Kohn-Sham states=           79
     kinetic-energy cutoff     =      36.7493  Ry
     charge density cutoff     =     367.4932  Ry
     convergence threshold     =      1.0E-05
     mixing beta               =       0.3000
     number of iterations used =           10  plain     mixing
     Exchange-correlation      = BEEF-VDW ( 1  4 27 13 2)
     nstep                     =           50

     celldm(1)=   1.889726  celldm(2)=   0.000000  celldm(3)=   0.000000
     celldm(4)=   0.000000  celldm(5)=   0.000000  celldm(6)=   0.000000

     crystal axes: (cart. coord. in units of alat)
               a(1) = (   5.950946   0.000000   0.000000 )
               a(2) = (   2.975473   5.153671   0.000000 )
               a(3) = (   0.000000   0.000000  24.858927 )

     reciprocal axes: (cart. coord. in units 2 pi/alat)
               b(1) = (  0.168040 -0.097018  0.000000 )
               b(2) = (  0.000000  0.194036  0.000000 )
               b(3) = (  0.000000  0.000000  0.040227 )

     PseudoPot. # 1 for Au read from file:
     /u/if/mamunm/psp/gbrv1.5pbe/Au.UPF
     MD5 check sum: 9d7f43293ad2c663164586bc4b293ffc
     Pseudo is Ultrasoft + core correction, Zval = 11.0
     Generated by new atomic code, or converted to UPF format
     Using radial grid of  985 points,  7 beta functions with:
                l(1) =   0
                l(2) =   0
                l(3) =   1
                l(4) =   1
                l(5) =   2
                l(6) =   2
                l(7) =   3
     Q(r) pseudized with  6 coefficients,  rinner =    1.900   1.900   1.900
                                                       1.900   1.900   1.900
                                                       1.900

     PseudoPot. # 2 for C  read from file:
     /u/if/mamunm/psp/gbrv1.5pbe/C.UPF
     MD5 check sum: d1aef80898a10debaa0f26306b886e00
     Pseudo is Ultrasoft + core correction, Zval =  4.0
     Generated by new atomic code, or converted to UPF format
     Using radial grid of  721 points,  4 beta functions with:
                l(1) =   0
                l(2) =   0
                l(3) =   1
                l(4) =   1
     Q(r) pseudized with  8 coefficients,  rinner =    1.100   1.100   1.100

     PseudoPot. # 3 for H  read from file:
     /u/if/mamunm/psp/gbrv1.5pbe/H.UPF
     MD5 check sum: 761ae9a214b05c3daf00ab9f6b793d6f
     Pseudo is Ultrasoft, Zval =  1.0
     Generated by new atomic code, or converted to UPF format
     Using radial grid of  615 points,  2 beta functions with:
                l(1) =   0
                l(2) =   0
     Q(r) pseudized with  8 coefficients,  rinner =    0.700

     vdW kernel table read from file vdW_kernel_table
     MD5 check sum: 095c7af220d748ca6e76c0b4c6cfb241

     atomic species   valence    mass     pseudopotential
        Au1           11.00   196.96657     Au( 1.00)
        C1             4.00    12.01100     C ( 1.00)
        H1             1.00     1.00800     H ( 1.00)

     No symmetry found

   Cartesian axes

     site n.     atom                  positions (alat units)
         1           Au1 tau(   1) = (   1.4877366   0.8589451  10.0000000  )
         2           Au1 tau(   2) = (   4.4632098   0.8589451  10.0000000  )
         3           Au1 tau(   3) = (   2.9754732   3.4357805  10.0000000  )
         4           Au1 tau(   4) = (   5.9509464   3.4357805  10.0000000  )
         5           Au1 tau(   5) = (   5.9509464   1.7178903  12.4294637  )
         6           Au1 tau(   6) = (   2.9754732   1.7178903  12.4294637  )
         7           Au1 tau(   7) = (   7.4386830   4.2947256  12.4294637  )
         8           Au1 tau(   8) = (   4.4632098   4.2947256  12.4294637  )
         9           Au1 tau(   9) = (   0.0000000   0.0000000  14.8589274  )
        10           Au1 tau(  10) = (   2.9754732   0.0000000  14.8589274  )
        11           Au1 tau(  11) = (   1.4877366   2.5768354  14.8589274  )
        12           Au1 tau(  12) = (   4.4632098   2.5768354  14.8589274  )
        13           C1  tau(  13) = (   0.0000000   0.0000000  16.6609274  )
        14           H1  tau(  14) = (   1.0900000   0.0000000  17.2909274  )
        15           H1  tau(  15) = (   5.5009464   0.8895000  17.2909274  )
        16           H1  tau(  16) = (   2.5254732   4.2641708  17.2909274  )

     number of k points=    20  Fermi-Dirac smearing, width (Ry)=  0.0110
                       cart. coord. in units 2pi/alat
        k(    1) = (   0.0000000   0.0000000   0.0000000), wk =   0.0555556
        k(    2) = (   0.0000000   0.0323394   0.0000000), wk =   0.1111111
        k(    3) = (   0.0000000   0.0646788   0.0000000), wk =   0.1111111
        k(    4) = (   0.0000000  -0.0970182   0.0000000), wk =   0.0555556
        k(    5) = (   0.0280067  -0.0161697   0.0000000), wk =   0.1111111
        k(    6) = (   0.0280067   0.0161697   0.0000000), wk =   0.1111111
        k(    7) = (   0.0280067   0.0485091   0.0000000), wk =   0.1111111
        k(    8) = (   0.0280067  -0.1131879   0.0000000), wk =   0.1111111
        k(    9) = (   0.0280067  -0.0808485   0.0000000), wk =   0.1111111
        k(   10) = (   0.0280067  -0.0485091   0.0000000), wk =   0.1111111
        k(   11) = (   0.0560135  -0.0323394   0.0000000), wk =   0.1111111
        k(   12) = (   0.0560135   0.0000000   0.0000000), wk =   0.1111111
        k(   13) = (   0.0560135   0.0323394   0.0000000), wk =   0.1111111
        k(   14) = (   0.0560135  -0.1293576   0.0000000), wk =   0.1111111
        k(   15) = (   0.0560135  -0.0970182   0.0000000), wk =   0.1111111
        k(   16) = (   0.0560135  -0.0646788   0.0000000), wk =   0.1111111
        k(   17) = (  -0.0840202   0.0485091   0.0000000), wk =   0.0555556
        k(   18) = (  -0.0840202   0.0808485   0.0000000), wk =   0.1111111
        k(   19) = (  -0.0840202   0.1131879   0.0000000), wk =   0.1111111
        k(   20) = (  -0.0840202  -0.0485091   0.0000000), wk =   0.0555556

     Largest allocated arrays     est. size (Mb)     dimensions
     Largest temporary arrays     est. size (Mb)     dimensions

     Check: negative/imaginary core charge=   -0.000002    0.000000

     Initial potential from superposition of free atoms
     Check: negative starting charge=   -0.000105

     starting charge  138.99847, renormalised to  139.00000

     negative rho (up, down):  1.053E-04 0.000E+00

     *
     * You are using vdW-DF for exchange-correlation in this calculation.
     * Please cite the following three references that made this development
     * possible:
     *
     *   M. Dion, H. Rydberg, E. Schroder, D. C. Langreth, and
     *   B. I. Lundqvist, Phys. Rev. Lett. 92, 246401 (2004).
     *
     *   T. Thonhauser, V. R. Cooper, S. Li, A. Puzder, P. Hyldgaard, and
     *   D. C. Langreth, Phys. Rev. B 76, 125112 (2007).
     *
     *   G. Roman-Perez and J. M. Soler, Phys. Rev. Lett. 103, 096102 (2009).
     *
     *
     * If you are using vdW-DF2, please also cite:
     *
     *   K. Lee, E. D. Murray, L. Kong, B. I. Lundqvist, and
     *   D. C. Langreth, Phys. Rev. B 82, 081101(R) (2010).
     *
     *
     * If you are calculating the stress with vdW-DF, please also cite:
     *
     *   R. Sabatini, E. Kucukbenli, B. Kolb, T. Thonhauser, and
     *   S. de Gironcoli, J. Phys.: Condens. Matter 24, 424209 (2012).
     *

     Carrying out vdW-DF run using the following parameters:

     Nqs =      20    Nr_points =    1024   r_max =   100.000
     q_mesh =
               0.00001000     0.04494208     0.09755937     0.15916263
               0.23128650     0.31572767     0.41458969     0.53033537
               0.66584808     0.82450364     1.01025438     1.22772762
               1.48234092     1.78043706     2.12944203     2.53805004
               3.01644009     3.57652955     4.23227104     5.00000000

     Gradients computed in reciprocal space

     Adding external electric field

     Computed dipole along edir(3) :
        Dipole               -0.0001 Ry au,         -0.0002 Debye
        Dipole field         -0.0000 Ry au

        Potential amp.        0.0000 Ry
        Total length         45.8022 bohr

     Starting wfc are  115 randomized atomic wfcs

     Self-consistent Calculation

     iteration #  1     ecut=    36.75 Ry     beta=0.30
     Davidson diagonalization with overlap
     ethr =  1.00E-02,  avg # of iterations =  2.5

     Threshold (ethr) on eigenvalues was too large:
     Diagonalizing with lowered threshold

     Davidson diagonalization with overlap
     ethr =  7.65E-04,  avg # of iterations =  1.5

[...]

     total energy              =   -1415.40135784 Ry
     Harris-Foulkes estimate   =   -1415.85184858 Ry
     estimated scf accuracy    <       1.14019673 Ry

[...]

     End of self-consistent calculation

          k = 0.0000 0.0000 0.0000 ( 19315 PWs)   bands (ev):

   -11.9044  -7.5395  -6.5226  -6.0891  -5.8242  -5.7411  -5.7073  -5.4065
    -5.4003  -5.3781  -5.3315  -5.3076  -5.2556  -4.9351  -4.9293  -4.8899
    -4.8395  -4.7765  -4.7243  -3.8578  -3.7752  -3.7743  -3.6906  -3.6289
    -3.6289  -3.5838  -3.5241  -3.5128  -3.4316  -3.4092  -3.2945  -3.2826
    -3.2334  -3.2327  -3.1657  -3.0765  -2.6975  -2.6946  -2.5152  -2.4661
    -2.3661  -2.3630  -2.2936  -2.1910  -2.0119  -2.0028  -1.9533  -1.9311
    -1.8730  -1.6813  -1.6775  -1.6076  -1.5383  -1.5373  -1.5110  -1.5083
    -1.4186  -1.4171  -1.3846  -1.3248  -1.3243  -1.1225  -1.0782  -1.0780
    -1.0732  -1.0539   0.5977   1.0920   1.1578   1.1659   1.6645   1.8030
     1.8667   1.8752   2.1022   2.1959   2.2029   3.6821   3.6982

[...]

          k =-0.0840 0.0485 0.0000 ( 19380 PWs)   bands (ev):

[...]

     the Fermi energy is     0.5654 ev

!    total energy              =   -1415.57094714 Ry
     Harris-Foulkes estimate   =   -1415.57094979 Ry
     estimated scf accuracy    <       0.00000057 Ry

     The total energy is the sum of the following terms:

     one-electron contribution =   -8273.53079759 Ry
     hartree contribution      =    4236.44098809 Ry
     xc contribution           =    -774.11251315 Ry
     ewald contribution        =    3395.65614701 Ry
     electric field correction =       0.00008031 Ry
     smearing contrib. (-TS)   =      -0.02485180 Ry

     convergence has been achieved in  11 iterations

 BEEF-vdW xc energy contributions
           1 :   -691.689075032739
           2 :    642.748207607898
           3 :   -555.362755284541
           4 :    446.578023447931
           5 :   -334.654465765205
           6 :    234.420214491370
           7 :   -154.532684555074
           8 :    97.0562519020364
           9 :   -59.0626779990696
          10 :    35.2700416589144
          11 :   -20.5412938867560
          12 :    11.3247164943623
          13 :   -5.80213845189940
          14 :    3.13599358897272
          15 :   -2.53635886577058
          16 :    2.74749431949886
          17 :   -2.19626622576266
          18 :  -0.388951735940054
          19 :    5.32370321393228
          20 :   -11.7130192126481
          21 :    17.7820668395569
          22 :   -21.6581996906949
          23 :    22.2102412958280
          24 :   -19.5313569895970
          25 :    14.8407912776772
          26 :   -9.88605339351147
          27 :    6.16384820673625
          28 :   -4.35074414129531
          29 :    4.19043053515009
          30 :   -4.83849251964693
          31 :   -54.9050829818507
          32 :   -39.9926567548289

     Forces acting on atoms (Ry/au):

     negative rho (up, down):  2.607E-04 0.000E+00
     atom    1 type  1   force =    -0.00167518   -0.00096647   -0.00389692
     atom    2 type  1   force =     0.00168783   -0.00096115   -0.00391109
     atom    3 type  1   force =    -0.00002523    0.00194044   -0.00384114
     atom    4 type  1   force =     0.00001612   -0.00001050   -0.00247708
     atom    5 type  1   force =     0.00014072   -0.00362292   -0.00172488
     atom    6 type  1   force =    -0.00004119   -0.00006170    0.00123223
     atom    7 type  1   force =     0.00299629    0.00189915   -0.00171544
     atom    8 type  1   force =    -0.00314121    0.00172707   -0.00170466
     atom    9 type  1   force =    -0.00092229    0.00006495   -0.22860157
     atom   10 type  1   force =     0.00056384    0.00117668   -0.00655088
     atom   11 type  1   force =     0.00084382   -0.00065989   -0.00685366
     atom   12 type  1   force =    -0.00114018   -0.00050304   -0.00684639
     atom   13 type  2   force =     0.05067217   -0.00002215    0.47562185
     atom   14 type  3   force =    -0.08171179   -0.00001679   -0.07995275
     atom   15 type  3   force =     0.01588402   -0.04525726   -0.06438469
     atom   16 type  3   force =     0.01585227    0.04527359   -0.06439293

     Total force =     0.554209     Total SCF correction =     0.001013

     entering subroutine stress ...

     negative rho (up, down):  2.607E-04 0.000E+00
          total   stress  (Ry/bohr**3)                   (kbar)     P=   -3.77
  -0.00012094   0.00000002  -0.00001107        -17.79      0.00     -1.63
   0.00000002  -0.00011188   0.00000002          0.00    -16.46      0.00
  -0.00001107   0.00000002   0.00015598         -1.63      0.00     22.95

     BFGS Geometry Optimization

     number of scf cycles    =   1
     number of bfgs steps    =   0

     energy   new            =   -1415.5709471374 Ry

     new trust radius        =       0.4783135044 bohr
     new conv_thr            =       0.0000099958 Ry

ATOMIC_POSITIONS (crystal)
Au1      0.166666667   0.166666667   0.402269971    0   0   0
Au1      0.666666667   0.166666667   0.402269971    0   0   0
Au1      0.166666667   0.666666667   0.402269971    0   0   0
Au1      0.666666667   0.666666667   0.402269971    0   0   0
Au1      0.833333333   0.333333333   0.500000000    0   0   0
Au1      0.333333333   0.333333333   0.500000000    0   0   0
Au1      0.833333333   0.833333333   0.500000000    0   0   0
Au1      0.333333333   0.833333333   0.500000000    0   0   0
Au1     -0.000085348   0.000006669   0.592863739
Au1      0.499989728   0.000120821   0.597590579
Au1      0.000108913   0.499932243   0.597584134
Au1      0.499924438   0.499948348   0.597584289
C1       0.004507069  -0.000002275   0.680343740
H1       0.175898931  -0.000001724   0.693860115
H1       0.841820021   0.167948425   0.694191516
H1       0.009764785   0.832053252   0.694191340

     Writing output data file calc.save
     Check: negative starting charge=   -0.000105
     NEW-OLD atomic charge density approx. for the potential

     Check: negative/imaginary core charge=   -0.000002    0.000000
     Check: negative starting charge=   -0.000104

[...]

     energy   old            =   -1415.5709471374 Ry
     energy   new            =   -1415.6832127042 Ry

     CASE: energy  _new < energy  _old

[...]

     Threshold (ethr) on eigenvalues was too large:
     Diagonalizing with lowered threshold

     Davidson diagonalization with overlap
     ethr =  9.20E-08,  avg # of iterations =  1.0

[...]

     Total force =     0.004233     Total SCF correction =     0.000357

[...]

     number of scf cycles    =  18
     number of bfgs steps    =  17

     energy   old            =   -1415.7013365660 Ry
     energy   new            =   -1415.7014504452 Ry

     CASE: energy  _new < energy  _old

     new trust radius        =       0.0261539221 bohr
     new conv_thr            =       0.0000001000 Ry

ATOMIC_POSITIONS (crystal)
Au1      0.166666667   0.166666667   0.402269971    0   0   0
Au1      0.666666667   0.166666667   0.402269971    0   0   0
Au1      0.166666667   0.666666667   0.402269971    0   0   0
Au1      0.666666667   0.666666667   0.402269971    0   0   0
Au1      0.833333333   0.333333333   0.500000000    0   0   0
Au1      0.333333333   0.333333333   0.500000000    0   0   0
Au1      0.833333333   0.833333333   0.500000000    0   0   0
Au1      0.333333333   0.833333333   0.500000000    0   0   0
Au1      0.001384642   0.000007040   0.605945690
Au1      0.501876556   0.000211448   0.596992769
Au1      0.000898053   0.499271610   0.597013518
Au1      0.500000777   0.500568484   0.596997182
C1       0.005822008  -0.000008444   0.691857577
H1       0.180966239  -0.000039942   0.704355306
H1       0.831993550   0.174569905   0.705090376
H1       0.006491965   0.825461365   0.705090846

     Writing output data file calc.save
     Check: negative starting charge=   -0.000103
     NEW-OLD atomic charge density approx. for the potential

     Check: negative/imaginary core charge=   -0.000002    0.000000
     Check: negative starting charge=   -0.000104

[...]

     Self-consistent Calculation

[...]

     total energy              =   -1415.70148919 Ry
     Harris-Foulkes estimate   =   -1415.70148894 Ry
     estimated scf accuracy    <       0.00000018 Ry

     iteration #  8     ecut=    36.75 Ry     beta=0.30
     Davidson diagonalization with overlap
     ethr =  1.28E-10,  avg # of iterations =  2.1

[...]

     negative rho (up, down):  2.522E-04 0.000E+00

     Adding external electric field

     Computed dipole along edir(3) :
        Dipole                0.1969 Ry au,          0.5006 Debye
        Dipole field          0.0005 Ry au

        Potential amp.       -0.0441 Ry
        Total length         45.8022 bohr

     End of self-consistent calculation

[...]

          k = 0.0560-0.0647 0.0000 ( 19376 PWs)   bands (ev):

[...]

          k =-0.0840-0.0485 0.0000 ( 19380 PWs)   bands (ev):

   -11.9398  -6.0405  -5.9940  -5.2983  -5.2784  -4.9803  -4.9540  -4.8197
    -4.7717  -4.7462  -4.7358  -4.7143  -4.6515  -4.4395  -4.3777  -4.3471
    -4.2302  -4.1088  -4.0817  -4.0316  -3.9147  -3.9038  -3.8932  -3.7645
    -3.7244  -3.7043  -3.5134  -3.4026  -3.3654  -3.2862  -3.2146  -3.1607
    -3.1392  -3.1018  -3.0971  -3.0777  -3.0717  -2.9642  -2.9598  -2.9529
    -2.9040  -2.8589  -2.8265  -2.7075  -2.7052  -2.6733  -2.5554  -2.4813
    -2.4381  -2.4042  -2.3502  -2.3055  -2.2737  -2.2006  -2.1863  -2.1266
    -2.0769  -1.9411  -1.9000  -1.7967  -1.5631  -1.5529  -1.4908  -1.4880
    -1.4499  -1.3400  -1.2662  -0.1337   0.5167   0.5674   0.5829   1.3193
     1.6456   2.1498   3.4655   3.6267   3.8790   4.6455   5.2465

     the Fermi energy is     0.5627 ev

!    total energy              =   -1415.70148921 Ry
     Harris-Foulkes estimate   =   -1415.70148938 Ry
     estimated scf accuracy    <       0.00000002 Ry

     The total energy is the sum of the following terms:

     one-electron contribution =   -8133.63112749 Ry
     hartree contribution      =    4166.74143469 Ry
     xc contribution           =    -774.10721466 Ry
     ewald contribution        =    3325.32155039 Ry
     electric field correction =       0.00009473 Ry
     smearing contrib. (-TS)   =      -0.02622686 Ry

     convergence has been achieved in   8 iterations

 BEEF-vdW xc energy contributions
           1 :   -691.647442664071
           2 :    642.568682005006
           3 :   -555.023522888961
           4 :    446.166119443259
           5 :   -334.293916122288
           6 :    234.213896001093
           7 :   -154.523364808205
           8 :    97.2067458198528
           9 :   -59.2692457091587
          10 :    35.4106191971972
          11 :   -20.5375945386565
          12 :    11.1818810990592
          13 :   -5.60062091539703
          14 :    2.98136575731974
          15 :   -2.49920559006432
          16 :    2.82836399603468
          17 :   -2.33254337748053
          18 :  -0.281172231125538
          19 :    5.29816428076197
          20 :   -11.7645530858990
          21 :    17.8575140785247
          22 :   -21.6970568168249
          23 :    22.1876185715411
          24 :   -19.4760846014808
          25 :    14.8174080796523
          26 :   -9.95221034267854
          27 :    6.33070058243675
          28 :   -4.57115048141873
          29 :    4.38247111048031
          30 :   -4.93029492098731
          31 :   -54.9006012991106
          32 :   -39.9564515339978

     Forces acting on atoms (Ry/au):

     negative rho (up, down):  2.522E-04 0.000E+00
     atom    1 type  1   force =    -0.00144019   -0.00084904   -0.00364475
     atom    2 type  1   force =     0.00141485   -0.00079866   -0.00368168
     atom    3 type  1   force =     0.00000014    0.00164818   -0.00366103
     atom    4 type  1   force =    -0.00003210   -0.00000055   -0.00267116
     atom    5 type  1   force =     0.00002847   -0.00784300    0.00484662
     atom    6 type  1   force =     0.00002835    0.00001130   -0.00033453
     atom    7 type  1   force =     0.00694608    0.00381946    0.00483124
     atom    8 type  1   force =    -0.00664816    0.00400793    0.00483664
     atom    9 type  1   force =     0.00001051   -0.00000394   -0.00055488
     atom   10 type  1   force =     0.00002056    0.00020686   -0.00029388
     atom   11 type  1   force =     0.00025201    0.00008922   -0.00028416
     atom   12 type  1   force =    -0.00012929   -0.00029136   -0.00026787
     atom   13 type  2   force =    -0.00023165    0.00005475    0.00066578
     atom   14 type  3   force =     0.00015012    0.00000031    0.00020745
     atom   15 type  3   force =    -0.00017685    0.00011921   -0.00000303
     atom   16 type  3   force =    -0.00019284   -0.00017068    0.00000923

     Total force =     0.001200     Total SCF correction =     0.000202
     SCF correction compared to forces is large: reduce conv_thr to get better values

     entering subroutine stress ...

     negative rho (up, down):  2.522E-04 0.000E+00
          total   stress  (Ry/bohr**3)                   (kbar)     P=   -9.75
  -0.00010471  -0.00000011  -0.00000070        -15.40     -0.02     -0.10
  -0.00000011  -0.00010476  -0.00000000         -0.02    -15.41     -0.00
  -0.00000070  -0.00000000   0.00001069         -0.10     -0.00      1.57

     bfgs converged in  19 scf cycles and  18 bfgs steps
     (criteria: energy <  1.0E+00, force <  1.9E-03)

     End of BFGS Geometry Optimization

     Final energy   =   -1415.7014892115 Ry
Begin final coordinates

ATOMIC_POSITIONS (crystal)
Au1      0.166666667   0.166666667   0.402269971    0   0   0
Au1      0.666666667   0.166666667   0.402269971    0   0   0
Au1      0.166666667   0.666666667   0.402269971    0   0   0
Au1      0.666666667   0.666666667   0.402269971    0   0   0
Au1      0.833333333   0.333333333   0.500000000    0   0   0
Au1      0.333333333   0.333333333   0.500000000    0   0   0
Au1      0.833333333   0.833333333   0.500000000    0   0   0
Au1      0.333333333   0.833333333   0.500000000    0   0   0
Au1      0.001384642   0.000007040   0.605945690
Au1      0.501876556   0.000211448   0.596992769
Au1      0.000898053   0.499271610   0.597013518
Au1      0.500000777   0.500568484   0.596997182
C1       0.005822008  -0.000008444   0.691857577
H1       0.180966239  -0.000039942   0.704355306
H1       0.831993550   0.174569905   0.705090376
H1       0.006491965   0.825461365   0.705090846
End final coordinates

     Writing output data file calc.save

     General routines

     Parallel routines

   This run was terminated on:  14:29:17  16Apr2018

   JOB DONE.
Job  /afs/slac/g/suncat/bin/suncat-tsmpirun -x LD_LIBRARY_PATH -wdir /scratch/qe126853_wTNIf pw.x -npool 4 -in pw.inp

TID   HOST_NAME   COMMAND_LINE            STATUS            TERMINATION_TIME
00000 suncat0040 pw.x -npool 4 -i  Done                     04/16/2018 14:29:17
00001 suncat0040 pw.x -npool 4 -i  Done                     04/16/2018 14:29:17
00002 suncat0040 pw.x -npool 4 -i  Done                     04/16/2018 14:29:17
00003 suncat0040 pw.x -npool 4 -i  Done                     04/16/2018 14:29:17
00004 suncat0040 pw.x -npool 4 -i  Done                     04/16/2018 14:29:17
00005 suncat0040 pw.x -npool 4 -i  Done                     04/16/2018 14:29:17
00006 suncat0040 pw.x -npool 4 -i  Done                     04/16/2018 14:29:17
00007 suncat0040 pw.x -npool 4 -i  Done                     04/16/2018 14:29:17
00008 suncat0033 pw.x -npool 4 -i  Done                     04/16/2018 14:29:17
00009 suncat0033 pw.x -npool 4 -i  Done                     04/16/2018 14:29:17
00010 suncat0033 pw.x -npool 4 -i  Done                     04/16/2018 14:29:17
00011 suncat0033 pw.x -npool 4 -i  Done                     04/16/2018 14:29:17
00012 suncat0033 pw.x -npool 4 -i  Done                     04/16/2018 14:29:17
00013 suncat0033 pw.x -npool 4 -i  Done                     04/16/2018 14:29:17
00014 suncat0033 pw.x -npool 4 -i  Done                     04/16/2018 14:29:17
00015 suncat0033 pw.x -npool 4 -i  Done                     04/16/2018 14:29:17
00016 suncat0147 pw.x -npool 4 -i  Done                     04/16/2018 14:29:17
00017 suncat0147 pw.x -npool 4 -i  Done                     04/16/2018 14:29:17
00018 suncat0147 pw.x -npool 4 -i  Done                     04/16/2018 14:29:17
00019 suncat0147 pw.x -npool 4 -i  Done                     04/16/2018 14:29:17
00020 suncat0147 pw.x -npool 4 -i  Done                     04/16/2018 14:29:17
00021 suncat0147 pw.x -npool 4 -i  Done                     04/16/2018 14:29:17
00022 suncat0147 pw.x -npool 4 -i  Done                     04/16/2018 14:29:17
00023 suncat0147 pw.x -npool 4 -i  Done                     04/16/2018 14:29:17
00024 suncat0146 pw.x -npool 4 -i  Done                     04/16/2018 14:29:17
00025 suncat0146 pw.x -npool 4 -i  Done                     04/16/2018 14:29:17
00026 suncat0146 pw.x -npool 4 -i  Done                     04/16/2018 14:29:17
00027 suncat0146 pw.x -npool 4 -i  Done                     04/16/2018 14:29:17
00028 suncat0146 pw.x -npool 4 -i  Done                     04/16/2018 14:29:17
00029 suncat0146 pw.x -npool 4 -i  Done                     04/16/2018 14:29:17
00030 suncat0146 pw.x -npool 4 -i  Done                     04/16/2018 14:29:17
00031 suncat0146 pw.x -npool 4 -i  Done                     04/16/2018 14:29:17