     Program PWSCF v.5.1rc2 (svn rev. 11289) starts on 12Jan2019 at  1:58:39

     Current dimensions of program PWSCF are:
     Max number of different atomic species (ntypx) = 10
     Max number of k-points (npk) =  40000
     Max angular momentum in pseudopotentials (lmaxx) =  3

     IMPORTANT: XC functional enforced from input :
     Exchange-correlation      = BEEF-VDW ( 1  4 27 13 2)
     Any further DFT definition will be discarded
     Please, verify this is what you really want

     Subspace diagonalization in iterative solution of the eigenvalue problem:
     a serial algorithm will be used

     bravais-lattice index     =            0
     lattice parameter (alat)  =      12.6383  a.u.
     unit-cell volume          =    6655.4372 (a.u.)^3
     number of atoms/cell      =           13
     number of atomic types    =            2
     number of electrons       =       162.00
     number of Kohn-Sham states=           91
     kinetic-energy cutoff     =      36.7493  Ry
     charge density cutoff     =     367.4933  Ry
     convergence threshold     =      1.0E-04
     mixing beta               =       0.2000
     number of iterations used =            8  plain     mixing
     Exchange-correlation      = BEEF-VDW ( 1  4 27 13 2)
     nstep                     =           50

     celldm(1)=  12.638304  celldm(2)=   0.000000  celldm(3)=   0.000000
     celldm(4)=   0.000000  celldm(5)=   0.000000  celldm(6)=   0.000000

     crystal axes: (cart. coord. in units of alat)
               a(1) = (   1.000000   0.000000   0.000000 )
               a(2) = (   0.500000   0.866025   0.000000 )
               a(3) = (   0.000000   0.000000   3.806971 )

     reciprocal axes: (cart. coord. in units 2 pi/alat)
               b(1) = (  1.000000 -0.577350  0.000000 )
               b(2) = (  0.000000  1.154701  0.000000 )
               b(3) = (  0.000000  0.000000  0.262676 )

     PseudoPot. # 1 for Tl read from file:
     /u/if/jboes/code/decaf-espresso/gbrv15pbe/Tl.UPF
     MD5 check sum: b76cf1f7e72655a2b2c53cf6385d7059
     Pseudo is Ultrasoft + core correction, Zval = 13.0
     Generated by new atomic code, or converted to UPF format
     Using radial grid of  899 points,  6 beta functions with:
                l(1) =   0
                l(2) =   0
                l(3) =   1
                l(4) =   1
                l(5) =   2
                l(6) =   2
     Q(r) pseudized with  6 coefficients,  rinner =    1.100   1.100   1.100
                                                       1.100   1.100

     PseudoPot. # 2 for S  read from file:
     /u/if/jboes/code/decaf-espresso/gbrv15pbe/S.UPF
     MD5 check sum: 88d86576ff6df21479756cfb9bdac1df
     Pseudo is Ultrasoft + core correction, Zval =  6.0
     Generated by new atomic code, or converted to UPF format
     Using radial grid of  907 points,  6 beta functions with:
                l(1) =   0
                l(2) =   0
                l(3) =   1
                l(4) =   1
                l(5) =   2
                l(6) =   2
     Q(r) pseudized with  8 coefficients,  rinner =    1.300   1.300   1.300
                                                       1.300   1.300

     vdW kernel table read from file vdW_kernel_table
     MD5 check sum: 095c7af220d748ca6e76c0b4c6cfb241

     atomic species   valence    mass     pseudopotential
        Tl            13.00   204.38000     Tl( 1.00)
        S              6.00    32.06000     S ( 1.00)

     No symmetry found

   Cartesian axes

     site n.     atom                  positions (alat units)
         1           Tl  tau(   1) = (   0.2500000   0.1443376   1.4952371  )
         2           Tl  tau(   2) = (   0.7500000   0.1443376   1.4952371  )
         3           Tl  tau(   3) = (   0.5000000   0.5773503   1.4952371  )
         4           Tl  tau(   4) = (   1.0000000   0.5773503   1.4952371  )
         5           Tl  tau(   5) = (   1.0000000   0.2886751   1.9034854  )
         6           Tl  tau(   6) = (   0.5000000   0.2886751   1.9034854  )
         7           Tl  tau(   7) = (   1.2500000   0.7216878   1.9034854  )
         8           Tl  tau(   8) = (   0.7500000   0.7216878   1.9034854  )
         9           Tl  tau(   9) = (   0.0000008   0.0000005   2.4083485  )
        10           Tl  tau(  10) = (   0.4999984  -0.0053770   2.3844082  )
        11           Tl  tau(  11) = (   0.2453516   0.4357005   2.3844025  )
        12           Tl  tau(  12) = (   0.7546511   0.4356961   2.3844138  )
        13           S   tau(  13) = (   0.4999981   0.2886735   2.6736577  )

     number of k points=    20  Fermi-Dirac smearing, width (Ry)=  0.0110
                       cart. coord. in units 2pi/alat
        k(    1) = (   0.0000000   0.0000000   0.0000000), wk =   0.0555556
        k(    2) = (   0.0000000   0.1924501   0.0000000), wk =   0.1111111
        k(    3) = (   0.0000000   0.3849002   0.0000000), wk =   0.1111111
        k(    4) = (   0.0000000  -0.5773503   0.0000000), wk =   0.0555556
        k(    5) = (   0.1666667  -0.0962250   0.0000000), wk =   0.1111111
        k(    6) = (   0.1666667   0.0962250   0.0000000), wk =   0.1111111
        k(    7) = (   0.1666667   0.2886751   0.0000000), wk =   0.1111111
        k(    8) = (   0.1666667  -0.6735753   0.0000000), wk =   0.1111111
        k(    9) = (   0.1666667  -0.4811252   0.0000000), wk =   0.1111111
        k(   10) = (   0.1666667  -0.2886751   0.0000000), wk =   0.1111111
        k(   11) = (   0.3333333  -0.1924501   0.0000000), wk =   0.1111111
        k(   12) = (   0.3333333  -0.0000000   0.0000000), wk =   0.1111111
        k(   13) = (   0.3333333   0.1924501   0.0000000), wk =   0.1111111
        k(   14) = (   0.3333333  -0.7698004   0.0000000), wk =   0.1111111
        k(   15) = (   0.3333333  -0.5773503   0.0000000), wk =   0.1111111
        k(   16) = (   0.3333333  -0.3849002   0.0000000), wk =   0.1111111
        k(   17) = (  -0.5000000   0.2886751   0.0000000), wk =   0.0555556
        k(   18) = (  -0.5000000   0.4811252   0.0000000), wk =   0.1111111
        k(   19) = (  -0.5000000   0.6735753   0.0000000), wk =   0.1111111
        k(   20) = (  -0.5000000  -0.2886751   0.0000000), wk =   0.0555556

     Largest allocated arrays     est. size (Mb)     dimensions
     Largest temporary arrays     est. size (Mb)     dimensions

     Check: negative/imaginary core charge=   -0.000001    0.000000

     Initial potential from superposition of free atoms
     Check: negative starting charge=   -0.600304

     starting charge  161.94157, renormalised to  162.00000

     negative rho (up, down):  6.005E-01 0.000E+00

     *
     * You are using vdW-DF for exchange-correlation in this calculation.
     * Please cite the following three references that made this development
     * possible:
     *
     *   M. Dion, H. Rydberg, E. Schroder, D. C. Langreth, and
     *   B. I. Lundqvist, Phys. Rev. Lett. 92, 246401 (2004).
     *
     *   T. Thonhauser, V. R. Cooper, S. Li, A. Puzder, P. Hyldgaard, and
     *   D. C. Langreth, Phys. Rev. B 76, 125112 (2007).
     *
     *   G. Roman-Perez and J. M. Soler, Phys. Rev. Lett. 103, 096102 (2009).
     *
     *
     * If you are using vdW-DF2, please also cite:
     *
     *   K. Lee, E. D. Murray, L. Kong, B. I. Lundqvist, and
     *   D. C. Langreth, Phys. Rev. B 82, 081101(R) (2010).
     *
     *
     * If you are calculating the stress with vdW-DF, please also cite:
     *
     *   R. Sabatini, E. Kucukbenli, B. Kolb, T. Thonhauser, and
     *   S. de Gironcoli, J. Phys.: Condens. Matter 24, 424209 (2012).
     *

     Carrying out vdW-DF run using the following parameters:

     Nqs =      20    Nr_points =    1024   r_max =   100.000
     q_mesh =
               0.00001000     0.04494208     0.09755937     0.15916263
               0.23128650     0.31572767     0.41458969     0.53033537
               0.66584808     0.82450364     1.01025438     1.22772762
               1.48234092     1.78043706     2.12944203     2.53805004
               3.01644009     3.57652955     4.23227104     5.00000000

     Gradients computed in reciprocal space

     Adding external electric field

     Computed dipole along edir(3) :
        Dipole               -0.0200 Ry au,         -0.0509 Debye
        Dipole field         -0.0000 Ry au

        Potential amp.        0.0033 Ry
        Total length         43.3023 bohr

     Starting wfc are  112 randomized atomic wfcs

     Self-consistent Calculation

     iteration #  1     ecut=    36.75 Ry     beta=0.20
     Davidson diagonalization with overlap
     ethr =  1.00E-02,  avg # of iterations =  2.0

     Threshold (ethr) on eigenvalues was too large:
     Diagonalizing with lowered threshold

     Davidson diagonalization with overlap
     ethr =  3.97E-04,  avg # of iterations =  3.6

[...]

     total energy              =   -1785.87409571 Ry
     Harris-Foulkes estimate   =   -1786.06596041 Ry
     estimated scf accuracy    <       0.61182878 Ry

[...]

     End of self-consistent calculation

          k = 0.0000 0.0000 0.0000 ( 24957 PWs)   bands (ev):

   -11.7599 -11.5422 -11.5422 -11.5401 -11.4250 -11.4227 -11.4227 -11.3995
   -11.3964 -11.3964 -11.3874 -11.3874 -11.3863 -11.3473 -11.2825 -11.2252
   -11.2201 -11.2201 -11.1954 -11.1954 -11.1948 -11.1948 -11.1868 -11.1616
   -11.1616 -11.0912 -11.0912 -11.0855 -11.0723 -11.0723 -10.9191 -10.9191
   -10.8636 -10.8580 -10.8580 -10.8228 -10.8018 -10.8018 -10.7917 -10.7669
   -10.7669 -10.7506 -10.7506 -10.7230 -10.7230 -10.7007 -10.7002 -10.6620
   -10.6620 -10.6346 -10.6346 -10.6254 -10.6240 -10.6240 -10.5875 -10.5875
   -10.5862 -10.5205 -10.5204 -10.4473 -10.1835  -8.9804  -7.3626  -6.0889
    -4.3695  -4.3685  -4.3685  -3.9957  -3.9957  -3.8515  -3.4064  -3.4063
    -3.3463  -1.8485  -1.4395  -1.4395  -1.2573  -1.0002  -1.0001  -0.9403
    -0.3286  -0.3150  -0.3150   0.4524   0.4524   0.9755   2.1071   3.4283
     3.4976   3.4976   3.6372

[...]

          k =-0.5000 0.2887 0.0000 ( 25090 PWs)   bands (ev):

[...]

     the Fermi energy is     0.8662 ev

!    total energy              =   -1785.98141218 Ry
     Harris-Foulkes estimate   =   -1785.98147381 Ry
     estimated scf accuracy    <       0.00002120 Ry

     The total energy is the sum of the following terms:

     one-electron contribution =   -8203.95114189 Ry
     hartree contribution      =    4185.71674540 Ry
     xc contribution           =    -777.07477839 Ry
     ewald contribution        =    3009.37008231 Ry
     electric field correction =       0.00068251 Ry
     smearing contrib. (-TS)   =      -0.04300214 Ry

     convergence has been achieved in  10 iterations

     Forces acting on atoms (Ry/au):

     negative rho (up, down):  6.262E-01 0.000E+00
     atom    1 type  1   force =     0.00098128    0.00053397   -0.02068385
     atom    2 type  1   force =    -0.00096741    0.00055098   -0.02067940
     atom    3 type  1   force =     0.00000729   -0.00110963   -0.02066878
     atom    4 type  1   force =     0.00001528   -0.00001575   -0.01998910
     atom    5 type  1   force =    -0.00002288   -0.00403852    0.02287853
     atom    6 type  1   force =    -0.00000485    0.00000475    0.02661614
     atom    7 type  1   force =     0.00350523    0.00202478    0.02288060
     atom    8 type  1   force =    -0.00349563    0.00201803    0.02288397
     atom    9 type  1   force =     0.00000033    0.00000824   -0.00363411
     atom   10 type  1   force =    -0.00000724   -0.00109360   -0.00308358
     atom   11 type  1   force =    -0.00099912    0.00056564   -0.00312545
     atom   12 type  1   force =     0.00099819    0.00055138   -0.00309437
     atom   13 type  2   force =    -0.00001048   -0.00000028   -0.00030060

     Total force =     0.006780     Total SCF correction =     0.009242
     SCF correction compared to forces is large: reduce conv_thr to get better values

     BFGS Geometry Optimization

     number of scf cycles    =   1
     number of bfgs steps    =   0

     energy   new            =   -1785.9814121805 Ry

     new trust radius        =       0.0036341149 bohr
     new conv_thr            =       0.0001000000 Ry

ATOMIC_POSITIONS (angstrom)
Tl       1.671975640   0.965315586  10.000000000    0   0   0
Tl       5.015926920   0.965315586  10.000000000    0   0   0
Tl       3.343951280   3.861262344  10.000000000    0   0   0
Tl       6.687902560   3.861262344  10.000000000    0   0   0
Tl       6.687902560   1.930631172  12.730324787    0   0   0
Tl       3.343951280   1.930631172  12.730324787    0   0   0
Tl       8.359878201   4.826577929  12.730324787    0   0   0
Tl       5.015926920   4.826577929  12.730324787    0   0   0
Tl       0.000005436   0.000007860  16.104877329
Tl       3.343937022  -0.036539242  15.945057959
Tl       1.640358992   2.914222117  15.944997889
Tl       5.047561153   2.914184873  15.945089882
S        3.343933209   1.930619976  17.881002795

     Writing output data file calc.save
     Check: negative starting charge=   -0.600304
     NEW-OLD atomic charge density approx. for the potential

     Check: negative/imaginary core charge=   -0.000001    0.000000
     Check: negative starting charge=   -0.600338

[...]

     Self-consistent Calculation

[...]

     total energy              =   -1785.98141964 Ry
     Harris-Foulkes estimate   =   -1785.98144070 Ry
     estimated scf accuracy    <       0.00020056 Ry

     iteration #  4     ecut=    36.75 Ry     beta=0.20
     Davidson diagonalization with overlap
     ethr =  1.24E-07,  avg # of iterations =  3.3

     negative rho (up, down):  6.263E-01 0.000E+00

     Adding external electric field

     Computed dipole along edir(3) :
        Dipole               -0.6273 Ry au,         -1.5944 Debye
        Dipole field         -0.0012 Ry au

        Potential amp.        0.1026 Ry
        Total length         43.3023 bohr

     End of self-consistent calculation

[...]

          k = 0.3333-0.3849 0.0000 ( 25036 PWs)   bands (ev):

[...]

          k =-0.5000-0.2887 0.0000 ( 25090 PWs)   bands (ev):

   -11.6802 -11.4253 -11.4178 -11.3534 -11.3243 -11.3178 -11.3104 -11.3088
   -11.3006 -11.2925 -11.2537 -11.2499 -11.2211 -11.2017 -11.1982 -11.1805
   -11.1752 -11.1740 -11.1638 -11.1547 -11.1366 -11.1223 -11.1211 -11.1002
   -11.1001 -11.0575 -11.0488 -11.0321 -11.0040 -10.9992 -10.9942 -10.9913
   -10.9408 -10.9322 -10.9175 -10.9057 -10.9025 -10.8858 -10.8817 -10.8744
   -10.8680 -10.8654 -10.8554 -10.8548 -10.8383 -10.8137 -10.8094 -10.8024
   -10.7958 -10.7897 -10.7654 -10.7625 -10.7582 -10.7287 -10.7155 -10.7095
   -10.6694 -10.6533 -10.6516 -10.5429 -10.0576  -7.7140  -7.6832  -6.5805
    -6.1773  -5.1894  -5.1852  -5.1761  -5.0306  -4.3684  -4.1749  -3.2888
    -3.2522  -1.1609  -0.5140  -0.4305   0.3289   0.4385   0.6505   0.7089
     0.9708   1.2055   1.5680   1.8303   2.1893   2.4297   2.4544   2.9546
     3.3890   3.4544   3.5939

     the Fermi energy is     0.8596 ev

!    total energy              =   -1785.98143524 Ry
     Harris-Foulkes estimate   =   -1785.98142357 Ry
     estimated scf accuracy    <       0.00000144 Ry

     The total energy is the sum of the following terms:

     one-electron contribution =   -8206.01460734 Ry
     hartree contribution      =    4186.83212967 Ry
     xc contribution           =    -777.07586844 Ry
     ewald contribution        =    3010.31913199 Ry
     electric field correction =       0.00074298 Ry
     smearing contrib. (-TS)   =      -0.04296409 Ry

     convergence has been achieved in   4 iterations

     Forces acting on atoms (Ry/au):

     negative rho (up, down):  6.263E-01 0.000E+00
     atom    1 type  1   force =     0.00085826    0.00050767   -0.02244280
     atom    2 type  1   force =    -0.00085327    0.00050549   -0.02245186
     atom    3 type  1   force =    -0.00000325   -0.00098866   -0.02244989
     atom    4 type  1   force =     0.00000774   -0.00000083   -0.02222497
     atom    5 type  1   force =     0.00000224   -0.00278706    0.02194345
     atom    6 type  1   force =     0.00000427   -0.00000390    0.02379509
     atom    7 type  1   force =     0.00240484    0.00138806    0.02193301
     atom    8 type  1   force =    -0.00241876    0.00138937    0.02194312
     atom    9 type  1   force =     0.00000437   -0.00001571   -0.00116183
     atom   10 type  1   force =     0.00001054    0.00149462    0.00063670
     atom   11 type  1   force =     0.00129723   -0.00075765    0.00064314
     atom   12 type  1   force =    -0.00131630   -0.00073056    0.00063218
     atom   13 type  2   force =     0.00000209   -0.00000084   -0.00079533

     Total force =     0.003156     Total SCF correction =     0.001877
     SCF correction compared to forces is large: reduce conv_thr to get better values

     bfgs converged in   2 scf cycles and   1 bfgs steps
     (criteria: energy <  1.0E+12, force <  1.9E-03)

     End of BFGS Geometry Optimization

     Final energy   =   -1785.9814352375 Ry
Begin final coordinates

ATOMIC_POSITIONS (angstrom)
Tl       1.671975640   0.965315586  10.000000000    0   0   0
Tl       5.015926920   0.965315586  10.000000000    0   0   0
Tl       3.343951280   3.861262344  10.000000000    0   0   0
Tl       6.687902560   3.861262344  10.000000000    0   0   0
Tl       6.687902560   1.930631172  12.730324787    0   0   0
Tl       3.343951280   1.930631172  12.730324787    0   0   0
Tl       8.359878201   4.826577930  12.730324787    0   0   0
Tl       5.015926920   4.826577930  12.730324787    0   0   0
Tl       0.000005436   0.000007860  16.104877329
Tl       3.343937022  -0.036539242  15.945057959
Tl       1.640358992   2.914222117  15.944997889
Tl       5.047561153   2.914184873  15.945089882
S        3.343933209   1.930619976  17.881002795
End final coordinates

     Writing output data file calc.save

     General routines

     Parallel routines

   This run was terminated on:   2: 6:34  12Jan2019

   JOB DONE.
Job  /afs/slac/g/suncat/bin/suncat-tsmpirun -x LD_LIBRARY_PATH -wdir /tmp/qe_7699309kq2jg5w_scratch pw.x -npool 3 -in pw.pwi

TID   HOST_NAME   COMMAND_LINE            STATUS            TERMINATION_TIME
00000 suncat1046 pw.x -npool 3 -i  Done                     01/12/2019 02:06:34
00001 suncat1046 pw.x -npool 3 -i  Done                     01/12/2019 02:06:34
00002 suncat1046 pw.x -npool 3 -i  Done                     01/12/2019 02:06:34
00003 suncat1046 pw.x -npool 3 -i  Done                     01/12/2019 02:06:34
00004 suncat1046 pw.x -npool 3 -i  Done                     01/12/2019 02:06:34
00005 suncat1046 pw.x -npool 3 -i  Done                     01/12/2019 02:06:34
00006 suncat1046 pw.x -npool 3 -i  Done                     01/12/2019 02:06:34
00007 suncat1046 pw.x -npool 3 -i  Done                     01/12/2019 02:06:34
00008 suncat1046 pw.x -npool 3 -i  Done                     01/12/2019 02:06:34
00009 suncat1046 pw.x -npool 3 -i  Done                     01/12/2019 02:06:34
00010 suncat1046 pw.x -npool 3 -i  Done                     01/12/2019 02:06:34
00011 suncat1046 pw.x -npool 3 -i  Done                     01/12/2019 02:06:34
00012 suncat1045 pw.x -npool 3 -i  Done                     01/12/2019 02:06:34
00013 suncat1045 pw.x -npool 3 -i  Done                     01/12/2019 02:06:34
00014 suncat1045 pw.x -npool 3 -i  Done                     01/12/2019 02:06:34
00015 suncat1045 pw.x -npool 3 -i  Done                     01/12/2019 02:06:34
00016 suncat1045 pw.x -npool 3 -i  Done                     01/12/2019 02:06:34
00017 suncat1045 pw.x -npool 3 -i  Done                     01/12/2019 02:06:34
00018 suncat1045 pw.x -npool 3 -i  Done                     01/12/2019 02:06:34
00019 suncat1045 pw.x -npool 3 -i  Done                     01/12/2019 02:06:34
00020 suncat1045 pw.x -npool 3 -i  Done                     01/12/2019 02:06:34
00021 suncat1045 pw.x -npool 3 -i  Done                     01/12/2019 02:06:34
00022 suncat1045 pw.x -npool 3 -i  Done                     01/12/2019 02:06:34
00023 suncat1045 pw.x -npool 3 -i  Done                     01/12/2019 02:06:34
00024 suncat1036 pw.x -npool 3 -i  Done                     01/12/2019 02:06:34
00025 suncat1036 pw.x -npool 3 -i  Done                     01/12/2019 02:06:34
00026 suncat1036 pw.x -npool 3 -i  Done                     01/12/2019 02:06:34
00027 suncat1036 pw.x -npool 3 -i  Done                     01/12/2019 02:06:34
00028 suncat1036 pw.x -npool 3 -i  Done                     01/12/2019 02:06:34
00029 suncat1036 pw.x -npool 3 -i  Done                     01/12/2019 02:06:34
00030 suncat1036 pw.x -npool 3 -i  Done                     01/12/2019 02:06:34
00031 suncat1036 pw.x -npool 3 -i  Done                     01/12/2019 02:06:34
00032 suncat1036 pw.x -npool 3 -i  Done                     01/12/2019 02:06:34
00033 suncat1036 pw.x -npool 3 -i  Done                     01/12/2019 02:06:34
00034 suncat1036 pw.x -npool 3 -i  Done                     01/12/2019 02:06:34
00035 suncat1036 pw.x -npool 3 -i  Done                     01/12/2019 02:06:34