     Program PWSCF v.5.1rc2 (svn rev. 11289) starts on 11Jan2019 at 22:15:23

     Current dimensions of program PWSCF are:
     Max number of different atomic species (ntypx) = 10
     Max number of k-points (npk) =  40000
     Max angular momentum in pseudopotentials (lmaxx) =  3

     IMPORTANT: XC functional enforced from input :
     Exchange-correlation      = BEEF-VDW ( 1  4 27 13 2)
     Any further DFT definition will be discarded
     Please, verify this is what you really want

     Subspace diagonalization in iterative solution of the eigenvalue problem:
     a serial algorithm will be used

     bravais-lattice index     =            0
     lattice parameter (alat)  =      12.6383  a.u.
     unit-cell volume          =    6655.4372 (a.u.)^3
     number of atoms/cell      =           13
     number of atomic types    =            2
     number of electrons       =       157.00
     number of Kohn-Sham states=           88
     kinetic-energy cutoff     =      36.7493  Ry
     charge density cutoff     =     367.4933  Ry
     convergence threshold     =      1.0E-04
     mixing beta               =       0.2000
     number of iterations used =            8  plain     mixing
     Exchange-correlation      = BEEF-VDW ( 1  4 27 13 2)
     nstep                     =           50

     celldm(1)=  12.638304  celldm(2)=   0.000000  celldm(3)=   0.000000
     celldm(4)=   0.000000  celldm(5)=   0.000000  celldm(6)=   0.000000

     crystal axes: (cart. coord. in units of alat)
               a(1) = (   1.000000   0.000000   0.000000 )
               a(2) = (   0.500000   0.866025   0.000000 )
               a(3) = (   0.000000   0.000000   3.806971 )

     reciprocal axes: (cart. coord. in units 2 pi/alat)
               b(1) = (  1.000000 -0.577350  0.000000 )
               b(2) = (  0.000000  1.154701  0.000000 )
               b(3) = (  0.000000  0.000000  0.262676 )

     PseudoPot. # 1 for Tl read from file:
     /u/if/jboes/code/decaf-espresso/gbrv15pbe/Tl.UPF
     MD5 check sum: b76cf1f7e72655a2b2c53cf6385d7059
     Pseudo is Ultrasoft + core correction, Zval = 13.0
     Generated by new atomic code, or converted to UPF format
     Using radial grid of  899 points,  6 beta functions with:
                l(1) =   0
                l(2) =   0
                l(3) =   1
                l(4) =   1
                l(5) =   2
                l(6) =   2
     Q(r) pseudized with  6 coefficients,  rinner =    1.100   1.100   1.100
                                                       1.100   1.100

     PseudoPot. # 2 for H  read from file:
     /u/if/jboes/code/decaf-espresso/gbrv15pbe/H.UPF
     MD5 check sum: 761ae9a214b05c3daf00ab9f6b793d6f
     Pseudo is Ultrasoft, Zval =  1.0
     Generated by new atomic code, or converted to UPF format
     Using radial grid of  615 points,  2 beta functions with:
                l(1) =   0
                l(2) =   0
     Q(r) pseudized with  8 coefficients,  rinner =    0.700

     vdW kernel table read from file vdW_kernel_table
     MD5 check sum: 095c7af220d748ca6e76c0b4c6cfb241

     atomic species   valence    mass     pseudopotential
        Tl            13.00   204.38000     Tl( 1.00)
        H              1.00     1.00800     H ( 1.00)

     No symmetry found

   Cartesian axes

     site n.     atom                  positions (alat units)
         1           Tl  tau(   1) = (   0.2500000   0.1443376   1.4952371  )
         2           Tl  tau(   2) = (   0.7500000   0.1443376   1.4952371  )
         3           Tl  tau(   3) = (   0.5000000   0.5773503   1.4952371  )
         4           Tl  tau(   4) = (   1.0000000   0.5773503   1.4952371  )
         5           Tl  tau(   5) = (   1.0000000   0.2886751   1.9034854  )
         6           Tl  tau(   6) = (   0.5000000   0.2886751   1.9034854  )
         7           Tl  tau(   7) = (   1.2500000   0.7216878   1.9034854  )
         8           Tl  tau(   8) = (   0.7500000   0.7216878   1.9034854  )
         9           Tl  tau(   9) = (   0.0000014   0.0000011   2.3366957  )
        10           Tl  tau(  10) = (   0.4999972  -0.0002841   2.4186458  )
        11           Tl  tau(  11) = (   0.2497490   0.4331525   2.4186491  )
        12           Tl  tau(  12) = (   0.7502507   0.4331582   2.4186363  )
        13           H   tau(  13) = (   0.4999978   0.2886767   2.6071712  )

     number of k points=    20  Fermi-Dirac smearing, width (Ry)=  0.0110
                       cart. coord. in units 2pi/alat
        k(    1) = (   0.0000000   0.0000000   0.0000000), wk =   0.0555556
        k(    2) = (   0.0000000   0.1924501   0.0000000), wk =   0.1111111
        k(    3) = (   0.0000000   0.3849002   0.0000000), wk =   0.1111111
        k(    4) = (   0.0000000  -0.5773503   0.0000000), wk =   0.0555556
        k(    5) = (   0.1666667  -0.0962250   0.0000000), wk =   0.1111111
        k(    6) = (   0.1666667   0.0962250   0.0000000), wk =   0.1111111
        k(    7) = (   0.1666667   0.2886751   0.0000000), wk =   0.1111111
        k(    8) = (   0.1666667  -0.6735753   0.0000000), wk =   0.1111111
        k(    9) = (   0.1666667  -0.4811252   0.0000000), wk =   0.1111111
        k(   10) = (   0.1666667  -0.2886751   0.0000000), wk =   0.1111111
        k(   11) = (   0.3333333  -0.1924501   0.0000000), wk =   0.1111111
        k(   12) = (   0.3333333  -0.0000000   0.0000000), wk =   0.1111111
        k(   13) = (   0.3333333   0.1924501   0.0000000), wk =   0.1111111
        k(   14) = (   0.3333333  -0.7698004   0.0000000), wk =   0.1111111
        k(   15) = (   0.3333333  -0.5773503   0.0000000), wk =   0.1111111
        k(   16) = (   0.3333333  -0.3849002   0.0000000), wk =   0.1111111
        k(   17) = (  -0.5000000   0.2886751   0.0000000), wk =   0.0555556
        k(   18) = (  -0.5000000   0.4811252   0.0000000), wk =   0.1111111
        k(   19) = (  -0.5000000   0.6735753   0.0000000), wk =   0.1111111
        k(   20) = (  -0.5000000  -0.2886751   0.0000000), wk =   0.0555556

     Largest allocated arrays     est. size (Mb)     dimensions
     Largest temporary arrays     est. size (Mb)     dimensions

     Check: negative/imaginary core charge=   -0.000001    0.000000

     Initial potential from superposition of free atoms
     Check: negative starting charge=   -0.605012

     starting charge  156.94160, renormalised to  157.00000

     negative rho (up, down):  6.052E-01 0.000E+00

     *
     * You are using vdW-DF for exchange-correlation in this calculation.
     * Please cite the following three references that made this development
     * possible:
     *
     *   M. Dion, H. Rydberg, E. Schroder, D. C. Langreth, and
     *   B. I. Lundqvist, Phys. Rev. Lett. 92, 246401 (2004).
     *
     *   T. Thonhauser, V. R. Cooper, S. Li, A. Puzder, P. Hyldgaard, and
     *   D. C. Langreth, Phys. Rev. B 76, 125112 (2007).
     *
     *   G. Roman-Perez and J. M. Soler, Phys. Rev. Lett. 103, 096102 (2009).
     *
     *
     * If you are using vdW-DF2, please also cite:
     *
     *   K. Lee, E. D. Murray, L. Kong, B. I. Lundqvist, and
     *   D. C. Langreth, Phys. Rev. B 82, 081101(R) (2010).
     *
     *
     * If you are calculating the stress with vdW-DF, please also cite:
     *
     *   R. Sabatini, E. Kucukbenli, B. Kolb, T. Thonhauser, and
     *   S. de Gironcoli, J. Phys.: Condens. Matter 24, 424209 (2012).
     *

     Carrying out vdW-DF run using the following parameters:

     Nqs =      20    Nr_points =    1024   r_max =   100.000
     q_mesh =
               0.00001000     0.04494208     0.09755937     0.15916263
               0.23128650     0.31572767     0.41458969     0.53033537
               0.66584808     0.82450364     1.01025438     1.22772762
               1.48234092     1.78043706     2.12944203     2.53805004
               3.01644009     3.57652955     4.23227104     5.00000000

     Gradients computed in reciprocal space

     Adding external electric field

     Computed dipole along edir(3) :
        Dipole               -0.0031 Ry au,         -0.0079 Debye
        Dipole field         -0.0000 Ry au

        Potential amp.        0.0005 Ry
        Total length         43.3023 bohr

     Starting wfc are  109 randomized atomic wfcs

     Self-consistent Calculation

     iteration #  1     ecut=    36.75 Ry     beta=0.20
     Davidson diagonalization with overlap
     ethr =  1.00E-02,  avg # of iterations =  2.0

     Threshold (ethr) on eigenvalues was too large:
     Diagonalizing with lowered threshold

     Davidson diagonalization with overlap
     ethr =  1.13E-04,  avg # of iterations =  4.1

[...]

     total energy              =   -1762.68670632 Ry
     Harris-Foulkes estimate   =   -1762.73668028 Ry
     estimated scf accuracy    <       0.20771505 Ry

[...]

     End of self-consistent calculation

          k = 0.0000 0.0000 0.0000 ( 24957 PWs)   bands (ev):

   -11.2279 -11.2228 -11.2228 -11.1429 -11.1042 -11.0906 -11.0893 -11.0893
   -11.0677 -11.0677 -11.0669 -11.0669 -11.0657 -10.9610 -10.9428 -10.9074
   -10.8966 -10.8966 -10.8822 -10.8822 -10.8806 -10.8480 -10.8480 -10.8284
   -10.8284 -10.8051 -10.8051 -10.7679 -10.7679 -10.7654 -10.6317 -10.6317
   -10.5960 -10.5960 -10.5822 -10.5716 -10.5283 -10.5283 -10.5130 -10.5130
   -10.4771 -10.4771 -10.4768 -10.4487 -10.4415 -10.4415 -10.4179 -10.4179
   -10.3817 -10.3726 -10.3726 -10.3257 -10.3257 -10.3208 -10.3173 -10.3173
   -10.2905 -10.2656 -10.2656 -10.2619  -8.6846  -7.4879  -5.9862  -4.1077
    -4.0477  -4.0477  -3.8783  -3.4775  -3.4775  -3.0394  -3.0394  -3.0174
    -2.0904  -1.0877  -1.0877  -0.9041  -0.6986  -0.1028  -0.1028  -0.0018
     0.0349   0.0349   0.9134   2.7175   3.6144   3.7275   3.7275   3.8996

[...]

          k =-0.5000 0.2887 0.0000 ( 25090 PWs)   bands (ev):

[...]

     the Fermi energy is     1.1449 ev

!    total energy              =   -1762.68818479 Ry
     Harris-Foulkes estimate   =   -1762.68821836 Ry
     estimated scf accuracy    <       0.00004432 Ry

     The total energy is the sum of the following terms:

     one-electron contribution =   -7993.58624708 Ry
     hartree contribution      =    4079.59025162 Ry
     xc contribution           =    -768.98692338 Ry
     ewald contribution        =    2920.33598634 Ry
     electric field correction =       0.00001039 Ry
     smearing contrib. (-TS)   =      -0.04126268 Ry

     convergence has been achieved in   9 iterations

     Forces acting on atoms (Ry/au):

     negative rho (up, down):  6.303E-01 0.000E+00
     atom    1 type  1   force =    -0.00155931   -0.00090679   -0.02053878
     atom    2 type  1   force =     0.00156327   -0.00089532   -0.02050882
     atom    3 type  1   force =     0.00000472    0.00179753   -0.02052017
     atom    4 type  1   force =    -0.00001494    0.00000400   -0.02145437
     atom    5 type  1   force =    -0.00000570    0.00262126    0.02337999
     atom    6 type  1   force =     0.00001836    0.00000686    0.03465511
     atom    7 type  1   force =    -0.00226527   -0.00131567    0.02336795
     atom    8 type  1   force =     0.00225112   -0.00130692    0.02337001
     atom    9 type  1   force =     0.00000900    0.00000952   -0.00090337
     atom   10 type  1   force =     0.00000596   -0.00658423   -0.00663338
     atom   11 type  1   force =    -0.00569377    0.00328770   -0.00663059
     atom   12 type  1   force =     0.00568654    0.00328229   -0.00665273
     atom   13 type  2   force =     0.00000003   -0.00000022   -0.00093084

     Total force =     0.016236     Total SCF correction =     0.023306
     SCF correction compared to forces is large: reduce conv_thr to get better values

     BFGS Geometry Optimization

     number of scf cycles    =   1
     number of bfgs steps    =   0

     energy   new            =   -1762.6881847881 Ry

     new trust radius        =       0.0093471343 bohr
     new conv_thr            =       0.0001000000 Ry

ATOMIC_POSITIONS (angstrom)
Tl       1.671975640   0.965315586  10.000000000    0   0   0
Tl       5.015926920   0.965315586  10.000000000    0   0   0
Tl       3.343951280   3.861262344  10.000000000    0   0   0
Tl       6.687902560   3.861262344  10.000000000    0   0   0
Tl       6.687902560   1.930631172  12.730324787    0   0   0
Tl       3.343951280   1.930631172  12.730324787    0   0   0
Tl       8.359878201   4.826577929  12.730324787    0   0   0
Tl       5.015926920   4.826577929  12.730324787    0   0   0
Tl       0.000014456   0.000012704  15.627114809
Tl       3.343935701  -0.005384208  16.172157141
Tl       1.667283849   2.898621201  16.172180590
Tl       5.020612777   2.898656892  16.172083350
H        3.343936403   1.930641233  17.436014065

     Writing output data file calc.save
     Check: negative starting charge=   -0.605012
     NEW-OLD atomic charge density approx. for the potential

     Check: negative/imaginary core charge=   -0.000001    0.000000
     Check: negative starting charge=   -0.604939

[...]

     number of scf cycles    =   2
     number of bfgs steps    =   1

     energy   old            =   -1762.6881847881 Ry
     energy   new            =   -1762.6882101032 Ry

     CASE: energy  _new < energy  _old

     new trust radius        =       0.0053580911 bohr
     new conv_thr            =       0.0000010000 Ry

ATOMIC_POSITIONS (angstrom)
Tl       1.671975640   0.965315586  10.000000000    0   0   0
Tl       5.015926920   0.965315586  10.000000000    0   0   0
Tl       3.343951280   3.861262344  10.000000000    0   0   0
Tl       6.687902560   3.861262344  10.000000000    0   0   0
Tl       6.687902560   1.930631172  12.730324787    0   0   0
Tl       3.343951280   1.930631172  12.730324787    0   0   0
Tl       8.359878201   4.826577930  12.730324787    0   0   0
Tl       5.015926920   4.826577930  12.730324787    0   0   0
Tl       0.000008305   0.000007056  15.624369482
Tl       3.343939934  -0.004869676  16.169374703
Tl       1.667732803   2.898370190  16.169403332
Tl       5.020157030   2.898398318  16.169296809
H        3.343936880   1.930640846  17.435488232

     Writing output data file calc.save
     Check: negative starting charge=   -0.604939
     NEW-OLD atomic charge density approx. for the potential

     Check: negative/imaginary core charge=   -0.000001    0.000000
     Check: negative starting charge=   -0.604768

[...]

     Self-consistent Calculation

[...]

     total energy              =   -1762.68822647 Ry
     Harris-Foulkes estimate   =   -1762.68822745 Ry
     estimated scf accuracy    <       0.00000603 Ry

     iteration #  6     ecut=    36.75 Ry     beta=0.20
     Davidson diagonalization with overlap
     ethr =  1.71E-09,  avg # of iterations =  3.4

     negative rho (up, down):  6.305E-01 0.000E+00

     Adding external electric field

     Computed dipole along edir(3) :
        Dipole               -0.0956 Ry au,         -0.2429 Debye
        Dipole field         -0.0002 Ry au

        Potential amp.        0.0156 Ry
        Total length         43.3023 bohr

     End of self-consistent calculation

[...]

          k = 0.3333-0.3849 0.0000 ( 25036 PWs)   bands (ev):

[...]

          k =-0.5000-0.2887 0.0000 ( 25090 PWs)   bands (ev):

   -11.1087 -11.1014 -11.0203 -11.0112 -11.0041 -11.0006 -10.9904 -10.9885
   -10.9766 -10.9509 -10.9364 -10.9344 -10.9074 -10.8751 -10.8728 -10.8691
   -10.8641 -10.8473 -10.8370 -10.8323 -10.8099 -10.7991 -10.7923 -10.7689
   -10.7612 -10.7484 -10.7365 -10.7264 -10.7133 -10.7017 -10.6994 -10.6896
   -10.6724 -10.6629 -10.6546 -10.6519 -10.6261 -10.6213 -10.6168 -10.6051
   -10.5877 -10.5840 -10.5825 -10.5629 -10.5542 -10.5535 -10.5508 -10.5408
   -10.5381 -10.5295 -10.5268 -10.5181 -10.4748 -10.4471 -10.4326 -10.4251
   -10.4194 -10.4059 -10.3338 -10.3313  -7.4303  -7.3662  -6.4622  -6.1895
    -5.0100  -4.8882  -4.8463  -4.8093  -4.0389  -3.8689  -2.9495  -2.9353
    -0.8180   0.3280   0.6532   0.8910   0.9363   1.3047   1.4817   1.8534
     1.8546   2.3066   2.4656   2.5756   3.2228   3.6644   3.7017   3.7384

     the Fermi energy is     1.1353 ev

!    total energy              =   -1762.68822566 Ry
     Harris-Foulkes estimate   =   -1762.68822506 Ry
     estimated scf accuracy    <       0.00000067 Ry

     The total energy is the sum of the following terms:

     one-electron contribution =   -8000.39690801 Ry
     hartree contribution      =    4083.15316631 Ry
     xc contribution           =    -768.98683395 Ry
     ewald contribution        =    2923.58356812 Ry
     electric field correction =       0.00001725 Ry
     smearing contrib. (-TS)   =      -0.04123538 Ry

     convergence has been achieved in   6 iterations

     Forces acting on atoms (Ry/au):

     negative rho (up, down):  6.305E-01 0.000E+00
     atom    1 type  1   force =    -0.00125627   -0.00072156   -0.02297595
     atom    2 type  1   force =     0.00124988   -0.00072568   -0.02297902
     atom    3 type  1   force =    -0.00000085    0.00144364   -0.02297947
     atom    4 type  1   force =     0.00000162    0.00000113   -0.02394473
     atom    5 type  1   force =     0.00000065    0.00294135    0.01997419
     atom    6 type  1   force =    -0.00000072   -0.00000021    0.02909022
     atom    7 type  1   force =    -0.00254800   -0.00147099    0.01997471
     atom    8 type  1   force =     0.00254893   -0.00147070    0.01997228
     atom    9 type  1   force =    -0.00000180   -0.00000067    0.00114020
     atom   10 type  1   force =     0.00000655    0.00062058    0.00105695
     atom   11 type  1   force =     0.00054297   -0.00030448    0.00105222
     atom   12 type  1   force =    -0.00054236   -0.00031284    0.00105161
     atom   13 type  2   force =    -0.00000061    0.00000042   -0.00043323

     Total force =     0.002446     Total SCF correction =     0.002507
     SCF correction compared to forces is large: reduce conv_thr to get better values

     bfgs converged in   3 scf cycles and   2 bfgs steps
     (criteria: energy <  1.0E+12, force <  1.9E-03)

     End of BFGS Geometry Optimization

     Final energy   =   -1762.6882256588 Ry
Begin final coordinates

ATOMIC_POSITIONS (angstrom)
Tl       1.671975640   0.965315586  10.000000000    0   0   0
Tl       5.015926920   0.965315586  10.000000000    0   0   0
Tl       3.343951280   3.861262344  10.000000000    0   0   0
Tl       6.687902560   3.861262344  10.000000000    0   0   0
Tl       6.687902560   1.930631172  12.730324787    0   0   0
Tl       3.343951280   1.930631172  12.730324787    0   0   0
Tl       8.359878201   4.826577930  12.730324787    0   0   0
Tl       5.015926920   4.826577930  12.730324787    0   0   0
Tl       0.000008305   0.000007056  15.624369482
Tl       3.343939934  -0.004869676  16.169374703
Tl       1.667732803   2.898370190  16.169403332
Tl       5.020157030   2.898398318  16.169296809
H        3.343936880   1.930640846  17.435488232
End final coordinates

     Writing output data file calc.save

     General routines

     Parallel routines

   This run was terminated on:  22:21: 7  11Jan2019

   JOB DONE.
Job  /afs/slac/g/suncat/bin/suncat-tsmpirun -x LD_LIBRARY_PATH -wdir /tmp/qe_673436jmuhcww2_scratch pw.x -npool 2 -in pw.pwi

TID   HOST_NAME   COMMAND_LINE            STATUS            TERMINATION_TIME
00000 suncat2060 pw.x -npool 2 -i  Done                     01/11/2019 22:21:07
00001 suncat2060 pw.x -npool 2 -i  Done                     01/11/2019 22:21:07
00002 suncat2060 pw.x -npool 2 -i  Done                     01/11/2019 22:21:07
00003 suncat2060 pw.x -npool 2 -i  Done                     01/11/2019 22:21:07
00004 suncat2060 pw.x -npool 2 -i  Done                     01/11/2019 22:21:07
00005 suncat2060 pw.x -npool 2 -i  Done                     01/11/2019 22:21:07
00006 suncat2060 pw.x -npool 2 -i  Done                     01/11/2019 22:21:07
00007 suncat2060 pw.x -npool 2 -i  Done                     01/11/2019 22:21:07
00008 suncat2060 pw.x -npool 2 -i  Done                     01/11/2019 22:21:07
00009 suncat2060 pw.x -npool 2 -i  Done                     01/11/2019 22:21:07
00010 suncat2060 pw.x -npool 2 -i  Done                     01/11/2019 22:21:07
00011 suncat2060 pw.x -npool 2 -i  Done                     01/11/2019 22:21:07
00012 suncat2060 pw.x -npool 2 -i  Done                     01/11/2019 22:21:07
00013 suncat2060 pw.x -npool 2 -i  Done                     01/11/2019 22:21:07
00014 suncat2060 pw.x -npool 2 -i  Done                     01/11/2019 22:21:07
00015 suncat2060 pw.x -npool 2 -i  Done                     01/11/2019 22:21:07
00016 suncat2055 pw.x -npool 2 -i  Done                     01/11/2019 22:21:07
00017 suncat2055 pw.x -npool 2 -i  Done                     01/11/2019 22:21:07
00018 suncat2055 pw.x -npool 2 -i  Done                     01/11/2019 22:21:07
00019 suncat2055 pw.x -npool 2 -i  Done                     01/11/2019 22:21:07
00020 suncat2055 pw.x -npool 2 -i  Done                     01/11/2019 22:21:07
00021 suncat2055 pw.x -npool 2 -i  Done                     01/11/2019 22:21:07
00022 suncat2055 pw.x -npool 2 -i  Done                     01/11/2019 22:21:07
00023 suncat2055 pw.x -npool 2 -i  Done                     01/11/2019 22:21:07
00024 suncat2055 pw.x -npool 2 -i  Done                     01/11/2019 22:21:07
00025 suncat2055 pw.x -npool 2 -i  Done                     01/11/2019 22:21:07
00026 suncat2055 pw.x -npool 2 -i  Done                     01/11/2019 22:21:07
00027 suncat2055 pw.x -npool 2 -i  Done                     01/11/2019 22:21:07
00028 suncat2055 pw.x -npool 2 -i  Done                     01/11/2019 22:21:07
00029 suncat2055 pw.x -npool 2 -i  Done                     01/11/2019 22:21:07
00030 suncat2055 pw.x -npool 2 -i  Done                     01/11/2019 22:21:07
00031 suncat2055 pw.x -npool 2 -i  Done                     01/11/2019 22:21:07