     Program PWSCF v.6.1 starts on 12Jan2019 at  0:53:54

     Current dimensions of program PWSCF are:
     Max number of different atomic species (ntypx) = 10
     Max number of k-points (npk) =  40000
     Max angular momentum in pseudopotentials (lmaxx) =  3

     IMPORTANT: XC functional enforced from input :
     Exchange-correlation      = BEEF-VDW ( 1  4 29 14 2 0)
     Any further DFT definition will be discarded
     Please, verify this is what you really want

     bravais-lattice index     =            0
     lattice parameter (alat)  =      12.6383  a.u.
     unit-cell volume          =    6655.4372 (a.u.)^3
     number of atoms/cell      =           13
     number of atomic types    =            2
     number of electrons       =       161.00
     number of Kohn-Sham states=           90
     kinetic-energy cutoff     =      36.7493  Ry
     charge density cutoff     =     367.4933  Ry
     convergence threshold     =      1.0E-04
     mixing beta               =       0.2000
     number of iterations used =            8  plain     mixing
     Exchange-correlation      = BEEF-VDW ( 1  4 29 14 2 0)
     nstep                     =           50

     celldm(1)=  12.638304  celldm(2)=   0.000000  celldm(3)=   0.000000
     celldm(4)=   0.000000  celldm(5)=   0.000000  celldm(6)=   0.000000

     crystal axes: (cart. coord. in units of alat)
               a(1) = (   1.000000   0.000000   0.000000 )
               a(2) = (   0.500000   0.866025   0.000000 )
               a(3) = (   0.000000   0.000000   3.806971 )

     reciprocal axes: (cart. coord. in units 2 pi/alat)
               b(1) = (  1.000000 -0.577350  0.000000 )
               b(2) = (  0.000000  1.154701  0.000000 )
               b(3) = (  0.000000  0.000000  0.262676 )

     PseudoPot. # 1 for Tl read from file:
     /home/users/mamunm/src/decaf-espresso/gbrv15pbe/Tl.UPF
     MD5 check sum: b76cf1f7e72655a2b2c53cf6385d7059
     Pseudo is Ultrasoft + core correction, Zval = 13.0
     Generated by new atomic code, or converted to UPF format
     Using radial grid of  899 points,  6 beta functions with:
                l(1) =   0
                l(2) =   0
                l(3) =   1
                l(4) =   1
                l(5) =   2
                l(6) =   2
     Q(r) pseudized with  6 coefficients,  rinner =    1.100   1.100   1.100
                                                       1.100   1.100

     PseudoPot. # 2 for N  read from file:
     /home/users/mamunm/src/decaf-espresso/gbrv15pbe/N.UPF
     MD5 check sum: 95339753478d7afb44899504a8723017
     Pseudo is Ultrasoft + core correction, Zval =  5.0
     Generated by new atomic code, or converted to UPF format
     Using radial grid of  729 points,  4 beta functions with:
                l(1) =   0
                l(2) =   0
                l(3) =   1
                l(4) =   1
     Q(r) pseudized with  8 coefficients,  rinner =    0.900   0.900   0.900

     vdW kernel table read from file vdW_kernel_table
     MD5 check sum: 095c7af220d748ca6e76c0b4c6cfb241

     atomic species   valence    mass     pseudopotential
        Tl            13.00   204.38000     Tl( 1.00)
        N              5.00    14.00700     N ( 1.00)

     No symmetry found

   Cartesian axes

     site n.     atom                  positions (alat units)
         1           Tl  tau(   1) = (   0.2500000   0.1443376   1.4952371  )
         2           Tl  tau(   2) = (   0.7500000   0.1443376   1.4952371  )
         3           Tl  tau(   3) = (   0.5000000   0.5773503   1.4952371  )
         4           Tl  tau(   4) = (   1.0000000   0.5773503   1.4952371  )
         5           Tl  tau(   5) = (   1.0000000   0.2886751   1.9034854  )
         6           Tl  tau(   6) = (   0.5000000   0.2886751   1.9034854  )
         7           Tl  tau(   7) = (   1.2500000   0.7216878   1.9034854  )
         8           Tl  tau(   8) = (   0.7500000   0.7216878   1.9034854  )
         9           Tl  tau(   9) = (   0.0000027   0.0000053   2.3767886  )
        10           Tl  tau(  10) = (   0.5000016  -0.0126147   2.3701031  )
        11           Tl  tau(  11) = (   0.2390715   0.4393216   2.3701053  )
        12           Tl  tau(  12) = (   0.7609312   0.4393226   2.3701172  )
        13           N   tau(  13) = (   0.4999969   0.2886753   2.5251425  )

     number of k points=    20  Fermi-Dirac smearing, width (Ry)=  0.0110
                       cart. coord. in units 2pi/alat
        k(    1) = (   0.0000000   0.0000000   0.0000000), wk =   0.0555556
        k(    2) = (   0.0000000   0.1924501   0.0000000), wk =   0.1111111
        k(    3) = (   0.0000000   0.3849002   0.0000000), wk =   0.1111111
        k(    4) = (   0.0000000  -0.5773503   0.0000000), wk =   0.0555556
        k(    5) = (   0.1666667  -0.0962250   0.0000000), wk =   0.1111111
        k(    6) = (   0.1666667   0.0962250   0.0000000), wk =   0.1111111
        k(    7) = (   0.1666667   0.2886751   0.0000000), wk =   0.1111111
        k(    8) = (   0.1666667  -0.6735753   0.0000000), wk =   0.1111111
        k(    9) = (   0.1666667  -0.4811252   0.0000000), wk =   0.1111111
        k(   10) = (   0.1666667  -0.2886751   0.0000000), wk =   0.1111111
        k(   11) = (   0.3333333  -0.1924501   0.0000000), wk =   0.1111111
        k(   12) = (   0.3333333  -0.0000000   0.0000000), wk =   0.1111111
        k(   13) = (   0.3333333   0.1924501   0.0000000), wk =   0.1111111
        k(   14) = (   0.3333333  -0.7698004   0.0000000), wk =   0.1111111
        k(   15) = (   0.3333333  -0.5773503   0.0000000), wk =   0.1111111
        k(   16) = (   0.3333333  -0.3849002   0.0000000), wk =   0.1111111
        k(   17) = (  -0.5000000   0.2886751   0.0000000), wk =   0.0555556
        k(   18) = (  -0.5000000   0.4811252   0.0000000), wk =   0.1111111
        k(   19) = (  -0.5000000   0.6735753   0.0000000), wk =   0.1111111
        k(   20) = (  -0.5000000  -0.2886751   0.0000000), wk =   0.0555556

     Check: negative/imaginary core charge=   -0.000001    0.000000

     Initial potential from superposition of free atoms
     Check: negative starting charge=   -0.601153

     starting charge  160.94160, renormalised to  161.00000

     negative rho (up, down):  6.014E-01 0.000E+00

     %%%%%%%%%%%%%%%%%%%%%%%%%%%%%%%%%%%%%%%%%%%%%%%%%%%%%%%%%%%%%%%%%%%%%%%%
     %                                                                      %
     % You are using vdW-DF, which was implemented by the Thonhauser group. %
     % Please cite the following two papers that made this development      %
     % possible and the two reviews that describe the various versions:     %
     %                                                                      %
     %   T. Thonhauser et al., PRL 115, 136402 (2015).                      %
     %   T. Thonhauser et al., PRB 76, 125112 (2007).                       %
     %   K. Berland et al., Rep. Prog. Phys. 78, 066501 (2015).             %
     %   D.C. Langreth et al., J. Phys.: Condens. Matter 21, 084203 (2009). %
     %                                                                      %
     %                                                                      %
     % If you are calculating the stress with vdW-DF, please also cite:     %
     %                                                                      %
     %   R. Sabatini et al., J. Phys.: Condens. Matter 24, 424209 (2012).   %
     %                                                                      %
     %%%%%%%%%%%%%%%%%%%%%%%%%%%%%%%%%%%%%%%%%%%%%%%%%%%%%%%%%%%%%%%%%%%%%%%%

     Adding external electric field

     Computed dipole along edir(3) :
        Dipole               -0.0137 Ry au,         -0.0349 Debye
        Dipole field         -0.0000 Ry au,

        Potential amp.        0.0022 Ry
        Total length         43.3023 bohr

     Starting wfc are  112 randomized atomic wfcs

     Self-consistent Calculation

     iteration #  1     ecut=    36.75 Ry     beta=0.20
     Davidson diagonalization with overlap
     ethr =  1.00E-02,  avg # of iterations =  2.0

[...]

     total energy              =   -1781.00158526 Ry
     Harris-Foulkes estimate   =   -1781.92710038 Ry
     estimated scf accuracy    <       2.81609602 Ry

[...]

     End of self-consistent calculation

          k = 0.0000 0.0000 0.0000 ( 24957 PWs)   bands (ev):

   -13.1813 -11.3816 -11.3816 -11.3724 -11.3436 -11.3436 -11.2963 -11.2510
   -11.2366 -11.2366 -11.2325 -11.2325 -11.2192 -11.2041 -11.1284 -11.1284
   -11.1124 -11.0556 -11.0524 -11.0524 -11.0190 -11.0190 -11.0011 -11.0011
   -10.9380 -10.9249 -10.9249 -10.9208 -10.9208 -10.9130 -10.7505 -10.7505
   -10.7363 -10.7363 -10.7268 -10.6422 -10.6403 -10.6308 -10.6308 -10.6127
   -10.6126 -10.5716 -10.5716 -10.5669 -10.5669 -10.5485 -10.5406 -10.5012
   -10.5012 -10.4785 -10.4784 -10.4580 -10.4579 -10.4522 -10.4296 -10.4296
   -10.4160 -10.3159 -10.3159 -10.2134  -9.8964  -8.8163  -7.0868  -5.7538
    -4.2444  -4.2444  -4.1981  -4.1090  -4.1090  -3.7084  -3.2984  -3.2983
    -3.1821  -1.4781  -1.3968  -1.3968  -0.9111  -0.8007  -0.8007  -0.5784
    -0.1350  -0.1349  -0.1236   1.4219   1.4219   1.7093   2.7797   3.6781
     3.6998   3.6999

[...]

          k =-0.5000 0.2887 0.0000 ( 25090 PWs)   bands (ev):

[...]

     the Fermi energy is     1.0521 ev

!    total energy              =   -1781.67922968 Ry
     Harris-Foulkes estimate   =   -1781.67922761 Ry
     estimated scf accuracy    <       0.00005838 Ry

     The total energy is the sum of the following terms:

     one-electron contribution =   -8477.40371941 Ry
     hartree contribution      =    4323.38865675 Ry
     xc contribution           =    -773.82151956 Ry
     ewald contribution        =    3146.19626515 Ry
     electric field correction =       0.00021671 Ry
     smearing contrib. (-TS)   =      -0.03912931 Ry

     convergence has been achieved in  11 iterations

[...]

     Forces acting on atoms (cartesian axes, Ry/au):

     atom    1 type  1   force =     0.00159321    0.00091368   -0.03229774
     atom    2 type  1   force =    -0.00159842    0.00091166   -0.03231678
     atom    3 type  1   force =     0.00000712   -0.00184516   -0.03229194
     atom    4 type  1   force =    -0.00000889    0.00001582   -0.03044707
     atom    5 type  1   force =     0.00001959   -0.00323297    0.02229613
     atom    6 type  1   force =    -0.00002421   -0.00003626    0.02426239
     atom    7 type  1   force =     0.00280424    0.00162767    0.02226226
     atom    8 type  1   force =    -0.00275505    0.00165058    0.02220649
     atom    9 type  1   force =     0.00000972    0.00000655    0.00920255
     atom   10 type  1   force =     0.00000722    0.00545271    0.00992471
     atom   11 type  1   force =     0.00464058   -0.00278460    0.00989804
     atom   12 type  1   force =    -0.00469634   -0.00268199    0.00986439
     atom   13 type  2   force =     0.00000123    0.00000231   -0.00256345

     Total force =     0.021756     Total SCF correction =     0.020118
     SCF correction compared to forces is large: reduce conv_thr to get better values

     BFGS Geometry Optimization

     number of scf cycles    =   1
     number of bfgs steps    =   0

     energy   new            =   -1781.6792296782 Ry

     new trust radius        =       0.0113239592 bohr
     new conv_thr            =       0.0001000000 Ry

ATOMIC_POSITIONS (angstrom)
Tl       1.671975640   0.965315586  10.000000000    0   0   0
Tl       5.015926920   0.965315586  10.000000000    0   0   0
Tl       3.343951280   3.861262344  10.000000000    0   0   0
Tl       6.687902560   3.861262344  10.000000000    0   0   0
Tl       6.687902560   1.930631172  12.730324787    0   0   0
Tl       3.343951280   1.930631172  12.730324787    0   0   0
Tl       8.359878201   4.826577930  12.730324787    0   0   0
Tl       5.015926920   4.826577930  12.730324787    0   0   0
Tl       0.000023035   0.000039150  15.900600571
Tl       3.343966007  -0.081480591  15.856270282
Tl       1.601342646   2.936666691  15.856270835
Tl       5.086548444   2.936727351  15.856332947
N        3.343930990   1.930633678  16.886550657

     Writing output data file calc.save
     Check: negative starting charge=   -0.601153
     NEW-OLD atomic charge density approx. for the potential

     Check: negative/imaginary core charge=   -0.000001    0.000000
     Check: negative starting charge=   -0.600891

[...]

     number of scf cycles    =   2
     number of bfgs steps    =   1

     energy   old            =   -1781.6792296782 Ry
     energy   new            =   -1781.6793402042 Ry

     CASE: energy  _new < energy  _old

     new trust radius        =       0.0124563551 bohr
     new conv_thr            =       0.0000010000 Ry

ATOMIC_POSITIONS (angstrom)
Tl       1.671975640   0.965315586  10.000000000    0   0   0
Tl       5.015926920   0.965315586  10.000000000    0   0   0
Tl       3.343951280   3.861262344  10.000000000    0   0   0
Tl       6.687902560   3.861262344  10.000000000    0   0   0
Tl       6.687902560   1.930631172  12.730324787    0   0   0
Tl       3.343951280   1.930631172  12.730324787    0   0   0
Tl       8.359878201   4.826577930  12.730324787    0   0   0
Tl       5.015926920   4.826577930  12.730324787    0   0   0
Tl       0.000023171   0.000026551  15.903658937
Tl       3.343963140  -0.077146466  15.861233516
Tl       1.605105872   2.934513820  15.861230438
Tl       5.082789319   2.934559743  15.861294792
N        3.343936006   1.930636984  16.883691273

     Writing output data file calc.save
     Check: negative starting charge=   -0.600891
     NEW-OLD atomic charge density approx. for the potential

     Check: negative/imaginary core charge=   -0.000001    0.000000
     Check: negative starting charge=   -0.600569

[...]

     Self-consistent Calculation

[...]

     total energy              =   -1781.67946123 Ry
     Harris-Foulkes estimate   =   -1781.67946241 Ry
     estimated scf accuracy    <       0.00000217 Ry

     iteration #  7     ecut=    36.75 Ry     beta=0.20
     Davidson diagonalization with overlap
     ethr =  1.35E-09,  avg # of iterations =  3.0

[...]

     Adding external electric field

     Computed dipole along edir(3) :
        Dipole               -0.2949 Ry au,         -0.7496 Debye
        Dipole field         -0.0006 Ry au,

        Potential amp.        0.0482 Ry
        Total length         43.3023 bohr

     End of self-consistent calculation

[...]

          k = 0.3333-0.3849 0.0000 ( 25036 PWs)   bands (ev):

[...]

          k =-0.5000-0.2887 0.0000 ( 25090 PWs)   bands (ev):

   -13.1794 -11.2922 -11.2357 -11.2224 -11.1736 -11.1536 -11.1454 -11.1275
   -11.1249 -11.1145 -11.1106 -11.0960 -11.0948 -11.0805 -11.0557 -11.0495
   -11.0040 -10.9995 -10.9705 -10.9668 -10.9489 -10.9317 -10.9300 -10.9184
   -10.9165 -10.8659 -10.8554 -10.8461 -10.8185 -10.8164 -10.8071 -10.7903
   -10.7731 -10.7510 -10.7423 -10.7304 -10.7203 -10.7158 -10.7138 -10.6924
   -10.6842 -10.6792 -10.6744 -10.6682 -10.6595 -10.6405 -10.6401 -10.6247
   -10.6096 -10.5990 -10.5809 -10.5618 -10.5553 -10.5540 -10.5276 -10.5219
   -10.4654 -10.4558 -10.4366 -10.2980  -9.6462  -7.5759  -7.4962  -6.5704
    -5.7715  -5.0753  -5.0401  -4.9708  -4.6691  -4.4527  -3.5088  -3.1317
    -2.9561  -1.1255   0.0705   0.1617   0.4648   0.5557   0.8307   0.9122
     1.1199   1.4207   1.7841   2.2797   2.3250   2.7089   2.7307   3.2752
     3.5549   3.6615

     the Fermi energy is     1.0647 ev

!    total energy              =   -1781.67946017 Ry
     Harris-Foulkes estimate   =   -1781.67946882 Ry
     estimated scf accuracy    <       0.00000064 Ry

     The total energy is the sum of the following terms:

     one-electron contribution =   -8467.09144587 Ry
     hartree contribution      =    4318.12304848 Ry
     xc contribution           =    -773.82939734 Ry
     ewald contribution        =    3141.15728115 Ry
     electric field correction =       0.00016423 Ry
     smearing contrib. (-TS)   =      -0.03911082 Ry

     convergence has been achieved in   7 iterations

     negative rho (up, down):  6.286E-01 0.000E+00

     Forces acting on atoms (cartesian axes, Ry/au):

     atom    1 type  1   force =     0.00111117    0.00064201   -0.02278826
     atom    2 type  1   force =    -0.00111098    0.00064149   -0.02278572
     atom    3 type  1   force =    -0.00000113   -0.00128331   -0.02278792
     atom    4 type  1   force =     0.00000120   -0.00000069   -0.02102030
     atom    5 type  1   force =    -0.00000268   -0.00030097    0.02308052
     atom    6 type  1   force =     0.00000135    0.00000335    0.02270663
     atom    7 type  1   force =     0.00026348    0.00014935    0.02308222
     atom    8 type  1   force =    -0.00026341    0.00014756    0.02308614
     atom    9 type  1   force =    -0.00000383   -0.00000883   -0.00087479
     atom   10 type  1   force =     0.00000364   -0.00044382   -0.00024636
     atom   11 type  1   force =    -0.00037106    0.00022870   -0.00024472
     atom   12 type  1   force =     0.00037107    0.00022088   -0.00024371
     atom   13 type  2   force =     0.00000118    0.00000428   -0.00096372

     Total force =     0.001564     Total SCF correction =     0.000799
     SCF correction compared to forces is large: reduce conv_thr to get better values

     bfgs converged in   3 scf cycles and   2 bfgs steps
     (criteria: energy <  1.0E+12 Ry, force <  1.9E-03 Ry/Bohr)

     End of BFGS Geometry Optimization

     Final energy   =   -1781.6794601743 Ry
Begin final coordinates

ATOMIC_POSITIONS (angstrom)
Tl       1.671975640   0.965315586  10.000000000    0   0   0
Tl       5.015926920   0.965315586  10.000000000    0   0   0
Tl       3.343951280   3.861262344  10.000000000    0   0   0
Tl       6.687902560   3.861262344  10.000000000    0   0   0
Tl       6.687902560   1.930631172  12.730324787    0   0   0
Tl       3.343951280   1.930631172  12.730324787    0   0   0
Tl       8.359878201   4.826577930  12.730324787    0   0   0
Tl       5.015926920   4.826577930  12.730324787    0   0   0
Tl       0.000023171   0.000026551  15.903658937
Tl       3.343963140  -0.077146466  15.861233516
Tl       1.605105872   2.934513820  15.861230438
Tl       5.082789319   2.934559743  15.861294792
N        3.343936006   1.930636984  16.883691273
End final coordinates

     Writing output data file calc.save

     General routines

     Parallel routines

   This run was terminated on:   1: 0:10  12Jan2019

   JOB DONE.