     Program PWSCF v.5.1rc2 (svn rev. ) starts on 18Apr2018 at  4: 5: 2

     Current dimensions of program PWSCF are:
     Max number of different atomic species (ntypx) = 10
     Max number of k-points (npk) =  40000
     Max angular momentum in pseudopotentials (lmaxx) =  3
     Presently stress not available with electric field

     IMPORTANT: XC functional enforced from input :
     Exchange-correlation      = BEEF-VDW ( 1  4 27 13 2)
     Any further DFT definition will be discarded
     Please, verify this is what you really want

     Subspace diagonalization in iterative solution of the eigenvalue problem:
     a serial algorithm will be used

     bravais-lattice index     =            0
     lattice parameter (alat)  =       1.8897  a.u.
     unit-cell volume          =    6024.3322 (a.u.)^3
     number of atoms/cell      =           15
     number of atomic types    =            3
     number of electrons       =       150.00
     number of Kohn-Sham states=           85
     kinetic-energy cutoff     =      36.7493  Ry
     charge density cutoff     =     367.4932  Ry
     convergence threshold     =      1.0E-05
     mixing beta               =       0.3000
     number of iterations used =           10  plain     mixing
     Exchange-correlation      = BEEF-VDW ( 1  4 27 13 2)
     nstep                     =           50

     celldm(1)=   1.889726  celldm(2)=   0.000000  celldm(3)=   0.000000
     celldm(4)=   0.000000  celldm(5)=   0.000000  celldm(6)=   0.000000

     crystal axes: (cart. coord. in units of alat)
               a(1) = (   6.393197   0.000000   0.000000 )
               a(2) = (   3.196599   5.536671   0.000000 )
               a(3) = (   0.000000   0.000000  25.220024 )

     reciprocal axes: (cart. coord. in units 2 pi/alat)
               b(1) = (  0.156416 -0.090307  0.000000 )
               b(2) = (  0.000000  0.180614  0.000000 )
               b(3) = (  0.000000  0.000000  0.039651 )

     PseudoPot. # 1 for Hf read from file:
     /home/mamunm/src/pseudo/gbrv1.5pbe/Hf.UPF
     MD5 check sum: 8ee9378dfe14276e333edf04c5e4aa26
     Pseudo is Ultrasoft + core correction, Zval = 12.0
     Generated by new atomic code, or converted to UPF format
     Using radial grid of  921 points,  8 beta functions with:
                l(1) =   0
                l(2) =   0
                l(3) =   0
                l(4) =   1
                l(5) =   1
                l(6) =   2
                l(7) =   2
                l(8) =   3
     Q(r) pseudized with  6 coefficients,  rinner =    1.200   1.200   1.200
                                                       1.200   1.200   1.200
                                                       1.200

     PseudoPot. # 2 for C  read from file:
     /home/mamunm/src/pseudo/gbrv1.5pbe/C.UPF
     MD5 check sum: d1aef80898a10debaa0f26306b886e00
     Pseudo is Ultrasoft + core correction, Zval =  4.0
     Generated by new atomic code, or converted to UPF format
     Using radial grid of  721 points,  4 beta functions with:
                l(1) =   0
                l(2) =   0
                l(3) =   1
                l(4) =   1
     Q(r) pseudized with  8 coefficients,  rinner =    1.100   1.100   1.100

     PseudoPot. # 3 for H  read from file:
     /home/mamunm/src/pseudo/gbrv1.5pbe/H.UPF
     MD5 check sum: 761ae9a214b05c3daf00ab9f6b793d6f
     Pseudo is Ultrasoft, Zval =  1.0
     Generated by new atomic code, or converted to UPF format
     Using radial grid of  615 points,  2 beta functions with:
                l(1) =   0
                l(2) =   0
     Q(r) pseudized with  8 coefficients,  rinner =    0.700

     vdW kernel table read from file vdW_kernel_table
     MD5 check sum: 095c7af220d748ca6e76c0b4c6cfb241

     atomic species   valence    mass     pseudopotential
        Hf1           12.00   178.49000     Hf( 1.00)
        C1             4.00    12.01100     C ( 1.00)
        H1             1.00     1.00800     H ( 1.00)

     No symmetry found

   Cartesian axes

     site n.     atom                  positions (alat units)
         1           Hf1 tau(   1) = (   1.5982993   0.9227785  10.0000000  )
         2           Hf1 tau(   2) = (   4.7948978   0.9227785  10.0000000  )
         3           Hf1 tau(   3) = (   3.1965986   3.6911141  10.0000000  )
         4           Hf1 tau(   4) = (   6.3931971   3.6911141  10.0000000  )
         5           Hf1 tau(   5) = (   6.3931971   1.8455570  12.6100118  )
         6           Hf1 tau(   6) = (   3.1965986   1.8455570  12.6100118  )
         7           Hf1 tau(   7) = (   7.9914964   4.6138926  12.6100118  )
         8           Hf1 tau(   8) = (   4.7948978   4.6138926  12.6100118  )
         9           Hf1 tau(   9) = (   0.0000000   0.0000000  15.2200236  )
        10           Hf1 tau(  10) = (   3.1965986   0.0000000  15.2200236  )
        11           Hf1 tau(  11) = (   1.5982993   2.7683356  15.2200236  )
        12           Hf1 tau(  12) = (   4.7948978   2.7683356  15.2200236  )
        13           C1  tau(  13) = (   3.1965986   1.8455570  16.8515236  )
        14           H1  tau(  14) = (   3.8265986   2.4755570  17.4815236  )
        15           H1  tau(  15) = (   2.5665986   1.2155570  17.4815236  )

     number of k points=    20  Fermi-Dirac smearing, width (Ry)=  0.0110
                       cart. coord. in units 2pi/alat
        k(    1) = (   0.0000000   0.0000000   0.0000000), wk =   0.0555556
        k(    2) = (   0.0000000   0.0301023   0.0000000), wk =   0.1111111
        k(    3) = (   0.0000000   0.0602046   0.0000000), wk =   0.1111111
        k(    4) = (   0.0000000  -0.0903070   0.0000000), wk =   0.0555556
        k(    5) = (   0.0260694  -0.0150512   0.0000000), wk =   0.1111111
        k(    6) = (   0.0260694   0.0150512   0.0000000), wk =   0.1111111
        k(    7) = (   0.0260694   0.0451535   0.0000000), wk =   0.1111111
        k(    8) = (   0.0260694  -0.1053581   0.0000000), wk =   0.1111111
        k(    9) = (   0.0260694  -0.0752558   0.0000000), wk =   0.1111111
        k(   10) = (   0.0260694  -0.0451535   0.0000000), wk =   0.1111111
        k(   11) = (   0.0521388  -0.0301023   0.0000000), wk =   0.1111111
        k(   12) = (   0.0521388   0.0000000   0.0000000), wk =   0.1111111
        k(   13) = (   0.0521388   0.0301023   0.0000000), wk =   0.1111111
        k(   14) = (   0.0521388  -0.1204093   0.0000000), wk =   0.1111111
        k(   15) = (   0.0521388  -0.0903070   0.0000000), wk =   0.1111111
        k(   16) = (   0.0521388  -0.0602046   0.0000000), wk =   0.1111111
        k(   17) = (  -0.0782081   0.0451535   0.0000000), wk =   0.0555556
        k(   18) = (  -0.0782081   0.0752558   0.0000000), wk =   0.1111111
        k(   19) = (  -0.0782081   0.1053581   0.0000000), wk =   0.1111111
        k(   20) = (  -0.0782081  -0.0451535   0.0000000), wk =   0.0555556

     Largest allocated arrays     est. size (Mb)     dimensions
     Largest temporary arrays     est. size (Mb)     dimensions

     Check: negative/imaginary core charge=   -0.000003    0.000000

     Initial potential from superposition of free atoms
     Check: negative starting charge=   -1.301276

     starting charge  125.99992, renormalised to  150.00000

     negative rho (up, down):  1.549E+00 0.000E+00

     *
     * You are using vdW-DF for exchange-correlation in this calculation.
     * Please cite the following three references that made this development
     * possible:
     *
     *   M. Dion, H. Rydberg, E. Schroder, D. C. Langreth, and
     *   B. I. Lundqvist, Phys. Rev. Lett. 92, 246401 (2004).
     *
     *   T. Thonhauser, V. R. Cooper, S. Li, A. Puzder, P. Hyldgaard, and
     *   D. C. Langreth, Phys. Rev. B 76, 125112 (2007).
     *
     *   G. Roman-Perez and J. M. Soler, Phys. Rev. Lett. 103, 096102 (2009).
     *
     *
     * If you are using vdW-DF2, please also cite:
     *
     *   K. Lee, E. D. Murray, L. Kong, B. I. Lundqvist, and
     *   D. C. Langreth, Phys. Rev. B 82, 081101(R) (2010).
     *
     *
     * If you are calculating the stress with vdW-DF, please also cite:
     *
     *   R. Sabatini, E. Kucukbenli, B. Kolb, T. Thonhauser, and
     *   S. de Gironcoli, J. Phys.: Condens. Matter 24, 424209 (2012).
     *

     Carrying out vdW-DF run using the following parameters:

     Nqs =      20    Nr_points =    1024   r_max =   100.000
     q_mesh =
               0.00001000     0.04494208     0.09755937     0.15916263
               0.23128650     0.31572767     0.41458969     0.53033537
               0.66584808     0.82450364     1.01025438     1.22772762
               1.48234092     1.78043706     2.12944203     2.53805004
               3.01644009     3.57652955     4.23227104     5.00000000

     Gradients computed in reciprocal space

     Adding external electric field

     Computed dipole along edir(3) :
        Dipole               -9.6133 Ry au,        -24.4346 Debye
        Dipole field         -0.0201 Ry au

        Potential amp.        1.8636 Ry
        Total length         46.4675 bohr

     Starting wfc are  162 randomized atomic wfcs

     Self-consistent Calculation

     iteration #  1     ecut=    36.75 Ry     beta=0.30
     Davidson diagonalization with overlap
     ethr =  1.00E-02,  avg # of iterations =  9.7

[...]

     total energy              =   -1268.21410368 Ry
     Harris-Foulkes estimate   =   -1928.73368948 Ry
     estimated scf accuracy    <    1418.87226841 Ry

[...]

     End of self-consistent calculation

          k = 0.0000 0.0000 0.0000 ( 22729 PWs)   bands (ev):

   -61.0680 -61.0316 -61.0307 -60.9999 -60.9991 -60.9906 -60.9581 -60.8848
   -60.6115 -60.5853 -60.5780 -60.5453 -29.8053 -29.7892 -29.7854 -29.7710
   -29.7609 -29.7416 -29.7384 -29.6677 -29.6385 -29.6067 -29.5903 -29.5583
   -29.5265 -29.4687 -29.3832 -29.3706 -29.3692 -29.3679 -29.3596 -29.3230
   -29.3077 -29.3025 -29.2892 -29.2411 -29.2409 -29.2078 -29.1961 -29.0735
   -29.0674 -29.0582 -29.0181 -28.9785 -28.9589 -28.9562 -28.8430 -28.8414
   -10.7687  -5.1138  -4.9144  -3.7485  -2.6322  -1.9842  -1.6292  -1.3964
    -1.3678  -1.2012  -1.1612  -0.9942  -0.9506  -0.7012  -0.1622  -0.1284
    -0.1025  -0.0417   0.1481   0.6716   0.8495   0.8773   1.6031   1.7795
     1.9647   1.9777   1.9910   2.0915   2.1822   2.3214   2.4579   2.6055
     2.6787   2.7409   2.8066   2.8605   2.9112

[...]

          k =-0.0782 0.0452 0.0000 ( 22668 PWs)   bands (ev):

[...]

     the Fermi energy is     1.6056 ev

!    total energy              =   -1940.66475046 Ry
     Harris-Foulkes estimate   =   -1940.66476873 Ry
     estimated scf accuracy    <       0.00000863 Ry

     The total energy is the sum of the following terms:

     one-electron contribution =   -8561.67935128 Ry
     hartree contribution      =    4266.63443348 Ry
     xc contribution           =    -932.96648500 Ry
     ewald contribution        =    3287.46339119 Ry
     electric field correction =       0.00003426 Ry
     smearing contrib. (-TS)   =      -0.11677310 Ry

     convergence has been achieved in  33 iterations

 BEEF-vdW xc energy contributions
           1 :   -843.416797606026
           2 :    783.770482122853
           3 :   -678.125487091913
           4 :    548.369061976573
           5 :   -417.097024174700
           6 :    301.287373196212
           7 :   -209.540576425693
           8 :    142.997203160940
           9 :   -98.3993565874944
          10 :    71.0901163242331
          11 :   -56.5837469257629
          12 :    50.6402602486125
          13 :   -48.8314833102716
          14 :    46.6054199477228
          15 :   -40.2058147839250
          16 :    27.9283170629512
          17 :   -10.8494550858652
          18 :   -7.58818653296453
          19 :    23.0387078496246
          20 :   -32.0675379364566
          21 :    33.4227643764284
          22 :   -28.2353989162229
          23 :    19.2216275685823
          24 :   -9.47217333567448
          25 :    1.48178910428646
          26 :    3.23204987269287
          27 :   -4.03514957156949
          28 :   0.965035992098933
          29 :    5.31544998071377
          30 :   -13.4284718927188
          31 :   -60.8051531294846
          32 :   -43.7228342073117

     Forces acting on atoms (Ry/au):

     negative rho (up, down):  1.380E+00 0.000E+00
     atom    1 type  1   force =    -0.00007520    0.00014652    0.02340909
     atom    2 type  1   force =     0.00034548   -0.00047277    0.02417002
     atom    3 type  1   force =    -0.00040782    0.00026310    0.02373932
     atom    4 type  1   force =     0.00070805    0.00005317    0.02478534
     atom    5 type  1   force =    -0.00176516   -0.00033466   -0.00455804
     atom    6 type  1   force =     0.00130049    0.00009480   -0.00564667
     atom    7 type  1   force =     0.00086812    0.00149996   -0.00574233
     atom    8 type  1   force =     0.00036612   -0.00125610   -0.00335433
     atom    9 type  1   force =    -0.00216485    0.00025814   -0.04257090
     atom   10 type  1   force =    -0.00253670    0.02659766    0.00704452
     atom   11 type  1   force =     0.01182570   -0.00859267   -0.00271749
     atom   12 type  1   force =    -0.03554389   -0.01897602    0.01683049
     atom   13 type  2   force =     0.01884481   -0.00004270   -0.08171581
     atom   14 type  3   force =     0.00878950    0.00458757    0.01332479
     atom   15 type  3   force =    -0.00055464   -0.00382599    0.01300200

     Total force =     0.110457     Total SCF correction =     0.004760

     entering subroutine stress ...

     negative rho (up, down):  1.380E+00 0.000E+00
          total   stress  (Ry/bohr**3)                   (kbar)     P=  -24.78
  -0.00016075  -0.00000589   0.00001389        -23.65     -0.87      2.04
  -0.00000589  -0.00016074   0.00000050         -0.87    -23.65      0.07
   0.00001389   0.00000050  -0.00018392          2.04      0.07    -27.06

     BFGS Geometry Optimization

     number of scf cycles    =   1
     number of bfgs steps    =   0

     energy   new            =   -1940.6647504565 Ry

     new trust radius        =       0.0838606151 bohr
     new conv_thr            =       0.0000099958 Ry

ATOMIC_POSITIONS (crystal)
Hf1      0.166666667   0.166666667   0.396510335    0   0   0
Hf1      0.666666667   0.166666667   0.396510335    0   0   0
Hf1      0.166666667   0.666666667   0.396510335    0   0   0
Hf1      0.666666667   0.666666667   0.396510335    0   0   0
Hf1      0.833333333   0.333333333   0.500000000    0   0   0
Hf1      0.333333333   0.333333333   0.500000000    0   0   0
Hf1      0.833333333   0.833333333   0.500000000    0   0   0
Hf1      0.333333333   0.833333333   0.500000000    0   0   0
Hf1     -0.000191525   0.000024672   0.602596425
Hf1      0.498518973   0.002542119   0.603637476
Hf1      0.001389466   0.499178740   0.603432646
Hf1      0.497964797   0.498186333   0.603842810
C1       0.334895195   0.333329252   0.666465731
H1       0.375490478   0.447558582   0.693440064
H1       0.291821409   0.219180874   0.693433291

     Writing output data file calc.save
     Check: negative starting charge=   -1.301276
     NEW-OLD atomic charge density approx. for the potential

     Check: negative/imaginary core charge=   -0.000003    0.000000
     Check: negative starting charge=   -1.301157

[...]

     energy   old            =   -1940.6647504565 Ry
     energy   new            =   -1940.6735766444 Ry

     CASE: energy  _new < energy  _old

[...]

     iteration #  1     ecut=    36.75 Ry     beta=0.30
     Davidson diagonalization with overlap
     c_bands:  1 eigenvalues not converged
     ethr =  1.00E-06,  avg # of iterations = 15.2

[...]

     iteration #  6     ecut=    36.75 Ry     beta=0.30
     Davidson diagonalization with overlap
     c_bands:  1 eigenvalues not converged
     ethr =  3.79E-06,  avg # of iterations =  3.5

[...]

     Total force =     0.005437     Total SCF correction =     0.000580
     SCF correction compared to forces is large: reduce conv_thr to get better values

[...]

     Total force =     0.004984     Total SCF correction =     0.000406

[...]

     number of scf cycles    =  46
     number of bfgs steps    =  45

     energy   old            =   -1940.7016474764 Ry
     energy   new            =   -1940.7017008279 Ry

     CASE: energy  _new < energy  _old

     new trust radius        =       0.0219993114 bohr
     new conv_thr            =       0.0000001000 Ry

ATOMIC_POSITIONS (crystal)
Hf1      0.166666667   0.166666667   0.396510335    0   0   0
Hf1      0.666666667   0.166666667   0.396510335    0   0   0
Hf1      0.166666667   0.666666667   0.396510335    0   0   0
Hf1      0.666666667   0.666666667   0.396510335    0   0   0
Hf1      0.833333333   0.333333333   0.500000000    0   0   0
Hf1      0.333333333   0.333333333   0.500000000    0   0   0
Hf1      0.833333333   0.833333333   0.500000000    0   0   0
Hf1      0.333333333   0.833333333   0.500000000    0   0   0
Hf1     -0.002101422   0.002160389   0.596640662
Hf1      0.493632708   0.006101960   0.598671422
Hf1      0.010026725   0.495777610   0.597911351
Hf1      0.493431182   0.503491939   0.598110643
C1       0.452132002   0.278387544   0.659190896
H1       0.447885184   0.420934137   0.685004107
H1       0.455274611   0.145520970   0.687675657

     Writing output data file calc.save
     Check: negative starting charge=   -1.296810
     NEW-OLD atomic charge density approx. for the potential

     Check: negative/imaginary core charge=   -0.000003    0.000000
     Check: negative starting charge=   -1.296934

[...]

     Self-consistent Calculation

[...]

     total energy              =   -1940.70172864 Ry
     Harris-Foulkes estimate   =   -1940.70172871 Ry
     estimated scf accuracy    <       0.00000036 Ry

     iteration # 10     ecut=    36.75 Ry     beta=0.30
     Davidson diagonalization with overlap
     ethr =  2.39E-10,  avg # of iterations =  2.6

[...]

     negative rho (up, down):  1.374E+00 0.000E+00

     Adding external electric field

     Computed dipole along edir(3) :
        Dipole                0.2216 Ry au,          0.5632 Debye
        Dipole field          0.0005 Ry au

        Potential amp.       -0.0430 Ry
        Total length         46.4675 bohr

     End of self-consistent calculation

[...]

          k = 0.0521-0.0602 0.0000 ( 22643 PWs)   bands (ev):

[...]

          k =-0.0782-0.0452 0.0000 ( 22668 PWs)   bands (ev):

   -60.9486 -60.9469 -60.9315 -60.9269 -60.8818 -60.8538 -60.7406 -60.7118
   -60.4192 -60.4130 -60.3575 -60.3448 -29.6165 -29.6123 -29.5765 -29.5712
   -29.5466 -29.5293 -29.5190 -29.5048 -29.4961 -29.4948 -29.4494 -29.4481
   -29.4231 -29.4149 -29.3977 -29.3962 -29.3874 -29.3549 -29.2729 -29.2462
   -29.2385 -29.2351 -29.1284 -29.0959 -29.0416 -29.0318 -28.9270 -28.9181
   -28.8934 -28.8893 -28.8682 -28.8550 -28.8224 -28.8095 -28.7197 -28.7147
   -11.1950  -5.4850  -3.5133  -3.2018  -2.8918  -2.0504  -1.6987  -1.1462
    -0.9907  -0.9647  -0.5710  -0.4568  -0.3474  -0.3288   0.4877   0.5438
     0.6518   0.6695   0.7866   0.8317   0.9791   1.1065   1.1390   1.2025
     1.2297   1.3266   1.4823   1.5260   1.5942   1.6338   1.7593   1.7851
     1.9342   2.0539   2.2333   2.4148   2.6358

     the Fermi energy is     1.6664 ev

!    total energy              =   -1940.70172861 Ry
     Harris-Foulkes estimate   =   -1940.70172880 Ry
     estimated scf accuracy    <       0.00000008 Ry

     The total energy is the sum of the following terms:

     one-electron contribution =   -8765.58786778 Ry
     hartree contribution      =    4369.13187619 Ry
     xc contribution           =    -933.25740980 Ry
     ewald contribution        =    3389.12393846 Ry
     electric field correction =       0.00010241 Ry
     smearing contrib. (-TS)   =      -0.11236810 Ry

     convergence has been achieved in  10 iterations

 BEEF-vdW xc energy contributions
           1 :   -843.712582439035
           2 :    784.172233533521
           3 :   -678.632644440991
           4 :    548.859500289492
           5 :   -417.410522287234
           6 :    301.340928091464
           7 :   -209.388239873932
           8 :    142.792244640545
           9 :   -98.2894098587335
          10 :    71.1234015772665
          11 :   -56.6906305006437
          12 :    50.6970057267883
          13 :   -48.7560421393150
          14 :    46.4168825721856
          15 :   -40.0075635498442
          16 :    27.8311641467724
          17 :   -10.8907821762821
          18 :   -7.47250288564624
          19 :    22.9700300709976
          20 :   -32.1383664964585
          21 :    33.6298486665362
          22 :   -28.4801322715157
          23 :    19.3787956153916
          24 :   -9.47824467136445
          25 :    1.37864842866315
          26 :    3.33021288909595
          27 :   -4.02773716010529
          28 :   0.838693713518296
          29 :    5.48209266440949
          30 :   -13.5325150918159
          31 :   -60.8262676760827
          32 :   -43.7634491366517

     Forces acting on atoms (Ry/au):

     negative rho (up, down):  1.374E+00 0.000E+00
     atom    1 type  1   force =    -0.00089068    0.00124186    0.01858069
     atom    2 type  1   force =     0.00120012   -0.00075817    0.01811010
     atom    3 type  1   force =    -0.00158611    0.00017344    0.01868788
     atom    4 type  1   force =     0.00162214   -0.00087909    0.01940454
     atom    5 type  1   force =    -0.00040912    0.00319398   -0.01472673
     atom    6 type  1   force =     0.00222974   -0.00136221   -0.02355070
     atom    7 type  1   force =    -0.00320757   -0.00064596   -0.01319946
     atom    8 type  1   force =    -0.00045193    0.00165660   -0.02228276
     atom    9 type  1   force =     0.00129822   -0.00046871   -0.00011411
     atom   10 type  1   force =     0.00102911    0.00133452   -0.00031534
     atom   11 type  1   force =    -0.00087686    0.00042624    0.00038808
     atom   12 type  1   force =     0.00115960   -0.00074623   -0.00051650
     atom   13 type  2   force =     0.00060746   -0.00072296   -0.00013830
     atom   14 type  3   force =    -0.00040480   -0.00153834    0.00009520
     atom   15 type  3   force =    -0.00131930   -0.00090498   -0.00042259

     Total force =     0.003784     Total SCF correction =     0.000645
     SCF correction compared to forces is large: reduce conv_thr to get better values

     entering subroutine stress ...

     negative rho (up, down):  1.374E+00 0.000E+00
          total   stress  (Ry/bohr**3)                   (kbar)     P=  -16.60
  -0.00012890   0.00000409  -0.00000006        -18.96      0.60     -0.01
   0.00000409  -0.00012264  -0.00000389          0.60    -18.04     -0.57
  -0.00000006  -0.00000389  -0.00008708         -0.01     -0.57    -12.81

     bfgs converged in  47 scf cycles and  46 bfgs steps
     (criteria: energy <  1.0E+00, force <  1.9E-03)

     End of BFGS Geometry Optimization

     Final energy   =   -1940.7017286145 Ry
Begin final coordinates

ATOMIC_POSITIONS (crystal)
Hf1      0.166666667   0.166666667   0.396510335    0   0   0
Hf1      0.666666667   0.166666667   0.396510335    0   0   0
Hf1      0.166666667   0.666666667   0.396510335    0   0   0
Hf1      0.666666667   0.666666667   0.396510335    0   0   0
Hf1      0.833333333   0.333333333   0.500000000    0   0   0
Hf1      0.333333333   0.333333333   0.500000000    0   0   0
Hf1      0.833333333   0.833333333   0.500000000    0   0   0
Hf1      0.333333333   0.833333333   0.500000000    0   0   0
Hf1     -0.002101422   0.002160389   0.596640662
Hf1      0.493632708   0.006101960   0.598671422
Hf1      0.010026725   0.495777610   0.597911351
Hf1      0.493431182   0.503491939   0.598110643
C1       0.452132002   0.278387544   0.659190896
H1       0.447885184   0.420934137   0.685004107
H1       0.455274611   0.145520970   0.687675657
End final coordinates

     Writing output data file calc.save

     General routines

     Parallel routines

   This run was terminated on:   8:20:12  18Apr2018

   JOB DONE.