     Program PWSCF v.5.1rc2 (svn rev. 11289) starts on 20Jan2018 at  1: 1:56

     Current dimensions of program PWSCF are:
     Max number of different atomic species (ntypx) = 10
     Max number of k-points (npk) =  40000
     Max angular momentum in pseudopotentials (lmaxx) =  3
     Presently stress not available with electric field

     IMPORTANT: XC functional enforced from input :
     Exchange-correlation      = BEEF-VDW ( 1  4 27 13 2)
     Any further DFT definition will be discarded
     Please, verify this is what you really want

     Subspace diagonalization in iterative solution of the eigenvalue problem:
     a serial algorithm will be used

     bravais-lattice index     =            0
     lattice parameter (alat)  =       1.8897  a.u.
     unit-cell volume          =    4552.2840 (a.u.)^3
     number of atoms/cell      =           13
     number of atomic types    =            2
     number of electrons       =       174.00
     number of Kohn-Sham states=           97
     kinetic-energy cutoff     =      36.7493  Ry
     charge density cutoff     =     367.4932  Ry
     convergence threshold     =      1.0E-05
     mixing beta               =       0.3000
     number of iterations used =           10  plain     mixing
     Exchange-correlation      = BEEF-VDW ( 1  4 27 13 2)
     nstep                     =           50

     celldm(1)=   1.889726  celldm(2)=   0.000000  celldm(3)=   0.000000
     celldm(4)=   0.000000  celldm(5)=   0.000000  celldm(6)=   0.000000

     crystal axes: (cart. coord. in units of alat)
               a(1) = (   5.627661   0.000000   0.000000 )
               a(2) = (   2.813831   4.873698   0.000000 )
               a(3) = (   0.000000   0.000000  24.594966 )

     reciprocal axes: (cart. coord. in units 2 pi/alat)
               b(1) = (  0.177694 -0.102592  0.000000 )
               b(2) = (  0.000000  0.205183  0.000000 )
               b(3) = (  0.000000  0.000000  0.040659 )

     PseudoPot. # 1 for Mo read from file:
     /afs/slac.stanford.edu/u/if/mamunm/psp/gbrv1.5pbe/Mo.UPF
     MD5 check sum: 30c4dcd161f5d35cd49bb5239c51a633
     Pseudo is Ultrasoft + core correction, Zval = 14.0
     Generated by new atomic code, or converted to UPF format
     Using radial grid of  889 points,  6 beta functions with:
                l(1) =   0
                l(2) =   0
                l(3) =   1
                l(4) =   1
                l(5) =   2
                l(6) =   2
     Q(r) pseudized with  6 coefficients,  rinner =    1.000   1.000   1.000
                                                       1.000   1.000

     PseudoPot. # 2 for S  read from file:
     /afs/slac.stanford.edu/u/if/mamunm/psp/gbrv1.5pbe/S.UPF
     MD5 check sum: 88d86576ff6df21479756cfb9bdac1df
     Pseudo is Ultrasoft + core correction, Zval =  6.0
     Generated by new atomic code, or converted to UPF format
     Using radial grid of  907 points,  6 beta functions with:
                l(1) =   0
                l(2) =   0
                l(3) =   1
                l(4) =   1
                l(5) =   2
                l(6) =   2
     Q(r) pseudized with  8 coefficients,  rinner =    1.300   1.300   1.300
                                                       1.300   1.300

     vdW kernel table read from file vdW_kernel_table
     MD5 check sum: 095c7af220d748ca6e76c0b4c6cfb241

     atomic species   valence    mass     pseudopotential
        Mo1           14.00    95.95000     Mo( 1.00)
        S1             6.00    32.06000     S ( 1.00)

     No symmetry found

   Cartesian axes

     site n.     atom                  positions (alat units)
         1           Mo1 tau(   1) = (   1.4069153   0.8122829  10.0000000  )
         2           Mo1 tau(   2) = (   4.2207459   0.8122829  10.0000000  )
         3           Mo1 tau(   3) = (   2.8138306   3.2491317  10.0000000  )
         4           Mo1 tau(   4) = (   5.6276612   3.2491317  10.0000000  )
         5           Mo1 tau(   5) = (   5.6276612   1.6245658  12.2974831  )
         6           Mo1 tau(   6) = (   2.8138306   1.6245658  12.2974831  )
         7           Mo1 tau(   7) = (   7.0345765   4.0614146  12.2974831  )
         8           Mo1 tau(   8) = (   4.2207459   4.0614146  12.2974831  )
         9           Mo1 tau(   9) = (   0.0000000   0.0000000  14.5949661  )
        10           Mo1 tau(  10) = (   2.8138306   0.0000000  14.5949661  )
        11           Mo1 tau(  11) = (   1.4069153   2.4368488  14.5949661  )
        12           Mo1 tau(  12) = (   4.2207459   2.4368488  14.5949661  )
        13           S1  tau(  13) = (   1.4069153   0.0000000  17.1849661  )

     number of k points=    20  Fermi-Dirac smearing, width (Ry)=  0.0110
                       cart. coord. in units 2pi/alat
        k(    1) = (   0.0000000   0.0000000   0.0000000), wk =   0.0555556
        k(    2) = (   0.0000000   0.0341972   0.0000000), wk =   0.1111111
        k(    3) = (   0.0000000   0.0683943   0.0000000), wk =   0.1111111
        k(    4) = (   0.0000000  -0.1025915   0.0000000), wk =   0.0555556
        k(    5) = (   0.0296156  -0.0170986   0.0000000), wk =   0.1111111
        k(    6) = (   0.0296156   0.0170986   0.0000000), wk =   0.1111111
        k(    7) = (   0.0296156   0.0512958   0.0000000), wk =   0.1111111
        k(    8) = (   0.0296156  -0.1196901   0.0000000), wk =   0.1111111
        k(    9) = (   0.0296156  -0.0854929   0.0000000), wk =   0.1111111
        k(   10) = (   0.0296156  -0.0512958   0.0000000), wk =   0.1111111
        k(   11) = (   0.0592312  -0.0341972   0.0000000), wk =   0.1111111
        k(   12) = (   0.0592312   0.0000000   0.0000000), wk =   0.1111111
        k(   13) = (   0.0592312   0.0341972   0.0000000), wk =   0.1111111
        k(   14) = (   0.0592312  -0.1367887   0.0000000), wk =   0.1111111
        k(   15) = (   0.0592312  -0.1025915   0.0000000), wk =   0.1111111
        k(   16) = (   0.0592312  -0.0683943   0.0000000), wk =   0.1111111
        k(   17) = (  -0.0888469   0.0512958   0.0000000), wk =   0.0555556
        k(   18) = (  -0.0888469   0.0854929   0.0000000), wk =   0.1111111
        k(   19) = (  -0.0888469   0.1196901   0.0000000), wk =   0.1111111
        k(   20) = (  -0.0888469  -0.0512958   0.0000000), wk =   0.0555556

     Largest allocated arrays     est. size (Mb)     dimensions
     Largest temporary arrays     est. size (Mb)     dimensions

     Initial potential from superposition of free atoms
     Check: negative starting charge=   -0.004465

     starting charge  173.98720, renormalised to  174.00000

     negative rho (up, down):  4.465E-03 0.000E+00

     *
     * You are using vdW-DF for exchange-correlation in this calculation.
     * Please cite the following three references that made this development
     * possible:
     *
     *   M. Dion, H. Rydberg, E. Schroder, D. C. Langreth, and
     *   B. I. Lundqvist, Phys. Rev. Lett. 92, 246401 (2004).
     *
     *   T. Thonhauser, V. R. Cooper, S. Li, A. Puzder, P. Hyldgaard, and
     *   D. C. Langreth, Phys. Rev. B 76, 125112 (2007).
     *
     *   G. Roman-Perez and J. M. Soler, Phys. Rev. Lett. 103, 096102 (2009).
     *
     *
     * If you are using vdW-DF2, please also cite:
     *
     *   K. Lee, E. D. Murray, L. Kong, B. I. Lundqvist, and
     *   D. C. Langreth, Phys. Rev. B 82, 081101(R) (2010).
     *
     *
     * If you are calculating the stress with vdW-DF, please also cite:
     *
     *   R. Sabatini, E. Kucukbenli, B. Kolb, T. Thonhauser, and
     *   S. de Gironcoli, J. Phys.: Condens. Matter 24, 424209 (2012).
     *

     Carrying out vdW-DF run using the following parameters:

     Nqs =      20    Nr_points =    1024   r_max =   100.000
     q_mesh =
               0.00001000     0.04494208     0.09755937     0.15916263
               0.23128650     0.31572767     0.41458969     0.53033537
               0.66584808     0.82450364     1.01025438     1.22772762
               1.48234092     1.78043706     2.12944203     2.53805004
               3.01644009     3.57652955     4.23227104     5.00000000

     Gradients computed in reciprocal space

     Adding external electric field

     Computed dipole along edir(3) :
        Dipole               -0.0037 Ry au,         -0.0095 Debye
        Dipole field         -0.0000 Ry au

        Potential amp.        0.0009 Ry
        Total length         45.3158 bohr

     Starting wfc are  160 randomized atomic wfcs

     Self-consistent Calculation

     iteration #  1     ecut=    36.75 Ry     beta=0.30
     Davidson diagonalization with overlap
     ethr =  1.00E-02,  avg # of iterations =  2.0

[...]

     total energy              =   -1696.26401337 Ry
     Harris-Foulkes estimate   =   -1704.27981253 Ry
     estimated scf accuracy    <      16.47558841 Ry

[...]

     End of self-consistent calculation

          k = 0.0000 0.0000 0.0000 ( 17111 PWs)   bands (ev):

   -59.0515 -58.9453 -58.8944 -58.8707 -58.8457 -58.8346 -58.7714 -58.7689
   -58.7593 -58.7337 -58.7314 -58.7207 -33.5636 -33.5518 -33.5421 -33.4783
   -33.4716 -33.4700 -33.4616 -33.3749 -33.3710 -33.3670 -33.0587 -32.9384
   -32.9322 -32.9218 -32.8450 -32.8429 -32.8373 -32.7453 -32.7414 -32.7405
   -32.6273 -32.6251 -32.6244 -32.6111 -32.6077 -32.5992 -32.5237 -32.5034
   -32.5010 -32.5000 -32.4742 -32.4629 -32.3839 -32.3830 -32.3033 -32.3023
    -8.9568  -3.9309  -2.6282  -2.4693  -2.4572  -2.4512  -2.4253  -2.0255
    -2.0175  -2.0068  -1.8137  -1.8011  -1.7980  -1.5838  -1.5711  -1.5624
    -0.5583  -0.4383  -0.3566   0.3124   0.5684   0.6075   0.6891   0.9135
     0.9251   1.1930   1.2998   1.3250   1.3294   1.5776   1.5796   1.6986
     1.7054   1.7065   1.7692   1.7701   2.0036   2.0627   2.2679   2.5004
     3.1177   3.1870   3.2661   3.2885   3.2916   3.3007   3.8459   3.8474
     4.0071

[...]

          k =-0.0888 0.0513 0.0000 ( 17160 PWs)   bands (ev):

[...]

     the Fermi energy is     2.0332 ev

!    total energy              =   -1703.67561458 Ry
     Harris-Foulkes estimate   =   -1703.67561596 Ry
     estimated scf accuracy    <       0.00000267 Ry

     The total energy is the sum of the following terms:

     one-electron contribution =  -15364.10502272 Ry
     hartree contribution      =    7677.49966520 Ry
     xc contribution           =    -248.68150311 Ry
     ewald contribution        =    6231.71639722 Ry
     electric field correction =       0.00052560 Ry
     smearing contrib. (-TS)   =      -0.10567676 Ry

     convergence has been achieved in  25 iterations

 BEEF-vdW xc energy contributions
           1 :   -213.432401055531
           2 :    194.597697482809
           3 :   -162.433367096678
           4 :    125.515282795042
           5 :   -92.3120221851079
           6 :    68.5443309350978
           7 :   -55.9148406569865
           8 :    52.4076487503799
           9 :   -53.8291854269975
          10 :    55.7902502099756
          11 :   -55.3220588550608
          12 :    51.5797318305457
          13 :   -45.5698005249799
          14 :    39.2084292363965
          15 :   -34.2289316512521
          16 :    31.3964310380242
          17 :   -30.3081595217611
[...]

[...]

     Program PWSCF v.5.1rc2 (svn rev. 11289) starts on 20Jan2018 at  1:38: 9

[...]

   This run was terminated on:   2: 9:30  20Jan2018

[...]

   This run was terminated on:   3:55: 6  20Jan2018

[...]

     Program PWSCF v.5.1rc2 (svn rev. 11289) starts on 20Jan2018 at  4:21: 1

[...]

     Total force =     0.076501     Total SCF correction =     0.005971

[...]

     Program PWSCF v.5.1rc2 (svn rev. 11289) starts on 20Jan2018 at  5: 1:52

[...]

   This run was terminated on:   5:54:18  20Jan2018

[...]

     Program PWSCF v.5.1rc2 (svn rev. 11289) starts on 20Jan2018 at  5:54:24

     Current dimensions of program PWSCF are:
     Max number of different atomic species (ntypx) = 10
     Max number of k-points (npk) =  40000
     Max angular momentum in pseudopotentials (lmaxx) =  3
     Presently stress not available with electric field

     IMPORTANT: XC functional enforced from input :
     Exchange-correlation      = BEEF-VDW ( 1  4 27 13 2)
     Any further DFT definition will be discarded
     Please, verify this is what you really want

     Subspace diagonalization in iterative solution of the eigenvalue problem:
     a serial algorithm will be used

     bravais-lattice index     =            0
     lattice parameter (alat)  =       1.8897  a.u.
     unit-cell volume          =    4552.2840 (a.u.)^3
     number of atoms/cell      =           13
     number of atomic types    =            2
     number of electrons       =       174.00
     number of Kohn-Sham states=           97
     kinetic-energy cutoff     =      36.7493  Ry
     charge density cutoff     =     367.4932  Ry
     convergence threshold     =      1.0E-05
     mixing beta               =       0.3000
     number of iterations used =           10  plain     mixing
     Exchange-correlation      = BEEF-VDW ( 1  4 27 13 2)
     nstep                     =           50

     celldm(1)=   1.889726  celldm(2)=   0.000000  celldm(3)=   0.000000
     celldm(4)=   0.000000  celldm(5)=   0.000000  celldm(6)=   0.000000

     crystal axes: (cart. coord. in units of alat)
               a(1) = (   5.627661   0.000000   0.000000 )
               a(2) = (   2.813831   4.873698   0.000000 )
               a(3) = (   0.000000   0.000000  24.594966 )

     reciprocal axes: (cart. coord. in units 2 pi/alat)
               b(1) = (  0.177694 -0.102592  0.000000 )
               b(2) = (  0.000000  0.205183  0.000000 )
               b(3) = (  0.000000  0.000000  0.040659 )

     PseudoPot. # 1 for Mo read from file:
     /afs/slac.stanford.edu/u/if/mamunm/psp/gbrv1.5pbe/Mo.UPF
     MD5 check sum: 30c4dcd161f5d35cd49bb5239c51a633
     Pseudo is Ultrasoft + core correction, Zval = 14.0
     Generated by new atomic code, or converted to UPF format
     Using radial grid of  889 points,  6 beta functions with:
                l(1) =   0
                l(2) =   0
                l(3) =   1
                l(4) =   1
                l(5) =   2
                l(6) =   2
     Q(r) pseudized with  6 coefficients,  rinner =    1.000   1.000   1.000
                                                       1.000   1.000

     PseudoPot. # 2 for S  read from file:
     /afs/slac.stanford.edu/u/if/mamunm/psp/gbrv1.5pbe/S.UPF
     MD5 check sum: 88d86576ff6df21479756cfb9bdac1df
     Pseudo is Ultrasoft + core correction, Zval =  6.0
     Generated by new atomic code, or converted to UPF format
     Using radial grid of  907 points,  6 beta functions with:
                l(1) =   0
                l(2) =   0
                l(3) =   1
                l(4) =   1
                l(5) =   2
                l(6) =   2
     Q(r) pseudized with  8 coefficients,  rinner =    1.300   1.300   1.300
                                                       1.300   1.300

     vdW kernel table read from file vdW_kernel_table
     MD5 check sum: 095c7af220d748ca6e76c0b4c6cfb241

     atomic species   valence    mass     pseudopotential
        Mo1           14.00    95.95000     Mo( 1.00)
        S1             6.00    32.06000     S ( 1.00)

     No symmetry found

   Cartesian axes

     site n.     atom                  positions (alat units)
         1           Mo1 tau(   1) = (   1.4069153   0.8122829  10.0000000  )
         2           Mo1 tau(   2) = (   4.2207459   0.8122829  10.0000000  )
         3           Mo1 tau(   3) = (   2.8138306   3.2491317  10.0000000  )
         4           Mo1 tau(   4) = (   5.6276612   3.2491317  10.0000000  )
         5           Mo1 tau(   5) = (   5.6276612   1.6245658  12.2974831  )
         6           Mo1 tau(   6) = (   2.8138306   1.6245658  12.2974831  )
         7           Mo1 tau(   7) = (   7.0345765   4.0614146  12.2974831  )
         8           Mo1 tau(   8) = (   4.2207459   4.0614146  12.2974831  )
         9           Mo1 tau(   9) = (   2.7711057   4.7360478  14.7046700  )
        10           Mo1 tau(  10) = (   5.6703513   4.7360414  14.7046718  )
        11           Mo1 tau(  11) = (   1.4069016   2.3910119  14.6869442  )
        12           Mo1 tau(  12) = (   4.2207210   2.2928380  14.3087433  )
        13           S1  tau(  13) = (   1.4069067   0.7237716  16.4301305  )

     number of k points=    20  Fermi-Dirac smearing, width (Ry)=  0.0110
                       cart. coord. in units 2pi/alat
        k(    1) = (   0.0000000   0.0000000   0.0000000), wk =   0.0555556
        k(    2) = (   0.0000000   0.0341972   0.0000000), wk =   0.1111111
        k(    3) = (   0.0000000   0.0683943   0.0000000), wk =   0.1111111
        k(    4) = (   0.0000000  -0.1025915   0.0000000), wk =   0.0555556
        k(    5) = (   0.0296156  -0.0170986   0.0000000), wk =   0.1111111
        k(    6) = (   0.0296156   0.0170986   0.0000000), wk =   0.1111111
        k(    7) = (   0.0296156   0.0512958   0.0000000), wk =   0.1111111
        k(    8) = (   0.0296156  -0.1196901   0.0000000), wk =   0.1111111
        k(    9) = (   0.0296156  -0.0854929   0.0000000), wk =   0.1111111
        k(   10) = (   0.0296156  -0.0512958   0.0000000), wk =   0.1111111
        k(   11) = (   0.0592312  -0.0341972   0.0000000), wk =   0.1111111
        k(   12) = (   0.0592312   0.0000000   0.0000000), wk =   0.1111111
        k(   13) = (   0.0592312   0.0341972   0.0000000), wk =   0.1111111
        k(   14) = (   0.0592312  -0.1367887   0.0000000), wk =   0.1111111
        k(   15) = (   0.0592312  -0.1025915   0.0000000), wk =   0.1111111
        k(   16) = (   0.0592312  -0.0683943   0.0000000), wk =   0.1111111
        k(   17) = (  -0.0888469   0.0512958   0.0000000), wk =   0.0555556
        k(   18) = (  -0.0888469   0.0854929   0.0000000), wk =   0.1111111
        k(   19) = (  -0.0888469   0.1196901   0.0000000), wk =   0.1111111
        k(   20) = (  -0.0888469  -0.0512958   0.0000000), wk =   0.0555556

     Largest allocated arrays     est. size (Mb)     dimensions
     Largest temporary arrays     est. size (Mb)     dimensions

     Initial potential from superposition of free atoms
     Check: negative starting charge=   -0.004752

     starting charge  173.98720, renormalised to  174.00000

[...]

     *
     * You are using vdW-DF for exchange-correlation in this calculation.
     * Please cite the following three references that made this development
     * possible:
     *
     *   M. Dion, H. Rydberg, E. Schroder, D. C. Langreth, and
     *   B. I. Lundqvist, Phys. Rev. Lett. 92, 246401 (2004).
     *
     *   T. Thonhauser, V. R. Cooper, S. Li, A. Puzder, P. Hyldgaard, and
     *   D. C. Langreth, Phys. Rev. B 76, 125112 (2007).
     *
     *   G. Roman-Perez and J. M. Soler, Phys. Rev. Lett. 103, 096102 (2009).
     *
     *
     * If you are using vdW-DF2, please also cite:
     *
     *   K. Lee, E. D. Murray, L. Kong, B. I. Lundqvist, and
     *   D. C. Langreth, Phys. Rev. B 82, 081101(R) (2010).
     *
     *
     * If you are calculating the stress with vdW-DF, please also cite:
     *
     *   R. Sabatini, E. Kucukbenli, B. Kolb, T. Thonhauser, and
     *   S. de Gironcoli, J. Phys.: Condens. Matter 24, 424209 (2012).
     *

     Carrying out vdW-DF run using the following parameters:

     Nqs =      20    Nr_points =    1024   r_max =   100.000
     q_mesh =
               0.00001000     0.04494208     0.09755937     0.15916263
               0.23128650     0.31572767     0.41458969     0.53033537
               0.66584808     0.82450364     1.01025438     1.22772762
               1.48234092     1.78043706     2.12944203     2.53805004
               3.01644009     3.57652955     4.23227104     5.00000000

     Gradients computed in reciprocal space

[...]

     Starting wfc are  160 randomized atomic wfcs

     Self-consistent Calculation

[...]

     total energy              =   -1703.86193866 Ry
     Harris-Foulkes estimate   =   -1703.86194102 Ry
     estimated scf accuracy    <       0.00004136 Ry

     iteration # 16     ecut=    36.75 Ry     beta=0.30
     Davidson diagonalization with overlap
     ethr =  2.38E-08,  avg # of iterations =  2.4

[...]

     negative rho (up, down):  4.726E-03 0.000E+00

     Adding external electric field

     Computed dipole along edir(3) :
        Dipole               -0.1347 Ry au,         -0.3424 Debye
        Dipole field         -0.0004 Ry au

        Potential amp.        0.0337 Ry
        Total length         45.3158 bohr

     End of self-consistent calculation

[...]

          k = 0.0592-0.0684 0.0000 ( 17122 PWs)   bands (ev):

[...]

          k =-0.0888-0.0513 0.0000 ( 17160 PWs)   bands (ev):

   -58.6107 -58.5679 -58.5298 -58.5083 -58.4946 -58.4530 -58.4278 -58.4009
   -58.3890 -58.3592 -58.3492 -58.3204 -33.1222 -33.0432 -33.0045 -32.9918
   -32.9462 -32.8941 -32.8593 -32.7920 -32.7828 -32.7730 -32.7313 -32.6676
   -32.6624 -32.5626 -32.5509 -32.5171 -32.5012 -32.4779 -32.4550 -32.4385
   -32.4101 -32.3859 -32.3693 -32.3644 -32.3392 -32.2903 -32.2646 -32.2211
   -32.2162 -32.1787 -32.1526 -32.1144 -32.0653 -32.0322 -32.0102 -31.9495
   -10.4613  -2.2973  -1.9737  -1.7299  -1.5572  -1.4406  -1.1805  -1.1184
    -0.9937  -0.9770  -0.7794  -0.7539  -0.6471  -0.3807  -0.2426  -0.1782
    -0.1283  -0.1024  -0.0032   0.1652   0.3407   0.5057   0.6365   0.6861
     0.7423   0.7974   0.9905   1.1923   1.2724   1.3552   1.5458   1.6274
     1.6395   1.7084   1.7669   1.8432   1.8920   1.9827   2.0891   2.3150
     2.4446   2.6304   2.8042   2.9758   3.1088   3.1895   3.2545   3.4221
     3.5606

     the Fermi energy is     2.4376 ev

!    total energy              =   -1703.86193886 Ry
     Harris-Foulkes estimate   =   -1703.86193819 Ry
     estimated scf accuracy    <       0.00000363 Ry

     The total energy is the sum of the following terms:

     one-electron contribution =  -15579.11836132 Ry
     hartree contribution      =    7786.63370135 Ry
     xc contribution           =    -249.08018093 Ry
     ewald contribution        =    6337.79841810 Ry
     electric field correction =       0.00005008 Ry
     smearing contrib. (-TS)   =      -0.09556614 Ry

     convergence has been achieved in  16 iterations

 BEEF-vdW xc energy contributions
           1 :   -213.841646677415
           2 :    195.177032461864
           3 :   -163.206458860900
           4 :    126.351830640898
           5 :   -93.0299165502458
           6 :    69.0161591529832
           7 :   -56.1157778484857
           8 :    52.3949579067924
           9 :   -53.6850625674060
          10 :    55.5760678420204
          11 :   -55.0696211361547
          12 :    51.3080451049509
          13 :   -45.3007245439575
          14 :    38.9653633264083
          15 :   -34.0232770989831
          16 :    31.2194787061175
          17 :   -30.1397466527920
          18 :    29.5948623761324
          19 :   -28.3153010743363
          20 :    25.5871095609141
          21 :   -21.5416220186685
          22 :    16.9991937666262
          23 :   -12.9959021639944
          24 :    10.2515808299596
          25 :   -8.84633041446472
          26 :    8.23838607763395
          27 :   -7.58455887039855
          28 :    6.17665665690899
          29 :   -3.77422398449221
          30 :   0.680089322313847
          31 :   -24.4556046351638
          32 :   -18.7132308651429

     Forces acting on atoms (Ry/au):

     negative rho (up, down):  4.726E-03 0.000E+00
     atom    1 type  1   force =    -0.00000345   -0.00149278    0.00196260
     atom    2 type  1   force =     0.00000072    0.00259549   -0.00917781
     atom    3 type  1   force =     0.00188224    0.00012183   -0.00834587
     atom    4 type  1   force =    -0.00187908    0.00011811   -0.00834154
     atom    5 type  1   force =     0.02381517   -0.01150108    0.00074819
     atom    6 type  1   force =    -0.02381903   -0.01150380    0.00074370
     atom    7 type  1   force =    -0.00000078    0.00219934    0.01400172
     atom    8 type  1   force =    -0.00000161    0.02320008    0.00738436
     atom    9 type  1   force =    -0.00011305   -0.00064686   -0.00025685
     atom   10 type  1   force =     0.00011704   -0.00064793   -0.00026405
     atom   11 type  1   force =     0.00000217   -0.00040373    0.00075128
     atom   12 type  1   force =     0.00000212   -0.00128824   -0.00014530
     atom   13 type  2   force =    -0.00000244   -0.00075044    0.00093958

     Total force =     0.049418     Total SCF correction =     0.007756
     SCF correction compared to forces is large: reduce conv_thr to get better values

     entering subroutine stress ...

     negative rho (up, down):  4.726E-03 0.000E+00
          total   stress  (Ry/bohr**3)                   (kbar)     P=  -11.07
  -0.00010973  -0.00000001  -0.00000001        -16.14     -0.00     -0.00
  -0.00000001  -0.00014218  -0.00000541         -0.00    -20.92     -0.80
  -0.00000001  -0.00000541   0.00002619         -0.00     -0.80      3.85

 !ASE

     Writing output data file calc.save

     General routines

     Parallel routines

   This run was terminated on:   6: 7:24  20Jan2018

   JOB DONE.
Job  /afs/slac/g/suncat/bin/suncat-tsmpirun -x LD_LIBRARY_PATH -wdir /scratch/qe891410_MzoBn pw.x -in pw.inp

TID   HOST_NAME   COMMAND_LINE            STATUS            TERMINATION_TIME
00000 suncat1009 pw.x -in pw.inp   Done                     01/20/2018 06:07:24
00001 suncat1009 pw.x -in pw.inp   Done                     01/20/2018 06:07:24
00002 suncat1009 pw.x -in pw.inp   Done                     01/20/2018 06:07:24
00003 suncat1009 pw.x -in pw.inp   Done                     01/20/2018 06:07:24
00004 suncat1009 pw.x -in pw.inp   Done                     01/20/2018 06:07:24
00005 suncat1009 pw.x -in pw.inp   Done                     01/20/2018 06:07:24
00006 suncat1009 pw.x -in pw.inp   Done                     01/20/2018 06:07:24
00007 suncat1009 pw.x -in pw.inp   Done                     01/20/2018 06:07:24
00008 suncat1059 pw.x -in pw.inp   Done                     01/20/2018 06:07:24
00009 suncat1059 pw.x -in pw.inp   Done                     01/20/2018 06:07:24
00010 suncat1059 pw.x -in pw.inp   Done                     01/20/2018 06:07:24
00011 suncat1059 pw.x -in pw.inp   Done                     01/20/2018 06:07:24
00012 suncat1059 pw.x -in pw.inp   Done                     01/20/2018 06:07:24
00013 suncat1059 pw.x -in pw.inp   Done                     01/20/2018 06:07:24
00014 suncat1059 pw.x -in pw.inp   Done                     01/20/2018 06:07:24
00015 suncat1059 pw.x -in pw.inp   Done                     01/20/2018 06:07:24
00016 suncat1059 pw.x -in pw.inp   Done                     01/20/2018 06:07:24
00017 suncat1059 pw.x -in pw.inp   Done                     01/20/2018 06:07:24
00018 suncat1059 pw.x -in pw.inp   Done                     01/20/2018 06:07:24
00019 suncat1059 pw.x -in pw.inp   Done                     01/20/2018 06:07:24
00020 suncat1056 pw.x -in pw.inp   Done                     01/20/2018 06:07:24
00021 suncat1056 pw.x -in pw.inp   Done                     01/20/2018 06:07:24
00022 suncat1056 pw.x -in pw.inp   Done                     01/20/2018 06:07:24
00023 suncat1056 pw.x -in pw.inp   Done                     01/20/2018 06:07:24
00024 suncat1056 pw.x -in pw.inp   Done                     01/20/2018 06:07:24
00025 suncat1056 pw.x -in pw.inp   Done                     01/20/2018 06:07:24
00026 suncat1056 pw.x -in pw.inp   Done                     01/20/2018 06:07:24
00027 suncat1056 pw.x -in pw.inp   Done                     01/20/2018 06:07:24
00028 suncat1056 pw.x -in pw.inp   Done                     01/20/2018 06:07:24
00029 suncat1056 pw.x -in pw.inp   Done                     01/20/2018 06:07:24
00030 suncat1056 pw.x -in pw.inp   Done                     01/20/2018 06:07:24
00031 suncat1056 pw.x -in pw.inp   Done                     01/20/2018 06:07:24