     Program PWSCF v.5.1rc2 (svn rev. ) starts on  4Feb2018 at 11:48:42

     Current dimensions of program PWSCF are:
     Max number of different atomic species (ntypx) = 10
     Max number of k-points (npk) =  40000
     Max angular momentum in pseudopotentials (lmaxx) =  3
     Presently stress not available with electric field

     IMPORTANT: XC functional enforced from input :
     Exchange-correlation      = BEEF-VDW ( 1  4 27 13 2)
     Any further DFT definition will be discarded
     Please, verify this is what you really want

     Subspace diagonalization in iterative solution of the eigenvalue problem:
     a serial algorithm will be used

     bravais-lattice index     =            0
     lattice parameter (alat)  =       1.8897  a.u.
     unit-cell volume          =    8507.0471 (a.u.)^3
     number of atoms/cell      =           13
     number of atomic types    =            2
     number of electrons       =       138.00
     number of Kohn-Sham states=           79
     kinetic-energy cutoff     =      36.7493  Ry
     charge density cutoff     =     367.4932  Ry
     convergence threshold     =      1.0E-05
     mixing beta               =       0.3000
     number of iterations used =           10  plain     mixing
     Exchange-correlation      = BEEF-VDW ( 1  4 27 13 2)
     nstep                     =           50

     celldm(1)=   1.889726  celldm(2)=   0.000000  celldm(3)=   0.000000
     celldm(4)=   0.000000  celldm(5)=   0.000000  celldm(6)=   0.000000

     crystal axes: (cart. coord. in units of alat)
               a(1) = (   7.468327   0.000000   0.000000 )
               a(2) = (   3.734164   6.467761   0.000000 )
               a(3) = (   0.000000   0.000000  26.097863 )

     reciprocal axes: (cart. coord. in units 2 pi/alat)
               b(1) = (  0.133899 -0.077307  0.000000 )
               b(2) = (  0.000000  0.154613  0.000000 )
               b(3) = (  0.000000  0.000000  0.038317 )

     PseudoPot. # 1 for La read from file:
     /home/mamunm/src/pseudo/gbrv1.5pbe/La.UPF
     MD5 check sum: 5937b0c7494ba0601a847275249473aa
     Pseudo is Ultrasoft + core correction, Zval = 11.0
     Generated by new atomic code, or converted to UPF format
     Using radial grid of  995 points,  8 beta functions with:
                l(1) =   0
                l(2) =   0
                l(3) =   1
                l(4) =   1
                l(5) =   2
                l(6) =   2
                l(7) =   3
                l(8) =   3
     Q(r) pseudized with  8 coefficients,  rinner =    1.700   1.700   1.700
                                                       1.700   1.700   1.700
                                                       1.700

     PseudoPot. # 2 for O  read from file:
     /home/mamunm/src/pseudo/gbrv1.5pbe/O.UPF
     MD5 check sum: 734c27235a0248c51dbae37a1fbe46ec
     Pseudo is Ultrasoft + core correction, Zval =  6.0
     Generated by new atomic code, or converted to UPF format
     Using radial grid of  737 points,  5 beta functions with:
                l(1) =   0
                l(2) =   0
                l(3) =   1
                l(4) =   1
                l(5) =   2
     Q(r) pseudized with  8 coefficients,  rinner =    0.900   0.900   0.900
                                                       0.900   0.900

     vdW kernel table read from file vdW_kernel_table
     MD5 check sum: 095c7af220d748ca6e76c0b4c6cfb241

     atomic species   valence    mass     pseudopotential
        La1           11.00   138.90547     La( 1.00)
        O1             6.00    15.99900     O ( 1.00)

     No symmetry found

   Cartesian axes

     site n.     atom                  positions (alat units)
         1           La1 tau(   1) = (   1.8670818   1.0779602  10.0000000  )
         2           La1 tau(   2) = (   5.6012453   1.0779602  10.0000000  )
         3           La1 tau(   3) = (   3.7341635   4.3118406  10.0000000  )
         4           La1 tau(   4) = (   7.4683270   4.3118406  10.0000000  )
         5           La1 tau(   5) = (   7.4683270   2.1559203  13.0489317  )
         6           La1 tau(   6) = (   3.7341635   2.1559203  13.0489317  )
         7           La1 tau(   7) = (   9.3354088   5.3898008  13.0489317  )
         8           La1 tau(   8) = (   5.6012453   5.3898008  13.0489317  )
         9           La1 tau(   9) = (   0.0000000   0.0000000  16.0978635  )
        10           La1 tau(  10) = (   3.7341635   0.0000000  16.0978635  )
        11           La1 tau(  11) = (   1.8670818   3.2338805  16.0978635  )
        12           La1 tau(  12) = (   5.6012453   3.2338805  16.0978635  )
        13           O1  tau(  13) = (   0.0000000   0.0000000  18.4183635  )

     number of k points=    20  Fermi-Dirac smearing, width (Ry)=  0.0110
                       cart. coord. in units 2pi/alat
        k(    1) = (   0.0000000   0.0000000   0.0000000), wk =   0.0555556
        k(    2) = (   0.0000000   0.0257688   0.0000000), wk =   0.1111111
        k(    3) = (   0.0000000   0.0515377   0.0000000), wk =   0.1111111
        k(    4) = (   0.0000000  -0.0773065   0.0000000), wk =   0.0555556
        k(    5) = (   0.0223165  -0.0128844   0.0000000), wk =   0.1111111
        k(    6) = (   0.0223165   0.0128844   0.0000000), wk =   0.1111111
        k(    7) = (   0.0223165   0.0386533   0.0000000), wk =   0.1111111
        k(    8) = (   0.0223165  -0.0901909   0.0000000), wk =   0.1111111
        k(    9) = (   0.0223165  -0.0644221   0.0000000), wk =   0.1111111
        k(   10) = (   0.0223165  -0.0386533   0.0000000), wk =   0.1111111
        k(   11) = (   0.0446329  -0.0257688   0.0000000), wk =   0.1111111
        k(   12) = (   0.0446329   0.0000000   0.0000000), wk =   0.1111111
        k(   13) = (   0.0446329   0.0257688   0.0000000), wk =   0.1111111
        k(   14) = (   0.0446329  -0.1030753   0.0000000), wk =   0.1111111
        k(   15) = (   0.0446329  -0.0773065   0.0000000), wk =   0.1111111
        k(   16) = (   0.0446329  -0.0515377   0.0000000), wk =   0.1111111
        k(   17) = (  -0.0669494   0.0386533   0.0000000), wk =   0.0555556
        k(   18) = (  -0.0669494   0.0644221   0.0000000), wk =   0.1111111
        k(   19) = (  -0.0669494   0.0901909   0.0000000), wk =   0.1111111
        k(   20) = (  -0.0669494  -0.0386533   0.0000000), wk =   0.0555556

     Largest allocated arrays     est. size (Mb)     dimensions
     Largest temporary arrays     est. size (Mb)     dimensions

     Initial potential from superposition of free atoms
     Check: negative starting charge=   -0.831266

     starting charge  137.61518, renormalised to  138.00000

     negative rho (up, down):  8.336E-01 0.000E+00

     *
     * You are using vdW-DF for exchange-correlation in this calculation.
     * Please cite the following three references that made this development
     * possible:
     *
     *   M. Dion, H. Rydberg, E. Schroder, D. C. Langreth, and
     *   B. I. Lundqvist, Phys. Rev. Lett. 92, 246401 (2004).
     *
     *   T. Thonhauser, V. R. Cooper, S. Li, A. Puzder, P. Hyldgaard, and
     *   D. C. Langreth, Phys. Rev. B 76, 125112 (2007).
     *
     *   G. Roman-Perez and J. M. Soler, Phys. Rev. Lett. 103, 096102 (2009).
     *
     *
     * If you are using vdW-DF2, please also cite:
     *
     *   K. Lee, E. D. Murray, L. Kong, B. I. Lundqvist, and
     *   D. C. Langreth, Phys. Rev. B 82, 081101(R) (2010).
     *
     *
     * If you are calculating the stress with vdW-DF, please also cite:
     *
     *   R. Sabatini, E. Kucukbenli, B. Kolb, T. Thonhauser, and
     *   S. de Gironcoli, J. Phys.: Condens. Matter 24, 424209 (2012).
     *

     Carrying out vdW-DF run using the following parameters:

     Nqs =      20    Nr_points =    1024   r_max =   100.000
     q_mesh =
               0.00001000     0.04494208     0.09755937     0.15916263
               0.23128650     0.31572767     0.41458969     0.53033537
               0.66584808     0.82450364     1.01025438     1.22772762
               1.48234092     1.78043706     2.12944203     2.53805004
               3.01644009     3.57652955     4.23227104     5.00000000

     Gradients computed in reciprocal space

     Adding external electric field

     Computed dipole along edir(3) :
        Dipole               -0.1702 Ry au,         -0.4327 Debye
        Dipole field         -0.0003 Ry au

        Potential amp.        0.0242 Ry
        Total length         48.0849 bohr

     Starting wfc are  244 randomized atomic wfcs

     Self-consistent Calculation

     iteration #  1     ecut=    36.75 Ry     beta=0.30
     Davidson diagonalization with overlap
     ethr =  1.00E-02,  avg # of iterations =  2.0

[...]

     total energy              =   -1278.14507481 Ry
     Harris-Foulkes estimate   =   -1281.61137062 Ry
     estimated scf accuracy    <       7.34976504 Ry

[...]

     iteration # 12     ecut=    36.75 Ry     beta=0.30
     Davidson diagonalization with overlap
     c_bands:  1 eigenvalues not converged
     ethr =  5.98E-05,  avg # of iterations =  6.7

[...]

     End of self-consistent calculation

          k = 0.0000 0.0000 0.0000 ( 31997 PWs)   bands (ev):

   -32.1836 -32.0824 -32.0823 -32.0691 -31.9402 -31.9400 -31.9301 -31.6200
   -31.5032 -31.5031 -31.4704 -31.1789 -16.2443 -16.1641 -16.1641 -16.1304
   -16.0900 -16.0900 -16.0748 -15.9611 -15.9611 -15.9219 -15.7911 -15.6558
   -15.6557 -15.6006 -15.4725 -15.4233 -15.4233 -15.4230 -15.3274 -15.3269
   -15.3269 -15.2992 -15.2991 -15.0731 -15.0731 -15.0274 -15.0274 -15.0232
   -14.9726 -14.9049 -14.9049 -14.8997 -14.7179 -14.7179 -14.6518 -14.6518
   -13.0590  -1.4961  -0.7671  -0.4457  -0.3929  -0.3929  -0.3571  -0.1477
    -0.1434  -0.1434   0.0040   0.1037   0.1037   0.1320   0.1525   0.1525
     0.3455   0.3455   0.4801   0.9797   1.2902   1.2902   1.4909   1.8487
     1.9792   1.9792   2.0743   2.1389   2.3802   2.4669   2.4670

[...]

          k =-0.0669 0.0387 0.0000 ( 31970 PWs)   bands (ev):

[...]

     the Fermi energy is     1.2917 ev

!    total energy              =   -1280.74628470 Ry
     Harris-Foulkes estimate   =   -1280.74633595 Ry
     estimated scf accuracy    <       0.00000228 Ry

     The total energy is the sum of the following terms:

     one-electron contribution =   -4760.87427757 Ry
     hartree contribution      =    2393.02728885 Ry
     xc contribution           =    -616.02984387 Ry
     ewald contribution        =    1703.24878173 Ry
     electric field correction =       0.00121636 Ry
     smearing contrib. (-TS)   =      -0.11945021 Ry

     convergence has been achieved in  22 iterations

 BEEF-vdW xc energy contributions
           1 :   -545.657800261739
           2 :    501.687131344518
           3 :   -424.064167923238
           4 :    329.457419430301
           5 :   -235.415403976627
           6 :    155.748510459105
           7 :   -97.9995807500613
           8 :    63.1642428121518
           9 :   -47.1666703795995
          10 :    43.2478376937862
          11 :   -44.3664474008642
          12 :    44.9170018977420
          13 :   -41.5245371805482
          14 :    33.0918089477228
          15 :   -20.4400184425197
          16 :    5.75965561849898
          17 :    8.07313062617436
          18 :   -18.2939287497875
          19 :    23.0484403601565
          20 :   -21.9850733336001
          21 :    16.4040439452319
          22 :   -8.83977556421746
          23 :    2.17535066886808
          24 :    1.38368273037577
          25 :   -1.05841047732406
          26 :   -2.35021605945985
          27 :    6.95333257594359
          28 :   -10.6663237618569
          29 :    12.0869051297320
          30 :   -10.9815478309220
          31 :   -46.4720679232357
          32 :   -33.2996762822447

     Forces acting on atoms (Ry/au):

     negative rho (up, down):  5.822E-01 0.000E+00
     atom    1 type  1   force =    -0.00040468   -0.00023541    0.00437684
     atom    2 type  1   force =     0.00039889   -0.00023298    0.00437893
     atom    3 type  1   force =     0.00000483    0.00046818    0.00438558
     atom    4 type  1   force =    -0.00000042    0.00000548    0.00475017
     atom    5 type  1   force =     0.00000179    0.00486511   -0.00651724
     atom    6 type  1   force =    -0.00000388   -0.00000163   -0.00092836
     atom    7 type  1   force =    -0.00420924   -0.00243766   -0.00651930
     atom    8 type  1   force =     0.00421325   -0.00242508   -0.00651828
     atom    9 type  1   force =     0.00000181    0.00000241    0.13313738
     atom   10 type  1   force =     0.00000223   -0.00078186    0.00705808
     atom   11 type  1   force =    -0.00067885    0.00038857    0.00705365
     atom   12 type  1   force =     0.00067504    0.00038436    0.00705654
     atom   13 type  2   force =    -0.00000078    0.00000052   -0.15171400

     Total force =     0.202222     Total SCF correction =     0.002781

     entering subroutine stress ...

     negative rho (up, down):  5.822E-01 0.000E+00
          total   stress  (Ry/bohr**3)                   (kbar)     P=   -4.57
  -0.00000132   0.00000000   0.00000000         -0.19      0.00      0.00
   0.00000000  -0.00000132  -0.00000000          0.00     -0.19     -0.00
   0.00000000  -0.00000000  -0.00009055          0.00     -0.00    -13.32

     BFGS Geometry Optimization

     number of scf cycles    =   1
     number of bfgs steps    =   0

     energy   new            =   -1280.7462847021 Ry

     new trust radius        =       0.1517139998 bohr
     new conv_thr            =       0.0000099958 Ry

ATOMIC_POSITIONS (crystal)
La1      0.166666667   0.166666667   0.383173129    0   0   0
La1      0.666666667   0.166666667   0.383173129    0   0   0
La1      0.166666667   0.666666667   0.383173129    0   0   0
La1      0.666666667   0.666666667   0.383173129    0   0   0
La1      0.833333333   0.333333333   0.500000000    0   0   0
La1      0.333333333   0.333333333   0.500000000    0   0   0
La1      0.833333333   0.833333333   0.500000000    0   0   0
La1      0.333333333   0.833333333   0.500000000    0   0   0
La1      0.000000030   0.000000197   0.619526451
La1      0.500032143  -0.000063970   0.616969985
La1     -0.000063996   0.500031792   0.616969895
La1      0.500032107   0.500031447   0.616969954
O1      -0.000000076   0.000000043   0.702665944

     Writing output data file calc.save
     Check: negative starting charge=   -0.831266
     NEW-OLD atomic charge density approx. for the potential
     Check: negative starting charge=   -0.831760

[...]

     energy   old            =   -1280.7462847021 Ry
     energy   new            =   -1280.7849909041 Ry

     CASE: energy  _new < energy  _old

     WARNING: bfgs curvature condition failed, Theta= 0.925
     new trust radius        =       0.2275709997 bohr
     new conv_thr            =       0.0000001000 Ry

[...]

     Threshold (ethr) on eigenvalues was too large:
     Diagonalizing with lowered threshold

     Davidson diagonalization with overlap
     ethr =  4.60E-08,  avg # of iterations =  2.0

[...]

     Total force =     0.006096     Total SCF correction =     0.000650
     SCF correction compared to forces is large: reduce conv_thr to get better values

[...]

     WARNING: bfgs curvature condition failed, Theta= 0.616
     uphill step: resetting bfgs history

[...]

     WARNING: bfgs curvature condition failed, Theta= 0.826
     new trust radius        =       0.0066894060 bohr
     new conv_thr            =       0.0000001000 Ry

[...]

     Threshold (ethr) on eigenvalues was too large:
     Diagonalizing with lowered threshold

     Davidson diagonalization with overlap
     ethr =  3.57E-08,  avg # of iterations =  2.2

[...]

     iteration #  2     ecut=    36.75 Ry     beta=0.30
     Davidson diagonalization with overlap
     c_bands:  1 eigenvalues not converged
     c_bands:  1 eigenvalues not converged
     c_bands:  1 eigenvalues not converged
     ethr =  1.10E-07,  avg # of iterations = 13.3

[...]

     Total force =     0.005093     Total SCF correction =     0.000344

[...]

     number of scf cycles    =  14
     number of bfgs steps    =  13

     energy   old            =   -1280.8215326285 Ry
     energy   new            =   -1280.8218123978 Ry

     CASE: energy  _new < energy  _old

     new trust radius        =       0.0761965151 bohr
     new conv_thr            =       0.0000001000 Ry

ATOMIC_POSITIONS (crystal)
La1      0.166666667   0.166666667   0.383173129    0   0   0
La1      0.666666667   0.166666667   0.383173129    0   0   0
La1      0.166666667   0.666666667   0.383173129    0   0   0
La1      0.666666667   0.666666667   0.383173129    0   0   0
La1      0.833333333   0.333333333   0.500000000    0   0   0
La1      0.333333333   0.333333333   0.500000000    0   0   0
La1      0.833333333   0.833333333   0.500000000    0   0   0
La1      0.333333333   0.833333333   0.500000000    0   0   0
La1      0.000000675  -0.000001203   0.619180171
La1      0.499267741   0.001463189   0.617505610
La1      0.001462981   0.499268957   0.617505580
La1      0.499268290   0.499268844   0.617505500
O1      -0.000000587   0.000000731   0.692910350

     Writing output data file calc.save
     Check: negative starting charge=   -0.831269
     NEW-OLD atomic charge density approx. for the potential
     Check: negative starting charge=   -0.831624

[...]

     Self-consistent Calculation

[...]

     total energy              =   -1280.82210237 Ry
     Harris-Foulkes estimate   =   -1280.82210229 Ry
     estimated scf accuracy    <       0.00000013 Ry

     iteration # 13     ecut=    36.75 Ry     beta=0.30
     Davidson diagonalization with overlap
     ethr =  9.65E-11,  avg # of iterations =  5.9

[...]

     negative rho (up, down):  5.700E-01 0.000E+00

     Adding external electric field

     Computed dipole along edir(3) :
        Dipole               -0.4672 Ry au,         -1.1875 Debye
        Dipole field         -0.0007 Ry au

        Potential amp.        0.0664 Ry
        Total length         48.0849 bohr

     End of self-consistent calculation

[...]

          k = 0.0446-0.0515 0.0000 ( 31991 PWs)   bands (ev):

[...]

          k =-0.0669-0.0387 0.0000 ( 31970 PWs)   bands (ev):

   -31.8438 -31.8117 -31.7782 -31.6853 -31.6780 -31.6187 -31.6090 -31.2662
   -31.2468 -31.2030 -31.1560 -30.4734 -17.6098 -15.7566 -15.6411 -15.6403
   -15.6286 -15.6033 -15.5615 -15.5212 -15.5012 -15.4577 -15.4251 -15.4186
   -15.4127 -15.3432 -15.3364 -15.3087 -15.3048 -15.2401 -15.2344 -15.0644
   -15.0135 -15.0000 -14.8854 -14.8811 -14.8770 -14.8519 -14.8145 -14.7671
   -14.7135 -14.7013 -14.6931 -14.6231 -14.4996 -14.4557 -14.1589 -14.0481
   -11.5016  -1.1932  -1.1706  -0.7875   0.0044   0.0763   0.4395   0.5150
     0.7889   0.7941   0.8474   0.8707   0.9711   1.0037   1.2546   1.3238
     1.4372   1.4385   1.4765   1.5224   1.7171   1.7482   1.8021   1.8095
     1.8885   1.9572   1.9802   2.0335   2.0933   2.2049   2.2107

     the Fermi energy is     1.6123 ev

!    total energy              =   -1280.82210237 Ry
     Harris-Foulkes estimate   =   -1280.82210243 Ry
     estimated scf accuracy    <       0.00000002 Ry

     The total energy is the sum of the following terms:

     one-electron contribution =   -4792.69739855 Ry
     hartree contribution      =    2410.23707771 Ry
     xc contribution           =    -616.33858274 Ry
     ewald contribution        =    1718.09664235 Ry
     electric field correction =       0.00032240 Ry
     smearing contrib. (-TS)   =      -0.12016355 Ry

     convergence has been achieved in  13 iterations

 BEEF-vdW xc energy contributions
           1 :   -545.960727434575
           2 :    502.036554134005
           3 :   -424.463607778606
           4 :    329.869194168222
           5 :   -235.786327665196
           6 :    156.028336790534
           7 :   -98.1495753025297
           8 :    63.1655490587996
           9 :   -47.0283514859698
          10 :    43.0071291048090
          11 :   -44.0810248982039
          12 :    44.6530135738852
          13 :   -41.3398487708629
          14 :    33.0169136373656
          15 :   -20.4676418205056
          16 :    5.85111882373371
          17 :    7.96854917926862
          18 :   -18.2177495863093
          19 :    23.0206728911082
          20 :   -22.0057654155968
          21 :    16.4657335527548
          22 :   -8.94011791808794
          23 :    2.31834902451578
          24 :    1.19931917246879
          25 :  -0.852351454483824
          26 :   -2.53892537593083
          27 :    7.08026882986678
          28 :   -10.7034153480615
          29 :    12.0395830174147
          30 :   -10.8895843169353
          31 :   -46.4882345230187
          32 :   -33.3262040216274

     Forces acting on atoms (Ry/au):

     negative rho (up, down):  5.700E-01 0.000E+00
     atom    1 type  1   force =    -0.00042872   -0.00024793    0.00440175
     atom    2 type  1   force =     0.00042870   -0.00024718    0.00440187
     atom    3 type  1   force =     0.00000014    0.00049529    0.00440261
     atom    4 type  1   force =    -0.00000053    0.00000017    0.00508346
     atom    5 type  1   force =    -0.00000005    0.00454248   -0.00546311
     atom    6 type  1   force =    -0.00000002    0.00000042    0.00064598
     atom    7 type  1   force =    -0.00393363   -0.00227158   -0.00546316
     atom    8 type  1   force =     0.00393351   -0.00227107   -0.00546383
     atom    9 type  1   force =    -0.00000052    0.00000085   -0.00149794
     atom   10 type  1   force =     0.00000052   -0.00041605    0.00008758
     atom   11 type  1   force =    -0.00036039    0.00020712    0.00008696
     atom   12 type  1   force =     0.00036096    0.00020734    0.00008776
     atom   13 type  2   force =     0.00000003    0.00000015   -0.00130992

     Total force =     0.002122     Total SCF correction =     0.000379
     SCF correction compared to forces is large: reduce conv_thr to get better values

     entering subroutine stress ...

     negative rho (up, down):  5.700E-01 0.000E+00
          total   stress  (Ry/bohr**3)                   (kbar)     P=   -0.24
   0.00000547   0.00000000   0.00000000          0.80      0.00      0.00
   0.00000000   0.00000547   0.00000000          0.00      0.80      0.00
   0.00000000   0.00000000  -0.00001591          0.00      0.00     -2.34

     bfgs converged in  15 scf cycles and  14 bfgs steps
     (criteria: energy <  1.0E+00, force <  1.9E-03)

     End of BFGS Geometry Optimization

     Final energy   =   -1280.8221023737 Ry
Begin final coordinates

ATOMIC_POSITIONS (crystal)
La1      0.166666667   0.166666667   0.383173129    0   0   0
La1      0.666666667   0.166666667   0.383173129    0   0   0
La1      0.166666667   0.666666667   0.383173129    0   0   0
La1      0.666666667   0.666666667   0.383173129    0   0   0
La1      0.833333333   0.333333333   0.500000000    0   0   0
La1      0.333333333   0.333333333   0.500000000    0   0   0
La1      0.833333333   0.833333333   0.500000000    0   0   0
La1      0.333333333   0.833333333   0.500000000    0   0   0
La1      0.000000675  -0.000001203   0.619180171
La1      0.499267741   0.001463189   0.617505610
La1      0.001462981   0.499268957   0.617505580
La1      0.499268290   0.499268844   0.617505500
O1      -0.000000587   0.000000731   0.692910350
End final coordinates

     Writing output data file calc.save

     General routines

     Parallel routines

   This run was terminated on:  14:32:38   4Feb2018

   JOB DONE.