     Program PWSCF v.5.1rc2 (svn rev. ) starts on 18Apr2018 at  9: 9: 2

     Current dimensions of program PWSCF are:
     Max number of different atomic species (ntypx) = 10
     Max number of k-points (npk) =  40000
     Max angular momentum in pseudopotentials (lmaxx) =  3
     Presently stress not available with electric field

     IMPORTANT: XC functional enforced from input :
     Exchange-correlation      = BEEF-VDW ( 1  4 27 13 2)
     Any further DFT definition will be discarded
     Please, verify this is what you really want

     Subspace diagonalization in iterative solution of the eigenvalue problem:
     a serial algorithm will be used

     bravais-lattice index     =            0
     lattice parameter (alat)  =       1.8897  a.u.
     unit-cell volume          =    6501.5726 (a.u.)^3
     number of atoms/cell      =           14
     number of atomic types    =            3
     number of electrons       =       163.00
     number of Kohn-Sham states=           91
     kinetic-energy cutoff     =      36.7493  Ry
     charge density cutoff     =     367.4932  Ry
     convergence threshold     =      1.0E-05
     mixing beta               =       0.3000
     number of iterations used =           10  plain     mixing
     Exchange-correlation      = BEEF-VDW ( 1  4 27 13 2)
     nstep                     =           50

     celldm(1)=   1.889726  celldm(2)=   0.000000  celldm(3)=   0.000000
     celldm(4)=   0.000000  celldm(5)=   0.000000  celldm(6)=   0.000000

     crystal axes: (cart. coord. in units of alat)
               a(1) = (   6.617606   0.000000   0.000000 )
               a(2) = (   3.308803   5.731015   0.000000 )
               a(3) = (   0.000000   0.000000  25.403253 )

     reciprocal axes: (cart. coord. in units 2 pi/alat)
               b(1) = (  0.151112 -0.087245  0.000000 )
               b(2) = (  0.000000  0.174489  0.000000 )
               b(3) = (  0.000000  0.000000  0.039365 )

     PseudoPot. # 1 for In read from file:
     /home/mamunm/src/pseudo/gbrv1.5pbe/In.UPF
     MD5 check sum: 90777abd96fbb83f2e67db2a40c566b9
     Pseudo is Ultrasoft + core correction, Zval = 13.0
     Generated by new atomic code, or converted to UPF format
     Using radial grid of  889 points,  6 beta functions with:
                l(1) =   0
                l(2) =   0
                l(3) =   1
                l(4) =   1
                l(5) =   2
                l(6) =   2
     Q(r) pseudized with  6 coefficients,  rinner =    1.400   1.400   1.400
                                                       1.400   1.400

     PseudoPot. # 2 for S  read from file:
     /home/mamunm/src/pseudo/gbrv1.5pbe/S.UPF
     MD5 check sum: 88d86576ff6df21479756cfb9bdac1df
     Pseudo is Ultrasoft + core correction, Zval =  6.0
     Generated by new atomic code, or converted to UPF format
     Using radial grid of  907 points,  6 beta functions with:
                l(1) =   0
                l(2) =   0
                l(3) =   1
                l(4) =   1
                l(5) =   2
                l(6) =   2
     Q(r) pseudized with  8 coefficients,  rinner =    1.300   1.300   1.300
                                                       1.300   1.300

     PseudoPot. # 3 for H  read from file:
     /home/mamunm/src/pseudo/gbrv1.5pbe/H.UPF
     MD5 check sum: 761ae9a214b05c3daf00ab9f6b793d6f
     Pseudo is Ultrasoft, Zval =  1.0
     Generated by new atomic code, or converted to UPF format
     Using radial grid of  615 points,  2 beta functions with:
                l(1) =   0
                l(2) =   0
     Q(r) pseudized with  8 coefficients,  rinner =    0.700

     vdW kernel table read from file vdW_kernel_table
     MD5 check sum: 095c7af220d748ca6e76c0b4c6cfb241

     atomic species   valence    mass     pseudopotential
        In1           13.00   114.81800     In( 1.00)
        S1             6.00    32.06000     S ( 1.00)
        H1             1.00     1.00800     H ( 1.00)

     No symmetry found

   Cartesian axes

     site n.     atom                  positions (alat units)
         1           In1 tau(   1) = (   1.6544016   0.9551692  10.0000000  )
         2           In1 tau(   2) = (   4.9632047   0.9551692  10.0000000  )
         3           In1 tau(   3) = (   3.3088031   3.8206768  10.0000000  )
         4           In1 tau(   4) = (   6.6176063   3.8206768  10.0000000  )
         5           In1 tau(   5) = (   6.6176063   1.9103384  12.7016265  )
         6           In1 tau(   6) = (   3.3088031   1.9103384  12.7016265  )
         7           In1 tau(   7) = (   8.2720078   4.7758460  12.7016265  )
         8           In1 tau(   8) = (   4.9632047   4.7758460  12.7016265  )
         9           In1 tau(   9) = (   0.0000000   0.0000000  15.4032529  )
        10           In1 tau(  10) = (   3.3088031   0.0000000  15.4032529  )
        11           In1 tau(  11) = (   1.6544016   2.8655076  15.4032529  )
        12           In1 tau(  12) = (   4.9632047   2.8655076  15.4032529  )
        13           S1  tau(  13) = (   1.6544016   0.9551692  17.0087529  )
        14           H1  tau(  14) = (   1.6544016   0.9551692  18.2587529  )

     number of k points=    20  Fermi-Dirac smearing, width (Ry)=  0.0110
                       cart. coord. in units 2pi/alat
        k(    1) = (   0.0000000   0.0000000   0.0000000), wk =   0.0555556
        k(    2) = (   0.0000000   0.0290815   0.0000000), wk =   0.1111111
        k(    3) = (   0.0000000   0.0581631   0.0000000), wk =   0.1111111
        k(    4) = (   0.0000000  -0.0872446   0.0000000), wk =   0.0555556
        k(    5) = (   0.0251853  -0.0145408   0.0000000), wk =   0.1111111
        k(    6) = (   0.0251853   0.0145408   0.0000000), wk =   0.1111111
        k(    7) = (   0.0251853   0.0436223   0.0000000), wk =   0.1111111
        k(    8) = (   0.0251853  -0.1017853   0.0000000), wk =   0.1111111
        k(    9) = (   0.0251853  -0.0727038   0.0000000), wk =   0.1111111
        k(   10) = (   0.0251853  -0.0436223   0.0000000), wk =   0.1111111
        k(   11) = (   0.0503707  -0.0290815   0.0000000), wk =   0.1111111
        k(   12) = (   0.0503707   0.0000000   0.0000000), wk =   0.1111111
        k(   13) = (   0.0503707   0.0290815   0.0000000), wk =   0.1111111
        k(   14) = (   0.0503707  -0.1163261   0.0000000), wk =   0.1111111
        k(   15) = (   0.0503707  -0.0872446   0.0000000), wk =   0.1111111
        k(   16) = (   0.0503707  -0.0581631   0.0000000), wk =   0.1111111
        k(   17) = (  -0.0755560   0.0436223   0.0000000), wk =   0.0555556
        k(   18) = (  -0.0755560   0.0727038   0.0000000), wk =   0.1111111
        k(   19) = (  -0.0755560   0.1017853   0.0000000), wk =   0.1111111
        k(   20) = (  -0.0755560  -0.0436223   0.0000000), wk =   0.0555556

     Largest allocated arrays     est. size (Mb)     dimensions
     Largest temporary arrays     est. size (Mb)     dimensions

     Initial potential from superposition of free atoms
     Check: negative starting charge=   -0.000155

     starting charge  144.99995, renormalised to  163.00000

     negative rho (up, down):  1.739E-04 0.000E+00

     *
     * You are using vdW-DF for exchange-correlation in this calculation.
     * Please cite the following three references that made this development
     * possible:
     *
     *   M. Dion, H. Rydberg, E. Schroder, D. C. Langreth, and
     *   B. I. Lundqvist, Phys. Rev. Lett. 92, 246401 (2004).
     *
     *   T. Thonhauser, V. R. Cooper, S. Li, A. Puzder, P. Hyldgaard, and
     *   D. C. Langreth, Phys. Rev. B 76, 125112 (2007).
     *
     *   G. Roman-Perez and J. M. Soler, Phys. Rev. Lett. 103, 096102 (2009).
     *
     *
     * If you are using vdW-DF2, please also cite:
     *
     *   K. Lee, E. D. Murray, L. Kong, B. I. Lundqvist, and
     *   D. C. Langreth, Phys. Rev. B 82, 081101(R) (2010).
     *
     *
     * If you are calculating the stress with vdW-DF, please also cite:
     *
     *   R. Sabatini, E. Kucukbenli, B. Kolb, T. Thonhauser, and
     *   S. de Gironcoli, J. Phys.: Condens. Matter 24, 424209 (2012).
     *

     Carrying out vdW-DF run using the following parameters:

     Nqs =      20    Nr_points =    1024   r_max =   100.000
     q_mesh =
               0.00001000     0.04494208     0.09755937     0.15916263
               0.23128650     0.31572767     0.41458969     0.53033537
               0.66584808     0.82450364     1.01025438     1.22772762
               1.48234092     1.78043706     2.12944203     2.53805004
               3.01644009     3.57652955     4.23227104     5.00000000

     Gradients computed in reciprocal space

     Adding external electric field

     Computed dipole along edir(3) :
        Dipole               -7.3656 Ry au,        -18.7214 Debye
        Dipole field         -0.0142 Ry au

        Potential amp.        1.3327 Ry
        Total length         46.8051 bohr

     Starting wfc are  113 randomized atomic wfcs

     Self-consistent Calculation

     iteration #  1     ecut=    36.75 Ry     beta=0.30
     Davidson diagonalization with overlap
     ethr =  1.00E-02,  avg # of iterations =  8.5

[...]

     total energy              =    -831.25311332 Ry
     Harris-Foulkes estimate   =   -1614.53260534 Ry
     estimated scf accuracy    <    1670.84046331 Ry

[...]

     End of self-consistent calculation

          k = 0.0000 0.0000 0.0000 ( 24345 PWs)   bands (ev):

   -15.1660 -14.1796 -14.1618 -14.1618 -14.1045 -14.1045 -14.0780 -14.0542
   -14.0480 -14.0480 -14.0106 -14.0106 -13.9870 -13.9870 -13.9812 -13.9749
   -13.9601 -13.9589 -13.9589 -13.9452 -13.9452 -13.9334 -13.9291 -13.9215
   -13.9215 -13.8960 -13.8884 -13.8884 -13.8692 -13.8692 -13.8309 -13.8309
   -13.8016 -13.8016 -13.7960 -13.7509 -13.7509 -13.7312 -13.7310 -13.7310
   -13.7304 -13.6755 -13.6614 -13.6614 -13.6485 -13.6477 -13.6477 -13.6344
   -13.6344 -13.6320 -13.6242 -13.6242 -13.6000 -13.6000 -13.5927 -13.5907
   -13.5907 -13.5626 -13.5625 -13.5503 -13.3923  -8.3657  -7.5794  -6.1033
    -4.4657  -4.4657  -4.2275  -3.2699  -3.1750  -3.1750  -2.9116  -2.6532
    -2.6532  -1.7036  -1.7036  -1.6205  -1.4483  -1.0413  -1.0413  -0.7245
     0.1290   0.1290   0.2645   0.9315   0.9868   0.9868   2.0761   3.3922
     3.6369   3.6857   3.6857

[...]

          k =-0.0756 0.0436 0.0000 ( 24448 PWs)   bands (ev):

[...]

     the Fermi energy is     1.0930 ev

!    total energy              =   -1642.85039050 Ry
     Harris-Foulkes estimate   =   -1642.85038684 Ry
     estimated scf accuracy    <       0.00000254 Ry

     The total energy is the sum of the following terms:

     one-electron contribution =   -9500.01494494 Ry
     hartree contribution      =    4833.60389427 Ry
     xc contribution           =    -479.37686530 Ry
     ewald contribution        =    3502.97579520 Ry
     electric field correction =       0.00012738 Ry
     smearing contrib. (-TS)   =      -0.03839711 Ry

     convergence has been achieved in  25 iterations

 BEEF-vdW xc energy contributions
           1 :   -419.700380208724
           2 :    383.404417594730
           3 :   -322.080789424213
           4 :    252.902577130888
           5 :   -191.604780613993
           6 :    146.839265869928
           7 :   -118.513991821466
           8 :    100.301729256283
           9 :   -84.4850200507041
          10 :    66.3267585878481
          11 :   -45.8089494053162
          12 :    26.3264777522366
          13 :   -11.6942096559666
          14 :    3.54008779004340
          15 :  -0.551962961486538
          16 :  -0.338732604213874
          17 :    1.92662134350189
          18 :   -5.25555349472052
          19 :    9.48726270702571
          20 :   -12.9320120209213
          21 :    14.3701280855980
          22 :   -13.7838479779556
          23 :    12.1606491195892
          24 :   -10.6944032769525
          25 :    10.0322352005264
          26 :   -10.0509421547680
          27 :    10.1846504063408
          28 :   -9.94792672734837
          29 :    9.24484467329546
          30 :   -8.30543234878257
          31 :   -38.3411991812591
          32 :   -27.8211548142869

     Forces acting on atoms (Ry/au):

     negative rho (up, down):  1.045E-03 0.000E+00
     atom    1 type  1   force =    -0.00000048    0.00000830   -0.01002474
     atom    2 type  1   force =     0.00000348    0.00016400   -0.00966522
     atom    3 type  1   force =     0.00013894   -0.00008046   -0.00967244
     atom    4 type  1   force =    -0.00013738   -0.00007915   -0.00968642
     atom    5 type  1   force =    -0.00226051    0.00131045    0.00307689
     atom    6 type  1   force =     0.00225710    0.00130591    0.00307025
     atom    7 type  1   force =    -0.00000151   -0.00000509   -0.00980174
     atom    8 type  1   force =     0.00000619   -0.00261438    0.00307485
     atom    9 type  1   force =    -0.05990911   -0.03459290   -0.03565198
     atom   10 type  1   force =     0.05990663   -0.03458833   -0.03565904
     atom   11 type  1   force =    -0.00000189    0.06916790   -0.03565948
     atom   12 type  1   force =    -0.00000090    0.00000450    0.00322114
     atom   13 type  2   force =    -0.00000059   -0.00000032   -0.00231830
     atom   14 type  3   force =     0.00000004   -0.00000041    0.14569621

     Total force =     0.198526     Total SCF correction =     0.002520

     entering subroutine stress ...

     negative rho (up, down):  1.045E-03 0.000E+00
          total   stress  (Ry/bohr**3)                   (kbar)     P=   18.37
   0.00010238  -0.00000000   0.00000000         15.06     -0.00      0.00
  -0.00000000   0.00010238  -0.00000000         -0.00     15.06     -0.00
   0.00000000  -0.00000000   0.00016995          0.00     -0.00     25.00

     BFGS Geometry Optimization

     number of scf cycles    =   1
     number of bfgs steps    =   0

     energy   new            =   -1642.8503905040 Ry

     new trust radius        =       0.1456962099 bohr
     new conv_thr            =       0.0000099958 Ry

ATOMIC_POSITIONS (crystal)
In1      0.166666667   0.166666667   0.393650374    0   0   0
In1      0.666666667   0.166666667   0.393650374    0   0   0
In1      0.166666667   0.666666667   0.393650374    0   0   0
In1      0.666666667   0.666666667   0.393650374    0   0   0
In1      0.833333333   0.333333333   0.500000000    0   0   0
In1      0.333333333   0.333333333   0.500000000    0   0   0
In1      0.833333333   0.833333333   0.500000000    0   0   0
In1      0.333333333   0.833333333   0.500000000    0   0   0
In1     -0.003193556  -0.003194159   0.605606957
In1      0.506387305  -0.003193737   0.605606810
In1     -0.003193484   0.506386665   0.605606801
In1      0.499999720   0.500000415   0.606416726
S1       0.166666634   0.166666637   0.669501901
H1       0.166666689   0.166666629   0.721791500

     Writing output data file calc.save
     Check: negative starting charge=   -0.000155
     NEW-OLD atomic charge density approx. for the potential
     Check: negative starting charge=   -0.000151

[...]

     energy   old            =   -1642.8503905040 Ry
     energy   new            =   -1642.8796692553 Ry

     CASE: energy  _new < energy  _old

[...]

     Total force =     0.006914     Total SCF correction =     0.001469
     SCF correction compared to forces is large: reduce conv_thr to get better values

[...]

     Threshold (ethr) on eigenvalues was too large:
     Diagonalizing with lowered threshold

     Davidson diagonalization with overlap
     ethr =  8.36E-08,  avg # of iterations =  1.1

[...]

     Total force =     0.003906     Total SCF correction =     0.000467
     SCF correction compared to forces is large: reduce conv_thr to get better values

[...]

     number of scf cycles    =  24
     number of bfgs steps    =  23

     energy   old            =   -1642.9547143641 Ry
     energy   new            =   -1642.9548631842 Ry

     CASE: energy  _new < energy  _old

     new trust radius        =       0.0717107895 bohr
     new conv_thr            =       0.0000001000 Ry

ATOMIC_POSITIONS (crystal)
In1      0.166666667   0.166666667   0.393650374    0   0   0
In1      0.666666667   0.166666667   0.393650374    0   0   0
In1      0.166666667   0.666666667   0.393650374    0   0   0
In1      0.666666667   0.666666667   0.393650374    0   0   0
In1      0.833333333   0.333333333   0.500000000    0   0   0
In1      0.333333333   0.333333333   0.500000000    0   0   0
In1      0.833333333   0.833333333   0.500000000    0   0   0
In1      0.333333333   0.833333333   0.500000000    0   0   0
In1     -0.001723918  -0.001723216   0.621172767
In1      0.503447500  -0.001724396   0.621172892
In1     -0.001724242   0.503446330   0.621172708
In1      0.500001053   0.499998895   0.611809702
S1       0.166666289   0.166666557   0.709383874
H1       0.166666819   0.166666428   0.762912815

     Writing output data file calc.save
     Check: negative starting charge=   -0.000136
     NEW-OLD atomic charge density approx. for the potential
     Check: negative starting charge=   -0.000137

[...]

     Self-consistent Calculation

[...]

     total energy              =   -1642.95504388 Ry
     Harris-Foulkes estimate   =   -1642.95504407 Ry
     estimated scf accuracy    <       0.00000015 Ry

     iteration #  8     ecut=    36.75 Ry     beta=0.30
     Davidson diagonalization with overlap
     ethr =  9.50E-11,  avg # of iterations =  2.0

[...]

     negative rho (up, down):  9.893E-04 0.000E+00

     Adding external electric field

     Computed dipole along edir(3) :
        Dipole               -0.2236 Ry au,         -0.5685 Debye
        Dipole field         -0.0004 Ry au

        Potential amp.        0.0405 Ry
        Total length         46.8051 bohr

     End of self-consistent calculation

[...]

          k = 0.0504-0.0582 0.0000 ( 24479 PWs)   bands (ev):

[...]

          k =-0.0756-0.0436 0.0000 ( 24448 PWs)   bands (ev):

   -14.5105 -14.5064 -14.4599 -14.4535 -14.4489 -14.4454 -14.4447 -14.4406
   -14.4265 -14.4161 -14.4112 -14.4084 -14.3929 -14.3885 -14.3776 -14.3709
   -14.3692 -14.3652 -14.3567 -14.3482 -14.3382 -14.3346 -14.3307 -14.3248
   -14.3153 -14.3103 -14.3099 -14.3019 -14.2976 -14.2910 -14.2898 -14.2747
   -14.2654 -14.2600 -14.2556 -14.2540 -14.2525 -14.2455 -14.2448 -14.2276
   -14.2271 -14.2209 -14.2196 -14.2186 -14.2178 -14.2096 -14.2062 -14.2042
   -14.2035 -14.2017 -14.1953 -14.1918 -14.1550 -14.1486 -14.1480 -14.1440
   -14.1200 -14.1140 -14.0951 -14.0943 -12.2796  -7.1779  -7.1403  -6.2416
    -5.9228  -5.0207  -4.6389  -4.6027  -4.2617  -3.8441  -3.5835  -3.0812
    -2.1937  -1.8925  -1.5012  -0.9438  -0.1181  -0.0565   0.2719   0.3108
     0.7215   0.7825   1.5687   1.6424   1.6695   1.7625   2.3977   2.5562
     2.7109   2.8972   3.0303

     the Fermi energy is     0.5645 ev

!    total energy              =   -1642.95504393 Ry
     Harris-Foulkes estimate   =   -1642.95504382 Ry
     estimated scf accuracy    <       0.00000003 Ry

     The total energy is the sum of the following terms:

     one-electron contribution =   -8892.53028630 Ry
     hartree contribution      =    4527.96204870 Ry
     xc contribution           =    -478.91609226 Ry
     ewald contribution        =    3200.56730406 Ry
     electric field correction =       0.00009668 Ry
     smearing contrib. (-TS)   =      -0.03811481 Ry

     convergence has been achieved in   8 iterations

 BEEF-vdW xc energy contributions
           1 :   -419.213428510167
           2 :    382.650466166108
           3 :   -321.034001293578
           4 :    251.802869687112
           5 :   -190.789467876679
           6 :    146.520787045673
           7 :   -118.647427790764
           8 :    100.627158786166
           9 :   -84.7040855840581
          10 :    66.2875951474425
          11 :   -45.5754980821820
          12 :    26.0952318378050
          13 :   -11.6315630478398
          14 :    3.66417466655258
          15 :  -0.739444240940202
          16 :  -0.239229924076483
          17 :    1.97176425685774
          18 :   -5.37097557252463
          19 :    9.53877364885795
          20 :   -12.8409822506975
          21 :    14.1796987573235
          22 :   -13.6246187419506
          23 :    12.1450637006792
          24 :   -10.8248848855744
          25 :    10.1968695539292
          26 :   -10.1105212457295
          27 :    10.0826929664257
          28 :   -9.75745150828629
          29 :    9.11545904413788
          30 :   -8.35131772415872
          31 :   -38.3006005341110
          32 :   -27.7141164631693

     Forces acting on atoms (Ry/au):

     negative rho (up, down):  9.893E-04 0.000E+00
     atom    1 type  1   force =    -0.00000004    0.00000003   -0.01281261
     atom    2 type  1   force =     0.00000006    0.00019120   -0.01211096
     atom    3 type  1   force =     0.00016555   -0.00009558   -0.01211089
     atom    4 type  1   force =    -0.00016558   -0.00009566   -0.01211098
     atom    5 type  1   force =     0.00089628   -0.00051749    0.01336810
     atom    6 type  1   force =    -0.00089630   -0.00051745    0.01336835
     atom    7 type  1   force =     0.00000005   -0.00000000    0.01106376
     atom    8 type  1   force =    -0.00000003    0.00103492    0.01336836
     atom    9 type  1   force =    -0.00078055   -0.00045175    0.00060231
     atom   10 type  1   force =     0.00078031   -0.00045037    0.00060241
     atom   11 type  1   force =     0.00000107    0.00090175    0.00060237
     atom   12 type  1   force =    -0.00000100    0.00000050   -0.00165689
     atom   13 type  2   force =     0.00000021   -0.00000010   -0.00083014
     atom   14 type  3   force =    -0.00000003    0.00000001   -0.00134319

     Total force =     0.002961     Total SCF correction =     0.000278

     entering subroutine stress ...

     negative rho (up, down):  9.893E-04 0.000E+00
          total   stress  (Ry/bohr**3)                   (kbar)     P=    4.23
   0.00002889   0.00000000   0.00000000          4.25      0.00      0.00
   0.00000000   0.00002889  -0.00000000          0.00      4.25     -0.00
   0.00000000  -0.00000000   0.00002850          0.00     -0.00      4.19

     bfgs converged in  25 scf cycles and  24 bfgs steps
     (criteria: energy <  1.0E+00, force <  1.9E-03)

     End of BFGS Geometry Optimization

     Final energy   =   -1642.9550439322 Ry
Begin final coordinates

ATOMIC_POSITIONS (crystal)
In1      0.166666667   0.166666667   0.393650374    0   0   0
In1      0.666666667   0.166666667   0.393650374    0   0   0
In1      0.166666667   0.666666667   0.393650374    0   0   0
In1      0.666666667   0.666666667   0.393650374    0   0   0
In1      0.833333333   0.333333333   0.500000000    0   0   0
In1      0.333333333   0.333333333   0.500000000    0   0   0
In1      0.833333333   0.833333333   0.500000000    0   0   0
In1      0.333333333   0.833333333   0.500000000    0   0   0
In1     -0.001723918  -0.001723216   0.621172767
In1      0.503447500  -0.001724396   0.621172892
In1     -0.001724242   0.503446330   0.621172708
In1      0.500001053   0.499998895   0.611809702
S1       0.166666289   0.166666557   0.709383874
H1       0.166666819   0.166666428   0.762912815
End final coordinates

     Writing output data file calc.save

     General routines

     Parallel routines

   This run was terminated on:  11: 5: 7  18Apr2018

   JOB DONE.