     Program PWSCF v.5.1rc2 (svn rev. 11289) starts on 19Mar2018 at 22:26:51

     Current dimensions of program PWSCF are:
     Max number of different atomic species (ntypx) = 10
     Max number of k-points (npk) =  40000
     Max angular momentum in pseudopotentials (lmaxx) =  3
     Presently stress not available with electric field

     IMPORTANT: XC functional enforced from input :
     Exchange-correlation      = BEEF-VDW ( 1  4 27 13 2)
     Any further DFT definition will be discarded
     Please, verify this is what you really want

     Subspace diagonalization in iterative solution of the eigenvalue problem:
     a serial algorithm will be used

     bravais-lattice index     =            0
     lattice parameter (alat)  =       1.8897  a.u.
     unit-cell volume          =    4873.5693 (a.u.)^3
     number of atoms/cell      =           13
     number of atomic types    =            3
     number of electrons       =       165.00
     number of Kohn-Sham states=           92
     kinetic-energy cutoff     =      36.7493  Ry
     charge density cutoff     =     367.4932  Ry
     convergence threshold     =      1.0E-05
     mixing beta               =       0.3000
     number of iterations used =           10  plain     mixing
     Exchange-correlation      = BEEF-VDW ( 1  4 27 13 2)
     nstep                     =           50

     celldm(1)=   1.889726  celldm(2)=   0.000000  celldm(3)=   0.000000
     celldm(4)=   0.000000  celldm(5)=   0.000000  celldm(6)=   0.000000

     crystal axes: (cart. coord. in units of alat)
               a(1) = (   5.805732   0.000000   0.000000 )
               a(2) = (  -2.902866   5.027911   0.000000 )
               a(3) = (   0.000000   0.000000  24.740360 )

     reciprocal axes: (cart. coord. in units 2 pi/alat)
               b(1) = (  0.172244  0.099445  0.000000 )
               b(2) = (  0.000000  0.198890  0.000000 )
               b(3) = (  0.000000  0.000000  0.040420 )

     PseudoPot. # 1 for Ta read from file:
     /nfs/slac/g/suncatfs/sw/external/esp-psp/gbrv1.5pbe/Ta.UPF
     MD5 check sum: f8bbe9446314a3b8ea5d9f3e3836c939
     Pseudo is Ultrasoft + core correction, Zval = 13.0
     Generated by new atomic code, or converted to UPF format
     Using radial grid of  921 points,  7 beta functions with:
                l(1) =   0
                l(2) =   0
                l(3) =   1
                l(4) =   1
                l(5) =   2
                l(6) =   2
                l(7) =   3
     Q(r) pseudized with  6 coefficients,  rinner =    1.300   1.300   1.300
                                                       1.300   1.300   1.300
                                                       1.300

     PseudoPot. # 2 for Cr read from file:
     /nfs/slac/g/suncatfs/sw/external/esp-psp/gbrv1.5pbe/Cr.UPF
     MD5 check sum: 0d52af634a40206e4dee301ad30da4bf
     Pseudo is Ultrasoft + core correction, Zval = 14.0
     Generated by new atomic code, or converted to UPF format
     Using radial grid of  857 points,  6 beta functions with:
                l(1) =   0
                l(2) =   0
                l(3) =   1
                l(4) =   1
                l(5) =   2
                l(6) =   2
     Q(r) pseudized with  8 coefficients,  rinner =    0.950   0.950   0.950
                                                       0.950   0.950

     PseudoPot. # 3 for O  read from file:
     /nfs/slac/g/suncatfs/sw/external/esp-psp/gbrv1.5pbe/O.UPF
     MD5 check sum: 734c27235a0248c51dbae37a1fbe46ec
     Pseudo is Ultrasoft + core correction, Zval =  6.0
     Generated by new atomic code, or converted to UPF format
     Using radial grid of  737 points,  5 beta functions with:
                l(1) =   0
                l(2) =   0
                l(3) =   1
                l(4) =   1
                l(5) =   2
     Q(r) pseudized with  8 coefficients,  rinner =    0.900   0.900   0.900
                                                       0.900   0.900

     vdW kernel table read from file vdW_kernel_table
     MD5 check sum: 095c7af220d748ca6e76c0b4c6cfb241

     atomic species   valence    mass     pseudopotential
        Ta1           13.00   180.94788     Ta( 1.00)
        Cr1           14.00    51.99610     Cr( 1.00)
        O1             6.00    15.99900     O ( 1.00)

     No symmetry found

   Cartesian axes

     site n.     atom                  positions (alat units)
         1           Ta1 tau(   1) = (   0.0000000   0.0000000  10.0000000  )
         2           Ta1 tau(   2) = (  -1.4514329   2.5139555  10.0000000  )
         3           Ta1 tau(   3) = (   1.4514329   2.5139555  10.0000000  )
         4           Cr1 tau(   4) = (   2.9028658   0.0000000  10.0000000  )
         5           Ta1 tau(   5) = (   2.9028658   1.6759703  12.3701800  )
         6           Ta1 tau(   6) = (   1.4514329   4.1899258  12.3701800  )
         7           Ta1 tau(   7) = (  -1.4514329   4.1899258  12.3701800  )
         8           Cr1 tau(   8) = (   0.0000000   1.6759703  12.3701800  )
         9           Ta1 tau(   9) = (  -0.0000000   3.3519407  14.7403600  )
        10           Ta1 tau(  10) = (   1.4514329   0.8379852  14.7403600  )
        11           Ta1 tau(  11) = (   4.3542987   0.8379852  14.7403600  )
        12           Cr1 tau(  12) = (   2.9028658   3.3519407  14.7403600  )
        13           O1  tau(  13) = (  -0.7257164   2.0949629  16.9453600  )

     number of k points=    20  Fermi-Dirac smearing, width (Ry)=  0.0110
                       cart. coord. in units 2pi/alat
        k(    1) = (   0.0000000   0.0000000   0.0000000), wk =   0.0555556
        k(    2) = (   0.0000000   0.0331483   0.0000000), wk =   0.1111111
        k(    3) = (   0.0000000   0.0662966   0.0000000), wk =   0.1111111
        k(    4) = (   0.0000000  -0.0994449   0.0000000), wk =   0.0555556
        k(    5) = (   0.0287073   0.0165741   0.0000000), wk =   0.1111111
        k(    6) = (   0.0287073   0.0497224   0.0000000), wk =   0.1111111
        k(    7) = (   0.0287073   0.0828707   0.0000000), wk =   0.1111111
        k(    8) = (   0.0287073  -0.0828707   0.0000000), wk =   0.1111111
        k(    9) = (   0.0287073  -0.0497224   0.0000000), wk =   0.1111111
        k(   10) = (   0.0287073  -0.0165741   0.0000000), wk =   0.1111111
        k(   11) = (   0.0574145   0.0331483   0.0000000), wk =   0.1111111
        k(   12) = (   0.0574145   0.0662966   0.0000000), wk =   0.1111111
        k(   13) = (   0.0574145   0.0994449   0.0000000), wk =   0.1111111
        k(   14) = (   0.0574145  -0.0662966   0.0000000), wk =   0.1111111
        k(   15) = (   0.0574145  -0.0331483   0.0000000), wk =   0.1111111
        k(   16) = (   0.0574145   0.0000000   0.0000000), wk =   0.1111111
        k(   17) = (  -0.0861218  -0.0497224   0.0000000), wk =   0.0555556
        k(   18) = (  -0.0861218  -0.0165741   0.0000000), wk =   0.1111111
        k(   19) = (  -0.0861218   0.0165741   0.0000000), wk =   0.1111111
        k(   20) = (  -0.0861218  -0.1491673   0.0000000), wk =   0.0555556

     Largest allocated arrays     est. size (Mb)     dimensions
     Largest temporary arrays     est. size (Mb)     dimensions

     Initial potential from superposition of free atoms
     Check: negative starting charge=   -0.842464

     starting charge  161.98994, renormalised to  165.00000

     negative rho (up, down):  8.581E-01 0.000E+00

     *
     * You are using vdW-DF for exchange-correlation in this calculation.
     * Please cite the following three references that made this development
     * possible:
     *
     *   M. Dion, H. Rydberg, E. Schroder, D. C. Langreth, and
     *   B. I. Lundqvist, Phys. Rev. Lett. 92, 246401 (2004).
     *
     *   T. Thonhauser, V. R. Cooper, S. Li, A. Puzder, P. Hyldgaard, and
     *   D. C. Langreth, Phys. Rev. B 76, 125112 (2007).
     *
     *   G. Roman-Perez and J. M. Soler, Phys. Rev. Lett. 103, 096102 (2009).
     *
     *
     * If you are using vdW-DF2, please also cite:
     *
     *   K. Lee, E. D. Murray, L. Kong, B. I. Lundqvist, and
     *   D. C. Langreth, Phys. Rev. B 82, 081101(R) (2010).
     *
     *
     * If you are calculating the stress with vdW-DF, please also cite:
     *
     *   R. Sabatini, E. Kucukbenli, B. Kolb, T. Thonhauser, and
     *   S. de Gironcoli, J. Phys.: Condens. Matter 24, 424209 (2012).
     *

     Carrying out vdW-DF run using the following parameters:

     Nqs =      20    Nr_points =    1024   r_max =   100.000
     q_mesh =
               0.00001000     0.04494208     0.09755937     0.15916263
               0.23128650     0.31572767     0.41458969     0.53033537
               0.66584808     0.82450364     1.01025438     1.22772762
               1.48234092     1.78043706     2.12944203     2.53805004
               3.01644009     3.57652955     4.23227104     5.00000000

     Gradients computed in reciprocal space

     Adding external electric field

     Computed dipole along edir(3) :
        Dipole               -0.9639 Ry au,         -2.4500 Debye
        Dipole field         -0.0025 Ry au

        Potential amp.        0.2266 Ry
        Total length         45.5837 bohr

     Starting wfc are  151 randomized atomic wfcs

     Self-consistent Calculation

     iteration #  1     ecut=    36.75 Ry     beta=0.30
     Davidson diagonalization with overlap
     ethr =  1.00E-02,  avg # of iterations =  2.0

[...]

     total energy              =   -1830.91048471 Ry
     Harris-Foulkes estimate   =   -1851.98467535 Ry
     estimated scf accuracy    <      43.35547041 Ry

[...]

     End of self-consistent calculation

          k = 0.0000 0.0000 0.0000 ( 18367 PWs)   bands (ev):

   -70.6072 -70.4936 -70.4680 -67.3881 -67.3345 -67.3158 -67.2030 -67.1419
   -67.1415 -67.0608 -67.0084 -66.9968 -41.9138 -41.8977 -41.8606 -41.8487
   -41.8241 -41.7831 -41.7509 -41.7340 -41.7328 -34.1819 -34.0297 -33.9196
   -33.8996 -33.8758 -33.8340 -33.8246 -33.8195 -33.7082 -33.7040 -33.7026
   -33.6241 -33.6152 -33.4445 -33.4436 -33.4271 -33.2774 -33.2671 -33.2671
   -33.2358 -33.2106 -33.2051 -33.1090 -33.0858 -33.0852 -33.0165 -33.0100
   -14.6963  -6.2170  -4.6196  -3.5221  -3.1563  -2.8523  -2.7348  -2.7307
    -2.4832  -2.4768  -2.2269  -1.9193  -1.8817  -1.8687  -1.7456  -1.7452
    -1.1557  -0.7438  -0.5422  -0.2923  -0.2472  -0.0159   0.3585   0.5164
     0.5592   0.6139   0.7673   0.9829   1.0551   1.1410   1.1429   1.1848
     1.1863   1.2806   1.3147   1.3346   1.3347   1.4796   1.4818   1.8567
     1.8993   1.9789   2.1014   2.2523

[...]

          k =-0.0861-0.0497 0.0000 ( 18280 PWs)   bands (ev):

[...]

     the Fermi energy is     1.0495 ev

!    total energy              =   -1849.82340669 Ry
     Harris-Foulkes estimate   =   -1849.82338800 Ry
     estimated scf accuracy    <       0.00000575 Ry

     The total energy is the sum of the following terms:

     one-electron contribution =  -13083.98916017 Ry
     hartree contribution      =    6526.14214450 Ry
     xc contribution           =    -469.03071719 Ry
     ewald contribution        =    5177.18156954 Ry
     electric field correction =       0.00108397 Ry
     smearing contrib. (-TS)   =      -0.12832734 Ry

     convergence has been achieved in  39 iterations

 BEEF-vdW xc energy contributions
           1 :   -411.696274973082
           2 :    378.175940774548
           3 :   -320.359055894916
           4 :    252.560510770570
           5 :   -188.590418183018
           6 :    137.379382215510
           7 :   -101.358302137879
           8 :    77.7203839469296
           9 :   -61.4045647410775
          10 :    48.0703097238228
          11 :   -35.7188461926756
          12 :    24.5728094126713
          13 :   -15.8031936819544
          14 :    10.1447229149265
          15 :   -7.21698452117818
          16 :    5.75565346265836
          17 :   -4.40424078541088
          18 :    2.46724667449229
          19 :  -0.160680848257869
          20 :   -1.72466875077265
          21 :    2.46071993972060
          22 :   -1.89526692731073
          23 :   0.547183416706901
          24 :   0.720839283893781
          25 :   -1.20958102090071
          26 :   0.748993477189572
          27 :   0.280180290363035
          28 :   -1.24023835059512
          29 :    1.62992901107697
          30 :   -1.33651844521745
          31 :   -37.4539375238816
          32 :   -27.5599420953141

     Forces acting on atoms (Ry/au):

     negative rho (up, down):  8.829E-01 0.000E+00
     atom    1 type  1   force =    -0.00001963    0.01795588   -0.00324135
     atom    2 type  1   force =     0.01619305   -0.00934932   -0.00402684
     atom    3 type  1   force =    -0.01556137   -0.00896058   -0.00323829
     atom    4 type  2   force =    -0.00058274    0.00033524    0.01672173
     atom    5 type  1   force =    -0.00190238    0.00230279    0.00053476
     atom    6 type  1   force =     0.00455862   -0.00263214   -0.00819973
     atom    7 type  1   force =    -0.00294326    0.00049767    0.00053573
     atom    8 type  2   force =     0.00029980   -0.00017162    0.00490551
     atom    9 type  1   force =    -0.00774206   -0.03233932    0.10233877
     atom   10 type  1   force =    -0.00661366    0.00381604    0.00451065
     atom   11 type  1   force =     0.02413662    0.02287668    0.10234189
     atom   12 type  2   force =    -0.01484263    0.00856734   -0.01798850
     atom   13 type  3   force =     0.00501965   -0.00289867   -0.19519433

     Total force =     0.248976     Total SCF correction =     0.001314

     entering subroutine stress ...

     negative rho (up, down):  8.829E-01 0.000E+00
          total   stress  (Ry/bohr**3)                   (kbar)     P=  -41.42
  -0.00030556  -0.00000852   0.00000425        -44.95     -1.25      0.63
  -0.00000852  -0.00031540  -0.00000245         -1.25    -46.40     -0.36
   0.00000425  -0.00000245  -0.00022377          0.63     -0.36    -32.92

     BFGS Geometry Optimization

     number of scf cycles    =   1
     number of bfgs steps    =   0

     energy   new            =   -1849.8234066868 Ry

     new trust radius        =       0.1952803759 bohr
     new conv_thr            =       0.0000099958 Ry

ATOMIC_POSITIONS (crystal)
Ta1      0.000000000   0.000000000   0.404197838    0   0   0
Ta1      0.000000000   0.500000000   0.404197838    0   0   0
Ta1      0.500000000   0.500000000   0.404197838    0   0   0
Cr1      0.500000000   0.000000000   0.404197838    0   0   0
Ta1      0.666666667   0.333333333   0.500000000    0   0   0
Ta1      0.666666667   0.833333333   0.500000000    0   0   0
Ta1      0.166666667   0.833333333   0.500000000    0   0   0
Cr1      0.166666667   0.333333333   0.500000000    0   0   0
Ta1      0.330925842   0.663263020   0.597991110
Ta1      0.332931331   0.167068297   0.595898641
Ta1      0.836737185   0.169074390   0.597991176
Cr1      0.832431314   0.667568361   0.595417402
O1       0.083638322   0.416361588   0.680752729

     Writing output data file calc.save
     Check: negative starting charge=   -0.842464
     NEW-OLD atomic charge density approx. for the potential
     Check: negative starting charge=   -0.844454

[...]

     iteration #  1     ecut=    36.75 Ry     beta=0.30
     Davidson diagonalization with overlap
     c_bands:  1 eigenvalues not converged
     c_bands:  1 eigenvalues not converged
     c_bands:  1 eigenvalues not converged
     ethr =  1.00E-06,  avg # of iterations = 14.8

[...]

     energy   old            =   -1849.8234066868 Ry
     energy   new            =   -1849.8867217409 Ry

     CASE: energy  _new < energy  _old

     WARNING: bfgs curvature condition failed, Theta= 0.774
     new trust radius        =       0.2929205639 bohr
     new conv_thr            =       0.0000001000 Ry

[...]

     CASE: energy  _new > energy  _old

[...]

     iteration #  1     ecut=    36.75 Ry     beta=0.30
     Davidson diagonalization with overlap
     c_bands:  1 eigenvalues not converged
     ethr =  1.00E-06,  avg # of iterations = 15.2

[...]

     WARNING: bfgs curvature condition failed, Theta= 0.918
     new trust radius        =       0.0452033646 bohr
     new conv_thr            =       0.0000001000 Ry

[...]

     number of scf cycles    =  30
     number of bfgs steps    =  28

     energy   old            =   -1850.1670041714 Ry
     energy   new            =   -1850.1670716780 Ry

     CASE: energy  _new < energy  _old

     new trust radius        =       0.0128746255 bohr
     new conv_thr            =       0.0000001000 Ry

ATOMIC_POSITIONS (crystal)
Ta1      0.000000000   0.000000000   0.404197838    0   0   0
Ta1      0.000000000   0.500000000   0.404197838    0   0   0
Ta1      0.500000000   0.500000000   0.404197838    0   0   0
Cr1      0.500000000   0.000000000   0.404197838    0   0   0
Ta1      0.666666667   0.333333333   0.500000000    0   0   0
Ta1      0.666666667   0.833333333   0.500000000    0   0   0
Ta1      0.166666667   0.833333333   0.500000000    0   0   0
Cr1      0.166666667   0.333333333   0.500000000    0   0   0
Ta1      0.308033204   0.696716762   0.598200944
Ta1      0.303955804   0.196034833   0.595427835
Ta1      0.803266929   0.191943344   0.598200838
Cr1      0.822416410   0.677577289   0.576558781
O1       0.144139168   0.355847396   0.645673979

     Writing output data file calc.save
     Check: negative starting charge=   -0.844181
     NEW-OLD atomic charge density approx. for the potential
     Check: negative starting charge=   -0.844349

[...]

     Self-consistent Calculation

[...]

     total energy              =   -1850.16712165 Ry
     Harris-Foulkes estimate   =   -1850.16712166 Ry
     estimated scf accuracy    <       0.00000015 Ry

     iteration # 15     ecut=    36.75 Ry     beta=0.30
     Davidson diagonalization with overlap
     ethr =  9.02E-11,  avg # of iterations =  1.1

[...]

     negative rho (up, down):  8.850E-01 0.000E+00

     Adding external electric field

     Computed dipole along edir(3) :
        Dipole                0.0460 Ry au,          0.1169 Debye
        Dipole field          0.0001 Ry au

        Potential amp.       -0.0108 Ry
        Total length         45.5837 bohr

     End of self-consistent calculation

[...]

          k = 0.0574 0.0000 0.0000 ( 18335 PWs)   bands (ev):

[...]

          k =-0.0861-0.1492 0.0000 ( 18280 PWs)   bands (ev):

   -69.7661 -69.5834 -69.5372 -66.5266 -66.5197 -66.4849 -66.2920 -66.2844
   -66.2511 -66.1173 -66.0658 -66.0266 -41.0836 -41.0498 -41.0139 -40.9449
   -40.8776 -40.8740 -40.8478 -40.8456 -40.8378 -33.2770 -33.0932 -33.0442
   -33.0112 -32.9522 -32.8763 -32.8474 -32.8346 -32.8188 -32.7951 -32.7942
   -32.7203 -32.6979 -32.6483 -32.6258 -32.5815 -32.5684 -32.5091 -32.4895
   -32.4239 -32.3950 -32.3564 -32.3533 -32.2532 -32.2327 -32.2152 -32.1070
   -17.5857  -4.4479  -3.8698  -3.6780  -3.4324  -3.1414  -2.0584  -1.6583
    -1.3305  -1.1874  -1.0971  -0.9688  -0.7901  -0.6453  -0.4409  -0.0944
    -0.0462   0.1301   0.2122   0.3375   0.3677   0.5747   0.6450   0.6831
     0.7543   0.8442   1.0308   1.0411   1.2290   1.3122   1.3315   1.3828
     1.4356   1.5392   1.6411   1.7626   1.9691   1.9810   2.0152   2.4240
     2.5435   2.5630   2.6991   2.8878

     the Fermi energy is     1.9165 ev

!    total energy              =   -1850.16712161 Ry
     Harris-Foulkes estimate   =   -1850.16712188 Ry
     estimated scf accuracy    <       0.00000004 Ry

     The total energy is the sum of the following terms:

     one-electron contribution =  -13527.67760274 Ry
     hartree contribution      =    6751.86474062 Ry
     xc contribution           =    -469.71812341 Ry
     ewald contribution        =    5395.46932651 Ry
     electric field correction =       0.00000545 Ry
     smearing contrib. (-TS)   =      -0.10546804 Ry

     convergence has been achieved in  15 iterations

 BEEF-vdW xc energy contributions
           1 :   -412.402670305831
           2 :    379.096826879472
           3 :   -321.464164775530
           4 :    253.584456481929
           5 :   -189.222624794983
           6 :    137.450991577990
           7 :   -100.924120766989
           8 :    77.0146399468919
           9 :   -60.7173960319719
          10 :    47.6161107019753
          11 :   -35.5541900464581
          12 :    24.5981030422379
          13 :   -15.8421142741561
          14 :    10.0515110811616
          15 :   -6.95226107508591
          16 :    5.39264048449780
          17 :   -4.06411406367994
          18 :    2.22891555210509
          19 :  -1.026651344233187E-002
          20 :   -1.87149851064413
          21 :    2.68691026870312
          22 :   -2.21737121734986
          23 :   0.900622912913093
          24 :   0.441914728086942
          25 :   -1.08479546517731
          26 :   0.777837930998828
          27 :   0.182897646074878
          28 :   -1.19585028828971
          29 :    1.72497860009463
          30 :   -1.57241573132262
          31 :   -37.4989624557275
          32 :   -27.6422581511546

     Forces acting on atoms (Ry/au):

     negative rho (up, down):  8.850E-01 0.000E+00
     atom    1 type  1   force =     0.00309086    0.01931975   -0.00131638
     atom    2 type  1   force =     0.01737169   -0.01002951   -0.00519932
     atom    3 type  1   force =    -0.01518563   -0.01233578   -0.00131564
     atom    4 type  2   force =     0.00203224   -0.00117319    0.02050583
     atom    5 type  1   force =    -0.00548055   -0.01813022   -0.02206374
     atom    6 type  1   force =    -0.01729955    0.00998617    0.00605449
     atom    7 type  1   force =     0.01296190    0.01381420   -0.02206854
     atom    8 type  2   force =     0.00800998   -0.00461995    0.02517757
     atom    9 type  1   force =    -0.00003719    0.00111790    0.00098640
     atom   10 type  1   force =    -0.00146308    0.00084391    0.00106091
     atom   11 type  1   force =    -0.00099182   -0.00052926    0.00098593
     atom   12 type  2   force =    -0.00140883    0.00081208   -0.00151628
     atom   13 type  3   force =    -0.00160003    0.00092391   -0.00129123

     Total force =     0.004297     Total SCF correction =     0.000210

     entering subroutine stress ...

     negative rho (up, down):  8.850E-01 0.000E+00
          total   stress  (Ry/bohr**3)                   (kbar)     P=  -21.70
  -0.00017998  -0.00002536  -0.00001219        -26.48     -3.73     -1.79
  -0.00002536  -0.00020925   0.00000703         -3.73    -30.78      1.03
  -0.00001219   0.00000703  -0.00005337         -1.79      1.03     -7.85

     bfgs converged in  31 scf cycles and  29 bfgs steps
     (criteria: energy <  1.0E+00, force <  1.9E-03)

     End of BFGS Geometry Optimization

     Final energy   =   -1850.1671216148 Ry
Begin final coordinates

ATOMIC_POSITIONS (crystal)
Ta1      0.000000000   0.000000000   0.404197838    0   0   0
Ta1      0.000000000   0.500000000   0.404197838    0   0   0
Ta1      0.500000000   0.500000000   0.404197838    0   0   0
Cr1      0.500000000   0.000000000   0.404197838    0   0   0
Ta1      0.666666667   0.333333333   0.500000000    0   0   0
Ta1      0.666666667   0.833333333   0.500000000    0   0   0
Ta1      0.166666667   0.833333333   0.500000000    0   0   0
Cr1      0.166666667   0.333333333   0.500000000    0   0   0
Ta1      0.308033204   0.696716762   0.598200944
Ta1      0.303955804   0.196034833   0.595427835
Ta1      0.803266929   0.191943344   0.598200838
Cr1      0.822416410   0.677577289   0.576558781
O1       0.144139168   0.355847396   0.645673979
End final coordinates

     Writing output data file calc.save

     General routines

     Parallel routines

   This run was terminated on:   0:24: 0  20Mar2018

   JOB DONE.
Job  /afs/slac/g/suncat/bin/suncat-tsmpirun -x LD_LIBRARY_PATH -wdir /scratch/qe552819_Ochhn pw.x -npool 2 -in pw.inp

TID   HOST_NAME   COMMAND_LINE            STATUS            TERMINATION_TIME
00000 psana1506. pw.x -npool 2 -i  Done                     03/20/2018 00:24:00
00001 psana1506. pw.x -npool 2 -i  Done                     03/20/2018 00:24:00
00002 psana1506. pw.x -npool 2 -i  Done                     03/20/2018 00:24:00
00003 psana1506. pw.x -npool 2 -i  Done                     03/20/2018 00:24:00
00004 psana1506. pw.x -npool 2 -i  Done                     03/20/2018 00:24:00
00005 psana1506. pw.x -npool 2 -i  Done                     03/20/2018 00:24:00
00006 psana1506. pw.x -npool 2 -i  Done                     03/20/2018 00:24:00
00007 psana1506. pw.x -npool 2 -i  Done                     03/20/2018 00:24:00
00008 psana1506. pw.x -npool 2 -i  Done                     03/20/2018 00:24:00
00009 psana1506. pw.x -npool 2 -i  Done                     03/20/2018 00:24:00
00010 psana1506. pw.x -npool 2 -i  Done                     03/20/2018 00:24:00
00011 psana1506. pw.x -npool 2 -i  Done                     03/20/2018 00:24:00
00012 psana1506. pw.x -npool 2 -i  Done                     03/20/2018 00:24:00
00013 psana1506. pw.x -npool 2 -i  Done                     03/20/2018 00:24:00
00014 psana1506. pw.x -npool 2 -i  Done                     03/20/2018 00:24:00
00015 psana1506. pw.x -npool 2 -i  Done                     03/20/2018 00:24:00
00016 psana1504. pw.x -npool 2 -i  Done                     03/20/2018 00:24:00
00017 psana1504. pw.x -npool 2 -i  Done                     03/20/2018 00:24:00
00018 psana1504. pw.x -npool 2 -i  Done                     03/20/2018 00:24:00
00019 psana1504. pw.x -npool 2 -i  Done                     03/20/2018 00:24:00
00020 psana1504. pw.x -npool 2 -i  Done                     03/20/2018 00:24:00
00021 psana1504. pw.x -npool 2 -i  Done                     03/20/2018 00:24:00
00022 psana1504. pw.x -npool 2 -i  Done                     03/20/2018 00:24:00
00023 psana1504. pw.x -npool 2 -i  Done                     03/20/2018 00:24:00
00024 psana1504. pw.x -npool 2 -i  Done                     03/20/2018 00:24:00
00025 psana1504. pw.x -npool 2 -i  Done                     03/20/2018 00:24:00
00026 psana1504. pw.x -npool 2 -i  Done                     03/20/2018 00:24:00
00027 psana1504. pw.x -npool 2 -i  Done                     03/20/2018 00:24:00
00028 psana1504. pw.x -npool 2 -i  Done                     03/20/2018 00:24:00
00029 psana1504. pw.x -npool 2 -i  Done                     03/20/2018 00:24:00
00030 psana1504. pw.x -npool 2 -i  Done                     03/20/2018 00:24:00
00031 psana1504. pw.x -npool 2 -i  Done                     03/20/2018 00:24:00