     Program PWSCF v.5.1rc2 (svn rev. 11289) starts on 20Jan2018 at 19:20:21

     Current dimensions of program PWSCF are:
     Max number of different atomic species (ntypx) = 10
     Max number of k-points (npk) =  40000
     Max angular momentum in pseudopotentials (lmaxx) =  3
     Presently stress not available with electric field

     IMPORTANT: XC functional enforced from input :
     Exchange-correlation      = BEEF-VDW ( 1  4 27 13 2)
     Any further DFT definition will be discarded
     Please, verify this is what you really want

     Subspace diagonalization in iterative solution of the eigenvalue problem:
     a serial algorithm will be used

     bravais-lattice index     =            0
     lattice parameter (alat)  =       1.8897  a.u.
     unit-cell volume          =    4204.8134 (a.u.)^3
     number of atoms/cell      =           13
     number of atomic types    =            2
     number of electrons       =       186.00
     number of Kohn-Sham states=          103
     kinetic-energy cutoff     =      36.7493  Ry
     charge density cutoff     =     367.4932  Ry
     convergence threshold     =      1.0E-05
     mixing beta               =       0.3000
     number of iterations used =           10  plain     mixing
     Exchange-correlation      = BEEF-VDW ( 1  4 27 13 2)
     nstep                     =           50

     celldm(1)=   1.889726  celldm(2)=   0.000000  celldm(3)=   0.000000
     celldm(4)=   0.000000  celldm(5)=   0.000000  celldm(6)=   0.000000

     crystal axes: (cart. coord. in units of alat)
               a(1) = (   5.426750   0.000000   0.000000 )
               a(2) = (   2.713375   4.699703   0.000000 )
               a(3) = (   0.000000   0.000000  24.430923 )

     reciprocal axes: (cart. coord. in units 2 pi/alat)
               b(1) = (  0.184272 -0.106390  0.000000 )
               b(2) = (  0.000000  0.212779  0.000000 )
               b(3) = (  0.000000  0.000000  0.040932 )

     PseudoPot. # 1 for Rh read from file:
     /afs/slac.stanford.edu/u/if/mamunm/psp/gbrv1.5pbe/Rh.UPF
     MD5 check sum: 761627e959a2e3a1f56b0b5fe687810e
     Pseudo is Ultrasoft + core correction, Zval = 15.0
     Generated by new atomic code, or converted to UPF format
     Using radial grid of  969 points,  7 beta functions with:
                l(1) =   0
                l(2) =   0
                l(3) =   1
                l(4) =   1
                l(5) =   2
                l(6) =   2
                l(7) =   2
     Q(r) pseudized with  8 coefficients,  rinner =    1.200   1.200   1.200
                                                       1.200   1.200

     PseudoPot. # 2 for S  read from file:
     /afs/slac.stanford.edu/u/if/mamunm/psp/gbrv1.5pbe/S.UPF
     MD5 check sum: 88d86576ff6df21479756cfb9bdac1df
     Pseudo is Ultrasoft + core correction, Zval =  6.0
     Generated by new atomic code, or converted to UPF format
     Using radial grid of  907 points,  6 beta functions with:
                l(1) =   0
                l(2) =   0
                l(3) =   1
                l(4) =   1
                l(5) =   2
                l(6) =   2
     Q(r) pseudized with  8 coefficients,  rinner =    1.300   1.300   1.300
                                                       1.300   1.300

     vdW kernel table read from file vdW_kernel_table
     MD5 check sum: 095c7af220d748ca6e76c0b4c6cfb241

     atomic species   valence    mass     pseudopotential
        Rh1           15.00   102.90550     Rh( 1.00)
        S1             6.00    32.06000     S ( 1.00)

     No symmetry found

   Cartesian axes

     site n.     atom                  positions (alat units)
         1           Rh1 tau(   1) = (   1.3566875   0.7832839  10.0000000  )
         2           Rh1 tau(   2) = (   4.0700625   0.7832839  10.0000000  )
         3           Rh1 tau(   3) = (   2.7133750   3.1331356  10.0000000  )
         4           Rh1 tau(   4) = (   5.4267500   3.1331356  10.0000000  )
         5           Rh1 tau(   5) = (   5.4267500   1.5665678  12.2154614  )
         6           Rh1 tau(   6) = (   2.7133750   1.5665678  12.2154614  )
         7           Rh1 tau(   7) = (   6.7834375   3.9164194  12.2154614  )
         8           Rh1 tau(   8) = (   4.0700625   3.9164194  12.2154614  )
         9           Rh1 tau(   9) = (   0.0000000   0.0000000  14.4309228  )
        10           Rh1 tau(  10) = (   2.7133750   0.0000000  14.4309228  )
        11           Rh1 tau(  11) = (   1.3566875   2.3498517  14.4309228  )
        12           Rh1 tau(  12) = (   4.0700625   2.3498517  14.4309228  )
        13           S1  tau(  13) = (   2.7133750   1.5665678  16.9009228  )

     number of k points=    20  Fermi-Dirac smearing, width (Ry)=  0.0110
                       cart. coord. in units 2pi/alat
        k(    1) = (   0.0000000   0.0000000   0.0000000), wk =   0.0555556
        k(    2) = (   0.0000000   0.0354632   0.0000000), wk =   0.1111111
        k(    3) = (   0.0000000   0.0709265   0.0000000), wk =   0.1111111
        k(    4) = (   0.0000000  -0.1063897   0.0000000), wk =   0.0555556
        k(    5) = (   0.0307121  -0.0177316   0.0000000), wk =   0.1111111
        k(    6) = (   0.0307121   0.0177316   0.0000000), wk =   0.1111111
        k(    7) = (   0.0307121   0.0531948   0.0000000), wk =   0.1111111
        k(    8) = (   0.0307121  -0.1241213   0.0000000), wk =   0.1111111
        k(    9) = (   0.0307121  -0.0886581   0.0000000), wk =   0.1111111
        k(   10) = (   0.0307121  -0.0531948   0.0000000), wk =   0.1111111
        k(   11) = (   0.0614241  -0.0354632   0.0000000), wk =   0.1111111
        k(   12) = (   0.0614241   0.0000000   0.0000000), wk =   0.1111111
        k(   13) = (   0.0614241   0.0354632   0.0000000), wk =   0.1111111
        k(   14) = (   0.0614241  -0.1418529   0.0000000), wk =   0.1111111
        k(   15) = (   0.0614241  -0.1063897   0.0000000), wk =   0.1111111
        k(   16) = (   0.0614241  -0.0709265   0.0000000), wk =   0.1111111
        k(   17) = (  -0.0921362   0.0531948   0.0000000), wk =   0.0555556
        k(   18) = (  -0.0921362   0.0886581   0.0000000), wk =   0.1111111
        k(   19) = (  -0.0921362   0.1241213   0.0000000), wk =   0.1111111
        k(   20) = (  -0.0921362  -0.0531948   0.0000000), wk =   0.0555556

     Largest allocated arrays     est. size (Mb)     dimensions
     Largest temporary arrays     est. size (Mb)     dimensions

     Initial potential from superposition of free atoms
     Check: negative starting charge=   -0.652776

     starting charge  179.99878, renormalised to  186.00000

     negative rho (up, down):  6.745E-01 0.000E+00

     *
     * You are using vdW-DF for exchange-correlation in this calculation.
     * Please cite the following three references that made this development
     * possible:
     *
     *   M. Dion, H. Rydberg, E. Schroder, D. C. Langreth, and
     *   B. I. Lundqvist, Phys. Rev. Lett. 92, 246401 (2004).
     *
     *   T. Thonhauser, V. R. Cooper, S. Li, A. Puzder, P. Hyldgaard, and
     *   D. C. Langreth, Phys. Rev. B 76, 125112 (2007).
     *
     *   G. Roman-Perez and J. M. Soler, Phys. Rev. Lett. 103, 096102 (2009).
     *
     *
     * If you are using vdW-DF2, please also cite:
     *
     *   K. Lee, E. D. Murray, L. Kong, B. I. Lundqvist, and
     *   D. C. Langreth, Phys. Rev. B 82, 081101(R) (2010).
     *
     *
     * If you are calculating the stress with vdW-DF, please also cite:
     *
     *   R. Sabatini, E. Kucukbenli, B. Kolb, T. Thonhauser, and
     *   S. de Gironcoli, J. Phys.: Condens. Matter 24, 424209 (2012).
     *

     Carrying out vdW-DF run using the following parameters:

     Nqs =      20    Nr_points =    1024   r_max =   100.000
     q_mesh =
               0.00001000     0.04494208     0.09755937     0.15916263
               0.23128650     0.31572767     0.41458969     0.53033537
               0.66584808     0.82450364     1.01025438     1.22772762
               1.48234092     1.78043706     2.12944203     2.53805004
               3.01644009     3.57652955     4.23227104     5.00000000

     Gradients computed in reciprocal space

     Adding external electric field

     Computed dipole along edir(3) :
        Dipole               -1.7709 Ry au,         -4.5011 Debye
        Dipole field         -0.0053 Ry au

        Potential amp.        0.4765 Ry
        Total length         45.0136 bohr

     Starting wfc are  148 randomized atomic wfcs

     Self-consistent Calculation

     iteration #  1     ecut=    36.75 Ry     beta=0.30
     Davidson diagonalization with overlap
     ethr =  1.00E-02,  avg # of iterations =  2.0

[...]

     total energy              =   -2036.23610394 Ry
     Harris-Foulkes estimate   =   -2091.44394944 Ry
     estimated scf accuracy    <     113.96289703 Ry

[...]

     End of self-consistent calculation

          k = 0.0000 0.0000 0.0000 ( 15785 PWs)   bands (ev):

   -45.5252 -45.5144 -45.5140 -45.3953 -45.3392 -45.3264 -45.3258 -45.1651
   -45.1383 -45.1380 -45.1304 -45.1301 -45.1092 -45.0333 -45.0283 -45.0281
   -45.0028 -45.0028 -44.8340 -44.8333 -44.8191 -44.8124 -44.7491 -44.7486
   -44.7040 -44.7037 -44.6940 -44.6696 -44.6599 -44.6598 -44.6267 -44.6145
   -44.5961 -44.5953 -44.5821 -44.5821  -9.5364  -5.1605  -3.9300  -3.9109
    -3.9108  -3.8713  -3.7441  -3.6298  -3.6253  -3.6252  -3.4003  -3.4001
    -3.3934  -3.0995  -3.0811  -3.0810  -2.0689  -1.9644  -1.9643  -1.5537
    -1.5195  -1.5195  -1.3223  -1.2200  -1.2200  -0.9090  -0.9090  -0.9062
    -0.8250  -0.8249  -0.8106  -0.6752  -0.6752  -0.2522  -0.2521  -0.0544
     0.1042   0.5526   0.5527   0.6306   0.6770   0.6771   0.7639   0.7641
     0.9739   0.9741   1.0234   1.2518   1.2519   1.7631   1.7633   1.7690
     1.7821   1.9000   1.9000   2.0538   2.0540   2.0696   2.1476   2.1479
     2.1527   2.4457   2.4720   2.4722   2.5522   2.5525   2.5534

[...]

          k =-0.0921 0.0532 0.0000 ( 15852 PWs)   bands (ev):

[...]

     the Fermi energy is     1.5446 ev

!    total energy              =   -2090.78466869 Ry
     Harris-Foulkes estimate   =   -2090.78469314 Ry
     estimated scf accuracy    <       0.00000594 Ry

     The total energy is the sum of the following terms:

     one-electron contribution =  -19325.84105383 Ry
     hartree contribution      =    9705.52889147 Ry
     xc contribution           =    -380.61734311 Ry
     ewald contribution        =    7910.26882604 Ry
     electric field correction =       0.00030265 Ry
     smearing contrib. (-TS)   =      -0.12429191 Ry

     convergence has been achieved in  22 iterations

 BEEF-vdW xc energy contributions
           1 :   -331.269337042335
           2 :    303.844294272917
           3 :   -256.499372811933
           4 :    201.081734191899
           5 :   -149.452063566402
           6 :    109.847251545261
           7 :   -85.0293659718338
           8 :    72.6261450599280
           9 :   -67.2247523394948
          10 :    63.1512113543532
          11 :   -56.7303974548574
          12 :    47.2092783622110
          13 :   -36.2287015315164
          14 :    26.3771633814182
          15 :   -19.6549430099189
[...]

     Program PWSCF v.5.1rc2 (svn rev. 11289) starts on 20Jan2018 at 21: 4:33

[...]

     Total force =     0.085216     Total SCF correction =     0.005071

[...]

   This run was terminated on:  22: 8:38  20Jan2018

[...]

     Program PWSCF v.5.1rc2 (svn rev. 11289) starts on 20Jan2018 at 22: 8:44

[...]

     Program PWSCF v.5.1rc2 (svn rev. 11289) starts on 20Jan2018 at 22:52:55

[...]

   This run was terminated on:  23:15: 1  20Jan2018

[...]

     Program PWSCF v.5.1rc2 (svn rev. 11289) starts on 20Jan2018 at 23:15: 7

     Current dimensions of program PWSCF are:
     Max number of different atomic species (ntypx) = 10
     Max number of k-points (npk) =  40000
     Max angular momentum in pseudopotentials (lmaxx) =  3
     Presently stress not available with electric field

     IMPORTANT: XC functional enforced from input :
     Exchange-correlation      = BEEF-VDW ( 1  4 27 13 2)
     Any further DFT definition will be discarded
     Please, verify this is what you really want

     Subspace diagonalization in iterative solution of the eigenvalue problem:
     a serial algorithm will be used

     bravais-lattice index     =            0
     lattice parameter (alat)  =       1.8897  a.u.
     unit-cell volume          =    4204.8134 (a.u.)^3
     number of atoms/cell      =           13
     number of atomic types    =            2
     number of electrons       =       186.00
     number of Kohn-Sham states=          103
     kinetic-energy cutoff     =      36.7493  Ry
     charge density cutoff     =     367.4932  Ry
     convergence threshold     =      1.0E-05
     mixing beta               =       0.3000
     number of iterations used =           10  plain     mixing
     Exchange-correlation      = BEEF-VDW ( 1  4 27 13 2)
     nstep                     =           50

     celldm(1)=   1.889726  celldm(2)=   0.000000  celldm(3)=   0.000000
     celldm(4)=   0.000000  celldm(5)=   0.000000  celldm(6)=   0.000000

     crystal axes: (cart. coord. in units of alat)
               a(1) = (   5.426750   0.000000   0.000000 )
               a(2) = (   2.713375   4.699703   0.000000 )
               a(3) = (   0.000000   0.000000  24.430923 )

     reciprocal axes: (cart. coord. in units 2 pi/alat)
               b(1) = (  0.184272 -0.106390  0.000000 )
               b(2) = (  0.000000  0.212779  0.000000 )
               b(3) = (  0.000000  0.000000  0.040932 )

     PseudoPot. # 1 for Rh read from file:
     /afs/slac.stanford.edu/u/if/mamunm/psp/gbrv1.5pbe/Rh.UPF
     MD5 check sum: 761627e959a2e3a1f56b0b5fe687810e
     Pseudo is Ultrasoft + core correction, Zval = 15.0
     Generated by new atomic code, or converted to UPF format
     Using radial grid of  969 points,  7 beta functions with:
                l(1) =   0
                l(2) =   0
                l(3) =   1
                l(4) =   1
                l(5) =   2
                l(6) =   2
                l(7) =   2
     Q(r) pseudized with  8 coefficients,  rinner =    1.200   1.200   1.200
                                                       1.200   1.200

     PseudoPot. # 2 for S  read from file:
     /afs/slac.stanford.edu/u/if/mamunm/psp/gbrv1.5pbe/S.UPF
     MD5 check sum: 88d86576ff6df21479756cfb9bdac1df
     Pseudo is Ultrasoft + core correction, Zval =  6.0
     Generated by new atomic code, or converted to UPF format
     Using radial grid of  907 points,  6 beta functions with:
                l(1) =   0
                l(2) =   0
                l(3) =   1
                l(4) =   1
                l(5) =   2
                l(6) =   2
     Q(r) pseudized with  8 coefficients,  rinner =    1.300   1.300   1.300
                                                       1.300   1.300

     vdW kernel table read from file vdW_kernel_table
     MD5 check sum: 095c7af220d748ca6e76c0b4c6cfb241

     atomic species   valence    mass     pseudopotential
        Rh1           15.00   102.90550     Rh( 1.00)
        S1             6.00    32.06000     S ( 1.00)

     No symmetry found

   Cartesian axes

     site n.     atom                  positions (alat units)
         1           Rh1 tau(   1) = (   1.3566875   0.7832839  10.0000000  )
         2           Rh1 tau(   2) = (   4.0700625   0.7832839  10.0000000  )
         3           Rh1 tau(   3) = (   2.7133750   3.1331356  10.0000000  )
         4           Rh1 tau(   4) = (   5.4267500   3.1331356  10.0000000  )
         5           Rh1 tau(   5) = (   5.4267500   1.5665678  12.2154614  )
         6           Rh1 tau(   6) = (   2.7133750   1.5665678  12.2154614  )
         7           Rh1 tau(   7) = (   6.7834375   3.9164194  12.2154614  )
         8           Rh1 tau(   8) = (   4.0700625   3.9164194  12.2154614  )
         9           Rh1 tau(   9) = (   5.4267152   0.0000045  14.3549209  )
        10           Rh1 tau(  10) = (   5.4267984   4.6667929  14.4749643  )
        11           Rh1 tau(  11) = (   6.7548044   2.3664243  14.4747643  )
        12           Rh1 tau(  12) = (   4.0985655   2.3662841  14.4747986  )
        13           S1  tau(  13) = (   2.7134111   1.5666093  16.0969643  )

     number of k points=    20  Fermi-Dirac smearing, width (Ry)=  0.0110
                       cart. coord. in units 2pi/alat
        k(    1) = (   0.0000000   0.0000000   0.0000000), wk =   0.0555556
        k(    2) = (   0.0000000   0.0354632   0.0000000), wk =   0.1111111
        k(    3) = (   0.0000000   0.0709265   0.0000000), wk =   0.1111111
        k(    4) = (   0.0000000  -0.1063897   0.0000000), wk =   0.0555556
        k(    5) = (   0.0307121  -0.0177316   0.0000000), wk =   0.1111111
        k(    6) = (   0.0307121   0.0177316   0.0000000), wk =   0.1111111
        k(    7) = (   0.0307121   0.0531948   0.0000000), wk =   0.1111111
        k(    8) = (   0.0307121  -0.1241213   0.0000000), wk =   0.1111111
        k(    9) = (   0.0307121  -0.0886581   0.0000000), wk =   0.1111111
        k(   10) = (   0.0307121  -0.0531948   0.0000000), wk =   0.1111111
        k(   11) = (   0.0614241  -0.0354632   0.0000000), wk =   0.1111111
        k(   12) = (   0.0614241   0.0000000   0.0000000), wk =   0.1111111
        k(   13) = (   0.0614241   0.0354632   0.0000000), wk =   0.1111111
        k(   14) = (   0.0614241  -0.1418529   0.0000000), wk =   0.1111111
        k(   15) = (   0.0614241  -0.1063897   0.0000000), wk =   0.1111111
        k(   16) = (   0.0614241  -0.0709265   0.0000000), wk =   0.1111111
        k(   17) = (  -0.0921362   0.0531948   0.0000000), wk =   0.0555556
        k(   18) = (  -0.0921362   0.0886581   0.0000000), wk =   0.1111111
        k(   19) = (  -0.0921362   0.1241213   0.0000000), wk =   0.1111111
        k(   20) = (  -0.0921362  -0.0531948   0.0000000), wk =   0.0555556

     Largest allocated arrays     est. size (Mb)     dimensions
     Largest temporary arrays     est. size (Mb)     dimensions

     Initial potential from superposition of free atoms
     Check: negative starting charge=   -0.658514

     starting charge  179.99878, renormalised to  186.00000

[...]

     *
     * You are using vdW-DF for exchange-correlation in this calculation.
     * Please cite the following three references that made this development
     * possible:
     *
     *   M. Dion, H. Rydberg, E. Schroder, D. C. Langreth, and
     *   B. I. Lundqvist, Phys. Rev. Lett. 92, 246401 (2004).
     *
     *   T. Thonhauser, V. R. Cooper, S. Li, A. Puzder, P. Hyldgaard, and
     *   D. C. Langreth, Phys. Rev. B 76, 125112 (2007).
     *
     *   G. Roman-Perez and J. M. Soler, Phys. Rev. Lett. 103, 096102 (2009).
     *
     *
     * If you are using vdW-DF2, please also cite:
     *
     *   K. Lee, E. D. Murray, L. Kong, B. I. Lundqvist, and
     *   D. C. Langreth, Phys. Rev. B 82, 081101(R) (2010).
     *
     *
     * If you are calculating the stress with vdW-DF, please also cite:
     *
     *   R. Sabatini, E. Kucukbenli, B. Kolb, T. Thonhauser, and
     *   S. de Gironcoli, J. Phys.: Condens. Matter 24, 424209 (2012).
     *

     Carrying out vdW-DF run using the following parameters:

     Nqs =      20    Nr_points =    1024   r_max =   100.000
     q_mesh =
               0.00001000     0.04494208     0.09755937     0.15916263
               0.23128650     0.31572767     0.41458969     0.53033537
               0.66584808     0.82450364     1.01025438     1.22772762
               1.48234092     1.78043706     2.12944203     2.53805004
               3.01644009     3.57652955     4.23227104     5.00000000

     Gradients computed in reciprocal space

[...]

     Starting wfc are  148 randomized atomic wfcs

     Self-consistent Calculation

[...]

     total energy              =   -2090.94262366 Ry
     Harris-Foulkes estimate   =   -2090.94262586 Ry
     estimated scf accuracy    <       0.00007105 Ry

     iteration # 23     ecut=    36.75 Ry     beta=0.30
     Davidson diagonalization with overlap
     ethr =  1.85E-08,  avg # of iterations =  1.6

[...]

     negative rho (up, down):  6.934E-01 0.000E+00

     Adding external electric field

     Computed dipole along edir(3) :
        Dipole               -0.0542 Ry au,         -0.1378 Debye
        Dipole field         -0.0002 Ry au

        Potential amp.        0.0146 Ry
        Total length         45.0136 bohr

     End of self-consistent calculation

[...]

          k = 0.0614-0.0709 0.0000 ( 15838 PWs)   bands (ev):

[...]

          k =-0.0921-0.0532 0.0000 ( 15852 PWs)   bands (ev):

   -45.0291 -44.9993 -44.9405 -44.9371 -44.8914 -44.8737 -44.8236 -44.8116
   -44.8023 -44.7955 -44.7652 -44.7529 -44.7167 -44.6906 -44.6560 -44.6249
   -44.5845 -44.5518 -44.5415 -44.5391 -44.4773 -44.4482 -44.4265 -44.4061
   -44.3990 -44.3873 -44.3769 -44.3693 -44.3368 -44.2814 -44.2279 -44.2244
   -44.2219 -44.1940 -44.1862 -44.1791 -11.4412  -3.7097  -3.2759  -3.1127
    -2.9296  -2.8217  -2.7275  -2.6291  -2.5658  -2.4169  -2.3974  -2.3183
    -2.2428  -2.1384  -2.0447  -2.0407  -1.9276  -1.8181  -1.8116  -1.5089
    -1.3821  -1.2942  -1.2809  -1.2114  -1.1257  -0.9826  -0.9323  -0.8563
    -0.6276  -0.5417  -0.3686  -0.3575  -0.3334  -0.2150  -0.1985  -0.1942
    -0.1393  -0.0381  -0.0273   0.0381   0.0587   0.1200   0.4073   0.5084
     0.5454   0.5858   0.6623   0.8489   0.8647   0.9252   0.9896   1.1056
     1.1849   1.2091   1.3197   1.4714   1.5185   1.6478   1.8356   1.9600
     2.1071   2.2693   2.3524   2.4936   2.6362   2.8192   3.0056

     the Fermi energy is     1.9628 ev

!    total energy              =   -2090.94261772 Ry
     Harris-Foulkes estimate   =   -2090.94262149 Ry
     estimated scf accuracy    <       0.00000927 Ry

     The total energy is the sum of the following terms:

     one-electron contribution =  -19584.17233391 Ry
     hartree contribution      =    9836.59694580 Ry
     xc contribution           =    -381.03361292 Ry
     ewald contribution        =    8037.78445934 Ry
     electric field correction =       0.00000879 Ry
     smearing contrib. (-TS)   =      -0.11808483 Ry

     convergence has been achieved in  23 iterations

 BEEF-vdW xc energy contributions
           1 :   -331.711260124818
           2 :    304.507751380153
           3 :   -257.424670050803
           4 :    202.103827236691
           5 :   -150.319895478220
           6 :    110.374528855079
           7 :   -85.1871606271594
           8 :    72.5379829252109
           9 :   -67.0789067731999
          10 :    63.0894032819627
          11 :   -56.7784861912199
          12 :    47.2838704219872
          13 :   -36.2077112008402
          14 :    26.1868905465382
          15 :   -19.3194313743450
          16 :    16.1735135879651
          17 :   -15.7219663829883
          18 :    16.0688888233032
          19 :   -15.4872356031344
          20 :    13.2143701186644
          21 :   -9.64909339883172
          22 :    5.94123284418924
          23 :   -3.27055614206995
          24 :    2.21902265804175
          25 :   -2.53527713560419
          26 :    3.35822797610069
          27 :   -3.73123973689212
          28 :    3.10979070231889
          29 :   -1.59845843096906
          30 :  -0.179586110977766
          31 :   -32.9525388685761
          32 :   -24.7034416289086

     Forces acting on atoms (Ry/au):

     negative rho (up, down):  6.934E-01 0.000E+00
     atom    1 type  1   force =     0.00284242    0.00162249    0.00450706
     atom    2 type  1   force =    -0.00283763    0.00162548    0.00447044
     atom    3 type  1   force =     0.00000267   -0.00328853    0.00448902
     atom    4 type  1   force =    -0.00000100   -0.00000136    0.00849711
     atom    5 type  1   force =    -0.00000471    0.00425888   -0.00292702
     atom    6 type  1   force =    -0.00001596   -0.00002915   -0.01316590
     atom    7 type  1   force =    -0.00372636   -0.00210803   -0.00290900
     atom    8 type  1   force =     0.00374097   -0.00211570   -0.00287179
     atom    9 type  1   force =     0.00002983   -0.00002784   -0.00076656
     atom   10 type  1   force =    -0.00004806    0.00000186   -0.00001022
     atom   11 type  1   force =    -0.00000239   -0.00001349    0.00015692
     atom   12 type  1   force =     0.00005023    0.00007728    0.00009592
     atom   13 type  2   force =    -0.00003000   -0.00000189    0.00043403

     Total force =     0.020476     Total SCF correction =     0.018433
     SCF correction compared to forces is large: reduce conv_thr to get better values

     entering subroutine stress ...

     negative rho (up, down):  6.934E-01 0.000E+00
          total   stress  (Ry/bohr**3)                   (kbar)     P=  -27.13
  -0.00018564   0.00000001  -0.00000003        -27.31      0.00     -0.00
   0.00000001  -0.00018555   0.00000002          0.00    -27.30      0.00
  -0.00000003   0.00000002  -0.00018218         -0.00      0.00    -26.80

 !ASE

     Writing output data file calc.save

     General routines

     Parallel routines

   This run was terminated on:  23:35:14  20Jan2018

   JOB DONE.
Job  /afs/slac/g/suncat/bin/suncat-tsmpirun -x LD_LIBRARY_PATH -wdir /scratch/qe869904_UuOiv pw.x -in pw.inp

TID   HOST_NAME   COMMAND_LINE            STATUS            TERMINATION_TIME
00000 suncat1053 pw.x -in pw.inp   Done                     01/20/2018 23:35:14
00001 suncat1053 pw.x -in pw.inp   Done                     01/20/2018 23:35:14
00002 suncat1053 pw.x -in pw.inp   Done                     01/20/2018 23:35:14
00003 suncat1053 pw.x -in pw.inp   Done                     01/20/2018 23:35:14
00004 suncat1053 pw.x -in pw.inp   Done                     01/20/2018 23:35:14
00005 suncat1053 pw.x -in pw.inp   Done                     01/20/2018 23:35:14
00006 suncat1053 pw.x -in pw.inp   Done                     01/20/2018 23:35:14
00007 suncat1053 pw.x -in pw.inp   Done                     01/20/2018 23:35:14
00008 suncat1045 pw.x -in pw.inp   Done                     01/20/2018 23:35:14
00009 suncat1045 pw.x -in pw.inp   Done                     01/20/2018 23:35:14
00010 suncat1045 pw.x -in pw.inp   Done                     01/20/2018 23:35:14
00011 suncat1045 pw.x -in pw.inp   Done                     01/20/2018 23:35:14
00012 suncat1045 pw.x -in pw.inp   Done                     01/20/2018 23:35:14
00013 suncat1045 pw.x -in pw.inp   Done                     01/20/2018 23:35:14
00014 suncat1045 pw.x -in pw.inp   Done                     01/20/2018 23:35:14
00015 suncat1045 pw.x -in pw.inp   Done                     01/20/2018 23:35:14
00016 suncat1045 pw.x -in pw.inp   Done                     01/20/2018 23:35:14
00017 suncat1045 pw.x -in pw.inp   Done                     01/20/2018 23:35:14
00018 suncat1045 pw.x -in pw.inp   Done                     01/20/2018 23:35:14
00019 suncat1045 pw.x -in pw.inp   Done                     01/20/2018 23:35:14
00020 suncat1022 pw.x -in pw.inp   Done                     01/20/2018 23:35:14
00021 suncat1022 pw.x -in pw.inp   Done                     01/20/2018 23:35:14
00022 suncat1022 pw.x -in pw.inp   Done                     01/20/2018 23:35:14
00023 suncat1022 pw.x -in pw.inp   Done                     01/20/2018 23:35:14
00024 suncat1022 pw.x -in pw.inp   Done                     01/20/2018 23:35:14
00025 suncat1022 pw.x -in pw.inp   Done                     01/20/2018 23:35:14
00026 suncat1022 pw.x -in pw.inp   Done                     01/20/2018 23:35:14
00027 suncat1022 pw.x -in pw.inp   Done                     01/20/2018 23:35:14
00028 suncat1022 pw.x -in pw.inp   Done                     01/20/2018 23:35:14
00029 suncat1022 pw.x -in pw.inp   Done                     01/20/2018 23:35:14
00030 suncat1022 pw.x -in pw.inp   Done                     01/20/2018 23:35:14
00031 suncat1022 pw.x -in pw.inp   Done                     01/20/2018 23:35:14