     Program PWSCF v.5.1rc2 (svn rev. 11289) starts on 18Jan2018 at  5: 5:25

     Current dimensions of program PWSCF are:
     Max number of different atomic species (ntypx) = 10
     Max number of k-points (npk) =  40000
     Max angular momentum in pseudopotentials (lmaxx) =  3
     Presently stress not available with electric field

     IMPORTANT: XC functional enforced from input :
     Exchange-correlation      = BEEF-VDW ( 1  4 27 13 2)
     Any further DFT definition will be discarded
     Please, verify this is what you really want

     Subspace diagonalization in iterative solution of the eigenvalue problem:
     a serial algorithm will be used

     bravais-lattice index     =            0
     lattice parameter (alat)  =       1.8897  a.u.
     unit-cell volume          =    4228.3700 (a.u.)^3
     number of atoms/cell      =           13
     number of atomic types    =            2
     number of electrons       =       196.00
     number of Kohn-Sham states=          108
     kinetic-energy cutoff     =      36.7493  Ry
     charge density cutoff     =     367.4932  Ry
     convergence threshold     =      1.0E-05
     mixing beta               =       0.3000
     number of iterations used =           10  plain     mixing
     Exchange-correlation      = BEEF-VDW ( 1  4 27 13 2)
     nstep                     =           50

     celldm(1)=   1.889726  celldm(2)=   0.000000  celldm(3)=   0.000000
     celldm(4)=   0.000000  celldm(5)=   0.000000  celldm(6)=   0.000000

     crystal axes: (cart. coord. in units of alat)
               a(1) = (   5.440665   0.000000   0.000000 )
               a(2) = (   2.720332   4.711754   0.000000 )
               a(3) = (   0.000000   0.000000  24.442284 )

     reciprocal axes: (cart. coord. in units 2 pi/alat)
               b(1) = (  0.183801 -0.106118  0.000000 )
               b(2) = (  0.000000  0.212235  0.000000 )
               b(3) = (  0.000000  0.000000  0.040913 )

     PseudoPot. # 1 for Os read from file:
     /afs/slac.stanford.edu/u/if/mamunm/psp/gbrv1.5pbe/Os.UPF
     MD5 check sum: a3fb40a04f0c37c25c34bbc47164c9a8
     Pseudo is Ultrasoft + core correction, Zval = 16.0
     Generated by new atomic code, or converted to UPF format
     Using radial grid of  983 points,  8 beta functions with:
                l(1) =   0
                l(2) =   0
                l(3) =   1
                l(4) =   1
                l(5) =   2
                l(6) =   2
                l(7) =   3
                l(8) =   3
     Q(r) pseudized with  8 coefficients,  rinner =    1.150   1.150   1.150
                                                       1.150   1.150   1.150
                                                       1.150

     PseudoPot. # 2 for C  read from file:
     /afs/slac.stanford.edu/u/if/mamunm/psp/gbrv1.5pbe/C.UPF
     MD5 check sum: d1aef80898a10debaa0f26306b886e00
     Pseudo is Ultrasoft + core correction, Zval =  4.0
     Generated by new atomic code, or converted to UPF format
     Using radial grid of  721 points,  4 beta functions with:
                l(1) =   0
                l(2) =   0
                l(3) =   1
                l(4) =   1
     Q(r) pseudized with  8 coefficients,  rinner =    1.100   1.100   1.100

     vdW kernel table read from file vdW_kernel_table
     MD5 check sum: 095c7af220d748ca6e76c0b4c6cfb241

     atomic species   valence    mass     pseudopotential
        Os1           16.00   190.23000     Os( 1.00)
        C1             4.00    12.01100     C ( 1.00)

     No symmetry found

   Cartesian axes

     site n.     atom                  positions (alat units)
         1           Os1 tau(   1) = (   1.3601662   0.7852923  10.0000000  )
         2           Os1 tau(   2) = (   4.0804987   0.7852923  10.0000000  )
         3           Os1 tau(   3) = (   2.7203325   3.1411694  10.0000000  )
         4           Os1 tau(   4) = (   5.4406649   3.1411694  10.0000000  )
         5           Os1 tau(   5) = (   5.4406649   1.5705847  12.2211422  )
         6           Os1 tau(   6) = (   2.7203325   1.5705847  12.2211422  )
         7           Os1 tau(   7) = (   6.8008312   3.9264617  12.2211422  )
         8           Os1 tau(   8) = (   4.0804987   3.9264617  12.2211422  )
         9           Os1 tau(   9) = (   0.0000000   0.0000000  14.4422843  )
        10           Os1 tau(  10) = (   2.7203325   0.0000000  14.4422843  )
        11           Os1 tau(  11) = (   1.3601662   2.3558770  14.4422843  )
        12           Os1 tau(  12) = (   4.0804987   2.3558770  14.4422843  )
        13           C1  tau(  13) = (   1.3601662   0.7852923  16.6422843  )

     number of k points=    20  Fermi-Dirac smearing, width (Ry)=  0.0110
                       cart. coord. in units 2pi/alat
        k(    1) = (   0.0000000   0.0000000   0.0000000), wk =   0.0555556
        k(    2) = (   0.0000000   0.0353725   0.0000000), wk =   0.1111111
        k(    3) = (   0.0000000   0.0707451   0.0000000), wk =   0.1111111
        k(    4) = (   0.0000000  -0.1061176   0.0000000), wk =   0.0555556
        k(    5) = (   0.0306335  -0.0176863   0.0000000), wk =   0.1111111
        k(    6) = (   0.0306335   0.0176863   0.0000000), wk =   0.1111111
        k(    7) = (   0.0306335   0.0530588   0.0000000), wk =   0.1111111
        k(    8) = (   0.0306335  -0.1238039   0.0000000), wk =   0.1111111
        k(    9) = (   0.0306335  -0.0884313   0.0000000), wk =   0.1111111
        k(   10) = (   0.0306335  -0.0530588   0.0000000), wk =   0.1111111
        k(   11) = (   0.0612670  -0.0353725   0.0000000), wk =   0.1111111
        k(   12) = (   0.0612670   0.0000000   0.0000000), wk =   0.1111111
        k(   13) = (   0.0612670   0.0353725   0.0000000), wk =   0.1111111
        k(   14) = (   0.0612670  -0.1414901   0.0000000), wk =   0.1111111
        k(   15) = (   0.0612670  -0.1061176   0.0000000), wk =   0.1111111
        k(   16) = (   0.0612670  -0.0707451   0.0000000), wk =   0.1111111
        k(   17) = (  -0.0919005   0.0530588   0.0000000), wk =   0.0555556
        k(   18) = (  -0.0919005   0.0884313   0.0000000), wk =   0.1111111
        k(   19) = (  -0.0919005   0.1238039   0.0000000), wk =   0.1111111
        k(   20) = (  -0.0919005  -0.0530588   0.0000000), wk =   0.0555556

     Largest allocated arrays     est. size (Mb)     dimensions
     Largest temporary arrays     est. size (Mb)     dimensions

     Initial potential from superposition of free atoms
     Check: negative starting charge=   -1.495775

     starting charge  189.99952, renormalised to  196.00000

     negative rho (up, down):  1.543E+00 0.000E+00

     *
     * You are using vdW-DF for exchange-correlation in this calculation.
     * Please cite the following three references that made this development
     * possible:
     *
     *   M. Dion, H. Rydberg, E. Schroder, D. C. Langreth, and
     *   B. I. Lundqvist, Phys. Rev. Lett. 92, 246401 (2004).
     *
     *   T. Thonhauser, V. R. Cooper, S. Li, A. Puzder, P. Hyldgaard, and
     *   D. C. Langreth, Phys. Rev. B 76, 125112 (2007).
     *
     *   G. Roman-Perez and J. M. Soler, Phys. Rev. Lett. 103, 096102 (2009).
     *
     *
     * If you are using vdW-DF2, please also cite:
     *
     *   K. Lee, E. D. Murray, L. Kong, B. I. Lundqvist, and
     *   D. C. Langreth, Phys. Rev. B 82, 081101(R) (2010).
     *
     *
     * If you are calculating the stress with vdW-DF, please also cite:
     *
     *   R. Sabatini, E. Kucukbenli, B. Kolb, T. Thonhauser, and
     *   S. de Gironcoli, J. Phys.: Condens. Matter 24, 424209 (2012).
     *

     Carrying out vdW-DF run using the following parameters:

     Nqs =      20    Nr_points =    1024   r_max =   100.000
     q_mesh =
               0.00001000     0.04494208     0.09755937     0.15916263
               0.23128650     0.31572767     0.41458969     0.53033537
               0.66584808     0.82450364     1.01025438     1.22772762
               1.48234092     1.78043706     2.12944203     2.53805004
               3.01644009     3.57652955     4.23227104     5.00000000

     Gradients computed in reciprocal space

     Adding external electric field

     Computed dipole along edir(3) :
        Dipole               -1.0551 Ry au,         -2.6817 Debye
        Dipole field         -0.0031 Ry au

        Potential amp.        0.2824 Ry
        Total length         45.0345 bohr

     Starting wfc are  160 randomized atomic wfcs

     Self-consistent Calculation

     iteration #  1     ecut=    36.75 Ry     beta=0.30
     Davidson diagonalization with overlap
     ethr =  1.00E-02,  avg # of iterations =  2.0

[...]

     total energy              =   -2392.18977376 Ry
     Harris-Foulkes estimate   =   -2408.95418077 Ry
     estimated scf accuracy    <      34.83830880 Ry

[...]

     End of self-consistent calculation

          k = 0.0000 0.0000 0.0000 ( 15845 PWs)   bands (ev):

   -84.2726 -84.2185 -84.2181 -84.1743 -83.8416 -83.8099 -83.7913 -83.7907
   -83.7519 -83.7516 -83.7511 -83.7398 -43.9568 -43.9201 -43.9199 -43.7688
   -43.6586 -43.6584 -43.6543 -43.4472 -43.4294 -43.4293 -43.3352 -43.3349
   -43.3315 -43.2726 -43.2724 -43.2666 -43.1386 -43.1385 -43.1197 -43.0172
   -43.0170 -43.0157 -42.9488 -42.9487 -42.9485 -42.9264 -42.8905 -42.8779
   -42.8776 -42.8458 -42.8414 -42.8413 -42.6999 -42.6998 -42.6681 -42.6681
    -6.9673  -5.9288  -4.7026  -4.3832  -4.1039  -4.1038  -4.0903  -3.7894
    -3.7893  -3.7780  -3.1860  -3.1859  -3.1688  -2.9177  -2.9176  -2.9104
    -1.3664  -1.3664  -1.3285  -0.5555  -0.5555  -0.5477  -0.3032  -0.1128
    -0.0662  -0.0662   0.4274   0.4275   0.4544   0.4545   0.4694   0.7460
     0.7461   0.7716   0.7716   0.7968   1.8074   2.0587   2.0588   2.1440
     2.4625   2.4626   2.5071   2.7875   2.7875   2.9840   2.9841   3.0488
     3.5127   3.5127   3.7832   4.1421   4.1469   4.1470   4.4061   4.4062
     4.4230   4.6406   4.6406   4.9756

[...]

          k =-0.0919 0.0531 0.0000 ( 15968 PWs)   bands (ev):

[...]

     the Fermi energy is     2.8005 ev

!    total energy              =   -2408.52839616 Ry
     Harris-Foulkes estimate   =   -2408.52843962 Ry
     estimated scf accuracy    <       0.00000997 Ry

     The total energy is the sum of the following terms:

     one-electron contribution =  -21684.99395271 Ry
     hartree contribution      =   10825.08410602 Ry
     xc contribution           =    -467.46577896 Ry
     ewald contribution        =    8918.92671740 Ry
     electric field correction =       0.00012812 Ry
     smearing contrib. (-TS)   =      -0.07961604 Ry

     convergence has been achieved in  20 iterations

 BEEF-vdW xc energy contributions
           1 :   -409.455829894736
           2 :    379.388254922234
           3 :   -326.315166410279
           4 :    261.789359046215
           5 :   -198.240179202923
           6 :    145.603182708918
           7 :   -109.106767665474
           8 :    88.7274006141097
           9 :   -80.3163498746717
          10 :    77.8083212515257
          11 :   -75.6138137663700
          12 :    70.3305407267034
          13 :   -61.3102193050895
          14 :    50.1191351053382
[...]

[...]

     Program PWSCF v.5.1rc2 (svn rev. 11289) starts on 18Jan2018 at  5:23: 4

[...]

   This run was terminated on:   5:29: 5  18Jan2018

[...]

   This run was terminated on:   5:41: 7  18Jan2018

[...]

   This run was terminated on:   6: 4:49  18Jan2018

[...]

     Program PWSCF v.5.1rc2 (svn rev. 11289) starts on 18Jan2018 at  6: 4:54

[...]

     Total force =     0.108256     Total SCF correction =     0.010435

[...]

     Program PWSCF v.5.1rc2 (svn rev. 11289) starts on 18Jan2018 at  6:10:44

     Current dimensions of program PWSCF are:
     Max number of different atomic species (ntypx) = 10
     Max number of k-points (npk) =  40000
     Max angular momentum in pseudopotentials (lmaxx) =  3
     Presently stress not available with electric field

     IMPORTANT: XC functional enforced from input :
     Exchange-correlation      = BEEF-VDW ( 1  4 27 13 2)
     Any further DFT definition will be discarded
     Please, verify this is what you really want

     Subspace diagonalization in iterative solution of the eigenvalue problem:
     a serial algorithm will be used

     bravais-lattice index     =            0
     lattice parameter (alat)  =       1.8897  a.u.
     unit-cell volume          =    4228.3700 (a.u.)^3
     number of atoms/cell      =           13
     number of atomic types    =            2
     number of electrons       =       196.00
     number of Kohn-Sham states=          108
     kinetic-energy cutoff     =      36.7493  Ry
     charge density cutoff     =     367.4932  Ry
     convergence threshold     =      1.0E-05
     mixing beta               =       0.3000
     number of iterations used =           10  plain     mixing
     Exchange-correlation      = BEEF-VDW ( 1  4 27 13 2)
     nstep                     =           50

     celldm(1)=   1.889726  celldm(2)=   0.000000  celldm(3)=   0.000000
     celldm(4)=   0.000000  celldm(5)=   0.000000  celldm(6)=   0.000000

     crystal axes: (cart. coord. in units of alat)
               a(1) = (   5.440665   0.000000   0.000000 )
               a(2) = (   2.720332   4.711754   0.000000 )
               a(3) = (   0.000000   0.000000  24.442284 )

     reciprocal axes: (cart. coord. in units 2 pi/alat)
               b(1) = (  0.183801 -0.106118  0.000000 )
               b(2) = (  0.000000  0.212235  0.000000 )
               b(3) = (  0.000000  0.000000  0.040913 )

     PseudoPot. # 1 for Os read from file:
     /afs/slac.stanford.edu/u/if/mamunm/psp/gbrv1.5pbe/Os.UPF
     MD5 check sum: a3fb40a04f0c37c25c34bbc47164c9a8
     Pseudo is Ultrasoft + core correction, Zval = 16.0
     Generated by new atomic code, or converted to UPF format
     Using radial grid of  983 points,  8 beta functions with:
                l(1) =   0
                l(2) =   0
                l(3) =   1
                l(4) =   1
                l(5) =   2
                l(6) =   2
                l(7) =   3
                l(8) =   3
     Q(r) pseudized with  8 coefficients,  rinner =    1.150   1.150   1.150
                                                       1.150   1.150   1.150
                                                       1.150

     PseudoPot. # 2 for C  read from file:
     /afs/slac.stanford.edu/u/if/mamunm/psp/gbrv1.5pbe/C.UPF
     MD5 check sum: d1aef80898a10debaa0f26306b886e00
     Pseudo is Ultrasoft + core correction, Zval =  4.0
     Generated by new atomic code, or converted to UPF format
     Using radial grid of  721 points,  4 beta functions with:
                l(1) =   0
                l(2) =   0
                l(3) =   1
                l(4) =   1
     Q(r) pseudized with  8 coefficients,  rinner =    1.100   1.100   1.100

     vdW kernel table read from file vdW_kernel_table
     MD5 check sum: 095c7af220d748ca6e76c0b4c6cfb241

     atomic species   valence    mass     pseudopotential
        Os1           16.00   190.23000     Os( 1.00)
        C1             4.00    12.01100     C ( 1.00)

     No symmetry found

   Cartesian axes

     site n.     atom                  positions (alat units)
         1           Os1 tau(   1) = (   1.3601662   0.7852923  10.0000000  )
         2           Os1 tau(   2) = (   4.0804987   0.7852923  10.0000000  )
         3           Os1 tau(   3) = (   2.7203325   3.1411694  10.0000000  )
         4           Os1 tau(   4) = (   5.4406649   3.1411694  10.0000000  )
         5           Os1 tau(   5) = (   5.4406649   1.5705847  12.2211422  )
         6           Os1 tau(   6) = (   2.7203325   1.5705847  12.2211422  )
         7           Os1 tau(   7) = (   6.8008312   3.9264617  12.2211422  )
         8           Os1 tau(   8) = (   4.0804987   3.9264617  12.2211422  )
         9           Os1 tau(   9) = (   8.1232064   4.6900511  14.4507917  )
        10           Os1 tau(  10) = (   5.4788254   4.6900028  14.4501495  )
        11           Os1 tau(  11) = (   6.8010098   2.3999458  14.4501676  )
        12           Os1 tau(  12) = (   4.0803547   2.3558501  14.3306816  )
        13           C1  tau(  13) = (   1.3599797   0.7850853  15.5915976  )

     number of k points=    20  Fermi-Dirac smearing, width (Ry)=  0.0110
                       cart. coord. in units 2pi/alat
        k(    1) = (   0.0000000   0.0000000   0.0000000), wk =   0.0555556
        k(    2) = (   0.0000000   0.0353725   0.0000000), wk =   0.1111111
        k(    3) = (   0.0000000   0.0707451   0.0000000), wk =   0.1111111
        k(    4) = (   0.0000000  -0.1061176   0.0000000), wk =   0.0555556
        k(    5) = (   0.0306335  -0.0176863   0.0000000), wk =   0.1111111
        k(    6) = (   0.0306335   0.0176863   0.0000000), wk =   0.1111111
        k(    7) = (   0.0306335   0.0530588   0.0000000), wk =   0.1111111
        k(    8) = (   0.0306335  -0.1238039   0.0000000), wk =   0.1111111
        k(    9) = (   0.0306335  -0.0884313   0.0000000), wk =   0.1111111
        k(   10) = (   0.0306335  -0.0530588   0.0000000), wk =   0.1111111
        k(   11) = (   0.0612670  -0.0353725   0.0000000), wk =   0.1111111
        k(   12) = (   0.0612670   0.0000000   0.0000000), wk =   0.1111111
        k(   13) = (   0.0612670   0.0353725   0.0000000), wk =   0.1111111
        k(   14) = (   0.0612670  -0.1414901   0.0000000), wk =   0.1111111
        k(   15) = (   0.0612670  -0.1061176   0.0000000), wk =   0.1111111
        k(   16) = (   0.0612670  -0.0707451   0.0000000), wk =   0.1111111
        k(   17) = (  -0.0919005   0.0530588   0.0000000), wk =   0.0555556
        k(   18) = (  -0.0919005   0.0884313   0.0000000), wk =   0.1111111
        k(   19) = (  -0.0919005   0.1238039   0.0000000), wk =   0.1111111
        k(   20) = (  -0.0919005  -0.0530588   0.0000000), wk =   0.0555556

     Largest allocated arrays     est. size (Mb)     dimensions
     Largest temporary arrays     est. size (Mb)     dimensions

     Initial potential from superposition of free atoms
     Check: negative starting charge=   -1.488871

     starting charge  189.99952, renormalised to  196.00000

[...]

     *
     * You are using vdW-DF for exchange-correlation in this calculation.
     * Please cite the following three references that made this development
     * possible:
     *
     *   M. Dion, H. Rydberg, E. Schroder, D. C. Langreth, and
     *   B. I. Lundqvist, Phys. Rev. Lett. 92, 246401 (2004).
     *
     *   T. Thonhauser, V. R. Cooper, S. Li, A. Puzder, P. Hyldgaard, and
     *   D. C. Langreth, Phys. Rev. B 76, 125112 (2007).
     *
     *   G. Roman-Perez and J. M. Soler, Phys. Rev. Lett. 103, 096102 (2009).
     *
     *
     * If you are using vdW-DF2, please also cite:
     *
     *   K. Lee, E. D. Murray, L. Kong, B. I. Lundqvist, and
     *   D. C. Langreth, Phys. Rev. B 82, 081101(R) (2010).
     *
     *
     * If you are calculating the stress with vdW-DF, please also cite:
     *
     *   R. Sabatini, E. Kucukbenli, B. Kolb, T. Thonhauser, and
     *   S. de Gironcoli, J. Phys.: Condens. Matter 24, 424209 (2012).
     *

     Carrying out vdW-DF run using the following parameters:

     Nqs =      20    Nr_points =    1024   r_max =   100.000
     q_mesh =
               0.00001000     0.04494208     0.09755937     0.15916263
               0.23128650     0.31572767     0.41458969     0.53033537
               0.66584808     0.82450364     1.01025438     1.22772762
               1.48234092     1.78043706     2.12944203     2.53805004
               3.01644009     3.57652955     4.23227104     5.00000000

     Gradients computed in reciprocal space

[...]

     Starting wfc are  160 randomized atomic wfcs

     Self-consistent Calculation

[...]

     total energy              =   -2408.80916098 Ry
     Harris-Foulkes estimate   =   -2408.80916125 Ry
     estimated scf accuracy    <       0.00001792 Ry

     iteration # 20     ecut=    36.75 Ry     beta=0.30
     Davidson diagonalization with overlap
     ethr =  9.14E-09,  avg # of iterations =  1.3

[...]

     negative rho (up, down):  1.512E+00 0.000E+00

     Adding external electric field

     Computed dipole along edir(3) :
        Dipole               -0.0530 Ry au,         -0.1348 Debye
        Dipole field         -0.0002 Ry au

        Potential amp.        0.0142 Ry
        Total length         45.0345 bohr

     End of self-consistent calculation

[...]

          k = 0.0613-0.0707 0.0000 ( 15922 PWs)   bands (ev):

[...]

          k =-0.0919-0.0531 0.0000 ( 15968 PWs)   bands (ev):

   -84.0505 -84.0375 -84.0192 -83.8702 -83.7398 -83.7198 -83.7054 -83.5523
   -83.5464 -83.5231 -83.5150 -83.4970 -43.6174 -43.5477 -43.5182 -43.4997
   -43.4741 -43.4257 -43.3765 -43.3623 -43.3161 -43.2900 -43.1978 -43.1191
   -43.1066 -43.0537 -43.0499 -43.0000 -42.9789 -42.9716 -42.9520 -42.9146
   -42.8704 -42.8624 -42.8073 -42.8043 -42.7933 -42.7770 -42.7667 -42.7506
   -42.7480 -42.7332 -42.7279 -42.7037 -42.6922 -42.5746 -42.5194 -42.5140
    -8.5348  -4.8188  -4.6324  -3.4515  -3.0610  -2.9165  -2.8374  -2.7854
    -2.6731  -2.6654  -2.5726  -2.1427  -2.0779  -1.7412  -1.6838  -1.6270
    -1.5310  -1.3939  -1.1897  -1.1308  -1.0309  -0.9572  -0.9258  -0.6047
    -0.5549  -0.4027  -0.1201  -0.0109   0.1642   0.2010   0.3477   0.5029
     0.5150   0.5812   0.7452   0.7950   0.7960   0.8958   0.9919   1.0701
     1.1516   1.7746   1.8285   1.8997   1.9621   2.1240   2.2498   2.3900
     2.5374   2.5733   2.7930   2.8977   3.0220   3.0786   3.3639   3.3808
     3.6065   3.7729   4.0211   4.0428

     the Fermi energy is     3.0612 ev

!    total energy              =   -2408.80915567 Ry
     Harris-Foulkes estimate   =   -2408.80917050 Ry
     estimated scf accuracy    <       0.00000682 Ry

     The total energy is the sum of the following terms:

     one-electron contribution =  -22027.89360226 Ry
     hartree contribution      =   10997.39750243 Ry
     xc contribution           =    -468.22071719 Ry
     ewald contribution        =    9089.97554913 Ry
     electric field correction =       0.00000835 Ry
     smearing contrib. (-TS)   =      -0.06789614 Ry

     convergence has been achieved in  20 iterations

 BEEF-vdW xc energy contributions
           1 :   -410.209294817119
           2 :    380.354724573377
           3 :   -327.552323014466
           4 :    263.176063867285
           5 :   -199.550256332293
           6 :    146.603433752236
           7 :   -109.648477631093
           8 :    88.8033217746587
           9 :   -80.0597124220261
          10 :    77.4332981193627
          11 :   -75.3221882312133
          12 :    70.2297781727339
          13 :   -61.3834083762309
          14 :    50.2535168842693
          15 :   -39.3783124836400
          16 :    31.0530142059822
          17 :   -26.3932844849198
          18 :    25.0526029004368
          19 :   -25.5875834874504
          20 :    26.2093210897037
          21 :   -25.5547492242595
          22 :    23.1583257362963
          23 :   -19.4798106562662
          24 :    15.5422267068482
          25 :   -12.3900853395625
          26 :    10.6202643541845
          27 :   -10.1782638242929
          28 :    10.4705862559691
          29 :   -10.7046725595585
          30 :    10.2754780183412
          31 :   -38.9712333986039
          32 :   -29.8110837922792

     Forces acting on atoms (Ry/au):

     negative rho (up, down):  1.512E+00 0.000E+00
     atom    1 type  1   force =     0.00002381    0.00000376    0.02797195
     atom    2 type  1   force =    -0.00002162    0.00090897    0.03648546
     atom    3 type  1   force =     0.00077547   -0.00049098    0.03645741
     atom    4 type  1   force =    -0.00077283   -0.00045385    0.03650879
     atom    5 type  1   force =     0.00022174   -0.00014227   -0.02102693
     atom    6 type  1   force =    -0.00020686    0.00012388   -0.02122629
     atom    7 type  1   force =     0.00016825   -0.00010448   -0.07423537
     atom    8 type  1   force =    -0.00018304    0.00017857   -0.02123441
     atom    9 type  1   force =    -0.00017607   -0.00012821   -0.00011447
     atom   10 type  1   force =    -0.00001934    0.00012924    0.00006442
     atom   11 type  1   force =     0.00008955   -0.00010822    0.00018833
     atom   12 type  1   force =     0.00000759   -0.00001349   -0.00061107
     atom   13 type  2   force =     0.00009334    0.00009707    0.00077218

     Total force =     0.107861     Total SCF correction =     0.025938
     SCF correction compared to forces is large: reduce conv_thr to get better values

     entering subroutine stress ...

     negative rho (up, down):  1.512E+00 0.000E+00
          total   stress  (Ry/bohr**3)                   (kbar)     P=  -18.20
  -0.00010967   0.00000014   0.00000002        -16.13      0.02      0.00
   0.00000014  -0.00010984   0.00000003          0.02    -16.16      0.00
   0.00000002   0.00000003  -0.00015174          0.00      0.00    -22.32

 !ASE

     Writing output data file calc.save

     General routines

     Parallel routines

   This run was terminated on:   6:16:40  18Jan2018

   JOB DONE.
Job  /afs/slac/g/suncat/bin/suncat-tsmpirun -x LD_LIBRARY_PATH -wdir /scratch/qe842464_JX1g9 pw.x -in pw.inp

TID   HOST_NAME   COMMAND_LINE            STATUS            TERMINATION_TIME
00000 suncat2041 pw.x -in pw.inp   Done                     01/18/2018 06:16:40
00001 suncat2041 pw.x -in pw.inp   Done                     01/18/2018 06:16:40
00002 suncat2041 pw.x -in pw.inp   Done                     01/18/2018 06:16:40
00003 suncat2041 pw.x -in pw.inp   Done                     01/18/2018 06:16:40
00004 suncat2041 pw.x -in pw.inp   Done                     01/18/2018 06:16:40
00005 suncat2041 pw.x -in pw.inp   Done                     01/18/2018 06:16:40
00006 suncat2041 pw.x -in pw.inp   Done                     01/18/2018 06:16:40
00007 suncat2041 pw.x -in pw.inp   Done                     01/18/2018 06:16:40
00008 suncat2041 pw.x -in pw.inp   Done                     01/18/2018 06:16:40
00009 suncat2041 pw.x -in pw.inp   Done                     01/18/2018 06:16:40
00010 suncat2041 pw.x -in pw.inp   Done                     01/18/2018 06:16:40
00011 suncat2041 pw.x -in pw.inp   Done                     01/18/2018 06:16:40
00012 suncat2041 pw.x -in pw.inp   Done                     01/18/2018 06:16:40
00013 suncat2041 pw.x -in pw.inp   Done                     01/18/2018 06:16:40
00014 suncat2041 pw.x -in pw.inp   Done                     01/18/2018 06:16:40
00015 suncat2041 pw.x -in pw.inp   Done                     01/18/2018 06:16:40
00016 suncat2040 pw.x -in pw.inp   Done                     01/18/2018 06:16:40
00017 suncat2040 pw.x -in pw.inp   Done                     01/18/2018 06:16:40
00018 suncat2040 pw.x -in pw.inp   Done                     01/18/2018 06:16:40
00019 suncat2040 pw.x -in pw.inp   Done                     01/18/2018 06:16:40
00020 suncat2040 pw.x -in pw.inp   Done                     01/18/2018 06:16:40
00021 suncat2040 pw.x -in pw.inp   Done                     01/18/2018 06:16:40
00022 suncat2040 pw.x -in pw.inp   Done                     01/18/2018 06:16:40
00023 suncat2040 pw.x -in pw.inp   Done                     01/18/2018 06:16:40
00024 suncat2040 pw.x -in pw.inp   Done                     01/18/2018 06:16:40
00025 suncat2040 pw.x -in pw.inp   Done                     01/18/2018 06:16:40
00026 suncat2040 pw.x -in pw.inp   Done                     01/18/2018 06:16:40
00027 suncat2040 pw.x -in pw.inp   Done                     01/18/2018 06:16:40
00028 suncat2040 pw.x -in pw.inp   Done                     01/18/2018 06:16:40
00029 suncat2040 pw.x -in pw.inp   Done                     01/18/2018 06:16:40
00030 suncat2040 pw.x -in pw.inp   Done                     01/18/2018 06:16:40
00031 suncat2040 pw.x -in pw.inp   Done                     01/18/2018 06:16:40