     Program PWSCF v.5.1rc2 (svn rev. 11289) starts on 16Apr2018 at 11:43: 9

     Current dimensions of program PWSCF are:
     Max number of different atomic species (ntypx) = 10
     Max number of k-points (npk) =  40000
     Max angular momentum in pseudopotentials (lmaxx) =  3
     Presently stress not available with electric field

     IMPORTANT: XC functional enforced from input :
     Exchange-correlation      = BEEF-VDW ( 1  4 27 13 2)
     Any further DFT definition will be discarded
     Please, verify this is what you really want

     Subspace diagonalization in iterative solution of the eigenvalue problem:
     a serial algorithm will be used

     bravais-lattice index     =            0
     lattice parameter (alat)  =       1.8897  a.u.
     unit-cell volume          =    5144.9564 (a.u.)^3
     number of atoms/cell      =           14
     number of atomic types    =            3
     number of electrons       =       137.00
     number of Kohn-Sham states=           78
     kinetic-energy cutoff     =      36.7493  Ry
     charge density cutoff     =     367.4932  Ry
     convergence threshold     =      1.0E-05
     mixing beta               =       0.3000
     number of iterations used =           10  plain     mixing
     Exchange-correlation      = BEEF-VDW ( 1  4 27 13 2)
     nstep                     =           50

     celldm(1)=   1.889726  celldm(2)=   0.000000  celldm(3)=   0.000000
     celldm(4)=   0.000000  celldm(5)=   0.000000  celldm(6)=   0.000000

     crystal axes: (cart. coord. in units of alat)
               a(1) = (   5.950946   0.000000   0.000000 )
               a(2) = (   2.975473   5.153671   0.000000 )
               a(3) = (   0.000000   0.000000  24.858927 )

     reciprocal axes: (cart. coord. in units 2 pi/alat)
               b(1) = (  0.168040 -0.097018  0.000000 )
               b(2) = (  0.000000  0.194036  0.000000 )
               b(3) = (  0.000000  0.000000  0.040227 )

     PseudoPot. # 1 for Au read from file:
     /u/if/mamunm/psp/gbrv1.5pbe/Au.UPF
     MD5 check sum: 9d7f43293ad2c663164586bc4b293ffc
     Pseudo is Ultrasoft + core correction, Zval = 11.0
     Generated by new atomic code, or converted to UPF format
     Using radial grid of  985 points,  7 beta functions with:
                l(1) =   0
                l(2) =   0
                l(3) =   1
                l(4) =   1
                l(5) =   2
                l(6) =   2
                l(7) =   3
     Q(r) pseudized with  6 coefficients,  rinner =    1.900   1.900   1.900
                                                       1.900   1.900   1.900
                                                       1.900

     PseudoPot. # 2 for C  read from file:
     /u/if/mamunm/psp/gbrv1.5pbe/C.UPF
     MD5 check sum: d1aef80898a10debaa0f26306b886e00
     Pseudo is Ultrasoft + core correction, Zval =  4.0
     Generated by new atomic code, or converted to UPF format
     Using radial grid of  721 points,  4 beta functions with:
                l(1) =   0
                l(2) =   0
                l(3) =   1
                l(4) =   1
     Q(r) pseudized with  8 coefficients,  rinner =    1.100   1.100   1.100

     PseudoPot. # 3 for H  read from file:
     /u/if/mamunm/psp/gbrv1.5pbe/H.UPF
     MD5 check sum: 761ae9a214b05c3daf00ab9f6b793d6f
     Pseudo is Ultrasoft, Zval =  1.0
     Generated by new atomic code, or converted to UPF format
     Using radial grid of  615 points,  2 beta functions with:
                l(1) =   0
                l(2) =   0
     Q(r) pseudized with  8 coefficients,  rinner =    0.700

     vdW kernel table read from file vdW_kernel_table
     MD5 check sum: 095c7af220d748ca6e76c0b4c6cfb241

     atomic species   valence    mass     pseudopotential
        Au1           11.00   196.96657     Au( 1.00)
        C1             4.00    12.01100     C ( 1.00)
        H1             1.00     1.00800     H ( 1.00)

     No symmetry found

   Cartesian axes

     site n.     atom                  positions (alat units)
         1           Au1 tau(   1) = (   1.4877366   0.8589451  10.0000000  )
         2           Au1 tau(   2) = (   4.4632098   0.8589451  10.0000000  )
         3           Au1 tau(   3) = (   2.9754732   3.4357805  10.0000000  )
         4           Au1 tau(   4) = (   5.9509464   3.4357805  10.0000000  )
         5           Au1 tau(   5) = (   5.9509464   1.7178903  12.4294637  )
         6           Au1 tau(   6) = (   2.9754732   1.7178903  12.4294637  )
         7           Au1 tau(   7) = (   7.4386830   4.2947256  12.4294637  )
         8           Au1 tau(   8) = (   4.4632098   4.2947256  12.4294637  )
         9           Au1 tau(   9) = (   0.0000000   0.0000000  14.8589274  )
        10           Au1 tau(  10) = (   2.9754732   0.0000000  14.8589274  )
        11           Au1 tau(  11) = (   1.4877366   2.5768354  14.8589274  )
        12           Au1 tau(  12) = (   4.4632098   2.5768354  14.8589274  )
        13           C1  tau(  13) = (   1.4877366   0.8589451  16.2369274  )
        14           H1  tau(  14) = (   1.4877366   0.8589451  17.3369274  )

     number of k points=    20  Fermi-Dirac smearing, width (Ry)=  0.0110
                       cart. coord. in units 2pi/alat
        k(    1) = (   0.0000000   0.0000000   0.0000000), wk =   0.0555556
        k(    2) = (   0.0000000   0.0323394   0.0000000), wk =   0.1111111
        k(    3) = (   0.0000000   0.0646788   0.0000000), wk =   0.1111111
        k(    4) = (   0.0000000  -0.0970182   0.0000000), wk =   0.0555556
        k(    5) = (   0.0280067  -0.0161697   0.0000000), wk =   0.1111111
        k(    6) = (   0.0280067   0.0161697   0.0000000), wk =   0.1111111
        k(    7) = (   0.0280067   0.0485091   0.0000000), wk =   0.1111111
        k(    8) = (   0.0280067  -0.1131879   0.0000000), wk =   0.1111111
        k(    9) = (   0.0280067  -0.0808485   0.0000000), wk =   0.1111111
        k(   10) = (   0.0280067  -0.0485091   0.0000000), wk =   0.1111111
        k(   11) = (   0.0560135  -0.0323394   0.0000000), wk =   0.1111111
        k(   12) = (   0.0560135   0.0000000   0.0000000), wk =   0.1111111
        k(   13) = (   0.0560135   0.0323394   0.0000000), wk =   0.1111111
        k(   14) = (   0.0560135  -0.1293576   0.0000000), wk =   0.1111111
        k(   15) = (   0.0560135  -0.0970182   0.0000000), wk =   0.1111111
        k(   16) = (   0.0560135  -0.0646788   0.0000000), wk =   0.1111111
        k(   17) = (  -0.0840202   0.0485091   0.0000000), wk =   0.0555556
        k(   18) = (  -0.0840202   0.0808485   0.0000000), wk =   0.1111111
        k(   19) = (  -0.0840202   0.1131879   0.0000000), wk =   0.1111111
        k(   20) = (  -0.0840202  -0.0485091   0.0000000), wk =   0.0555556

     Largest allocated arrays     est. size (Mb)     dimensions
     Largest temporary arrays     est. size (Mb)     dimensions

     Check: negative/imaginary core charge=   -0.000002    0.000000

     Initial potential from superposition of free atoms
     Check: negative starting charge=   -0.000105

     starting charge  136.99848, renormalised to  137.00000

     negative rho (up, down):  1.047E-04 0.000E+00

     *
     * You are using vdW-DF for exchange-correlation in this calculation.
     * Please cite the following three references that made this development
     * possible:
     *
     *   M. Dion, H. Rydberg, E. Schroder, D. C. Langreth, and
     *   B. I. Lundqvist, Phys. Rev. Lett. 92, 246401 (2004).
     *
     *   T. Thonhauser, V. R. Cooper, S. Li, A. Puzder, P. Hyldgaard, and
     *   D. C. Langreth, Phys. Rev. B 76, 125112 (2007).
     *
     *   G. Roman-Perez and J. M. Soler, Phys. Rev. Lett. 103, 096102 (2009).
     *
     *
     * If you are using vdW-DF2, please also cite:
     *
     *   K. Lee, E. D. Murray, L. Kong, B. I. Lundqvist, and
     *   D. C. Langreth, Phys. Rev. B 82, 081101(R) (2010).
     *
     *
     * If you are calculating the stress with vdW-DF, please also cite:
     *
     *   R. Sabatini, E. Kucukbenli, B. Kolb, T. Thonhauser, and
     *   S. de Gironcoli, J. Phys.: Condens. Matter 24, 424209 (2012).
     *

     Carrying out vdW-DF run using the following parameters:

     Nqs =      20    Nr_points =    1024   r_max =   100.000
     q_mesh =
               0.00001000     0.04494208     0.09755937     0.15916263
               0.23128650     0.31572767     0.41458969     0.53033537
               0.66584808     0.82450364     1.01025438     1.22772762
               1.48234092     1.78043706     2.12944203     2.53805004
               3.01644009     3.57652955     4.23227104     5.00000000

     Gradients computed in reciprocal space

     Adding external electric field

     Computed dipole along edir(3) :
        Dipole               -0.0000 Ry au,         -0.0001 Debye
        Dipole field         -0.0000 Ry au

        Potential amp.        0.0000 Ry
        Total length         45.8022 bohr

     Starting wfc are  113 randomized atomic wfcs

     Self-consistent Calculation

     iteration #  1     ecut=    36.75 Ry     beta=0.30
     Davidson diagonalization with overlap
     ethr =  1.00E-02,  avg # of iterations =  2.0

[...]

     total energy              =   -1412.41891571 Ry
     Harris-Foulkes estimate   =   -1413.30606667 Ry
     estimated scf accuracy    <       2.01743405 Ry

[...]

     End of self-consistent calculation

          k = 0.0000 0.0000 0.0000 ( 19315 PWs)   bands (ev):

   -11.1576  -7.6225  -6.7277  -5.9876  -5.7778  -5.6111  -5.6111  -5.5724
    -5.5724  -5.5436  -5.2858  -5.1613  -5.1613  -5.0673  -5.0673  -5.0525
    -4.3572  -4.3503  -4.3503  -3.9257  -3.8985  -3.8985  -3.8443  -3.8443
    -3.7913  -3.7238  -3.7238  -3.4905  -3.4905  -3.4697  -3.4116  -3.3788
    -3.3788  -3.1911  -3.1911  -3.0157  -2.7658  -2.7658  -2.7533  -2.6072
    -2.5256  -2.5256  -2.2386  -2.2386  -2.2103  -2.2103  -1.8451  -1.8451
    -1.7994  -1.7698  -1.7269  -1.7269  -1.6696  -1.6696  -1.5865  -1.5076
    -1.5076  -1.4336  -1.4336  -1.4242  -1.4007  -1.2126  -1.2126  -1.2065
    -0.3841   0.1986   0.1986   1.0893   1.1135   1.1135   1.3965   1.8199
     1.8199   1.9212   2.2830   2.2830   2.9748   3.8070

[...]

          k =-0.0840 0.0485 0.0000 ( 19380 PWs)   bands (ev):

[...]

     the Fermi energy is     0.4807 ev

!    total energy              =   -1413.09580476 Ry
     Harris-Foulkes estimate   =   -1413.09581078 Ry
     estimated scf accuracy    <       0.00000610 Ry

     The total energy is the sum of the following terms:

     one-electron contribution =   -8262.52597751 Ry
     hartree contribution      =    4229.78371533 Ry
     xc contribution           =    -772.37238479 Ry
     ewald contribution        =    3392.04392497 Ry
     electric field correction =       0.00005517 Ry
     smearing contrib. (-TS)   =      -0.02513792 Ry

     convergence has been achieved in  10 iterations

 BEEF-vdW xc energy contributions
           1 :   -690.288562566579
           2 :    641.662324111933
           3 :   -554.698231752283
           4 :    446.228177728833
           5 :   -334.439717936555
           6 :    234.212404543246
           7 :   -154.296913296893
           8 :    96.8261264006826
           9 :   -58.8900487973990
          10 :    35.1825495895013
          11 :   -20.5249368240616
          12 :    11.3337633890219
          13 :   -5.78717886732875
          14 :    3.06967236546416
          15 :   -2.42380366564657
          16 :    2.62235979456455
          17 :   -2.10620149724264
          18 :  -0.402860926515018
          19 :    5.24439774222265
          20 :   -11.5554646611687
          21 :    17.5902147048639
          22 :   -21.4916670196344
          23 :    22.1238533413205
          24 :   -19.5546860233280
          25 :    14.9665677617518
          26 :   -10.0734465670404
          27 :    6.35616767712781
          28 :   -4.49908448081192
          29 :    4.27162342769748
          30 :   -4.86007162513351
          31 :   -54.6980376030307
          32 :   -39.8779746194958

     Forces acting on atoms (Ry/au):

     negative rho (up, down):  2.515E-04 0.000E+00
     atom    1 type  1   force =     0.00000479    0.00000935   -0.00369084
     atom    2 type  1   force =    -0.00000405   -0.00049720   -0.00770779
     atom    3 type  1   force =    -0.00044380    0.00024692   -0.00769851
     atom    4 type  1   force =     0.00043210    0.00025101   -0.00768883
     atom    5 type  1   force =    -0.00187591    0.00107983   -0.00361660
     atom    6 type  1   force =     0.00187674    0.00107585   -0.00362315
     atom    7 type  1   force =     0.00000795    0.00000185    0.01971203
     atom    8 type  1   force =    -0.00000394   -0.00216324   -0.00361638
     atom    9 type  1   force =    -0.00327163   -0.00188504    0.03953004
     atom   10 type  1   force =     0.00328118   -0.00189561    0.03955565
     atom   11 type  1   force =     0.00000152    0.00378053    0.03954705
     atom   12 type  1   force =    -0.00000009   -0.00000037   -0.00243867
     atom   13 type  2   force =    -0.00000273   -0.00000163   -0.08548577
     atom   14 type  3   force =    -0.00000214   -0.00000226   -0.01277824

     Total force =     0.110504     Total SCF correction =     0.010239

     entering subroutine stress ...

     negative rho (up, down):  2.515E-04 0.000E+00
          total   stress  (Ry/bohr**3)                   (kbar)     P=  -10.50
  -0.00009471   0.00000000   0.00000000        -13.93      0.00      0.00
   0.00000000  -0.00009471  -0.00000000          0.00    -13.93     -0.00
   0.00000000  -0.00000000  -0.00002481          0.00     -0.00     -3.65

     BFGS Geometry Optimization

     number of scf cycles    =   1
     number of bfgs steps    =   0

     energy   new            =   -1413.0958047560 Ry

     new trust radius        =       0.0854857723 bohr
     new conv_thr            =       0.0000099958 Ry

ATOMIC_POSITIONS (crystal)
Au1      0.166666667   0.166666667   0.402269971    0   0   0
Au1      0.666666667   0.166666667   0.402269971    0   0   0
Au1      0.166666667   0.666666667   0.402269971    0   0   0
Au1      0.666666667   0.666666667   0.402269971    0   0   0
Au1      0.833333333   0.333333333   0.500000000    0   0   0
Au1      0.333333333   0.333333333   0.500000000    0   0   0
Au1      0.833333333   0.833333333   0.500000000    0   0   0
Au1      0.333333333   0.833333333   0.500000000    0   0   0
Au1     -0.000194146  -0.000193555   0.598571513
Au1      0.500389093  -0.000194640   0.598572059
Au1     -0.000193957   0.500388183   0.598571875
Au1      0.500000011   0.499999962   0.597678117
C1       0.166666508   0.166666500   0.651343077
H1       0.166666593   0.166666435   0.697140515

     Writing output data file calc.save
     Check: negative starting charge=   -0.000105
     NEW-OLD atomic charge density approx. for the potential

     Check: negative/imaginary core charge=   -0.000002    0.000000
     Check: negative starting charge=   -0.000104

[...]

     energy   old            =   -1413.0958047560 Ry
     energy   new            =   -1413.1051131121 Ry

     CASE: energy  _new < energy  _old

[...]

     Threshold (ethr) on eigenvalues was too large:
     Diagonalizing with lowered threshold

     Davidson diagonalization with overlap
     ethr =  5.02E-08,  avg # of iterations =  1.0

[...]

     Total force =     0.005927     Total SCF correction =     0.000690
     SCF correction compared to forces is large: reduce conv_thr to get better values

[...]

     Total force =     0.003188     Total SCF correction =     0.000438
     SCF correction compared to forces is large: reduce conv_thr to get better values

[...]

     number of scf cycles    =  14
     number of bfgs steps    =  13

     energy   old            =   -1413.1355170275 Ry
     energy   new            =   -1413.1355295787 Ry

     CASE: energy  _new < energy  _old

     new trust radius        =       0.0071197639 bohr
     new conv_thr            =       0.0000001000 Ry

ATOMIC_POSITIONS (crystal)
Au1      0.166666667   0.166666667   0.402269971    0   0   0
Au1      0.666666667   0.166666667   0.402269971    0   0   0
Au1      0.166666667   0.666666667   0.402269971    0   0   0
Au1      0.666666667   0.666666667   0.402269971    0   0   0
Au1      0.833333333   0.333333333   0.500000000    0   0   0
Au1      0.333333333   0.333333333   0.500000000    0   0   0
Au1      0.833333333   0.833333333   0.500000000    0   0   0
Au1      0.333333333   0.833333333   0.500000000    0   0   0
Au1     -0.008341146  -0.008342932   0.603172010
Au1      0.516685728  -0.008342302   0.603172780
Au1     -0.008340717   0.516684808   0.603172632
Au1      0.500001157   0.500000129   0.594320239
C1       0.166666542   0.166666273   0.643494300
H1       0.166663729   0.166665426   0.687448967

     Writing output data file calc.save
     Check: negative starting charge=   -0.000107
     NEW-OLD atomic charge density approx. for the potential

     Check: negative/imaginary core charge=   -0.000002    0.000000
     Check: negative starting charge=   -0.000107

[...]

     Self-consistent Calculation

[...]

     Threshold (ethr) on eigenvalues was too large:
     Diagonalizing with lowered threshold

     Davidson diagonalization with overlap
     ethr =  1.62E-09,  avg # of iterations =  4.0

[...]

     total energy              =   -1413.13553951 Ry
     Harris-Foulkes estimate   =   -1413.13553926 Ry
     estimated scf accuracy    <       0.00000184 Ry

     iteration #  5     ecut=    36.75 Ry     beta=0.30
     Davidson diagonalization with overlap
     ethr =  7.52E-10,  avg # of iterations =  1.1

[...]

     negative rho (up, down):  2.615E-04 0.000E+00

     Adding external electric field

     Computed dipole along edir(3) :
        Dipole                0.1354 Ry au,          0.3442 Debye
        Dipole field          0.0003 Ry au

        Potential amp.       -0.0303 Ry
        Total length         45.8022 bohr

     End of self-consistent calculation

[...]

          k = 0.0560-0.0647 0.0000 ( 19376 PWs)   bands (ev):

[...]

          k =-0.0840-0.0485 0.0000 ( 19380 PWs)   bands (ev):

   -11.6346  -6.6039  -6.2192  -5.9803  -5.6305  -5.1339  -5.0427  -4.9888
    -4.8931  -4.8483  -4.8250  -4.7743  -4.7733  -4.5547  -4.4961  -4.4680
    -4.4392  -4.3443  -4.2780  -4.1694  -4.0918  -3.9709  -3.9706  -3.9682
    -3.9444  -3.9399  -3.7894  -3.7109  -3.6512  -3.5914  -3.4562  -3.4007
    -3.3523  -3.2608  -3.2538  -3.2002  -3.1506  -3.1505  -3.0758  -3.0662
    -3.0524  -2.9934  -2.8437  -2.8376  -2.7968  -2.7664  -2.7393  -2.6368
    -2.5855  -2.5770  -2.4895  -2.4704  -2.4023  -2.2419  -2.2073  -2.1598
    -2.0601  -1.9221  -1.8486  -1.7793  -1.7552  -1.6744  -1.6308  -1.5174
    -1.4683  -0.5024  -0.2492  -0.0423   0.4148   0.7242   1.0361   1.8005
     2.4280   2.8237   3.7734   4.0782   4.6080   4.9540

     the Fermi energy is     0.4699 ev

!    total energy              =   -1413.13553960 Ry
     Harris-Foulkes estimate   =   -1413.13553988 Ry
     estimated scf accuracy    <       0.00000004 Ry

     The total energy is the sum of the following terms:

     one-electron contribution =   -8215.65814632 Ry
     hartree contribution      =    4206.19542980 Ry
     xc contribution           =    -772.45966355 Ry
     ewald contribution        =    3368.80999947 Ry
     electric field correction =       0.00004480 Ry
     smearing contrib. (-TS)   =      -0.02320380 Ry

     convergence has been achieved in   5 iterations

 BEEF-vdW xc energy contributions
           1 :   -690.375714181159
           2 :    641.754686921335
           3 :   -554.790197756739
           4 :    446.308272847889
           5 :   -334.497014615693
           6 :    234.235926172276
           7 :   -154.275363120707
           8 :    96.7538129962190
           9 :   -58.7764858161215
          10 :    35.0589578138331
          11 :   -20.4397182530904
          12 :    11.3340967263830
          13 :   -5.89282236442114
          14 :    3.25428268131054
          15 :   -2.61730805356956
          16 :    2.73733923598706
          17 :   -2.07931205809064
          18 :  -0.574863813997467
          19 :    5.49572454379040
          20 :   -11.7778345674087
          21 :    17.6841886110695
          22 :   -21.4156856323417
          23 :    21.9151077558254
          24 :   -19.3103010207030
          25 :    14.7928018456554
          26 :   -10.0302633372676
          27 :    6.42819876688372
          28 :   -4.60831486353345
          29 :    4.32467232487738
          30 :   -4.80295730924945
          31 :   -54.7042196378579
          32 :   -39.8827378536905

     Forces acting on atoms (Ry/au):

     negative rho (up, down):  2.615E-04 0.000E+00
     atom    1 type  1   force =    -0.00000001   -0.00000001   -0.00021279
     atom    2 type  1   force =    -0.00000002   -0.00059372   -0.00738578
     atom    3 type  1   force =    -0.00051419    0.00029684   -0.00738583
     atom    4 type  1   force =     0.00051418    0.00029686   -0.00738568
     atom    5 type  1   force =     0.00326763   -0.00188625    0.00144582
     atom    6 type  1   force =    -0.00326734   -0.00188657    0.00144623
     atom    7 type  1   force =    -0.00000017   -0.00000011    0.01987527
     atom    8 type  1   force =     0.00000039    0.00377290    0.00144586
     atom    9 type  1   force =    -0.00003897   -0.00002168   -0.00056917
     atom   10 type  1   force =     0.00003832   -0.00002231   -0.00056839
     atom   11 type  1   force =    -0.00000092    0.00004427   -0.00056897
     atom   12 type  1   force =     0.00000016   -0.00000018    0.00134809
     atom   13 type  2   force =    -0.00000012   -0.00000018   -0.00062322
     atom   14 type  3   force =     0.00000107    0.00000015   -0.00086145

     Total force =     0.001981     Total SCF correction =     0.000121

     entering subroutine stress ...

     negative rho (up, down):  2.615E-04 0.000E+00
          total   stress  (Ry/bohr**3)                   (kbar)     P=   -6.16
  -0.00007045   0.00000000   0.00000000        -10.36      0.00      0.00
   0.00000000  -0.00007045   0.00000000          0.00    -10.36      0.00
   0.00000000   0.00000000   0.00001519          0.00      0.00      2.23

     bfgs converged in  15 scf cycles and  14 bfgs steps
     (criteria: energy <  1.0E+00, force <  1.9E-03)

     End of BFGS Geometry Optimization

     Final energy   =   -1413.1355396009 Ry
Begin final coordinates

ATOMIC_POSITIONS (crystal)
Au1      0.166666667   0.166666667   0.402269971    0   0   0
Au1      0.666666667   0.166666667   0.402269971    0   0   0
Au1      0.166666667   0.666666667   0.402269971    0   0   0
Au1      0.666666667   0.666666667   0.402269971    0   0   0
Au1      0.833333333   0.333333333   0.500000000    0   0   0
Au1      0.333333333   0.333333333   0.500000000    0   0   0
Au1      0.833333333   0.833333333   0.500000000    0   0   0
Au1      0.333333333   0.833333333   0.500000000    0   0   0
Au1     -0.008341146  -0.008342932   0.603172010
Au1      0.516685728  -0.008342302   0.603172780
Au1     -0.008340717   0.516684808   0.603172632
Au1      0.500001157   0.500000129   0.594320239
C1       0.166666542   0.166666273   0.643494300
H1       0.166663729   0.166665426   0.687448967
End final coordinates

     Writing output data file calc.save

     General routines

     Parallel routines

   This run was terminated on:  13:15:27  16Apr2018

   JOB DONE.
Job  /afs/slac/g/suncat/bin/suncat-tsmpirun -x LD_LIBRARY_PATH -wdir /scratch/qe119434_vpTyi pw.x -npool 4 -in pw.inp

TID   HOST_NAME   COMMAND_LINE            STATUS            TERMINATION_TIME
00000 suncat0178 pw.x -npool 4 -i  Done                     04/16/2018 13:15:27
00001 suncat0178 pw.x -npool 4 -i  Done                     04/16/2018 13:15:27
00002 suncat0178 pw.x -npool 4 -i  Done                     04/16/2018 13:15:27
00003 suncat0178 pw.x -npool 4 -i  Done                     04/16/2018 13:15:27
00004 suncat0178 pw.x -npool 4 -i  Done                     04/16/2018 13:15:27
00005 suncat0178 pw.x -npool 4 -i  Done                     04/16/2018 13:15:27
00006 suncat0178 pw.x -npool 4 -i  Done                     04/16/2018 13:15:27
00007 suncat0178 pw.x -npool 4 -i  Done                     04/16/2018 13:15:27
00008 suncat0175 pw.x -npool 4 -i  Done                     04/16/2018 13:15:27
00009 suncat0175 pw.x -npool 4 -i  Done                     04/16/2018 13:15:27
00010 suncat0175 pw.x -npool 4 -i  Done                     04/16/2018 13:15:27
00011 suncat0175 pw.x -npool 4 -i  Done                     04/16/2018 13:15:27
00012 suncat0175 pw.x -npool 4 -i  Done                     04/16/2018 13:15:27
00013 suncat0175 pw.x -npool 4 -i  Done                     04/16/2018 13:15:27
00014 suncat0175 pw.x -npool 4 -i  Done                     04/16/2018 13:15:27
00015 suncat0175 pw.x -npool 4 -i  Done                     04/16/2018 13:15:27
00016 suncat0115 pw.x -npool 4 -i  Done                     04/16/2018 13:15:27
00017 suncat0115 pw.x -npool 4 -i  Done                     04/16/2018 13:15:27
00018 suncat0115 pw.x -npool 4 -i  Done                     04/16/2018 13:15:27
00019 suncat0115 pw.x -npool 4 -i  Done                     04/16/2018 13:15:27
00020 suncat0115 pw.x -npool 4 -i  Done                     04/16/2018 13:15:27
00021 suncat0115 pw.x -npool 4 -i  Done                     04/16/2018 13:15:27
00022 suncat0115 pw.x -npool 4 -i  Done                     04/16/2018 13:15:27
00023 suncat0115 pw.x -npool 4 -i  Done                     04/16/2018 13:15:27
00024 suncat0248 pw.x -npool 4 -i  Done                     04/16/2018 13:15:27
00025 suncat0248 pw.x -npool 4 -i  Done                     04/16/2018 13:15:27
00026 suncat0248 pw.x -npool 4 -i  Done                     04/16/2018 13:15:27
00027 suncat0248 pw.x -npool 4 -i  Done                     04/16/2018 13:15:27
00028 suncat0248 pw.x -npool 4 -i  Done                     04/16/2018 13:15:27
00029 suncat0248 pw.x -npool 4 -i  Done                     04/16/2018 13:15:27
00030 suncat0248 pw.x -npool 4 -i  Done                     04/16/2018 13:15:27
00031 suncat0248 pw.x -npool 4 -i  Done                     04/16/2018 13:15:27