     Program PWSCF v.5.1rc2 (svn rev. 11289) starts on 23Apr2018 at 12:51: 0

     Current dimensions of program PWSCF are:
     Max number of different atomic species (ntypx) = 10
     Max number of k-points (npk) =  40000
     Max angular momentum in pseudopotentials (lmaxx) =  3
     Presently stress not available with electric field

     IMPORTANT: XC functional enforced from input :
     Exchange-correlation      = BEEF-VDW ( 1  4 27 13 2)
     Any further DFT definition will be discarded
     Please, verify this is what you really want

     Subspace diagonalization in iterative solution of the eigenvalue problem:
     a serial algorithm will be used

     bravais-lattice index     =            0
     lattice parameter (alat)  =       1.8897  a.u.
     unit-cell volume          =    4301.6107 (a.u.)^3
     number of atoms/cell      =           14
     number of atomic types    =            3
     number of electrons       =       187.00
     number of Kohn-Sham states=          103
     kinetic-energy cutoff     =      36.7493  Ry
     charge density cutoff     =     367.4932  Ry
     convergence threshold     =      1.0E-05
     mixing beta               =       0.3000
     number of iterations used =           10  plain     mixing
     Exchange-correlation      = BEEF-VDW ( 1  4 27 13 2)
     nstep                     =           50

     celldm(1)=   1.889726  celldm(2)=   0.000000  celldm(3)=   0.000000
     celldm(4)=   0.000000  celldm(5)=   0.000000  celldm(6)=   0.000000

     crystal axes: (cart. coord. in units of alat)
               a(1) = (   5.483647   0.000000   0.000000 )
               a(2) = (   2.741823   4.748977   0.000000 )
               a(3) = (   0.000000   0.000000  24.477379 )

     reciprocal axes: (cart. coord. in units 2 pi/alat)
               b(1) = (  0.182360 -0.105286  0.000000 )
               b(2) = (  0.000000  0.210572  0.000000 )
               b(3) = (  0.000000  0.000000  0.040854 )

     PseudoPot. # 1 for Tc read from file:
     /u/if/mamunm/psp/gbrv1.5pbe/Tc.UPF
     MD5 check sum: 9eb49e5b028550b2339a02317eb7b844
     Pseudo is Ultrasoft + core correction, Zval = 15.0
     Generated by new atomic code, or converted to UPF format
     Using radial grid of  965 points,  6 beta functions with:
                l(1) =   0
                l(2) =   0
                l(3) =   1
                l(4) =   1
                l(5) =   2
                l(6) =   2
     Q(r) pseudized with  8 coefficients,  rinner =    1.300   1.300   1.300
                                                       1.300   1.300

     PseudoPot. # 2 for O  read from file:
     /u/if/mamunm/psp/gbrv1.5pbe/O.UPF
     MD5 check sum: 734c27235a0248c51dbae37a1fbe46ec
     Pseudo is Ultrasoft + core correction, Zval =  6.0
     Generated by new atomic code, or converted to UPF format
     Using radial grid of  737 points,  5 beta functions with:
                l(1) =   0
                l(2) =   0
                l(3) =   1
                l(4) =   1
                l(5) =   2
     Q(r) pseudized with  8 coefficients,  rinner =    0.900   0.900   0.900
                                                       0.900   0.900

     PseudoPot. # 3 for H  read from file:
     /u/if/mamunm/psp/gbrv1.5pbe/H.UPF
     MD5 check sum: 761ae9a214b05c3daf00ab9f6b793d6f
     Pseudo is Ultrasoft, Zval =  1.0
     Generated by new atomic code, or converted to UPF format
     Using radial grid of  615 points,  2 beta functions with:
                l(1) =   0
                l(2) =   0
     Q(r) pseudized with  8 coefficients,  rinner =    0.700

     vdW kernel table read from file vdW_kernel_table
     MD5 check sum: 095c7af220d748ca6e76c0b4c6cfb241

     atomic species   valence    mass     pseudopotential
        Tc1           15.00    97.90721     Tc( 1.00)
        O1             6.00    15.99900     O ( 1.00)
        H1             1.00     1.00800     H ( 1.00)

     No symmetry found

   Cartesian axes

     site n.     atom                  positions (alat units)
         1           Tc1 tau(   1) = (   1.3709117   0.7914962  10.0000000  )
         2           Tc1 tau(   2) = (   4.1127351   0.7914962  10.0000000  )
         3           Tc1 tau(   3) = (   2.7418234   3.1659850  10.0000000  )
         4           Tc1 tau(   4) = (   5.4836469   3.1659850  10.0000000  )
         5           Tc1 tau(   5) = (   5.4836469   1.5829925  12.2386895  )
         6           Tc1 tau(   6) = (   2.7418234   1.5829925  12.2386895  )
         7           Tc1 tau(   7) = (   6.8545586   3.9574812  12.2386895  )
         8           Tc1 tau(   8) = (   4.1127351   3.9574812  12.2386895  )
         9           Tc1 tau(   9) = (   0.0000000   0.0000000  14.4773789  )
        10           Tc1 tau(  10) = (   2.7418234   0.0000000  14.4773789  )
        11           Tc1 tau(  11) = (   1.3709117   2.3744887  14.4773789  )
        12           Tc1 tau(  12) = (   4.1127351   2.3744887  14.4773789  )
        13           O1  tau(  13) = (   1.3709117   0.7914962  15.8618789  )
        14           H1  tau(  14) = (   1.3709117   0.7914962  16.8118789  )

     number of k points=    20  Fermi-Dirac smearing, width (Ry)=  0.0110
                       cart. coord. in units 2pi/alat
        k(    1) = (   0.0000000   0.0000000   0.0000000), wk =   0.0555556
        k(    2) = (   0.0000000   0.0350953   0.0000000), wk =   0.1111111
        k(    3) = (   0.0000000   0.0701905   0.0000000), wk =   0.1111111
        k(    4) = (   0.0000000  -0.1052858   0.0000000), wk =   0.0555556
        k(    5) = (   0.0303934  -0.0175476   0.0000000), wk =   0.1111111
        k(    6) = (   0.0303934   0.0175476   0.0000000), wk =   0.1111111
        k(    7) = (   0.0303934   0.0526429   0.0000000), wk =   0.1111111
        k(    8) = (   0.0303934  -0.1228335   0.0000000), wk =   0.1111111
        k(    9) = (   0.0303934  -0.0877382   0.0000000), wk =   0.1111111
        k(   10) = (   0.0303934  -0.0526429   0.0000000), wk =   0.1111111
        k(   11) = (   0.0607868  -0.0350953   0.0000000), wk =   0.1111111
        k(   12) = (   0.0607868   0.0000000   0.0000000), wk =   0.1111111
        k(   13) = (   0.0607868   0.0350953   0.0000000), wk =   0.1111111
        k(   14) = (   0.0607868  -0.1403811   0.0000000), wk =   0.1111111
        k(   15) = (   0.0607868  -0.1052858   0.0000000), wk =   0.1111111
        k(   16) = (   0.0607868  -0.0701905   0.0000000), wk =   0.1111111
        k(   17) = (  -0.0911802   0.0526429   0.0000000), wk =   0.0555556
        k(   18) = (  -0.0911802   0.0877382   0.0000000), wk =   0.1111111
        k(   19) = (  -0.0911802   0.1228335   0.0000000), wk =   0.1111111
        k(   20) = (  -0.0911802  -0.0526429   0.0000000), wk =   0.0555556

     Largest allocated arrays     est. size (Mb)     dimensions
     Largest temporary arrays     est. size (Mb)     dimensions

     Check: negative/imaginary core charge=   -0.000022    0.000000

     Initial potential from superposition of free atoms
     Check: negative starting charge=   -1.504998

     starting charge  174.99966, renormalised to  187.00000

     negative rho (up, down):  1.608E+00 0.000E+00

     *
     * You are using vdW-DF for exchange-correlation in this calculation.
     * Please cite the following three references that made this development
     * possible:
     *
     *   M. Dion, H. Rydberg, E. Schroder, D. C. Langreth, and
     *   B. I. Lundqvist, Phys. Rev. Lett. 92, 246401 (2004).
     *
     *   T. Thonhauser, V. R. Cooper, S. Li, A. Puzder, P. Hyldgaard, and
     *   D. C. Langreth, Phys. Rev. B 76, 125112 (2007).
     *
     *   G. Roman-Perez and J. M. Soler, Phys. Rev. Lett. 103, 096102 (2009).
     *
     *
     * If you are using vdW-DF2, please also cite:
     *
     *   K. Lee, E. D. Murray, L. Kong, B. I. Lundqvist, and
     *   D. C. Langreth, Phys. Rev. B 82, 081101(R) (2010).
     *
     *
     * If you are calculating the stress with vdW-DF, please also cite:
     *
     *   R. Sabatini, E. Kucukbenli, B. Kolb, T. Thonhauser, and
     *   S. de Gironcoli, J. Phys.: Condens. Matter 24, 424209 (2012).
     *

     Carrying out vdW-DF run using the following parameters:

     Nqs =      20    Nr_points =    1024   r_max =   100.000
     q_mesh =
               0.00001000     0.04494208     0.09755937     0.15916263
               0.23128650     0.31572767     0.41458969     0.53033537
               0.66584808     0.82450364     1.01025438     1.22772762
               1.48234092     1.78043706     2.12944203     2.53805004
               3.01644009     3.57652955     4.23227104     5.00000000

     Gradients computed in reciprocal space

     Adding external electric field

     Computed dipole along edir(3) :
        Dipole               -3.4096 Ry au,         -8.6663 Debye
        Dipole field         -0.0100 Ry au

        Potential amp.        0.8984 Ry
        Total length         45.0992 bohr

     Starting wfc are  161 randomized atomic wfcs

     Self-consistent Calculation

     iteration #  1     ecut=    36.75 Ry     beta=0.30
     Davidson diagonalization with overlap
     ethr =  1.00E-02,  avg # of iterations =  8.8

[...]

     total energy              =   -1859.71275531 Ry
     Harris-Foulkes estimate   =   -2132.08471370 Ry
     estimated scf accuracy    <     573.01557776 Ry

[...]

     End of self-consistent calculation

          k = 0.0000 0.0000 0.0000 ( 16073 PWs)   bands (ev):

   -64.0973 -64.0088 -63.9481 -63.9477 -63.9150 -63.9148 -63.8602 -63.8094
   -63.6987 -63.6781 -63.6776 -63.6581 -36.6298 -36.5058 -36.5055 -36.5053
   -36.4099 -36.3764 -36.3760 -36.2298 -36.2297 -36.2194 -35.9930 -35.9923
   -35.9668 -35.8313 -35.8311 -35.8250 -35.7977 -35.7753 -35.7752 -35.7428
   -35.6725 -35.6722 -35.6515 -35.6293 -35.6291 -35.5996 -35.5502 -35.5286
   -35.5286 -35.4768 -35.4766 -35.4731 -35.3864 -35.3861 -35.2775 -35.2774
   -18.7265  -7.1430  -3.3138  -3.3138  -3.2358  -2.0372  -1.9249  -1.9248
    -1.9009  -1.8564  -1.5399  -1.4598  -1.4597  -1.3846  -1.3845  -1.1732
    -0.9675  -0.9674  -0.7870   0.2645   0.2646   0.5978   0.9441   0.9441
     0.9799   1.1947   1.3846   1.5192   1.5192   1.8100   1.8100   1.8954
     1.9691   1.9692   2.0557   2.0557   2.4819   2.5337   2.5339   3.0310
     3.4906   3.5342   3.5343   3.8168   3.8170   3.8958   3.8959   3.9961
     4.2397   4.3664   4.3664   5.0114   5.0116   5.0525   5.1938

[...]

          k =-0.0912 0.0526 0.0000 ( 16164 PWs)   bands (ev):

[...]

     the Fermi energy is     3.2171 ev

!    total energy              =   -2137.17140049 Ry
     Harris-Foulkes estimate   =   -2137.17143145 Ry
     estimated scf accuracy    <       0.00000252 Ry

     The total energy is the sum of the following terms:

     one-electron contribution =  -19307.44503549 Ry
     hartree contribution      =    9659.60637907 Ry
     xc contribution           =    -405.46412933 Ry
     ewald contribution        =    7916.22031728 Ry
     electric field correction =       0.00058395 Ry
     smearing contrib. (-TS)   =      -0.08951596 Ry

     convergence has been achieved in  30 iterations

 BEEF-vdW xc energy contributions
           1 :   -355.108110340654
           2 :    326.256432577336
           3 :   -275.032192731811
           4 :    211.816928322517
           5 :   -147.616083497594
           6 :    91.0322993400222
           7 :   -46.6107842672315
           8 :    14.7395390289020
           9 :    7.05024548306773
          10 :   -22.1825419139093
          11 :    33.3113034227726
          12 :   -41.4446865682526
          13 :    46.0405381944752
          14 :   -45.8591160299840
          15 :    40.0363786092792
          16 :   -28.8974405668142
          17 :    14.1726234364954
          18 :    1.40468806916897
          19 :   -14.9226547131303
          20 :    24.1526320557394
          21 :   -28.1131963970030
          22 :    27.1331676459938
          23 :   -22.4654393238986
          24 :    15.6682007617018
          25 :   -8.05853165986514
          26 :   0.446598707277815
          27 :    6.79134778993819
          28 :   -13.4284872492661
          29 :    19.0968042485920
          30 :   -23.1743068894498
          31 :   -33.8891528011022
          32 :   -24.8256424696847

     Forces acting on atoms (Ry/au):

     negative rho (up, down):  1.589E+00 0.000E+00
     atom    1 type  1   force =    -0.00000646   -0.00003134    0.03186191
     atom    2 type  1   force =     0.00000343   -0.00523926    0.03060800
     atom    3 type  1   force =    -0.00450915    0.00260995    0.03061039
     atom    4 type  1   force =     0.00450598    0.00261593    0.03062833
     atom    5 type  1   force =    -0.00416485    0.00229328    0.00228108
     atom    6 type  1   force =     0.00416985    0.00236401    0.00222386
     atom    7 type  1   force =     0.00006361    0.00005047   -0.06188399
     atom    8 type  1   force =    -0.00006286   -0.00475226    0.00233585
     atom    9 type  1   force =    -0.02791073   -0.01613925   -0.02645080
     atom   10 type  1   force =     0.02792230   -0.01617171   -0.02637986
     atom   11 type  1   force =    -0.00001427    0.03228951   -0.02637517
     atom   12 type  1   force =     0.00000706    0.00002437   -0.04564252
     atom   13 type  2   force =    -0.00000429    0.00009162    0.00460794
     atom   14 type  3   force =     0.00000038   -0.00000530    0.05157500

     Total force =     0.099895     Total SCF correction =     0.001832

     entering subroutine stress ...

     negative rho (up, down):  1.589E+00 0.000E+00
          total   stress  (Ry/bohr**3)                   (kbar)     P=  -26.91
  -0.00020113   0.00000002   0.00000001        -29.59      0.00      0.00
   0.00000002  -0.00020108  -0.00000004          0.00    -29.58     -0.01
   0.00000001  -0.00000004  -0.00014649          0.00     -0.01    -21.55

     BFGS Geometry Optimization

     number of scf cycles    =   1
     number of bfgs steps    =   0

     energy   new            =   -2137.1714004900 Ry

     new trust radius        =       0.0515749964 bohr
     new conv_thr            =       0.0000099958 Ry

ATOMIC_POSITIONS (crystal)
Tc1      0.166666667   0.166666667   0.408540475    0   0   0
Tc1      0.666666667   0.166666667   0.408540475    0   0   0
Tc1      0.166666667   0.666666667   0.408540475    0   0   0
Tc1      0.666666667   0.666666667   0.408540475    0   0   0
Tc1      0.833333333   0.333333333   0.500000000    0   0   0
Tc1      0.333333333   0.333333333   0.500000000    0   0   0
Tc1      0.833333333   0.833333333   0.500000000    0   0   0
Tc1      0.333333333   0.833333333   0.500000000    0   0   0
Tc1     -0.001794217  -0.001798392   0.590887684
Tc1      0.503595533  -0.001802009   0.590889218
Tc1     -0.001800382   0.503598011   0.590889320
Tc1      0.499999323   0.500002716   0.590472778
O1       0.166661149   0.166676875   0.648121573
H1       0.166666999   0.166666076   0.687948301

     Writing output data file calc.save
     Check: negative starting charge=   -1.504998
     NEW-OLD atomic charge density approx. for the potential

     Check: negative/imaginary core charge=   -0.000022    0.000000
     Check: negative starting charge=   -1.507435

[...]

     iteration #  1     ecut=    36.75 Ry     beta=0.30
     Davidson diagonalization with overlap
     c_bands:  1 eigenvalues not converged
     ethr =  1.00E-06,  avg # of iterations = 15.1

[...]

     energy   old            =   -2137.1714004900 Ry
     energy   new            =   -2137.1788928036 Ry

     CASE: energy  _new < energy  _old

[...]

     iteration #  1     ecut=    36.75 Ry     beta=0.30
     Davidson diagonalization with overlap
     c_bands:  1 eigenvalues not converged
     c_bands:  1 eigenvalues not converged
     c_bands:  1 eigenvalues not converged
     ethr =  1.00E-06,  avg # of iterations = 14.0

[...]

     Total force =     0.008044     Total SCF correction =     0.000834
     SCF correction compared to forces is large: reduce conv_thr to get better values

[...]

     Threshold (ethr) on eigenvalues was too large:
     Diagonalizing with lowered threshold

     Davidson diagonalization with overlap
     ethr =  4.84E-08,  avg # of iterations =  2.0

[...]

     Total force =     0.005323     Total SCF correction =     0.000399

[...]

     number of scf cycles    =  12
     number of bfgs steps    =  11

     energy   old            =   -2137.1887695505 Ry
     energy   new            =   -2137.1888198040 Ry

     CASE: energy  _new < energy  _old

     new trust radius        =       0.0043480205 bohr
     new conv_thr            =       0.0000001000 Ry

ATOMIC_POSITIONS (crystal)
Tc1      0.166666667   0.166666667   0.408540475    0   0   0
Tc1      0.666666667   0.166666667   0.408540475    0   0   0
Tc1      0.166666667   0.666666667   0.408540475    0   0   0
Tc1      0.666666667   0.666666667   0.408540475    0   0   0
Tc1      0.833333333   0.333333333   0.500000000    0   0   0
Tc1      0.333333333   0.333333333   0.500000000    0   0   0
Tc1      0.833333333   0.833333333   0.500000000    0   0   0
Tc1      0.333333333   0.833333333   0.500000000    0   0   0
Tc1     -0.001431406  -0.001433098   0.589448898
Tc1      0.502872773  -0.001442155   0.589449155
Tc1     -0.001445212   0.502882108   0.589447553
Tc1      0.500002832   0.499984322   0.585060419
O1       0.166663208   0.166677858   0.651357500
H1       0.166666035   0.166666758   0.691089197

     Writing output data file calc.save
     Check: negative starting charge=   -1.506346
     NEW-OLD atomic charge density approx. for the potential

     Check: negative/imaginary core charge=   -0.000022    0.000000
     Check: negative starting charge=   -1.506242

[...]

     Self-consistent Calculation

[...]

     total energy              =   -2137.18882749 Ry
     Harris-Foulkes estimate   =   -2137.18882734 Ry
     estimated scf accuracy    <       0.00000023 Ry

     iteration # 11     ecut=    36.75 Ry     beta=0.30
     Davidson diagonalization with overlap
     ethr =  6.19E-11,  avg # of iterations =  4.4

[...]

     negative rho (up, down):  1.590E+00 0.000E+00

     Adding external electric field

     Computed dipole along edir(3) :
        Dipole                0.4543 Ry au,          1.1547 Debye
        Dipole field          0.0013 Ry au

        Potential amp.       -0.1197 Ry
        Total length         45.0992 bohr

     End of self-consistent calculation

[...]

          k = 0.0608-0.0702 0.0000 ( 16203 PWs)   bands (ev):

[...]

          k =-0.0912-0.0526 0.0000 ( 16164 PWs)   bands (ev):

   -64.0731 -64.0566 -63.9884 -63.9748 -63.9513 -63.9149 -63.9140 -63.8185
   -63.7936 -63.7458 -63.7322 -63.7160 -36.4568 -36.4298 -36.4042 -36.3802
   -36.3616 -36.3254 -36.2118 -36.1752 -36.1740 -36.1215 -36.0974 -36.0830
   -35.9667 -35.9497 -35.9494 -35.8522 -35.8434 -35.8308 -35.8262 -35.7922
   -35.7894 -35.7777 -35.7451 -35.7422 -35.7284 -35.7143 -35.7007 -35.6893
   -35.6306 -35.6010 -35.5978 -35.5710 -35.5289 -35.4700 -35.4366 -35.4211
   -17.8866  -6.2181  -2.6075  -2.3413  -1.8131  -1.6980  -1.2089  -1.1391
    -1.1363  -1.0536  -0.8439  -0.7710  -0.5937  -0.4947  -0.4272  -0.3412
    -0.2064  -0.1476  -0.1275  -0.0650   0.3409   0.4085   0.5912   0.5999
     0.6963   0.7386   1.1287   1.2790   1.4471   1.4661   1.6348   1.7064
     1.7177   1.7659   1.8270   1.9297   1.9709   1.9722   2.0618   2.1298
     2.1471   2.2384   2.3806   2.7416   2.9448   2.9947   3.0845   3.1399
     3.2537   3.5260   3.5639   3.6217   3.6740   3.7607   3.8534

     the Fermi energy is     3.1797 ev

!    total energy              =   -2137.18882747 Ry
     Harris-Foulkes estimate   =   -2137.18882590 Ry
     estimated scf accuracy    <       0.00000003 Ry

     The total energy is the sum of the following terms:

     one-electron contribution =  -19459.00109206 Ry
     hartree contribution      =    9735.27764960 Ry
     xc contribution           =    -405.55172883 Ry
     ewald contribution        =    7992.17496350 Ry
     electric field correction =       0.00060293 Ry
     smearing contrib. (-TS)   =      -0.08922261 Ry

     convergence has been achieved in  11 iterations

 BEEF-vdW xc energy contributions
           1 :   -355.193619442456
           2 :    326.365580870103
           3 :   -275.186891135048
           4 :    212.020096514276
           5 :   -147.836591081271
           6 :    91.2137669689286
           7 :   -46.6988350126607
           8 :    14.7144913943646
           9 :    7.15557440346316
          10 :   -22.2914915317313
          11 :    33.3405813716849
          12 :   -41.3505177827045
          13 :    45.8460267959773
          14 :   -45.6466628583308
          15 :    39.9068620100617
          16 :   -28.9163272340114
          17 :    14.3311314197258
          18 :    1.18960625579274
          19 :   -14.7658229212758
          20 :    24.1398660436963
          21 :   -28.2552925331112
          22 :    27.3590389007393
          23 :   -22.6568647758609
          24 :    15.7196717268354
          25 :   -7.93072902332597
          26 :   0.186571584945341
          27 :    7.07312144070880
          28 :   -13.6109714024023
          29 :    19.1043004353201
          30 :   -23.0101927987404
          31 :   -33.8956036827818
          32 :   -24.8379298903130

     Forces acting on atoms (Ry/au):

     negative rho (up, down):  1.590E+00 0.000E+00
     atom    1 type  1   force =    -0.00000211   -0.00000308    0.02360804
     atom    2 type  1   force =     0.00000044   -0.00465332    0.02123128
     atom    3 type  1   force =    -0.00402976    0.00232787    0.02123535
     atom    4 type  1   force =     0.00403082    0.00232753    0.02123359
     atom    5 type  1   force =    -0.00063115    0.00036603   -0.00932851
     atom    6 type  1   force =     0.00063074    0.00036360   -0.00932847
     atom    7 type  1   force =     0.00000124    0.00000050   -0.05979299
     atom    8 type  1   force =     0.00000156   -0.00072983   -0.00932408
     atom    9 type  1   force =    -0.00057215   -0.00033714    0.00000185
     atom   10 type  1   force =     0.00057159   -0.00033797    0.00000454
     atom   11 type  1   force =    -0.00000134    0.00066736    0.00001343
     atom   12 type  1   force =     0.00000192    0.00001399   -0.00057818
     atom   13 type  2   force =    -0.00000185   -0.00000641    0.00109890
     atom   14 type  3   force =     0.00000006    0.00000087   -0.00007475

     Total force =     0.001696     Total SCF correction =     0.000792
     SCF correction compared to forces is large: reduce conv_thr to get better values

     entering subroutine stress ...

     negative rho (up, down):  1.590E+00 0.000E+00
          total   stress  (Ry/bohr**3)                   (kbar)     P=  -22.99
  -0.00018427   0.00000000   0.00000000        -27.11      0.00      0.00
   0.00000000  -0.00018428   0.00000000          0.00    -27.11      0.00
   0.00000000   0.00000000  -0.00010035          0.00      0.00    -14.76

     bfgs converged in  13 scf cycles and  12 bfgs steps
     (criteria: energy <  1.0E+00, force <  1.9E-03)

     End of BFGS Geometry Optimization

     Final energy   =   -2137.1888274734 Ry
Begin final coordinates

ATOMIC_POSITIONS (crystal)
Tc1      0.166666667   0.166666667   0.408540475    0   0   0
Tc1      0.666666667   0.166666667   0.408540475    0   0   0
Tc1      0.166666667   0.666666667   0.408540475    0   0   0
Tc1      0.666666667   0.666666667   0.408540475    0   0   0
Tc1      0.833333333   0.333333333   0.500000000    0   0   0
Tc1      0.333333333   0.333333333   0.500000000    0   0   0
Tc1      0.833333333   0.833333333   0.500000000    0   0   0
Tc1      0.333333333   0.833333333   0.500000000    0   0   0
Tc1     -0.001431406  -0.001433098   0.589448898
Tc1      0.502872773  -0.001442155   0.589449155
Tc1     -0.001445212   0.502882108   0.589447553
Tc1      0.500002832   0.499984322   0.585060419
O1       0.166663208   0.166677858   0.651357500
H1       0.166666035   0.166666758   0.691089197
End final coordinates

     Writing output data file calc.save

     General routines

     Parallel routines

   This run was terminated on:  14: 8:40  23Apr2018

   JOB DONE.
Job  /afs/slac/g/suncat/bin/suncat-tsmpirun -x LD_LIBRARY_PATH -wdir /scratch/qe374740_CbISs pw.x -npool 3 -in pw.inp

TID   HOST_NAME   COMMAND_LINE            STATUS            TERMINATION_TIME
00000 suncat1063 pw.x -npool 3 -i  Done                     04/23/2018 14:08:40
00001 suncat1063 pw.x -npool 3 -i  Done                     04/23/2018 14:08:40
00002 suncat1063 pw.x -npool 3 -i  Done                     04/23/2018 14:08:40
00003 suncat1063 pw.x -npool 3 -i  Done                     04/23/2018 14:08:40
00004 suncat1063 pw.x -npool 3 -i  Done                     04/23/2018 14:08:40
00005 suncat1063 pw.x -npool 3 -i  Done                     04/23/2018 14:08:40
00006 suncat1063 pw.x -npool 3 -i  Done                     04/23/2018 14:08:40
00007 suncat1063 pw.x -npool 3 -i  Done                     04/23/2018 14:08:40
00008 suncat1063 pw.x -npool 3 -i  Done                     04/23/2018 14:08:40
00009 suncat1063 pw.x -npool 3 -i  Done                     04/23/2018 14:08:40
00010 suncat1063 pw.x -npool 3 -i  Done                     04/23/2018 14:08:40
00011 suncat1063 pw.x -npool 3 -i  Done                     04/23/2018 14:08:40
00012 suncat1022 pw.x -npool 3 -i  Done                     04/23/2018 14:08:40
00013 suncat1022 pw.x -npool 3 -i  Done                     04/23/2018 14:08:40
00014 suncat1022 pw.x -npool 3 -i  Done                     04/23/2018 14:08:40
00015 suncat1022 pw.x -npool 3 -i  Done                     04/23/2018 14:08:40
00016 suncat1022 pw.x -npool 3 -i  Done                     04/23/2018 14:08:40
00017 suncat1022 pw.x -npool 3 -i  Done                     04/23/2018 14:08:40
00018 suncat1022 pw.x -npool 3 -i  Done                     04/23/2018 14:08:40
00019 suncat1022 pw.x -npool 3 -i  Done                     04/23/2018 14:08:40
00020 suncat1022 pw.x -npool 3 -i  Done                     04/23/2018 14:08:40
00021 suncat1022 pw.x -npool 3 -i  Done                     04/23/2018 14:08:40
00022 suncat1022 pw.x -npool 3 -i  Done                     04/23/2018 14:08:40
00023 suncat1022 pw.x -npool 3 -i  Done                     04/23/2018 14:08:40
00024 suncat1015 pw.x -npool 3 -i  Done                     04/23/2018 14:08:40
00025 suncat1015 pw.x -npool 3 -i  Done                     04/23/2018 14:08:40
00026 suncat1015 pw.x -npool 3 -i  Done                     04/23/2018 14:08:40
00027 suncat1015 pw.x -npool 3 -i  Done                     04/23/2018 14:08:40
00028 suncat1015 pw.x -npool 3 -i  Done                     04/23/2018 14:08:40
00029 suncat1015 pw.x -npool 3 -i  Done                     04/23/2018 14:08:40
00030 suncat1015 pw.x -npool 3 -i  Done                     04/23/2018 14:08:40
00031 suncat1015 pw.x -npool 3 -i  Done                     04/23/2018 14:08:40
00032 suncat1015 pw.x -npool 3 -i  Done                     04/23/2018 14:08:40
00033 suncat1015 pw.x -npool 3 -i  Done                     04/23/2018 14:08:40
00034 suncat1015 pw.x -npool 3 -i  Done                     04/23/2018 14:08:40
00035 suncat1015 pw.x -npool 3 -i  Done                     04/23/2018 14:08:40