     Program PWSCF v.5.1rc2 (svn rev. ) starts on 18Apr2018 at 21:51:50

     Current dimensions of program PWSCF are:
     Max number of different atomic species (ntypx) = 10
     Max number of k-points (npk) =  40000
     Max angular momentum in pseudopotentials (lmaxx) =  3
     Presently stress not available with electric field

     IMPORTANT: XC functional enforced from input :
     Exchange-correlation      = BEEF-VDW ( 1  4 27 13 2)
     Any further DFT definition will be discarded
     Please, verify this is what you really want

     Subspace diagonalization in iterative solution of the eigenvalue problem:
     a serial algorithm will be used

     bravais-lattice index     =            0
     lattice parameter (alat)  =       1.8897  a.u.
     unit-cell volume          =    8507.0471 (a.u.)^3
     number of atoms/cell      =           14
     number of atomic types    =            3
     number of electrons       =       138.00
     number of Kohn-Sham states=           79
     kinetic-energy cutoff     =      36.7493  Ry
     charge density cutoff     =     367.4932  Ry
     convergence threshold     =      1.0E-05
     mixing beta               =       0.3000
     number of iterations used =           10  plain     mixing
     Exchange-correlation      = BEEF-VDW ( 1  4 27 13 2)
     nstep                     =           50

     celldm(1)=   1.889726  celldm(2)=   0.000000  celldm(3)=   0.000000
     celldm(4)=   0.000000  celldm(5)=   0.000000  celldm(6)=   0.000000

     crystal axes: (cart. coord. in units of alat)
               a(1) = (   7.468327   0.000000   0.000000 )
               a(2) = (   3.734164   6.467761   0.000000 )
               a(3) = (   0.000000   0.000000  26.097863 )

     reciprocal axes: (cart. coord. in units 2 pi/alat)
               b(1) = (  0.133899 -0.077307  0.000000 )
               b(2) = (  0.000000  0.154613  0.000000 )
               b(3) = (  0.000000  0.000000  0.038317 )

     PseudoPot. # 1 for La read from file:
     /home/mamunm/src/pseudo/gbrv1.5pbe/La.UPF
     MD5 check sum: 5937b0c7494ba0601a847275249473aa
     Pseudo is Ultrasoft + core correction, Zval = 11.0
     Generated by new atomic code, or converted to UPF format
     Using radial grid of  995 points,  8 beta functions with:
                l(1) =   0
                l(2) =   0
                l(3) =   1
                l(4) =   1
                l(5) =   2
                l(6) =   2
                l(7) =   3
                l(8) =   3
     Q(r) pseudized with  8 coefficients,  rinner =    1.700   1.700   1.700
                                                       1.700   1.700   1.700
                                                       1.700

     PseudoPot. # 2 for N  read from file:
     /home/mamunm/src/pseudo/gbrv1.5pbe/N.UPF
     MD5 check sum: 95339753478d7afb44899504a8723017
     Pseudo is Ultrasoft + core correction, Zval =  5.0
     Generated by new atomic code, or converted to UPF format
     Using radial grid of  729 points,  4 beta functions with:
                l(1) =   0
                l(2) =   0
                l(3) =   1
                l(4) =   1
     Q(r) pseudized with  8 coefficients,  rinner =    0.900   0.900   0.900

     PseudoPot. # 3 for H  read from file:
     /home/mamunm/src/pseudo/gbrv1.5pbe/H.UPF
     MD5 check sum: 761ae9a214b05c3daf00ab9f6b793d6f
     Pseudo is Ultrasoft, Zval =  1.0
     Generated by new atomic code, or converted to UPF format
     Using radial grid of  615 points,  2 beta functions with:
                l(1) =   0
                l(2) =   0
     Q(r) pseudized with  8 coefficients,  rinner =    0.700

     vdW kernel table read from file vdW_kernel_table
     MD5 check sum: 095c7af220d748ca6e76c0b4c6cfb241

     atomic species   valence    mass     pseudopotential
        La1           11.00   138.90547     La( 1.00)
        N1             5.00    14.00700     N ( 1.00)
        H1             1.00     1.00800     H ( 1.00)

     No symmetry found

   Cartesian axes

     site n.     atom                  positions (alat units)
         1           La1 tau(   1) = (   1.8670818   1.0779602  10.0000000  )
         2           La1 tau(   2) = (   5.6012453   1.0779602  10.0000000  )
         3           La1 tau(   3) = (   3.7341635   4.3118406  10.0000000  )
         4           La1 tau(   4) = (   7.4683270   4.3118406  10.0000000  )
         5           La1 tau(   5) = (   7.4683270   2.1559203  13.0489317  )
         6           La1 tau(   6) = (   3.7341635   2.1559203  13.0489317  )
         7           La1 tau(   7) = (   9.3354088   5.3898008  13.0489317  )
         8           La1 tau(   8) = (   5.6012453   5.3898008  13.0489317  )
         9           La1 tau(   9) = (   0.0000000   0.0000000  16.0978635  )
        10           La1 tau(  10) = (   3.7341635   0.0000000  16.0978635  )
        11           La1 tau(  11) = (   1.8670818   3.2338805  16.0978635  )
        12           La1 tau(  12) = (   5.6012453   3.2338805  16.0978635  )
        13           N1  tau(  13) = (   0.0000000   0.0000000  18.4608635  )
        14           H1  tau(  14) = (   0.0000000   0.0000000  19.5108635  )

     number of k points=    20  Fermi-Dirac smearing, width (Ry)=  0.0110
                       cart. coord. in units 2pi/alat
        k(    1) = (   0.0000000   0.0000000   0.0000000), wk =   0.0555556
        k(    2) = (   0.0000000   0.0257688   0.0000000), wk =   0.1111111
        k(    3) = (   0.0000000   0.0515377   0.0000000), wk =   0.1111111
        k(    4) = (   0.0000000  -0.0773065   0.0000000), wk =   0.0555556
        k(    5) = (   0.0223165  -0.0128844   0.0000000), wk =   0.1111111
        k(    6) = (   0.0223165   0.0128844   0.0000000), wk =   0.1111111
        k(    7) = (   0.0223165   0.0386533   0.0000000), wk =   0.1111111
        k(    8) = (   0.0223165  -0.0901909   0.0000000), wk =   0.1111111
        k(    9) = (   0.0223165  -0.0644221   0.0000000), wk =   0.1111111
        k(   10) = (   0.0223165  -0.0386533   0.0000000), wk =   0.1111111
        k(   11) = (   0.0446329  -0.0257688   0.0000000), wk =   0.1111111
        k(   12) = (   0.0446329   0.0000000   0.0000000), wk =   0.1111111
        k(   13) = (   0.0446329   0.0257688   0.0000000), wk =   0.1111111
        k(   14) = (   0.0446329  -0.1030753   0.0000000), wk =   0.1111111
        k(   15) = (   0.0446329  -0.0773065   0.0000000), wk =   0.1111111
        k(   16) = (   0.0446329  -0.0515377   0.0000000), wk =   0.1111111
        k(   17) = (  -0.0669494   0.0386533   0.0000000), wk =   0.0555556
        k(   18) = (  -0.0669494   0.0644221   0.0000000), wk =   0.1111111
        k(   19) = (  -0.0669494   0.0901909   0.0000000), wk =   0.1111111
        k(   20) = (  -0.0669494  -0.0386533   0.0000000), wk =   0.0555556

     Largest allocated arrays     est. size (Mb)     dimensions
     Largest temporary arrays     est. size (Mb)     dimensions

     Initial potential from superposition of free atoms
     Check: negative starting charge=   -0.830930

     starting charge  137.61516, renormalised to  138.00000

     negative rho (up, down):  8.333E-01 0.000E+00

     *
     * You are using vdW-DF for exchange-correlation in this calculation.
     * Please cite the following three references that made this development
     * possible:
     *
     *   M. Dion, H. Rydberg, E. Schroder, D. C. Langreth, and
     *   B. I. Lundqvist, Phys. Rev. Lett. 92, 246401 (2004).
     *
     *   T. Thonhauser, V. R. Cooper, S. Li, A. Puzder, P. Hyldgaard, and
     *   D. C. Langreth, Phys. Rev. B 76, 125112 (2007).
     *
     *   G. Roman-Perez and J. M. Soler, Phys. Rev. Lett. 103, 096102 (2009).
     *
     *
     * If you are using vdW-DF2, please also cite:
     *
     *   K. Lee, E. D. Murray, L. Kong, B. I. Lundqvist, and
     *   D. C. Langreth, Phys. Rev. B 82, 081101(R) (2010).
     *
     *
     * If you are calculating the stress with vdW-DF, please also cite:
     *
     *   R. Sabatini, E. Kucukbenli, B. Kolb, T. Thonhauser, and
     *   S. de Gironcoli, J. Phys.: Condens. Matter 24, 424209 (2012).
     *

     Carrying out vdW-DF run using the following parameters:

     Nqs =      20    Nr_points =    1024   r_max =   100.000
     q_mesh =
               0.00001000     0.04494208     0.09755937     0.15916263
               0.23128650     0.31572767     0.41458969     0.53033537
               0.66584808     0.82450364     1.01025438     1.22772762
               1.48234092     1.78043706     2.12944203     2.53805004
               3.01644009     3.57652955     4.23227104     5.00000000

     Gradients computed in reciprocal space

     Adding external electric field

     Computed dipole along edir(3) :
        Dipole               -0.1769 Ry au,         -0.4498 Debye
        Dipole field         -0.0003 Ry au

        Potential amp.        0.0251 Ry
        Total length         48.0849 bohr

     Starting wfc are  245 randomized atomic wfcs

     Self-consistent Calculation

     iteration #  1     ecut=    36.75 Ry     beta=0.30
     Davidson diagonalization with overlap
     ethr =  1.00E-02,  avg # of iterations =  2.0

[...]

     total energy              =   -1267.06390882 Ry
     Harris-Foulkes estimate   =   -1270.60344499 Ry
     estimated scf accuracy    <       7.53377375 Ry

[...]

     iteration # 11     ecut=    36.75 Ry     beta=0.30
     Davidson diagonalization with overlap
     c_bands:  1 eigenvalues not converged
     ethr =  6.97E-05,  avg # of iterations =  4.3

[...]

     End of self-consistent calculation

          k = 0.0000 0.0000 0.0000 ( 31997 PWs)   bands (ev):

   -31.8410 -31.7409 -31.7392 -31.7391 -31.6102 -31.6102 -31.6058 -31.2932
   -31.1754 -31.1754 -31.1461 -30.9723 -15.9072 -15.8358 -15.8357 -15.8004
   -15.7590 -15.7590 -15.7334 -15.6288 -15.6288 -15.5736 -15.4457 -15.3188
   -15.3187 -15.1428 -15.1268 -15.0933 -15.0933 -14.9990 -14.9990 -14.9978
   -14.9654 -14.9653 -14.8677 -14.7451 -14.7451 -14.7004 -14.7003 -14.6464
   -14.5839 -14.5817 -14.5817 -14.5726 -14.4496 -14.4496 -14.3317 -14.3317
   -11.5822  -2.5854  -1.1460  -0.4405  -0.0734  -0.0555  -0.0555  -0.0298
     0.2166   0.2167   0.2663   0.4574   0.4777   0.4777   0.5025   0.5026
     0.6186   0.7629   0.7629   1.3026   1.6720   1.6721   1.8127   2.1599
     2.3316   2.3316   2.3523   2.4511   2.7041   2.7943   2.7960

[...]

          k =-0.0669 0.0387 0.0000 ( 31970 PWs)   bands (ev):

[...]

     the Fermi energy is     1.6192 ev

!    total energy              =   -1269.69009617 Ry
     Harris-Foulkes estimate   =   -1269.69010509 Ry
     estimated scf accuracy    <       0.00000792 Ry

     The total energy is the sum of the following terms:

     one-electron contribution =   -4725.83782346 Ry
     hartree contribution      =    2376.14003194 Ry
     xc contribution           =    -614.72301047 Ry
     ewald contribution        =    1694.84989932 Ry
     electric field correction =       0.00026474 Ry
     smearing contrib. (-TS)   =      -0.11945825 Ry

     convergence has been achieved in  20 iterations

 BEEF-vdW xc energy contributions
           1 :   -544.499974600413
           2 :    500.712856007126
           3 :   -423.358881237063
           4 :    328.995928411019
           5 :   -235.121439129861
           6 :    155.547906112856
           7 :   -97.8360629853460
           8 :    62.9998205184750
           9 :   -46.9818249250765
          10 :    43.0369298672599
          11 :   -44.1303720450755
          12 :    44.6610468127799
          13 :   -41.2640206900923
          14 :    32.8578813721513
          15 :   -20.2696769772415
          16 :    5.67057728926261
          17 :    8.09557575086114
          18 :   -18.2849418235189
          19 :    23.0434320756949
          20 :   -22.0056366685478
          21 :    16.4527062819459
          22 :   -8.90256541447002
          23 :    2.22950278610381
          24 :    1.36052889360053
          25 :   -1.08042673307864
          26 :   -2.28101090676125
          27 :    6.84763979143713
          28 :   -10.5459983953104
          29 :    11.9783879846441
          30 :   -10.9051424740019
          31 :   -46.4169534209273
          32 :   -33.2840217927492

     Forces acting on atoms (Ry/au):

     negative rho (up, down):  5.855E-01 0.000E+00
     atom    1 type  1   force =    -0.00043204   -0.00024580    0.00492662
     atom    2 type  1   force =     0.00042086   -0.00025528    0.00496363
     atom    3 type  1   force =    -0.00000984    0.00050311    0.00496552
     atom    4 type  1   force =     0.00000456   -0.00000235    0.00490029
     atom    5 type  1   force =    -0.00000930    0.00505767   -0.00711624
     atom    6 type  1   force =     0.00000347    0.00002117   -0.00177050
     atom    7 type  1   force =    -0.00436831   -0.00252774   -0.00713233
     atom    8 type  1   force =     0.00437465   -0.00254654   -0.00712634
     atom    9 type  1   force =    -0.00000262   -0.00000498    0.08880292
     atom   10 type  1   force =     0.00000655   -0.00117025    0.00720138
     atom   11 type  1   force =    -0.00100073    0.00058062    0.00720694
     atom   12 type  1   force =     0.00101372    0.00058940    0.00719685
     atom   13 type  2   force =    -0.00000145    0.00000034   -0.06980539
     atom   14 type  3   force =     0.00000048    0.00000062   -0.03721335

     Total force =     0.119596     Total SCF correction =     0.005882

     entering subroutine stress ...

     negative rho (up, down):  5.855E-01 0.000E+00
          total   stress  (Ry/bohr**3)                   (kbar)     P=   -4.46
  -0.00000702  -0.00000001   0.00000000         -1.03     -0.00      0.00
  -0.00000001  -0.00000702  -0.00000000         -0.00     -1.03     -0.00
   0.00000000  -0.00000000  -0.00007686          0.00     -0.00    -11.31

     BFGS Geometry Optimization

     number of scf cycles    =   1
     number of bfgs steps    =   0

     energy   new            =   -1269.6900961739 Ry

     new trust radius        =       0.0888029176 bohr
     new conv_thr            =       0.0000099958 Ry

ATOMIC_POSITIONS (crystal)
La1      0.166666667   0.166666667   0.383173129    0   0   0
La1      0.666666667   0.166666667   0.383173129    0   0   0
La1      0.166666667   0.666666667   0.383173129    0   0   0
La1      0.666666667   0.666666667   0.383173129    0   0   0
La1      0.833333333   0.333333333   0.500000000    0   0   0
La1      0.333333333   0.333333333   0.500000000    0   0   0
La1      0.833333333   0.833333333   0.500000000    0   0   0
La1      0.333333333   0.833333333   0.500000000    0   0   0
La1      0.000000018  -0.000000407   0.618627497
La1      0.500048338  -0.000095747   0.616972891
La1     -0.000094660   0.500047505   0.616973004
La1      0.500047717   0.500048223   0.616972799
N1      -0.000000117   0.000000028   0.705955262
H1       0.000000009   0.000000051   0.746849298

     Writing output data file calc.save
     Check: negative starting charge=   -0.830930
     NEW-OLD atomic charge density approx. for the potential
     Check: negative starting charge=   -0.831804

[...]

     energy   old            =   -1269.6900961739 Ry
     energy   new            =   -1269.7028493443 Ry

     CASE: energy  _new < energy  _old

[...]

     Threshold (ethr) on eigenvalues was too large:
     Diagonalizing with lowered threshold

     Davidson diagonalization with overlap
     ethr =  2.81E-08,  avg # of iterations =  8.2

[...]

     WARNING: bfgs curvature condition failed, Theta= 0.827
     new trust radius        =       0.0125859992 bohr
     new conv_thr            =       0.0000001000 Ry

[...]

     WARNING: bfgs curvature condition failed, Theta= 0.839
     new trust radius        =       0.0058388433 bohr
     new conv_thr            =       0.0000001000 Ry

[...]

     Threshold (ethr) on eigenvalues was too large:
     Diagonalizing with lowered threshold

     Davidson diagonalization with overlap
     ethr =  7.98E-08,  avg # of iterations =  5.0

[...]

     number of scf cycles    =  18
     number of bfgs steps    =  17

     energy   old            =   -1269.7290850952 Ry
     energy   new            =   -1269.7292154549 Ry

     CASE: energy  _new < energy  _old

     new trust radius        =       0.0197060960 bohr
     new conv_thr            =       0.0000001000 Ry

ATOMIC_POSITIONS (crystal)
La1      0.166666667   0.166666667   0.383173129    0   0   0
La1      0.666666667   0.166666667   0.383173129    0   0   0
La1      0.166666667   0.666666667   0.383173129    0   0   0
La1      0.666666667   0.666666667   0.383173129    0   0   0
La1      0.833333333   0.333333333   0.500000000    0   0   0
La1      0.333333333   0.333333333   0.500000000    0   0   0
La1      0.833333333   0.833333333   0.500000000    0   0   0
La1      0.333333333   0.833333333   0.500000000    0   0   0
La1      0.000000492  -0.000002689   0.613317638
La1      0.500152434  -0.000299571   0.621831394
La1     -0.000298900   0.500153229   0.621831902
La1      0.500150424   0.500149249   0.621831184
N1      -0.000001222   0.000001064   0.693145801
H1      -0.000000740  -0.000000899   0.732487431

     Writing output data file calc.save
     Check: negative starting charge=   -0.832670
     NEW-OLD atomic charge density approx. for the potential
     Check: negative starting charge=   -0.833104

[...]

     Self-consistent Calculation

[...]

     iteration #  7     ecut=    36.75 Ry     beta=0.30
     Davidson diagonalization with overlap
     ethr =  5.34E-08,  avg # of iterations =  3.7

[...]

     total energy              =   -1269.72938970 Ry
     Harris-Foulkes estimate   =   -1269.72938966 Ry
     estimated scf accuracy    <       0.00000019 Ry

     iteration # 11     ecut=    36.75 Ry     beta=0.30
     Davidson diagonalization with overlap
     c_bands:  1 eigenvalues not converged
     ethr =  1.34E-10,  avg # of iterations = 11.3

[...]

     negative rho (up, down):  5.819E-01 0.000E+00

     Adding external electric field

     Computed dipole along edir(3) :
        Dipole               -0.0719 Ry au,         -0.1828 Debye
        Dipole field         -0.0001 Ry au

        Potential amp.        0.0102 Ry
        Total length         48.0849 bohr

     End of self-consistent calculation

[...]

          k = 0.0446-0.0515 0.0000 ( 31991 PWs)   bands (ev):

[...]

          k =-0.0669-0.0387 0.0000 ( 31970 PWs)   bands (ev):

   -31.6143 -31.5831 -31.5500 -31.4048 -31.4007 -31.3379 -31.3331 -31.0105
   -30.9985 -30.9461 -30.9307 -30.3425 -15.5027 -15.3691 -15.3630 -15.3539
   -15.3532 -15.3044 -15.2728 -15.2553 -15.2350 -15.1883 -15.1624 -15.1564
   -15.1278 -15.0892 -15.0873 -15.0313 -15.0256 -14.9629 -14.9532 -14.7723
   -14.7718 -14.7623 -14.6133 -14.6058 -14.6029 -14.6014 -14.5697 -14.5404
   -14.4819 -14.4521 -14.4214 -14.4021 -14.2454 -14.2174 -14.0255 -13.9179
   -11.3790  -2.6675  -0.0107  -0.0040   0.2656   0.3346   0.7315   0.7858
     1.0495   1.0751   1.1229   1.1538   1.2069   1.2996   1.5360   1.5950
     1.7005   1.7127   1.7879   1.8000   1.9753   2.0306   2.0626   2.0776
     2.1358   2.2304   2.2945   2.3079   2.3623   2.4901   2.5042

     the Fermi energy is     1.8896 ev

!    total energy              =   -1269.72939040 Ry
     Harris-Foulkes estimate   =   -1269.72938987 Ry
     estimated scf accuracy    <       0.00000006 Ry

     The total energy is the sum of the following terms:

     one-electron contribution =   -4726.74972581 Ry
     hartree contribution      =    2377.54395265 Ry
     xc contribution           =    -614.87675547 Ry
     ewald contribution        =    1694.47336967 Ry
     electric field correction =       0.00000764 Ry
     smearing contrib. (-TS)   =      -0.12023907 Ry

     convergence has been achieved in  11 iterations

 BEEF-vdW xc energy contributions
           1 :   -544.647522788446
           2 :    500.873740493725
           3 :   -423.534346670802
           4 :    329.183162449814
           5 :   -235.316146953278
           6 :    155.732964505399
           7 :   -97.9744887470634
           8 :    63.0461342740811
           9 :   -46.9077744774426
          10 :    42.8543088944223
          11 :   -43.8949994096522
          12 :    44.4533772907934
          13 :   -41.1540004366913
          14 :    32.8708699730774
          15 :   -20.3743041207950
          16 :    5.79789705178598
          17 :    8.01279612107919
          18 :   -18.2771254029493
          19 :    23.0942104132240
          20 :   -22.0705974307408
          21 :    16.4934759676048
          22 :   -8.91365747524321
          23 :    2.23924190297487
          24 :    1.31606065113840
          25 :  -0.990998189414199
          26 :   -2.38513994282800
          27 :    6.91186979826477
          28 :   -10.5275923982264
          29 :    11.8778243067360
          30 :   -10.7704114460761
          31 :   -46.4245250793972
          32 :   -33.2952317194251

     Forces acting on atoms (Ry/au):

     negative rho (up, down):  5.819E-01 0.000E+00
     atom    1 type  1   force =    -0.00050247   -0.00028772    0.00497117
     atom    2 type  1   force =     0.00050258   -0.00028944    0.00497273
     atom    3 type  1   force =    -0.00000138    0.00057770    0.00496924
     atom    4 type  1   force =     0.00000149   -0.00000136    0.00443297
     atom    5 type  1   force =    -0.00000069    0.00910802   -0.00584196
     atom    6 type  1   force =     0.00000115   -0.00000504    0.00625133
     atom    7 type  1   force =    -0.00789139   -0.00455124   -0.00583960
     atom    8 type  1   force =     0.00789198   -0.00455242   -0.00583785
     atom    9 type  1   force =     0.00000230    0.00000970   -0.00104966
     atom   10 type  1   force =    -0.00000142   -0.00011521   -0.00185608
     atom   11 type  1   force =    -0.00010668    0.00005327   -0.00185495
     atom   12 type  1   force =     0.00010600    0.00005424   -0.00185361
     atom   13 type  2   force =    -0.00000166   -0.00000113    0.00031380
     atom   14 type  3   force =     0.00000019    0.00000063   -0.00177754

     Total force =     0.003837     Total SCF correction =     0.000309

     entering subroutine stress ...

     negative rho (up, down):  5.819E-01 0.000E+00
          total   stress  (Ry/bohr**3)                   (kbar)     P=   -1.61
  -0.00000591  -0.00000000  -0.00000000         -0.87     -0.00     -0.00
  -0.00000000  -0.00000591  -0.00000000         -0.00     -0.87     -0.00
  -0.00000000  -0.00000000  -0.00002102         -0.00     -0.00     -3.09

     bfgs converged in  19 scf cycles and  18 bfgs steps
     (criteria: energy <  1.0E+00, force <  1.9E-03)

     End of BFGS Geometry Optimization

     Final energy   =   -1269.7293903973 Ry
Begin final coordinates

ATOMIC_POSITIONS (crystal)
La1      0.166666667   0.166666667   0.383173129    0   0   0
La1      0.666666667   0.166666667   0.383173129    0   0   0
La1      0.166666667   0.666666667   0.383173129    0   0   0
La1      0.666666667   0.666666667   0.383173129    0   0   0
La1      0.833333333   0.333333333   0.500000000    0   0   0
La1      0.333333333   0.333333333   0.500000000    0   0   0
La1      0.833333333   0.833333333   0.500000000    0   0   0
La1      0.333333333   0.833333333   0.500000000    0   0   0
La1      0.000000492  -0.000002689   0.613317638
La1      0.500152434  -0.000299571   0.621831394
La1     -0.000298900   0.500153229   0.621831902
La1      0.500150424   0.500149249   0.621831184
N1      -0.000001222   0.000001064   0.693145801
H1      -0.000000740  -0.000000899   0.732487431
End final coordinates

     Writing output data file calc.save

     General routines

     Parallel routines

   This run was terminated on:   1:10: 3  19Apr2018

   JOB DONE.