     Program PWSCF v.5.1rc2 (svn rev. 11289) starts on 23Jan2018 at 23: 2: 5

     Current dimensions of program PWSCF are:
     Max number of different atomic species (ntypx) = 10
     Max number of k-points (npk) =  40000
     Max angular momentum in pseudopotentials (lmaxx) =  3
     Presently stress not available with electric field

     IMPORTANT: XC functional enforced from input :
     Exchange-correlation      = BEEF-VDW ( 1  4 27 13 2)
     Any further DFT definition will be discarded
     Please, verify this is what you really want

     Subspace diagonalization in iterative solution of the eigenvalue problem:
     a serial algorithm will be used

     bravais-lattice index     =            0
     lattice parameter (alat)  =       1.8897  a.u.
     unit-cell volume          =    4806.0858 (a.u.)^3
     number of atoms/cell      =           13
     number of atomic types    =            2
     number of electrons       =       150.00
     number of Kohn-Sham states=           85
     kinetic-energy cutoff     =      36.7493  Ry
     charge density cutoff     =     367.4932  Ry
     convergence threshold     =      1.0E-05
     mixing beta               =       0.3000
     number of iterations used =           10  plain     mixing
     Exchange-correlation      = BEEF-VDW ( 1  4 27 13 2)
     nstep                     =           50

     celldm(1)=   1.889726  celldm(2)=   0.000000  celldm(3)=   0.000000
     celldm(4)=   0.000000  celldm(5)=   0.000000  celldm(6)=   0.000000

     crystal axes: (cart. coord. in units of alat)
               a(1) = (   5.768903   0.000000   0.000000 )
               a(2) = (   2.884451   4.996016   0.000000 )
               a(3) = (   0.000000   0.000000  24.710289 )

     reciprocal axes: (cart. coord. in units 2 pi/alat)
               b(1) = (  0.173343 -0.100080  0.000000 )
               b(2) = (  0.000000  0.200159  0.000000 )
               b(3) = (  0.000000  0.000000  0.040469 )

     PseudoPot. # 1 for Ti read from file:
     /afs/slac.stanford.edu/u/if/mamunm/psp/gbrv1.5pbe/Ti.UPF
     MD5 check sum: 88a00a6731bd790ddea75d31a80cb452
     Pseudo is Ultrasoft + core correction, Zval = 12.0
     Generated by new atomic code, or converted to UPF format
     Using radial grid of  851 points,  6 beta functions with:
                l(1) =   0
                l(2) =   0
                l(3) =   1
                l(4) =   1
                l(5) =   2
                l(6) =   2
     Q(r) pseudized with  6 coefficients,  rinner =    1.000   1.000   1.000
                                                       1.000   1.000

     PseudoPot. # 2 for S  read from file:
     /afs/slac.stanford.edu/u/if/mamunm/psp/gbrv1.5pbe/S.UPF
     MD5 check sum: 88d86576ff6df21479756cfb9bdac1df
     Pseudo is Ultrasoft + core correction, Zval =  6.0
     Generated by new atomic code, or converted to UPF format
     Using radial grid of  907 points,  6 beta functions with:
                l(1) =   0
                l(2) =   0
                l(3) =   1
                l(4) =   1
                l(5) =   2
                l(6) =   2
     Q(r) pseudized with  8 coefficients,  rinner =    1.300   1.300   1.300
                                                       1.300   1.300

     vdW kernel table read from file vdW_kernel_table
     MD5 check sum: 095c7af220d748ca6e76c0b4c6cfb241

     atomic species   valence    mass     pseudopotential
        Ti1           12.00    47.86700     Ti( 1.00)
        S1             6.00    32.06000     S ( 1.00)

     No symmetry found

   Cartesian axes

     site n.     atom                  positions (alat units)
         1           Ti1 tau(   1) = (   1.4422257   0.8326694  10.0000000  )
         2           Ti1 tau(   2) = (   4.3266771   0.8326694  10.0000000  )
         3           Ti1 tau(   3) = (   2.8844514   3.3306776  10.0000000  )
         4           Ti1 tau(   4) = (   5.7689029   3.3306776  10.0000000  )
         5           Ti1 tau(   5) = (   5.7689029   1.6653388  12.3551447  )
         6           Ti1 tau(   6) = (   2.8844514   1.6653388  12.3551447  )
         7           Ti1 tau(   7) = (   7.2111286   4.1633470  12.3551447  )
         8           Ti1 tau(   8) = (   4.3266771   4.1633470  12.3551447  )
         9           Ti1 tau(   9) = (   0.0000000   0.0000000  14.7102895  )
        10           Ti1 tau(  10) = (   2.8844514   0.0000000  14.7102895  )
        11           Ti1 tau(  11) = (   1.4422257   2.4980082  14.7102895  )
        12           Ti1 tau(  12) = (   4.3266771   2.4980082  14.7102895  )
        13           S1  tau(  13) = (   1.4422257   0.8326694  17.3602895  )

     number of k points=    20  Fermi-Dirac smearing, width (Ry)=  0.0110
                       cart. coord. in units 2pi/alat
        k(    1) = (   0.0000000   0.0000000   0.0000000), wk =   0.0555556
        k(    2) = (   0.0000000   0.0333599   0.0000000), wk =   0.1111111
        k(    3) = (   0.0000000   0.0667198   0.0000000), wk =   0.1111111
        k(    4) = (   0.0000000  -0.1000797   0.0000000), wk =   0.0555556
        k(    5) = (   0.0288905  -0.0166800   0.0000000), wk =   0.1111111
        k(    6) = (   0.0288905   0.0166800   0.0000000), wk =   0.1111111
        k(    7) = (   0.0288905   0.0500399   0.0000000), wk =   0.1111111
        k(    8) = (   0.0288905  -0.1167597   0.0000000), wk =   0.1111111
        k(    9) = (   0.0288905  -0.0833998   0.0000000), wk =   0.1111111
        k(   10) = (   0.0288905  -0.0500399   0.0000000), wk =   0.1111111
        k(   11) = (   0.0577811  -0.0333599   0.0000000), wk =   0.1111111
        k(   12) = (   0.0577811  -0.0000000   0.0000000), wk =   0.1111111
        k(   13) = (   0.0577811   0.0333599   0.0000000), wk =   0.1111111
        k(   14) = (   0.0577811  -0.1334396   0.0000000), wk =   0.1111111
        k(   15) = (   0.0577811  -0.1000797   0.0000000), wk =   0.1111111
        k(   16) = (   0.0577811  -0.0667198   0.0000000), wk =   0.1111111
        k(   17) = (  -0.0866716   0.0500399   0.0000000), wk =   0.0555556
        k(   18) = (  -0.0866716   0.0833998   0.0000000), wk =   0.1111111
        k(   19) = (  -0.0866716   0.1167597   0.0000000), wk =   0.1111111
        k(   20) = (  -0.0866716  -0.0500399   0.0000000), wk =   0.0555556

     Largest allocated arrays     est. size (Mb)     dimensions
     Largest temporary arrays     est. size (Mb)     dimensions

     Check: negative/imaginary core charge=   -0.000006    0.000000

     Initial potential from superposition of free atoms
     Check: negative starting charge=   -0.012631

     starting charge  137.99943, renormalised to  150.00000

     negative rho (up, down):  1.373E-02 0.000E+00

     *
     * You are using vdW-DF for exchange-correlation in this calculation.
     * Please cite the following three references that made this development
     * possible:
     *
     *   M. Dion, H. Rydberg, E. Schroder, D. C. Langreth, and
     *   B. I. Lundqvist, Phys. Rev. Lett. 92, 246401 (2004).
     *
     *   T. Thonhauser, V. R. Cooper, S. Li, A. Puzder, P. Hyldgaard, and
     *   D. C. Langreth, Phys. Rev. B 76, 125112 (2007).
     *
     *   G. Roman-Perez and J. M. Soler, Phys. Rev. Lett. 103, 096102 (2009).
     *
     *
     * If you are using vdW-DF2, please also cite:
     *
     *   K. Lee, E. D. Murray, L. Kong, B. I. Lundqvist, and
     *   D. C. Langreth, Phys. Rev. B 82, 081101(R) (2010).
     *
     *
     * If you are calculating the stress with vdW-DF, please also cite:
     *
     *   R. Sabatini, E. Kucukbenli, B. Kolb, T. Thonhauser, and
     *   S. de Gironcoli, J. Phys.: Condens. Matter 24, 424209 (2012).
     *

     Carrying out vdW-DF run using the following parameters:

     Nqs =      20    Nr_points =    1024   r_max =   100.000
     q_mesh =
               0.00001000     0.04494208     0.09755937     0.15916263
               0.23128650     0.31572767     0.41458969     0.53033537
               0.66584808     0.82450364     1.01025438     1.22772762
               1.48234092     1.78043706     2.12944203     2.53805004
               3.01644009     3.57652955     4.23227104     5.00000000

     Gradients computed in reciprocal space

     Adding external electric field

     Computed dipole along edir(3) :
        Dipole               -4.9347 Ry au,        -12.5427 Debye
        Dipole field         -0.0129 Ry au

        Potential amp.        1.1749 Ry
        Total length         45.5283 bohr

     Starting wfc are  124 randomized atomic wfcs

     Self-consistent Calculation

     iteration #  1     ecut=    36.75 Ry     beta=0.30
     Davidson diagonalization with overlap
     ethr =  1.00E-02,  avg # of iterations =  6.2

[...]

     total energy              =   -1308.93274172 Ry
     Harris-Foulkes estimate   =   -1466.23699024 Ry
     estimated scf accuracy    <     326.08538347 Ry

[...]

     iteration # 24     ecut=    36.75 Ry     beta=0.30
     Davidson diagonalization with overlap
     c_bands:  2 eigenvalues not converged
     ethr =  1.03E-05,  avg # of iterations =  7.2

[...]

     End of self-consistent calculation

          k = 0.0000 0.0000 0.0000 ( 18103 PWs)   bands (ev):

   -56.7801 -56.6989 -56.6832 -56.6823 -56.6742 -56.5834 -56.5826 -56.5806
   -56.4855 -56.4110 -56.4106 -56.3964 -33.2200 -33.2196 -33.2164 -33.1618
   -33.1237 -33.1232 -33.1218 -33.0881 -33.0665 -33.0660 -32.9808 -32.9275
   -32.9080 -32.9073 -32.7958 -32.7955 -32.7903 -32.7833 -32.7807 -32.7802
   -32.7056 -32.7031 -32.7027 -32.6668 -32.6668 -32.6079 -32.6075 -32.6003
   -32.5784 -32.5759 -32.5758 -32.5128 -32.5074 -32.5073 -32.3948 -32.3948
   -10.5267  -5.1444  -3.8386  -2.6254  -2.0125  -2.0019  -2.0018  -1.9285
    -1.9016  -1.9015  -1.5336  -1.4995  -1.4993  -1.2947  -1.2355  -1.2354
    -1.0598  -0.7233  -0.7232  -0.3825  -0.3550  -0.3549   0.2306   0.4982
     0.5641   0.5642   0.6407   0.8299   0.8775   0.8778   0.8813   1.0816
     1.0816   1.2655   1.2655   1.3030   1.3032

[...]

          k =-0.0867 0.0500 0.0000 ( 18044 PWs)   bands (ev):

[...]

     the Fermi energy is     0.3282 ev

!    total energy              =   -1462.99627047 Ry
     Harris-Foulkes estimate   =   -1462.99627429 Ry
     estimated scf accuracy    <       0.00000268 Ry

     The total energy is the sum of the following terms:

     one-electron contribution =  -10987.71757845 Ry
     hartree contribution      =    5479.21139564 Ry
     xc contribution           =    -233.40371381 Ry
     ewald contribution        =    4279.04378340 Ry
     electric field correction =       0.00077722 Ry
     smearing contrib. (-TS)   =      -0.13093447 Ry

     convergence has been achieved in  34 iterations

 BEEF-vdW xc energy contributions
           1 :   -200.476231860448
           2 :    178.862137843248
           3 :   -143.465835078510
           4 :    105.573037414626
           5 :   -74.3948401460957
           6 :    53.5767017495962
           7 :   -41.2290270559130
           8 :    32.7088677315936
           9 :   -24.0223389434194
          10 :    13.8091551840427
          11 :   -3.19577827791855
          12 :   -5.80798788492237
          13 :    11.9985352023897
[...]

[...]

   This run was terminated on:   2: 7:17  24Jan2018

[...]

     Program PWSCF v.5.1rc2 (svn rev. 11289) starts on 24Jan2018 at  2: 7:23

[...]

   This run was terminated on:   3: 3: 7  24Jan2018

[...]

     Program PWSCF v.5.1rc2 (svn rev. 11289) starts on 24Jan2018 at  3:31:51

[...]

   This run was terminated on:   4: 1:48  24Jan2018

[...]

     Program PWSCF v.5.1rc2 (svn rev. 11289) starts on 24Jan2018 at  4: 1:54

     Current dimensions of program PWSCF are:
     Max number of different atomic species (ntypx) = 10
     Max number of k-points (npk) =  40000
     Max angular momentum in pseudopotentials (lmaxx) =  3
     Presently stress not available with electric field

     IMPORTANT: XC functional enforced from input :
     Exchange-correlation      = BEEF-VDW ( 1  4 27 13 2)
     Any further DFT definition will be discarded
     Please, verify this is what you really want

     Subspace diagonalization in iterative solution of the eigenvalue problem:
     a serial algorithm will be used

     bravais-lattice index     =            0
     lattice parameter (alat)  =       1.8897  a.u.
     unit-cell volume          =    4806.0858 (a.u.)^3
     number of atoms/cell      =           13
     number of atomic types    =            2
     number of electrons       =       150.00
     number of Kohn-Sham states=           85
     kinetic-energy cutoff     =      36.7493  Ry
     charge density cutoff     =     367.4932  Ry
     convergence threshold     =      1.0E-05
     mixing beta               =       0.3000
     number of iterations used =           10  plain     mixing
     Exchange-correlation      = BEEF-VDW ( 1  4 27 13 2)
     nstep                     =           50

     celldm(1)=   1.889726  celldm(2)=   0.000000  celldm(3)=   0.000000
     celldm(4)=   0.000000  celldm(5)=   0.000000  celldm(6)=   0.000000

     crystal axes: (cart. coord. in units of alat)
               a(1) = (   5.768903   0.000000   0.000000 )
               a(2) = (   2.884451   4.996016   0.000000 )
               a(3) = (   0.000000   0.000000  24.710289 )

     reciprocal axes: (cart. coord. in units 2 pi/alat)
               b(1) = (  0.173343 -0.100080  0.000000 )
               b(2) = (  0.000000  0.200159  0.000000 )
               b(3) = (  0.000000  0.000000  0.040469 )

     PseudoPot. # 1 for Ti read from file:
     /afs/slac.stanford.edu/u/if/mamunm/psp/gbrv1.5pbe/Ti.UPF
     MD5 check sum: 88a00a6731bd790ddea75d31a80cb452
     Pseudo is Ultrasoft + core correction, Zval = 12.0
     Generated by new atomic code, or converted to UPF format
     Using radial grid of  851 points,  6 beta functions with:
                l(1) =   0
                l(2) =   0
                l(3) =   1
                l(4) =   1
                l(5) =   2
                l(6) =   2
     Q(r) pseudized with  6 coefficients,  rinner =    1.000   1.000   1.000
                                                       1.000   1.000

     PseudoPot. # 2 for S  read from file:
     /afs/slac.stanford.edu/u/if/mamunm/psp/gbrv1.5pbe/S.UPF
     MD5 check sum: 88d86576ff6df21479756cfb9bdac1df
     Pseudo is Ultrasoft + core correction, Zval =  6.0
     Generated by new atomic code, or converted to UPF format
     Using radial grid of  907 points,  6 beta functions with:
                l(1) =   0
                l(2) =   0
                l(3) =   1
                l(4) =   1
                l(5) =   2
                l(6) =   2
     Q(r) pseudized with  8 coefficients,  rinner =    1.300   1.300   1.300
                                                       1.300   1.300

     vdW kernel table read from file vdW_kernel_table
     MD5 check sum: 095c7af220d748ca6e76c0b4c6cfb241

     atomic species   valence    mass     pseudopotential
        Ti1           12.00    47.86700     Ti( 1.00)
        S1             6.00    32.06000     S ( 1.00)

     No symmetry found

   Cartesian axes

     site n.     atom                  positions (alat units)
         1           Ti1 tau(   1) = (   1.4422257   0.8326694  10.0000000  )
         2           Ti1 tau(   2) = (   4.3266771   0.8326694  10.0000000  )
         3           Ti1 tau(   3) = (   2.8844514   3.3306776  10.0000000  )
         4           Ti1 tau(   4) = (   5.7689029   3.3306776  10.0000000  )
         5           Ti1 tau(   5) = (   5.7689029   1.6653388  12.3551447  )
         6           Ti1 tau(   6) = (   2.8844514   1.6653388  12.3551447  )
         7           Ti1 tau(   7) = (   7.2111286   4.1633470  12.3551447  )
         8           Ti1 tau(   8) = (   4.3266771   4.1633470  12.3551447  )
         9           Ti1 tau(   9) = (   8.6188303   4.9761131  14.6707944  )
        10           Ti1 tau(  10) = (   5.8033617   4.9761921  14.6706138  )
        11           Ti1 tau(  11) = (   7.2111369   2.5377736  14.6707314  )
        12           Ti1 tau(  12) = (   4.3266357   2.4979300  14.6068065  )
        13           S1  tau(  13) = (   1.4423858   0.8325585  16.3813466  )

     number of k points=    20  Fermi-Dirac smearing, width (Ry)=  0.0110
                       cart. coord. in units 2pi/alat
        k(    1) = (   0.0000000   0.0000000   0.0000000), wk =   0.0555556
        k(    2) = (   0.0000000   0.0333599   0.0000000), wk =   0.1111111
        k(    3) = (   0.0000000   0.0667198   0.0000000), wk =   0.1111111
        k(    4) = (   0.0000000  -0.1000797   0.0000000), wk =   0.0555556
        k(    5) = (   0.0288905  -0.0166800   0.0000000), wk =   0.1111111
        k(    6) = (   0.0288905   0.0166800   0.0000000), wk =   0.1111111
        k(    7) = (   0.0288905   0.0500399   0.0000000), wk =   0.1111111
        k(    8) = (   0.0288905  -0.1167597   0.0000000), wk =   0.1111111
        k(    9) = (   0.0288905  -0.0833998   0.0000000), wk =   0.1111111
        k(   10) = (   0.0288905  -0.0500399   0.0000000), wk =   0.1111111
        k(   11) = (   0.0577811  -0.0333599   0.0000000), wk =   0.1111111
        k(   12) = (   0.0577811  -0.0000000   0.0000000), wk =   0.1111111
        k(   13) = (   0.0577811   0.0333599   0.0000000), wk =   0.1111111
        k(   14) = (   0.0577811  -0.1334396   0.0000000), wk =   0.1111111
        k(   15) = (   0.0577811  -0.1000797   0.0000000), wk =   0.1111111
        k(   16) = (   0.0577811  -0.0667198   0.0000000), wk =   0.1111111
        k(   17) = (  -0.0866716   0.0500399   0.0000000), wk =   0.0555556
        k(   18) = (  -0.0866716   0.0833998   0.0000000), wk =   0.1111111
        k(   19) = (  -0.0866716   0.1167597   0.0000000), wk =   0.1111111
        k(   20) = (  -0.0866716  -0.0500399   0.0000000), wk =   0.0555556

     Largest allocated arrays     est. size (Mb)     dimensions
     Largest temporary arrays     est. size (Mb)     dimensions

     Check: negative/imaginary core charge=   -0.000006    0.000000

     Initial potential from superposition of free atoms
     Check: negative starting charge=   -0.013856

     starting charge  137.99943, renormalised to  150.00000

[...]

     *
     * You are using vdW-DF for exchange-correlation in this calculation.
     * Please cite the following three references that made this development
     * possible:
     *
     *   M. Dion, H. Rydberg, E. Schroder, D. C. Langreth, and
     *   B. I. Lundqvist, Phys. Rev. Lett. 92, 246401 (2004).
     *
     *   T. Thonhauser, V. R. Cooper, S. Li, A. Puzder, P. Hyldgaard, and
     *   D. C. Langreth, Phys. Rev. B 76, 125112 (2007).
     *
     *   G. Roman-Perez and J. M. Soler, Phys. Rev. Lett. 103, 096102 (2009).
     *
     *
     * If you are using vdW-DF2, please also cite:
     *
     *   K. Lee, E. D. Murray, L. Kong, B. I. Lundqvist, and
     *   D. C. Langreth, Phys. Rev. B 82, 081101(R) (2010).
     *
     *
     * If you are calculating the stress with vdW-DF, please also cite:
     *
     *   R. Sabatini, E. Kucukbenli, B. Kolb, T. Thonhauser, and
     *   S. de Gironcoli, J. Phys.: Condens. Matter 24, 424209 (2012).
     *

     Carrying out vdW-DF run using the following parameters:

     Nqs =      20    Nr_points =    1024   r_max =   100.000
     q_mesh =
               0.00001000     0.04494208     0.09755937     0.15916263
               0.23128650     0.31572767     0.41458969     0.53033537
               0.66584808     0.82450364     1.01025438     1.22772762
               1.48234092     1.78043706     2.12944203     2.53805004
               3.01644009     3.57652955     4.23227104     5.00000000

     Gradients computed in reciprocal space

[...]

     Starting wfc are  124 randomized atomic wfcs

     Self-consistent Calculation

[...]

     iteration # 37     ecut=    36.75 Ry     beta=0.30
     Davidson diagonalization with overlap
     c_bands:  1 eigenvalues not converged
     ethr =  1.12E-06,  avg # of iterations =  5.8

[...]

     total energy              =   -1463.18291520 Ry
     Harris-Foulkes estimate   =   -1463.18291456 Ry
     estimated scf accuracy    <       0.00002570 Ry

     iteration # 44     ecut=    36.75 Ry     beta=0.30
     Davidson diagonalization with overlap
     ethr =  1.71E-08,  avg # of iterations =  1.9

[...]

     negative rho (up, down):  9.259E-03 0.000E+00

     Adding external electric field

     Computed dipole along edir(3) :
        Dipole               -0.1257 Ry au,         -0.3195 Debye
        Dipole field         -0.0003 Ry au

        Potential amp.        0.0299 Ry
        Total length         45.5283 bohr

     End of self-consistent calculation

[...]

          k = 0.0578-0.0667 0.0000 ( 18031 PWs)   bands (ev):

[...]

          k =-0.0867-0.0500 0.0000 ( 18044 PWs)   bands (ev):

   -56.1374 -56.1188 -56.1184 -56.0733 -56.0726 -56.0652 -56.0327 -56.0143
   -55.8981 -55.8841 -55.8602 -55.8073 -32.5492 -32.5413 -32.5246 -32.4991
   -32.4939 -32.4663 -32.4591 -32.4247 -32.4240 -32.4032 -32.3804 -32.3716
   -32.3503 -32.3388 -32.3374 -32.3173 -32.2986 -32.2959 -32.2656 -32.2360
   -32.1737 -32.1492 -32.1340 -32.1308 -32.1209 -32.0831 -32.0765 -32.0642
   -32.0585 -32.0361 -32.0279 -32.0162 -32.0065 -31.9495 -31.9070 -31.8756
   -11.8339  -3.3668  -3.1682  -2.6481  -2.6148  -2.6135  -1.6454  -1.4982
    -1.0698  -1.0649  -0.8124  -0.8088  -0.7101  -0.5995  -0.1179  -0.1071
    -0.0638  -0.0224   0.0533   0.0737   0.3833   0.3884   0.4102   0.4516
     0.5195   0.5234   0.6349   0.7226   0.8028   0.8268   0.8366   0.9391
     1.0333   1.1466   1.1799   1.4775   1.5144

     the Fermi energy is     0.8312 ev

!    total energy              =   -1463.18291219 Ry
     Harris-Foulkes estimate   =   -1463.18292374 Ry
     estimated scf accuracy    <       0.00000427 Ry

     The total energy is the sum of the following terms:

     one-electron contribution =  -11314.56489272 Ry
     hartree contribution      =    5644.93932049 Ry
     xc contribution           =    -233.84685097 Ry
     ewald contribution        =    4440.41694874 Ry
     electric field correction =       0.00004132 Ry
     smearing contrib. (-TS)   =      -0.12747904 Ry

     convergence has been achieved in  44 iterations

 BEEF-vdW xc energy contributions
           1 :   -200.926762072762
           2 :    179.482123926151
           3 :   -144.233573083253
           4 :    106.295663999564
           5 :   -74.8836964386079
           6 :    53.7886679184309
           7 :   -41.2683614881984
           8 :    32.7150693124994
           9 :   -24.0567918258582
          10 :    13.8325934848309
          11 :   -3.13455857112052
          12 :   -5.97933651711332
          13 :    12.2262628708638
          14 :   -15.8592991940251
          15 :    18.1700986299796
          16 :   -20.3435267457416
          17 :    22.5878551888933
          18 :   -24.1327837716418
          19 :    23.9788758214432
          20 :   -21.7574985113395
          21 :    18.0416229416544
          22 :   -13.9304874932355
          23 :    10.2872898257371
          24 :   -7.23460555901252
          25 :    4.25154770478304
          26 :  -0.738377827397898
          27 :   -3.42065559567826
          28 :    7.70921033264716
          29 :   -11.3177436779551
          30 :    13.6773818682120
          31 :   -21.4468233680838
          32 :   -15.2674709615958

     Forces acting on atoms (Ry/au):

     negative rho (up, down):  9.259E-03 0.000E+00
     atom    1 type  1   force =    -0.00000270    0.00002645    0.00700556
     atom    2 type  1   force =    -0.00000037    0.00119954    0.00833888
     atom    3 type  1   force =     0.00102401   -0.00060523    0.00827406
     atom    4 type  1   force =    -0.00102775   -0.00060759    0.00832497
     atom    5 type  1   force =    -0.00072835    0.00045679   -0.00618247
     atom    6 type  1   force =     0.00072175    0.00046195   -0.00619552
     atom    7 type  1   force =     0.00001220   -0.00004583   -0.01267762
     atom    8 type  1   force =    -0.00000786   -0.00086718   -0.00620042
     atom    9 type  1   force =    -0.00061931   -0.00037453   -0.00043816
     atom   10 type  1   force =     0.00065380   -0.00038529   -0.00040769
     atom   11 type  1   force =    -0.00000284    0.00072570   -0.00043222
     atom   12 type  1   force =    -0.00001199    0.00001447    0.00033980
     atom   13 type  2   force =    -0.00001059    0.00000076    0.00025084

     Total force =     0.023260     Total SCF correction =     0.009997
     SCF correction compared to forces is large: reduce conv_thr to get better values

     entering subroutine stress ...

     negative rho (up, down):  9.259E-03 0.000E+00
          total   stress  (Ry/bohr**3)                   (kbar)     P=    1.30
   0.00002922  -0.00000002  -0.00000003          4.30     -0.00     -0.00
  -0.00000002   0.00002923  -0.00000004         -0.00      4.30     -0.01
  -0.00000003  -0.00000004  -0.00003190         -0.00     -0.01     -4.69

 !ASE

     Writing output data file calc.save

     General routines

     Parallel routines

   This run was terminated on:   4:28:52  24Jan2018

   JOB DONE.
Job  /afs/slac/g/suncat/bin/suncat-tsmpirun -x LD_LIBRARY_PATH -wdir /scratch/qe888509_K29nD pw.x -in pw.inp

TID   HOST_NAME   COMMAND_LINE            STATUS            TERMINATION_TIME
00000 suncat1041 pw.x -in pw.inp   Done                     01/24/2018 04:28:52
00001 suncat1041 pw.x -in pw.inp   Done                     01/24/2018 04:28:52
00002 suncat1041 pw.x -in pw.inp   Done                     01/24/2018 04:28:52
00003 suncat1041 pw.x -in pw.inp   Done                     01/24/2018 04:28:52
00004 suncat1041 pw.x -in pw.inp   Done                     01/24/2018 04:28:52
00005 suncat1041 pw.x -in pw.inp   Done                     01/24/2018 04:28:52
00006 suncat1041 pw.x -in pw.inp   Done                     01/24/2018 04:28:52
00007 suncat1041 pw.x -in pw.inp   Done                     01/24/2018 04:28:52
00008 suncat1040 pw.x -in pw.inp   Done                     01/24/2018 04:28:52
00009 suncat1040 pw.x -in pw.inp   Done                     01/24/2018 04:28:52
00010 suncat1040 pw.x -in pw.inp   Done                     01/24/2018 04:28:52
00011 suncat1040 pw.x -in pw.inp   Done                     01/24/2018 04:28:52
00012 suncat1040 pw.x -in pw.inp   Done                     01/24/2018 04:28:52
00013 suncat1040 pw.x -in pw.inp   Done                     01/24/2018 04:28:52
00014 suncat1040 pw.x -in pw.inp   Done                     01/24/2018 04:28:52
00015 suncat1040 pw.x -in pw.inp   Done                     01/24/2018 04:28:52
00016 suncat1040 pw.x -in pw.inp   Done                     01/24/2018 04:28:52
00017 suncat1040 pw.x -in pw.inp   Done                     01/24/2018 04:28:52
00018 suncat1040 pw.x -in pw.inp   Done                     01/24/2018 04:28:52
00019 suncat1040 pw.x -in pw.inp   Done                     01/24/2018 04:28:52
00020 suncat1015 pw.x -in pw.inp   Done                     01/24/2018 04:28:52
00021 suncat1015 pw.x -in pw.inp   Done                     01/24/2018 04:28:52
00022 suncat1015 pw.x -in pw.inp   Done                     01/24/2018 04:28:52
00023 suncat1015 pw.x -in pw.inp   Done                     01/24/2018 04:28:52
00024 suncat1015 pw.x -in pw.inp   Done                     01/24/2018 04:28:52
00025 suncat1015 pw.x -in pw.inp   Done                     01/24/2018 04:28:52
00026 suncat1015 pw.x -in pw.inp   Done                     01/24/2018 04:28:52
00027 suncat1015 pw.x -in pw.inp   Done                     01/24/2018 04:28:52
00028 suncat1015 pw.x -in pw.inp   Done                     01/24/2018 04:28:52
00029 suncat1015 pw.x -in pw.inp   Done                     01/24/2018 04:28:52
00030 suncat1015 pw.x -in pw.inp   Done                     01/24/2018 04:28:52
00031 suncat1015 pw.x -in pw.inp   Done                     01/24/2018 04:28:52