     Program PWSCF v.6.1 starts on  7Jan2019 at 19:49:11

     Current dimensions of program PWSCF are:
     Max number of different atomic species (ntypx) = 10
     Max number of k-points (npk) =  40000
     Max angular momentum in pseudopotentials (lmaxx) =  3

     IMPORTANT: XC functional enforced from input :
     Exchange-correlation      = BEEF-VDW ( 1  4 29 14 2 0)
     Any further DFT definition will be discarded
     Please, verify this is what you really want

     bravais-lattice index     =            0
     lattice parameter (alat)  =      13.1573  a.u.
     unit-cell volume          =    7276.7661 (a.u.)^3
     number of atoms/cell      =           13
     number of atomic types    =            2
     number of electrons       =       186.00
     number of Kohn-Sham states=          103
     kinetic-energy cutoff     =      36.7493  Ry
     charge density cutoff     =     367.4933  Ry
     convergence threshold     =      1.0E-04
     mixing beta               =       0.2000
     number of iterations used =            8  plain     mixing
     Exchange-correlation      = BEEF-VDW ( 1  4 29 14 2 0)
     nstep                     =           50

     celldm(1)=  13.157267  celldm(2)=   0.000000  celldm(3)=   0.000000
     celldm(4)=   0.000000  celldm(5)=   0.000000  celldm(6)=   0.000000

     crystal axes: (cart. coord. in units of alat)
               a(1) = (   1.000000   0.000000   0.000000 )
               a(2) = (   0.500000   0.866025   0.000000 )
               a(3) = (   0.000000   0.000000   3.689017 )

     reciprocal axes: (cart. coord. in units 2 pi/alat)
               b(1) = (  1.000000 -0.577350  0.000000 )
               b(2) = (  0.000000  1.154701  0.000000 )
               b(3) = (  0.000000  0.000000  0.271075 )

     PseudoPot. # 1 for Bi read from file:
     /home/users/jrboes/code/decaf-espresso/gbrv15pbe/Bi.UPF
     MD5 check sum: 81103212dc04adf40945787f699eab19
     Pseudo is Ultrasoft + core correction, Zval = 15.0
     Generated by new atomic code, or converted to UPF format
     Using radial grid of  899 points,  6 beta functions with:
                l(1) =   0
                l(2) =   0
                l(3) =   1
                l(4) =   1
                l(5) =   2
                l(6) =   2
     Q(r) pseudized with  6 coefficients,  rinner =    1.000   1.000   1.000
                                                       1.000   1.000

     PseudoPot. # 2 for O  read from file:
     /home/users/jrboes/code/decaf-espresso/gbrv15pbe/O.UPF
     MD5 check sum: 734c27235a0248c51dbae37a1fbe46ec
     Pseudo is Ultrasoft + core correction, Zval =  6.0
     Generated by new atomic code, or converted to UPF format
     Using radial grid of  737 points,  5 beta functions with:
                l(1) =   0
                l(2) =   0
                l(3) =   1
                l(4) =   1
                l(5) =   2
     Q(r) pseudized with  8 coefficients,  rinner =    0.900   0.900   0.900
                                                       0.900   0.900

     vdW kernel table read from file vdW_kernel_table
     MD5 check sum: 095c7af220d748ca6e76c0b4c6cfb241

     atomic species   valence    mass     pseudopotential
        Bi            15.00   208.98040     Bi( 1.00)
        O              6.00    15.99900     O ( 1.00)

     No symmetry found

   Cartesian axes

     site n.     atom                  positions (alat units)
         1           Bi  tau(   1) = (   0.2500000   0.1443376   1.4362603  )
         2           Bi  tau(   2) = (   0.7500000   0.1443376   1.4362603  )
         3           Bi  tau(   3) = (   0.5000000   0.5773503   1.4362603  )
         4           Bi  tau(   4) = (   1.0000000   0.5773503   1.4362603  )
         5           Bi  tau(   5) = (   1.0000000   0.2886751   1.8445086  )
         6           Bi  tau(   6) = (   0.5000000   0.2886751   1.8445086  )
         7           Bi  tau(   7) = (   1.2500000   0.7216878   1.8445086  )
         8           Bi  tau(   8) = (   0.7500000   0.7216878   1.8445086  )
         9           Bi  tau(   9) = (  -0.0000014  -0.0000001   2.4302036  )
        10           Bi  tau(  10) = (   0.4999983  -0.0144294   2.2761460  )
        11           Bi  tau(  11) = (   0.2375027   0.4402292   2.2761426  )
        12           Bi  tau(  12) = (   0.7625000   0.4402269   2.2761420  )
        13           O   tau(  13) = (  -0.0000007   0.0000003   2.7089801  )

     number of k points=    20  Fermi-Dirac smearing, width (Ry)=  0.0110
                       cart. coord. in units 2pi/alat
        k(    1) = (   0.0000000   0.0000000   0.0000000), wk =   0.0555556
        k(    2) = (   0.0000000   0.1924501   0.0000000), wk =   0.1111111
        k(    3) = (   0.0000000   0.3849002   0.0000000), wk =   0.1111111
        k(    4) = (   0.0000000  -0.5773503   0.0000000), wk =   0.0555556
        k(    5) = (   0.1666667  -0.0962250   0.0000000), wk =   0.1111111
        k(    6) = (   0.1666667   0.0962250   0.0000000), wk =   0.1111111
        k(    7) = (   0.1666667   0.2886751   0.0000000), wk =   0.1111111
        k(    8) = (   0.1666667  -0.6735753   0.0000000), wk =   0.1111111
        k(    9) = (   0.1666667  -0.4811252   0.0000000), wk =   0.1111111
        k(   10) = (   0.1666667  -0.2886751   0.0000000), wk =   0.1111111
        k(   11) = (   0.3333333  -0.1924501   0.0000000), wk =   0.1111111
        k(   12) = (   0.3333333   0.0000000   0.0000000), wk =   0.1111111
        k(   13) = (   0.3333333   0.1924501   0.0000000), wk =   0.1111111
        k(   14) = (   0.3333333  -0.7698004   0.0000000), wk =   0.1111111
        k(   15) = (   0.3333333  -0.5773503   0.0000000), wk =   0.1111111
        k(   16) = (   0.3333333  -0.3849002   0.0000000), wk =   0.1111111
        k(   17) = (  -0.5000000   0.2886751   0.0000000), wk =   0.0555556
        k(   18) = (  -0.5000000   0.4811252   0.0000000), wk =   0.1111111
        k(   19) = (  -0.5000000   0.6735753   0.0000000), wk =   0.1111111
        k(   20) = (  -0.5000000  -0.2886751   0.0000000), wk =   0.0555556

     Check: negative/imaginary core charge=   -0.000001    0.000000

     Initial potential from superposition of free atoms
     Check: negative starting charge=   -0.500968

     starting charge  173.99950, renormalised to  186.00000

     negative rho (up, down):  5.355E-01 0.000E+00

     %%%%%%%%%%%%%%%%%%%%%%%%%%%%%%%%%%%%%%%%%%%%%%%%%%%%%%%%%%%%%%%%%%%%%%%%
     %                                                                      %
     % You are using vdW-DF, which was implemented by the Thonhauser group. %
     % Please cite the following two papers that made this development      %
     % possible and the two reviews that describe the various versions:     %
     %                                                                      %
     %   T. Thonhauser et al., PRL 115, 136402 (2015).                      %
     %   T. Thonhauser et al., PRB 76, 125112 (2007).                       %
     %   K. Berland et al., Rep. Prog. Phys. 78, 066501 (2015).             %
     %   D.C. Langreth et al., J. Phys.: Condens. Matter 21, 084203 (2009). %
     %                                                                      %
     %                                                                      %
     % If you are calculating the stress with vdW-DF, please also cite:     %
     %                                                                      %
     %   R. Sabatini et al., J. Phys.: Condens. Matter 24, 424209 (2012).   %
     %                                                                      %
     %%%%%%%%%%%%%%%%%%%%%%%%%%%%%%%%%%%%%%%%%%%%%%%%%%%%%%%%%%%%%%%%%%%%%%%%

     Adding external electric field

     Computed dipole along edir(3) :
        Dipole               -4.5944 Ry au,        -11.6777 Debye
        Dipole field         -0.0079 Ry au,

        Potential amp.        0.6932 Ry
        Total length         43.6836 bohr

     Starting wfc are  112 randomized atomic wfcs

     Self-consistent Calculation

     iteration #  1     ecut=    36.75 Ry     beta=0.20
     Davidson diagonalization with overlap
     ethr =  1.00E-02,  avg # of iterations =  6.8

[...]

     total energy              =   -2219.86465241 Ry
     Harris-Foulkes estimate   =   -2282.37136693 Ry
     estimated scf accuracy    <     182.82645488 Ry

[...]

     End of self-consistent calculation

          k = 0.0000 0.0000 0.0000 ( 27441 PWs)   bands (ev):

   -23.2750 -23.2750 -23.2599 -23.2182 -23.2182 -23.2054 -23.2054 -23.2041
   -23.1719 -23.1418 -23.1418 -23.1274 -23.1256 -23.1115 -23.1115 -23.1071
   -23.1070 -23.0746 -23.0746 -23.0680 -23.0680 -23.0644 -23.0512 -23.0239
   -23.0197 -23.0197 -23.0040 -22.9971 -22.9971 -22.9755 -22.9636 -22.9463
   -22.9463 -22.9426 -22.9426 -22.9262 -22.9203 -22.9203 -22.9189 -22.9181
   -22.9181 -22.9008 -22.9008 -22.8999 -22.8859 -22.8859 -22.8718 -22.8626
   -22.8626 -22.8619 -22.8300 -22.8300 -22.8255 -22.8175 -22.8175 -22.7948
   -22.7947 -22.7525 -22.6889 -22.6889 -16.2548 -12.8815 -11.7293 -10.9481
   -10.1402 -10.1401 -10.1315  -9.6020  -9.6020  -9.4820  -9.2524  -9.2524
    -8.9975  -4.3628  -4.3075  -4.3075  -3.7727  -3.5359  -3.5359  -3.4774
    -3.3376  -3.0487  -3.0487  -1.9854  -1.1367  -1.0773  -1.0772   0.0421
     0.0421   0.0422   0.2625   0.2626   1.2167   1.4264   1.4853   1.4853
     1.6773   2.0688   2.0688   2.6164   2.6165   2.6262   3.2521

[...]

          k =-0.5000 0.2887 0.0000 ( 27378 PWs)   bands (ev):

[...]

     the Fermi energy is     0.4647 ev

!    total energy              =   -2278.29957591 Ry
     Harris-Foulkes estimate   =   -2278.29933264 Ry
     estimated scf accuracy    <       0.00002226 Ry

     The total energy is the sum of the following terms:

     one-electron contribution =  -10090.57214563 Ry
     hartree contribution      =    5098.53988771 Ry
     xc contribution           =    -806.25100275 Ry
     ewald contribution        =    3520.03647682 Ry
     electric field correction =       0.00242370 Ry
     smearing contrib. (-TS)   =      -0.05521576 Ry

     convergence has been achieved in  16 iterations

[...]

     Forces acting on atoms (cartesian axes, Ry/au):

     atom    1 type  1   force =    -0.00006331   -0.00002390   -0.00514489
     atom    2 type  1   force =     0.00005781   -0.00003533   -0.00517026
     atom    3 type  1   force =    -0.00000120    0.00006662   -0.00514773
     atom    4 type  1   force =    -0.00000126   -0.00000621   -0.00801767
     atom    5 type  1   force =     0.00000153   -0.00329074    0.00685279
     atom    6 type  1   force =    -0.00000273   -0.00000054    0.00198649
     atom    7 type  1   force =     0.00285732    0.00165034    0.00683709
     atom    8 type  1   force =    -0.00284848    0.00164818    0.00685560
     atom    9 type  1   force =    -0.00000023   -0.00000142    0.00062519
     atom   10 type  1   force =    -0.00000202    0.00044643   -0.00085802
     atom   11 type  1   force =     0.00038658   -0.00022257   -0.00085878
     atom   12 type  1   force =    -0.00038466   -0.00022933   -0.00085413
     atom   13 type  2   force =     0.00000065   -0.00000154    0.00289434

     Total force =     0.003401     Total SCF correction =     0.014738
     SCF correction compared to forces is large: reduce conv_thr to get better values

     BFGS Geometry Optimization

     number of scf cycles    =   1
     number of bfgs steps    =   0

     energy   new            =   -2278.2995759115 Ry

     new trust radius        =       0.0028943383 bohr
     new conv_thr            =       0.0001000000 Ry

ATOMIC_POSITIONS (angstrom)
Bi       1.740631498   1.004954064  10.000000000    0   0   0
Bi       5.221894494   1.004954064  10.000000000    0   0   0
Bi       3.481262996   4.019816256  10.000000000    0   0   0
Bi       6.962525992   4.019816256  10.000000000    0   0   0
Bi       6.962525992   2.009908128  12.842439334    0   0   0
Bi       3.481262996   2.009908128  12.842439334    0   0   0
Bi       8.703157491   5.024770320  12.842439334    0   0   0
Bi       5.221894494   5.024770320  12.842439334    0   0   0
Bi      -0.000009535  -0.000001159  16.920686362
Bi       3.481250242  -0.100228736  15.847271921
Bi       1.653823279   3.064989616  15.847247713
Bi       5.308722496   3.064969839  15.847245932
O       -0.000004754   0.000000953  18.862876163

     Writing output data file calc.save
     Check: negative starting charge=   -0.500968
     NEW-OLD atomic charge density approx. for the potential

     Check: negative/imaginary core charge=   -0.000001    0.000000
     Check: negative starting charge=   -0.500923

[...]

     Self-consistent Calculation

[...]

     total energy              =   -2278.29948834 Ry
     Harris-Foulkes estimate   =   -2278.29967738 Ry
     estimated scf accuracy    <       0.00138396 Ry

     iteration #  4     ecut=    36.75 Ry     beta=0.20
     Davidson diagonalization with overlap
     ethr =  7.44E-07,  avg # of iterations =  2.9

[...]

     Adding external electric field

     Computed dipole along edir(3) :
        Dipole               -1.1851 Ry au,         -3.0122 Debye
        Dipole field         -0.0020 Ry au,

        Potential amp.        0.1788 Ry
        Total length         43.6836 bohr

     End of self-consistent calculation

[...]

          k = 0.3333-0.3849 0.0000 ( 27352 PWs)   bands (ev):

[...]

          k =-0.5000-0.2887 0.0000 ( 27378 PWs)   bands (ev):

   -23.2717 -23.2366 -23.2266 -23.2218 -23.2186 -23.2149 -23.1847 -23.1705
   -23.1578 -23.1559 -23.1513 -23.1506 -23.1493 -23.1449 -23.1425 -23.1359
   -23.1295 -23.1196 -23.1140 -23.0836 -23.0687 -23.0381 -23.0330 -23.0074
   -23.0044 -23.0008 -22.9978 -22.9931 -22.9699 -22.9623 -22.9583 -22.9571
   -22.9564 -22.9533 -22.9504 -22.9500 -22.9482 -22.9450 -22.9392 -22.9344
   -22.9301 -22.9285 -22.9183 -22.9125 -22.8978 -22.8952 -22.8922 -22.8687
   -22.8648 -22.8592 -22.8485 -22.8435 -22.8433 -22.8377 -22.8356 -22.8304
   -22.8236 -22.7843 -22.6936 -22.6908 -16.2557 -11.9918 -11.8990 -11.0882
   -10.6974 -10.3577 -10.3426 -10.2232 -10.0500  -9.6312  -9.4521  -9.2306
    -9.0710  -3.1065  -3.0073  -2.9955  -2.8674  -2.7434  -2.7235  -2.3476
    -2.1283  -1.8630  -1.6682  -1.5216  -1.4477  -1.2142  -1.0677  -0.7488
    -0.3493  -0.2407  -0.1471  -0.1417   0.0629   0.1770   0.2983   0.2985
     0.4224   0.7559   0.9493   1.2786   1.3129   2.0568   2.5249

     the Fermi energy is     0.4578 ev

!    total energy              =   -2278.29956856 Ry
     Harris-Foulkes estimate   =   -2278.29938918 Ry
     estimated scf accuracy    <       0.00002448 Ry

     The total energy is the sum of the following terms:

     one-electron contribution =  -10090.61561274 Ry
     hartree contribution      =    5098.59142734 Ry
     xc contribution           =    -806.25297108 Ry
     ewald contribution        =    3520.03038014 Ry
     electric field correction =       0.00242530 Ry
     smearing contrib. (-TS)   =      -0.05521751 Ry

     convergence has been achieved in   4 iterations

     negative rho (up, down):  5.248E-01 0.000E+00

     Forces acting on atoms (cartesian axes, Ry/au):

     atom    1 type  1   force =    -0.00022165   -0.00013537   -0.00615867
     atom    2 type  1   force =     0.00022310   -0.00012761   -0.00615312
     atom    3 type  1   force =     0.00000464    0.00026254   -0.00615339
     atom    4 type  1   force =    -0.00000330   -0.00000020   -0.00876591
     atom    5 type  1   force =    -0.00000056   -0.00300307    0.00740914
     atom    6 type  1   force =     0.00000239   -0.00000231    0.00230346
     atom    7 type  1   force =     0.00260062    0.00150087    0.00740958
     atom    8 type  1   force =    -0.00260518    0.00150429    0.00740439
     atom    9 type  1   force =    -0.00000043    0.00000415   -0.00085717
     atom   10 type  1   force =    -0.00000068   -0.00033681    0.00098701
     atom   11 type  1   force =    -0.00028654    0.00016390    0.00098172
     atom   12 type  1   force =     0.00028844    0.00016957    0.00098277
     atom   13 type  2   force =    -0.00000085    0.00000004    0.00061019

     Total force =     0.002085     Total SCF correction =     0.013793
     SCF correction compared to forces is large: reduce conv_thr to get better values

     bfgs converged in   2 scf cycles and   1 bfgs steps
     (criteria: energy <  1.0E+12 Ry, force <  1.9E-03 Ry/Bohr)

     End of BFGS Geometry Optimization

     Final energy   =   -2278.2995685551 Ry
Begin final coordinates

ATOMIC_POSITIONS (angstrom)
Bi       1.740631498   1.004954064  10.000000000    0   0   0
Bi       5.221894494   1.004954064  10.000000000    0   0   0
Bi       3.481262996   4.019816256  10.000000000    0   0   0
Bi       6.962525992   4.019816256  10.000000000    0   0   0
Bi       6.962525992   2.009908128  12.842439334    0   0   0
Bi       3.481262996   2.009908128  12.842439334    0   0   0
Bi       8.703157491   5.024770320  12.842439334    0   0   0
Bi       5.221894494   5.024770320  12.842439334    0   0   0
Bi      -0.000009535  -0.000001159  16.920686362
Bi       3.481250242  -0.100228736  15.847271921
Bi       1.653823279   3.064989616  15.847247713
Bi       5.308722496   3.064969839  15.847245932
O       -0.000004754   0.000000953  18.862876163
End final coordinates

     Writing output data file calc.save

     General routines

     Parallel routines

   This run was terminated on:  19:56: 3   7Jan2019

   JOB DONE.