     Program PWSCF v.5.1rc2 (svn rev. 11289) starts on  3May2018 at  7:59:19

     Current dimensions of program PWSCF are:
     Max number of different atomic species (ntypx) = 10
     Max number of k-points (npk) =  40000
     Max angular momentum in pseudopotentials (lmaxx) =  3
     Presently stress not available with electric field

     IMPORTANT: XC functional enforced from input :
     Exchange-correlation      = BEEF-VDW ( 1  4 27 13 2)
     Any further DFT definition will be discarded
     Please, verify this is what you really want

     Subspace diagonalization in iterative solution of the eigenvalue problem:
     a serial algorithm will be used

     bravais-lattice index     =            0
     lattice parameter (alat)  =       1.8897  a.u.
     unit-cell volume          =    4569.9960 (a.u.)^3
     number of atoms/cell      =           13
     number of atomic types    =            2
     number of electrons       =       193.00
     number of Kohn-Sham states=          106
     kinetic-energy cutoff     =      36.7493  Ry
     charge density cutoff     =     367.4932  Ry
     convergence threshold     =      1.0E-05
     mixing beta               =       0.3000
     number of iterations used =           10  plain     mixing
     Exchange-correlation      = BEEF-VDW ( 1  4 27 13 2)
     nstep                     =           50

     celldm(1)=   1.889726  celldm(2)=   0.000000  celldm(3)=   0.000000
     celldm(4)=   0.000000  celldm(5)=   0.000000  celldm(6)=   0.000000

     crystal axes: (cart. coord. in units of alat)
               a(1) = (   5.637663   0.000000   0.000000 )
               a(2) = (   2.818831   4.882359   0.000000 )
               a(3) = (   0.000000   0.000000  24.603132 )

     reciprocal axes: (cart. coord. in units 2 pi/alat)
               b(1) = (  0.177378 -0.102410  0.000000 )
               b(2) = (  0.000000  0.204819  0.000000 )
               b(3) = (  0.000000  0.000000  0.040645 )

     PseudoPot. # 1 for Pd read from file:
     /u/if/mamunm/psp/gbrv1.5pbe/Pd.UPF
     MD5 check sum: 2d733d2bc2cbfd217af676df1668a4bc
     Pseudo is Ultrasoft + core correction, Zval = 16.0
     Generated by new atomic code, or converted to UPF format
     Using radial grid of  887 points,  6 beta functions with:
                l(1) =   0
                l(2) =   0
                l(3) =   1
                l(4) =   1
                l(5) =   2
                l(6) =   2
     Q(r) pseudized with  8 coefficients,  rinner =    1.130   1.130   1.130
                                                       1.130   1.130

     PseudoPot. # 2 for H  read from file:
     /u/if/mamunm/psp/gbrv1.5pbe/H.UPF
     MD5 check sum: 761ae9a214b05c3daf00ab9f6b793d6f
     Pseudo is Ultrasoft, Zval =  1.0
     Generated by new atomic code, or converted to UPF format
     Using radial grid of  615 points,  2 beta functions with:
                l(1) =   0
                l(2) =   0
     Q(r) pseudized with  8 coefficients,  rinner =    0.700

     vdW kernel table read from file vdW_kernel_table
     MD5 check sum: 095c7af220d748ca6e76c0b4c6cfb241

     atomic species   valence    mass     pseudopotential
        Pd1           16.00   106.42000     Pd( 1.00)
        H1             1.00     1.00800     H ( 1.00)

     No symmetry found

   Cartesian axes

     site n.     atom                  positions (alat units)
         1           Pd1 tau(   1) = (   1.4094157   0.8137265  10.0000000  )
         2           Pd1 tau(   2) = (   4.2282471   0.8137265  10.0000000  )
         3           Pd1 tau(   3) = (   2.8188314   3.2549061  10.0000000  )
         4           Pd1 tau(   4) = (   5.6376627   3.2549061  10.0000000  )
         5           Pd1 tau(   5) = (   5.6376627   1.6274531  12.3015662  )
         6           Pd1 tau(   6) = (   2.8188314   1.6274531  12.3015662  )
         7           Pd1 tau(   7) = (   7.0470784   4.0686326  12.3015662  )
         8           Pd1 tau(   8) = (   4.2282471   4.0686326  12.3015662  )
         9           Pd1 tau(   9) = (   0.0000000   0.0000000  14.6031324  )
        10           Pd1 tau(  10) = (   2.8188314   0.0000000  14.6031324  )
        11           Pd1 tau(  11) = (   1.4094157   2.4411796  14.6031324  )
        12           Pd1 tau(  12) = (   4.2282471   2.4411796  14.6031324  )
        13           H1  tau(  13) = (   1.4094157   0.8137265  15.7081324  )

     number of k points=    20  Fermi-Dirac smearing, width (Ry)=  0.0110
                       cart. coord. in units 2pi/alat
        k(    1) = (   0.0000000   0.0000000   0.0000000), wk =   0.0555556
        k(    2) = (   0.0000000   0.0341365   0.0000000), wk =   0.1111111
        k(    3) = (   0.0000000   0.0682730   0.0000000), wk =   0.1111111
        k(    4) = (   0.0000000  -0.1024095   0.0000000), wk =   0.0555556
        k(    5) = (   0.0295631  -0.0170683   0.0000000), wk =   0.1111111
        k(    6) = (   0.0295631   0.0170683   0.0000000), wk =   0.1111111
        k(    7) = (   0.0295631   0.0512048   0.0000000), wk =   0.1111111
        k(    8) = (   0.0295631  -0.1194778   0.0000000), wk =   0.1111111
        k(    9) = (   0.0295631  -0.0853413   0.0000000), wk =   0.1111111
        k(   10) = (   0.0295631  -0.0512048   0.0000000), wk =   0.1111111
        k(   11) = (   0.0591262  -0.0341365   0.0000000), wk =   0.1111111
        k(   12) = (   0.0591262  -0.0000000   0.0000000), wk =   0.1111111
        k(   13) = (   0.0591262   0.0341365   0.0000000), wk =   0.1111111
        k(   14) = (   0.0591262  -0.1365460   0.0000000), wk =   0.1111111
        k(   15) = (   0.0591262  -0.1024095   0.0000000), wk =   0.1111111
        k(   16) = (   0.0591262  -0.0682730   0.0000000), wk =   0.1111111
        k(   17) = (  -0.0886892   0.0512048   0.0000000), wk =   0.0555556
        k(   18) = (  -0.0886892   0.0853413   0.0000000), wk =   0.1111111
        k(   19) = (  -0.0886892   0.1194778   0.0000000), wk =   0.1111111
        k(   20) = (  -0.0886892  -0.0512048   0.0000000), wk =   0.0555556

     Largest allocated arrays     est. size (Mb)     dimensions
     Largest temporary arrays     est. size (Mb)     dimensions

     Initial potential from superposition of free atoms
     Check: negative starting charge=   -0.904217

     starting charge  186.99991, renormalised to  193.00000

     negative rho (up, down):  9.332E-01 0.000E+00

     *
     * You are using vdW-DF for exchange-correlation in this calculation.
     * Please cite the following three references that made this development
     * possible:
     *
     *   M. Dion, H. Rydberg, E. Schroder, D. C. Langreth, and
     *   B. I. Lundqvist, Phys. Rev. Lett. 92, 246401 (2004).
     *
     *   T. Thonhauser, V. R. Cooper, S. Li, A. Puzder, P. Hyldgaard, and
     *   D. C. Langreth, Phys. Rev. B 76, 125112 (2007).
     *
     *   G. Roman-Perez and J. M. Soler, Phys. Rev. Lett. 103, 096102 (2009).
     *
     *
     * If you are using vdW-DF2, please also cite:
     *
     *   K. Lee, E. D. Murray, L. Kong, B. I. Lundqvist, and
     *   D. C. Langreth, Phys. Rev. B 82, 081101(R) (2010).
     *
     *
     * If you are calculating the stress with vdW-DF, please also cite:
     *
     *   R. Sabatini, E. Kucukbenli, B. Kolb, T. Thonhauser, and
     *   S. de Gironcoli, J. Phys.: Condens. Matter 24, 424209 (2012).
     *

     Carrying out vdW-DF run using the following parameters:

     Nqs =      20    Nr_points =    1024   r_max =   100.000
     q_mesh =
               0.00001000     0.04494208     0.09755937     0.15916263
               0.23128650     0.31572767     0.41458969     0.53033537
               0.66584808     0.82450364     1.01025438     1.22772762
               1.48234092     1.78043706     2.12944203     2.53805004
               3.01644009     3.57652955     4.23227104     5.00000000

     Gradients computed in reciprocal space

     Adding external electric field

     Computed dipole along edir(3) :
        Dipole               -0.2065 Ry au,         -0.5249 Debye
        Dipole field         -0.0006 Ry au

        Potential amp.        0.0515 Ry
        Total length         45.3309 bohr

     Starting wfc are  145 randomized atomic wfcs

     Self-consistent Calculation

     iteration #  1     ecut=    36.75 Ry     beta=0.30
     Davidson diagonalization with overlap
     ethr =  1.00E-02,  avg # of iterations =  3.0

[...]

     total energy              =   -2392.35009267 Ry
     Harris-Foulkes estimate   =   -2402.50938491 Ry
     estimated scf accuracy    <      22.97933888 Ry

[...]

     End of self-consistent calculation

          k = 0.0000 0.0000 0.0000 ( 17231 PWs)   bands (ev):

   -49.0882 -49.0882 -49.0839 -49.0583 -49.0042 -48.9897 -48.9896 -48.9366
   -48.9227 -48.9227 -48.9204 -48.8939 -48.8939 -48.8465 -48.8465 -48.8326
   -48.8326 -48.8277 -48.8188 -48.8188 -48.7792 -48.6707 -48.6681 -48.6680
   -48.6668 -48.6541 -48.6540 -48.6403 -48.6402 -48.6099 -48.6099 -48.5271
   -48.5125 -48.5044 -48.5003 -48.5002  -5.2400  -4.5036  -3.6169  -3.5844
    -3.5831  -3.5831  -3.5156  -3.3986  -3.3986  -3.3279  -3.2188  -3.2188
    -3.0959  -3.0447  -3.0447  -2.4438  -2.1184  -2.1184  -1.8270  -1.8213
    -1.8213  -1.6783  -1.5994  -1.5994  -1.4674  -1.4674  -1.4059  -1.3106
    -1.3106  -1.3040  -1.2861  -1.2861  -0.8388  -0.6792  -0.6792  -0.5258
    -0.3179  -0.3179  -0.2913  -0.2575  -0.2575  -0.0496  -0.0495   0.1287
     0.1287   0.3121   0.5100   0.5130   0.5130   0.5710   0.5710   0.6146
     0.6146   0.6698   0.7860   0.8068   0.8068   0.9149   0.9411   0.9411
     1.0265   1.0266   1.0267   1.7949   2.7543   3.1044   3.1044   3.7437
     4.3546   4.3546

[...]

          k =-0.0887 0.0512 0.0000 ( 17240 PWs)   bands (ev):

[...]

     the Fermi energy is     0.8052 ev

!    total energy              =   -2398.60176899 Ry
     Harris-Foulkes estimate   =   -2398.60176763 Ry
     estimated scf accuracy    <       0.00000223 Ry

     The total energy is the sum of the following terms:

     one-electron contribution =  -20216.28103644 Ry
     hartree contribution      =   10156.83810664 Ry
     xc contribution           =    -390.84374688 Ry
     ewald contribution        =    8051.80309184 Ry
     electric field correction =       0.00001026 Ry
     smearing contrib. (-TS)   =      -0.11819441 Ry

     convergence has been achieved in  17 iterations

 BEEF-vdW xc energy contributions
           1 :   -340.310960482499
           2 :    310.972540411444
           3 :   -260.921281242458
           4 :    203.641569513526
           5 :   -152.202921696536
           6 :    114.918365011021
           7 :   -93.5310431277683
           8 :    84.2374061618164
           9 :   -80.6595585137933
          10 :    77.1599442024866
          11 :   -70.9986325241473
          12 :    62.6069550255584
          13 :   -54.2774988978630
          14 :    48.2716126885096
          15 :   -45.4411391061798
          16 :    44.9610595067156
          17 :   -45.0714770572130
          18 :    44.2106009533525
          19 :   -41.8299196222758
          20 :    38.4847834656789
          21 :   -35.2817693967098
          22 :    33.1115593309419
          23 :   -32.1469770701619
          24 :    31.8503459165611
          25 :   -31.4061509552563
          26 :    30.2577774973934
          27 :   -28.4126748930884
          28 :    26.3591720295036
          29 :   -24.6937213583662
          30 :    23.7224029073665
          31 :   -33.1248653539234
          32 :   -24.4631535776207

     Forces acting on atoms (Ry/au):

     negative rho (up, down):  9.415E-01 0.000E+00
     atom    1 type  1   force =    -0.00000143    0.00000231   -0.00124679
     atom    2 type  1   force =     0.00000109    0.00121380   -0.00134530
     atom    3 type  1   force =     0.00105219   -0.00060584   -0.00140547
     atom    4 type  1   force =    -0.00105233   -0.00060866   -0.00142372
     atom    5 type  1   force =    -0.00004563    0.00003098   -0.00210989
     atom    6 type  1   force =     0.00004754    0.00003537   -0.00210455
     atom    7 type  1   force =     0.00000211   -0.00000772    0.00639346
     atom    8 type  1   force =    -0.00000317   -0.00005251   -0.00212207
     atom    9 type  1   force =     0.00482482    0.00278395    0.01336928
     atom   10 type  1   force =    -0.00482545    0.00278122    0.01336342
     atom   11 type  1   force =    -0.00000120   -0.00557936    0.01333131
     atom   12 type  1   force =     0.00000134    0.00000440    0.00019824
     atom   13 type  2   force =     0.00000012    0.00000206   -0.03489793

     Total force =     0.042967     Total SCF correction =     0.002115

     entering subroutine stress ...

     negative rho (up, down):  9.415E-01 0.000E+00
          total   stress  (Ry/bohr**3)                   (kbar)     P=   -9.96
  -0.00009190   0.00000000   0.00000000        -13.52      0.00      0.00
   0.00000000  -0.00009190  -0.00000000          0.00    -13.52     -0.00
   0.00000000  -0.00000000  -0.00001926          0.00     -0.00     -2.83

     BFGS Geometry Optimization

     number of scf cycles    =   1
     number of bfgs steps    =   0

     energy   new            =   -2398.6017689861 Ry

     new trust radius        =       0.0348979257 bohr
     new conv_thr            =       0.0000099958 Ry

ATOMIC_POSITIONS (crystal)
Pd1      0.166666667   0.166666667   0.406452311    0   0   0
Pd1      0.666666667   0.166666667   0.406452311    0   0   0
Pd1      0.166666667   0.666666667   0.406452311    0   0   0
Pd1      0.666666667   0.666666667   0.406452311    0   0   0
Pd1      0.833333333   0.333333333   0.500000000    0   0   0
Pd1      0.333333333   0.333333333   0.500000000    0   0   0
Pd1      0.833333333   0.833333333   0.500000000    0   0   0
Pd1      0.333333333   0.833333333   0.500000000    0   0   0
Pd1      0.000302010   0.000301739   0.593835243
Pd1      0.499396338   0.000301444   0.593835117
Pd1      0.000302248   0.499395278   0.593834426
Pd1      0.499999888   0.500000477   0.593551953
H1       0.166666567   0.166666890   0.637710066

     Writing output data file calc.save
     Check: negative starting charge=   -0.904217
     NEW-OLD atomic charge density approx. for the potential
     Check: negative starting charge=   -0.904113

[...]

     energy   old            =   -2398.6017689861 Ry
     energy   new            =   -2398.6035013195 Ry

     CASE: energy  _new < energy  _old

     WARNING: bfgs curvature condition failed, Theta= 0.906
     new trust radius        =       0.0523468886 bohr
     new conv_thr            =       0.0000001000 Ry

[...]

     Total force =     0.009449     Total SCF correction =     0.000072

[...]

     Total force =     0.008386     Total SCF correction =     0.000918
     SCF correction compared to forces is large: reduce conv_thr to get better values

[...]

     number of scf cycles    =  12
     number of bfgs steps    =  11

     energy   old            =   -2398.6116535300 Ry
     energy   new            =   -2398.6117703507 Ry

     CASE: energy  _new < energy  _old

     new trust radius        =       0.0146013296 bohr
     new conv_thr            =       0.0000001000 Ry

ATOMIC_POSITIONS (crystal)
Pd1      0.166666667   0.166666667   0.406452311    0   0   0
Pd1      0.666666667   0.166666667   0.406452311    0   0   0
Pd1      0.166666667   0.666666667   0.406452311    0   0   0
Pd1      0.666666667   0.666666667   0.406452311    0   0   0
Pd1      0.833333333   0.333333333   0.500000000    0   0   0
Pd1      0.333333333   0.333333333   0.500000000    0   0   0
Pd1      0.833333333   0.833333333   0.500000000    0   0   0
Pd1      0.333333333   0.833333333   0.500000000    0   0   0
Pd1     -0.001720980  -0.001723346   0.594331159
Pd1      0.503444363  -0.001725884   0.594332260
Pd1     -0.001725356   0.503445803   0.594332614
Pd1      0.500001747   0.500001273   0.593646596
H1       0.166664578   0.166669462   0.626837496

     Writing output data file calc.save
     Check: negative starting charge=   -0.904180
     NEW-OLD atomic charge density approx. for the potential
     Check: negative starting charge=   -0.903968

[...]

     Self-consistent Calculation

[...]

     total energy              =   -2398.61180117 Ry
     Harris-Foulkes estimate   =   -2398.61180133 Ry
     estimated scf accuracy    <       0.00000109 Ry

     iteration #  8     ecut=    36.75 Ry     beta=0.30
     Davidson diagonalization with overlap
     ethr =  4.53E-10,  avg # of iterations =  1.1

[...]

     negative rho (up, down):  9.415E-01 0.000E+00

     Adding external electric field

     Computed dipole along edir(3) :
        Dipole               -0.0308 Ry au,         -0.0784 Debye
        Dipole field         -0.0001 Ry au

        Potential amp.        0.0077 Ry
        Total length         45.3309 bohr

     End of self-consistent calculation

[...]

          k = 0.0591-0.0683 0.0000 ( 17183 PWs)   bands (ev):

[...]

          k =-0.0887-0.0512 0.0000 ( 17240 PWs)   bands (ev):

   -49.0136 -49.0051 -48.9994 -48.9500 -48.9431 -48.9369 -48.9323 -48.9301
   -48.9228 -48.9213 -48.8874 -48.8798 -48.8783 -48.8414 -48.8279 -48.8252
   -48.8154 -48.7671 -48.7644 -48.7600 -48.6993 -48.6985 -48.6853 -48.6839
   -48.6699 -48.6326 -48.6234 -48.6152 -48.6133 -48.6120 -48.6069 -48.4906
   -48.4861 -48.4817 -48.4766 -48.4749  -5.1108  -3.4990  -3.4307  -2.9673
    -2.9107  -2.8677  -2.8585  -2.7509  -2.7129  -2.6436  -2.5687  -2.5218
    -2.5145  -2.3877  -2.3405  -2.2664  -2.2515  -1.9478  -1.9346  -1.8923
    -1.8712  -1.8438  -1.8163  -1.6040  -1.5743  -1.3663  -1.3512  -1.3066
    -1.2475  -1.1778  -1.1384  -1.0638  -1.0439  -1.0434  -1.0058  -0.9744
    -0.9632  -0.9500  -0.8916  -0.8552  -0.5980  -0.5955  -0.5218  -0.4771
    -0.4507  -0.4222  -0.3549  -0.2682  -0.2561  -0.2331  -0.1712  -0.1558
     0.1005   0.1212   0.1453   0.1814   0.5112   0.5606   0.6129   0.6424
     0.6864   0.7172   0.8665   0.8706   2.4977   3.0636   3.2907   3.3196
     4.0223   4.3046

     the Fermi energy is     0.8318 ev

!    total energy              =   -2398.61180123 Ry
     Harris-Foulkes estimate   =   -2398.61180126 Ry
     estimated scf accuracy    <       0.00000005 Ry

     The total energy is the sum of the following terms:

     one-electron contribution =  -20191.59709080 Ry
     hartree contribution      =   10144.63870820 Ry
     xc contribution           =    -390.90144672 Ry
     ewald contribution        =    8039.36473832 Ry
     electric field correction =       0.00000262 Ry
     smearing contrib. (-TS)   =      -0.11671286 Ry

     convergence has been achieved in   8 iterations

 BEEF-vdW xc energy contributions
           1 :   -340.368279078164
           2 :    311.035074254023
           3 :   -260.986182512512
           4 :    203.696877431485
           5 :   -152.231528340323
           6 :    114.905242377186
           7 :   -93.4725672076506
           8 :    84.1465902594427
           9 :   -80.5624025315296
          10 :    77.0841449357881
          11 :   -70.9608829081582
          12 :    62.6061301242135
          13 :   -54.2975328504934
          14 :    48.2917522715374
          15 :   -45.4473902584282
          16 :    44.9528952832454
          17 :   -45.0605814758556
          18 :    44.2126987643283
          19 :   -41.8546525006573
          20 :    38.5289939982039
          21 :   -35.3298989913608
          22 :    33.1434515010707
          23 :   -32.1486436317115
          24 :    31.8217589671910
          25 :   -31.3613722038758
          26 :    30.2175210507084
          27 :   -28.3937597594864
          28 :    26.3660536728759
          29 :   -24.7165628626803
          30 :    23.7425596683640
          31 :   -33.1286328051027
          32 :   -24.4670092285704

     Forces acting on atoms (Ry/au):

     negative rho (up, down):  9.415E-01 0.000E+00
     atom    1 type  1   force =    -0.00000556    0.00000321   -0.00097441
     atom    2 type  1   force =     0.00000596    0.00123668   -0.00122119
     atom    3 type  1   force =     0.00106760   -0.00061663   -0.00122685
     atom    4 type  1   force =    -0.00106792   -0.00062338   -0.00122134
     atom    5 type  1   force =     0.00063114   -0.00036590    0.00044709
     atom    6 type  1   force =    -0.00063241   -0.00036941    0.00045747
     atom    7 type  1   force =    -0.00000220    0.00000097    0.00287836
     atom    8 type  1   force =     0.00000284    0.00073210    0.00045364
     atom    9 type  1   force =     0.00039034    0.00023480    0.00033771
     atom   10 type  1   force =    -0.00038994    0.00023542    0.00033899
     atom   11 type  1   force =    -0.00000015   -0.00045869    0.00033126
     atom   12 type  1   force =     0.00000071   -0.00000803   -0.00012756
     atom   13 type  2   force =    -0.00000041   -0.00000113   -0.00047318

     Total force =     0.001097     Total SCF correction =     0.000417
     SCF correction compared to forces is large: reduce conv_thr to get better values

     entering subroutine stress ...

     negative rho (up, down):  9.415E-01 0.000E+00
          total   stress  (Ry/bohr**3)                   (kbar)     P=   -8.61
  -0.00008183   0.00000000  -0.00000000        -12.04      0.00     -0.00
   0.00000000  -0.00008184   0.00000000          0.00    -12.04      0.00
  -0.00000000   0.00000000  -0.00001198         -0.00      0.00     -1.76

     bfgs converged in  13 scf cycles and  12 bfgs steps
     (criteria: energy <  1.0E+00, force <  1.9E-03)

     End of BFGS Geometry Optimization

     Final energy   =   -2398.6118012320 Ry
Begin final coordinates

ATOMIC_POSITIONS (crystal)
Pd1      0.166666667   0.166666667   0.406452311    0   0   0
Pd1      0.666666667   0.166666667   0.406452311    0   0   0
Pd1      0.166666667   0.666666667   0.406452311    0   0   0
Pd1      0.666666667   0.666666667   0.406452311    0   0   0
Pd1      0.833333333   0.333333333   0.500000000    0   0   0
Pd1      0.333333333   0.333333333   0.500000000    0   0   0
Pd1      0.833333333   0.833333333   0.500000000    0   0   0
Pd1      0.333333333   0.833333333   0.500000000    0   0   0
Pd1     -0.001720980  -0.001723346   0.594331159
Pd1      0.503444363  -0.001725884   0.594332260
Pd1     -0.001725356   0.503445803   0.594332614
Pd1      0.500001747   0.500001273   0.593646596
H1       0.166664578   0.166669462   0.626837496
End final coordinates

     Writing output data file calc.save

     General routines

     Parallel routines

   This run was terminated on:   9:14:53   3May2018

   JOB DONE.
Job  /afs/slac/g/suncat/bin/suncat-tsmpirun -x LD_LIBRARY_PATH -wdir /scratch/qe678314_eH9zA pw.x -npool 4 -in pw.inp

TID   HOST_NAME   COMMAND_LINE            STATUS            TERMINATION_TIME
00000 suncat0072 pw.x -npool 4 -i  Done                     05/03/2018 09:14:53
00001 suncat0072 pw.x -npool 4 -i  Done                     05/03/2018 09:14:53
00002 suncat0072 pw.x -npool 4 -i  Done                     05/03/2018 09:14:53
00003 suncat0072 pw.x -npool 4 -i  Done                     05/03/2018 09:14:53
00004 suncat0072 pw.x -npool 4 -i  Done                     05/03/2018 09:14:53
00005 suncat0072 pw.x -npool 4 -i  Done                     05/03/2018 09:14:53
00006 suncat0072 pw.x -npool 4 -i  Done                     05/03/2018 09:14:53
00007 suncat0072 pw.x -npool 4 -i  Done                     05/03/2018 09:14:53
00008 suncat0070 pw.x -npool 4 -i  Done                     05/03/2018 09:14:53
00009 suncat0070 pw.x -npool 4 -i  Done                     05/03/2018 09:14:53
00010 suncat0070 pw.x -npool 4 -i  Done                     05/03/2018 09:14:53
00011 suncat0070 pw.x -npool 4 -i  Done                     05/03/2018 09:14:53
00012 suncat0070 pw.x -npool 4 -i  Done                     05/03/2018 09:14:53
00013 suncat0070 pw.x -npool 4 -i  Done                     05/03/2018 09:14:53
00014 suncat0070 pw.x -npool 4 -i  Done                     05/03/2018 09:14:53
00015 suncat0070 pw.x -npool 4 -i  Done                     05/03/2018 09:14:53
00016 suncat0035 pw.x -npool 4 -i  Done                     05/03/2018 09:14:53
00017 suncat0035 pw.x -npool 4 -i  Done                     05/03/2018 09:14:53
00018 suncat0035 pw.x -npool 4 -i  Done                     05/03/2018 09:14:53
00019 suncat0035 pw.x -npool 4 -i  Done                     05/03/2018 09:14:53
00020 suncat0035 pw.x -npool 4 -i  Done                     05/03/2018 09:14:53
00021 suncat0035 pw.x -npool 4 -i  Done                     05/03/2018 09:14:53
00022 suncat0035 pw.x -npool 4 -i  Done                     05/03/2018 09:14:53
00023 suncat0035 pw.x -npool 4 -i  Done                     05/03/2018 09:14:53
00024 suncat0021 pw.x -npool 4 -i  Done                     05/03/2018 09:14:53
00025 suncat0021 pw.x -npool 4 -i  Done                     05/03/2018 09:14:53
00026 suncat0021 pw.x -npool 4 -i  Done                     05/03/2018 09:14:53
00027 suncat0021 pw.x -npool 4 -i  Done                     05/03/2018 09:14:53
00028 suncat0021 pw.x -npool 4 -i  Done                     05/03/2018 09:14:53
00029 suncat0021 pw.x -npool 4 -i  Done                     05/03/2018 09:14:53
00030 suncat0021 pw.x -npool 4 -i  Done                     05/03/2018 09:14:53
00031 suncat0021 pw.x -npool 4 -i  Done                     05/03/2018 09:14:53