     Program PWSCF v.5.1rc2 (svn rev. 11289) starts on 14Jan2018 at 15: 9:29

     Current dimensions of program PWSCF are:
     Max number of different atomic species (ntypx) = 10
     Max number of k-points (npk) =  40000
     Max angular momentum in pseudopotentials (lmaxx) =  3
     Presently stress not available with electric field

     IMPORTANT: XC functional enforced from input :
     Exchange-correlation      = BEEF-VDW ( 1  4 27 13 2)
     Any further DFT definition will be discarded
     Please, verify this is what you really want

     Subspace diagonalization in iterative solution of the eigenvalue problem:
     a serial algorithm will be used

     bravais-lattice index     =            0
     lattice parameter (alat)  =       1.8897  a.u.
     unit-cell volume          =    4299.0717 (a.u.)^3
     number of atoms/cell      =           13
     number of atomic types    =            2
     number of electrons       =       185.00
     number of Kohn-Sham states=          102
     kinetic-energy cutoff     =      36.7493  Ry
     charge density cutoff     =     367.4932  Ry
     convergence threshold     =      1.0E-05
     mixing beta               =       0.3000
     number of iterations used =           10  plain     mixing
     Exchange-correlation      = BEEF-VDW ( 1  4 27 13 2)
     nstep                     =           50

     celldm(1)=   1.889726  celldm(2)=   0.000000  celldm(3)=   0.000000
     celldm(4)=   0.000000  celldm(5)=   0.000000  celldm(6)=   0.000000

     crystal axes: (cart. coord. in units of alat)
               a(1) = (   5.482164   0.000000   0.000000 )
               a(2) = (   2.741082   4.747693   0.000000 )
               a(3) = (   0.000000   0.000000  24.476168 )

     reciprocal axes: (cart. coord. in units 2 pi/alat)
               b(1) = (  0.182410 -0.105314  0.000000 )
               b(2) = (  0.000000  0.210629  0.000000 )
               b(3) = (  0.000000  0.000000  0.040856 )

     PseudoPot. # 1 for Ir read from file:
     /afs/slac.stanford.edu/u/if/mamunm/psp/gbrv1.5pbe/Ir.UPF
     MD5 check sum: 8836f839c3459d2b385c504ce6d91f2c
     Pseudo is Ultrasoft + core correction, Zval = 15.0
     Generated by new atomic code, or converted to UPF format
     Using radial grid of  983 points,  7 beta functions with:
                l(1) =   0
                l(2) =   0
                l(3) =   1
                l(4) =   1
                l(5) =   1
                l(6) =   2
                l(7) =   2
     Q(r) pseudized with  8 coefficients,  rinner =    1.400   1.400   1.400
                                                       1.400   1.400

     PseudoPot. # 2 for N  read from file:
     /afs/slac.stanford.edu/u/if/mamunm/psp/gbrv1.5pbe/N.UPF
     MD5 check sum: 95339753478d7afb44899504a8723017
     Pseudo is Ultrasoft + core correction, Zval =  5.0
     Generated by new atomic code, or converted to UPF format
     Using radial grid of  729 points,  4 beta functions with:
                l(1) =   0
                l(2) =   0
                l(3) =   1
                l(4) =   1
     Q(r) pseudized with  8 coefficients,  rinner =    0.900   0.900   0.900

     vdW kernel table read from file vdW_kernel_table
     MD5 check sum: 095c7af220d748ca6e76c0b4c6cfb241

     atomic species   valence    mass     pseudopotential
        Ir1           15.00   192.21700     Ir( 1.00)
        N1             5.00    14.00700     N ( 1.00)

     No symmetry found

   Cartesian axes

     site n.     atom                  positions (alat units)
         1           Ir1 tau(   1) = (   1.3705410   0.7912822  10.0000000  )
         2           Ir1 tau(   2) = (   4.1116229   0.7912822  10.0000000  )
         3           Ir1 tau(   3) = (   2.7410819   3.1651288  10.0000000  )
         4           Ir1 tau(   4) = (   5.4821639   3.1651288  10.0000000  )
         5           Ir1 tau(   5) = (   5.4821639   1.5825644  12.2380840  )
         6           Ir1 tau(   6) = (   2.7410819   1.5825644  12.2380840  )
         7           Ir1 tau(   7) = (   6.8527049   3.9564110  12.2380840  )
         8           Ir1 tau(   8) = (   4.1116229   3.9564110  12.2380840  )
         9           Ir1 tau(   9) = (   0.0000000   0.0000000  14.4761681  )
        10           Ir1 tau(  10) = (   2.7410819   0.0000000  14.4761681  )
        11           Ir1 tau(  11) = (   1.3705410   2.3738466  14.4761681  )
        12           Ir1 tau(  12) = (   4.1116229   2.3738466  14.4761681  )
        13           N1  tau(  13) = (   0.0000000   0.0000000  16.5961681  )

     number of k points=    20  Fermi-Dirac smearing, width (Ry)=  0.0110
                       cart. coord. in units 2pi/alat
        k(    1) = (   0.0000000   0.0000000   0.0000000), wk =   0.0555556
        k(    2) = (   0.0000000   0.0351048   0.0000000), wk =   0.1111111
        k(    3) = (   0.0000000   0.0702095   0.0000000), wk =   0.1111111
        k(    4) = (   0.0000000  -0.1053143   0.0000000), wk =   0.0555556
        k(    5) = (   0.0304016  -0.0175524   0.0000000), wk =   0.1111111
        k(    6) = (   0.0304016   0.0175524   0.0000000), wk =   0.1111111
        k(    7) = (   0.0304016   0.0526572   0.0000000), wk =   0.1111111
        k(    8) = (   0.0304016  -0.1228667   0.0000000), wk =   0.1111111
        k(    9) = (   0.0304016  -0.0877619   0.0000000), wk =   0.1111111
        k(   10) = (   0.0304016  -0.0526572   0.0000000), wk =   0.1111111
        k(   11) = (   0.0608032  -0.0351048   0.0000000), wk =   0.1111111
        k(   12) = (   0.0608032   0.0000000   0.0000000), wk =   0.1111111
        k(   13) = (   0.0608032   0.0351048   0.0000000), wk =   0.1111111
        k(   14) = (   0.0608032  -0.1404191   0.0000000), wk =   0.1111111
        k(   15) = (   0.0608032  -0.1053143   0.0000000), wk =   0.1111111
        k(   16) = (   0.0608032  -0.0702095   0.0000000), wk =   0.1111111
        k(   17) = (  -0.0912049   0.0526572   0.0000000), wk =   0.0555556
        k(   18) = (  -0.0912049   0.0877619   0.0000000), wk =   0.1111111
        k(   19) = (  -0.0912049   0.1228667   0.0000000), wk =   0.1111111
        k(   20) = (  -0.0912049  -0.0526572   0.0000000), wk =   0.0555556

     Largest allocated arrays     est. size (Mb)     dimensions
     Largest temporary arrays     est. size (Mb)     dimensions

     Initial potential from superposition of free atoms
     Check: negative starting charge=   -4.361663

     starting charge  178.99961, renormalised to  185.00000

     negative rho (up, down):  4.508E+00 0.000E+00

     *
     * You are using vdW-DF for exchange-correlation in this calculation.
     * Please cite the following three references that made this development
     * possible:
     *
     *   M. Dion, H. Rydberg, E. Schroder, D. C. Langreth, and
     *   B. I. Lundqvist, Phys. Rev. Lett. 92, 246401 (2004).
     *
     *   T. Thonhauser, V. R. Cooper, S. Li, A. Puzder, P. Hyldgaard, and
     *   D. C. Langreth, Phys. Rev. B 76, 125112 (2007).
     *
     *   G. Roman-Perez and J. M. Soler, Phys. Rev. Lett. 103, 096102 (2009).
     *
     *
     * If you are using vdW-DF2, please also cite:
     *
     *   K. Lee, E. D. Murray, L. Kong, B. I. Lundqvist, and
     *   D. C. Langreth, Phys. Rev. B 82, 081101(R) (2010).
     *
     *
     * If you are calculating the stress with vdW-DF, please also cite:
     *
     *   R. Sabatini, E. Kucukbenli, B. Kolb, T. Thonhauser, and
     *   S. de Gironcoli, J. Phys.: Condens. Matter 24, 424209 (2012).
     *

     Carrying out vdW-DF run using the following parameters:

     Nqs =      20    Nr_points =    1024   r_max =   100.000
     q_mesh =
               0.00001000     0.04494208     0.09755937     0.15916263
               0.23128650     0.31572767     0.41458969     0.53033537
               0.66584808     0.82450364     1.01025438     1.22772762
               1.48234092     1.78043706     2.12944203     2.53805004
               3.01644009     3.57652955     4.23227104     5.00000000

     Gradients computed in reciprocal space

     Adding external electric field

     Computed dipole along edir(3) :
        Dipole               -1.3803 Ry au,         -3.5083 Debye
        Dipole field         -0.0040 Ry au

        Potential amp.        0.3639 Ry
        Total length         45.0969 bohr

     Starting wfc are  148 randomized atomic wfcs

     Self-consistent Calculation

     iteration #  1     ecut=    36.75 Ry     beta=0.30
     Davidson diagonalization with overlap
     ethr =  1.00E-02,  avg # of iterations =  2.5

[...]

     total energy              =   -2196.54543344 Ry
     Harris-Foulkes estimate   =   -2223.03897327 Ry
     estimated scf accuracy    <      56.08150262 Ry

     iteration #  2     ecut=    36.75 Ry     beta=0.30
     Davidson diagonalization with overlap
     c_bands:  3 eigenvalues not converged
     ethr =  1.00E-02,  avg # of iterations = 14.6

[...]

     End of self-consistent calculation

          k = 0.0000 0.0000 0.0000 ( 16073 PWs)   bands (ev):

   -48.0679 -48.0297 -48.0296 -47.9656 -47.9045 -47.9044 -47.8032 -47.7565
   -47.7434 -47.7433 -47.6347 -47.6001 -47.6000 -47.5003 -47.4797 -47.4797
   -47.4522 -47.4521 -47.4345 -47.2198 -47.2198 -47.1279 -47.1127 -47.0803
   -47.0802 -47.0799 -47.0797 -47.0514 -47.0411 -47.0231 -47.0231 -46.9948
   -46.9948 -46.9567 -46.9567 -46.9419 -10.5068  -7.4089  -5.5132  -5.1715
    -4.8577  -4.8577  -4.8517  -4.5670  -4.5669  -4.5485  -4.0908  -4.0908
    -4.0549  -3.7912  -3.7912  -3.7577  -2.4285  -2.4285  -2.2671  -1.8459
    -1.7608  -1.7608  -1.5884  -1.3916  -1.3916  -1.2991  -0.9639  -0.9639
    -0.9115  -0.9115  -0.8806  -0.7596  -0.6445  -0.6445  -0.3140  -0.3139
     0.3757   0.3757   0.6844   0.9691   0.9691   0.9947   1.0549   1.0626
     1.0626   1.6022   1.7002   1.7002   1.9734   1.9734   2.4145   2.4145
     2.5075   2.5341   2.5341   2.6191   2.6869   2.6869   3.0214   3.0241
     3.0242   3.2671   3.4082   3.4082   3.5406   3.5927

[...]

          k =-0.0912 0.0527 0.0000 ( 16164 PWs)   bands (ev):

[...]

     the Fermi energy is     2.0700 ev

!    total energy              =   -2219.83517389 Ry
     Harris-Foulkes estimate   =   -2219.83523236 Ry
     estimated scf accuracy    <       0.00000922 Ry

     The total energy is the sum of the following terms:

     one-electron contribution =  -18695.78729443 Ry
     hartree contribution      =    9377.66740270 Ry
     xc contribution           =    -628.70234679 Ry
     ewald contribution        =    7727.08841155 Ry
     electric field correction =       0.00025894 Ry
     smearing contrib. (-TS)   =      -0.10160585 Ry

     convergence has been achieved in  20 iterations

 BEEF-vdW xc energy contributions
           1 :   -556.698664216537
           2 :    517.672093747193
           3 :   -447.996651516385
           4 :    361.453369697032
           5 :   -273.070515227596
           6 :    195.292631425723
           7 :   -135.409774011151
           8 :    94.7789580021525
           9 :   -69.8619737090223
          10 :    54.5175562955301
          11 :   -42.6263849048767
          12 :    30.1121962830516
          13 :   -15.7862696925790
[...]

[...]

   This run was terminated on:  15:42: 9  14Jan2018

[...]

     Total force =     0.322275     Total SCF correction =     0.006830

[...]

   This run was terminated on:  17: 1:22  14Jan2018

[...]

     Program PWSCF v.5.1rc2 (svn rev. 11289) starts on 14Jan2018 at 17: 1:28

[...]

     Program PWSCF v.5.1rc2 (svn rev. 11289) starts on 14Jan2018 at 17:17: 7

[...]

     Total force =     0.056957     Total SCF correction =     0.005406

[...]

   This run was terminated on:  17:32:41  14Jan2018

[...]

   This run was terminated on:  17:48: 7  14Jan2018

[...]

     Program PWSCF v.5.1rc2 (svn rev. 11289) starts on 14Jan2018 at 17:48:13

     Current dimensions of program PWSCF are:
     Max number of different atomic species (ntypx) = 10
     Max number of k-points (npk) =  40000
     Max angular momentum in pseudopotentials (lmaxx) =  3
     Presently stress not available with electric field

     IMPORTANT: XC functional enforced from input :
     Exchange-correlation      = BEEF-VDW ( 1  4 27 13 2)
     Any further DFT definition will be discarded
     Please, verify this is what you really want

     Subspace diagonalization in iterative solution of the eigenvalue problem:
     a serial algorithm will be used

     bravais-lattice index     =            0
     lattice parameter (alat)  =       1.8897  a.u.
     unit-cell volume          =    4299.0717 (a.u.)^3
     number of atoms/cell      =           13
     number of atomic types    =            2
     number of electrons       =       185.00
     number of Kohn-Sham states=          102
     kinetic-energy cutoff     =      36.7493  Ry
     charge density cutoff     =     367.4932  Ry
     convergence threshold     =      1.0E-05
     mixing beta               =       0.3000
     number of iterations used =           10  plain     mixing
     Exchange-correlation      = BEEF-VDW ( 1  4 27 13 2)
     nstep                     =           50

     celldm(1)=   1.889726  celldm(2)=   0.000000  celldm(3)=   0.000000
     celldm(4)=   0.000000  celldm(5)=   0.000000  celldm(6)=   0.000000

     crystal axes: (cart. coord. in units of alat)
               a(1) = (   5.482164   0.000000   0.000000 )
               a(2) = (   2.741082   4.747693   0.000000 )
               a(3) = (   0.000000   0.000000  24.476168 )

     reciprocal axes: (cart. coord. in units 2 pi/alat)
               b(1) = (  0.182410 -0.105314  0.000000 )
               b(2) = (  0.000000  0.210629  0.000000 )
               b(3) = (  0.000000  0.000000  0.040856 )

     PseudoPot. # 1 for Ir read from file:
     /afs/slac.stanford.edu/u/if/mamunm/psp/gbrv1.5pbe/Ir.UPF
     MD5 check sum: 8836f839c3459d2b385c504ce6d91f2c
     Pseudo is Ultrasoft + core correction, Zval = 15.0
     Generated by new atomic code, or converted to UPF format
     Using radial grid of  983 points,  7 beta functions with:
                l(1) =   0
                l(2) =   0
                l(3) =   1
                l(4) =   1
                l(5) =   1
                l(6) =   2
                l(7) =   2
     Q(r) pseudized with  8 coefficients,  rinner =    1.400   1.400   1.400
                                                       1.400   1.400

     PseudoPot. # 2 for N  read from file:
     /afs/slac.stanford.edu/u/if/mamunm/psp/gbrv1.5pbe/N.UPF
     MD5 check sum: 95339753478d7afb44899504a8723017
     Pseudo is Ultrasoft + core correction, Zval =  5.0
     Generated by new atomic code, or converted to UPF format
     Using radial grid of  729 points,  4 beta functions with:
                l(1) =   0
                l(2) =   0
                l(3) =   1
                l(4) =   1
     Q(r) pseudized with  8 coefficients,  rinner =    0.900   0.900   0.900

     vdW kernel table read from file vdW_kernel_table
     MD5 check sum: 095c7af220d748ca6e76c0b4c6cfb241

     atomic species   valence    mass     pseudopotential
        Ir1           15.00   192.21700     Ir( 1.00)
        N1             5.00    14.00700     N ( 1.00)

     No symmetry found

   Cartesian axes

     site n.     atom                  positions (alat units)
         1           Ir1 tau(   1) = (   1.3705410   0.7912822  10.0000000  )
         2           Ir1 tau(   2) = (   4.1116229   0.7912822  10.0000000  )
         3           Ir1 tau(   3) = (   2.7410819   3.1651288  10.0000000  )
         4           Ir1 tau(   4) = (   5.4821639   3.1651288  10.0000000  )
         5           Ir1 tau(   5) = (   5.4821639   1.5825644  12.2380840  )
         6           Ir1 tau(   6) = (   2.7410819   1.5825644  12.2380840  )
         7           Ir1 tau(   7) = (   6.8527049   3.9564110  12.2380840  )
         8           Ir1 tau(   8) = (   4.1116229   3.9564110  12.2380840  )
         9           Ir1 tau(   9) = (   2.7411557   4.7476696  14.9509424  )
        10           Ir1 tau(  10) = (   2.7409300   0.0051538  14.4096650  )
        11           Ir1 tau(  11) = (   1.3750035   2.3711518  14.4096811  )
        12           Ir1 tau(  12) = (   4.1071571   2.3713176  14.4096283  )
        13           N1  tau(  13) = (   8.2232071   4.7476664  16.6170518  )

     number of k points=    20  Fermi-Dirac smearing, width (Ry)=  0.0110
                       cart. coord. in units 2pi/alat
        k(    1) = (   0.0000000   0.0000000   0.0000000), wk =   0.0555556
        k(    2) = (   0.0000000   0.0351048   0.0000000), wk =   0.1111111
        k(    3) = (   0.0000000   0.0702095   0.0000000), wk =   0.1111111
        k(    4) = (   0.0000000  -0.1053143   0.0000000), wk =   0.0555556
        k(    5) = (   0.0304016  -0.0175524   0.0000000), wk =   0.1111111
        k(    6) = (   0.0304016   0.0175524   0.0000000), wk =   0.1111111
        k(    7) = (   0.0304016   0.0526572   0.0000000), wk =   0.1111111
        k(    8) = (   0.0304016  -0.1228667   0.0000000), wk =   0.1111111
        k(    9) = (   0.0304016  -0.0877619   0.0000000), wk =   0.1111111
        k(   10) = (   0.0304016  -0.0526572   0.0000000), wk =   0.1111111
        k(   11) = (   0.0608032  -0.0351048   0.0000000), wk =   0.1111111
        k(   12) = (   0.0608032   0.0000000   0.0000000), wk =   0.1111111
        k(   13) = (   0.0608032   0.0351048   0.0000000), wk =   0.1111111
        k(   14) = (   0.0608032  -0.1404191   0.0000000), wk =   0.1111111
        k(   15) = (   0.0608032  -0.1053143   0.0000000), wk =   0.1111111
        k(   16) = (   0.0608032  -0.0702095   0.0000000), wk =   0.1111111
        k(   17) = (  -0.0912049   0.0526572   0.0000000), wk =   0.0555556
        k(   18) = (  -0.0912049   0.0877619   0.0000000), wk =   0.1111111
        k(   19) = (  -0.0912049   0.1228667   0.0000000), wk =   0.1111111
        k(   20) = (  -0.0912049  -0.0526572   0.0000000), wk =   0.0555556

     Largest allocated arrays     est. size (Mb)     dimensions
     Largest temporary arrays     est. size (Mb)     dimensions

     Initial potential from superposition of free atoms
     Check: negative starting charge=   -4.363752

     starting charge  178.99961, renormalised to  185.00000

[...]

     *
     * You are using vdW-DF for exchange-correlation in this calculation.
     * Please cite the following three references that made this development
     * possible:
     *
     *   M. Dion, H. Rydberg, E. Schroder, D. C. Langreth, and
     *   B. I. Lundqvist, Phys. Rev. Lett. 92, 246401 (2004).
     *
     *   T. Thonhauser, V. R. Cooper, S. Li, A. Puzder, P. Hyldgaard, and
     *   D. C. Langreth, Phys. Rev. B 76, 125112 (2007).
     *
     *   G. Roman-Perez and J. M. Soler, Phys. Rev. Lett. 103, 096102 (2009).
     *
     *
     * If you are using vdW-DF2, please also cite:
     *
     *   K. Lee, E. D. Murray, L. Kong, B. I. Lundqvist, and
     *   D. C. Langreth, Phys. Rev. B 82, 081101(R) (2010).
     *
     *
     * If you are calculating the stress with vdW-DF, please also cite:
     *
     *   R. Sabatini, E. Kucukbenli, B. Kolb, T. Thonhauser, and
     *   S. de Gironcoli, J. Phys.: Condens. Matter 24, 424209 (2012).
     *

     Carrying out vdW-DF run using the following parameters:

     Nqs =      20    Nr_points =    1024   r_max =   100.000
     q_mesh =
               0.00001000     0.04494208     0.09755937     0.15916263
               0.23128650     0.31572767     0.41458969     0.53033537
               0.66584808     0.82450364     1.01025438     1.22772762
               1.48234092     1.78043706     2.12944203     2.53805004
               3.01644009     3.57652955     4.23227104     5.00000000

     Gradients computed in reciprocal space

[...]

     Starting wfc are  148 randomized atomic wfcs

     Self-consistent Calculation

[...]

     total energy              =   -2219.97326190 Ry
     Harris-Foulkes estimate   =   -2219.97326567 Ry
     estimated scf accuracy    <       0.00002463 Ry

     iteration # 21     ecut=    36.75 Ry     beta=0.30
     Davidson diagonalization with overlap
     ethr =  1.33E-08,  avg # of iterations =  2.0

[...]

     negative rho (up, down):  3.876E+00 0.000E+00

     Adding external electric field

     Computed dipole along edir(3) :
        Dipole               -0.1051 Ry au,         -0.2670 Debye
        Dipole field         -0.0003 Ry au

        Potential amp.        0.0277 Ry
        Total length         45.0969 bohr

     End of self-consistent calculation

[...]

          k = 0.0608-0.0702 0.0000 ( 16191 PWs)   bands (ev):

[...]

          k =-0.0912-0.0527 0.0000 ( 16164 PWs)   bands (ev):

   -49.1713 -48.1051 -48.0905 -47.6111 -47.5723 -47.5009 -47.4790 -47.3941
   -47.3840 -47.3526 -47.3185 -47.3117 -47.2407 -47.2101 -47.1146 -47.0954
   -47.0498 -47.0388 -46.9637 -46.9338 -46.9152 -46.9104 -46.9039 -46.8883
   -46.8737 -46.8675 -46.7958 -46.7891 -46.7753 -46.7636 -46.7355 -46.7289
   -46.7263 -46.7253 -46.7193 -46.7033 -12.6868  -5.2614  -5.1011  -3.8933
    -3.6958  -3.6556  -3.5464  -3.5366  -3.3885  -3.3541  -3.3171  -3.1180
    -2.9417  -2.9362  -2.6947  -2.5098  -2.4307  -2.2672  -2.2313  -2.1664
    -1.9557  -1.8404  -1.8299  -1.7075  -1.6720  -1.5209  -1.2154  -1.0190
    -1.0044  -0.9081  -0.7019  -0.6748  -0.5475  -0.5397  -0.4294  -0.4185
    -0.3498  -0.3144  -0.2739  -0.2230  -0.1390  -0.0663   0.4182   0.5775
     0.5784   0.7278   0.9013   0.9387   1.0501   1.1624   1.3182   1.3841
     1.4472   1.5331   1.7806   1.9731   2.0697   2.1012   2.1539   2.3777
     2.7680   2.8228   3.1282   3.1348   3.2028   3.3290

     the Fermi energy is     2.3867 ev

!    total energy              =   -2219.97325836 Ry
     Harris-Foulkes estimate   =   -2219.97325757 Ry
     estimated scf accuracy    <       0.00000448 Ry

     The total energy is the sum of the following terms:

     one-electron contribution =  -18510.55758589 Ry
     hartree contribution      =    9286.11487682 Ry
     xc contribution           =    -628.91093165 Ry
     ewald contribution        =    7633.47749755 Ry
     electric field correction =       0.00003227 Ry
     smearing contrib. (-TS)   =      -0.09714747 Ry

     convergence has been achieved in  21 iterations

 BEEF-vdW xc energy contributions
           1 :   -556.906461819696
           2 :    517.896800713472
           3 :   -448.245854607986
           4 :    361.708129907068
           5 :   -273.293634800259
           6 :    195.455063088672
           7 :   -135.498117696414
           8 :    94.7822361893718
           9 :   -69.7610314996889
          10 :    54.2949801826824
          11 :   -42.2928905353709
          12 :    29.7240076528581
          13 :   -15.4355230944955
          14 :   0.745120127500513
          15 :    11.7979994206785
          16 :   -19.8863254555770
          17 :    22.5612245058682
          18 :   -20.5844796627287
          19 :    16.0408567140319
          20 :   -11.4439234692727
          21 :    8.76518743658346
          22 :   -8.77631582681511
          23 :    10.9265151989001
          24 :   -13.7577995480900
          25 :    15.6399242558368
          26 :   -15.4929120737802
          27 :    13.2044440956802
          28 :   -9.60002773353176
          29 :    6.01369464481741
          30 :   -3.68052691751063
          31 :   -47.8453284728545
          32 :   -35.8356425571671

     Forces acting on atoms (Ry/au):

     negative rho (up, down):  3.876E+00 0.000E+00
     atom    1 type  1   force =    -0.00102640   -0.00058517    0.01727922
     atom    2 type  1   force =     0.00102972   -0.00057029    0.01725710
     atom    3 type  1   force =     0.00002055    0.00117313    0.01726016
     atom    4 type  1   force =    -0.00000692   -0.00001028    0.01044210
     atom    5 type  1   force =     0.00002462   -0.01951595   -0.01438703
     atom    6 type  1   force =    -0.00003077    0.00000438   -0.01911084
     atom    7 type  1   force =     0.01691524    0.00974790   -0.01443023
     atom    8 type  1   force =    -0.01691174    0.00977220   -0.01443376
     atom    9 type  1   force =    -0.00001653    0.00000317    0.00002276
     atom   10 type  1   force =     0.00004183    0.00147722   -0.00004535
     atom   11 type  1   force =     0.00126606   -0.00071670   -0.00006594
     atom   12 type  1   force =    -0.00129036   -0.00077563    0.00001646
     atom   13 type  2   force =    -0.00001528   -0.00000398    0.00019534

     Total force =     0.056093     Total SCF correction =     0.013598
     SCF correction compared to forces is large: reduce conv_thr to get better values

     entering subroutine stress ...

     negative rho (up, down):  3.876E+00 0.000E+00
          total   stress  (Ry/bohr**3)                   (kbar)     P=  -31.76
  -0.00026762  -0.00000001  -0.00000003        -39.37     -0.00     -0.00
  -0.00000001  -0.00026762  -0.00000000         -0.00    -39.37     -0.00
  -0.00000003  -0.00000000  -0.00011240         -0.00     -0.00    -16.53

 !ASE

     Writing output data file calc.save

     General routines

     Parallel routines

   This run was terminated on:  18: 3:44  14Jan2018

   JOB DONE.
Job  /afs/slac/g/suncat/bin/suncat-tsmpirun -x LD_LIBRARY_PATH -wdir /scratch/qe842452_moZnO pw.x -in pw.inp

TID   HOST_NAME   COMMAND_LINE            STATUS            TERMINATION_TIME
00000 suncat0253 pw.x -in pw.inp   Done                     01/14/2018 18:03:44
00001 suncat0253 pw.x -in pw.inp   Done                     01/14/2018 18:03:44
00002 suncat0253 pw.x -in pw.inp   Done                     01/14/2018 18:03:44
00003 suncat0253 pw.x -in pw.inp   Done                     01/14/2018 18:03:44
00004 suncat0253 pw.x -in pw.inp   Done                     01/14/2018 18:03:44
00005 suncat0253 pw.x -in pw.inp   Done                     01/14/2018 18:03:44
00006 suncat0253 pw.x -in pw.inp   Done                     01/14/2018 18:03:44
00007 suncat0253 pw.x -in pw.inp   Done                     01/14/2018 18:03:44
00008 suncat0249 pw.x -in pw.inp   Done                     01/14/2018 18:03:44
00009 suncat0249 pw.x -in pw.inp   Done                     01/14/2018 18:03:44
00010 suncat0249 pw.x -in pw.inp   Done                     01/14/2018 18:03:44
00011 suncat0249 pw.x -in pw.inp   Done                     01/14/2018 18:03:44
00012 suncat0249 pw.x -in pw.inp   Done                     01/14/2018 18:03:44
00013 suncat0249 pw.x -in pw.inp   Done                     01/14/2018 18:03:44
00014 suncat0249 pw.x -in pw.inp   Done                     01/14/2018 18:03:44
00015 suncat0249 pw.x -in pw.inp   Done                     01/14/2018 18:03:44
00016 suncat0248 pw.x -in pw.inp   Done                     01/14/2018 18:03:44
00017 suncat0248 pw.x -in pw.inp   Done                     01/14/2018 18:03:44
00018 suncat0248 pw.x -in pw.inp   Done                     01/14/2018 18:03:44
00019 suncat0248 pw.x -in pw.inp   Done                     01/14/2018 18:03:44
00020 suncat0248 pw.x -in pw.inp   Done                     01/14/2018 18:03:44
00021 suncat0248 pw.x -in pw.inp   Done                     01/14/2018 18:03:44
00022 suncat0248 pw.x -in pw.inp   Done                     01/14/2018 18:03:44
00023 suncat0248 pw.x -in pw.inp   Done                     01/14/2018 18:03:44
00024 suncat0247 pw.x -in pw.inp   Done                     01/14/2018 18:03:44
00025 suncat0247 pw.x -in pw.inp   Done                     01/14/2018 18:03:44
00026 suncat0247 pw.x -in pw.inp   Done                     01/14/2018 18:03:44
00027 suncat0247 pw.x -in pw.inp   Done                     01/14/2018 18:03:44
00028 suncat0247 pw.x -in pw.inp   Done                     01/14/2018 18:03:44
00029 suncat0247 pw.x -in pw.inp   Done                     01/14/2018 18:03:44
00030 suncat0247 pw.x -in pw.inp   Done                     01/14/2018 18:03:44
00031 suncat0247 pw.x -in pw.inp   Done                     01/14/2018 18:03:44