     Program PWSCF v.5.1rc2 (svn rev. 11289) starts on 25Apr2018 at  2:41:50

     Current dimensions of program PWSCF are:
     Max number of different atomic species (ntypx) = 10
     Max number of k-points (npk) =  40000
     Max angular momentum in pseudopotentials (lmaxx) =  3
     Presently stress not available with electric field

     IMPORTANT: XC functional enforced from input :
     Exchange-correlation      = BEEF-VDW ( 1  4 27 13 2)
     Any further DFT definition will be discarded
     Please, verify this is what you really want

     Subspace diagonalization in iterative solution of the eigenvalue problem:
     a serial algorithm will be used

     bravais-lattice index     =            0
     lattice parameter (alat)  =       1.8897  a.u.
     unit-cell volume          =    4515.4205 (a.u.)^3
     number of atoms/cell      =           14
     number of atomic types    =            3
     number of electrons       =       247.00
     number of Kohn-Sham states=          133
     kinetic-energy cutoff     =      36.7493  Ry
     charge density cutoff     =     367.4932  Ry
     convergence threshold     =      1.0E-05
     mixing beta               =       0.3000
     number of iterations used =           10  plain     mixing
     Exchange-correlation      = BEEF-VDW ( 1  4 27 13 2)
     nstep                     =           50

     celldm(1)=   1.889726  celldm(2)=   0.000000  celldm(3)=   0.000000
     celldm(4)=   0.000000  celldm(5)=   0.000000  celldm(6)=   0.000000

     crystal axes: (cart. coord. in units of alat)
               a(1) = (   5.606773   0.000000   0.000000 )
               a(2) = (   2.803387   4.855608   0.000000 )
               a(3) = (   0.000000   0.000000  24.577911 )

     reciprocal axes: (cart. coord. in units 2 pi/alat)
               b(1) = (  0.178356 -0.102974  0.000000 )
               b(2) = (  0.000000  0.205947  0.000000 )
               b(3) = (  0.000000  0.000000  0.040687 )

     PseudoPot. # 1 for Zn read from file:
     /u/if/mamunm/psp/gbrv1.5pbe/Zn.UPF
     MD5 check sum: df62231357ef9e81f77b2b3087fa5675
     Pseudo is Ultrasoft, Zval = 20.0
     Generated by new atomic code, or converted to UPF format
     Using radial grid of  943 points,  6 beta functions with:
                l(1) =   0
                l(2) =   0
                l(3) =   1
                l(4) =   1
                l(5) =   2
                l(6) =   2
     Q(r) pseudized with  8 coefficients,  rinner =    1.100   1.100   1.100
                                                       1.100   1.100

     PseudoPot. # 2 for O  read from file:
     /u/if/mamunm/psp/gbrv1.5pbe/O.UPF
     MD5 check sum: 734c27235a0248c51dbae37a1fbe46ec
     Pseudo is Ultrasoft + core correction, Zval =  6.0
     Generated by new atomic code, or converted to UPF format
     Using radial grid of  737 points,  5 beta functions with:
                l(1) =   0
                l(2) =   0
                l(3) =   1
                l(4) =   1
                l(5) =   2
     Q(r) pseudized with  8 coefficients,  rinner =    0.900   0.900   0.900
                                                       0.900   0.900

     PseudoPot. # 3 for H  read from file:
     /u/if/mamunm/psp/gbrv1.5pbe/H.UPF
     MD5 check sum: 761ae9a214b05c3daf00ab9f6b793d6f
     Pseudo is Ultrasoft, Zval =  1.0
     Generated by new atomic code, or converted to UPF format
     Using radial grid of  615 points,  2 beta functions with:
                l(1) =   0
                l(2) =   0
     Q(r) pseudized with  8 coefficients,  rinner =    0.700

     vdW kernel table read from file vdW_kernel_table
     MD5 check sum: 095c7af220d748ca6e76c0b4c6cfb241

     atomic species   valence    mass     pseudopotential
        Zn1           20.00    65.38000     Zn( 1.00)
        O1             6.00    15.99900     O ( 1.00)
        H1             1.00     1.00800     H ( 1.00)

     No symmetry found

   Cartesian axes

     site n.     atom                  positions (alat units)
         1           Zn1 tau(   1) = (   1.4016933   0.8092680  10.0000000  )
         2           Zn1 tau(   2) = (   4.2050800   0.8092680  10.0000000  )
         3           Zn1 tau(   3) = (   2.8033867   3.2370721  10.0000000  )
         4           Zn1 tau(   4) = (   5.6067733   3.2370721  10.0000000  )
         5           Zn1 tau(   5) = (   5.6067733   1.6185360  12.2889556  )
         6           Zn1 tau(   6) = (   2.8033867   1.6185360  12.2889556  )
         7           Zn1 tau(   7) = (   7.0084667   4.0463401  12.2889556  )
         8           Zn1 tau(   8) = (   4.2050800   4.0463401  12.2889556  )
         9           Zn1 tau(   9) = (   0.0000000   0.0000000  14.5779113  )
        10           Zn1 tau(  10) = (   2.8033867   0.0000000  14.5779113  )
        11           Zn1 tau(  11) = (   1.4016933   2.4278041  14.5779113  )
        12           Zn1 tau(  12) = (   4.2050800   2.4278041  14.5779113  )
        13           O1  tau(  13) = (   1.4016933   0.8092680  15.7999113  )
        14           H1  tau(  14) = (   1.4016933   0.8092680  16.7499113  )

     number of k points=    20  Fermi-Dirac smearing, width (Ry)=  0.0110
                       cart. coord. in units 2pi/alat
        k(    1) = (   0.0000000   0.0000000   0.0000000), wk =   0.0555556
        k(    2) = (   0.0000000   0.0343246   0.0000000), wk =   0.1111111
        k(    3) = (   0.0000000   0.0686491   0.0000000), wk =   0.1111111
        k(    4) = (   0.0000000  -0.1029737   0.0000000), wk =   0.0555556
        k(    5) = (   0.0297260  -0.0171623   0.0000000), wk =   0.1111111
        k(    6) = (   0.0297260   0.0171623   0.0000000), wk =   0.1111111
        k(    7) = (   0.0297260   0.0514869   0.0000000), wk =   0.1111111
        k(    8) = (   0.0297260  -0.1201360   0.0000000), wk =   0.1111111
        k(    9) = (   0.0297260  -0.0858114   0.0000000), wk =   0.1111111
        k(   10) = (   0.0297260  -0.0514869   0.0000000), wk =   0.1111111
        k(   11) = (   0.0594519  -0.0343246   0.0000000), wk =   0.1111111
        k(   12) = (   0.0594519   0.0000000   0.0000000), wk =   0.1111111
        k(   13) = (   0.0594519   0.0343246   0.0000000), wk =   0.1111111
        k(   14) = (   0.0594519  -0.1372983   0.0000000), wk =   0.1111111
        k(   15) = (   0.0594519  -0.1029737   0.0000000), wk =   0.1111111
        k(   16) = (   0.0594519  -0.0686491   0.0000000), wk =   0.1111111
        k(   17) = (  -0.0891779   0.0514869   0.0000000), wk =   0.0555556
        k(   18) = (  -0.0891779   0.0858114   0.0000000), wk =   0.1111111
        k(   19) = (  -0.0891779   0.1201360   0.0000000), wk =   0.1111111
        k(   20) = (  -0.0891779  -0.0514869   0.0000000), wk =   0.0555556

     Largest allocated arrays     est. size (Mb)     dimensions
     Largest temporary arrays     est. size (Mb)     dimensions

     Initial potential from superposition of free atoms
     Check: negative starting charge=   -0.000825

     starting charge  246.99830, renormalised to  247.00000

     negative rho (up, down):  8.250E-04 0.000E+00

     *
     * You are using vdW-DF for exchange-correlation in this calculation.
     * Please cite the following three references that made this development
     * possible:
     *
     *   M. Dion, H. Rydberg, E. Schroder, D. C. Langreth, and
     *   B. I. Lundqvist, Phys. Rev. Lett. 92, 246401 (2004).
     *
     *   T. Thonhauser, V. R. Cooper, S. Li, A. Puzder, P. Hyldgaard, and
     *   D. C. Langreth, Phys. Rev. B 76, 125112 (2007).
     *
     *   G. Roman-Perez and J. M. Soler, Phys. Rev. Lett. 103, 096102 (2009).
     *
     *
     * If you are using vdW-DF2, please also cite:
     *
     *   K. Lee, E. D. Murray, L. Kong, B. I. Lundqvist, and
     *   D. C. Langreth, Phys. Rev. B 82, 081101(R) (2010).
     *
     *
     * If you are calculating the stress with vdW-DF, please also cite:
     *
     *   R. Sabatini, E. Kucukbenli, B. Kolb, T. Thonhauser, and
     *   S. de Gironcoli, J. Phys.: Condens. Matter 24, 424209 (2012).
     *

     Carrying out vdW-DF run using the following parameters:

     Nqs =      20    Nr_points =    1024   r_max =   100.000
     q_mesh =
               0.00001000     0.04494208     0.09755937     0.15916263
               0.23128650     0.31572767     0.41458969     0.53033537
               0.66584808     0.82450364     1.01025438     1.22772762
               1.48234092     1.78043706     2.12944203     2.53805004
               3.01644009     3.57652955     4.23227104     5.00000000

     Gradients computed in reciprocal space

     Adding external electric field

     Computed dipole along edir(3) :
        Dipole               -0.0002 Ry au,         -0.0006 Debye
        Dipole field         -0.0000 Ry au

        Potential amp.        0.0001 Ry
        Total length         45.2844 bohr

     Starting wfc are  161 randomized atomic wfcs

     Self-consistent Calculation

     iteration #  1     ecut=    36.75 Ry     beta=0.30
     Davidson diagonalization with overlap
     ethr =  1.00E-02,  avg # of iterations =  2.5

     Threshold (ethr) on eigenvalues was too large:
     Diagonalizing with lowered threshold

     Davidson diagonalization with overlap
     ethr =  3.17E-04,  avg # of iterations =  4.3

[...]

     total energy              =   -5586.92170535 Ry
     Harris-Foulkes estimate   =   -5587.23431094 Ry
     estimated scf accuracy    <       0.79337336 Ry

[...]

     End of self-consistent calculation

          k = 0.0000 0.0000 0.0000 ( 16931 PWs)   bands (ev):

  -125.7588-125.7360-125.7351-125.7351-125.6152-125.6143-125.6143-125.5350
  -125.5340-125.5340-125.5203-125.4648 -79.9431 -79.9360 -79.9360 -79.9177
   -79.9149 -79.9149 -79.9109 -79.9102 -79.9093 -79.9093 -79.9051 -79.9051
   -79.8281 -79.8210 -79.8210 -79.8062 -79.8062 -79.8015 -79.7780 -79.7729
   -79.7729 -79.7241 -79.7231 -79.7231 -79.7139 -79.7122 -79.7122 -79.7041
   -79.7019 -79.7016 -79.7016 -79.6932 -79.6932 -79.6479 -79.6358 -79.6358
   -20.4442  -9.3632  -8.3337  -7.3044  -7.3044  -7.3018  -7.3017  -7.3017
    -7.2855  -7.2411  -7.2083  -7.1436  -7.1436  -7.0536  -7.0536  -7.0467
    -6.9032  -6.9032  -6.8649  -6.7574  -6.7572  -6.7572  -6.7351  -6.7351
    -6.7127  -6.6933  -6.6933  -6.6522  -6.6384  -6.6384  -6.5506  -6.5506
    -6.4695  -6.4688  -6.4688  -6.3841  -6.3841  -6.3548  -6.3548  -6.3412
    -6.2880  -6.2595  -6.2595  -6.2182  -6.2182  -6.1798  -6.1765  -6.1760
    -6.1760  -6.1508  -6.1508  -6.1374  -6.1158  -6.1158  -6.1032  -6.1032
    -6.0747  -6.0595  -6.0039  -6.0039  -5.9514  -5.9474  -5.9474  -5.4921
    -4.0233  -4.0233  -2.9378  -1.5642  -1.5642  -1.4636  -1.0706  -1.0706
    -1.0234  -0.3271   0.0644   0.0644   0.1840   0.9973   0.9973   1.6030
     2.7400   2.8972   2.8972   3.1460   3.5236

[...]

          k =-0.0892 0.0515 0.0000 ( 17028 PWs)   bands (ev):

[...]

     the Fermi energy is     1.0103 ev

!    total energy              =   -5587.05287139 Ry
     Harris-Foulkes estimate   =   -5587.05287222 Ry
     estimated scf accuracy    <       0.00000386 Ry

     The total energy is the sum of the following terms:

     one-electron contribution =  -36384.06737077 Ry
     hartree contribution      =   18177.81709305 Ry
     xc contribution           =    -529.43284575 Ry
     ewald contribution        =   13148.65484729 Ry
     electric field correction =       0.00031641 Ry
     smearing contrib. (-TS)   =      -0.02491162 Ry

     convergence has been achieved in   9 iterations

 BEEF-vdW xc energy contributions
           1 :   -470.134087568789
           2 :    425.858219801861
           3 :   -351.667271695064
           4 :    269.141094950418
           5 :   -197.285851166169
           6 :    145.447371095777
           7 :   -112.124798199660
           8 :    89.3082057346587
           9 :   -69.0130576244284
          10 :    47.9221505206337
          11 :   -27.8464501672785
          12 :    12.6670719525412
          13 :   -4.53279993990225
          14 :    2.06632280082511
          15 :   -1.49667684334793
          16 :  -0.559606666919308
          17 :    4.92680714541643
          18 :   -9.81746210070185
          19 :    12.6660544049069
          20 :   -12.2765297454307
          21 :    9.67374526150752
          22 :   -7.18617025114725
          23 :    6.63385331191989
          24 :   -8.06727102644345
          25 :    9.94559586046972
          26 :   -10.4834964321852
          27 :    9.04400889512783
          28 :   -6.52873677639604
          29 :    4.56335035773645
          30 :   -4.20357266828375
          31 :   -36.5886009797841
          32 :   -24.9379568878597

     Forces acting on atoms (Ry/au):

     negative rho (up, down):  1.053E-03 0.000E+00
     atom    1 type  1   force =    -0.00000303    0.00000074   -0.00558975
     atom    2 type  1   force =     0.00000133   -0.00091026   -0.00924705
     atom    3 type  1   force =    -0.00078786    0.00045704   -0.00924559
     atom    4 type  1   force =     0.00079092    0.00045421   -0.00924819
     atom    5 type  1   force =     0.00405281   -0.00233912    0.00566169
     atom    6 type  1   force =    -0.00405212   -0.00233910    0.00566208
     atom    7 type  1   force =     0.00000314    0.00000160   -0.00548938
     atom    8 type  1   force =    -0.00000603    0.00467365    0.00565916
     atom    9 type  1   force =    -0.04214070   -0.02432587   -0.01063209
     atom   10 type  1   force =     0.04214181   -0.02432914   -0.01063616
     atom   11 type  1   force =    -0.00000044    0.04865615   -0.01063341
     atom   12 type  1   force =    -0.00000044   -0.00000080   -0.00156152
     atom   13 type  2   force =     0.00000037    0.00000052   -0.00288424
     atom   14 type  3   force =     0.00000023    0.00000037    0.05818443

     Total force =     0.104107     Total SCF correction =     0.004050

     entering subroutine stress ...

     negative rho (up, down):  1.053E-03 0.000E+00
          total   stress  (Ry/bohr**3)                   (kbar)     P=   -5.57
  -0.00009058  -0.00000000  -0.00000000        -13.33     -0.00     -0.00
  -0.00000000  -0.00009059   0.00000000         -0.00    -13.33      0.00
  -0.00000000   0.00000000   0.00006751         -0.00      0.00      9.93

     BFGS Geometry Optimization

     number of scf cycles    =   1
     number of bfgs steps    =   0

     energy   new            =   -5587.0528713875 Ry

     new trust radius        =       0.0581844310 bohr
     new conv_thr            =       0.0000099958 Ry

ATOMIC_POSITIONS (crystal)
Zn1      0.166666667   0.166666667   0.406869400    0   0   0
Zn1      0.666666667   0.166666667   0.406869400    0   0   0
Zn1      0.166666667   0.666666667   0.406869400    0   0   0
Zn1      0.666666667   0.666666667   0.406869400    0   0   0
Zn1      0.833333333   0.333333333   0.500000000    0   0   0
Zn1      0.333333333   0.333333333   0.500000000    0   0   0
Zn1      0.833333333   0.833333333   0.500000000    0   0   0
Zn1      0.333333333   0.833333333   0.500000000    0   0   0
Zn1     -0.002651765  -0.002651098   0.592901685
Zn1      0.505303146  -0.002651455   0.592901597
Zn1     -0.002651381   0.505302678   0.592901657
Zn1      0.500000002   0.499999913   0.593096980
O1       0.166666673   0.166666724   0.642787942
H1       0.166666669   0.166666707   0.682755380

     Writing output data file calc.save
     Check: negative starting charge=   -0.000825
     NEW-OLD atomic charge density approx. for the potential
     Check: negative starting charge=   -0.000820

[...]

     Total force =     0.079774     Total SCF correction =     0.009235
     SCF correction compared to forces is large: reduce conv_thr to get better values

[...]

     energy   old            =   -5587.0528713875 Ry
     energy   new            =   -5587.0607386557 Ry

     CASE: energy  _new < energy  _old

[...]

     WARNING: bfgs curvature condition failed, Theta= 0.990
     new trust radius        =       0.0140405016 bohr
     new conv_thr            =       0.0000001000 Ry

[...]

     Total force =     0.004054     Total SCF correction =     0.000224

[...]

     number of scf cycles    =  18
     number of bfgs steps    =  17

     energy   old            =   -5587.0760367749 Ry
     energy   new            =   -5587.0760598084 Ry

     CASE: energy  _new < energy  _old

     new trust radius        =       0.0118761478 bohr
     new conv_thr            =       0.0000001000 Ry

ATOMIC_POSITIONS (crystal)
Zn1      0.166666667   0.166666667   0.406869400    0   0   0
Zn1      0.666666667   0.166666667   0.406869400    0   0   0
Zn1      0.166666667   0.666666667   0.406869400    0   0   0
Zn1      0.666666667   0.666666667   0.406869400    0   0   0
Zn1      0.833333333   0.333333333   0.500000000    0   0   0
Zn1      0.333333333   0.333333333   0.500000000    0   0   0
Zn1      0.833333333   0.833333333   0.500000000    0   0   0
Zn1      0.333333333   0.833333333   0.500000000    0   0   0
Zn1     -0.011302816  -0.011301757   0.601363329
Zn1      0.522605213  -0.011302446   0.601363323
Zn1     -0.011302051   0.522604020   0.601363391
Zn1      0.500000414   0.499999552   0.591632795
O1       0.166665876   0.166667508   0.652939205
H1       0.166666884   0.166666689   0.692674749

     Writing output data file calc.save
     Check: negative starting charge=   -0.000813
     NEW-OLD atomic charge density approx. for the potential
     Check: negative starting charge=   -0.000811

[...]

     Self-consistent Calculation

[...]

     Threshold (ethr) on eigenvalues was too large:
     Diagonalizing with lowered threshold

     Davidson diagonalization with overlap
     ethr =  5.22E-09,  avg # of iterations =  2.0

[...]

     total energy              =   -5587.07607734 Ry
     Harris-Foulkes estimate   =   -5587.07607728 Ry
     estimated scf accuracy    <       0.00000018 Ry

     iteration #  6     ecut=    36.75 Ry     beta=0.30
     Davidson diagonalization with overlap
     ethr =  7.33E-11,  avg # of iterations =  2.9

[...]

     negative rho (up, down):  1.005E-03 0.000E+00

     Adding external electric field

     Computed dipole along edir(3) :
        Dipole                0.2878 Ry au,          0.7316 Debye
        Dipole field          0.0008 Ry au

        Potential amp.       -0.0726 Ry
        Total length         45.2844 bohr

     End of self-consistent calculation

[...]

          k = 0.0595-0.0686 0.0000 ( 16986 PWs)   bands (ev):

[...]

          k =-0.0892-0.0515 0.0000 ( 17028 PWs)   bands (ev):

  -125.7939-125.7717-125.7713-125.7710-125.6221-125.6218-125.6215-125.5966
  -125.5949-125.5937-125.5936-125.5374 -79.9806 -79.9692 -79.9681 -79.9534
   -79.9497 -79.9492 -79.9486 -79.9484 -79.9462 -79.9461 -79.9452 -79.9424
   -79.8120 -79.8116 -79.8112 -79.8058 -79.7985 -79.7984 -79.7971 -79.7963
   -79.7947 -79.7947 -79.7928 -79.7882 -79.7839 -79.7833 -79.7786 -79.7786
   -79.7721 -79.7710 -79.7582 -79.7526 -79.7513 -79.7229 -79.7074 -79.7069
   -19.5737  -8.2206  -7.3015  -7.2614  -7.1234  -7.0828  -7.0790  -7.0703
    -7.0196  -7.0024  -6.9991  -6.9738  -6.9733  -6.9461  -6.9271  -6.8699
    -6.8524  -6.8455  -6.7968  -6.7863  -6.7631  -6.7564  -6.7405  -6.7292
    -6.7260  -6.6943  -6.6757  -6.6539  -6.6222  -6.6172  -6.6032  -6.5864
    -6.5760  -6.5250  -6.5119  -6.5100  -6.4911  -6.4729  -6.4721  -6.4680
    -6.4575  -6.4353  -6.4171  -6.4052  -6.3966  -6.3742  -6.3701  -6.3342
    -6.3192  -6.3151  -6.3083  -6.3002  -6.3001  -6.2608  -6.2474  -6.2330
    -6.2131  -6.1648  -6.1604  -6.1574  -6.1364  -6.1302  -6.1218  -5.6569
    -4.9710  -4.0722  -3.7902  -3.3818  -2.8153  -2.7231  -1.7997  -1.4719
    -0.8316  -0.5805   1.1599   1.5877   1.6009   2.2422   3.5882   3.5898
     3.7404   3.8157   4.1391   4.2791   4.7631

     the Fermi energy is     0.9764 ev

!    total energy              =   -5587.07607737 Ry
     Harris-Foulkes estimate   =   -5587.07607793 Ry
     estimated scf accuracy    <       0.00000002 Ry

     The total energy is the sum of the following terms:

     one-electron contribution =  -35636.44426537 Ry
     hartree contribution      =   17803.85390452 Ry
     xc contribution           =    -529.26612265 Ry
     ewald contribution        =   12774.80451233 Ry
     electric field correction =       0.00023058 Ry
     smearing contrib. (-TS)   =      -0.02433678 Ry

     convergence has been achieved in   6 iterations

 BEEF-vdW xc energy contributions
           1 :   -469.957271818451
           2 :    425.585840594201
           3 :   -351.292279149162
           4 :    268.753034044706
           5 :   -197.000467482680
           6 :    145.318199148102
           7 :   -112.104321802636
           8 :    89.2894657160973
           9 :   -68.9156985092150
          10 :    47.7519439403026
          11 :   -27.6812295676731
          12 :    12.5835580399893
          13 :   -4.53827548712547
          14 :    2.09371462510501
          15 :   -1.46489829122584
          16 :  -0.672895526913123
          17 :    5.06250084030592
          18 :   -9.88339475623843
          19 :    12.6171297305347
          20 :   -12.1578325345164
          21 :    9.58799334573604
          22 :   -7.21069333168646
          23 :    6.75498113942473
          24 :   -8.18733870619434
          25 :    9.95946568638203
          26 :   -10.3643080459782
          27 :    8.86872010666860
          28 :   -6.42103902750989
          29 :    4.59890129334718
          30 :   -4.35297732296192
          31 :   -36.5755701866622
          32 :   -24.9027254558902

     Forces acting on atoms (Ry/au):

     negative rho (up, down):  1.005E-03 0.000E+00
     atom    1 type  1   force =    -0.00000000   -0.00000000   -0.00707420
     atom    2 type  1   force =    -0.00000000   -0.00127244   -0.01050935
     atom    3 type  1   force =    -0.00110201    0.00063623   -0.01050936
     atom    4 type  1   force =     0.00110202    0.00063624   -0.01050937
     atom    5 type  1   force =     0.00628499   -0.00362861    0.01294830
     atom    6 type  1   force =    -0.00628497   -0.00362858    0.01294833
     atom    7 type  1   force =     0.00000002   -0.00000004   -0.00083214
     atom    8 type  1   force =     0.00000001    0.00725717    0.01294844
     atom    9 type  1   force =     0.00011115    0.00006347   -0.00015440
     atom   10 type  1   force =    -0.00011164    0.00006405   -0.00015420
     atom   11 type  1   force =     0.00000026   -0.00012721   -0.00015464
     atom   12 type  1   force =    -0.00000023    0.00000045    0.00120266
     atom   13 type  2   force =     0.00000056   -0.00000095   -0.00051936
     atom   14 type  3   force =    -0.00000016    0.00000024    0.00036928

     Total force =     0.001405     Total SCF correction =     0.000685
     SCF correction compared to forces is large: reduce conv_thr to get better values

     entering subroutine stress ...

     negative rho (up, down):  1.005E-03 0.000E+00
          total   stress  (Ry/bohr**3)                   (kbar)     P=  -15.29
  -0.00014695   0.00000000   0.00000000        -21.62      0.00      0.00
   0.00000000  -0.00014695  -0.00000000          0.00    -21.62     -0.00
   0.00000000  -0.00000000  -0.00001792          0.00     -0.00     -2.64

     bfgs converged in  19 scf cycles and  18 bfgs steps
     (criteria: energy <  1.0E+00, force <  1.9E-03)

     End of BFGS Geometry Optimization

     Final energy   =   -5587.0760773730 Ry
Begin final coordinates

ATOMIC_POSITIONS (crystal)
Zn1      0.166666667   0.166666667   0.406869400    0   0   0
Zn1      0.666666667   0.166666667   0.406869400    0   0   0
Zn1      0.166666667   0.666666667   0.406869400    0   0   0
Zn1      0.666666667   0.666666667   0.406869400    0   0   0
Zn1      0.833333333   0.333333333   0.500000000    0   0   0
Zn1      0.333333333   0.333333333   0.500000000    0   0   0
Zn1      0.833333333   0.833333333   0.500000000    0   0   0
Zn1      0.333333333   0.833333333   0.500000000    0   0   0
Zn1     -0.011302816  -0.011301757   0.601363329
Zn1      0.522605213  -0.011302446   0.601363323
Zn1     -0.011302051   0.522604020   0.601363391
Zn1      0.500000414   0.499999552   0.591632795
O1       0.166665876   0.166667508   0.652939205
H1       0.166666884   0.166666689   0.692674749
End final coordinates

     Writing output data file calc.save

     General routines

     Parallel routines

   This run was terminated on:   4:45:36  25Apr2018

   JOB DONE.
Job  /afs/slac/g/suncat/bin/suncat-tsmpirun -x LD_LIBRARY_PATH -wdir /scratch/qe304834_iLdfv pw.x -npool 4 -in pw.inp

TID   HOST_NAME   COMMAND_LINE            STATUS            TERMINATION_TIME
00000 suncat0276 pw.x -npool 4 -i  Done                     04/25/2018 04:45:36
00001 suncat0276 pw.x -npool 4 -i  Done                     04/25/2018 04:45:36
00002 suncat0276 pw.x -npool 4 -i  Done                     04/25/2018 04:45:36
00003 suncat0276 pw.x -npool 4 -i  Done                     04/25/2018 04:45:36
00004 suncat0276 pw.x -npool 4 -i  Done                     04/25/2018 04:45:36
00005 suncat0276 pw.x -npool 4 -i  Done                     04/25/2018 04:45:36
00006 suncat0276 pw.x -npool 4 -i  Done                     04/25/2018 04:45:36
00007 suncat0276 pw.x -npool 4 -i  Done                     04/25/2018 04:45:36
00008 suncat0272 pw.x -npool 4 -i  Done                     04/25/2018 04:45:36
00009 suncat0272 pw.x -npool 4 -i  Done                     04/25/2018 04:45:36
00010 suncat0272 pw.x -npool 4 -i  Done                     04/25/2018 04:45:36
00011 suncat0272 pw.x -npool 4 -i  Done                     04/25/2018 04:45:36
00012 suncat0272 pw.x -npool 4 -i  Done                     04/25/2018 04:45:36
00013 suncat0272 pw.x -npool 4 -i  Done                     04/25/2018 04:45:36
00014 suncat0272 pw.x -npool 4 -i  Done                     04/25/2018 04:45:36
00015 suncat0272 pw.x -npool 4 -i  Done                     04/25/2018 04:45:36
00016 suncat0266 pw.x -npool 4 -i  Done                     04/25/2018 04:45:36
00017 suncat0266 pw.x -npool 4 -i  Done                     04/25/2018 04:45:36
00018 suncat0266 pw.x -npool 4 -i  Done                     04/25/2018 04:45:36
00019 suncat0266 pw.x -npool 4 -i  Done                     04/25/2018 04:45:36
00020 suncat0266 pw.x -npool 4 -i  Done                     04/25/2018 04:45:36
00021 suncat0266 pw.x -npool 4 -i  Done                     04/25/2018 04:45:36
00022 suncat0266 pw.x -npool 4 -i  Done                     04/25/2018 04:45:36
00023 suncat0266 pw.x -npool 4 -i  Done                     04/25/2018 04:45:36
00024 suncat0248 pw.x -npool 4 -i  Done                     04/25/2018 04:45:36
00025 suncat0248 pw.x -npool 4 -i  Done                     04/25/2018 04:45:36
00026 suncat0248 pw.x -npool 4 -i  Done                     04/25/2018 04:45:36
00027 suncat0248 pw.x -npool 4 -i  Done                     04/25/2018 04:45:36
00028 suncat0248 pw.x -npool 4 -i  Done                     04/25/2018 04:45:36
00029 suncat0248 pw.x -npool 4 -i  Done                     04/25/2018 04:45:36
00030 suncat0248 pw.x -npool 4 -i  Done                     04/25/2018 04:45:36
00031 suncat0248 pw.x -npool 4 -i  Done                     04/25/2018 04:45:36