     Program PWSCF v.5.1rc2 (svn rev. 11289) starts on 19Apr2018 at  8: 1:21

     Current dimensions of program PWSCF are:
     Max number of different atomic species (ntypx) = 10
     Max number of k-points (npk) =  40000
     Max angular momentum in pseudopotentials (lmaxx) =  3
     Presently stress not available with electric field

     IMPORTANT: XC functional enforced from input :
     Exchange-correlation      = BEEF-VDW ( 1  4 27 13 2)
     Any further DFT definition will be discarded
     Please, verify this is what you really want

     Subspace diagonalization in iterative solution of the eigenvalue problem:
     a serial algorithm will be used

     bravais-lattice index     =            0
     lattice parameter (alat)  =       1.8897  a.u.
     unit-cell volume          =    5182.3421 (a.u.)^3
     number of atoms/cell      =           14
     number of atomic types    =            3
     number of electrons       =       161.00
     number of Kohn-Sham states=           90
     kinetic-energy cutoff     =      36.7493  Ry
     charge density cutoff     =     367.4932  Ry
     convergence threshold     =      1.0E-05
     mixing beta               =       0.3000
     number of iterations used =           10  plain     mixing
     Exchange-correlation      = BEEF-VDW ( 1  4 27 13 2)
     nstep                     =           50

     celldm(1)=   1.889726  celldm(2)=   0.000000  celldm(3)=   0.000000
     celldm(4)=   0.000000  celldm(5)=   0.000000  celldm(6)=   0.000000

     crystal axes: (cart. coord. in units of alat)
               a(1) = (   5.970602   0.000000   0.000000 )
               a(2) = (   2.985301   5.170693   0.000000 )
               a(3) = (   0.000000   0.000000  24.874976 )

     reciprocal axes: (cart. coord. in units 2 pi/alat)
               b(1) = (  0.167487 -0.096699  0.000000 )
               b(2) = (  0.000000  0.193398  0.000000 )
               b(3) = (  0.000000  0.000000  0.040201 )

     PseudoPot. # 1 for Nb read from file:
     /u/if/mamunm/psp/gbrv1.5pbe/Nb.UPF
     MD5 check sum: 573aab8a2fa660278ed4a62cd769473f
     Pseudo is Ultrasoft + core correction, Zval = 13.0
     Generated by new atomic code, or converted to UPF format
     Using radial grid of  887 points,  6 beta functions with:
                l(1) =   0
                l(2) =   0
                l(3) =   1
                l(4) =   1
                l(5) =   2
                l(6) =   2
     Q(r) pseudized with  6 coefficients,  rinner =    1.000   1.000   1.000
                                                       1.000   1.000

     PseudoPot. # 2 for C  read from file:
     /u/if/mamunm/psp/gbrv1.5pbe/C.UPF
     MD5 check sum: d1aef80898a10debaa0f26306b886e00
     Pseudo is Ultrasoft + core correction, Zval =  4.0
     Generated by new atomic code, or converted to UPF format
     Using radial grid of  721 points,  4 beta functions with:
                l(1) =   0
                l(2) =   0
                l(3) =   1
                l(4) =   1
     Q(r) pseudized with  8 coefficients,  rinner =    1.100   1.100   1.100

     PseudoPot. # 3 for H  read from file:
     /u/if/mamunm/psp/gbrv1.5pbe/H.UPF
     MD5 check sum: 761ae9a214b05c3daf00ab9f6b793d6f
     Pseudo is Ultrasoft, Zval =  1.0
     Generated by new atomic code, or converted to UPF format
     Using radial grid of  615 points,  2 beta functions with:
                l(1) =   0
                l(2) =   0
     Q(r) pseudized with  8 coefficients,  rinner =    0.700

     vdW kernel table read from file vdW_kernel_table
     MD5 check sum: 095c7af220d748ca6e76c0b4c6cfb241

     atomic species   valence    mass     pseudopotential
        Nb1           13.00    92.90637     Nb( 1.00)
        C1             4.00    12.01100     C ( 1.00)
        H1             1.00     1.00800     H ( 1.00)

     No symmetry found

   Cartesian axes

     site n.     atom                  positions (alat units)
         1           Nb1 tau(   1) = (   1.4926504   0.8617821  10.0000000  )
         2           Nb1 tau(   2) = (   4.4779512   0.8617821  10.0000000  )
         3           Nb1 tau(   3) = (   2.9853008   3.4471284  10.0000000  )
         4           Nb1 tau(   4) = (   5.9706016   3.4471284  10.0000000  )
         5           Nb1 tau(   5) = (   5.9706016   1.7235642  12.4374879  )
         6           Nb1 tau(   6) = (   2.9853008   1.7235642  12.4374879  )
         7           Nb1 tau(   7) = (   7.4632520   4.3089105  12.4374879  )
         8           Nb1 tau(   8) = (   4.4779512   4.3089105  12.4374879  )
         9           Nb1 tau(   9) = (   0.0000000   0.0000000  14.8749758  )
        10           Nb1 tau(  10) = (   2.9853008   0.0000000  14.8749758  )
        11           Nb1 tau(  11) = (   1.4926504   2.5853463  14.8749758  )
        12           Nb1 tau(  12) = (   4.4779512   2.5853463  14.8749758  )
        13           C1  tau(  13) = (   0.0000000   0.0000000  16.9149758  )
        14           H1  tau(  14) = (   0.0000000   0.0000000  18.0149758  )

     number of k points=    20  Fermi-Dirac smearing, width (Ry)=  0.0110
                       cart. coord. in units 2pi/alat
        k(    1) = (   0.0000000   0.0000000   0.0000000), wk =   0.0555556
        k(    2) = (   0.0000000   0.0322329   0.0000000), wk =   0.1111111
        k(    3) = (   0.0000000   0.0644659   0.0000000), wk =   0.1111111
        k(    4) = (   0.0000000  -0.0966988   0.0000000), wk =   0.0555556
        k(    5) = (   0.0279146  -0.0161165   0.0000000), wk =   0.1111111
        k(    6) = (   0.0279146   0.0161165   0.0000000), wk =   0.1111111
        k(    7) = (   0.0279146   0.0483494   0.0000000), wk =   0.1111111
        k(    8) = (   0.0279146  -0.1128153   0.0000000), wk =   0.1111111
        k(    9) = (   0.0279146  -0.0805824   0.0000000), wk =   0.1111111
        k(   10) = (   0.0279146  -0.0483494   0.0000000), wk =   0.1111111
        k(   11) = (   0.0558291  -0.0322329   0.0000000), wk =   0.1111111
        k(   12) = (   0.0558291   0.0000000   0.0000000), wk =   0.1111111
        k(   13) = (   0.0558291   0.0322329   0.0000000), wk =   0.1111111
        k(   14) = (   0.0558291  -0.1289318   0.0000000), wk =   0.1111111
        k(   15) = (   0.0558291  -0.0966988   0.0000000), wk =   0.1111111
        k(   16) = (   0.0558291  -0.0644659   0.0000000), wk =   0.1111111
        k(   17) = (  -0.0837437   0.0483494   0.0000000), wk =   0.0555556
        k(   18) = (  -0.0837437   0.0805824   0.0000000), wk =   0.1111111
        k(   19) = (  -0.0837437   0.1128153   0.0000000), wk =   0.1111111
        k(   20) = (  -0.0837437  -0.0483494   0.0000000), wk =   0.0555556

     Largest allocated arrays     est. size (Mb)     dimensions
     Largest temporary arrays     est. size (Mb)     dimensions

     Initial potential from superposition of free atoms
     Check: negative starting charge=   -0.004697

     starting charge  160.96715, renormalised to  161.00000

     negative rho (up, down):  4.698E-03 0.000E+00

     *
     * You are using vdW-DF for exchange-correlation in this calculation.
     * Please cite the following three references that made this development
     * possible:
     *
     *   M. Dion, H. Rydberg, E. Schroder, D. C. Langreth, and
     *   B. I. Lundqvist, Phys. Rev. Lett. 92, 246401 (2004).
     *
     *   T. Thonhauser, V. R. Cooper, S. Li, A. Puzder, P. Hyldgaard, and
     *   D. C. Langreth, Phys. Rev. B 76, 125112 (2007).
     *
     *   G. Roman-Perez and J. M. Soler, Phys. Rev. Lett. 103, 096102 (2009).
     *
     *
     * If you are using vdW-DF2, please also cite:
     *
     *   K. Lee, E. D. Murray, L. Kong, B. I. Lundqvist, and
     *   D. C. Langreth, Phys. Rev. B 82, 081101(R) (2010).
     *
     *
     * If you are calculating the stress with vdW-DF, please also cite:
     *
     *   R. Sabatini, E. Kucukbenli, B. Kolb, T. Thonhauser, and
     *   S. de Gironcoli, J. Phys.: Condens. Matter 24, 424209 (2012).
     *

     Carrying out vdW-DF run using the following parameters:

     Nqs =      20    Nr_points =    1024   r_max =   100.000
     q_mesh =
               0.00001000     0.04494208     0.09755937     0.15916263
               0.23128650     0.31572767     0.41458969     0.53033537
               0.66584808     0.82450364     1.01025438     1.22772762
               1.48234092     1.78043706     2.12944203     2.53805004
               3.01644009     3.57652955     4.23227104     5.00000000

     Gradients computed in reciprocal space

     Adding external electric field

     Computed dipole along edir(3) :
        Dipole               -0.0086 Ry au,         -0.0219 Debye
        Dipole field         -0.0000 Ry au

        Potential amp.        0.0019 Ry
        Total length         45.8317 bohr

     Starting wfc are  161 randomized atomic wfcs

     Self-consistent Calculation

     iteration #  1     ecut=    36.75 Ry     beta=0.30
     Davidson diagonalization with overlap
     ethr =  1.00E-02,  avg # of iterations =  2.0

[...]

     total energy              =   -1432.38432597 Ry
     Harris-Foulkes estimate   =   -1435.42123338 Ry
     estimated scf accuracy    <       6.78166857 Ry

[...]

     End of self-consistent calculation

          k = 0.0000 0.0000 0.0000 ( 19435 PWs)   bands (ev):

   -53.1880 -53.0827 -53.0813 -53.0809 -52.9674 -52.9438 -52.9437 -52.9423
   -52.8857 -52.8518 -52.8516 -52.7234 -29.5695 -29.5604 -29.5603 -29.5297
   -29.4945 -29.4944 -29.4652 -29.4412 -29.4398 -29.4397 -29.2093 -29.1307
   -29.1305 -28.9892 -28.9840 -28.9839 -28.9395 -28.8764 -28.8415 -28.8414
   -28.7994 -28.7735 -28.7734 -28.7522 -28.7521 -28.7512 -28.6641 -28.6640
   -28.6623 -28.6303 -28.5914 -28.5914 -28.5515 -28.5515 -28.4842 -28.4842
    -8.3801  -3.5063  -2.4239  -1.9448  -1.6802  -1.5362  -1.5361  -1.4956
    -1.2011  -1.2010  -1.0877  -0.8457  -0.8457  -0.7650  -0.7230  -0.7230
    -0.6844   0.0940   0.0941   0.3593   1.2098   1.2099   1.4076   1.4988
     1.8069   1.9895   1.9895   2.1527   2.1527   2.2004   2.3809   2.3809
     2.4107   2.4108   2.4629   2.5257   2.5257   2.5714   2.5715   2.8224
     3.2477   3.5005

[...]

          k =-0.0837 0.0483 0.0000 ( 19524 PWs)   bands (ev):

[...]

     the Fermi energy is     2.0361 ev

!    total energy              =   -1434.80982924 Ry
     Harris-Foulkes estimate   =   -1434.80982977 Ry
     estimated scf accuracy    <       0.00000094 Ry

     The total energy is the sum of the following terms:

     one-electron contribution =  -11582.32615328 Ry
     hartree contribution      =    5785.67608156 Ry
     xc contribution           =    -232.44532385 Ry
     ewald contribution        =    4594.40487784 Ry
     electric field correction =       0.00000028 Ry
     smearing contrib. (-TS)   =      -0.11931178 Ry

     convergence has been achieved in  19 iterations

 BEEF-vdW xc energy contributions
           1 :   -199.215907658544
           2 :    181.029852646683
           3 :   -150.114286122885
           4 :    114.813980596142
           5 :   -83.0535922762473
           6 :    59.7361583496393
           7 :   -45.7555215566571
           8 :    38.6896838403716
           9 :   -34.6131617826586
          10 :    30.0588342946004
          11 :   -23.3187190193009
          12 :    14.6809353503322
          13 :   -5.74474924780833
          14 :   -1.70871447343382
          15 :    6.68392944654403
          16 :   -9.35662873255643
          17 :    10.7808335657938
          18 :   -12.1787024511890
          19 :    14.2369484735537
          20 :   -16.7913370426527
          21 :    19.0194859287128
          22 :   -19.9814803924451
          23 :    19.1705432766110
          24 :   -16.7809924138152
          25 :    13.5817651461406
          26 :   -10.5104230966263
          27 :    8.22726236483459
          28 :   -6.86608418505182
          29 :    6.08233118572934
          30 :   -5.34052813432905
          31 :   -23.0613437443879
          32 :   -17.4077667781014

     Forces acting on atoms (Ry/au):

     negative rho (up, down):  4.633E-03 0.000E+00
     atom    1 type  1   force =    -0.00031651   -0.00018341   -0.00632491
     atom    2 type  1   force =     0.00031517   -0.00018125   -0.00633389
     atom    3 type  1   force =     0.00000059    0.00036268   -0.00632720
     atom    4 type  1   force =     0.00000001    0.00000135   -0.00300954
     atom    5 type  1   force =    -0.00000286    0.00599050   -0.00871832
     atom    6 type  1   force =     0.00000407   -0.00000004    0.01370321
     atom    7 type  1   force =    -0.00518820   -0.00299323   -0.00871828
     atom    8 type  1   force =     0.00519118   -0.00299853   -0.00871859
     atom    9 type  1   force =    -0.00000143    0.00000012    0.10326354
     atom   10 type  1   force =     0.00000004    0.00213802    0.01127922
     atom   11 type  1   force =     0.00185033   -0.00106781    0.01130151
     atom   12 type  1   force =    -0.00185036   -0.00106915    0.01127769
     atom   13 type  2   force =    -0.00000132    0.00000056   -0.09471799
     atom   14 type  3   force =    -0.00000069    0.00000017   -0.00795644

     Total force =     0.141753     Total SCF correction =     0.001704

     entering subroutine stress ...

     negative rho (up, down):  4.633E-03 0.000E+00
          total   stress  (Ry/bohr**3)                   (kbar)     P=  -22.77
  -0.00021673   0.00000001   0.00000000        -31.88      0.00      0.00
   0.00000001  -0.00021673   0.00000000          0.00    -31.88      0.00
   0.00000000   0.00000000  -0.00003082          0.00      0.00     -4.53

     BFGS Geometry Optimization

     number of scf cycles    =   1
     number of bfgs steps    =   0

     energy   new            =   -1434.8098292368 Ry

     new trust radius        =       0.1032635373 bohr
     new conv_thr            =       0.0000099958 Ry

ATOMIC_POSITIONS (crystal)
Nb1      0.166666667   0.166666667   0.402010442    0   0   0
Nb1      0.666666667   0.166666667   0.402010442    0   0   0
Nb1      0.166666667   0.666666667   0.402010442    0   0   0
Nb1      0.666666667   0.666666667   0.402010442    0   0   0
Nb1      0.833333333   0.333333333   0.500000000    0   0   0
Nb1      0.333333333   0.333333333   0.500000000    0   0   0
Nb1      0.833333333   0.833333333   0.500000000    0   0   0
Nb1      0.333333333   0.833333333   0.500000000    0   0   0
Nb1     -0.000000133   0.000000012   0.600186333
Nb1      0.499890600   0.000218808   0.598229506
Nb1      0.000218636   0.499890719   0.598229980
Nb1      0.499890711   0.499890581   0.598229474
C1      -0.000000146   0.000000058   0.677984707
H1      -0.000000070   0.000000018   0.724051576

     Writing output data file calc.save
     Check: negative starting charge=   -0.004697
     NEW-OLD atomic charge density approx. for the potential
     Check: negative starting charge=   -0.004681

[...]

     energy   old            =   -1434.8098292368 Ry
     energy   new            =   -1434.8209597609 Ry

     CASE: energy  _new < energy  _old

[...]

     Threshold (ethr) on eigenvalues was too large:
     Diagonalizing with lowered threshold

     Davidson diagonalization with overlap
     ethr =  7.55E-08,  avg # of iterations =  2.8

[...]

     WARNING: bfgs curvature condition failed, Theta= 0.908
     new trust radius        =       0.0095131387 bohr
     new conv_thr            =       0.0000001000 Ry

[...]

     WARNING: bfgs curvature condition failed, Theta= 0.906
     new trust radius        =       0.0057711996 bohr
     new conv_thr            =       0.0000001000 Ry

[...]

     Total force =     0.004380     Total SCF correction =     0.000713
     SCF correction compared to forces is large: reduce conv_thr to get better values

[...]

     Threshold (ethr) on eigenvalues was too large:
     Diagonalizing with lowered threshold

     Davidson diagonalization with overlap
     ethr =  6.59E-08,  avg # of iterations =  1.8

[...]

     Total force =     0.003203     Total SCF correction =     0.000155

[...]

     number of scf cycles    =  14
     number of bfgs steps    =  13

     energy   old            =   -1434.8269123678 Ry
     energy   new            =   -1434.8269741074 Ry

     CASE: energy  _new < energy  _old

     new trust radius        =       0.0194777985 bohr
     new conv_thr            =       0.0000001000 Ry

ATOMIC_POSITIONS (crystal)
Nb1      0.166666667   0.166666667   0.402010442    0   0   0
Nb1      0.666666667   0.166666667   0.402010442    0   0   0
Nb1      0.166666667   0.666666667   0.402010442    0   0   0
Nb1      0.666666667   0.666666667   0.402010442    0   0   0
Nb1      0.833333333   0.333333333   0.500000000    0   0   0
Nb1      0.333333333   0.333333333   0.500000000    0   0   0
Nb1      0.833333333   0.833333333   0.500000000    0   0   0
Nb1      0.333333333   0.833333333   0.500000000    0   0   0
Nb1      0.000000339  -0.000000637   0.598930566
Nb1      0.498761495   0.002477571   0.600855852
Nb1      0.002476915   0.498761169   0.600855478
Nb1      0.498761739   0.498761080   0.600853554
C1      -0.000000428  -0.000000444   0.675401021
H1      -0.000000352   0.000000146   0.719371306

     Writing output data file calc.save
     Check: negative starting charge=   -0.004680
     NEW-OLD atomic charge density approx. for the potential
     Check: negative starting charge=   -0.004689

[...]

     Self-consistent Calculation

[...]

     total energy              =   -1434.82704636 Ry
     Harris-Foulkes estimate   =   -1434.82704640 Ry
     estimated scf accuracy    <       0.00000012 Ry

     iteration # 11     ecut=    36.75 Ry     beta=0.30
     Davidson diagonalization with overlap
     ethr =  7.28E-11,  avg # of iterations =  4.0

[...]

     negative rho (up, down):  4.622E-03 0.000E+00

     Adding external electric field

     Computed dipole along edir(3) :
        Dipole                0.0464 Ry au,          0.1179 Debye
        Dipole field          0.0001 Ry au

        Potential amp.       -0.0103 Ry
        Total length         45.8317 bohr

     End of self-consistent calculation

[...]

          k = 0.0558-0.0645 0.0000 ( 19505 PWs)   bands (ev):

[...]

          k =-0.0837-0.0483 0.0000 ( 19524 PWs)   bands (ev):

   -53.1189 -53.0880 -53.0544 -52.9685 -52.9624 -52.8971 -52.8915 -52.8859
   -52.8645 -52.8291 -52.8136 -52.5330 -29.3720 -29.3499 -29.3305 -29.3215
   -29.2995 -29.2893 -29.2379 -29.2190 -29.1953 -29.1819 -29.1522 -29.1006
   -29.0559 -29.0444 -29.0170 -28.9858 -28.9808 -28.9622 -28.8833 -28.8643
   -28.8585 -28.8338 -28.8091 -28.8061 -28.7478 -28.7407 -28.7190 -28.6863
   -28.6816 -28.6522 -28.6448 -28.5656 -28.5497 -28.5483 -28.5409 -28.4319
    -8.3332  -2.5384  -1.8306  -1.6468  -0.9190  -0.8045  -0.5634  -0.4516
    -0.4365  -0.3758  -0.3654  -0.2745   0.0872   0.1336   0.3296   0.3638
     0.3911   0.4743   0.5189   0.5270   0.9450   0.9894   1.0160   1.0348
     1.1943   1.2463   1.4593   1.5483   1.6118   1.7107   1.7792   1.8334
     1.8773   1.9604   2.0167   2.1237   2.1759   2.2658   2.3076   2.5084
     2.9463   3.0350

     the Fermi energy is     2.0899 ev

!    total energy              =   -1434.82704637 Ry
     Harris-Foulkes estimate   =   -1434.82704645 Ry
     estimated scf accuracy    <       0.00000002 Ry

     The total energy is the sum of the following terms:

     one-electron contribution =  -11515.96517519 Ry
     hartree contribution      =    5752.76348330 Ry
     xc contribution           =    -232.47050580 Ry
     ewald contribution        =    4560.96314884 Ry
     electric field correction =       0.00000522 Ry
     smearing contrib. (-TS)   =      -0.11800274 Ry

     convergence has been achieved in  11 iterations

 BEEF-vdW xc energy contributions
           1 :   -199.236558663536
           2 :    181.036986097383
           3 :   -150.103552284735
           4 :    114.797665807545
           5 :   -83.0544420101664
           6 :    59.7677200312617
           7 :   -45.8052792608028
           8 :    38.7208022875265
           9 :   -34.5850881403255
          10 :    29.9536069063852
          11 :   -23.1552329419529
          12 :    14.5076533575530
          13 :   -5.61382538606574
          14 :   -1.76989712677306
          15 :    6.68758086325329
          16 :   -9.34799639555010
          17 :    10.8141231832386
          18 :   -12.2874464115227
          19 :    14.4142636000599
          20 :   -16.9912683659275
          21 :    19.1791171444560
          22 :   -20.0530024367341
          23 :    19.1455137442906
          24 :   -16.6932624032275
          25 :    13.4876910885868
          26 :   -10.4581298695269
          27 :    8.23288409215712
          28 :   -6.90983088846474
          29 :    6.12562457401393
          30 :   -5.35149407984514
          31 :   -23.0620079538970
          32 :   -17.4056304989585

     Forces acting on atoms (Ry/au):

     negative rho (up, down):  4.622E-03 0.000E+00
     atom    1 type  1   force =    -0.00009276   -0.00005452   -0.00861389
     atom    2 type  1   force =     0.00009295   -0.00005488   -0.00861393
     atom    3 type  1   force =    -0.00000029    0.00010840   -0.00861396
     atom    4 type  1   force =     0.00000015    0.00000124   -0.00454124
     atom    5 type  1   force =     0.00000126    0.01039541    0.00212982
     atom    6 type  1   force =    -0.00000159    0.00000012    0.02841962
     atom    7 type  1   force =    -0.00900228   -0.00519879    0.00213130
     atom    8 type  1   force =     0.00900253   -0.00519745    0.00212835
     atom    9 type  1   force =     0.00000026   -0.00000090   -0.00031766
     atom   10 type  1   force =     0.00000008   -0.00019543   -0.00081264
     atom   11 type  1   force =    -0.00016784    0.00009845   -0.00081119
     atom   12 type  1   force =     0.00016782    0.00009823   -0.00080785
     atom   13 type  2   force =    -0.00000004    0.00000014   -0.00048558
     atom   14 type  3   force =    -0.00000024   -0.00000004   -0.00119114

     Total force =     0.001960     Total SCF correction =     0.000282
     SCF correction compared to forces is large: reduce conv_thr to get better values

     entering subroutine stress ...

     negative rho (up, down):  4.622E-03 0.000E+00
          total   stress  (Ry/bohr**3)                   (kbar)     P=  -22.74
  -0.00024163  -0.00000000  -0.00000000        -35.54     -0.00     -0.00
  -0.00000000  -0.00024163  -0.00000000         -0.00    -35.54     -0.00
  -0.00000000  -0.00000000   0.00001959         -0.00     -0.00      2.88

     bfgs converged in  15 scf cycles and  14 bfgs steps
     (criteria: energy <  1.0E+00, force <  1.9E-03)

     End of BFGS Geometry Optimization

     Final energy   =   -1434.8270463669 Ry
Begin final coordinates

ATOMIC_POSITIONS (crystal)
Nb1      0.166666667   0.166666667   0.402010442    0   0   0
Nb1      0.666666667   0.166666667   0.402010442    0   0   0
Nb1      0.166666667   0.666666667   0.402010442    0   0   0
Nb1      0.666666667   0.666666667   0.402010442    0   0   0
Nb1      0.833333333   0.333333333   0.500000000    0   0   0
Nb1      0.333333333   0.333333333   0.500000000    0   0   0
Nb1      0.833333333   0.833333333   0.500000000    0   0   0
Nb1      0.333333333   0.833333333   0.500000000    0   0   0
Nb1      0.000000339  -0.000000637   0.598930566
Nb1      0.498761495   0.002477571   0.600855852
Nb1      0.002476915   0.498761169   0.600855478
Nb1      0.498761739   0.498761080   0.600853554
C1      -0.000000428  -0.000000444   0.675401021
H1      -0.000000352   0.000000146   0.719371306
End final coordinates

     Writing output data file calc.save

     General routines

     Parallel routines

   This run was terminated on:   9:43:14  19Apr2018

   JOB DONE.
Job  /afs/slac/g/suncat/bin/suncat-tsmpirun -x LD_LIBRARY_PATH -wdir /scratch/qe517472_SwI8L pw.x -npool 4 -in pw.inp

TID   HOST_NAME   COMMAND_LINE            STATUS            TERMINATION_TIME
00000 suncat0255 pw.x -npool 4 -i  Done                     04/19/2018 09:43:14
00001 suncat0255 pw.x -npool 4 -i  Done                     04/19/2018 09:43:14
00002 suncat0255 pw.x -npool 4 -i  Done                     04/19/2018 09:43:14
00003 suncat0255 pw.x -npool 4 -i  Done                     04/19/2018 09:43:14
00004 suncat0255 pw.x -npool 4 -i  Done                     04/19/2018 09:43:14
00005 suncat0255 pw.x -npool 4 -i  Done                     04/19/2018 09:43:14
00006 suncat0255 pw.x -npool 4 -i  Done                     04/19/2018 09:43:14
00007 suncat0255 pw.x -npool 4 -i  Done                     04/19/2018 09:43:14
00008 suncat0236 pw.x -npool 4 -i  Done                     04/19/2018 09:43:14
00009 suncat0236 pw.x -npool 4 -i  Done                     04/19/2018 09:43:14
00010 suncat0236 pw.x -npool 4 -i  Done                     04/19/2018 09:43:14
00011 suncat0236 pw.x -npool 4 -i  Done                     04/19/2018 09:43:14
00012 suncat0236 pw.x -npool 4 -i  Done                     04/19/2018 09:43:14
00013 suncat0236 pw.x -npool 4 -i  Done                     04/19/2018 09:43:14
00014 suncat0236 pw.x -npool 4 -i  Done                     04/19/2018 09:43:14
00015 suncat0236 pw.x -npool 4 -i  Done                     04/19/2018 09:43:14
00016 suncat0231 pw.x -npool 4 -i  Done                     04/19/2018 09:43:14
00017 suncat0231 pw.x -npool 4 -i  Done                     04/19/2018 09:43:14
00018 suncat0231 pw.x -npool 4 -i  Done                     04/19/2018 09:43:14
00019 suncat0231 pw.x -npool 4 -i  Done                     04/19/2018 09:43:14
00020 suncat0231 pw.x -npool 4 -i  Done                     04/19/2018 09:43:14
00021 suncat0231 pw.x -npool 4 -i  Done                     04/19/2018 09:43:14
00022 suncat0231 pw.x -npool 4 -i  Done                     04/19/2018 09:43:14
00023 suncat0231 pw.x -npool 4 -i  Done                     04/19/2018 09:43:14
00024 suncat0224 pw.x -npool 4 -i  Done                     04/19/2018 09:43:14
00025 suncat0224 pw.x -npool 4 -i  Done                     04/19/2018 09:43:14
00026 suncat0224 pw.x -npool 4 -i  Done                     04/19/2018 09:43:14
00027 suncat0224 pw.x -npool 4 -i  Done                     04/19/2018 09:43:14
00028 suncat0224 pw.x -npool 4 -i  Done                     04/19/2018 09:43:14
00029 suncat0224 pw.x -npool 4 -i  Done                     04/19/2018 09:43:14
00030 suncat0224 pw.x -npool 4 -i  Done                     04/19/2018 09:43:14
00031 suncat0224 pw.x -npool 4 -i  Done                     04/19/2018 09:43:14