     Program PWSCF v.5.1rc2 (svn rev. 11289) starts on  6Jul2018 at  2:49:41

     Current dimensions of program PWSCF are:
     Max number of different atomic species (ntypx) = 10
     Max number of k-points (npk) =  40000
     Max angular momentum in pseudopotentials (lmaxx) =  3
     Presently stress not available with electric field

     IMPORTANT: XC functional enforced from input :
     Exchange-correlation      = BEEF-VDW ( 1  4 27 13 2)
     Any further DFT definition will be discarded
     Please, verify this is what you really want

     Subspace diagonalization in iterative solution of the eigenvalue problem:
     a serial algorithm will be used

     Generating pointlists ...
     new r_m :   0.4125 (alat units)  0.7795 (a.u.) for type    1
     new r_m :   0.4125 (alat units)  0.7795 (a.u.) for type    2

     bravais-lattice index     =            0
     lattice parameter (alat)  =       1.8897  a.u.
     unit-cell volume          =    3797.2497 (a.u.)^3
     number of atoms/cell      =           13
     number of atomic types    =            2
     number of electrons       =       193.00
     number of Kohn-Sham states=          106
     kinetic-energy cutoff     =      36.7493  Ry
     charge density cutoff     =     367.4932  Ry
     convergence threshold     =      1.0E-05
     mixing beta               =       0.3000
     number of iterations used =           10  plain     mixing
     Exchange-correlation      = BEEF-VDW ( 1  4 27 13 2)
     nstep                     =           50

     celldm(1)=   1.889726  celldm(2)=   0.000000  celldm(3)=   0.000000
     celldm(4)=   0.000000  celldm(5)=   0.000000  celldm(6)=   0.000000

     crystal axes: (cart. coord. in units of alat)
               a(1) = (   5.178568   0.000000   0.000000 )
               a(2) = (   2.589284   4.484771   0.000000 )
               a(3) = (   0.000000   0.000000  24.228283 )

     reciprocal axes: (cart. coord. in units 2 pi/alat)
               b(1) = (  0.193104 -0.111488  0.000000 )
               b(2) = (  0.000000  0.222977  0.000000 )
               b(3) = (  0.000000  0.000000  0.041274 )

     PseudoPot. # 1 for Fe read from file:
     /u/if/mamunm/psp/gbrv1.5pbe/Fe.UPF
     MD5 check sum: a130daea23fe5165f5d574ae7f82ed95
     Pseudo is Ultrasoft + core correction, Zval = 16.0
     Generated by new atomic code, or converted to UPF format
     Using radial grid of  861 points,  6 beta functions with:
                l(1) =   0
                l(2) =   0
                l(3) =   1
                l(4) =   1
                l(5) =   2
                l(6) =   2
     Q(r) pseudized with  8 coefficients,  rinner =    1.000   1.000   1.000
                                                       1.000   1.000

     PseudoPot. # 2 for H  read from file:
     /u/if/mamunm/psp/gbrv1.5pbe/H.UPF
     MD5 check sum: 761ae9a214b05c3daf00ab9f6b793d6f
     Pseudo is Ultrasoft, Zval =  1.0
     Generated by new atomic code, or converted to UPF format
     Using radial grid of  615 points,  2 beta functions with:
                l(1) =   0
                l(2) =   0
     Q(r) pseudized with  8 coefficients,  rinner =    0.700

     vdW kernel table read from file vdW_kernel_table
     MD5 check sum: 095c7af220d748ca6e76c0b4c6cfb241

     atomic species   valence    mass     pseudopotential
        Fe1           16.00    55.84500     Fe( 1.00)
        H1             1.00     1.00800     H ( 1.00)

     Starting magnetic structure
     atomic species   magnetization
        Fe1          0.125
        H1           0.000

     No symmetry found

   Cartesian axes

     site n.     atom                  positions (alat units)
         1           Fe1 tau(   1) = (   1.2946419   0.7474618  10.0000000  )
         2           Fe1 tau(   2) = (   3.8839257   0.7474618  10.0000000  )
         3           Fe1 tau(   3) = (   2.5892838   2.9898474  10.0000000  )
         4           Fe1 tau(   4) = (   5.1785676   2.9898474  10.0000000  )
         5           Fe1 tau(   5) = (   5.1785676   1.4949237  12.1141414  )
         6           Fe1 tau(   6) = (   2.5892838   1.4949237  12.1141414  )
         7           Fe1 tau(   7) = (   6.4732095   3.7373092  12.1141414  )
         8           Fe1 tau(   8) = (   3.8839257   3.7373092  12.1141414  )
         9           Fe1 tau(   9) = (   0.0000000   0.0000000  14.2282827  )
        10           Fe1 tau(  10) = (   2.5892838   0.0000000  14.2282827  )
        11           Fe1 tau(  11) = (   1.2946419   2.2423855  14.2282827  )
        12           Fe1 tau(  12) = (   3.8839257   2.2423855  14.2282827  )
        13           H1  tau(  13) = (   0.0000000   0.0000000  15.6137827  )

     number of k points=    40  Fermi-Dirac smearing, width (Ry)=  0.0110
                       cart. coord. in units 2pi/alat
        k(    1) = (   0.0000000   0.0000000   0.0000000), wk =   0.0277778
        k(    2) = (   0.0000000   0.0371628   0.0000000), wk =   0.0555556
        k(    3) = (   0.0000000   0.0743256   0.0000000), wk =   0.0555556
        k(    4) = (   0.0000000  -0.1114884   0.0000000), wk =   0.0277778
        k(    5) = (   0.0321839  -0.0185814   0.0000000), wk =   0.0555556
        k(    6) = (   0.0321839   0.0185814   0.0000000), wk =   0.0555556
        k(    7) = (   0.0321839   0.0557442   0.0000000), wk =   0.0555556
        k(    8) = (   0.0321839  -0.1300698   0.0000000), wk =   0.0555556
        k(    9) = (   0.0321839  -0.0929070   0.0000000), wk =   0.0555556
        k(   10) = (   0.0321839  -0.0557442   0.0000000), wk =   0.0555556
        k(   11) = (   0.0643679  -0.0371628   0.0000000), wk =   0.0555556
        k(   12) = (   0.0643679   0.0000000   0.0000000), wk =   0.0555556
        k(   13) = (   0.0643679   0.0371628   0.0000000), wk =   0.0555556
        k(   14) = (   0.0643679  -0.1486512   0.0000000), wk =   0.0555556
        k(   15) = (   0.0643679  -0.1114884   0.0000000), wk =   0.0555556
        k(   16) = (   0.0643679  -0.0743256   0.0000000), wk =   0.0555556
        k(   17) = (  -0.0965518   0.0557442   0.0000000), wk =   0.0277778
        k(   18) = (  -0.0965518   0.0929070   0.0000000), wk =   0.0555556
        k(   19) = (  -0.0965518   0.1300698   0.0000000), wk =   0.0555556
        k(   20) = (  -0.0965518  -0.0557442   0.0000000), wk =   0.0277778
        k(   21) = (   0.0000000   0.0000000   0.0000000), wk =   0.0277778
        k(   22) = (   0.0000000   0.0371628   0.0000000), wk =   0.0555556
        k(   23) = (   0.0000000   0.0743256   0.0000000), wk =   0.0555556
        k(   24) = (   0.0000000  -0.1114884   0.0000000), wk =   0.0277778
        k(   25) = (   0.0321839  -0.0185814   0.0000000), wk =   0.0555556
        k(   26) = (   0.0321839   0.0185814   0.0000000), wk =   0.0555556
        k(   27) = (   0.0321839   0.0557442   0.0000000), wk =   0.0555556
        k(   28) = (   0.0321839  -0.1300698   0.0000000), wk =   0.0555556
        k(   29) = (   0.0321839  -0.0929070   0.0000000), wk =   0.0555556
        k(   30) = (   0.0321839  -0.0557442   0.0000000), wk =   0.0555556
        k(   31) = (   0.0643679  -0.0371628   0.0000000), wk =   0.0555556
        k(   32) = (   0.0643679   0.0000000   0.0000000), wk =   0.0555556
        k(   33) = (   0.0643679   0.0371628   0.0000000), wk =   0.0555556
        k(   34) = (   0.0643679  -0.1486512   0.0000000), wk =   0.0555556
        k(   35) = (   0.0643679  -0.1114884   0.0000000), wk =   0.0555556
        k(   36) = (   0.0643679  -0.0743256   0.0000000), wk =   0.0555556
        k(   37) = (  -0.0965518   0.0557442   0.0000000), wk =   0.0277778
        k(   38) = (  -0.0965518   0.0929070   0.0000000), wk =   0.0555556
        k(   39) = (  -0.0965518   0.1300698   0.0000000), wk =   0.0555556
        k(   40) = (  -0.0965518  -0.0557442   0.0000000), wk =   0.0277778

     Largest allocated arrays     est. size (Mb)     dimensions
     Largest temporary arrays     est. size (Mb)     dimensions

     Check: negative/imaginary core charge=   -0.000008    0.000000

     Initial potential from superposition of free atoms
     Check: negative starting charge=(component1):   -0.000108

     starting charge  180.99992, renormalised to  193.00000

     negative rho (up, down):  1.155E-04 8.890E-05

     *
     * You are using vdW-DF for exchange-correlation in this calculation.
     * Please cite the following three references that made this development
     * possible:
     *
     *   M. Dion, H. Rydberg, E. Schroder, D. C. Langreth, and
     *   B. I. Lundqvist, Phys. Rev. Lett. 92, 246401 (2004).
     *
     *   T. Thonhauser, V. R. Cooper, S. Li, A. Puzder, P. Hyldgaard, and
     *   D. C. Langreth, Phys. Rev. B 76, 125112 (2007).
     *
     *   G. Roman-Perez and J. M. Soler, Phys. Rev. Lett. 103, 096102 (2009).
     *
     *
     * If you are using vdW-DF2, please also cite:
     *
     *   K. Lee, E. D. Murray, L. Kong, B. I. Lundqvist, and
     *   D. C. Langreth, Phys. Rev. B 82, 081101(R) (2010).
     *
     *
     * If you are calculating the stress with vdW-DF, please also cite:
     *
     *   R. Sabatini, E. Kucukbenli, B. Kolb, T. Thonhauser, and
     *   S. de Gironcoli, J. Phys.: Condens. Matter 24, 424209 (2012).
     *

     Carrying out vdW-DF run using the following parameters:

     Nqs =      20    Nr_points =    1024   r_max =   100.000
     q_mesh =
               0.00001000     0.04494208     0.09755937     0.15916263
               0.23128650     0.31572767     0.41458969     0.53033537
               0.66584808     0.82450364     1.01025438     1.22772762
               1.48234092     1.78043706     2.12944203     2.53805004
               3.01644009     3.57652955     4.23227104     5.00000000

     Gradients computed in reciprocal space

     Adding external electric field

     Computed dipole along edir(3) :
        Dipole               -0.4384 Ry au,         -1.1143 Debye
        Dipole field         -0.0015 Ry au

        Potential amp.        0.1295 Ry
        Total length         44.6402 bohr

[...]

     Starting wfc are  157 randomized atomic wfcs

     Self-consistent Calculation

     iteration #  1     ecut=    36.75 Ry     beta=0.30
     Davidson diagonalization with overlap
     ethr =  1.00E-02,  avg # of iterations =  3.3

[...]

     Magnetic moment per site:
     atom:    1    charge:    7.1035    magn:    0.8426    constr:    0.0000
     atom:    2    charge:    7.1035    magn:    0.8425    constr:    0.0000
     atom:    3    charge:    7.1035    magn:    0.8426    constr:    0.0000
     atom:    4    charge:    7.1047    magn:    0.8426    constr:    0.0000
     atom:    5    charge:    7.0423    magn:    0.7943    constr:    0.0000
     atom:    6    charge:    7.0472    magn:    0.7998    constr:    0.0000
     atom:    7    charge:    7.0424    magn:    0.7943    constr:    0.0000
     atom:    8    charge:    7.0422    magn:    0.7943    constr:    0.0000
     atom:    9    charge:    6.9579    magn:    0.7559    constr:    0.0000
     atom:   10    charge:    6.9076    magn:    0.7660    constr:    0.0000
     atom:   11    charge:    6.9078    magn:    0.7660    constr:    0.0000
[...]
     hartree contribution      =   12751.69812778 Ry
     xc contribution           =    -363.81573662 Ry
     ewald contribution        =   10104.57900934 Ry
     electric field correction =       0.00000813 Ry
     smearing contrib. (-TS)   =      -0.09297100 Ry

[...]

     convergence has been achieved in 500 iterations

 BEEF-vdW xc energy contributions
           1 :   -318.371940393481
           2 :    287.766521261717
           3 :   -236.656117015034
           4 :    180.216568380797
           5 :   -131.920556500129
           6 :    98.6327758405862
           7 :   -79.6666472874674
           8 :    69.4087894212488
           9 :   -61.4652616738555
          10 :    51.9589595812694
          11 :   -40.5894973038154
          12 :    29.4784598850145
          13 :   -21.0116106961760
          14 :    16.1443907842290
          15 :   -14.0540015972705
          16 :    12.9824853043842
          17 :   -11.4544233344571
          18 :    9.02019789579140
          19 :   -6.20839148762508
          20 :    3.90705253846505
          21 :   -2.68945806699730
          22 :    2.48782863124313
          23 :   -2.73365612181948
          24 :    2.76438538426123
          25 :   -2.20347040032306
          26 :    1.10135333490956
          27 :   0.168642109793325
          28 :   -1.15390167212956
          29 :    1.56014335840661
          30 :   -1.39229787658849
          31 :   -28.1049748194314
          32 :   -19.8029495518200

     Forces acting on atoms (Ry/au):

     negative rho (up, down):  4.055E-04 8.214E-04
     atom    1 type  1   force =     0.00136974   -0.00044359    0.00761851
     atom    2 type  1   force =    -0.00024010    0.00005633    0.02340911
     atom    3 type  1   force =     0.00098673   -0.00091808    0.00766621
     atom    4 type  1   force =    -0.00104597    0.00069618    0.01977879
     atom    5 type  1   force =     0.00069864   -0.00310593   -0.00503157
     atom    6 type  1   force =    -0.00139160    0.00063423   -0.00461130
     atom    7 type  1   force =     0.00289414    0.00103525   -0.00486706
     atom    8 type  1   force =    -0.00338530    0.00211487   -0.00694169
     atom    9 type  1   force =     0.00004785   -0.00008712   -0.12250642
     atom   10 type  1   force =    -0.00040562    0.00098944   -0.00765880
     atom   11 type  1   force =     0.00078598   -0.00039629   -0.01090429
     atom   12 type  1   force =    -0.00111087   -0.00011470   -0.00756353
     atom   13 type  2   force =     0.00079638   -0.00046061    0.11161204

     Total force =     0.166445     Total SCF correction =     0.002802

     entering subroutine stress ...

     negative rho (up, down):  4.055E-04 8.214E-04
          total   stress  (Ry/bohr**3)                   (kbar)     P=  -24.56
  -0.00021802  -0.00002572  -0.00000032        -32.07     -3.78     -0.05
  -0.00002572  -0.00024773   0.00000017         -3.78    -36.44      0.02
  -0.00000032   0.00000017  -0.00003518         -0.05      0.02     -5.18

     BFGS Geometry Optimization

     number of scf cycles    =   1
     number of bfgs steps    =   0

     energy   new            =   -3017.0177034018 Ry

     new trust radius        =       0.1225064565 bohr
     new conv_thr            =       0.0000099958 Ry

ATOMIC_POSITIONS (crystal)
Fe1      0.166666667   0.166666667   0.412740767    0   0   0
Fe1      0.666666667   0.166666667   0.412740767    0   0   0
Fe1      0.166666667   0.666666667   0.412740767    0   0   0
Fe1      0.666666667   0.666666667   0.412740767    0   0   0
Fe1      0.833333333   0.333333333   0.500000000    0   0   0
Fe1      0.333333333   0.333333333   0.500000000    0   0   0
Fe1      0.833333333   0.833333333   0.500000000    0   0   0
Fe1      0.333333333   0.833333333   0.500000000    0   0   0
Fe1      0.000010029  -0.000010279   0.584583533
Fe1      0.499900177   0.000116749   0.587091955
Fe1      0.000103696   0.499953240   0.587021069
Fe1      0.499893252   0.499986466   0.587094035
H1       0.000108554  -0.000054349   0.646882218

     Writing output data file calc.save
     Check: negative starting charge=(component1):   -0.000192
     NEW-OLD atomic charge density approx. for the potential

     Check: negative/imaginary core charge=   -0.000008    0.000000
     Check: negative starting charge=(component1):   -0.000193

[...]

     energy   old            =   -3017.0177034018 Ry
     energy   new            =   -3017.0337946573 Ry

     CASE: energy  _new < energy  _old

[...]

     Total force =     0.008027     Total SCF correction =     0.000170

[...]

     Total force =     0.003848     Total SCF correction =     0.000485
     SCF correction compared to forces is large: reduce conv_thr to get better values

[...]

     number of scf cycles    =   8
     number of bfgs steps    =   7

     energy   old            =   -3017.0360287415 Ry
     energy   new            =   -3017.0361179795 Ry

     CASE: energy  _new < energy  _old

     new trust radius        =       0.0051950530 bohr
     new conv_thr            =       0.0000001000 Ry

ATOMIC_POSITIONS (crystal)
Fe1      0.166666667   0.166666667   0.412740767    0   0   0
Fe1      0.666666667   0.166666667   0.412740767    0   0   0
Fe1      0.166666667   0.666666667   0.412740767    0   0   0
Fe1      0.666666667   0.666666667   0.412740767    0   0   0
Fe1      0.833333333   0.333333333   0.500000000    0   0   0
Fe1      0.333333333   0.333333333   0.500000000    0   0   0
Fe1      0.833333333   0.833333333   0.500000000    0   0   0
Fe1      0.333333333   0.833333333   0.500000000    0   0   0
Fe1     -0.000250832   0.000130597   0.583904906
Fe1      0.498750040   0.001479869   0.585184568
Fe1      0.000652901   0.499667800   0.584032425
Fe1      0.498756953   0.499767135   0.585186969
H1       0.002084717  -0.001043551   0.648388963

     Writing output data file calc.save
     Check: negative starting charge=(component1):   -0.000188
     NEW-OLD atomic charge density approx. for the potential

     Check: negative/imaginary core charge=   -0.000008    0.000000
     Check: negative starting charge=(component1):   -0.000188

[...]

     Self-consistent Calculation

[...]

     iteration # 19     ecut=    36.75 Ry     beta=0.30
     Davidson diagonalization with overlap
     c_bands:  1 eigenvalues not converged
     ethr =  1.91E-10,  avg # of iterations =  2.9

[...]

     total energy              =   -3017.03613348 Ry
     Harris-Foulkes estimate   =   -3017.03613349 Ry
     estimated scf accuracy    <       0.00000020 Ry

[...]

     iteration # 20     ecut=    36.75 Ry     beta=0.30
     Davidson diagonalization with overlap
     ethr =  1.02E-10,  avg # of iterations =  6.3

[...]

     negative rho (up, down):  4.134E-04 7.958E-04

[...]

     Adding external electric field

     Computed dipole along edir(3) :
        Dipole               -0.0778 Ry au,         -0.1978 Debye
        Dipole field         -0.0003 Ry au

        Potential amp.        0.0230 Ry
        Total length         44.6402 bohr

     Magnetic moment per site:
     atom:    1    charge:    7.0912    magn:   -1.2233    constr:    0.0000
     atom:    2    charge:    7.0918    magn:    1.1938    constr:    0.0000
     atom:    3    charge:    7.0912    magn:   -1.2233    constr:    0.0000
     atom:    4    charge:    7.0920    magn:    1.2036    constr:    0.0000
     atom:    5    charge:    7.0929    magn:    1.1355    constr:    0.0000
     atom:    6    charge:    7.0946    magn:    1.1983    constr:    0.0000
     atom:    7    charge:    7.0929    magn:    1.1355    constr:    0.0000
     atom:    8    charge:    7.0916    magn:    1.0799    constr:    0.0000
     atom:    9    charge:    6.8826    magn:   -1.0191    constr:    0.0000
     atom:   10    charge:    7.0203    magn:    1.2424    constr:    0.0000
     atom:   11    charge:    6.9160    magn:    1.2109    constr:    0.0000
     atom:   12    charge:    7.0205    magn:    1.2425    constr:    0.0000
     atom:   13    charge:    0.3431    magn:    0.0218    constr:    0.0000

     End of self-consistent calculation

 ------ SPIN UP ------------

[...]

 ------ SPIN DOWN ----------

[...]

          k = 0.0644-0.0743 0.0000 ( 14261 PWs)   bands (ev):

[...]

          k =-0.0966-0.0557 0.0000 ( 14254 PWs)   bands (ev):

   -88.2475 -88.2475 -88.0594 -84.9146 -84.8630 -84.8593 -84.8122 -84.8092
   -84.7617 -84.7381 -84.7324 -84.7222 -54.4919 -54.4919 -54.2903 -54.2903
   -54.1529 -54.1090 -53.9750 -53.9748 -53.9327 -51.1081 -51.0532 -51.0510
   -51.0346 -51.0318 -51.0114 -50.9860 -50.9691 -50.9622 -50.9474 -50.9431
   -50.9227 -50.9147 -50.9051 -50.8938 -50.8708 -50.8547 -50.8356 -50.8230
   -50.8216 -50.7892 -50.7760 -50.7484 -50.7457 -50.7397 -50.7076 -50.6948
    -5.1204  -4.9999  -3.7936  -3.4395  -3.1373  -2.9791  -2.8611  -2.6598
    -2.5935  -2.4998  -2.3870  -2.3148  -2.2272  -2.1703  -2.1622  -2.1408
    -2.0718  -1.9302  -1.9234  -1.8414  -1.6377  -1.3615  -1.3492  -1.1010
    -1.0071  -0.8781  -0.7705  -0.7200  -0.3906  -0.3105  -0.1682  -0.1283
    -0.0062   0.0424   0.0537   0.1537   0.2001   0.3494   0.4725   0.5345
     0.5908   0.6935   0.7401   0.8007   0.9924   1.0182   1.1165   1.2995
     1.3212   1.3919   1.4591   1.5864   1.6319   1.7233   1.8200   1.9617
     1.9929   2.0328

     the Fermi energy is     0.7224 ev

!    total energy              =   -3017.03613347 Ry
     Harris-Foulkes estimate   =   -3017.03613396 Ry
     estimated scf accuracy    <       0.00000006 Ry

     The total energy is the sum of the following terms:

     one-electron contribution =  -25723.16356898 Ry
     hartree contribution      =   12858.38261652 Ry
     xc contribution           =    -363.80174431 Ry
     ewald contribution        =   10211.64117392 Ry
     electric field correction =       0.00002004 Ry
     smearing contrib. (-TS)   =      -0.09463066 Ry

     total magnetization       =    14.80 Bohr mag/cell
     absolute magnetization    =    31.41 Bohr mag/cell

     convergence has been achieved in  20 iterations

 BEEF-vdW xc energy contributions
           1 :   -318.361787333899
           2 :    287.790958145560
           3 :   -236.719543553191
           4 :    180.285729886685
           5 :   -131.950818004189
           6 :    98.6071952398554
           7 :   -79.6148071434750
           8 :    69.3860497815040
           9 :   -61.5092260028408
          10 :    52.0573512263387
          11 :   -40.6860596732362
          12 :    29.5124040237529
          13 :   -20.9612921081476
          14 :    16.0440586354130
          15 :   -13.9719059203081
          16 :    12.9742629553546
          17 :   -11.5252591977741
          18 :    9.12357443102582
          19 :   -6.28066765012375
          20 :    3.91029465507319
          21 :   -2.63248246705291
          22 :    2.41431027431474
          23 :   -2.68937469269042
          24 :    2.76663780349662
          25 :   -2.23234415508603
          26 :    1.11643046077319
          27 :   0.199083065875584
          28 :   -1.23188425036676
          29 :    1.65791903348196
          30 :   -1.46954286219466
          31 :   -28.1116031418934
          32 :   -19.8155767274133

     Forces acting on atoms (Ry/au):

     negative rho (up, down):  4.134E-04 7.958E-04
     atom    1 type  1   force =     0.00102650   -0.00070209    0.00769672
     atom    2 type  1   force =    -0.00012130    0.00006376    0.02441107
     atom    3 type  1   force =     0.00111726   -0.00053563    0.00770802
     atom    4 type  1   force =    -0.00082122    0.00048039    0.01956943
     atom    5 type  1   force =     0.00038500   -0.00313462   -0.01513407
     atom    6 type  1   force =    -0.00081998    0.00047299   -0.01653494
     atom    7 type  1   force =     0.00290741    0.00123410   -0.01512742
     atom    8 type  1   force =    -0.00338860    0.00195838   -0.01416059
     atom    9 type  1   force =    -0.00031127    0.00015786    0.00062614
     atom   10 type  1   force =    -0.00016553   -0.00071762    0.00064575
     atom   11 type  1   force =    -0.00115943    0.00069078   -0.00032370
     atom   12 type  1   force =     0.00052003    0.00051145    0.00064606
     atom   13 type  2   force =     0.00083113   -0.00047975   -0.00002249

     Total force =     0.002296     Total SCF correction =     0.000421
     SCF correction compared to forces is large: reduce conv_thr to get better values

     entering subroutine stress ...

     negative rho (up, down):  4.134E-04 7.958E-04
          total   stress  (Ry/bohr**3)                   (kbar)     P=  -23.06
  -0.00018667  -0.00002496  -0.00000080        -27.46     -3.67     -0.12
  -0.00002496  -0.00021550   0.00000046         -3.67    -31.70      0.07
  -0.00000080   0.00000046  -0.00006804         -0.12      0.07    -10.01

     bfgs converged in   9 scf cycles and   8 bfgs steps
     (criteria: energy <  1.0E+00, force <  1.9E-03)

     End of BFGS Geometry Optimization

     Final energy   =   -3017.0361334661 Ry
Begin final coordinates

ATOMIC_POSITIONS (crystal)
Fe1      0.166666667   0.166666667   0.412740767    0   0   0
Fe1      0.666666667   0.166666667   0.412740767    0   0   0
Fe1      0.166666667   0.666666667   0.412740767    0   0   0
Fe1      0.666666667   0.666666667   0.412740767    0   0   0
Fe1      0.833333333   0.333333333   0.500000000    0   0   0
Fe1      0.333333333   0.333333333   0.500000000    0   0   0
Fe1      0.833333333   0.833333333   0.500000000    0   0   0
Fe1      0.333333333   0.833333333   0.500000000    0   0   0
Fe1     -0.000250832   0.000130597   0.583904906
Fe1      0.498750040   0.001479869   0.585184568
Fe1      0.000652901   0.499667800   0.584032425
Fe1      0.498756953   0.499767135   0.585186969
H1       0.002084717  -0.001043551   0.648388963
End final coordinates

     Writing output data file calc.save

     General routines

     Parallel routines

   This run was terminated on:  10: 5:21   6Jul2018

   JOB DONE.
Job  /afs/slac/g/suncat/bin/suncat-tsmpirun -x LD_LIBRARY_PATH -wdir /scratch/qe287551_hI2Ax pw.x -npool 4 -in pw.inp

TID   HOST_NAME   COMMAND_LINE            STATUS            TERMINATION_TIME
00000 suncat0120 pw.x -npool 4 -i  Done                     07/06/2018 10:05:21
00001 suncat0120 pw.x -npool 4 -i  Done                     07/06/2018 10:05:21
00002 suncat0120 pw.x -npool 4 -i  Done                     07/06/2018 10:05:21
00003 suncat0120 pw.x -npool 4 -i  Done                     07/06/2018 10:05:21
00004 suncat0120 pw.x -npool 4 -i  Done                     07/06/2018 10:05:21
00005 suncat0120 pw.x -npool 4 -i  Done                     07/06/2018 10:05:21
00006 suncat0120 pw.x -npool 4 -i  Done                     07/06/2018 10:05:21
00007 suncat0120 pw.x -npool 4 -i  Done                     07/06/2018 10:05:21
00008 suncat0108 pw.x -npool 4 -i  Done                     07/06/2018 10:05:21
00009 suncat0108 pw.x -npool 4 -i  Done                     07/06/2018 10:05:21
00010 suncat0108 pw.x -npool 4 -i  Done                     07/06/2018 10:05:21
00011 suncat0108 pw.x -npool 4 -i  Done                     07/06/2018 10:05:21
00012 suncat0108 pw.x -npool 4 -i  Done                     07/06/2018 10:05:21
00013 suncat0108 pw.x -npool 4 -i  Done                     07/06/2018 10:05:21
00014 suncat0108 pw.x -npool 4 -i  Done                     07/06/2018 10:05:21
00015 suncat0108 pw.x -npool 4 -i  Done                     07/06/2018 10:05:21
00016 suncat0107 pw.x -npool 4 -i  Done                     07/06/2018 10:05:21
00017 suncat0107 pw.x -npool 4 -i  Done                     07/06/2018 10:05:21
00018 suncat0107 pw.x -npool 4 -i  Done                     07/06/2018 10:05:21
00019 suncat0107 pw.x -npool 4 -i  Done                     07/06/2018 10:05:21
00020 suncat0107 pw.x -npool 4 -i  Done                     07/06/2018 10:05:21
00021 suncat0107 pw.x -npool 4 -i  Done                     07/06/2018 10:05:21
00022 suncat0107 pw.x -npool 4 -i  Done                     07/06/2018 10:05:21
00023 suncat0107 pw.x -npool 4 -i  Done                     07/06/2018 10:05:21
00024 suncat0282 pw.x -npool 4 -i  Done                     07/06/2018 10:05:21
00025 suncat0282 pw.x -npool 4 -i  Done                     07/06/2018 10:05:21
00026 suncat0282 pw.x -npool 4 -i  Done                     07/06/2018 10:05:21
00027 suncat0282 pw.x -npool 4 -i  Done                     07/06/2018 10:05:21
00028 suncat0282 pw.x -npool 4 -i  Done                     07/06/2018 10:05:21
00029 suncat0282 pw.x -npool 4 -i  Done                     07/06/2018 10:05:21
00030 suncat0282 pw.x -npool 4 -i  Done                     07/06/2018 10:05:21
00031 suncat0282 pw.x -npool 4 -i  Done                     07/06/2018 10:05:21