     Program PWSCF v.5.1rc2 (svn rev. 11289) starts on 28Jan2019 at  1:31:49

     Current dimensions of program PWSCF are:
     Max number of different atomic species (ntypx) = 10
     Max number of k-points (npk) =  40000
     Max angular momentum in pseudopotentials (lmaxx) =  3

     IMPORTANT: XC functional enforced from input :
     Exchange-correlation      = BEEF-VDW ( 1  4 27 13 2)
     Any further DFT definition will be discarded
     Please, verify this is what you really want

     Subspace diagonalization in iterative solution of the eigenvalue problem:
     a serial algorithm will be used

     Generating pointlists ...
     new r_m :   0.1313 (alat units)  1.2441 (a.u.) for type    1
     new r_m :   0.1737 (alat units)  1.6454 (a.u.) for type    2
     new r_m :   0.1313 (alat units)  1.2441 (a.u.) for type    3

     bravais-lattice index     =            0
     lattice parameter (alat)  =       9.4723  a.u.
     unit-cell volume          =    3537.7769 (a.u.)^3
     number of atoms/cell      =           14
     number of atomic types    =            3
     number of electrons       =       211.00
     number of Kohn-Sham states=          115
     kinetic-energy cutoff     =      36.7493  Ry
     charge density cutoff     =     367.4933  Ry
     convergence threshold     =      1.0E-04
     mixing beta               =       0.3000
     number of iterations used =            8  plain     mixing
     Exchange-correlation      = BEEF-VDW ( 1  4 27 13 2)
     nstep                     =           50

     celldm(1)=   9.472344  celldm(2)=   0.000000  celldm(3)=   0.000000
     celldm(4)=   0.000000  celldm(5)=   0.000000  celldm(6)=   0.000000

     crystal axes: (cart. coord. in units of alat)
               a(1) = (   1.000000   0.000000   0.000000 )
               a(2) = (   0.500000   0.866025   0.000000 )
               a(3) = (   0.000000   0.000000   4.806483 )

     reciprocal axes: (cart. coord. in units 2 pi/alat)
               b(1) = (  1.000000 -0.577350  0.000000 )
               b(2) = (  0.000000  1.154701  0.000000 )
               b(3) = (  0.000000  0.000000  0.208052 )

     PseudoPot. # 1 for Co read from file:
     /nfs/slac/staas/fs1/g/suncat/jboes/src/decaf-espresso/gbrv15pbe/Co.UPF
     MD5 check sum: 5f91765df6ddd3222702df6e7b74a16d
     Pseudo is Ultrasoft + core correction, Zval = 17.0
     Generated by new atomic code, or converted to UPF format
     Using radial grid of  863 points,  6 beta functions with:
                l(1) =   0
                l(2) =   0
                l(3) =   1
                l(4) =   1
                l(5) =   2
                l(6) =   2
     Q(r) pseudized with  8 coefficients,  rinner =    1.200   1.200   1.200
                                                       1.200   1.200

     PseudoPot. # 2 for S  read from file:
     /nfs/slac/staas/fs1/g/suncat/jboes/src/decaf-espresso/gbrv15pbe/S.UPF
     MD5 check sum: 88d86576ff6df21479756cfb9bdac1df
     Pseudo is Ultrasoft + core correction, Zval =  6.0
     Generated by new atomic code, or converted to UPF format
     Using radial grid of  907 points,  6 beta functions with:
                l(1) =   0
                l(2) =   0
                l(3) =   1
                l(4) =   1
                l(5) =   2
                l(6) =   2
     Q(r) pseudized with  8 coefficients,  rinner =    1.300   1.300   1.300
                                                       1.300   1.300

     PseudoPot. # 3 for H  read from file:
     /nfs/slac/staas/fs1/g/suncat/jboes/src/decaf-espresso/gbrv15pbe/H.UPF
     MD5 check sum: 761ae9a214b05c3daf00ab9f6b793d6f
     Pseudo is Ultrasoft, Zval =  1.0
     Generated by new atomic code, or converted to UPF format
     Using radial grid of  615 points,  2 beta functions with:
                l(1) =   0
                l(2) =   0
     Q(r) pseudized with  8 coefficients,  rinner =    0.700

     vdW kernel table read from file vdW_kernel_table
     MD5 check sum: 095c7af220d748ca6e76c0b4c6cfb241

     atomic species   valence    mass     pseudopotential
        Co            17.00    58.93319     Co( 1.00)
        S              6.00    32.06000     S ( 1.00)
        H              1.00     1.00800     H ( 1.00)

     Starting magnetic structure
     atomic species   magnetization
        Co           0.065
        S            0.000
        H            0.000

     No symmetry found

   Cartesian axes

     site n.     atom                  positions (alat units)
         1           Co  tau(   1) = (   0.9100563   0.5253577   2.4228039  )
         2           Co  tau(   2) = (   0.4100563   0.5253577   2.4228039  )
         3           Co  tau(   3) = (   0.1600563   0.0923450   2.4228039  )
         4           Co  tau(   4) = (   0.6600563   0.0923450   2.4228039  )
         5           Co  tau(   5) = (   0.9100563   0.2366826   2.8310521  )
         6           Co  tau(   6) = (   0.4100563   0.2366826   2.8310521  )
         7           Co  tau(   7) = (   1.1600563   0.6696953   2.8310521  )
         8           Co  tau(   8) = (   0.6600563   0.6696953   2.8310521  )
         9           Co  tau(   9) = (   0.9135298   0.8139444   3.2483253  )
        10           Co  tau(  10) = (   1.4302461   0.8256865   3.2265707  )
        11           Co  tau(  11) = (   0.6451912   0.3724475   3.2217593  )
        12           Co  tau(  12) = (   1.1617275   0.3840814   3.2483253  )
        13           S   tau(  13) = (   0.8566680   0.4945589   3.5648209  )
        14           H   tau(  14) = (   1.2050293   0.6956905   3.4103120  )

     number of k points=    40  Fermi-Dirac smearing, width (Ry)=  0.0110
                       cart. coord. in units 2pi/alat
        k(    1) = (   0.0000000   0.0000000   0.0000000), wk =   0.0277778
        k(    2) = (   0.0000000   0.1924501   0.0000000), wk =   0.0555556
        k(    3) = (   0.0000000   0.3849002   0.0000000), wk =   0.0555556
        k(    4) = (   0.0000000  -0.5773503   0.0000000), wk =   0.0277778
        k(    5) = (   0.1666667  -0.0962250   0.0000000), wk =   0.0555556
        k(    6) = (   0.1666667   0.0962250   0.0000000), wk =   0.0555556
        k(    7) = (   0.1666667   0.2886751   0.0000000), wk =   0.0555556
        k(    8) = (   0.1666667  -0.6735753   0.0000000), wk =   0.0555556
        k(    9) = (   0.1666667  -0.4811252   0.0000000), wk =   0.0555556
        k(   10) = (   0.1666667  -0.2886751   0.0000000), wk =   0.0555556
        k(   11) = (   0.3333333  -0.1924501   0.0000000), wk =   0.0555556
        k(   12) = (   0.3333333  -0.0000000   0.0000000), wk =   0.0555556
        k(   13) = (   0.3333333   0.1924501   0.0000000), wk =   0.0555556
        k(   14) = (   0.3333333  -0.7698004   0.0000000), wk =   0.0555556
        k(   15) = (   0.3333333  -0.5773503   0.0000000), wk =   0.0555556
        k(   16) = (   0.3333333  -0.3849002   0.0000000), wk =   0.0555556
        k(   17) = (  -0.5000000   0.2886751   0.0000000), wk =   0.0277778
        k(   18) = (  -0.5000000   0.4811252   0.0000000), wk =   0.0555556
        k(   19) = (  -0.5000000   0.6735753   0.0000000), wk =   0.0555556
        k(   20) = (  -0.5000000  -0.2886751   0.0000000), wk =   0.0277778
        k(   21) = (   0.0000000   0.0000000   0.0000000), wk =   0.0277778
        k(   22) = (   0.0000000   0.1924501   0.0000000), wk =   0.0555556
        k(   23) = (   0.0000000   0.3849002   0.0000000), wk =   0.0555556
        k(   24) = (   0.0000000  -0.5773503   0.0000000), wk =   0.0277778
        k(   25) = (   0.1666667  -0.0962250   0.0000000), wk =   0.0555556
        k(   26) = (   0.1666667   0.0962250   0.0000000), wk =   0.0555556
        k(   27) = (   0.1666667   0.2886751   0.0000000), wk =   0.0555556
        k(   28) = (   0.1666667  -0.6735753   0.0000000), wk =   0.0555556
        k(   29) = (   0.1666667  -0.4811252   0.0000000), wk =   0.0555556
        k(   30) = (   0.1666667  -0.2886751   0.0000000), wk =   0.0555556
        k(   31) = (   0.3333333  -0.1924501   0.0000000), wk =   0.0555556
        k(   32) = (   0.3333333  -0.0000000   0.0000000), wk =   0.0555556
        k(   33) = (   0.3333333   0.1924501   0.0000000), wk =   0.0555556
        k(   34) = (   0.3333333  -0.7698004   0.0000000), wk =   0.0555556
        k(   35) = (   0.3333333  -0.5773503   0.0000000), wk =   0.0555556
        k(   36) = (   0.3333333  -0.3849002   0.0000000), wk =   0.0555556
        k(   37) = (  -0.5000000   0.2886751   0.0000000), wk =   0.0277778
        k(   38) = (  -0.5000000   0.4811252   0.0000000), wk =   0.0555556
        k(   39) = (  -0.5000000   0.6735753   0.0000000), wk =   0.0555556
        k(   40) = (  -0.5000000  -0.2886751   0.0000000), wk =   0.0277778

     Largest allocated arrays     est. size (Mb)     dimensions
     Largest temporary arrays     est. size (Mb)     dimensions

     Check: negative/imaginary core charge=   -0.000007    0.000000

     Initial potential from superposition of free atoms
     Check: negative starting charge=(component1):   -0.000171
     Check: negative starting charge=(component2):   -0.000149

     starting charge  198.99987, renormalised to  211.00000

     negative rho (up, down):  1.810E-04 1.584E-04

     *
     * You are using vdW-DF for exchange-correlation in this calculation.
     * Please cite the following three references that made this development
     * possible:
     *
     *   M. Dion, H. Rydberg, E. Schroder, D. C. Langreth, and
     *   B. I. Lundqvist, Phys. Rev. Lett. 92, 246401 (2004).
     *
     *   T. Thonhauser, V. R. Cooper, S. Li, A. Puzder, P. Hyldgaard, and
     *   D. C. Langreth, Phys. Rev. B 76, 125112 (2007).
     *
     *   G. Roman-Perez and J. M. Soler, Phys. Rev. Lett. 103, 096102 (2009).
     *
     *
     * If you are using vdW-DF2, please also cite:
     *
     *   K. Lee, E. D. Murray, L. Kong, B. I. Lundqvist, and
     *   D. C. Langreth, Phys. Rev. B 82, 081101(R) (2010).
     *
     *
     * If you are calculating the stress with vdW-DF, please also cite:
     *
     *   R. Sabatini, E. Kucukbenli, B. Kolb, T. Thonhauser, and
     *   S. de Gironcoli, J. Phys.: Condens. Matter 24, 424209 (2012).
     *

     Carrying out vdW-DF run using the following parameters:

     Nqs =      20    Nr_points =    1024   r_max =   100.000
     q_mesh =
               0.00001000     0.04494208     0.09755937     0.15916263
               0.23128650     0.31572767     0.41458969     0.53033537
               0.66584808     0.82450364     1.01025438     1.22772762
               1.48234092     1.78043706     2.12944203     2.53805004
               3.01644009     3.57652955     4.23227104     5.00000000

     Gradients computed in reciprocal space

     Adding external electric field

     Computed dipole along edir(3) :
        Dipole               -2.8494 Ry au,         -7.2425 Debye
        Dipole field         -0.0101 Ry au

        Potential amp.        0.8295 Ry
        Total length         40.9758 bohr

[...]

     Starting wfc are  161 randomized atomic wfcs

     Self-consistent Calculation

     iteration #  1     ecut=    36.75 Ry     beta=0.30
[...]
     atom:   12    charge:   12.0305    magn:    0.6596    constr:    0.0000
     atom:   13    charge:    3.3828    magn:    0.0007    constr:    0.0000
     atom:   14    charge:    0.8025    magn:    0.0074    constr:    0.0000

     total energy              =   -3059.48609168 Ry
     Harris-Foulkes estimate   =   -3618.33969673 Ry
     estimated scf accuracy    <    1179.92999251 Ry

     total magnetization       =     5.56 Bohr mag/cell
     absolute magnetization    =     6.19 Bohr mag/cell

[...]

     iteration #  3     ecut=    36.75 Ry     beta=0.30
     Davidson diagonalization with overlap
     c_bands:  2 eigenvalues not converged
     c_bands:  2 eigenvalues not converged
     c_bands:  1 eigenvalues not converged
     c_bands:  2 eigenvalues not converged
     c_bands:  2 eigenvalues not converged
     c_bands:  2 eigenvalues not converged
     c_bands:  3 eigenvalues not converged
     c_bands:  3 eigenvalues not converged
     ethr =  1.00E-02,  avg # of iterations = 16.9

[...]

     End of self-consistent calculation

 ------ SPIN UP ------------

          k = 0.0000 0.0000 0.0000 ( 13257 PWs)   bands (ev):

   -95.4292 -95.4041 -95.4012 -95.3093 -95.2261 -95.2016 -95.1895 -95.1815
   -95.1464 -95.0369 -95.0150 -95.0122 -58.7877 -58.7538 -58.7511 -58.7313
   -58.6950 -58.6829 -58.6266 -58.6050 -58.5901 -58.5876 -58.5333 -58.5320
   -58.5298 -58.5214 -58.5160 -58.5127 -58.5106 -58.5032 -58.4925 -58.4895
   -58.4661 -58.4173 -58.4115 -58.3768 -58.3742 -58.3721 -58.3677 -58.3341
   -58.3192 -58.3188 -58.2763 -58.2455 -58.2172 -58.1800 -58.1760 -58.1451
   -12.3234  -7.0540  -5.9487  -4.6924  -4.1787  -4.0043  -3.8903  -3.8117
    -3.7966  -3.7351  -3.5389  -3.4257  -3.3192  -3.2807  -3.2605  -3.1845
    -2.8105  -2.7597  -2.6369  -2.3654  -2.1958  -2.1255  -1.9654  -1.8690
    -1.7920  -1.7398  -1.7174  -1.7131  -1.5761  -1.5723  -1.5041  -1.4937
    -1.4795  -1.4292  -1.3862  -1.3614  -1.3537  -1.1404  -1.1077  -0.8850
    -0.7220  -0.6929  -0.6813  -0.6719  -0.5063  -0.4202  -0.3888  -0.3471
    -0.2870  -0.2419  -0.1326  -0.1158  -0.1041  -0.0586   0.0067   0.1167
     0.1469   0.1498   0.3233   0.3319   0.3550   0.3570   0.3697   0.3908
     0.4439   0.4851   0.7240

[...]

          k =-0.5000 0.2887 0.0000 ( 13378 PWs)   bands (ev):

[...]

 ------ SPIN DOWN ----------

[...]

     the Fermi energy is     1.1107 ev

!    total energy              =   -3620.02119857 Ry
     Harris-Foulkes estimate   =   -3620.02122760 Ry
     estimated scf accuracy    <       0.00009084 Ry

     The total energy is the sum of the following terms:

     one-electron contribution =  -32157.34175886 Ry
     hartree contribution      =   16088.48925678 Ry
     xc contribution           =    -414.90349056 Ry
     ewald contribution        =   12863.81284682 Ry
     electric field correction =       0.00004287 Ry
     smearing contrib. (-TS)   =      -0.07809561 Ry

[...]

     convergence has been achieved in  65 iterations

     Forces acting on atoms (Ry/au):

     negative rho (up, down):  6.013E-04 3.175E-04
     atom    1 type  1   force =    -0.00049102    0.00002690    0.01242040
     atom    2 type  1   force =     0.00070204   -0.00231262    0.01621248
     atom    3 type  1   force =     0.00128394    0.00053293    0.01427140
     atom    4 type  1   force =    -0.00192392    0.00169110    0.01622651
     atom    5 type  1   force =     0.00178285    0.00354353   -0.01341427
     atom    6 type  1   force =    -0.00890670   -0.00624171   -0.02405185
     atom    7 type  1   force =     0.00009228    0.00124845   -0.00532866
     atom    8 type  1   force =     0.00495003    0.00042138   -0.01245754
     atom    9 type  1   force =    -0.00025732   -0.00043970   -0.00291744
     atom   10 type  1   force =     0.00155293    0.00047477   -0.00459793
     atom   11 type  1   force =     0.00001636    0.00004861   -0.00505854
     atom   12 type  1   force =    -0.00039005    0.00009974   -0.00267030
     atom   13 type  2   force =     0.00168273    0.00094043    0.00582706
     atom   14 type  3   force =    -0.00009417   -0.00003381    0.00553869

     Total force =     0.011567     Total SCF correction =     0.052211
     SCF correction compared to forces is large: reduce conv_thr to get better values

     BFGS Geometry Optimization

     number of scf cycles    =   1
     number of bfgs steps    =   0

     energy   new            =   -3620.0211985659 Ry

     new trust radius        =       0.0061376372 bohr
     new conv_thr            =       0.0001000000 Ry

ATOMIC_POSITIONS (angstrom)
Co       4.561701585   2.633381052  12.144422339    0   0   0
Co       2.055427227   2.633381052  12.144422339    0   0   0
Co       0.802290048   0.462883790  12.144422339    0   0   0
Co       3.308564406   0.462883790  12.144422339    0   0   0
Co       4.561701585   1.186382877  14.190786783    0   0   0
Co       2.055427227   1.186382877  14.190786783    0   0   0
Co       5.814838764   3.356880140  14.190786783    0   0   0
Co       3.308564406   3.356880140  14.190786783    0   0   0
Co       4.578976234   4.079703471  16.280844790
Co       7.170000032   4.139044951  16.170909943
Co       3.234061161   1.866936792  16.146548631
Co       5.823009127   1.925279515  16.280975859
S        4.294980594   2.479497995  17.871922168
H        6.040218057   3.487164454  17.097286202

     Writing output data file calc.save
     Check: negative starting charge=(component1):   -0.000320
     NEW-OLD atomic charge density approx. for the potential

     Check: negative/imaginary core charge=   -0.000007    0.000000
     Check: negative starting charge=(component1):   -0.000320

[...]

     energy   old            =   -3620.0211985659 Ry
     energy   new            =   -3620.0212349016 Ry

     CASE: energy  _new < energy  _old

[...]

     number of scf cycles    =   3
     number of bfgs steps    =   2

     energy   old            =   -3620.0212349016 Ry
     energy   new            =   -3620.0212776724 Ry

     CASE: energy  _new < energy  _old

     new trust radius        =       0.0023223946 bohr
     new conv_thr            =       0.0000010000 Ry

ATOMIC_POSITIONS (angstrom)
Co       4.561701585   2.633381052  12.144422339    0   0   0
Co       2.055427227   2.633381052  12.144422339    0   0   0
Co       0.802290049   0.462883790  12.144422339    0   0   0
Co       3.308564406   0.462883790  12.144422339    0   0   0
Co       4.561701585   1.186382877  14.190786783    0   0   0
Co       2.055427227   1.186382877  14.190786783    0   0   0
Co       5.814838764   3.356880140  14.190786783    0   0   0
Co       3.308564406   3.356880140  14.190786783    0   0   0
Co       4.579111959   4.078595826  16.282744800
Co       7.169955756   4.139054956  16.171061701
Co       3.235394860   1.867588685  16.147787187
Co       5.822011200   1.925938225  16.282745603
S        4.296576678   2.480393370  17.874045397
H        6.040802715   3.487494323  17.100817061

     Writing output data file calc.save
     Check: negative starting charge=(component1):   -0.000320
     NEW-OLD atomic charge density approx. for the potential

     Check: negative/imaginary core charge=   -0.000007    0.000000
     Check: negative starting charge=(component1):   -0.000320

[...]

     Self-consistent Calculation

[...]

     total energy              =   -3620.02129175 Ry
     Harris-Foulkes estimate   =   -3620.02129178 Ry
     estimated scf accuracy    <       0.00000134 Ry

[...]

     iteration # 10     ecut=    36.75 Ry     beta=0.30
     Davidson diagonalization with overlap
     ethr =  5.63E-10,  avg # of iterations =  1.0

     negative rho (up, down):  6.016E-04 3.175E-04

[...]

     Adding external electric field

     Computed dipole along edir(3) :
        Dipole               -0.0703 Ry au,         -0.1787 Debye
        Dipole field         -0.0002 Ry au

        Potential amp.        0.0205 Ry
        Total length         40.9758 bohr

     Magnetic moment per site:
     atom:    1    charge:   13.0555    magn:    1.5834    constr:    0.0000
     atom:    2    charge:   13.0553    magn:    1.5686    constr:    0.0000
     atom:    3    charge:   13.0552    magn:    1.5744    constr:    0.0000
     atom:    4    charge:   13.0555    magn:    1.5685    constr:    0.0000
     atom:    5    charge:   13.0482    magn:    1.5696    constr:    0.0000
     atom:    6    charge:   13.0473    magn:    1.4904    constr:    0.0000
     atom:    7    charge:   13.0493    magn:    1.5895    constr:    0.0000
     atom:    8    charge:   13.0481    magn:    1.5696    constr:    0.0000
     atom:    9    charge:   13.0618    magn:    1.2680    constr:    0.0000
     atom:   10    charge:   13.0691    magn:    1.3962    constr:    0.0000
     atom:   11    charge:   13.0575    magn:    1.2175    constr:    0.0000
     atom:   12    charge:   13.0619    magn:    1.2679    constr:    0.0000
     atom:   13    charge:    3.2298    magn:   -0.0171    constr:    0.0000
     atom:   14    charge:    0.8484    magn:   -0.0340    constr:    0.0000

     End of self-consistent calculation

 ------ SPIN UP ------------

[...]

 ------ SPIN DOWN ----------

[...]

          k = 0.3333-0.3849 0.0000 ( 13313 PWs)   bands (ev):

[...]

          k =-0.5000-0.2887 0.0000 ( 13378 PWs)   bands (ev):

   -93.1769 -93.0969 -93.0788 -93.0128 -93.0038 -92.9838 -92.9701 -92.9545
   -92.7913 -92.7895 -92.7736 -92.7726 -56.7387 -56.6234 -56.5361 -56.5056
   -56.4811 -56.4725 -56.4555 -56.4528 -56.4160 -56.3947 -56.3785 -56.3678
   -56.3555 -56.3441 -56.3398 -56.3338 -56.3330 -56.3225 -56.2765 -56.2726
   -56.2533 -56.2335 -56.2252 -56.2212 -56.2129 -56.2095 -56.1507 -56.1484
   -56.1342 -56.1330 -56.1001 -56.0936 -56.0916 -56.0872 -56.0652 -56.0619
   -12.2123  -6.3211  -5.1438  -4.7752  -3.6612  -3.0100  -2.9897  -2.8347
    -2.5880  -2.4600  -2.1170  -2.0211  -1.9436  -1.8679  -1.7008  -1.4790
    -1.3825  -1.3483  -1.1682  -1.0999  -1.0612  -0.8561  -0.7998  -0.7932
    -0.7842  -0.6323  -0.5377  -0.4541  -0.3046  -0.2805  -0.2433  -0.2141
    -0.1648  -0.0891  -0.0781  -0.0043   0.2366   0.2458   0.2556   0.3225
     0.3899   0.4855   0.6354   0.7969   0.8403   0.8803   0.9279   0.9853
     1.0448   1.1140   1.1450   1.2077   1.3099   1.3483   1.3534   1.4392
     1.5485   1.5786   1.6486   1.7130   1.7642   1.9888   2.0278   2.1042
     2.1898   2.2071   2.2394

     the Fermi energy is     1.1056 ev

!    total energy              =   -3620.02129134 Ry
     Harris-Foulkes estimate   =   -3620.02129085 Ry
     estimated scf accuracy    <       0.00000052 Ry

     The total energy is the sum of the following terms:

     one-electron contribution =  -32157.47656619 Ry
     hartree contribution      =   16088.77001119 Ry
     xc contribution           =    -414.91014260 Ry
     ewald contribution        =   12863.67347979 Ry
     electric field correction =       0.00001755 Ry
     smearing contrib. (-TS)   =      -0.07809108 Ry

     total magnetization       =    18.72 Bohr mag/cell
     absolute magnetization    =    21.39 Bohr mag/cell

     convergence has been achieved in  10 iterations

     Forces acting on atoms (Ry/au):

     negative rho (up, down):  6.016E-04 3.175E-04
     atom    1 type  1   force =    -0.00004898   -0.00001439    0.00873663
     atom    2 type  1   force =     0.00037327   -0.00234360    0.01260883
     atom    3 type  1   force =     0.00136429    0.00077390    0.01045389
     atom    4 type  1   force =    -0.00185613    0.00148992    0.01260462
     atom    5 type  1   force =     0.00267569    0.00320140   -0.01090545
     atom    6 type  1   force =    -0.00953352   -0.00548780   -0.02202273
     atom    7 type  1   force =     0.00112302    0.00063729   -0.00277593
     atom    8 type  1   force =     0.00410643    0.00070096   -0.01093579
     atom    9 type  1   force =     0.00009909   -0.00051509    0.00109600
     atom   10 type  1   force =    -0.00042358   -0.00020955    0.00044124
     atom   11 type  1   force =     0.00093386    0.00053486    0.00114012
     atom   12 type  1   force =    -0.00040740    0.00031864    0.00110280
     atom   13 type  2   force =     0.00088254    0.00050589   -0.00120320
     atom   14 type  3   force =     0.00071143    0.00040756   -0.00034103

     Total force =     0.003018     Total SCF correction =     0.000975
     SCF correction compared to forces is large: reduce conv_thr to get better values

     bfgs converged in   4 scf cycles and   3 bfgs steps
     (criteria: energy <  1.0E+12, force <  1.9E-03)

     End of BFGS Geometry Optimization

     Final energy   =   -3620.0212913424 Ry
Begin final coordinates

ATOMIC_POSITIONS (angstrom)
Co       4.561701585   2.633381052  12.144422339    0   0   0
Co       2.055427227   2.633381052  12.144422339    0   0   0
Co       0.802290049   0.462883790  12.144422339    0   0   0
Co       3.308564406   0.462883790  12.144422339    0   0   0
Co       4.561701585   1.186382877  14.190786783    0   0   0
Co       2.055427227   1.186382877  14.190786783    0   0   0
Co       5.814838764   3.356880140  14.190786783    0   0   0
Co       3.308564406   3.356880140  14.190786783    0   0   0
Co       4.579111959   4.078595826  16.282744800
Co       7.169955756   4.139054956  16.171061701
Co       3.235394860   1.867588685  16.147787187
Co       5.822011200   1.925938225  16.282745603
S        4.296576678   2.480393370  17.874045397
H        6.040802715   3.487494323  17.100817061
End final coordinates

     Writing output data file calc.save

     General routines

     Parallel routines

   This run was terminated on:   2:28: 1  28Jan2019

   JOB DONE.
Job  /afs/slac/g/suncat/bin/suncat-tsmpirun -x LD_LIBRARY_PATH -wdir /tmp/qe_227141otyaewmt_scratch pw.x -npool 3 -in pw.pwi

TID   HOST_NAME   COMMAND_LINE            STATUS            TERMINATION_TIME
00000 suncat1047 pw.x -npool 3 -i  Done                     01/28/2019 02:28:02
00001 suncat1047 pw.x -npool 3 -i  Done                     01/28/2019 02:28:02
00002 suncat1047 pw.x -npool 3 -i  Done                     01/28/2019 02:28:02
00003 suncat1047 pw.x -npool 3 -i  Done                     01/28/2019 02:28:02
00004 suncat1047 pw.x -npool 3 -i  Done                     01/28/2019 02:28:01
00005 suncat1047 pw.x -npool 3 -i  Done                     01/28/2019 02:28:02
00006 suncat1047 pw.x -npool 3 -i  Done                     01/28/2019 02:28:02
00007 suncat1047 pw.x -npool 3 -i  Done                     01/28/2019 02:28:02
00008 suncat1047 pw.x -npool 3 -i  Done                     01/28/2019 02:28:02
00009 suncat1047 pw.x -npool 3 -i  Done                     01/28/2019 02:28:02
00010 suncat1047 pw.x -npool 3 -i  Done                     01/28/2019 02:28:02
00011 suncat1047 pw.x -npool 3 -i  Done                     01/28/2019 02:28:02
00012 suncat1046 pw.x -npool 3 -i  Done                     01/28/2019 02:28:02
00013 suncat1046 pw.x -npool 3 -i  Done                     01/28/2019 02:28:02
00014 suncat1046 pw.x -npool 3 -i  Done                     01/28/2019 02:28:02
00015 suncat1046 pw.x -npool 3 -i  Done                     01/28/2019 02:28:02
00016 suncat1046 pw.x -npool 3 -i  Done                     01/28/2019 02:28:02
00017 suncat1046 pw.x -npool 3 -i  Done                     01/28/2019 02:28:02
00018 suncat1046 pw.x -npool 3 -i  Done                     01/28/2019 02:28:02
00019 suncat1046 pw.x -npool 3 -i  Done                     01/28/2019 02:28:02
00020 suncat1046 pw.x -npool 3 -i  Done                     01/28/2019 02:28:02
00021 suncat1046 pw.x -npool 3 -i  Done                     01/28/2019 02:28:02
00022 suncat1046 pw.x -npool 3 -i  Done                     01/28/2019 02:28:01
00023 suncat1046 pw.x -npool 3 -i  Done                     01/28/2019 02:28:02
00024 suncat1032 pw.x -npool 3 -i  Done                     01/28/2019 02:28:02
00025 suncat1032 pw.x -npool 3 -i  Done                     01/28/2019 02:28:02
00026 suncat1032 pw.x -npool 3 -i  Done                     01/28/2019 02:28:02
00027 suncat1032 pw.x -npool 3 -i  Done                     01/28/2019 02:28:02
00028 suncat1032 pw.x -npool 3 -i  Done                     01/28/2019 02:28:02
00029 suncat1032 pw.x -npool 3 -i  Done                     01/28/2019 02:28:02
00030 suncat1032 pw.x -npool 3 -i  Done                     01/28/2019 02:28:02
00031 suncat1032 pw.x -npool 3 -i  Done                     01/28/2019 02:28:02
00032 suncat1032 pw.x -npool 3 -i  Done                     01/28/2019 02:28:02
00033 suncat1032 pw.x -npool 3 -i  Done                     01/28/2019 02:28:02
00034 suncat1032 pw.x -npool 3 -i  Done                     01/28/2019 02:28:02
00035 suncat1032 pw.x -npool 3 -i  Done                     01/28/2019 02:28:02