     Program PWSCF v.5.1rc2 (svn rev. 11289) starts on 24Apr2018 at 18:55:51

     Current dimensions of program PWSCF are:
     Max number of different atomic species (ntypx) = 10
     Max number of k-points (npk) =  40000
     Max angular momentum in pseudopotentials (lmaxx) =  3
     Presently stress not available with electric field

     IMPORTANT: XC functional enforced from input :
     Exchange-correlation      = BEEF-VDW ( 1  4 27 13 2)
     Any further DFT definition will be discarded
     Please, verify this is what you really want

     Subspace diagonalization in iterative solution of the eigenvalue problem:
     a serial algorithm will be used

     bravais-lattice index     =            0
     lattice parameter (alat)  =       1.8897  a.u.
     unit-cell volume          =    7725.1200 (a.u.)^3
     number of atoms/cell      =           14
     number of atomic types    =            3
     number of electrons       =       137.00
     number of Kohn-Sham states=           78
     kinetic-energy cutoff     =      36.7493  Ry
     charge density cutoff     =     367.4932  Ry
     convergence threshold     =      1.0E-05
     mixing beta               =       0.3000
     number of iterations used =           10  plain     mixing
     Exchange-correlation      = BEEF-VDW ( 1  4 27 13 2)
     nstep                     =           50

     celldm(1)=   1.889726  celldm(2)=   0.000000  celldm(3)=   0.000000
     celldm(4)=   0.000000  celldm(5)=   0.000000  celldm(6)=   0.000000

     crystal axes: (cart. coord. in units of alat)
               a(1) = (   7.152277   0.000000   0.000000 )
               a(2) = (   3.576139   6.194054   0.000000 )
               a(3) = (   0.000000   0.000000  25.839810 )

     reciprocal axes: (cart. coord. in units 2 pi/alat)
               b(1) = (  0.139816 -0.080723  0.000000 )
               b(2) = (  0.000000  0.161445  0.000000 )
               b(3) = (  0.000000  0.000000  0.038700 )

     PseudoPot. # 1 for Y  read from file:
     /u/if/mamunm/psp/gbrv1.5pbe/Y.UPF
     MD5 check sum: d034151ed7554c50b6e82763ed42c788
     Pseudo is Ultrasoft + core correction, Zval = 11.0
     Generated by new atomic code, or converted to UPF format
     Using radial grid of  885 points,  6 beta functions with:
                l(1) =   0
                l(2) =   0
                l(3) =   1
                l(4) =   1
                l(5) =   2
                l(6) =   2
     Q(r) pseudized with  8 coefficients,  rinner =    1.200   1.200   1.200
                                                       1.200   1.200

     PseudoPot. # 2 for C  read from file:
     /u/if/mamunm/psp/gbrv1.5pbe/C.UPF
     MD5 check sum: d1aef80898a10debaa0f26306b886e00
     Pseudo is Ultrasoft + core correction, Zval =  4.0
     Generated by new atomic code, or converted to UPF format
     Using radial grid of  721 points,  4 beta functions with:
                l(1) =   0
                l(2) =   0
                l(3) =   1
                l(4) =   1
     Q(r) pseudized with  8 coefficients,  rinner =    1.100   1.100   1.100

     PseudoPot. # 3 for H  read from file:
     /u/if/mamunm/psp/gbrv1.5pbe/H.UPF
     MD5 check sum: 761ae9a214b05c3daf00ab9f6b793d6f
     Pseudo is Ultrasoft, Zval =  1.0
     Generated by new atomic code, or converted to UPF format
     Using radial grid of  615 points,  2 beta functions with:
                l(1) =   0
                l(2) =   0
     Q(r) pseudized with  8 coefficients,  rinner =    0.700

     vdW kernel table read from file vdW_kernel_table
     MD5 check sum: 095c7af220d748ca6e76c0b4c6cfb241

     atomic species   valence    mass     pseudopotential
        Y1            11.00    88.90584     Y ( 1.00)
        C1             4.00    12.01100     C ( 1.00)
        H1             1.00     1.00800     H ( 1.00)

     No symmetry found

   Cartesian axes

     site n.     atom                  positions (alat units)
         1           Y1  tau(   1) = (   1.7880693   1.0323423  10.0000000  )
         2           Y1  tau(   2) = (   5.3642080   1.0323423  10.0000000  )
         3           Y1  tau(   3) = (   3.5761386   4.1293692  10.0000000  )
         4           Y1  tau(   4) = (   7.1522773   4.1293692  10.0000000  )
         5           Y1  tau(   5) = (   7.1522773   2.0646846  12.9199050  )
         6           Y1  tau(   6) = (   3.5761386   2.0646846  12.9199050  )
         7           Y1  tau(   7) = (   8.9403466   5.1617115  12.9199050  )
         8           Y1  tau(   8) = (   5.3642080   5.1617115  12.9199050  )
         9           Y1  tau(   9) = (   0.0000000   0.0000000  15.8398100  )
        10           Y1  tau(  10) = (   3.5761386   0.0000000  15.8398100  )
        11           Y1  tau(  11) = (   1.7880693   3.0970269  15.8398100  )
        12           Y1  tau(  12) = (   5.3642080   3.0970269  15.8398100  )
        13           C1  tau(  13) = (   1.7880693   0.0000000  17.8348100  )
        14           H1  tau(  14) = (   1.7880693   0.0000000  18.9348100  )

     number of k points=    20  Fermi-Dirac smearing, width (Ry)=  0.0110
                       cart. coord. in units 2pi/alat
        k(    1) = (   0.0000000   0.0000000   0.0000000), wk =   0.0555556
        k(    2) = (   0.0000000   0.0269075   0.0000000), wk =   0.1111111
        k(    3) = (   0.0000000   0.0538151   0.0000000), wk =   0.1111111
        k(    4) = (   0.0000000  -0.0807226   0.0000000), wk =   0.0555556
        k(    5) = (   0.0233026  -0.0134538   0.0000000), wk =   0.1111111
        k(    6) = (   0.0233026   0.0134538   0.0000000), wk =   0.1111111
        k(    7) = (   0.0233026   0.0403613   0.0000000), wk =   0.1111111
        k(    8) = (   0.0233026  -0.0941763   0.0000000), wk =   0.1111111
        k(    9) = (   0.0233026  -0.0672688   0.0000000), wk =   0.1111111
        k(   10) = (   0.0233026  -0.0403613   0.0000000), wk =   0.1111111
        k(   11) = (   0.0466052  -0.0269075   0.0000000), wk =   0.1111111
        k(   12) = (   0.0466052   0.0000000   0.0000000), wk =   0.1111111
        k(   13) = (   0.0466052   0.0269075   0.0000000), wk =   0.1111111
        k(   14) = (   0.0466052  -0.1076301   0.0000000), wk =   0.1111111
        k(   15) = (   0.0466052  -0.0807226   0.0000000), wk =   0.1111111
        k(   16) = (   0.0466052  -0.0538151   0.0000000), wk =   0.1111111
        k(   17) = (  -0.0699078   0.0403613   0.0000000), wk =   0.0555556
        k(   18) = (  -0.0699078   0.0672688   0.0000000), wk =   0.1111111
        k(   19) = (  -0.0699078   0.0941763   0.0000000), wk =   0.1111111
        k(   20) = (  -0.0699078  -0.0403613   0.0000000), wk =   0.0555556

     Largest allocated arrays     est. size (Mb)     dimensions
     Largest temporary arrays     est. size (Mb)     dimensions

     Initial potential from superposition of free atoms
     Check: negative starting charge=   -0.000510

     starting charge  136.94632, renormalised to  137.00000

     negative rho (up, down):  5.102E-04 0.000E+00

     *
     * You are using vdW-DF for exchange-correlation in this calculation.
     * Please cite the following three references that made this development
     * possible:
     *
     *   M. Dion, H. Rydberg, E. Schroder, D. C. Langreth, and
     *   B. I. Lundqvist, Phys. Rev. Lett. 92, 246401 (2004).
     *
     *   T. Thonhauser, V. R. Cooper, S. Li, A. Puzder, P. Hyldgaard, and
     *   D. C. Langreth, Phys. Rev. B 76, 125112 (2007).
     *
     *   G. Roman-Perez and J. M. Soler, Phys. Rev. Lett. 103, 096102 (2009).
     *
     *
     * If you are using vdW-DF2, please also cite:
     *
     *   K. Lee, E. D. Murray, L. Kong, B. I. Lundqvist, and
     *   D. C. Langreth, Phys. Rev. B 82, 081101(R) (2010).
     *
     *
     * If you are calculating the stress with vdW-DF, please also cite:
     *
     *   R. Sabatini, E. Kucukbenli, B. Kolb, T. Thonhauser, and
     *   S. de Gironcoli, J. Phys.: Condens. Matter 24, 424209 (2012).
     *

     Carrying out vdW-DF run using the following parameters:

     Nqs =      20    Nr_points =    1024   r_max =   100.000
     q_mesh =
               0.00001000     0.04494208     0.09755937     0.15916263
               0.23128650     0.31572767     0.41458969     0.53033537
               0.66584808     0.82450364     1.01025438     1.22772762
               1.48234092     1.78043706     2.12944203     2.53805004
               3.01644009     3.57652955     4.23227104     5.00000000

     Gradients computed in reciprocal space

     Adding external electric field

     Computed dipole along edir(3) :
        Dipole               -0.0185 Ry au,         -0.0471 Debye
        Dipole field         -0.0000 Ry au

        Potential amp.        0.0029 Ry
        Total length         47.6094 bohr

     Starting wfc are  161 randomized atomic wfcs

     Self-consistent Calculation

     iteration #  1     ecut=    36.75 Ry     beta=0.30
     Davidson diagonalization with overlap
     ethr =  1.00E-02,  avg # of iterations =  2.0

[...]

     total energy              =   -1134.54952497 Ry
     Harris-Foulkes estimate   =   -1137.45465710 Ry
     estimated scf accuracy    <       6.36805117 Ry

[...]

     iteration # 12     ecut=    36.75 Ry     beta=0.30
     Davidson diagonalization with overlap
     c_bands:  1 eigenvalues not converged
     ethr =  4.75E-06,  avg # of iterations =  8.1

[...]

     End of self-consistent calculation

          k = 0.0000 0.0000 0.0000 ( 28997 PWs)   bands (ev):

   -42.6685 -42.6322 -42.5873 -42.5474 -42.5435 -42.5418 -42.2498 -42.2289
   -42.0405 -42.0041 -41.9905 -41.9884 -22.7253 -22.7026 -22.6941 -22.6912
   -22.6901 -22.6580 -22.6471 -22.6148 -22.5948 -22.5497 -22.5451 -22.5445
   -22.4032 -22.3694 -22.3675 -22.3663 -22.3164 -22.2688 -22.2684 -22.2525
   -22.2022 -22.1494 -22.1446 -22.1224 -22.1219 -22.1011 -21.9726 -21.9273
   -21.9248 -21.9094 -21.9029 -21.8590 -21.8581 -21.8520 -21.7607 -21.7576
    -9.1709  -3.5806  -2.9373  -2.1940  -1.4194  -0.8806  -0.8750  -0.8257
    -0.7373  -0.7319  -0.6789  -0.5106  -0.4870  -0.2790   0.0729   0.0809
     0.0834   0.3347   0.5096   0.5898   0.6337   0.8602   0.9501   1.3680
     1.4497   1.4532   1.4733   1.5299   1.6688   1.9608

[...]

          k =-0.0699 0.0404 0.0000 ( 29048 PWs)   bands (ev):

[...]

     the Fermi energy is     0.7618 ev

!    total energy              =   -1136.93134117 Ry
     Harris-Foulkes estimate   =   -1136.93135378 Ry
     estimated scf accuracy    <       0.00000395 Ry

     The total energy is the sum of the following terms:

     one-electron contribution =   -5474.51371776 Ry
     hartree contribution      =    2730.14684724 Ry
     xc contribution           =    -343.06023799 Ry
     ewald contribution        =    1950.62503875 Ry
     electric field correction =       0.00021413 Ry
     smearing contrib. (-TS)   =      -0.12948554 Ry

     convergence has been achieved in  18 iterations

 BEEF-vdW xc energy contributions
           1 :   -299.111978067121
           2 :    268.531008687509
           3 :   -215.926165270402
           4 :    154.257204133674
           5 :   -95.5425272562156
           6 :    47.3072551004283
           7 :   -12.0708813420043
           8 :   -10.8726996738752
           9 :    23.1936308969331
          10 :   -26.2917533982383
          11 :    21.4456985321419
          12 :   -10.6610525738619
          13 :   -2.82830017663048
          14 :    15.0333204110860
          15 :   -22.4837840841881
          16 :    23.5045570171476
          17 :   -18.6833965870949
          18 :    10.2774568708421
          19 :   -1.01494231689765
          20 :   -6.94596535501631
          21 :    12.4126854577671
          22 :   -14.9718952081924
          23 :    14.6401712812343
          24 :   -11.7176785265077
          25 :    6.87948140393951
          26 :   -1.26086898683235
          27 :   -3.72017171797154
          28 :    6.82299256646809
          29 :   -7.47944007765466
          30 :    6.00029227581314
          31 :   -28.7439077411628
          32 :   -19.6592174183621

     Forces acting on atoms (Ry/au):

     negative rho (up, down):  1.498E-04 0.000E+00
     atom    1 type  1   force =    -0.00003920   -0.00014443    0.00464688
     atom    2 type  1   force =     0.00002883   -0.00081444    0.00473435
     atom    3 type  1   force =    -0.00043544    0.00054748    0.00515442
     atom    4 type  1   force =     0.00042756    0.00051148    0.00517902
     atom    5 type  1   force =     0.00003938    0.00290193    0.00190392
     atom    6 type  1   force =    -0.00002223    0.00290859    0.00187597
     atom    7 type  1   force =    -0.00001146   -0.00339754   -0.00489907
     atom    8 type  1   force =     0.00002387   -0.00414074   -0.00725108
     atom    9 type  1   force =     0.05413517    0.00306166    0.04428745
     atom   10 type  1   force =    -0.05414207    0.00303140    0.04428952
     atom   11 type  1   force =    -0.00002408   -0.02102367    0.00575209
     atom   12 type  1   force =     0.00002267    0.01917532    0.00613554
     atom   13 type  2   force =    -0.00000159   -0.00329918   -0.11034858
     atom   14 type  3   force =    -0.00000141    0.00068213   -0.00146044

     Total force =     0.151242     Total SCF correction =     0.001837

     entering subroutine stress ...

     negative rho (up, down):  1.498E-04 0.000E+00
          total   stress  (Ry/bohr**3)                   (kbar)     P=   -7.01
  -0.00003786   0.00000000  -0.00000000         -5.57      0.00     -0.00
   0.00000000  -0.00002398  -0.00000000          0.00     -3.53     -0.00
  -0.00000000  -0.00000000  -0.00008117         -0.00     -0.00    -11.94

     BFGS Geometry Optimization

     number of scf cycles    =   1
     number of bfgs steps    =   0

     energy   new            =   -1136.9313411664 Ry

     new trust radius        =       0.1103978849 bohr
     new conv_thr            =       0.0000099958 Ry

ATOMIC_POSITIONS (crystal)
Y1       0.166666667   0.166666667   0.386999750    0   0   0
Y1       0.666666667   0.166666667   0.386999750    0   0   0
Y1       0.166666667   0.666666667   0.386999750    0   0   0
Y1       0.666666667   0.666666667   0.386999750    0   0   0
Y1       0.833333333   0.333333333   0.500000000    0   0   0
Y1       0.333333333   0.333333333   0.500000000    0   0   0
Y1       0.833333333   0.833333333   0.500000000    0   0   0
Y1       0.333333333   0.833333333   0.500000000    0   0   0
Y1       0.003874528   0.000261567   0.613907219
Y1       0.495864687   0.000258982   0.613907261
Y1       0.000896277   0.498203883   0.613118047
Y1       0.499182573   0.501638207   0.613125900
C1       0.250140812  -0.000281859   0.687946855
H1       0.249970757   0.000058277   0.732746764

     Writing output data file calc.save
     Check: negative starting charge=   -0.000510
     NEW-OLD atomic charge density approx. for the potential
     Check: negative starting charge=   -0.000511

[...]

     energy   old            =   -1136.9313411664 Ry
     energy   new            =   -1136.9499265829 Ry

     CASE: energy  _new < energy  _old

[...]

     WARNING: bfgs curvature condition failed, Theta= 0.976
     new trust radius        =       0.0568179220 bohr
     new conv_thr            =       0.0000001000 Ry

[...]

     iteration # 14     ecut=    36.75 Ry     beta=0.30
     Davidson diagonalization with overlap
     c_bands:  1 eigenvalues not converged
     ethr =  8.17E-10,  avg # of iterations =  8.6

[...]

     Total force =     0.008377     Total SCF correction =     0.000371

[...]

     Total force =     0.004035     Total SCF correction =     0.000494
     SCF correction compared to forces is large: reduce conv_thr to get better values

[...]

     number of scf cycles    =  43
     number of bfgs steps    =  42

     energy   old            =   -1137.0674854712 Ry
     energy   new            =   -1137.0675780408 Ry

     CASE: energy  _new < energy  _old

     new trust radius        =       0.0302701684 bohr
     new conv_thr            =       0.0000001000 Ry

ATOMIC_POSITIONS (crystal)
Y1       0.166666667   0.166666667   0.386999750    0   0   0
Y1       0.666666667   0.166666667   0.386999750    0   0   0
Y1       0.166666667   0.666666667   0.386999750    0   0   0
Y1       0.666666667   0.666666667   0.386999750    0   0   0
Y1       0.833333333   0.333333333   0.500000000    0   0   0
Y1       0.333333333   0.333333333   0.500000000    0   0   0
Y1       0.833333333   0.833333333   0.500000000    0   0   0
Y1       0.333333333   0.833333333   0.500000000    0   0   0
Y1       0.000037346  -0.002309110   0.613934952
Y1       0.502235260  -0.002265339   0.613936213
Y1      -0.002003565   0.504063028   0.608340532
Y1       0.495236363   0.509464808   0.613731436
C1       0.336103222  -0.172177087   0.653300346
H1       0.277687124  -0.055377845   0.686440664

     Writing output data file calc.save
     Check: negative starting charge=   -0.000590
     NEW-OLD atomic charge density approx. for the potential
     Check: negative starting charge=   -0.000589

[...]

     Self-consistent Calculation

[...]

     total energy              =   -1137.06760945 Ry
     Harris-Foulkes estimate   =   -1137.06760947 Ry
     estimated scf accuracy    <       0.00000017 Ry

     iteration # 11     ecut=    36.75 Ry     beta=0.30
     Davidson diagonalization with overlap
     ethr =  1.25E-10,  avg # of iterations =  4.0

[...]

     negative rho (up, down):  1.375E-04 0.000E+00

     Adding external electric field

     Computed dipole along edir(3) :
        Dipole               -0.1105 Ry au,         -0.2810 Debye
        Dipole field         -0.0002 Ry au

        Potential amp.        0.0171 Ry
        Total length         47.6094 bohr

     End of self-consistent calculation

[...]

          k = 0.0466-0.0538 0.0000 ( 29098 PWs)   bands (ev):

[...]

          k =-0.0699-0.0404 0.0000 ( 29048 PWs)   bands (ev):

   -42.3929 -42.3622 -42.3458 -42.3309 -42.3243 -41.9478 -41.9459 -41.8763
   -41.8100 -41.7858 -41.7804 -41.7578 -22.4653 -22.4056 -22.3932 -22.3801
   -22.3643 -22.3412 -22.3344 -22.3254 -22.2972 -22.2773 -22.2659 -22.2385
   -22.2330 -22.1096 -22.0972 -22.0826 -22.0473 -22.0030 -21.9433 -21.9360
   -21.8827 -21.8706 -21.8428 -21.8242 -21.8049 -21.7956 -21.7821 -21.7278
   -21.7181 -21.7031 -21.6922 -21.6846 -21.6678 -21.6293 -21.5893 -21.5683
    -9.7033  -3.4013  -2.1525  -2.0034  -1.4327  -1.0942  -0.7617  -0.6489
    -0.3622  -0.3053  -0.1267   0.0483   0.1045   0.1969   0.6893   0.6991
     0.7384   0.8133   0.8506   0.8753   1.0072   1.0110   1.0935   1.1106
     1.2155   1.3455   1.3855   1.4734   1.5004   1.5716

     the Fermi energy is     0.9729 ev

!    total energy              =   -1137.06760946 Ry
     Harris-Foulkes estimate   =   -1137.06760946 Ry
     estimated scf accuracy    <       0.00000006 Ry

     The total energy is the sum of the following terms:

     one-electron contribution =   -5606.72257986 Ry
     hartree contribution      =    2797.40757817 Ry
     xc contribution           =    -343.47237126 Ry
     ewald contribution        =    2015.84288898 Ry
     electric field correction =       0.00001988 Ry
     smearing contrib. (-TS)   =      -0.12314537 Ry

     convergence has been achieved in  11 iterations

 BEEF-vdW xc energy contributions
           1 :   -299.522466734501
           2 :    269.050623139403
           3 :   -216.546443532770
           4 :    154.861820406870
           5 :   -95.9856863316166
           6 :    47.4838313844130
           7 :   -11.9608039745299
           8 :   -11.1972357181211
           9 :    23.6015127181531
          10 :   -26.6557625264700
          11 :    21.7015569716394
          12 :   -10.8220631408027
          13 :   -2.70967263082809
          14 :    14.9213659248635
          15 :   -22.3884701118629
          16 :    23.4663050721216
          17 :   -18.7314254519015
          18 :    10.3983621192826
          19 :   -1.15509091188699
          20 :   -6.84978979650469
          21 :    12.3954687957643
          22 :   -15.0199183332124
          23 :    14.7036569763017
          24 :   -11.7489106349902
          25 :    6.86707504845037
          26 :   -1.23321629692225
          27 :   -3.72257319149804
          28 :    6.77987923855295
          29 :   -7.40077230971099
          30 :    5.91032509130844
          31 :   -28.7747639490672
          32 :   -19.7127241085470

     Forces acting on atoms (Ry/au):

     negative rho (up, down):  1.375E-04 0.000E+00
     atom    1 type  1   force =     0.00000022   -0.00110526    0.00562974
     atom    2 type  1   force =    -0.00000107    0.00040157    0.00555563
     atom    3 type  1   force =     0.00110466    0.00030708    0.00531964
     atom    4 type  1   force =    -0.00110510    0.00030711    0.00532019
     atom    5 type  1   force =     0.00282577    0.00138633   -0.00329016
     atom    6 type  1   force =    -0.00282473    0.00138881   -0.00330925
     atom    7 type  1   force =     0.00000078   -0.00346973   -0.00267503
     atom    8 type  1   force =    -0.00000553    0.00233811   -0.01576759
     atom    9 type  1   force =     0.00033933   -0.00048291    0.00065295
     atom   10 type  1   force =    -0.00030676   -0.00054071    0.00064148
     atom   11 type  1   force =    -0.00005900   -0.00052324   -0.00006045
     atom   12 type  1   force =     0.00006212    0.00052399    0.00111374
     atom   13 type  2   force =    -0.00003526   -0.00145737    0.00038600
     atom   14 type  3   force =     0.00000457    0.00092622    0.00048310

     Total force =     0.002596     Total SCF correction =     0.000447
     SCF correction compared to forces is large: reduce conv_thr to get better values

     entering subroutine stress ...

     negative rho (up, down):  1.375E-04 0.000E+00
          total   stress  (Ry/bohr**3)                   (kbar)     P=    0.78
   0.00001565   0.00000001  -0.00000000          2.30      0.00     -0.00
   0.00000001   0.00001509  -0.00000096          0.00      2.22     -0.14
  -0.00000000  -0.00000096  -0.00001488         -0.00     -0.14     -2.19

     bfgs converged in  44 scf cycles and  43 bfgs steps
     (criteria: energy <  1.0E+00, force <  1.9E-03)

     End of BFGS Geometry Optimization

     Final energy   =   -1137.0676094576 Ry
Begin final coordinates

ATOMIC_POSITIONS (crystal)
Y1       0.166666667   0.166666667   0.386999750    0   0   0
Y1       0.666666667   0.166666667   0.386999750    0   0   0
Y1       0.166666667   0.666666667   0.386999750    0   0   0
Y1       0.666666667   0.666666667   0.386999750    0   0   0
Y1       0.833333333   0.333333333   0.500000000    0   0   0
Y1       0.333333333   0.333333333   0.500000000    0   0   0
Y1       0.833333333   0.833333333   0.500000000    0   0   0
Y1       0.333333333   0.833333333   0.500000000    0   0   0
Y1       0.000037346  -0.002309110   0.613934952
Y1       0.502235260  -0.002265339   0.613936213
Y1      -0.002003565   0.504063028   0.608340532
Y1       0.495236363   0.509464808   0.613731436
C1       0.336103222  -0.172177087   0.653300346
H1       0.277687124  -0.055377845   0.686440664
End final coordinates

     Writing output data file calc.save

     General routines

     Parallel routines

   This run was terminated on:   4:30:21  25Apr2018

   JOB DONE.
Job  /afs/slac/g/suncat/bin/suncat-tsmpirun -x LD_LIBRARY_PATH -wdir /scratch/qe184342_1m66G pw.x -npool 4 -in pw.inp

TID   HOST_NAME   COMMAND_LINE            STATUS            TERMINATION_TIME
00000 suncat0108 pw.x -npool 4 -i  Done                     04/25/2018 04:30:21
00001 suncat0108 pw.x -npool 4 -i  Done                     04/25/2018 04:30:21
00002 suncat0108 pw.x -npool 4 -i  Done                     04/25/2018 04:30:21
00003 suncat0108 pw.x -npool 4 -i  Done                     04/25/2018 04:30:21
00004 suncat0108 pw.x -npool 4 -i  Done                     04/25/2018 04:30:21
00005 suncat0108 pw.x -npool 4 -i  Done                     04/25/2018 04:30:21
00006 suncat0108 pw.x -npool 4 -i  Done                     04/25/2018 04:30:21
00007 suncat0108 pw.x -npool 4 -i  Done                     04/25/2018 04:30:21
00008 suncat0277 pw.x -npool 4 -i  Done                     04/25/2018 04:30:21
00009 suncat0277 pw.x -npool 4 -i  Done                     04/25/2018 04:30:21
00010 suncat0277 pw.x -npool 4 -i  Done                     04/25/2018 04:30:21
00011 suncat0277 pw.x -npool 4 -i  Done                     04/25/2018 04:30:21
00012 suncat0277 pw.x -npool 4 -i  Done                     04/25/2018 04:30:21
00013 suncat0277 pw.x -npool 4 -i  Done                     04/25/2018 04:30:21
00014 suncat0277 pw.x -npool 4 -i  Done                     04/25/2018 04:30:21
00015 suncat0277 pw.x -npool 4 -i  Done                     04/25/2018 04:30:21
00016 suncat0273 pw.x -npool 4 -i  Done                     04/25/2018 04:30:21
00017 suncat0273 pw.x -npool 4 -i  Done                     04/25/2018 04:30:21
00018 suncat0273 pw.x -npool 4 -i  Done                     04/25/2018 04:30:21
00019 suncat0273 pw.x -npool 4 -i  Done                     04/25/2018 04:30:21
00020 suncat0273 pw.x -npool 4 -i  Done                     04/25/2018 04:30:21
00021 suncat0273 pw.x -npool 4 -i  Done                     04/25/2018 04:30:21
00022 suncat0273 pw.x -npool 4 -i  Done                     04/25/2018 04:30:21
00023 suncat0273 pw.x -npool 4 -i  Done                     04/25/2018 04:30:21
00024 suncat0242 pw.x -npool 4 -i  Done                     04/25/2018 04:30:21
00025 suncat0242 pw.x -npool 4 -i  Done                     04/25/2018 04:30:21
00026 suncat0242 pw.x -npool 4 -i  Done                     04/25/2018 04:30:21
00027 suncat0242 pw.x -npool 4 -i  Done                     04/25/2018 04:30:21
00028 suncat0242 pw.x -npool 4 -i  Done                     04/25/2018 04:30:21
00029 suncat0242 pw.x -npool 4 -i  Done                     04/25/2018 04:30:21
00030 suncat0242 pw.x -npool 4 -i  Done                     04/25/2018 04:30:21
00031 suncat0242 pw.x -npool 4 -i  Done                     04/25/2018 04:30:21