     Program PWSCF v.5.1rc2 (svn rev. 11289) starts on 17Jan2019 at  0:57:33

     Current dimensions of program PWSCF are:
     Max number of different atomic species (ntypx) = 10
     Max number of k-points (npk) =  40000
     Max angular momentum in pseudopotentials (lmaxx) =  3

     IMPORTANT: XC functional enforced from input :
     Exchange-correlation      = BEEF-VDW ( 1  4 27 13 2)
     Any further DFT definition will be discarded
     Please, verify this is what you really want

     Subspace diagonalization in iterative solution of the eigenvalue problem:
     a serial algorithm will be used

     bravais-lattice index     =            0
     lattice parameter (alat)  =      12.7122  a.u.
     unit-cell volume          =    6741.9071 (a.u.)^3
     number of atoms/cell      =           13
     number of atomic types    =            2
     number of electrons       =       169.00
     number of Kohn-Sham states=           94
     kinetic-energy cutoff     =      36.7493  Ry
     charge density cutoff     =     367.4933  Ry
     convergence threshold     =      1.0E-04
     mixing beta               =       0.2000
     number of iterations used =            8  plain     mixing
     Exchange-correlation      = BEEF-VDW ( 1  4 27 13 2)
     nstep                     =           50

     celldm(1)=  12.712175  celldm(2)=   0.000000  celldm(3)=   0.000000
     celldm(4)=   0.000000  celldm(5)=   0.000000  celldm(6)=   0.000000

     crystal axes: (cart. coord. in units of alat)
               a(1) = (   1.000000   0.000000   0.000000 )
               a(2) = (   0.500000   0.866025   0.000000 )
               a(3) = (   0.000000   0.000000   3.789593 )

     reciprocal axes: (cart. coord. in units 2 pi/alat)
               b(1) = (  1.000000 -0.577350  0.000000 )
               b(2) = (  0.000000  1.154701  0.000000 )
               b(3) = (  0.000000  0.000000  0.263881 )

     PseudoPot. # 1 for Sn read from file:
     /nfs/slac/g/suncatfs/mamunm/src/decaf-espresso/gbrv15pbe/Sn.UPF
     MD5 check sum: 469debedee59599fedebd795477fea03
     Pseudo is Ultrasoft + core correction, Zval = 14.0
     Generated by new atomic code, or converted to UPF format
     Using radial grid of  891 points,  6 beta functions with:
                l(1) =   0
                l(2) =   0
                l(3) =   1
                l(4) =   1
                l(5) =   2
                l(6) =   2
     Q(r) pseudized with  8 coefficients,  rinner =    1.350   1.350   1.350
                                                       1.350   1.350

     PseudoPot. # 2 for H  read from file:
     /nfs/slac/g/suncatfs/mamunm/src/decaf-espresso/gbrv15pbe/H.UPF
     MD5 check sum: 761ae9a214b05c3daf00ab9f6b793d6f
     Pseudo is Ultrasoft, Zval =  1.0
     Generated by new atomic code, or converted to UPF format
     Using radial grid of  615 points,  2 beta functions with:
                l(1) =   0
                l(2) =   0
     Q(r) pseudized with  8 coefficients,  rinner =    0.700

     vdW kernel table read from file vdW_kernel_table
     MD5 check sum: 095c7af220d748ca6e76c0b4c6cfb241

     atomic species   valence    mass     pseudopotential
        Sn            14.00   118.71000     Sn( 1.00)
        H              1.00     1.00800     H ( 1.00)

     No symmetry found

   Cartesian axes

     site n.     atom                  positions (alat units)
         1           Sn  tau(   1) = (   0.2500000   0.1443376   1.4865483  )
         2           Sn  tau(   2) = (   0.7500000   0.1443376   1.4865483  )
         3           Sn  tau(   3) = (   0.5000000   0.5773503   1.4865483  )
         4           Sn  tau(   4) = (   1.0000000   0.5773503   1.4865483  )
         5           Sn  tau(   5) = (   1.0000000   0.2886751   1.8947966  )
         6           Sn  tau(   6) = (   0.5000000   0.2886751   1.8947966  )
         7           Sn  tau(   7) = (   1.2500000   0.7216878   1.8947966  )
         8           Sn  tau(   8) = (   0.7500000   0.7216878   1.8947966  )
         9           Sn  tau(   9) = (  -0.0000008  -0.0000003   2.2975988  )
        10           Sn  tau(  10) = (   0.4999993   0.0079724   2.3180601  )
        11           Sn  tau(  11) = (   0.2569036   0.4290156   2.3180271  )
        12           Sn  tau(  12) = (   0.7431014   0.4290283   2.3180368  )
        13           H   tau(  13) = (   0.4999975   0.2886788   2.4946439  )

     number of k points=    20  Fermi-Dirac smearing, width (Ry)=  0.0110
                       cart. coord. in units 2pi/alat
        k(    1) = (   0.0000000   0.0000000   0.0000000), wk =   0.0555556
        k(    2) = (   0.0000000   0.1924501   0.0000000), wk =   0.1111111
        k(    3) = (   0.0000000   0.3849002   0.0000000), wk =   0.1111111
        k(    4) = (   0.0000000  -0.5773503   0.0000000), wk =   0.0555556
        k(    5) = (   0.1666667  -0.0962250   0.0000000), wk =   0.1111111
        k(    6) = (   0.1666667   0.0962250   0.0000000), wk =   0.1111111
        k(    7) = (   0.1666667   0.2886751   0.0000000), wk =   0.1111111
        k(    8) = (   0.1666667  -0.6735753   0.0000000), wk =   0.1111111
        k(    9) = (   0.1666667  -0.4811252   0.0000000), wk =   0.1111111
        k(   10) = (   0.1666667  -0.2886751   0.0000000), wk =   0.1111111
        k(   11) = (   0.3333333  -0.1924501   0.0000000), wk =   0.1111111
        k(   12) = (   0.3333333   0.0000000   0.0000000), wk =   0.1111111
        k(   13) = (   0.3333333   0.1924501   0.0000000), wk =   0.1111111
        k(   14) = (   0.3333333  -0.7698004   0.0000000), wk =   0.1111111
        k(   15) = (   0.3333333  -0.5773503   0.0000000), wk =   0.1111111
        k(   16) = (   0.3333333  -0.3849002   0.0000000), wk =   0.1111111
        k(   17) = (  -0.5000000   0.2886751   0.0000000), wk =   0.0555556
        k(   18) = (  -0.5000000   0.4811252   0.0000000), wk =   0.1111111
        k(   19) = (  -0.5000000   0.6735753   0.0000000), wk =   0.1111111
        k(   20) = (  -0.5000000  -0.2886751   0.0000000), wk =   0.0555556

     Largest allocated arrays     est. size (Mb)     dimensions
     Largest temporary arrays     est. size (Mb)     dimensions

     Initial potential from superposition of free atoms
     Check: negative starting charge=   -0.001526

     starting charge  156.99945, renormalised to  169.00000

     negative rho (up, down):  1.643E-03 0.000E+00

     *
     * You are using vdW-DF for exchange-correlation in this calculation.
     * Please cite the following three references that made this development
     * possible:
     *
     *   M. Dion, H. Rydberg, E. Schroder, D. C. Langreth, and
     *   B. I. Lundqvist, Phys. Rev. Lett. 92, 246401 (2004).
     *
     *   T. Thonhauser, V. R. Cooper, S. Li, A. Puzder, P. Hyldgaard, and
     *   D. C. Langreth, Phys. Rev. B 76, 125112 (2007).
     *
     *   G. Roman-Perez and J. M. Soler, Phys. Rev. Lett. 103, 096102 (2009).
     *
     *
     * If you are using vdW-DF2, please also cite:
     *
     *   K. Lee, E. D. Murray, L. Kong, B. I. Lundqvist, and
     *   D. C. Langreth, Phys. Rev. B 82, 081101(R) (2010).
     *
     *
     * If you are calculating the stress with vdW-DF, please also cite:
     *
     *   R. Sabatini, E. Kucukbenli, B. Kolb, T. Thonhauser, and
     *   S. de Gironcoli, J. Phys.: Condens. Matter 24, 424209 (2012).
     *

     Carrying out vdW-DF run using the following parameters:

     Nqs =      20    Nr_points =    1024   r_max =   100.000
     q_mesh =
               0.00001000     0.04494208     0.09755937     0.15916263
               0.23128650     0.31572767     0.41458969     0.53033537
               0.66584808     0.82450364     1.01025438     1.22772762
               1.48234092     1.78043706     2.12944203     2.53805004
               3.01644009     3.57652955     4.23227104     5.00000000

     Gradients computed in reciprocal space

     Adding external electric field

     Computed dipole along edir(3) :
        Dipole               -0.5796 Ry au,         -1.4732 Debye
        Dipole field         -0.0011 Ry au

        Potential amp.        0.0937 Ry
        Total length         43.3566 bohr

     Starting wfc are  109 randomized atomic wfcs

     Self-consistent Calculation

     iteration #  1     ecut=    36.75 Ry     beta=0.20
     Davidson diagonalization with overlap
     ethr =  1.00E-02,  avg # of iterations =  4.6

[...]

     total energy              =   -1929.81173673 Ry
     Harris-Foulkes estimate   =   -1935.16543739 Ry
     estimated scf accuracy    <      16.20743122 Ry

[...]

     End of self-consistent calculation

          k = 0.0000 0.0000 0.0000 ( 25377 PWs)   bands (ev):

   -21.4164 -21.3962 -21.3962 -21.3703 -21.3558 -21.3523 -21.3523 -21.3447
   -21.3387 -21.3387 -21.3281 -21.3281 -21.3167 -21.3034 -21.3019 -21.3019
   -21.2954 -21.2937 -21.2936 -21.2936 -21.2928 -21.2928 -21.2866 -21.2866
   -21.2811 -21.2811 -21.2681 -21.2671 -21.2671 -21.2541 -21.2531 -21.2498
   -21.2498 -21.2349 -21.2349 -21.2326 -21.2326 -21.2181 -21.2181 -21.2102
   -21.2081 -21.1847 -21.1847 -21.1734 -21.1734 -21.1686 -21.1657 -21.1578
   -21.1578 -21.1539 -21.1489 -21.1489 -21.1321 -21.1321 -21.1305 -21.1305
   -21.1207 -21.1108 -21.0986 -21.0986 -10.0199  -8.9595  -7.3198  -6.0672
    -5.9051  -5.9051  -5.5744  -5.4589  -5.4588  -4.6695  -4.6695  -4.6310
    -4.0046  -3.2247  -3.2246  -2.9094  -2.3498  -2.0610  -2.0609  -1.9686
    -1.8732  -1.8732  -0.4340   0.8854   1.6610   1.6611   1.6698   1.6699
     1.7470   2.7250   3.2844   3.2844   3.6496   3.9269

[...]

          k =-0.5000 0.2887 0.0000 ( 25386 PWs)   bands (ev):

[...]

     the Fermi energy is     0.7381 ev

!    total energy              =   -1929.43977699 Ry
     Harris-Foulkes estimate   =   -1929.43981567 Ry
     estimated scf accuracy    <       0.00004311 Ry

     The total energy is the sum of the following terms:

     one-electron contribution =  -10301.71166818 Ry
     hartree contribution      =    5214.20886824 Ry
     xc contribution           =    -534.55004675 Ry
     ewald contribution        =    3692.65315504 Ry
     electric field correction =       0.00000517 Ry
     smearing contrib. (-TS)   =      -0.04009050 Ry

     convergence has been achieved in  13 iterations

     Forces acting on atoms (Ry/au):

     negative rho (up, down):  4.121E-04 0.000E+00
     atom    1 type  1   force =     0.00151080    0.00086228   -0.01153116
     atom    2 type  1   force =    -0.00151232    0.00086192   -0.01150648
     atom    3 type  1   force =    -0.00000662   -0.00175249   -0.01149994
     atom    4 type  1   force =    -0.00001440   -0.00002089   -0.00874661
     atom    5 type  1   force =     0.00000264    0.00249312   -0.00433707
     atom    6 type  1   force =     0.00001045   -0.00000113    0.00532977
     atom    7 type  1   force =    -0.00216671   -0.00123701   -0.00431869
     atom    8 type  1   force =     0.00213913   -0.00124034   -0.00436225
     atom    9 type  1   force =    -0.00000060    0.00000453    0.01283372
     atom   10 type  1   force =     0.00000550   -0.00105023    0.01273486
     atom   11 type  1   force =    -0.00089364    0.00054337    0.01275827
     atom   12 type  1   force =     0.00092168    0.00053787    0.01276891
     atom   13 type  2   force =     0.00000409   -0.00000099   -0.00012335

     Total force =     0.025613     Total SCF correction =     0.039215
     SCF correction compared to forces is large: reduce conv_thr to get better values

     BFGS Geometry Optimization

     number of scf cycles    =   1
     number of bfgs steps    =   0

     energy   new            =   -1929.4397769937 Ry

     new trust radius        =       0.0128337224 bohr
     new conv_thr            =       0.0001000000 Ry

ATOMIC_POSITIONS (angstrom)
Sn       1.681748263   0.970957812  10.000000000    0   0   0
Sn       5.045244789   0.970957812  10.000000000    0   0   0
Sn       3.363496526   3.883831250  10.000000000    0   0   0
Sn       6.726993052   3.883831250  10.000000000    0   0   0
Sn       6.726993052   1.941915625  12.746283414    0   0   0
Sn       3.363496526   1.941915625  12.746283414    0   0   0
Sn       8.408741315   4.854789062  12.746283414    0   0   0
Sn       5.045244789   4.854789062  12.746283414    0   0   0
Sn      -0.000006027   0.000000045  15.462722457
Sn       3.363494617   0.053074736  15.600313153
Sn       1.727715950   2.886272644  15.600103679
Sn       4.999325733   2.886355352  15.600174622
H        3.363481628   1.941940066  16.781387111

     Writing output data file calc.save
     Check: negative starting charge=   -0.001526
     NEW-OLD atomic charge density approx. for the potential
     Check: negative starting charge=   -0.001526

[...]

     number of scf cycles    =   2
     number of bfgs steps    =   1

     energy   old            =   -1929.4397769937 Ry
     energy   new            =   -1929.4397912722 Ry

     CASE: energy  _new < energy  _old

     new trust radius        =       0.0090482848 bohr
     new conv_thr            =       0.0000010000 Ry

ATOMIC_POSITIONS (angstrom)
Sn       1.681748263   0.970957812  10.000000000    0   0   0
Sn       5.045244789   0.970957812  10.000000000    0   0   0
Sn       3.363496526   3.883831250  10.000000000    0   0   0
Sn       6.726993052   3.883831250  10.000000000    0   0   0
Sn       6.726993052   1.941915625  12.746283413    0   0   0
Sn       3.363496526   1.941915625  12.746283413    0   0   0
Sn       8.408741315   4.854789062  12.746283413    0   0   0
Sn       5.045244789   4.854789062  12.746283413    0   0   0
Sn      -0.000000722   0.000003774  15.467510598
Sn       3.363491982   0.053032228  15.604079320
Sn       1.727676496   2.886292463  15.603863354
Sn       4.999364886   2.886376812  15.603924999
H        3.363480178   1.941937125  16.784099786

     Writing output data file calc.save
     Check: negative starting charge=   -0.001526
     NEW-OLD atomic charge density approx. for the potential
     Check: negative starting charge=   -0.001527

[...]

     Self-consistent Calculation

[...]

     total energy              =   -1929.43985101 Ry
     Harris-Foulkes estimate   =   -1929.43985214 Ry
     estimated scf accuracy    <       0.00001109 Ry

     iteration #  6     ecut=    36.75 Ry     beta=0.20
     Davidson diagonalization with overlap
     ethr =  4.35E-09,  avg # of iterations =  2.8

     negative rho (up, down):  4.120E-04 0.000E+00

     Adding external electric field

     Computed dipole along edir(3) :
        Dipole               -0.0515 Ry au,         -0.1310 Debye
        Dipole field         -0.0001 Ry au

        Potential amp.        0.0083 Ry
        Total length         43.3566 bohr

     End of self-consistent calculation

[...]

          k = 0.3333-0.3849 0.0000 ( 25368 PWs)   bands (ev):

[...]

          k =-0.5000-0.2887 0.0000 ( 25386 PWs)   bands (ev):

   -21.3879 -21.3544 -21.3447 -21.3409 -21.3310 -21.3216 -21.3206 -21.3158
   -21.3150 -21.3112 -21.3104 -21.3035 -21.2986 -21.2976 -21.2839 -21.2838
   -21.2827 -21.2805 -21.2746 -21.2721 -21.2718 -21.2707 -21.2693 -21.2632
   -21.2611 -21.2582 -21.2553 -21.2553 -21.2542 -21.2516 -21.2445 -21.2431
   -21.2361 -21.2356 -21.2344 -21.2295 -21.2270 -21.2194 -21.2167 -21.2147
   -21.2039 -21.2010 -21.1936 -21.1888 -21.1785 -21.1747 -21.1746 -21.1744
   -21.1694 -21.1637 -21.1591 -21.1557 -21.1539 -21.1442 -21.1409 -21.1388
   -21.1292 -21.1202 -21.1158 -21.0940  -8.9293  -8.8069  -8.0236  -7.6332
    -6.6821  -6.5853  -6.3159  -6.0269  -5.6080  -5.5760  -4.3727  -4.3477
    -2.6958  -1.5952  -1.4675  -1.3955  -1.2843  -1.2196  -0.5712  -0.3272
    -0.1419  -0.1064  -0.0890   0.7257   0.8915   1.0971   1.1987   1.2873
     1.4976   1.6166   1.9020   1.9520   1.9686   2.0458

     the Fermi energy is     0.7439 ev

!    total energy              =   -1929.43985077 Ry
     Harris-Foulkes estimate   =   -1929.43985094 Ry
     estimated scf accuracy    <       0.00000062 Ry

     The total energy is the sum of the following terms:

     one-electron contribution =  -10286.02832416 Ry
     hartree contribution      =    5206.14975780 Ry
     xc contribution           =    -534.53974692 Ry
     ewald contribution        =    3685.01864144 Ry
     electric field correction =       0.00000495 Ry
     smearing contrib. (-TS)   =      -0.04018387 Ry

     convergence has been achieved in   6 iterations

     Forces acting on atoms (Ry/au):

     negative rho (up, down):  4.120E-04 0.000E+00
     atom    1 type  1   force =     0.00140523    0.00080971    0.00018325
     atom    2 type  1   force =    -0.00140269    0.00081097    0.00018641
     atom    3 type  1   force =     0.00000121   -0.00162085    0.00018606
     atom    4 type  1   force =    -0.00000173    0.00000010    0.00311347
     atom    5 type  1   force =     0.00000051    0.00212155   -0.00374218
     atom    6 type  1   force =     0.00000077   -0.00000213    0.00582585
     atom    7 type  1   force =    -0.00183452   -0.00105850   -0.00373820
     atom    8 type  1   force =     0.00183938   -0.00105902   -0.00373930
     atom    9 type  1   force =    -0.00000220   -0.00000320    0.00090339
     atom   10 type  1   force =    -0.00000022   -0.00153773   -0.00006633
     atom   11 type  1   force =    -0.00133587    0.00077317   -0.00005946
     atom   12 type  1   force =     0.00133004    0.00076897   -0.00005691
     atom   13 type  2   force =     0.00000008   -0.00000304    0.00100396

     Total force =     0.002990     Total SCF correction =     0.001230
     SCF correction compared to forces is large: reduce conv_thr to get better values

     bfgs converged in   3 scf cycles and   2 bfgs steps
     (criteria: energy <  1.0E+12, force <  1.9E-03)

     End of BFGS Geometry Optimization

     Final energy   =   -1929.4398507686 Ry
Begin final coordinates

ATOMIC_POSITIONS (angstrom)
Sn       1.681748263   0.970957812  10.000000000    0   0   0
Sn       5.045244789   0.970957812  10.000000000    0   0   0
Sn       3.363496526   3.883831250  10.000000000    0   0   0
Sn       6.726993052   3.883831250  10.000000000    0   0   0
Sn       6.726993052   1.941915625  12.746283413    0   0   0
Sn       3.363496526   1.941915625  12.746283413    0   0   0
Sn       8.408741315   4.854789062  12.746283413    0   0   0
Sn       5.045244789   4.854789062  12.746283413    0   0   0
Sn      -0.000000722   0.000003774  15.467510598
Sn       3.363491982   0.053032228  15.604079320
Sn       1.727676496   2.886292463  15.603863354
Sn       4.999364886   2.886376812  15.603924999
H        3.363480178   1.941937125  16.784099786
End final coordinates

     Writing output data file calc.save

     General routines

     Parallel routines

   This run was terminated on:   1: 9:50  17Jan2019

   JOB DONE.
Job  /afs/slac/g/suncat/bin/suncat-tsmpirun -x LD_LIBRARY_PATH -wdir /tmp/qe_379075a5fuu04__scratch pw.x -npool 3 -in pw.pwi

TID   HOST_NAME   COMMAND_LINE            STATUS            TERMINATION_TIME
00000 suncat1043 pw.x -npool 3 -i  Done                     01/17/2019 01:09:50
00001 suncat1043 pw.x -npool 3 -i  Done                     01/17/2019 01:09:50
00002 suncat1043 pw.x -npool 3 -i  Done                     01/17/2019 01:09:50
00003 suncat1043 pw.x -npool 3 -i  Done                     01/17/2019 01:09:50
00004 suncat1043 pw.x -npool 3 -i  Done                     01/17/2019 01:09:50
00005 suncat1043 pw.x -npool 3 -i  Done                     01/17/2019 01:09:50
00006 suncat1043 pw.x -npool 3 -i  Done                     01/17/2019 01:09:50
00007 suncat1043 pw.x -npool 3 -i  Done                     01/17/2019 01:09:50
00008 suncat1043 pw.x -npool 3 -i  Done                     01/17/2019 01:09:50
00009 suncat1043 pw.x -npool 3 -i  Done                     01/17/2019 01:09:50
00010 suncat1043 pw.x -npool 3 -i  Done                     01/17/2019 01:09:50
00011 suncat1043 pw.x -npool 3 -i  Done                     01/17/2019 01:09:50
00012 suncat1042 pw.x -npool 3 -i  Done                     01/17/2019 01:09:50
00013 suncat1042 pw.x -npool 3 -i  Done                     01/17/2019 01:09:50
00014 suncat1042 pw.x -npool 3 -i  Done                     01/17/2019 01:09:50
00015 suncat1042 pw.x -npool 3 -i  Done                     01/17/2019 01:09:50
00016 suncat1042 pw.x -npool 3 -i  Done                     01/17/2019 01:09:50
00017 suncat1042 pw.x -npool 3 -i  Done                     01/17/2019 01:09:50
00018 suncat1042 pw.x -npool 3 -i  Done                     01/17/2019 01:09:50
00019 suncat1042 pw.x -npool 3 -i  Done                     01/17/2019 01:09:50
00020 suncat1042 pw.x -npool 3 -i  Done                     01/17/2019 01:09:50
00021 suncat1042 pw.x -npool 3 -i  Done                     01/17/2019 01:09:50
00022 suncat1042 pw.x -npool 3 -i  Done                     01/17/2019 01:09:50
00023 suncat1042 pw.x -npool 3 -i  Done                     01/17/2019 01:09:50
00024 suncat1025 pw.x -npool 3 -i  Done                     01/17/2019 01:09:50
00025 suncat1025 pw.x -npool 3 -i  Done                     01/17/2019 01:09:50
00026 suncat1025 pw.x -npool 3 -i  Done                     01/17/2019 01:09:50
00027 suncat1025 pw.x -npool 3 -i  Done                     01/17/2019 01:09:50
00028 suncat1025 pw.x -npool 3 -i  Done                     01/17/2019 01:09:50
00029 suncat1025 pw.x -npool 3 -i  Done                     01/17/2019 01:09:50
00030 suncat1025 pw.x -npool 3 -i  Done                     01/17/2019 01:09:50
00031 suncat1025 pw.x -npool 3 -i  Done                     01/17/2019 01:09:50
00032 suncat1025 pw.x -npool 3 -i  Done                     01/17/2019 01:09:50
00033 suncat1025 pw.x -npool 3 -i  Done                     01/17/2019 01:09:50
00034 suncat1025 pw.x -npool 3 -i  Done                     01/17/2019 01:09:50
00035 suncat1025 pw.x -npool 3 -i  Done                     01/17/2019 01:09:50