     Program PWSCF v.5.1rc2 (svn rev. 11289) starts on 30Apr2018 at 16:27:15

     Current dimensions of program PWSCF are:
     Max number of different atomic species (ntypx) = 10
     Max number of k-points (npk) =  40000
     Max angular momentum in pseudopotentials (lmaxx) =  3
     Presently stress not available with electric field

     IMPORTANT: XC functional enforced from input :
     Exchange-correlation      = BEEF-VDW ( 1  4 27 13 2)
     Any further DFT definition will be discarded
     Please, verify this is what you really want

     Subspace diagonalization in iterative solution of the eigenvalue problem:
     a serial algorithm will be used

     bravais-lattice index     =            0
     lattice parameter (alat)  =       1.8897  a.u.
     unit-cell volume          =    4650.5773 (a.u.)^3
     number of atoms/cell      =           13
     number of atomic types    =            2
     number of electrons       =        37.00
     number of Kohn-Sham states=           28
     kinetic-energy cutoff     =      36.7493  Ry
     charge density cutoff     =     367.4932  Ry
     convergence threshold     =      1.0E-05
     mixing beta               =       0.3000
     number of iterations used =           10  plain     mixing
     Exchange-correlation      = BEEF-VDW ( 1  4 27 13 2)
     nstep                     =           50

     celldm(1)=   1.889726  celldm(2)=   0.000000  celldm(3)=   0.000000
     celldm(4)=   0.000000  celldm(5)=   0.000000  celldm(6)=   0.000000

     crystal axes: (cart. coord. in units of alat)
               a(1) = (   5.682886   0.000000   0.000000 )
               a(2) = (   2.841443   4.921524   0.000000 )
               a(3) = (   0.000000   0.000000  24.640057 )

     reciprocal axes: (cart. coord. in units 2 pi/alat)
               b(1) = (  0.175967 -0.101595  0.000000 )
               b(2) = (  0.000000  0.203189  0.000000 )
               b(3) = (  0.000000  0.000000  0.040584 )

     PseudoPot. # 1 for Al read from file:
     /u/if/mamunm/psp/gbrv1.5pbe/Al.UPF
     MD5 check sum: 0a6289f5291fc8f409219462bc851e1f
     Pseudo is Ultrasoft + core correction, Zval =  3.0
     Generated by new atomic code, or converted to UPF format
     Using radial grid of  893 points,  3 beta functions with:
                l(1) =   0
                l(2) =   1
                l(3) =   2
     Q(r) pseudized with  8 coefficients,  rinner =    0.900   0.900   0.900
                                                       0.900   0.900

     PseudoPot. # 2 for H  read from file:
     /u/if/mamunm/psp/gbrv1.5pbe/H.UPF
     MD5 check sum: 761ae9a214b05c3daf00ab9f6b793d6f
     Pseudo is Ultrasoft, Zval =  1.0
     Generated by new atomic code, or converted to UPF format
     Using radial grid of  615 points,  2 beta functions with:
                l(1) =   0
                l(2) =   0
     Q(r) pseudized with  8 coefficients,  rinner =    0.700

     vdW kernel table read from file vdW_kernel_table
     MD5 check sum: 095c7af220d748ca6e76c0b4c6cfb241

     atomic species   valence    mass     pseudopotential
        Al1            3.00    26.98154     Al( 1.00)
        H1             1.00     1.00800     H ( 1.00)

     No symmetry found

   Cartesian axes

     site n.     atom                  positions (alat units)
         1           Al1 tau(   1) = (   1.4207216   0.8202540  10.0000000  )
         2           Al1 tau(   2) = (   4.2621647   0.8202540  10.0000000  )
         3           Al1 tau(   3) = (   2.8414431   3.2810159  10.0000000  )
         4           Al1 tau(   4) = (   5.6828862   3.2810159  10.0000000  )
         5           Al1 tau(   5) = (   5.6828862   1.6405079  12.3200286  )
         6           Al1 tau(   6) = (   2.8414431   1.6405079  12.3200286  )
         7           Al1 tau(   7) = (   7.1036078   4.1012699  12.3200286  )
         8           Al1 tau(   8) = (   4.2621647   4.1012699  12.3200286  )
         9           Al1 tau(   9) = (   0.0000000   0.0000000  14.6400572  )
        10           Al1 tau(  10) = (   2.8414431   0.0000000  14.6400572  )
        11           Al1 tau(  11) = (   1.4207216   2.4607619  14.6400572  )
        12           Al1 tau(  12) = (   4.2621647   2.4607619  14.6400572  )
        13           H1  tau(  13) = (   0.0000000   0.0000000  15.9320572  )

     number of k points=    20  Fermi-Dirac smearing, width (Ry)=  0.0110
                       cart. coord. in units 2pi/alat
        k(    1) = (   0.0000000   0.0000000   0.0000000), wk =   0.0555556
        k(    2) = (   0.0000000   0.0338648   0.0000000), wk =   0.1111111
        k(    3) = (   0.0000000   0.0677297   0.0000000), wk =   0.1111111
        k(    4) = (   0.0000000  -0.1015945   0.0000000), wk =   0.0555556
        k(    5) = (   0.0293278  -0.0169324   0.0000000), wk =   0.1111111
        k(    6) = (   0.0293278   0.0169324   0.0000000), wk =   0.1111111
        k(    7) = (   0.0293278   0.0507973   0.0000000), wk =   0.1111111
        k(    8) = (   0.0293278  -0.1185270   0.0000000), wk =   0.1111111
        k(    9) = (   0.0293278  -0.0846621   0.0000000), wk =   0.1111111
        k(   10) = (   0.0293278  -0.0507973   0.0000000), wk =   0.1111111
        k(   11) = (   0.0586556  -0.0338648   0.0000000), wk =   0.1111111
        k(   12) = (   0.0586556   0.0000000   0.0000000), wk =   0.1111111
        k(   13) = (   0.0586556   0.0338648   0.0000000), wk =   0.1111111
        k(   14) = (   0.0586556  -0.1354594   0.0000000), wk =   0.1111111
        k(   15) = (   0.0586556  -0.1015945   0.0000000), wk =   0.1111111
        k(   16) = (   0.0586556  -0.0677297   0.0000000), wk =   0.1111111
        k(   17) = (  -0.0879835   0.0507973   0.0000000), wk =   0.0555556
        k(   18) = (  -0.0879835   0.0846621   0.0000000), wk =   0.1111111
        k(   19) = (  -0.0879835   0.1185270   0.0000000), wk =   0.1111111
        k(   20) = (  -0.0879835  -0.0507973   0.0000000), wk =   0.0555556

     Largest allocated arrays     est. size (Mb)     dimensions
     Largest temporary arrays     est. size (Mb)     dimensions

     Initial potential from superposition of free atoms
     Check: negative starting charge=   -0.000168

     starting charge   36.97041, renormalised to   37.00000

     negative rho (up, down):  1.685E-04 0.000E+00

     *
     * You are using vdW-DF for exchange-correlation in this calculation.
     * Please cite the following three references that made this development
     * possible:
     *
     *   M. Dion, H. Rydberg, E. Schroder, D. C. Langreth, and
     *   B. I. Lundqvist, Phys. Rev. Lett. 92, 246401 (2004).
     *
     *   T. Thonhauser, V. R. Cooper, S. Li, A. Puzder, P. Hyldgaard, and
     *   D. C. Langreth, Phys. Rev. B 76, 125112 (2007).
     *
     *   G. Roman-Perez and J. M. Soler, Phys. Rev. Lett. 103, 096102 (2009).
     *
     *
     * If you are using vdW-DF2, please also cite:
     *
     *   K. Lee, E. D. Murray, L. Kong, B. I. Lundqvist, and
     *   D. C. Langreth, Phys. Rev. B 82, 081101(R) (2010).
     *
     *
     * If you are calculating the stress with vdW-DF, please also cite:
     *
     *   R. Sabatini, E. Kucukbenli, B. Kolb, T. Thonhauser, and
     *   S. de Gironcoli, J. Phys.: Condens. Matter 24, 424209 (2012).
     *

     Carrying out vdW-DF run using the following parameters:

     Nqs =      20    Nr_points =    1024   r_max =   100.000
     q_mesh =
               0.00001000     0.04494208     0.09755937     0.15916263
               0.23128650     0.31572767     0.41458969     0.53033537
               0.66584808     0.82450364     1.01025438     1.22772762
               1.48234092     1.78043706     2.12944203     2.53805004
               3.01644009     3.57652955     4.23227104     5.00000000

     Gradients computed in reciprocal space

     Adding external electric field

     Computed dipole along edir(3) :
        Dipole               -0.0054 Ry au,         -0.0137 Debye
        Dipole field         -0.0000 Ry au

        Potential amp.        0.0013 Ry
        Total length         45.3989 bohr

     Starting wfc are   49 randomized atomic wfcs

     Self-consistent Calculation

     iteration #  1     ecut=    36.75 Ry     beta=0.30
     Davidson diagonalization with overlap
     ethr =  1.00E-02,  avg # of iterations =  3.0

[...]

     total energy              =     -83.30648440 Ry
     Harris-Foulkes estimate   =     -83.67073422 Ry
     estimated scf accuracy    <       0.91318810 Ry

[...]

     End of self-consistent calculation

          k = 0.0000 0.0000 0.0000 ( 17579 PWs)   bands (ev):

   -11.5028  -9.8684  -7.4431  -5.8148  -5.5494  -5.5494  -5.4896  -5.4896
    -5.4860  -5.0738  -4.1507  -4.1507  -4.1223  -3.7530  -3.5548  -3.5548
    -2.7253  -1.2470  -1.2470  -1.0943  -1.0071  -1.0071  -0.6041   0.5810
     1.7874   1.7882   1.7983   1.8154

[...]

          k =-0.0880 0.0508 0.0000 ( 17464 PWs)   bands (ev):

[...]

     the Fermi energy is    -0.8286 ev

!    total energy              =     -83.48118445 Ry
     Harris-Foulkes estimate   =     -83.48118021 Ry
     estimated scf accuracy    <       0.00000229 Ry

     The total energy is the sum of the following terms:

     one-electron contribution =    -643.65204146 Ry
     hartree contribution      =     328.92275918 Ry
     xc contribution           =     -53.99608781 Ry
     ewald contribution        =     285.27441780 Ry
     electric field correction =       0.00003036 Ry
     smearing contrib. (-TS)   =      -0.03026252 Ry

     convergence has been achieved in   9 iterations

 BEEF-vdW xc energy contributions
           1 :   -44.3009160610185
           2 :    37.9598353618383
           3 :   -28.2552859843847
           4 :    19.0739070124379
           5 :   -12.9037972389071
           6 :    9.87463427395672
           7 :   -8.48933857939777
           8 :    7.19535480045742
           9 :   -5.50252278403548
          10 :    3.93110533882264
          11 :   -3.13486491661514
          12 :    3.13567614481502
          13 :   -3.32311568721397
          14 :    3.07224401023140
          15 :   -2.30008771888744
          16 :    1.44507527057816
          17 :  -0.969771509938262
          18 :   0.920022346315569
          19 :  -0.948612616497073
          20 :   0.711817132411774
          21 :  -0.207208326174069
          22 :  -0.264497349584190
          23 :   0.428170930861413
          24 :  -0.302170728004214
          25 :   0.152730960013955
          26 :  -0.212779373945750
          27 :   0.461206666111387
          28 :  -0.670663835107497
          29 :   0.650682037813553
          30 :  -0.432723942978953
          31 :   -6.63285392812959
          32 :   -4.83085508658128

     Forces acting on atoms (Ry/au):

     negative rho (up, down):  4.936E-04 0.000E+00
     atom    1 type  1   force =     0.00274209    0.00158342   -0.00043757
     atom    2 type  1   force =    -0.00274176    0.00158301   -0.00043789
     atom    3 type  1   force =    -0.00000004   -0.00316629   -0.00043775
     atom    4 type  1   force =     0.00000025   -0.00000012    0.00029116
     atom    5 type  1   force =    -0.00000007    0.00472621    0.00393698
     atom    6 type  1   force =     0.00000011    0.00000023   -0.00301848
     atom    7 type  1   force =    -0.00409288   -0.00236314    0.00393682
     atom    8 type  1   force =     0.00409281   -0.00236300    0.00393696
     atom    9 type  1   force =    -0.00000026    0.00000010   -0.25967648
     atom   10 type  1   force =     0.00000059    0.00364180   -0.01068724
     atom   11 type  1   force =     0.00315366   -0.00182067   -0.01068728
     atom   12 type  1   force =    -0.00315409   -0.00182146   -0.01068724
     atom   13 type  2   force =    -0.00000041   -0.00000008    0.28396800

     Total force =     0.385295     Total SCF correction =     0.000405

     entering subroutine stress ...

     negative rho (up, down):  4.936E-04 0.000E+00
          total   stress  (Ry/bohr**3)                   (kbar)     P=    3.63
  -0.00003428   0.00000000   0.00000000         -5.04      0.00      0.00
   0.00000000  -0.00003428   0.00000000          0.00     -5.04      0.00
   0.00000000   0.00000000   0.00014267          0.00      0.00     20.99

     BFGS Geometry Optimization

     number of scf cycles    =   1
     number of bfgs steps    =   0

     energy   new            =     -83.4811844461 Ry

     new trust radius        =       0.2839680026 bohr
     new conv_thr            =       0.0000099958 Ry

ATOMIC_POSITIONS (crystal)
Al1      0.166666667   0.166666667   0.405843214    0   0   0
Al1      0.666666667   0.166666667   0.405843214    0   0   0
Al1      0.166666667   0.666666667   0.405843214    0   0   0
Al1      0.666666667   0.666666667   0.405843214    0   0   0
Al1      0.833333333   0.333333333   0.500000000    0   0   0
Al1      0.333333333   0.333333333   0.500000000    0   0   0
Al1      0.833333333   0.833333333   0.500000000    0   0   0
Al1      0.333333333   0.833333333   0.500000000    0   0   0
Al1     -0.000000030   0.000000011   0.588579897
Al1      0.499804267   0.000391577   0.593927264
Al1      0.000391544   0.499804236   0.593927263
Al1      0.499804223   0.499804151   0.593927264
H1      -0.000000034  -0.000000009   0.652690311

     Writing output data file calc.save
     Check: negative starting charge=   -0.000168
     NEW-OLD atomic charge density approx. for the potential
     Check: negative starting charge=   -0.000164

[...]

     energy   old            =     -83.4811844461 Ry
     energy   new            =     -83.5424513569 Ry

     CASE: energy  _new < energy  _old

[...]

     WARNING: bfgs curvature condition failed, Theta= 0.838
     new trust radius        =       0.0245989399 bohr
     new conv_thr            =       0.0000001000 Ry

[...]

     Threshold (ethr) on eigenvalues was too large:
     Diagonalizing with lowered threshold

     Davidson diagonalization with overlap
     ethr =  6.90E-08,  avg # of iterations =  1.9

[...]

     number of scf cycles    =  17
     number of bfgs steps    =  16

     energy   old            =     -83.5608380786 Ry
     energy   new            =     -83.5609084008 Ry

     CASE: energy  _new < energy  _old

     new trust radius        =       0.0084577349 bohr
     new conv_thr            =       0.0000001000 Ry

ATOMIC_POSITIONS (crystal)
Al1      0.166666667   0.166666667   0.405843214    0   0   0
Al1      0.666666667   0.166666667   0.405843214    0   0   0
Al1      0.166666667   0.666666667   0.405843214    0   0   0
Al1      0.666666667   0.666666667   0.405843214    0   0   0
Al1      0.833333333   0.333333333   0.500000000    0   0   0
Al1      0.333333333   0.333333333   0.500000000    0   0   0
Al1      0.833333333   0.833333333   0.500000000    0   0   0
Al1      0.333333333   0.833333333   0.500000000    0   0   0
Al1      0.000000021  -0.000000018   0.612504328
Al1      0.499367845   0.001264385   0.592245041
Al1      0.001264420   0.499367784   0.592245039
Al1      0.499367843   0.499367776   0.592245044
H1       0.000000002  -0.000000017   0.677964953

     Writing output data file calc.save
     Check: negative starting charge=   -0.000152
     NEW-OLD atomic charge density approx. for the potential
     Check: negative starting charge=   -0.000152

[...]

     Self-consistent Calculation

[...]

     Threshold (ethr) on eigenvalues was too large:
     Diagonalizing with lowered threshold

     Davidson diagonalization with overlap
     ethr =  5.44E-08,  avg # of iterations =  2.1

[...]

     total energy              =     -83.56094615 Ry
     Harris-Foulkes estimate   =     -83.56094609 Ry
     estimated scf accuracy    <       0.00000035 Ry

     iteration #  5     ecut=    36.75 Ry     beta=0.30
     Davidson diagonalization with overlap
     ethr =  9.42E-10,  avg # of iterations =  2.6

[...]

     negative rho (up, down):  3.861E-04 0.000E+00

     Adding external electric field

     Computed dipole along edir(3) :
        Dipole               -0.2771 Ry au,         -0.7042 Debye
        Dipole field         -0.0007 Ry au

        Potential amp.        0.0680 Ry
        Total length         45.3989 bohr

     End of self-consistent calculation

[...]

          k = 0.0587-0.0677 0.0000 ( 17495 PWs)   bands (ev):

[...]

          k =-0.0880-0.0508 0.0000 ( 17464 PWs)   bands (ev):

   -10.2009 -10.0668  -8.4689  -8.4291  -7.1581  -7.1375  -6.2246  -5.8283
    -5.4941  -5.4504  -4.0839  -3.0633  -2.9349  -2.7807  -1.8143  -1.5123
    -1.3592  -1.1592  -1.0811   0.0172   0.0355   0.2146   0.4505   0.6799
     0.7913   0.8108   1.4073   1.7404

     the Fermi energy is    -1.0757 ev

!    total energy              =     -83.56094625 Ry
     Harris-Foulkes estimate   =     -83.56094621 Ry
     estimated scf accuracy    <       0.00000009 Ry

     The total energy is the sum of the following terms:

     one-electron contribution =    -626.95426946 Ry
     hartree contribution      =     320.27437014 Ry
     xc contribution           =     -53.79366484 Ry
     ewald contribution        =     276.94276283 Ry
     electric field correction =       0.00020742 Ry
     smearing contrib. (-TS)   =      -0.03035234 Ry

     convergence has been achieved in   5 iterations

 BEEF-vdW xc energy contributions
           1 :   -44.1094884418327
           2 :    37.7427939559607
           3 :   -28.0282867502192
           4 :    18.8790475035238
           5 :   -12.7648796076814
           6 :    9.77145090626709
           7 :   -8.36912889305250
           8 :    7.00920384771209
           9 :   -5.23353891406224
          10 :    3.59299988881898
          11 :   -2.74893733609693
          12 :    2.71306455443523
          13 :   -2.86847595631330
          14 :    2.59941428539130
          15 :   -1.83815012872870
          16 :    1.02453740009865
          17 :  -0.602110405034644
          18 :   0.593124175925567
          19 :  -0.643197518186682
          20 :   0.421703662971019
          21 :   5.631664086554622E-002
          22 :  -0.486207193707230
          23 :   0.603841515291172
          24 :  -0.438593897648389
          25 :   0.255570619695355
          26 :  -0.279054534304208
          27 :   0.486357212470296
          28 :  -0.661858440223341
          29 :   0.629748729069547
          30 :  -0.422676370745407
          31 :   -6.61795678757295
          32 :   -4.81050320123343

     Forces acting on atoms (Ry/au):

     negative rho (up, down):  3.861E-04 0.000E+00
     atom    1 type  1   force =     0.00185923    0.00107342   -0.00188314
     atom    2 type  1   force =    -0.00185923    0.00107342   -0.00188314
     atom    3 type  1   force =     0.00000000   -0.00214685   -0.00188314
     atom    4 type  1   force =     0.00000000    0.00000000    0.00107634
     atom    5 type  1   force =    -0.00000000   -0.00404561    0.00338575
     atom    6 type  1   force =     0.00000001   -0.00000000   -0.00517571
     atom    7 type  1   force =     0.00350360    0.00202280    0.00338575
     atom    8 type  1   force =    -0.00350360    0.00202280    0.00338576
     atom    9 type  1   force =     0.00000001   -0.00000000    0.00172948
     atom   10 type  1   force =    -0.00000003    0.00078058   -0.00030301
     atom   11 type  1   force =     0.00067601   -0.00039029   -0.00030301
     atom   12 type  1   force =    -0.00067602   -0.00039028   -0.00030302
     atom   13 type  2   force =     0.00000000   -0.00000000   -0.00122890

     Total force =     0.002570     Total SCF correction =     0.000147

     entering subroutine stress ...

     negative rho (up, down):  3.861E-04 0.000E+00
          total   stress  (Ry/bohr**3)                   (kbar)     P=   -7.10
  -0.00007383  -0.00000000  -0.00000000        -10.86     -0.00     -0.00
  -0.00000000  -0.00007383   0.00000000         -0.00    -10.86      0.00
  -0.00000000   0.00000000   0.00000294         -0.00      0.00      0.43

     bfgs converged in  18 scf cycles and  17 bfgs steps
     (criteria: energy <  1.0E+00, force <  1.9E-03)

     End of BFGS Geometry Optimization

     Final energy   =     -83.5609462497 Ry
Begin final coordinates

ATOMIC_POSITIONS (crystal)
Al1      0.166666667   0.166666667   0.405843214    0   0   0
Al1      0.666666667   0.166666667   0.405843214    0   0   0
Al1      0.166666667   0.666666667   0.405843214    0   0   0
Al1      0.666666667   0.666666667   0.405843214    0   0   0
Al1      0.833333333   0.333333333   0.500000000    0   0   0
Al1      0.333333333   0.333333333   0.500000000    0   0   0
Al1      0.833333333   0.833333333   0.500000000    0   0   0
Al1      0.333333333   0.833333333   0.500000000    0   0   0
Al1      0.000000021  -0.000000018   0.612504328
Al1      0.499367845   0.001264385   0.592245041
Al1      0.001264420   0.499367784   0.592245039
Al1      0.499367843   0.499367776   0.592245044
H1       0.000000002  -0.000000017   0.677964953
End final coordinates

     Writing output data file calc.save

     General routines

     Parallel routines

   This run was terminated on:  17: 3:53  30Apr2018

   JOB DONE.
Job  /afs/slac/g/suncat/bin/suncat-tsmpirun -x LD_LIBRARY_PATH -wdir /scratch/qe511592_czUNE pw.x -npool 4 -in pw.inp

TID   HOST_NAME   COMMAND_LINE            STATUS            TERMINATION_TIME
00000 suncat0190 pw.x -npool 4 -i  Done                     04/30/2018 17:03:53
00001 suncat0190 pw.x -npool 4 -i  Done                     04/30/2018 17:03:53
00002 suncat0190 pw.x -npool 4 -i  Done                     04/30/2018 17:03:53
00003 suncat0190 pw.x -npool 4 -i  Done                     04/30/2018 17:03:53
00004 suncat0190 pw.x -npool 4 -i  Done                     04/30/2018 17:03:53
00005 suncat0190 pw.x -npool 4 -i  Done                     04/30/2018 17:03:53
00006 suncat0190 pw.x -npool 4 -i  Done                     04/30/2018 17:03:53
00007 suncat0190 pw.x -npool 4 -i  Done                     04/30/2018 17:03:53
00008 suncat0185 pw.x -npool 4 -i  Done                     04/30/2018 17:03:53
00009 suncat0185 pw.x -npool 4 -i  Done                     04/30/2018 17:03:53
00010 suncat0185 pw.x -npool 4 -i  Done                     04/30/2018 17:03:53
00011 suncat0185 pw.x -npool 4 -i  Done                     04/30/2018 17:03:53
00012 suncat0185 pw.x -npool 4 -i  Done                     04/30/2018 17:03:53
00013 suncat0185 pw.x -npool 4 -i  Done                     04/30/2018 17:03:53
00014 suncat0185 pw.x -npool 4 -i  Done                     04/30/2018 17:03:53
00015 suncat0185 pw.x -npool 4 -i  Done                     04/30/2018 17:03:53
00016 suncat0171 pw.x -npool 4 -i  Done                     04/30/2018 17:03:53
00017 suncat0171 pw.x -npool 4 -i  Done                     04/30/2018 17:03:53
00018 suncat0171 pw.x -npool 4 -i  Done                     04/30/2018 17:03:53
00019 suncat0171 pw.x -npool 4 -i  Done                     04/30/2018 17:03:53
00020 suncat0171 pw.x -npool 4 -i  Done                     04/30/2018 17:03:53
00021 suncat0171 pw.x -npool 4 -i  Done                     04/30/2018 17:03:53
00022 suncat0171 pw.x -npool 4 -i  Done                     04/30/2018 17:03:53
00023 suncat0171 pw.x -npool 4 -i  Done                     04/30/2018 17:03:53
00024 suncat0279 pw.x -npool 4 -i  Done                     04/30/2018 17:03:53
00025 suncat0279 pw.x -npool 4 -i  Done                     04/30/2018 17:03:53
00026 suncat0279 pw.x -npool 4 -i  Done                     04/30/2018 17:03:53
00027 suncat0279 pw.x -npool 4 -i  Done                     04/30/2018 17:03:53
00028 suncat0279 pw.x -npool 4 -i  Done                     04/30/2018 17:03:53
00029 suncat0279 pw.x -npool 4 -i  Done                     04/30/2018 17:03:53
00030 suncat0279 pw.x -npool 4 -i  Done                     04/30/2018 17:03:53
00031 suncat0279 pw.x -npool 4 -i  Done                     04/30/2018 17:03:53