     Program PWSCF v.5.1rc2 (svn rev. 11289) starts on 25Apr2018 at  9:41:13

     Current dimensions of program PWSCF are:
     Max number of different atomic species (ntypx) = 10
     Max number of k-points (npk) =  40000
     Max angular momentum in pseudopotentials (lmaxx) =  3
     Presently stress not available with electric field

     IMPORTANT: XC functional enforced from input :
     Exchange-correlation      = BEEF-VDW ( 1  4 27 13 2)
     Any further DFT definition will be discarded
     Please, verify this is what you really want

     Subspace diagonalization in iterative solution of the eigenvalue problem:
     a serial algorithm will be used

     bravais-lattice index     =            0
     lattice parameter (alat)  =       1.8897  a.u.
     unit-cell volume          =    6082.7792 (a.u.)^3
     number of atoms/cell      =           14
     number of atomic types    =            3
     number of electrons       =       150.00
     number of Kohn-Sham states=           85
     kinetic-energy cutoff     =      36.7493  Ry
     charge density cutoff     =     367.4932  Ry
     convergence threshold     =      1.0E-05
     mixing beta               =       0.3000
     number of iterations used =           10  plain     mixing
     Exchange-correlation      = BEEF-VDW ( 1  4 27 13 2)
     nstep                     =           50

     celldm(1)=   1.889726  celldm(2)=   0.000000  celldm(3)=   0.000000
     celldm(4)=   0.000000  celldm(5)=   0.000000  celldm(6)=   0.000000

     crystal axes: (cart. coord. in units of alat)
               a(1) = (   6.421223   0.000000   0.000000 )
               a(2) = (   3.210611   5.560942   0.000000 )
               a(3) = (   0.000000   0.000000  25.242906 )

     reciprocal axes: (cart. coord. in units 2 pi/alat)
               b(1) = (  0.155734 -0.089913  0.000000 )
               b(2) = (  0.000000  0.179826  0.000000 )
               b(3) = (  0.000000  0.000000  0.039615 )

     PseudoPot. # 1 for Zr read from file:
     /u/if/mamunm/psp/gbrv1.5pbe/Zr.UPF
     MD5 check sum: 5db81b1e868ab7776c4564c113de050b
     Pseudo is Ultrasoft + core correction, Zval = 12.0
     Generated by new atomic code, or converted to UPF format
     Using radial grid of  887 points,  6 beta functions with:
                l(1) =   0
                l(2) =   0
                l(3) =   1
                l(4) =   1
                l(5) =   2
                l(6) =   2
     Q(r) pseudized with  6 coefficients,  rinner =    1.200   1.200   1.200
                                                       1.200   1.200

     PseudoPot. # 2 for N  read from file:
     /u/if/mamunm/psp/gbrv1.5pbe/N.UPF
     MD5 check sum: 95339753478d7afb44899504a8723017
     Pseudo is Ultrasoft + core correction, Zval =  5.0
     Generated by new atomic code, or converted to UPF format
     Using radial grid of  729 points,  4 beta functions with:
                l(1) =   0
                l(2) =   0
                l(3) =   1
                l(4) =   1
     Q(r) pseudized with  8 coefficients,  rinner =    0.900   0.900   0.900

     PseudoPot. # 3 for H  read from file:
     /u/if/mamunm/psp/gbrv1.5pbe/H.UPF
     MD5 check sum: 761ae9a214b05c3daf00ab9f6b793d6f
     Pseudo is Ultrasoft, Zval =  1.0
     Generated by new atomic code, or converted to UPF format
     Using radial grid of  615 points,  2 beta functions with:
                l(1) =   0
                l(2) =   0
     Q(r) pseudized with  8 coefficients,  rinner =    0.700

     vdW kernel table read from file vdW_kernel_table
     MD5 check sum: 095c7af220d748ca6e76c0b4c6cfb241

     atomic species   valence    mass     pseudopotential
        Zr1           12.00    91.22400     Zr( 1.00)
        N1             5.00    14.00700     N ( 1.00)
        H1             1.00     1.00800     H ( 1.00)

     No symmetry found

   Cartesian axes

     site n.     atom                  positions (alat units)
         1           Zr1 tau(   1) = (   1.6053057   0.9268237  10.0000000  )
         2           Zr1 tau(   2) = (   4.8159170   0.9268237  10.0000000  )
         3           Zr1 tau(   3) = (   3.2106113   3.7072946  10.0000000  )
         4           Zr1 tau(   4) = (   6.4212227   3.7072946  10.0000000  )
         5           Zr1 tau(   5) = (   6.4212227   1.8536473  12.6214532  )
         6           Zr1 tau(   6) = (   3.2106113   1.8536473  12.6214532  )
         7           Zr1 tau(   7) = (   8.0265283   4.6341183  12.6214532  )
         8           Zr1 tau(   8) = (   4.8159170   4.6341183  12.6214532  )
         9           Zr1 tau(   9) = (   0.0000000   0.0000000  15.2429064  )
        10           Zr1 tau(  10) = (   3.2106113   0.0000000  15.2429064  )
        11           Zr1 tau(  11) = (   1.6053057   2.7804710  15.2429064  )
        12           Zr1 tau(  12) = (   4.8159170   2.7804710  15.2429064  )
        13           N1  tau(  13) = (   0.0000000   0.0000000  17.3339064  )
        14           H1  tau(  14) = (   0.0000000   0.0000000  18.3839064  )

     number of k points=    20  Fermi-Dirac smearing, width (Ry)=  0.0110
                       cart. coord. in units 2pi/alat
        k(    1) = (   0.0000000   0.0000000   0.0000000), wk =   0.0555556
        k(    2) = (   0.0000000   0.0299709   0.0000000), wk =   0.1111111
        k(    3) = (   0.0000000   0.0599419   0.0000000), wk =   0.1111111
        k(    4) = (   0.0000000  -0.0899128   0.0000000), wk =   0.0555556
        k(    5) = (   0.0259556  -0.0149855   0.0000000), wk =   0.1111111
        k(    6) = (   0.0259556   0.0149855   0.0000000), wk =   0.1111111
        k(    7) = (   0.0259556   0.0449564   0.0000000), wk =   0.1111111
        k(    8) = (   0.0259556  -0.1048983   0.0000000), wk =   0.1111111
        k(    9) = (   0.0259556  -0.0749274   0.0000000), wk =   0.1111111
        k(   10) = (   0.0259556  -0.0449564   0.0000000), wk =   0.1111111
        k(   11) = (   0.0519112  -0.0299709   0.0000000), wk =   0.1111111
        k(   12) = (   0.0519112   0.0000000   0.0000000), wk =   0.1111111
        k(   13) = (   0.0519112   0.0299709   0.0000000), wk =   0.1111111
        k(   14) = (   0.0519112  -0.1198838   0.0000000), wk =   0.1111111
        k(   15) = (   0.0519112  -0.0899128   0.0000000), wk =   0.1111111
        k(   16) = (   0.0519112  -0.0599419   0.0000000), wk =   0.1111111
        k(   17) = (  -0.0778668   0.0449564   0.0000000), wk =   0.0555556
        k(   18) = (  -0.0778668   0.0749274   0.0000000), wk =   0.1111111
        k(   19) = (  -0.0778668   0.1048983   0.0000000), wk =   0.1111111
        k(   20) = (  -0.0778668  -0.0449564   0.0000000), wk =   0.0555556

     Largest allocated arrays     est. size (Mb)     dimensions
     Largest temporary arrays     est. size (Mb)     dimensions

     Initial potential from superposition of free atoms
     Check: negative starting charge=   -0.729071

     starting charge  149.97419, renormalised to  150.00000

     negative rho (up, down):  7.292E-01 0.000E+00

     *
     * You are using vdW-DF for exchange-correlation in this calculation.
     * Please cite the following three references that made this development
     * possible:
     *
     *   M. Dion, H. Rydberg, E. Schroder, D. C. Langreth, and
     *   B. I. Lundqvist, Phys. Rev. Lett. 92, 246401 (2004).
     *
     *   T. Thonhauser, V. R. Cooper, S. Li, A. Puzder, P. Hyldgaard, and
     *   D. C. Langreth, Phys. Rev. B 76, 125112 (2007).
     *
     *   G. Roman-Perez and J. M. Soler, Phys. Rev. Lett. 103, 096102 (2009).
     *
     *
     * If you are using vdW-DF2, please also cite:
     *
     *   K. Lee, E. D. Murray, L. Kong, B. I. Lundqvist, and
     *   D. C. Langreth, Phys. Rev. B 82, 081101(R) (2010).
     *
     *
     * If you are calculating the stress with vdW-DF, please also cite:
     *
     *   R. Sabatini, E. Kucukbenli, B. Kolb, T. Thonhauser, and
     *   S. de Gironcoli, J. Phys.: Condens. Matter 24, 424209 (2012).
     *

     Carrying out vdW-DF run using the following parameters:

     Nqs =      20    Nr_points =    1024   r_max =   100.000
     q_mesh =
               0.00001000     0.04494208     0.09755937     0.15916263
               0.23128650     0.31572767     0.41458969     0.53033537
               0.66584808     0.82450364     1.01025438     1.22772762
               1.48234092     1.78043706     2.12944203     2.53805004
               3.01644009     3.57652955     4.23227104     5.00000000

     Gradients computed in reciprocal space

     Adding external electric field

     Computed dipole along edir(3) :
        Dipole               -0.0094 Ry au,         -0.0238 Debye
        Dipole field         -0.0000 Ry au

        Potential amp.        0.0018 Ry
        Total length         46.5096 bohr

     Starting wfc are  161 randomized atomic wfcs

     Self-consistent Calculation

     iteration #  1     ecut=    36.75 Ry     beta=0.30
     Davidson diagonalization with overlap
     ethr =  1.00E-02,  avg # of iterations =  2.0

[...]

     total energy              =   -1215.48725070 Ry
     Harris-Foulkes estimate   =   -1219.13115936 Ry
     estimated scf accuracy    <       7.76817391 Ry

[...]

     End of self-consistent calculation

          k = 0.0000 0.0000 0.0000 ( 22923 PWs)   bands (ev):

   -47.8159 -47.7459 -47.7457 -47.7124 -47.6282 -47.6193 -47.6185 -47.4175
   -47.3856 -47.3273 -47.3270 -47.3231 -26.0522 -26.0359 -26.0357 -25.9852
   -25.9751 -25.9748 -25.9748 -25.8941 -25.8939 -25.8339 -25.7655 -25.6998
   -25.6994 -25.5801 -25.5652 -25.5130 -25.5126 -25.4546 -25.4544 -25.4430
   -25.4402 -25.4400 -25.4006 -25.2815 -25.2815 -25.2757 -25.2756 -25.2416
   -25.2255 -25.2253 -25.1992 -25.1423 -25.1388 -25.1387 -24.9915 -24.9915
   -12.5195  -3.8766  -3.2656  -2.2303  -1.4610  -1.0593  -1.0593  -0.9956
    -0.9012  -0.9011  -0.8538  -0.4588  -0.4587  -0.4492  -0.4131  -0.4131
    -0.2384  -0.0842  -0.0842   0.5677   0.9629   0.9630   1.4882   1.7172
     1.8707   1.9169   1.9169   2.1135   2.2804   2.2805   2.3300   2.4530
     2.4530   2.6708   2.7012   2.7013   2.7616

[...]

          k =-0.0779 0.0450 0.0000 ( 22880 PWs)   bands (ev):

[...]

     the Fermi energy is     1.5667 ev

!    total energy              =   -1218.42163434 Ry
     Harris-Foulkes estimate   =   -1218.42163410 Ry
     estimated scf accuracy    <       0.00000093 Ry

     The total energy is the sum of the following terms:

     one-electron contribution =   -8375.54923352 Ry
     hartree contribution      =    4181.41184004 Ry
     xc contribution           =    -226.68651640 Ry
     ewald contribution        =    3202.51802196 Ry
     electric field correction =       0.00000650 Ry
     smearing contrib. (-TS)   =      -0.11575292 Ry

     convergence has been achieved in  18 iterations

 BEEF-vdW xc energy contributions
           1 :   -194.080346926690
           2 :    175.461852454127
           3 :   -144.179473984021
           4 :    109.109920394388
           5 :   -78.1607475296833
           6 :    55.5544995565185
           7 :   -41.2485451101909
           8 :    32.3082781844950
           9 :   -25.1811845104597
          10 :    17.6071990750460
          11 :   -9.35400519290823
          12 :    1.69805504900148
          13 :    3.78924596450048
          14 :   -6.35461936132182
          15 :    6.48213844292835
          16 :   -5.49896966270251
          17 :    4.72659182792040
          18 :   -4.76566928926417
          19 :    5.33254641145334
          20 :   -5.66113335374007
          21 :    5.13396958027124
          22 :   -3.71694901067610
          23 :    1.95284028779832
          24 :  -0.577416374880215
          25 :   4.902424172320252E-002
          26 :  -0.301881072550543
          27 :   0.852869808457683
          28 :   -1.15487663861717
          29 :   0.947070250541515
          30 :  -0.379649271193102
          31 :   -22.5357500871160
          32 :   -16.7519075908803

     Forces acting on atoms (Ry/au):

     negative rho (up, down):  7.495E-01 0.000E+00
     atom    1 type  1   force =     0.00081910    0.00044728    0.01535998
     atom    2 type  1   force =    -0.00081760    0.00046959    0.01531755
     atom    3 type  1   force =     0.00002178   -0.00093217    0.01536878
     atom    4 type  1   force =    -0.00002342    0.00001526    0.01589274
     atom    5 type  1   force =     0.00002353    0.00646998   -0.01067066
     atom    6 type  1   force =    -0.00002070    0.00002348    0.00358162
     atom    7 type  1   force =    -0.00558050   -0.00326175   -0.01068169
     atom    8 type  1   force =     0.00558046   -0.00323326   -0.01070882
     atom    9 type  1   force =     0.00001888   -0.00001215    0.10852137
     atom   10 type  1   force =    -0.00001900    0.00079409   -0.00748327
     atom   11 type  1   force =     0.00069785   -0.00040086   -0.00746969
     atom   12 type  1   force =    -0.00069871   -0.00038075   -0.00748489
     atom   13 type  2   force =    -0.00000134    0.00000099   -0.07467780
     atom   14 type  3   force =    -0.00000034    0.00000029   -0.04486522

     Total force =     0.139772     Total SCF correction =     0.000698

     entering subroutine stress ...

     negative rho (up, down):  7.495E-01 0.000E+00
          total   stress  (Ry/bohr**3)                   (kbar)     P=  -14.87
  -0.00006587  -0.00000000  -0.00000000         -9.69     -0.00     -0.00
  -0.00000000  -0.00006587  -0.00000000         -0.00     -9.69     -0.00
  -0.00000000  -0.00000000  -0.00017142         -0.00     -0.00    -25.22

     BFGS Geometry Optimization

     number of scf cycles    =   1
     number of bfgs steps    =   0

     energy   new            =   -1218.4216343356 Ry

     new trust radius        =       0.1085213752 bohr
     new conv_thr            =       0.0000099958 Ry

ATOMIC_POSITIONS (crystal)
Zr1      0.166666667   0.166666667   0.396150897    0   0   0
Zr1      0.666666667   0.166666667   0.396150897    0   0   0
Zr1      0.166666667   0.666666667   0.396150897    0   0   0
Zr1      0.666666667   0.666666667   0.396150897    0   0   0
Zr1      0.833333333   0.333333333   0.500000000    0   0   0
Zr1      0.333333333   0.333333333   0.500000000    0   0   0
Zr1      0.833333333   0.833333333   0.500000000    0   0   0
Zr1      0.333333333   0.833333333   0.500000000    0   0   0
Zr1      0.000002134  -0.000001156   0.606124080
Zr1      0.499960652   0.000075565   0.603692228
Zr1      0.000076583   0.499961854   0.603692513
Zr1      0.499960535   0.499963768   0.603692194
N1      -0.000000157   0.000000094   0.685118755
H1      -0.000000042   0.000000027   0.727339572

     Writing output data file calc.save
     Check: negative starting charge=   -0.729071
     NEW-OLD atomic charge density approx. for the potential
     Check: negative starting charge=   -0.729239

[...]

     energy   old            =   -1218.4216343356 Ry
     energy   new            =   -1218.4368456725 Ry

     CASE: energy  _new < energy  _old

[...]

     WARNING: bfgs curvature condition failed, Theta= 0.948
     new trust radius        =       0.0176159155 bohr
     new conv_thr            =       0.0000001000 Ry

[...]

     Total force =     0.005789     Total SCF correction =     0.000213

[...]

     Total force =     0.003085     Total SCF correction =     0.000567
     SCF correction compared to forces is large: reduce conv_thr to get better values

[...]

     number of scf cycles    =  16
     number of bfgs steps    =  15

     energy   old            =   -1218.4497888133 Ry
     energy   new            =   -1218.4498191271 Ry

     CASE: energy  _new < energy  _old

     new trust radius        =       0.0040776909 bohr
     new conv_thr            =       0.0000001000 Ry

ATOMIC_POSITIONS (crystal)
Zr1      0.166666667   0.166666667   0.396150897    0   0   0
Zr1      0.666666667   0.166666667   0.396150897    0   0   0
Zr1      0.166666667   0.666666667   0.396150897    0   0   0
Zr1      0.666666667   0.666666667   0.396150897    0   0   0
Zr1      0.833333333   0.333333333   0.500000000    0   0   0
Zr1      0.333333333   0.333333333   0.500000000    0   0   0
Zr1      0.833333333   0.833333333   0.500000000    0   0   0
Zr1      0.333333333   0.833333333   0.500000000    0   0   0
Zr1      0.000003089  -0.000001736   0.603410287
Zr1      0.498234464   0.003527557   0.600222489
Zr1      0.003528609   0.498236069   0.600221965
Zr1      0.498233932   0.498238031   0.600222832
N1      -0.000000058  -0.000000170   0.678751550
H1      -0.000000191   0.000000131   0.719162170

     Writing output data file calc.save
     Check: negative starting charge=   -0.728452
     NEW-OLD atomic charge density approx. for the potential
     Check: negative starting charge=   -0.728807

[...]

     Self-consistent Calculation

[...]

     Threshold (ethr) on eigenvalues was too large:
     Diagonalizing with lowered threshold

     Davidson diagonalization with overlap
     ethr =  2.35E-08,  avg # of iterations =  4.0

[...]

     total energy              =   -1218.44982794 Ry
     Harris-Foulkes estimate   =   -1218.44982792 Ry
     estimated scf accuracy    <       0.00000010 Ry

     iteration #  9     ecut=    36.75 Ry     beta=0.30
     Davidson diagonalization with overlap
     ethr =  6.87E-11,  avg # of iterations =  2.4

[...]

     negative rho (up, down):  7.492E-01 0.000E+00

     Adding external electric field

     Computed dipole along edir(3) :
        Dipole                0.1287 Ry au,          0.3271 Debye
        Dipole field          0.0003 Ry au

        Potential amp.       -0.0247 Ry
        Total length         46.5096 bohr

     End of self-consistent calculation

[...]

          k = 0.0519-0.0599 0.0000 ( 22856 PWs)   bands (ev):

[...]

          k =-0.0779-0.0450 0.0000 ( 22880 PWs)   bands (ev):

   -47.6589 -47.6355 -47.6121 -47.6005 -47.5918 -47.5531 -47.5469 -47.2693
   -47.2551 -47.2262 -47.1922 -47.0811 -25.8487 -25.8266 -25.8000 -25.7991
   -25.7731 -25.7571 -25.7187 -25.6994 -25.6848 -25.6449 -25.6381 -25.6186
   -25.5746 -25.5667 -25.5662 -25.5464 -25.5302 -25.5125 -25.4552 -25.3258
   -25.3180 -25.3109 -25.2952 -25.2886 -25.2131 -25.1960 -25.1885 -25.1704
   -25.1406 -25.1297 -25.0870 -25.0785 -25.0543 -25.0342 -24.9547 -24.9413
   -12.7500  -4.0447  -1.9049  -1.8328  -1.0960  -0.8737  -0.8501  -0.6784
    -0.2587  -0.1892  -0.1560  -0.1355  -0.1201  -0.0562   0.5820   0.5989
     0.6129   0.6672   0.6851   0.7518   1.0369   1.1185   1.1536   1.1718
     1.2290   1.2721   1.4414   1.5184   1.6099   1.6324   1.7118   1.8030
     1.9044   1.9330   1.9823   2.0959   2.3553

     the Fermi energy is     1.6336 ev

!    total energy              =   -1218.44982794 Ry
     Harris-Foulkes estimate   =   -1218.44982805 Ry
     estimated scf accuracy    <       0.00000003 Ry

     The total energy is the sum of the following terms:

     one-electron contribution =   -8497.39221256 Ry
     hartree contribution      =    4242.83399080 Ry
     xc contribution           =    -226.95435003 Ry
     ewald contribution        =    3263.17669077 Ry
     electric field correction =       0.00003421 Ry
     smearing contrib. (-TS)   =      -0.11398113 Ry

     convergence has been achieved in   9 iterations

 BEEF-vdW xc energy contributions
           1 :   -194.344867390662
           2 :    175.786190854377
           3 :   -144.565180210630
           4 :    109.490529045064
           5 :   -78.4448141859097
           6 :    55.6844212599607
           7 :   -41.2325703371024
           8 :    32.2100584872455
           9 :   -25.0814641613323
          10 :    17.5618901308755
          11 :   -9.36899711716873
          12 :    1.73329051258588
          13 :    3.78774131448415
          14 :   -6.41487670068798
          15 :    6.58590264028288
          16 :   -5.59469635119885
          17 :    4.76687143152546
          18 :   -4.74144962287494
          19 :    5.27819261895885
          20 :   -5.62876319055027
          21 :    5.15788394426338
          22 :   -3.79279465362825
          23 :    2.04287711936141
          24 :  -0.636536861855149
          25 :   5.483163787474155E-002
          26 :  -0.269131115462528
          27 :   0.821878163565373
          28 :   -1.16267039362256
          29 :    1.00130408423260
          30 :  -0.452701523019300
          31 :   -22.5538689656301
          32 :   -16.7818616794532

     Forces acting on atoms (Ry/au):

     negative rho (up, down):  7.492E-01 0.000E+00
     atom    1 type  1   force =     0.00070276    0.00040612    0.01335140
     atom    2 type  1   force =    -0.00070277    0.00040575    0.01335170
     atom    3 type  1   force =    -0.00000032   -0.00081168    0.01335131
     atom    4 type  1   force =     0.00000020   -0.00000015    0.01451809
     atom    5 type  1   force =    -0.00000116    0.00760719   -0.01620869
     atom    6 type  1   force =     0.00000097   -0.00000036   -0.00604914
     atom    7 type  1   force =    -0.00658825   -0.00380269   -0.01620954
     atom    8 type  1   force =     0.00658839   -0.00380414   -0.01621014
     atom    9 type  1   force =    -0.00000373    0.00000259    0.00053956
     atom   10 type  1   force =     0.00000303   -0.00062743   -0.00010795
     atom   11 type  1   force =    -0.00054436    0.00031370   -0.00010610
     atom   12 type  1   force =     0.00054544    0.00031094   -0.00010888
     atom   13 type  2   force =    -0.00000008    0.00000015    0.00028081
     atom   14 type  3   force =    -0.00000012   -0.00000002   -0.00039244

     Total force =     0.001320     Total SCF correction =     0.000422
     SCF correction compared to forces is large: reduce conv_thr to get better values

     entering subroutine stress ...

     negative rho (up, down):  7.492E-01 0.000E+00
          total   stress  (Ry/bohr**3)                   (kbar)     P=   -6.72
  -0.00004561   0.00000000  -0.00000000         -6.71      0.00     -0.00
   0.00000000  -0.00004561   0.00000000          0.00     -6.71      0.00
  -0.00000000   0.00000000  -0.00004573         -0.00      0.00     -6.73

     bfgs converged in  17 scf cycles and  16 bfgs steps
     (criteria: energy <  1.0E+00, force <  1.9E-03)

     End of BFGS Geometry Optimization

     Final energy   =   -1218.4498279368 Ry
Begin final coordinates

ATOMIC_POSITIONS (crystal)
Zr1      0.166666667   0.166666667   0.396150897    0   0   0
Zr1      0.666666667   0.166666667   0.396150897    0   0   0
Zr1      0.166666667   0.666666667   0.396150897    0   0   0
Zr1      0.666666667   0.666666667   0.396150897    0   0   0
Zr1      0.833333333   0.333333333   0.500000000    0   0   0
Zr1      0.333333333   0.333333333   0.500000000    0   0   0
Zr1      0.833333333   0.833333333   0.500000000    0   0   0
Zr1      0.333333333   0.833333333   0.500000000    0   0   0
Zr1      0.000003089  -0.000001736   0.603410287
Zr1      0.498234464   0.003527557   0.600222489
Zr1      0.003528609   0.498236069   0.600221965
Zr1      0.498233932   0.498238031   0.600222832
N1      -0.000000058  -0.000000170   0.678751550
H1      -0.000000191   0.000000131   0.719162170
End final coordinates

     Writing output data file calc.save

     General routines

     Parallel routines

   This run was terminated on:  11:50:56  25Apr2018

   JOB DONE.
Job  /afs/slac/g/suncat/bin/suncat-tsmpirun -x LD_LIBRARY_PATH -wdir /scratch/qe404802_ToCV9 pw.x -npool 4 -in pw.inp

TID   HOST_NAME   COMMAND_LINE            STATUS            TERMINATION_TIME
00000 suncat0152 pw.x -npool 4 -i  Done                     04/25/2018 11:50:56
00001 suncat0152 pw.x -npool 4 -i  Done                     04/25/2018 11:50:56
00002 suncat0152 pw.x -npool 4 -i  Done                     04/25/2018 11:50:56
00003 suncat0152 pw.x -npool 4 -i  Done                     04/25/2018 11:50:56
00004 suncat0152 pw.x -npool 4 -i  Done                     04/25/2018 11:50:56
00005 suncat0152 pw.x -npool 4 -i  Done                     04/25/2018 11:50:56
00006 suncat0152 pw.x -npool 4 -i  Done                     04/25/2018 11:50:56
00007 suncat0152 pw.x -npool 4 -i  Done                     04/25/2018 11:50:56
00008 suncat0134 pw.x -npool 4 -i  Done                     04/25/2018 11:50:56
00009 suncat0134 pw.x -npool 4 -i  Done                     04/25/2018 11:50:56
00010 suncat0134 pw.x -npool 4 -i  Done                     04/25/2018 11:50:56
00011 suncat0134 pw.x -npool 4 -i  Done                     04/25/2018 11:50:56
00012 suncat0134 pw.x -npool 4 -i  Done                     04/25/2018 11:50:56
00013 suncat0134 pw.x -npool 4 -i  Done                     04/25/2018 11:50:56
00014 suncat0134 pw.x -npool 4 -i  Done                     04/25/2018 11:50:56
00015 suncat0134 pw.x -npool 4 -i  Done                     04/25/2018 11:50:56
00016 suncat0116 pw.x -npool 4 -i  Done                     04/25/2018 11:50:56
00017 suncat0116 pw.x -npool 4 -i  Done                     04/25/2018 11:50:56
00018 suncat0116 pw.x -npool 4 -i  Done                     04/25/2018 11:50:56
00019 suncat0116 pw.x -npool 4 -i  Done                     04/25/2018 11:50:56
00020 suncat0116 pw.x -npool 4 -i  Done                     04/25/2018 11:50:56
00021 suncat0116 pw.x -npool 4 -i  Done                     04/25/2018 11:50:56
00022 suncat0116 pw.x -npool 4 -i  Done                     04/25/2018 11:50:56
00023 suncat0116 pw.x -npool 4 -i  Done                     04/25/2018 11:50:56
00024 suncat0258 pw.x -npool 4 -i  Done                     04/25/2018 11:50:56
00025 suncat0258 pw.x -npool 4 -i  Done                     04/25/2018 11:50:56
00026 suncat0258 pw.x -npool 4 -i  Done                     04/25/2018 11:50:56
00027 suncat0258 pw.x -npool 4 -i  Done                     04/25/2018 11:50:56
00028 suncat0258 pw.x -npool 4 -i  Done                     04/25/2018 11:50:56
00029 suncat0258 pw.x -npool 4 -i  Done                     04/25/2018 11:50:56
00030 suncat0258 pw.x -npool 4 -i  Done                     04/25/2018 11:50:56
00031 suncat0258 pw.x -npool 4 -i  Done                     04/25/2018 11:50:56