     Program PWSCF v.5.1rc2 (svn rev. 11289) starts on 24Apr2018 at 22:18:58

     Current dimensions of program PWSCF are:
     Max number of different atomic species (ntypx) = 10
     Max number of k-points (npk) =  40000
     Max angular momentum in pseudopotentials (lmaxx) =  3
     Presently stress not available with electric field

     IMPORTANT: XC functional enforced from input :
     Exchange-correlation      = BEEF-VDW ( 1  4 27 13 2)
     Any further DFT definition will be discarded
     Please, verify this is what you really want

     Subspace diagonalization in iterative solution of the eigenvalue problem:
     a serial algorithm will be used

     bravais-lattice index     =            0
     lattice parameter (alat)  =       1.8897  a.u.
     unit-cell volume          =    7725.1200 (a.u.)^3
     number of atoms/cell      =           14
     number of atomic types    =            3
     number of electrons       =       139.00
     number of Kohn-Sham states=           79
     kinetic-energy cutoff     =      36.7493  Ry
     charge density cutoff     =     367.4932  Ry
     convergence threshold     =      1.0E-05
     mixing beta               =       0.3000
     number of iterations used =           10  plain     mixing
     Exchange-correlation      = BEEF-VDW ( 1  4 27 13 2)
     nstep                     =           50

     celldm(1)=   1.889726  celldm(2)=   0.000000  celldm(3)=   0.000000
     celldm(4)=   0.000000  celldm(5)=   0.000000  celldm(6)=   0.000000

     crystal axes: (cart. coord. in units of alat)
               a(1) = (   7.152277   0.000000   0.000000 )
               a(2) = (   3.576139   6.194054   0.000000 )
               a(3) = (   0.000000   0.000000  25.839810 )

     reciprocal axes: (cart. coord. in units 2 pi/alat)
               b(1) = (  0.139816 -0.080723  0.000000 )
               b(2) = (  0.000000  0.161445  0.000000 )
               b(3) = (  0.000000  0.000000  0.038700 )

     PseudoPot. # 1 for Y  read from file:
     /u/if/mamunm/psp/gbrv1.5pbe/Y.UPF
     MD5 check sum: d034151ed7554c50b6e82763ed42c788
     Pseudo is Ultrasoft + core correction, Zval = 11.0
     Generated by new atomic code, or converted to UPF format
     Using radial grid of  885 points,  6 beta functions with:
                l(1) =   0
                l(2) =   0
                l(3) =   1
                l(4) =   1
                l(5) =   2
                l(6) =   2
     Q(r) pseudized with  8 coefficients,  rinner =    1.200   1.200   1.200
                                                       1.200   1.200

     PseudoPot. # 2 for S  read from file:
     /u/if/mamunm/psp/gbrv1.5pbe/S.UPF
     MD5 check sum: 88d86576ff6df21479756cfb9bdac1df
     Pseudo is Ultrasoft + core correction, Zval =  6.0
     Generated by new atomic code, or converted to UPF format
     Using radial grid of  907 points,  6 beta functions with:
                l(1) =   0
                l(2) =   0
                l(3) =   1
                l(4) =   1
                l(5) =   2
                l(6) =   2
     Q(r) pseudized with  8 coefficients,  rinner =    1.300   1.300   1.300
                                                       1.300   1.300

     PseudoPot. # 3 for H  read from file:
     /u/if/mamunm/psp/gbrv1.5pbe/H.UPF
     MD5 check sum: 761ae9a214b05c3daf00ab9f6b793d6f
     Pseudo is Ultrasoft, Zval =  1.0
     Generated by new atomic code, or converted to UPF format
     Using radial grid of  615 points,  2 beta functions with:
                l(1) =   0
                l(2) =   0
     Q(r) pseudized with  8 coefficients,  rinner =    0.700

     vdW kernel table read from file vdW_kernel_table
     MD5 check sum: 095c7af220d748ca6e76c0b4c6cfb241

     atomic species   valence    mass     pseudopotential
        Y1            11.00    88.90584     Y ( 1.00)
        S1             6.00    32.06000     S ( 1.00)
        H1             1.00     1.00800     H ( 1.00)

     No symmetry found

   Cartesian axes

     site n.     atom                  positions (alat units)
         1           Y1  tau(   1) = (   1.7880693   1.0323423  10.0000000  )
         2           Y1  tau(   2) = (   5.3642080   1.0323423  10.0000000  )
         3           Y1  tau(   3) = (   3.5761386   4.1293692  10.0000000  )
         4           Y1  tau(   4) = (   7.1522773   4.1293692  10.0000000  )
         5           Y1  tau(   5) = (   7.1522773   2.0646846  12.9199050  )
         6           Y1  tau(   6) = (   3.5761386   2.0646846  12.9199050  )
         7           Y1  tau(   7) = (   8.9403466   5.1617115  12.9199050  )
         8           Y1  tau(   8) = (   5.3642080   5.1617115  12.9199050  )
         9           Y1  tau(   9) = (   0.0000000   0.0000000  15.8398100  )
        10           Y1  tau(  10) = (   3.5761386   0.0000000  15.8398100  )
        11           Y1  tau(  11) = (   1.7880693   3.0970269  15.8398100  )
        12           Y1  tau(  12) = (   5.3642080   3.0970269  15.8398100  )
        13           S1  tau(  13) = (   0.0000000   0.0000000  18.3473100  )
        14           H1  tau(  14) = (   0.0000000   0.0000000  19.5973100  )

     number of k points=    20  Fermi-Dirac smearing, width (Ry)=  0.0110
                       cart. coord. in units 2pi/alat
        k(    1) = (   0.0000000   0.0000000   0.0000000), wk =   0.0555556
        k(    2) = (   0.0000000   0.0269075   0.0000000), wk =   0.1111111
        k(    3) = (   0.0000000   0.0538151   0.0000000), wk =   0.1111111
        k(    4) = (   0.0000000  -0.0807226   0.0000000), wk =   0.0555556
        k(    5) = (   0.0233026  -0.0134538   0.0000000), wk =   0.1111111
        k(    6) = (   0.0233026   0.0134538   0.0000000), wk =   0.1111111
        k(    7) = (   0.0233026   0.0403613   0.0000000), wk =   0.1111111
        k(    8) = (   0.0233026  -0.0941763   0.0000000), wk =   0.1111111
        k(    9) = (   0.0233026  -0.0672688   0.0000000), wk =   0.1111111
        k(   10) = (   0.0233026  -0.0403613   0.0000000), wk =   0.1111111
        k(   11) = (   0.0466052  -0.0269075   0.0000000), wk =   0.1111111
        k(   12) = (   0.0466052   0.0000000   0.0000000), wk =   0.1111111
        k(   13) = (   0.0466052   0.0269075   0.0000000), wk =   0.1111111
        k(   14) = (   0.0466052  -0.1076301   0.0000000), wk =   0.1111111
        k(   15) = (   0.0466052  -0.0807226   0.0000000), wk =   0.1111111
        k(   16) = (   0.0466052  -0.0538151   0.0000000), wk =   0.1111111
        k(   17) = (  -0.0699078   0.0403613   0.0000000), wk =   0.0555556
        k(   18) = (  -0.0699078   0.0672688   0.0000000), wk =   0.1111111
        k(   19) = (  -0.0699078   0.0941763   0.0000000), wk =   0.1111111
        k(   20) = (  -0.0699078  -0.0403613   0.0000000), wk =   0.0555556

     Largest allocated arrays     est. size (Mb)     dimensions
     Largest temporary arrays     est. size (Mb)     dimensions

     Initial potential from superposition of free atoms
     Check: negative starting charge=   -0.000453

     starting charge  138.94632, renormalised to  139.00000

     negative rho (up, down):  4.536E-04 0.000E+00

     *
     * You are using vdW-DF for exchange-correlation in this calculation.
     * Please cite the following three references that made this development
     * possible:
     *
     *   M. Dion, H. Rydberg, E. Schroder, D. C. Langreth, and
     *   B. I. Lundqvist, Phys. Rev. Lett. 92, 246401 (2004).
     *
     *   T. Thonhauser, V. R. Cooper, S. Li, A. Puzder, P. Hyldgaard, and
     *   D. C. Langreth, Phys. Rev. B 76, 125112 (2007).
     *
     *   G. Roman-Perez and J. M. Soler, Phys. Rev. Lett. 103, 096102 (2009).
     *
     *
     * If you are using vdW-DF2, please also cite:
     *
     *   K. Lee, E. D. Murray, L. Kong, B. I. Lundqvist, and
     *   D. C. Langreth, Phys. Rev. B 82, 081101(R) (2010).
     *
     *
     * If you are calculating the stress with vdW-DF, please also cite:
     *
     *   R. Sabatini, E. Kucukbenli, B. Kolb, T. Thonhauser, and
     *   S. de Gironcoli, J. Phys.: Condens. Matter 24, 424209 (2012).
     *

     Carrying out vdW-DF run using the following parameters:

     Nqs =      20    Nr_points =    1024   r_max =   100.000
     q_mesh =
               0.00001000     0.04494208     0.09755937     0.15916263
               0.23128650     0.31572767     0.41458969     0.53033537
               0.66584808     0.82450364     1.01025438     1.22772762
               1.48234092     1.78043706     2.12944203     2.53805004
               3.01644009     3.57652955     4.23227104     5.00000000

     Gradients computed in reciprocal space

     Adding external electric field

     Computed dipole along edir(3) :
        Dipole               -0.0282 Ry au,         -0.0716 Debye
        Dipole field         -0.0000 Ry au

        Potential amp.        0.0044 Ry
        Total length         47.6094 bohr

     Starting wfc are  161 randomized atomic wfcs

     Self-consistent Calculation

     iteration #  1     ecut=    36.75 Ry     beta=0.30
     Davidson diagonalization with overlap
     ethr =  1.00E-02,  avg # of iterations =  2.0

[...]

     total energy              =   -1148.22765769 Ry
     Harris-Foulkes estimate   =   -1150.37880009 Ry
     estimated scf accuracy    <       4.63138340 Ry

[...]

     End of self-consistent calculation

          k = 0.0000 0.0000 0.0000 ( 28997 PWs)   bands (ev):

   -42.1752 -42.1424 -42.1421 -42.0915 -42.0507 -42.0502 -42.0443 -41.8471
   -41.5545 -41.5134 -41.5133 -41.5093 -22.2457 -22.2369 -22.2266 -22.2265
   -22.1954 -22.1938 -22.1936 -22.1772 -22.1769 -22.1206 -22.0528 -22.0523
   -22.0519 -21.9714 -21.9670 -21.8778 -21.8776 -21.8741 -21.8704 -21.8702
   -21.7726 -21.7726 -21.7059 -21.7059 -21.6714 -21.6679 -21.6678 -21.4667
   -21.4380 -21.4379 -21.4376 -21.3726 -21.3726 -21.3698 -21.2742 -21.2742
   -13.1055  -5.7607  -3.0095  -2.0948  -1.8623  -1.8623  -1.0878  -0.3706
    -0.3706  -0.3482  -0.2452  -0.2285  -0.2284   0.0150   0.0150   0.0487
     0.5531   0.5683   0.5683   0.9490   1.0762   1.0762   1.4379   1.7230
     1.8194   1.8510   1.9552   1.9553   2.0515   2.2666   2.2667

[...]

          k =-0.0699 0.0404 0.0000 ( 29048 PWs)   bands (ev):

[...]

     the Fermi energy is     1.2523 ev

!    total energy              =   -1149.97131080 Ry
     Harris-Foulkes estimate   =   -1149.97131036 Ry
     estimated scf accuracy    <       0.00000481 Ry

     The total energy is the sum of the following terms:

     one-electron contribution =   -5456.19764320 Ry
     hartree contribution      =    2723.06510195 Ry
     xc contribution           =    -348.45397778 Ry
     ewald contribution        =    1931.73879726 Ry
     electric field correction =       0.00001348 Ry
     smearing contrib. (-TS)   =      -0.12360250 Ry

     convergence has been achieved in  14 iterations

 BEEF-vdW xc energy contributions
           1 :   -303.690194962271
           2 :    272.460698034921
           3 :   -218.786068395837
           4 :    155.920855381396
           5 :   -96.1380748380305
           6 :    47.1450693339155
           7 :   -11.5407587633700
           8 :   -11.4291904107812
           9 :    23.5938787961387
          10 :   -26.5434329094791
          11 :    21.6766893443946
          12 :   -10.9985739025945
          13 :   -2.34630656499473
          14 :    14.4680866190961
          15 :   -21.9466865893062
          16 :    23.0971120366759
          17 :   -18.4569471532073
          18 :    10.2229773478160
          19 :   -1.08069928921708
          20 :   -6.82337418660262
          21 :    12.2825406280639
          22 :   -14.8601958308334
          23 :    14.5543111673173
          24 :   -11.6527699821306
          25 :    6.82095476208406
          26 :   -1.18965478505316
          27 :   -3.81399748927038
          28 :    6.92444791600002
          29 :   -7.54600376535609
          30 :    5.98081165217610
          31 :   -29.2598325114690
          32 :   -19.9873974509230

     Forces acting on atoms (Ry/au):

     negative rho (up, down):  2.049E-05 0.000E+00
     atom    1 type  1   force =    -0.00012116   -0.00000265    0.00378637
     atom    2 type  1   force =     0.00011033   -0.00006909    0.00374648
     atom    3 type  1   force =    -0.00007561    0.00007818    0.00379304
     atom    4 type  1   force =     0.00008048   -0.00000818    0.00366072
     atom    5 type  1   force =     0.00011398    0.00258824    0.00125934
     atom    6 type  1   force =    -0.00010292    0.00018181    0.00304798
     atom    7 type  1   force =    -0.00211644   -0.00145844    0.00120455
     atom    8 type  1   force =     0.00212549   -0.00130566    0.00117373
     atom    9 type  1   force =    -0.00000748   -0.00002969   -0.01309942
     atom   10 type  1   force =    -0.00000038   -0.00198589   -0.00584690
     atom   11 type  1   force =    -0.00170483    0.00099920   -0.00591152
     atom   12 type  1   force =     0.00170045    0.00100600   -0.00590657
     atom   13 type  2   force =     0.00000081    0.00000125   -0.10930239
     atom   14 type  3   force =    -0.00000272    0.00000491    0.11839461

     Total force =     0.162024     Total SCF correction =     0.002543

     entering subroutine stress ...

     negative rho (up, down):  2.049E-05 0.000E+00
          total   stress  (Ry/bohr**3)                   (kbar)     P=   -0.73
  -0.00001282  -0.00000000   0.00000001         -1.89     -0.00      0.00
  -0.00000000  -0.00001284   0.00000000         -0.00     -1.89      0.00
   0.00000001   0.00000000   0.00001080          0.00      0.00      1.59

     BFGS Geometry Optimization

     number of scf cycles    =   1
     number of bfgs steps    =   0

     energy   new            =   -1149.9713107982 Ry

     new trust radius        =       0.1183946062 bohr
     new conv_thr            =       0.0000099958 Ry

ATOMIC_POSITIONS (crystal)
Y1       0.166666667   0.166666667   0.386999750    0   0   0
Y1       0.666666667   0.166666667   0.386999750    0   0   0
Y1       0.166666667   0.666666667   0.386999750    0   0   0
Y1       0.666666667   0.666666667   0.386999750    0   0   0
Y1       0.833333333   0.333333333   0.500000000    0   0   0
Y1       0.333333333   0.333333333   0.500000000    0   0   0
Y1       0.833333333   0.833333333   0.500000000    0   0   0
Y1       0.333333333   0.833333333   0.500000000    0   0   0
Y1       0.000000715  -0.000002537   0.612731985
Y1       0.500084802  -0.000169661   0.612880510
Y1      -0.000168818   0.500085365   0.612879187
Y1       0.500082839   0.500085946   0.612879288
S1       0.000000006   0.000000107   0.707802018
H1      -0.000000411   0.000000420   0.760840026

     Writing output data file calc.save
     Check: negative starting charge=   -0.000453
     NEW-OLD atomic charge density approx. for the potential
     Check: negative starting charge=   -0.000452

[...]

     energy   old            =   -1149.9713107982 Ry
     energy   new            =   -1149.9787082142 Ry

     CASE: energy  _new < energy  _old

[...]

     Threshold (ethr) on eigenvalues was too large:
     Diagonalizing with lowered threshold

     Davidson diagonalization with overlap
     ethr =  1.43E-08,  avg # of iterations =  9.2

[...]

     Total force =     0.003552     Total SCF correction =     0.000292

[...]

     number of scf cycles    =  11
     number of bfgs steps    =  10

     energy   old            =   -1149.9828536259 Ry
     energy   new            =   -1149.9828868166 Ry

     CASE: energy  _new < energy  _old

     new trust radius        =       0.0044547775 bohr
     new conv_thr            =       0.0000001000 Ry

ATOMIC_POSITIONS (crystal)
Y1       0.166666667   0.166666667   0.386999750    0   0   0
Y1       0.666666667   0.166666667   0.386999750    0   0   0
Y1       0.166666667   0.666666667   0.386999750    0   0   0
Y1       0.666666667   0.666666667   0.386999750    0   0   0
Y1       0.833333333   0.333333333   0.500000000    0   0   0
Y1       0.333333333   0.333333333   0.500000000    0   0   0
Y1       0.833333333   0.833333333   0.500000000    0   0   0
Y1       0.333333333   0.833333333   0.500000000    0   0   0
Y1      -0.000000719   0.000001049   0.610484853
Y1       0.501392134  -0.002784101   0.609991031
Y1      -0.002783743   0.501391304   0.609990692
Y1       0.501392491   0.501390977   0.609990717
S1       0.000000079   0.000000446   0.708852468
H1      -0.000000780   0.000000548   0.760827866

     Writing output data file calc.save
     Check: negative starting charge=   -0.000454
     NEW-OLD atomic charge density approx. for the potential
     Check: negative starting charge=   -0.000455

[...]

     Self-consistent Calculation

[...]

     Threshold (ethr) on eigenvalues was too large:
     Diagonalizing with lowered threshold

     Davidson diagonalization with overlap
     ethr =  1.23E-08,  avg # of iterations =  7.2

[...]

     total energy              =   -1149.98289825 Ry
     Harris-Foulkes estimate   =   -1149.98289830 Ry
     estimated scf accuracy    <       0.00000039 Ry

     iteration #  8     ecut=    36.75 Ry     beta=0.30
     Davidson diagonalization with overlap
     ethr =  2.80E-10,  avg # of iterations =  7.6

[...]

     negative rho (up, down):  2.092E-05 0.000E+00

     Adding external electric field

     Computed dipole along edir(3) :
        Dipole                0.0645 Ry au,          0.1638 Debye
        Dipole field          0.0001 Ry au

        Potential amp.       -0.0100 Ry
        Total length         47.6094 bohr

     End of self-consistent calculation

[...]

          k = 0.0466-0.0538 0.0000 ( 29098 PWs)   bands (ev):

[...]

          k =-0.0699-0.0404 0.0000 ( 29048 PWs)   bands (ev):

   -42.1442 -42.1334 -42.1224 -42.1092 -42.1069 -42.0878 -42.0848 -41.8642
   -41.5102 -41.5075 -41.4884 -41.4863 -22.2070 -22.1886 -22.1738 -22.1671
   -22.1545 -22.1520 -22.1260 -22.1228 -22.1224 -22.0890 -22.0859 -22.0605
   -22.0283 -22.0277 -22.0245 -22.0092 -21.9938 -21.9936 -21.9746 -21.8691
   -21.8599 -21.8588 -21.8098 -21.7360 -21.5767 -21.5760 -21.4609 -21.4571
   -21.4348 -21.4315 -21.4284 -21.4243 -21.4149 -21.4124 -21.3030 -21.2995
   -12.6920  -5.5131  -2.0002  -1.8323  -1.7853  -1.7530  -0.9605  -0.9558
    -0.1838  -0.1769  -0.0088   0.0344   0.2441   0.2572   0.9074   0.9397
     0.9547   0.9620   1.0563   1.0816   1.1318   1.2459   1.3112   1.3335
     1.3549   1.4201   1.4786   1.6556   1.6955   1.6988   1.7442

     the Fermi energy is     1.2244 ev

!    total energy              =   -1149.98289827 Ry
     Harris-Foulkes estimate   =   -1149.98289832 Ry
     estimated scf accuracy    <       0.00000006 Ry

     The total energy is the sum of the following terms:

     one-electron contribution =   -5510.41809834 Ry
     hartree contribution      =    2750.23101814 Ry
     xc contribution           =    -348.45612812 Ry
     ewald contribution        =    1958.78210366 Ry
     electric field correction =       0.00000676 Ry
     smearing contrib. (-TS)   =      -0.12180037 Ry

     convergence has been achieved in   8 iterations

 BEEF-vdW xc energy contributions
           1 :   -303.696811833238
           2 :    272.486395018664
           3 :   -218.827819196305
           4 :    155.951661134776
           5 :   -96.1300857133371
           6 :    47.0969861040120
           7 :   -11.4841169786744
           8 :   -11.4517085208252
           9 :    23.5620734077611
          10 :   -26.4779479243451
          11 :    21.6252802947820
          12 :   -10.9985060787814
          13 :   -2.30008893220275
          14 :    14.4206774226337
          15 :   -21.9462762310825
          16 :    23.1545379626763
          17 :   -18.5367983492740
          18 :    10.2733330854743
          19 :   -1.07554430954724
          20 :   -6.86441648285683
          21 :    12.3123297758021
          22 :   -14.8439295949156
          23 :    14.4984147014836
          24 :   -11.5999939542922
          25 :    6.81551368825563
          26 :   -1.24071339192187
          27 :   -3.74005338576211
          28 :    6.87697542066888
          29 :   -7.55238731980597
          30 :    6.02984818804345
          31 :   -29.2618613860486
          32 :   -19.9921280887369

     Forces acting on atoms (Ry/au):

     negative rho (up, down):  2.092E-05 0.000E+00
     atom    1 type  1   force =    -0.00017436   -0.00010038    0.00379483
     atom    2 type  1   force =     0.00017425   -0.00010023    0.00379502
     atom    3 type  1   force =    -0.00000013    0.00020090    0.00379492
     atom    4 type  1   force =     0.00000023   -0.00000006    0.00361939
     atom    5 type  1   force =     0.00000014    0.00334374   -0.00402141
     atom    6 type  1   force =    -0.00000012   -0.00000024   -0.00116230
     atom    7 type  1   force =    -0.00289576   -0.00167207   -0.00402065
     atom    8 type  1   force =     0.00289571   -0.00167162   -0.00402061
     atom    9 type  1   force =     0.00000050   -0.00000113   -0.00075781
     atom   10 type  1   force =     0.00000001    0.00085221    0.00000242
     atom   11 type  1   force =     0.00073856   -0.00042554    0.00000329
     atom   12 type  1   force =    -0.00073894   -0.00042555    0.00000295
     atom   13 type  2   force =     0.00000001   -0.00000013   -0.00076181
     atom   14 type  3   force =    -0.00000010    0.00000008   -0.00026823

     Total force =     0.001846     Total SCF correction =     0.000432
     SCF correction compared to forces is large: reduce conv_thr to get better values

     entering subroutine stress ...

     negative rho (up, down):  2.092E-05 0.000E+00
          total   stress  (Ry/bohr**3)                   (kbar)     P=   -1.53
  -0.00000831   0.00000000   0.00000000         -1.22      0.00      0.00
   0.00000000  -0.00000831   0.00000000          0.00     -1.22      0.00
   0.00000000   0.00000000  -0.00001468          0.00      0.00     -2.16

     bfgs converged in  12 scf cycles and  11 bfgs steps
     (criteria: energy <  1.0E+00, force <  1.9E-03)

     End of BFGS Geometry Optimization

     Final energy   =   -1149.9828982740 Ry
Begin final coordinates

ATOMIC_POSITIONS (crystal)
Y1       0.166666667   0.166666667   0.386999750    0   0   0
Y1       0.666666667   0.166666667   0.386999750    0   0   0
Y1       0.166666667   0.666666667   0.386999750    0   0   0
Y1       0.666666667   0.666666667   0.386999750    0   0   0
Y1       0.833333333   0.333333333   0.500000000    0   0   0
Y1       0.333333333   0.333333333   0.500000000    0   0   0
Y1       0.833333333   0.833333333   0.500000000    0   0   0
Y1       0.333333333   0.833333333   0.500000000    0   0   0
Y1      -0.000000719   0.000001049   0.610484853
Y1       0.501392134  -0.002784101   0.609991031
Y1      -0.002783743   0.501391304   0.609990692
Y1       0.501392491   0.501390977   0.609990717
S1       0.000000079   0.000000446   0.708852468
H1      -0.000000780   0.000000548   0.760827866
End final coordinates

     Writing output data file calc.save

     General routines

     Parallel routines

   This run was terminated on:   0:23:55  25Apr2018

   JOB DONE.
Job  /afs/slac/g/suncat/bin/suncat-tsmpirun -x LD_LIBRARY_PATH -wdir /scratch/qe222650_3HAXs pw.x -npool 4 -in pw.inp

TID   HOST_NAME   COMMAND_LINE            STATUS            TERMINATION_TIME
00000 suncat0022 pw.x -npool 4 -i  Done                     04/25/2018 00:23:55
00001 suncat0022 pw.x -npool 4 -i  Done                     04/25/2018 00:23:55
00002 suncat0022 pw.x -npool 4 -i  Done                     04/25/2018 00:23:55
00003 suncat0022 pw.x -npool 4 -i  Done                     04/25/2018 00:23:55
00004 suncat0022 pw.x -npool 4 -i  Done                     04/25/2018 00:23:55
00005 suncat0022 pw.x -npool 4 -i  Done                     04/25/2018 00:23:55
00006 suncat0022 pw.x -npool 4 -i  Done                     04/25/2018 00:23:55
00007 suncat0022 pw.x -npool 4 -i  Done                     04/25/2018 00:23:55
00008 suncat0015 pw.x -npool 4 -i  Done                     04/25/2018 00:23:55
00009 suncat0015 pw.x -npool 4 -i  Done                     04/25/2018 00:23:55
00010 suncat0015 pw.x -npool 4 -i  Done                     04/25/2018 00:23:55
00011 suncat0015 pw.x -npool 4 -i  Done                     04/25/2018 00:23:55
00012 suncat0015 pw.x -npool 4 -i  Done                     04/25/2018 00:23:55
00013 suncat0015 pw.x -npool 4 -i  Done                     04/25/2018 00:23:55
00014 suncat0015 pw.x -npool 4 -i  Done                     04/25/2018 00:23:55
00015 suncat0015 pw.x -npool 4 -i  Done                     04/25/2018 00:23:55
00016 suncat0182 pw.x -npool 4 -i  Done                     04/25/2018 00:23:55
00017 suncat0182 pw.x -npool 4 -i  Done                     04/25/2018 00:23:55
00018 suncat0182 pw.x -npool 4 -i  Done                     04/25/2018 00:23:55
00019 suncat0182 pw.x -npool 4 -i  Done                     04/25/2018 00:23:55
00020 suncat0182 pw.x -npool 4 -i  Done                     04/25/2018 00:23:55
00021 suncat0182 pw.x -npool 4 -i  Done                     04/25/2018 00:23:55
00022 suncat0182 pw.x -npool 4 -i  Done                     04/25/2018 00:23:55
00023 suncat0182 pw.x -npool 4 -i  Done                     04/25/2018 00:23:55
00024 suncat0173 pw.x -npool 4 -i  Done                     04/25/2018 00:23:55
00025 suncat0173 pw.x -npool 4 -i  Done                     04/25/2018 00:23:55
00026 suncat0173 pw.x -npool 4 -i  Done                     04/25/2018 00:23:55
00027 suncat0173 pw.x -npool 4 -i  Done                     04/25/2018 00:23:55
00028 suncat0173 pw.x -npool 4 -i  Done                     04/25/2018 00:23:55
00029 suncat0173 pw.x -npool 4 -i  Done                     04/25/2018 00:23:55
00030 suncat0173 pw.x -npool 4 -i  Done                     04/25/2018 00:23:55
00031 suncat0173 pw.x -npool 4 -i  Done                     04/25/2018 00:23:55