     Program PWSCF v.5.1rc2 (svn rev. 11289) starts on 16Apr2018 at 11:53:32

     Current dimensions of program PWSCF are:
     Max number of different atomic species (ntypx) = 10
     Max number of k-points (npk) =  40000
     Max angular momentum in pseudopotentials (lmaxx) =  3
     Presently stress not available with electric field

     IMPORTANT: XC functional enforced from input :
     Exchange-correlation      = BEEF-VDW ( 1  4 27 13 2)
     Any further DFT definition will be discarded
     Please, verify this is what you really want

     Subspace diagonalization in iterative solution of the eigenvalue problem:
     a serial algorithm will be used

     bravais-lattice index     =            0
     lattice parameter (alat)  =       1.8897  a.u.
     unit-cell volume          =    5144.9564 (a.u.)^3
     number of atoms/cell      =           14
     number of atomic types    =            3
     number of electrons       =       138.00
     number of Kohn-Sham states=           79
     kinetic-energy cutoff     =      36.7493  Ry
     charge density cutoff     =     367.4932  Ry
     convergence threshold     =      1.0E-05
     mixing beta               =       0.3000
     number of iterations used =           10  plain     mixing
     Exchange-correlation      = BEEF-VDW ( 1  4 27 13 2)
     nstep                     =           50

     celldm(1)=   1.889726  celldm(2)=   0.000000  celldm(3)=   0.000000
     celldm(4)=   0.000000  celldm(5)=   0.000000  celldm(6)=   0.000000

     crystal axes: (cart. coord. in units of alat)
               a(1) = (   5.950946   0.000000   0.000000 )
               a(2) = (   2.975473   5.153671   0.000000 )
               a(3) = (   0.000000   0.000000  24.858927 )

     reciprocal axes: (cart. coord. in units 2 pi/alat)
               b(1) = (  0.168040 -0.097018  0.000000 )
               b(2) = (  0.000000  0.194036  0.000000 )
               b(3) = (  0.000000  0.000000  0.040227 )

     PseudoPot. # 1 for Au read from file:
     /u/if/mamunm/psp/gbrv1.5pbe/Au.UPF
     MD5 check sum: 9d7f43293ad2c663164586bc4b293ffc
     Pseudo is Ultrasoft + core correction, Zval = 11.0
     Generated by new atomic code, or converted to UPF format
     Using radial grid of  985 points,  7 beta functions with:
                l(1) =   0
                l(2) =   0
                l(3) =   1
                l(4) =   1
                l(5) =   2
                l(6) =   2
                l(7) =   3
     Q(r) pseudized with  6 coefficients,  rinner =    1.900   1.900   1.900
                                                       1.900   1.900   1.900
                                                       1.900

     PseudoPot. # 2 for N  read from file:
     /u/if/mamunm/psp/gbrv1.5pbe/N.UPF
     MD5 check sum: 95339753478d7afb44899504a8723017
     Pseudo is Ultrasoft + core correction, Zval =  5.0
     Generated by new atomic code, or converted to UPF format
     Using radial grid of  729 points,  4 beta functions with:
                l(1) =   0
                l(2) =   0
                l(3) =   1
                l(4) =   1
     Q(r) pseudized with  8 coefficients,  rinner =    0.900   0.900   0.900

     PseudoPot. # 3 for H  read from file:
     /u/if/mamunm/psp/gbrv1.5pbe/H.UPF
     MD5 check sum: 761ae9a214b05c3daf00ab9f6b793d6f
     Pseudo is Ultrasoft, Zval =  1.0
     Generated by new atomic code, or converted to UPF format
     Using radial grid of  615 points,  2 beta functions with:
                l(1) =   0
                l(2) =   0
     Q(r) pseudized with  8 coefficients,  rinner =    0.700

     vdW kernel table read from file vdW_kernel_table
     MD5 check sum: 095c7af220d748ca6e76c0b4c6cfb241

     atomic species   valence    mass     pseudopotential
        Au1           11.00   196.96657     Au( 1.00)
        N1             5.00    14.00700     N ( 1.00)
        H1             1.00     1.00800     H ( 1.00)

     No symmetry found

   Cartesian axes

     site n.     atom                  positions (alat units)
         1           Au1 tau(   1) = (   1.4877366   0.8589451  10.0000000  )
         2           Au1 tau(   2) = (   4.4632098   0.8589451  10.0000000  )
         3           Au1 tau(   3) = (   2.9754732   3.4357805  10.0000000  )
         4           Au1 tau(   4) = (   5.9509464   3.4357805  10.0000000  )
         5           Au1 tau(   5) = (   5.9509464   1.7178903  12.4294637  )
         6           Au1 tau(   6) = (   2.9754732   1.7178903  12.4294637  )
         7           Au1 tau(   7) = (   7.4386830   4.2947256  12.4294637  )
         8           Au1 tau(   8) = (   4.4632098   4.2947256  12.4294637  )
         9           Au1 tau(   9) = (   0.0000000   0.0000000  14.8589274  )
        10           Au1 tau(  10) = (   2.9754732   0.0000000  14.8589274  )
        11           Au1 tau(  11) = (   1.4877366   2.5768354  14.8589274  )
        12           Au1 tau(  12) = (   4.4632098   2.5768354  14.8589274  )
        13           N1  tau(  13) = (   0.0000000   0.0000000  16.6184274  )
        14           H1  tau(  14) = (   0.0000000   0.0000000  17.6684274  )

     number of k points=    20  Fermi-Dirac smearing, width (Ry)=  0.0110
                       cart. coord. in units 2pi/alat
        k(    1) = (   0.0000000   0.0000000   0.0000000), wk =   0.0555556
        k(    2) = (   0.0000000   0.0323394   0.0000000), wk =   0.1111111
        k(    3) = (   0.0000000   0.0646788   0.0000000), wk =   0.1111111
        k(    4) = (   0.0000000  -0.0970182   0.0000000), wk =   0.0555556
        k(    5) = (   0.0280067  -0.0161697   0.0000000), wk =   0.1111111
        k(    6) = (   0.0280067   0.0161697   0.0000000), wk =   0.1111111
        k(    7) = (   0.0280067   0.0485091   0.0000000), wk =   0.1111111
        k(    8) = (   0.0280067  -0.1131879   0.0000000), wk =   0.1111111
        k(    9) = (   0.0280067  -0.0808485   0.0000000), wk =   0.1111111
        k(   10) = (   0.0280067  -0.0485091   0.0000000), wk =   0.1111111
        k(   11) = (   0.0560135  -0.0323394   0.0000000), wk =   0.1111111
        k(   12) = (   0.0560135   0.0000000   0.0000000), wk =   0.1111111
        k(   13) = (   0.0560135   0.0323394   0.0000000), wk =   0.1111111
        k(   14) = (   0.0560135  -0.1293576   0.0000000), wk =   0.1111111
        k(   15) = (   0.0560135  -0.0970182   0.0000000), wk =   0.1111111
        k(   16) = (   0.0560135  -0.0646788   0.0000000), wk =   0.1111111
        k(   17) = (  -0.0840202   0.0485091   0.0000000), wk =   0.0555556
        k(   18) = (  -0.0840202   0.0808485   0.0000000), wk =   0.1111111
        k(   19) = (  -0.0840202   0.1131879   0.0000000), wk =   0.1111111
        k(   20) = (  -0.0840202  -0.0485091   0.0000000), wk =   0.0555556

     Largest allocated arrays     est. size (Mb)     dimensions
     Largest temporary arrays     est. size (Mb)     dimensions

     Check: negative/imaginary core charge=   -0.000002    0.000000

     Initial potential from superposition of free atoms

     starting charge  137.99852, renormalised to  138.00000

     negative rho (up, down):  7.168E-05 0.000E+00

     *
     * You are using vdW-DF for exchange-correlation in this calculation.
     * Please cite the following three references that made this development
     * possible:
     *
     *   M. Dion, H. Rydberg, E. Schroder, D. C. Langreth, and
     *   B. I. Lundqvist, Phys. Rev. Lett. 92, 246401 (2004).
     *
     *   T. Thonhauser, V. R. Cooper, S. Li, A. Puzder, P. Hyldgaard, and
     *   D. C. Langreth, Phys. Rev. B 76, 125112 (2007).
     *
     *   G. Roman-Perez and J. M. Soler, Phys. Rev. Lett. 103, 096102 (2009).
     *
     *
     * If you are using vdW-DF2, please also cite:
     *
     *   K. Lee, E. D. Murray, L. Kong, B. I. Lundqvist, and
     *   D. C. Langreth, Phys. Rev. B 82, 081101(R) (2010).
     *
     *
     * If you are calculating the stress with vdW-DF, please also cite:
     *
     *   R. Sabatini, E. Kucukbenli, B. Kolb, T. Thonhauser, and
     *   S. de Gironcoli, J. Phys.: Condens. Matter 24, 424209 (2012).
     *

     Carrying out vdW-DF run using the following parameters:

     Nqs =      20    Nr_points =    1024   r_max =   100.000
     q_mesh =
               0.00001000     0.04494208     0.09755937     0.15916263
               0.23128650     0.31572767     0.41458969     0.53033537
               0.66584808     0.82450364     1.01025438     1.22772762
               1.48234092     1.78043706     2.12944203     2.53805004
               3.01644009     3.57652955     4.23227104     5.00000000

     Gradients computed in reciprocal space

     Adding external electric field

     Computed dipole along edir(3) :
        Dipole               -0.0004 Ry au,         -0.0010 Debye
        Dipole field         -0.0000 Ry au

        Potential amp.        0.0001 Ry
        Total length         45.8022 bohr

     Starting wfc are  113 randomized atomic wfcs

     Self-consistent Calculation

     iteration #  1     ecut=    36.75 Ry     beta=0.30
     Davidson diagonalization with overlap
     ethr =  1.00E-02,  avg # of iterations =  2.5

[...]

     total energy              =   -1420.85809087 Ry
     Harris-Foulkes estimate   =   -1422.06600771 Ry
     estimated scf accuracy    <       2.67674401 Ry

[...]

     End of self-consistent calculation

          k = 0.0000 0.0000 0.0000 ( 19315 PWs)   bands (ev):

   -14.7136  -8.0801  -7.5087  -6.2272  -5.8427  -5.7175  -5.7175  -5.5225
    -5.4821  -5.4821  -5.3616  -5.3419  -5.3419  -5.0457  -5.0350  -5.0350
    -4.9549  -4.6987  -4.6987  -3.9533  -3.8774  -3.8774  -3.8034  -3.7130
    -3.7130  -3.7073  -3.5941  -3.5941  -3.4862  -3.4862  -3.3865  -3.3556
    -3.3556  -3.1740  -2.9871  -2.9871  -2.7826  -2.7826  -2.4658  -2.4658
    -2.3844  -2.3812  -2.2939  -2.2939  -2.0943  -2.0762  -2.0762  -1.7989
    -1.7989  -1.6969  -1.6430  -1.6430  -1.6071  -1.6071  -1.5072  -1.5072
    -1.4764  -1.4129  -1.4129  -1.3138  -1.2049  -1.2047  -1.2047  -1.1692
    -0.3303  -0.3303   0.0408   0.9754   1.2108   1.2108   1.5810   1.7248
     1.8890   1.8890   2.0039   2.4652   2.4652   3.6799   3.6799

[...]

          k =-0.0840 0.0485 0.0000 ( 19380 PWs)   bands (ev):

[...]

     the Fermi energy is     0.4805 ev

!    total energy              =   -1421.71861626 Ry
     Harris-Foulkes estimate   =   -1421.71861682 Ry
     estimated scf accuracy    <       0.00000023 Ry

     The total energy is the sum of the following terms:

     one-electron contribution =   -8264.10249276 Ry
     hartree contribution      =    4231.32926360 Ry
     xc contribution           =    -774.34670655 Ry
     ewald contribution        =    3385.43961493 Ry
     electric field correction =       0.00008037 Ry
     smearing contrib. (-TS)   =      -0.03837585 Ry

     convergence has been achieved in  14 iterations

 BEEF-vdW xc energy contributions
           1 :   -691.966786390995
           2 :    643.021813036203
           3 :   -555.597748795918
           4 :    446.740284930579
           5 :   -334.743734057973
           6 :    234.455795334992
           7 :   -154.526003975501
           8 :    96.9997286143440
           9 :   -58.9388135841873
          10 :    35.0682375274539
          11 :   -20.2689192516849
          12 :    11.0065778768337
          13 :   -5.47351893639473
          14 :    2.83070500974964
          15 :   -2.27139784569636
          16 :    2.51649203567820
          17 :   -1.98018829864202
          18 :  -0.605232179678183
          19 :    5.54120534437686
          20 :   -11.9181837677579
          21 :    17.9537219766926
          22 :   -21.7793312569449
          23 :    22.2789914009282
          24 :   -19.5646226356091
          25 :    14.8674706280715
          26 :   -9.93319540392622
          27 :    6.24283588299500
          28 :   -4.45123094581027
          29 :    4.28598632649675
          30 :   -4.90044506657205
          31 :   -54.8557689494012
          32 :   -39.9481193395827

     Forces acting on atoms (Ry/au):

     negative rho (up, down):  6.008E-04 0.000E+00
     atom    1 type  1   force =    -0.00068814   -0.00039640   -0.00453239
     atom    2 type  1   force =     0.00069001   -0.00039620   -0.00453554
     atom    3 type  1   force =     0.00000150    0.00079370   -0.00453320
     atom    4 type  1   force =    -0.00000105   -0.00000129    0.00124640
     atom    5 type  1   force =     0.00000082   -0.00401832    0.00498335
     atom    6 type  1   force =     0.00000061    0.00000134    0.00243891
     atom    7 type  1   force =     0.00347804    0.00200832    0.00498753
     atom    8 type  1   force =    -0.00348036    0.00200862    0.00498960
     atom    9 type  1   force =     0.00000092   -0.00000085   -0.21634903
     atom   10 type  1   force =    -0.00000210    0.00112330   -0.00548592
     atom   11 type  1   force =     0.00097246   -0.00056224   -0.00548624
     atom   12 type  1   force =    -0.00097346   -0.00055988   -0.00548967
     atom   13 type  2   force =     0.00000046   -0.00000015    0.27592934
     atom   14 type  3   force =     0.00000029    0.00000007   -0.04816313

     Total force =     0.354059     Total SCF correction =     0.000726

     entering subroutine stress ...

     negative rho (up, down):  6.008E-04 0.000E+00
          total   stress  (Ry/bohr**3)                   (kbar)     P=   -2.22
  -0.00008917   0.00000000   0.00000000        -13.12      0.00      0.00
   0.00000000  -0.00008917  -0.00000000          0.00    -13.12     -0.00
   0.00000000  -0.00000000   0.00013299          0.00     -0.00     19.56

     BFGS Geometry Optimization

     number of scf cycles    =   1
     number of bfgs steps    =   0

     energy   new            =   -1421.7186162594 Ry

     new trust radius        =       0.2759293435 bohr
     new conv_thr            =       0.0000099958 Ry

ATOMIC_POSITIONS (crystal)
Au1      0.166666667   0.166666667   0.402269971    0   0   0
Au1      0.666666667   0.166666667   0.402269971    0   0   0
Au1      0.166666667   0.666666667   0.402269971    0   0   0
Au1      0.666666667   0.666666667   0.402269971    0   0   0
Au1      0.833333333   0.333333333   0.500000000    0   0   0
Au1      0.333333333   0.333333333   0.500000000    0   0   0
Au1      0.833333333   0.833333333   0.500000000    0   0   0
Au1      0.333333333   0.833333333   0.500000000    0   0   0
Au1      0.000000125  -0.000000088   0.593124562
Au1      0.499942144   0.000115340   0.597613249
Au1      0.000115340   0.499942269   0.597613242
Au1      0.499942181   0.499942511   0.597613169
N1       0.000000049  -0.000000015   0.674383196
H1       0.000000023   0.000000007   0.709722519

     Writing output data file calc.save
     NEW-OLD atomic charge density approx. for the potential

[...]

     iteration #  1     ecut=    36.75 Ry     beta=0.30
     Davidson diagonalization with overlap
     c_bands:  1 eigenvalues not converged
     c_bands:  1 eigenvalues not converged
     ethr =  1.00E-06,  avg # of iterations = 11.9

[...]

     energy   old            =   -1421.7186162594 Ry
     energy   new            =   -1421.7101194923 Ry

     CASE: energy  _new > energy  _old

[...]

     CASE: energy  _new < energy  _old

[...]

     Threshold (ethr) on eigenvalues was too large:
     Diagonalizing with lowered threshold

     Davidson diagonalization with overlap
     ethr =  5.36E-08,  avg # of iterations =  1.4

[...]

     Threshold (ethr) on eigenvalues was too large:
     Diagonalizing with lowered threshold

     Davidson diagonalization with overlap
     ethr =  7.02E-08,  avg # of iterations =  1.1

[...]

     Total force =     0.005272     Total SCF correction =     0.000190

[...]

     number of scf cycles    =  13
     number of bfgs steps    =  11

     energy   old            =   -1421.7579602720 Ry
     energy   new            =   -1421.7580233828 Ry

     CASE: energy  _new < energy  _old

     new trust radius        =       0.0085142914 bohr
     new conv_thr            =       0.0000001000 Ry

ATOMIC_POSITIONS (crystal)
Au1      0.166666667   0.166666667   0.402269971    0   0   0
Au1      0.666666667   0.166666667   0.402269971    0   0   0
Au1      0.166666667   0.666666667   0.402269971    0   0   0
Au1      0.666666667   0.666666667   0.402269971    0   0   0
Au1      0.833333333   0.333333333   0.500000000    0   0   0
Au1      0.333333333   0.333333333   0.500000000    0   0   0
Au1      0.833333333   0.833333333   0.500000000    0   0   0
Au1      0.333333333   0.833333333   0.500000000    0   0   0
Au1     -0.000000354   0.000000244   0.597048749
Au1      0.499291523   0.001417113   0.597097717
Au1      0.001416998   0.499291548   0.597097644
Au1      0.499291261   0.499291328   0.597097728
N1       0.000000816  -0.000000652   0.676707156
H1      -0.000000379   0.000000517   0.717844496

     Writing output data file calc.save
     NEW-OLD atomic charge density approx. for the potential

     Check: negative/imaginary core charge=   -0.000002    0.000000

[...]

     Self-consistent Calculation

[...]

     total energy              =   -1421.75804589 Ry
     Harris-Foulkes estimate   =   -1421.75804591 Ry
     estimated scf accuracy    <       0.00000013 Ry

     iteration #  7     ecut=    36.75 Ry     beta=0.30
     Davidson diagonalization with overlap
     ethr =  9.22E-11,  avg # of iterations =  3.0

[...]

     negative rho (up, down):  5.972E-04 0.000E+00

     Adding external electric field

     Computed dipole along edir(3) :
        Dipole                0.0656 Ry au,          0.1668 Debye
        Dipole field          0.0002 Ry au

        Potential amp.       -0.0147 Ry
        Total length         45.8022 bohr

     End of self-consistent calculation

[...]

          k = 0.0560-0.0647 0.0000 ( 19376 PWs)   bands (ev):

[...]

          k =-0.0840-0.0485 0.0000 ( 19380 PWs)   bands (ev):

   -14.0339  -6.8938  -6.3279  -6.1659  -5.3144  -5.2573  -5.1397  -5.0628
    -5.0381  -5.0318  -5.0282  -4.9496  -4.7102  -4.6540  -4.5727  -4.5346
    -4.4307  -4.3749  -4.2575  -4.2530  -4.1969  -4.1213  -4.1212  -3.9880
    -3.9020  -3.7667  -3.7551  -3.7181  -3.6070  -3.5519  -3.4841  -3.4410
    -3.3966  -3.3958  -3.3669  -3.3286  -3.2678  -3.2339  -3.2247  -3.2209
    -3.1915  -3.1292  -2.9989  -2.9734  -2.8519  -2.7348  -2.7095  -2.6620
    -2.6570  -2.6048  -2.5529  -2.5069  -2.5045  -2.4815  -2.3474  -2.2141
    -2.1921  -2.1168  -1.8423  -1.8117  -1.7883  -1.7591  -1.7234  -1.5933
    -1.5429  -0.8781  -0.2176  -0.0077   0.2293   0.4505   0.6375   0.9512
     1.5691   1.7095   3.3530   3.4475   3.8031   4.4745   5.5681

     the Fermi energy is     0.2974 ev

!    total energy              =   -1421.75804589 Ry
     Harris-Foulkes estimate   =   -1421.75804580 Ry
     estimated scf accuracy    <       0.00000005 Ry

     The total energy is the sum of the following terms:

     one-electron contribution =   -8235.91372975 Ry
     hartree contribution      =    4216.86956919 Ry
     xc contribution           =    -774.26347369 Ry
     ewald contribution        =    3371.58933398 Ry
     electric field correction =       0.00001052 Ry
     smearing contrib. (-TS)   =      -0.03975614 Ry

     convergence has been achieved in   7 iterations

 BEEF-vdW xc energy contributions
           1 :   -691.871639691087
           2 :    642.867571686267
           3 :   -555.373261369726
           4 :    446.485943673137
           5 :   -334.521624409136
           6 :    234.315713939789
           7 :   -154.485493869710
           8 :    97.0424073358946
           9 :   -59.0254698188864
          10 :    35.1538327410336
          11 :   -20.3198848755558
          12 :    11.0122857697962
          13 :   -5.44718337038887
          14 :    2.79921113092644
          15 :   -2.26037163937940
          16 :    2.53945078911829
          17 :   -2.03472714351255
          18 :  -0.534569632076000
          19 :    5.47546748703257
          20 :   -11.8756136667279
          21 :    17.9443554649943
          22 :   -21.8040361199348
          23 :    22.3316326419383
          24 :   -19.6346742355233
          25 :    14.9414526864136
          26 :   -9.99522377014432
          27 :    6.27650245250197
          28 :   -4.44487586817104
          29 :    4.23866570716314
          30 :   -4.82438849292521
          31 :   -54.8496577233498
          32 :   -39.9283815263484

     Forces acting on atoms (Ry/au):

     negative rho (up, down):  5.972E-04 0.000E+00
     atom    1 type  1   force =    -0.00048451   -0.00027971   -0.00476003
     atom    2 type  1   force =     0.00048449   -0.00027973   -0.00475999
     atom    3 type  1   force =     0.00000001    0.00055946   -0.00476003
     atom    4 type  1   force =     0.00000001   -0.00000001    0.00138415
     atom    5 type  1   force =    -0.00000006   -0.00360366    0.00424418
     atom    6 type  1   force =     0.00000006   -0.00000004   -0.00002503
     atom    7 type  1   force =     0.00312086    0.00180187    0.00424413
     atom    8 type  1   force =    -0.00312083    0.00180180    0.00424445
     atom    9 type  1   force =    -0.00000011    0.00000039   -0.00024051
     atom   10 type  1   force =    -0.00000023   -0.00103657    0.00019723
     atom   11 type  1   force =    -0.00089774    0.00051815    0.00019740
     atom   12 type  1   force =     0.00089778    0.00051841    0.00019719
     atom   13 type  2   force =     0.00000077   -0.00000104   -0.00020913
     atom   14 type  3   force =    -0.00000048    0.00000068    0.00004598

     Total force =     0.001856     Total SCF correction =     0.000837
     SCF correction compared to forces is large: reduce conv_thr to get better values

     entering subroutine stress ...

     negative rho (up, down):  5.972E-04 0.000E+00
          total   stress  (Ry/bohr**3)                   (kbar)     P=   -8.67
  -0.00009302  -0.00000000   0.00000000        -13.68     -0.00      0.00
  -0.00000000  -0.00009302  -0.00000000         -0.00    -13.68     -0.00
   0.00000000  -0.00000000   0.00000915          0.00     -0.00      1.35

     bfgs converged in  14 scf cycles and  12 bfgs steps
     (criteria: energy <  1.0E+00, force <  1.9E-03)

     End of BFGS Geometry Optimization

     Final energy   =   -1421.7580458920 Ry
Begin final coordinates

ATOMIC_POSITIONS (crystal)
Au1      0.166666667   0.166666667   0.402269971    0   0   0
Au1      0.666666667   0.166666667   0.402269971    0   0   0
Au1      0.166666667   0.666666667   0.402269971    0   0   0
Au1      0.666666667   0.666666667   0.402269971    0   0   0
Au1      0.833333333   0.333333333   0.500000000    0   0   0
Au1      0.333333333   0.333333333   0.500000000    0   0   0
Au1      0.833333333   0.833333333   0.500000000    0   0   0
Au1      0.333333333   0.833333333   0.500000000    0   0   0
Au1     -0.000000354   0.000000244   0.597048749
Au1      0.499291523   0.001417113   0.597097717
Au1      0.001416998   0.499291548   0.597097644
Au1      0.499291261   0.499291328   0.597097728
N1       0.000000816  -0.000000652   0.676707156
H1      -0.000000379   0.000000517   0.717844496
End final coordinates

     Writing output data file calc.save

     General routines

     Parallel routines

   This run was terminated on:  13:36:10  16Apr2018

   JOB DONE.
Job  /afs/slac/g/suncat/bin/suncat-tsmpirun -x LD_LIBRARY_PATH -wdir /scratch/qe120824_SHiTK pw.x -npool 4 -in pw.inp

TID   HOST_NAME   COMMAND_LINE            STATUS            TERMINATION_TIME
00000 suncat0087 pw.x -npool 4 -i  Done                     04/16/2018 13:36:10
00001 suncat0087 pw.x -npool 4 -i  Done                     04/16/2018 13:36:10
00002 suncat0087 pw.x -npool 4 -i  Done                     04/16/2018 13:36:10
00003 suncat0087 pw.x -npool 4 -i  Done                     04/16/2018 13:36:10
00004 suncat0087 pw.x -npool 4 -i  Done                     04/16/2018 13:36:10
00005 suncat0087 pw.x -npool 4 -i  Done                     04/16/2018 13:36:10
00006 suncat0087 pw.x -npool 4 -i  Done                     04/16/2018 13:36:10
00007 suncat0087 pw.x -npool 4 -i  Done                     04/16/2018 13:36:10
00008 suncat0086 pw.x -npool 4 -i  Done                     04/16/2018 13:36:10
00009 suncat0086 pw.x -npool 4 -i  Done                     04/16/2018 13:36:10
00010 suncat0086 pw.x -npool 4 -i  Done                     04/16/2018 13:36:10
00011 suncat0086 pw.x -npool 4 -i  Done                     04/16/2018 13:36:10
00012 suncat0086 pw.x -npool 4 -i  Done                     04/16/2018 13:36:10
00013 suncat0086 pw.x -npool 4 -i  Done                     04/16/2018 13:36:10
00014 suncat0086 pw.x -npool 4 -i  Done                     04/16/2018 13:36:10
00015 suncat0086 pw.x -npool 4 -i  Done                     04/16/2018 13:36:10
00016 suncat0046 pw.x -npool 4 -i  Done                     04/16/2018 13:36:10
00017 suncat0046 pw.x -npool 4 -i  Done                     04/16/2018 13:36:10
00018 suncat0046 pw.x -npool 4 -i  Done                     04/16/2018 13:36:10
00019 suncat0046 pw.x -npool 4 -i  Done                     04/16/2018 13:36:10
00020 suncat0046 pw.x -npool 4 -i  Done                     04/16/2018 13:36:10
00021 suncat0046 pw.x -npool 4 -i  Done                     04/16/2018 13:36:10
00022 suncat0046 pw.x -npool 4 -i  Done                     04/16/2018 13:36:10
00023 suncat0046 pw.x -npool 4 -i  Done                     04/16/2018 13:36:10
00024 suncat0036 pw.x -npool 4 -i  Done                     04/16/2018 13:36:10
00025 suncat0036 pw.x -npool 4 -i  Done                     04/16/2018 13:36:10
00026 suncat0036 pw.x -npool 4 -i  Done                     04/16/2018 13:36:10
00027 suncat0036 pw.x -npool 4 -i  Done                     04/16/2018 13:36:10
00028 suncat0036 pw.x -npool 4 -i  Done                     04/16/2018 13:36:10
00029 suncat0036 pw.x -npool 4 -i  Done                     04/16/2018 13:36:10
00030 suncat0036 pw.x -npool 4 -i  Done                     04/16/2018 13:36:10
00031 suncat0036 pw.x -npool 4 -i  Done                     04/16/2018 13:36:10