     Program PWSCF v.5.1rc2 (svn rev. ) starts on 22Feb2018 at 20:41:29

     Current dimensions of program PWSCF are:
     Max number of different atomic species (ntypx) = 10
     Max number of k-points (npk) =  40000
     Max angular momentum in pseudopotentials (lmaxx) =  3
     Presently stress not available with electric field

     IMPORTANT: XC functional enforced from input :
     Exchange-correlation      = BEEF-VDW ( 1  4 27 13 2)
     Any further DFT definition will be discarded
     Please, verify this is what you really want

     Subspace diagonalization in iterative solution of the eigenvalue problem:
     a serial algorithm will be used

     bravais-lattice index     =            0
     lattice parameter (alat)  =       1.8897  a.u.
     unit-cell volume          =    7276.7660 (a.u.)^3
     number of atoms/cell      =           13
     number of atomic types    =            2
     number of electrons       =       185.00
     number of Kohn-Sham states=          102
     kinetic-energy cutoff     =      36.7493  Ry
     charge density cutoff     =     367.4932  Ry
     convergence threshold     =      1.0E-05
     mixing beta               =       0.3000
     number of iterations used =           10  plain     mixing
     Exchange-correlation      = BEEF-VDW ( 1  4 27 13 2)
     nstep                     =           50

     celldm(1)=   1.889726  celldm(2)=   0.000000  celldm(3)=   0.000000
     celldm(4)=   0.000000  celldm(5)=   0.000000  celldm(6)=   0.000000

     crystal axes: (cart. coord. in units of alat)
               a(1) = (   6.962526   0.000000   0.000000 )
               a(2) = (   3.481263   6.029724   0.000000 )
               a(3) = (   0.000000   0.000000  25.684879 )

     reciprocal axes: (cart. coord. in units 2 pi/alat)
               b(1) = (  0.143626 -0.082923  0.000000 )
               b(2) = (  0.000000  0.165845  0.000000 )
               b(3) = (  0.000000  0.000000  0.038933 )

     PseudoPot. # 1 for Bi read from file:
     /home/mamunm/src/pseudo/gbrv1.5pbe/Bi.UPF
     MD5 check sum: 81103212dc04adf40945787f699eab19
     Pseudo is Ultrasoft + core correction, Zval = 15.0
     Generated by new atomic code, or converted to UPF format
     Using radial grid of  899 points,  6 beta functions with:
                l(1) =   0
                l(2) =   0
                l(3) =   1
                l(4) =   1
                l(5) =   2
                l(6) =   2
     Q(r) pseudized with  6 coefficients,  rinner =    1.000   1.000   1.000
                                                       1.000   1.000

     PseudoPot. # 2 for N  read from file:
     /home/mamunm/src/pseudo/gbrv1.5pbe/N.UPF
     MD5 check sum: 95339753478d7afb44899504a8723017
     Pseudo is Ultrasoft + core correction, Zval =  5.0
     Generated by new atomic code, or converted to UPF format
     Using radial grid of  729 points,  4 beta functions with:
                l(1) =   0
                l(2) =   0
                l(3) =   1
                l(4) =   1
     Q(r) pseudized with  8 coefficients,  rinner =    0.900   0.900   0.900

     vdW kernel table read from file vdW_kernel_table
     MD5 check sum: 095c7af220d748ca6e76c0b4c6cfb241

     atomic species   valence    mass     pseudopotential
        Bi1           15.00   208.98040     Bi( 1.00)
        N1             5.00    14.00700     N ( 1.00)

     No symmetry found

   Cartesian axes

     site n.     atom                  positions (alat units)
         1           Bi1 tau(   1) = (   1.7406315   1.0049541  10.0000000  )
         2           Bi1 tau(   2) = (   5.2218945   1.0049541  10.0000000  )
         3           Bi1 tau(   3) = (   3.4812630   4.0198163  10.0000000  )
         4           Bi1 tau(   4) = (   6.9625260   4.0198163  10.0000000  )
         5           Bi1 tau(   5) = (   6.9625260   2.0099081  12.8424393  )
         6           Bi1 tau(   6) = (   3.4812630   2.0099081  12.8424393  )
         7           Bi1 tau(   7) = (   8.7031575   5.0247703  12.8424393  )
         8           Bi1 tau(   8) = (   5.2218945   5.0247703  12.8424393  )
         9           Bi1 tau(   9) = (   0.0000000   0.0000000  15.6848787  )
        10           Bi1 tau(  10) = (   3.4812630   0.0000000  15.6848787  )
        11           Bi1 tau(  11) = (   1.7406315   3.0148622  15.6848787  )
        12           Bi1 tau(  12) = (   5.2218945   3.0148622  15.6848787  )
        13           N1  tau(  13) = (   3.4812630   2.0099081  17.1083787  )

     number of k points=    20  Fermi-Dirac smearing, width (Ry)=  0.0110
                       cart. coord. in units 2pi/alat
        k(    1) = (   0.0000000   0.0000000   0.0000000), wk =   0.0555556
        k(    2) = (   0.0000000   0.0276408   0.0000000), wk =   0.1111111
        k(    3) = (   0.0000000   0.0552817   0.0000000), wk =   0.1111111
        k(    4) = (   0.0000000  -0.0829225   0.0000000), wk =   0.0555556
        k(    5) = (   0.0239377  -0.0138204   0.0000000), wk =   0.1111111
        k(    6) = (   0.0239377   0.0138204   0.0000000), wk =   0.1111111
        k(    7) = (   0.0239377   0.0414613   0.0000000), wk =   0.1111111
        k(    8) = (   0.0239377  -0.0967430   0.0000000), wk =   0.1111111
        k(    9) = (   0.0239377  -0.0691021   0.0000000), wk =   0.1111111
        k(   10) = (   0.0239377  -0.0414613   0.0000000), wk =   0.1111111
        k(   11) = (   0.0478753  -0.0276408   0.0000000), wk =   0.1111111
        k(   12) = (   0.0478753   0.0000000   0.0000000), wk =   0.1111111
        k(   13) = (   0.0478753   0.0276408   0.0000000), wk =   0.1111111
        k(   14) = (   0.0478753  -0.1105634   0.0000000), wk =   0.1111111
        k(   15) = (   0.0478753  -0.0829225   0.0000000), wk =   0.1111111
        k(   16) = (   0.0478753  -0.0552817   0.0000000), wk =   0.1111111
        k(   17) = (  -0.0718130   0.0414613   0.0000000), wk =   0.0555556
        k(   18) = (  -0.0718130   0.0691021   0.0000000), wk =   0.1111111
        k(   19) = (  -0.0718130   0.0967430   0.0000000), wk =   0.1111111
        k(   20) = (  -0.0718130  -0.0414613   0.0000000), wk =   0.0555556

     Largest allocated arrays     est. size (Mb)     dimensions
     Largest temporary arrays     est. size (Mb)     dimensions

     Check: negative/imaginary core charge=   -0.000001    0.000000

     Initial potential from superposition of free atoms
     Check: negative starting charge=   -0.503497

     starting charge  172.99949, renormalised to  185.00000

     negative rho (up, down):  5.384E-01 0.000E+00

     *
     * You are using vdW-DF for exchange-correlation in this calculation.
     * Please cite the following three references that made this development
     * possible:
     *
     *   M. Dion, H. Rydberg, E. Schroder, D. C. Langreth, and
     *   B. I. Lundqvist, Phys. Rev. Lett. 92, 246401 (2004).
     *
     *   T. Thonhauser, V. R. Cooper, S. Li, A. Puzder, P. Hyldgaard, and
     *   D. C. Langreth, Phys. Rev. B 76, 125112 (2007).
     *
     *   G. Roman-Perez and J. M. Soler, Phys. Rev. Lett. 103, 096102 (2009).
     *
     *
     * If you are using vdW-DF2, please also cite:
     *
     *   K. Lee, E. D. Murray, L. Kong, B. I. Lundqvist, and
     *   D. C. Langreth, Phys. Rev. B 82, 081101(R) (2010).
     *
     *
     * If you are calculating the stress with vdW-DF, please also cite:
     *
     *   R. Sabatini, E. Kucukbenli, B. Kolb, T. Thonhauser, and
     *   S. de Gironcoli, J. Phys.: Condens. Matter 24, 424209 (2012).
     *

     Carrying out vdW-DF run using the following parameters:

     Nqs =      20    Nr_points =    1024   r_max =   100.000
     q_mesh =
               0.00001000     0.04494208     0.09755937     0.15916263
               0.23128650     0.31572767     0.41458969     0.53033537
               0.66584808     0.82450364     1.01025438     1.22772762
               1.48234092     1.78043706     2.12944203     2.53805004
               3.01644009     3.57652955     4.23227104     5.00000000

     Gradients computed in reciprocal space

     Adding external electric field

     Computed dipole along edir(3) :
        Dipole               -2.7959 Ry au,         -7.1065 Debye
        Dipole field         -0.0048 Ry au

        Potential amp.        0.4570 Ry
        Total length         47.3240 bohr

     Starting wfc are  112 randomized atomic wfcs

     Self-consistent Calculation

     iteration #  1     ecut=    36.75 Ry     beta=0.30
     Davidson diagonalization with overlap
     ethr =  1.00E-02,  avg # of iterations =  6.8

[...]

     total energy              =   -2240.99892580 Ry
     Harris-Foulkes estimate   =   -2269.07909504 Ry
     estimated scf accuracy    <      59.33641051 Ry

[...]

     End of self-consistent calculation

          k = 0.0000 0.0000 0.0000 ( 27441 PWs)   bands (ev):

   -22.6216 -22.6215 -22.6189 -22.5732 -22.5732 -22.5665 -22.5562 -22.5562
   -22.5492 -22.5038 -22.5038 -22.5024 -22.4869 -22.4843 -22.4843 -22.4771
   -22.4771 -22.4420 -22.4331 -22.4331 -22.4295 -22.4295 -22.4255 -22.4075
   -22.4030 -22.4030 -22.3952 -22.3761 -22.3761 -22.3691 -22.3618 -22.3587
   -22.3587 -22.3549 -22.3549 -22.3348 -22.3252 -22.3193 -22.3193 -22.3069
   -22.3069 -22.2856 -22.2837 -22.2837 -22.2783 -22.2783 -22.2590 -22.2572
   -22.2572 -22.2495 -22.2495 -22.2334 -22.2282 -22.2144 -22.2144 -22.2005
   -22.2005 -22.1864 -22.1745 -22.1745 -12.8337 -12.1304 -10.9149  -9.8848
    -9.6229  -9.6228  -9.5101  -9.1321  -9.1321  -8.9085  -8.7208  -8.7208
    -8.5325  -3.8801  -3.8801  -3.8145  -3.2366  -3.1469  -3.1469  -2.9695
    -2.7888  -2.7887  -2.6287  -0.6392  -0.6392  -0.4325   0.3168   0.7317
     0.7317   0.8586   1.3621   1.3621   1.8797   2.0156   2.0156   2.0534
     2.6690   2.9505   2.9909   2.9910   3.0344   3.7077

[...]

          k =-0.0718 0.0415 0.0000 ( 27378 PWs)   bands (ev):

[...]

     the Fermi energy is     1.1224 ev

!    total energy              =   -2265.97088042 Ry
     Harris-Foulkes estimate   =   -2265.97089075 Ry
     estimated scf accuracy    <       0.00000275 Ry

     The total energy is the sum of the following terms:

     one-electron contribution =  -10981.56302828 Ry
     hartree contribution      =    5545.67513762 Ry
     xc contribution           =    -804.33093335 Ry
     ewald contribution        =    3974.30051095 Ry
     electric field correction =       0.00030713 Ry
     smearing contrib. (-TS)   =      -0.05287450 Ry

     convergence has been achieved in  15 iterations

 BEEF-vdW xc energy contributions
           1 :   -717.027380250093
           2 :    666.361501715939
           3 :   -576.978204599674
           4 :    468.296685057961
           5 :   -360.713817045959
           6 :    269.678251994220
           7 :   -202.208684527655
           8 :    156.736212287348
           9 :   -125.939292709880
          10 :    101.105814448320
          11 :   -76.0863807669327
          12 :    49.2812671145324
          13 :   -23.1591384697581
          14 :    1.95476563902776
          15 :    11.0797337244048
          16 :   -15.5036514831108
          17 :    13.8543651946540
          18 :   -10.2945142383908
          19 :    8.57593593209037
          20 :   -10.3978039803635
          21 :    14.9353550192147
          22 :   -19.6646452492151
          23 :    21.9426383589368
          24 :   -20.4760137766016
          25 :    15.9457188970719
          26 :   -10.5464887589858
          27 :    6.76681205775049
          28 :   -6.09518847154118
          29 :    8.32162390969415
          30 :   -11.7578094022315
          31 :   -57.3468116123095
          32 :   -42.2055075669432

     Forces acting on atoms (Ry/au):

     negative rho (up, down):  5.268E-01 0.000E+00
     atom    1 type  1   force =    -0.00159288   -0.00091663   -0.00743414
     atom    2 type  1   force =     0.00159194   -0.00092229   -0.00744842
     atom    3 type  1   force =    -0.00001109    0.00182954   -0.00742014
     atom    4 type  1   force =     0.00000855    0.00001080   -0.00193210
     atom    5 type  1   force =    -0.00000078    0.00329057   -0.01155314
     atom    6 type  1   force =     0.00000949    0.00000700    0.00505906
     atom    7 type  1   force =    -0.00284689   -0.00164275   -0.01156151
     atom    8 type  1   force =     0.00284346   -0.00165263   -0.01155256
     atom    9 type  1   force =    -0.00000855    0.00000003    0.00426692
     atom   10 type  1   force =     0.00000812    0.03344415    0.04197409
     atom   11 type  1   force =     0.02896548   -0.01672000    0.04196824
     atom   12 type  1   force =    -0.02896606   -0.01672555    0.04198164
     atom   13 type  2   force =    -0.00000077   -0.00000224   -0.07634793

     Total force =     0.120369     Total SCF correction =     0.001275

     entering subroutine stress ...

     negative rho (up, down):  5.268E-01 0.000E+00
          total   stress  (Ry/bohr**3)                   (kbar)     P=    2.09
   0.00001496  -0.00000000  -0.00000000          2.20     -0.00     -0.00
  -0.00000000   0.00001497  -0.00000000         -0.00      2.20     -0.00
  -0.00000000  -0.00000000   0.00001261         -0.00     -0.00      1.85

     BFGS Geometry Optimization

     number of scf cycles    =   1
     number of bfgs steps    =   0

     energy   new            =   -2265.9708804236 Ry

     new trust radius        =       0.0763479302 bohr
     new conv_thr            =       0.0000099958 Ry

ATOMIC_POSITIONS (crystal)
Bi1      0.166666667   0.166666667   0.389334134    0   0   0
Bi1      0.666666667   0.166666667   0.389334134    0   0   0
Bi1      0.166666667   0.666666667   0.389334134    0   0   0
Bi1      0.666666667   0.666666667   0.389334134    0   0   0
Bi1      0.833333333   0.333333333   0.500000000    0   0   0
Bi1      0.333333333   0.333333333   0.500000000    0   0   0
Bi1      0.833333333   0.833333333   0.500000000    0   0   0
Bi1      0.333333333   0.833333333   0.500000000    0   0   0
Bi1     -0.000000651   0.000000003   0.610753776
Bi1      0.498533064   0.002935107   0.611530644
Bi1      0.002935167   0.498532629   0.611530524
Bi1      0.498532404   0.498532141   0.611530800
N1       0.333333373   0.333333137   0.664514608

     Writing output data file calc.save
     Check: negative starting charge=   -0.503497
     NEW-OLD atomic charge density approx. for the potential

     Check: negative/imaginary core charge=   -0.000001    0.000000
     Check: negative starting charge=   -0.502333

[...]

     energy   old            =   -2265.9708804236 Ry
     energy   new            =   -2265.9843537961 Ry

     CASE: energy  _new < energy  _old

     WARNING: bfgs curvature condition failed, Theta= 0.938
     new trust radius        =       0.0839827232 bohr
     new conv_thr            =       0.0000001000 Ry

[...]

     WARNING: bfgs curvature condition failed, Theta= 0.862
     new trust radius        =       0.0433062883 bohr
     new conv_thr            =       0.0000001000 Ry

[...]

     Total force =     0.008493     Total SCF correction =     0.000953
     SCF correction compared to forces is large: reduce conv_thr to get better values

[...]

     Total force =     0.006370     Total SCF correction =     0.001254
     SCF correction compared to forces is large: reduce conv_thr to get better values

[...]

     number of scf cycles    =  18
     number of bfgs steps    =  17

     energy   old            =   -2266.0231683280 Ry
     energy   new            =   -2266.0234804898 Ry

     CASE: energy  _new < energy  _old

     new trust radius        =       0.1154954950 bohr
     new conv_thr            =       0.0000001000 Ry

ATOMIC_POSITIONS (crystal)
Bi1      0.166666667   0.166666667   0.389334134    0   0   0
Bi1      0.666666667   0.166666667   0.389334134    0   0   0
Bi1      0.166666667   0.666666667   0.389334134    0   0   0
Bi1      0.666666667   0.666666667   0.389334134    0   0   0
Bi1      0.833333333   0.333333333   0.500000000    0   0   0
Bi1      0.333333333   0.333333333   0.500000000    0   0   0
Bi1      0.833333333   0.833333333   0.500000000    0   0   0
Bi1      0.333333333   0.833333333   0.500000000    0   0   0
Bi1     -0.000003716  -0.000000579   0.616285836
Bi1      0.502388767  -0.004775749   0.626822585
Bi1     -0.004773990   0.502385198   0.626822190
Bi1      0.502386404   0.502390798   0.626823382
N1       0.333335421   0.333332547   0.661008320

     Writing output data file calc.save
     Check: negative starting charge=   -0.502428
     NEW-OLD atomic charge density approx. for the potential

     Check: negative/imaginary core charge=   -0.000001    0.000000
     Check: negative starting charge=   -0.502194

[...]

     Self-consistent Calculation

[...]

     total energy              =   -2266.02372420 Ry
     Harris-Foulkes estimate   =   -2266.02372438 Ry
     estimated scf accuracy    <       0.00000067 Ry

     iteration #  9     ecut=    36.75 Ry     beta=0.30
     Davidson diagonalization with overlap
     ethr =  3.60E-10,  avg # of iterations =  3.0

[...]

     negative rho (up, down):  5.257E-01 0.000E+00

     Adding external electric field

     Computed dipole along edir(3) :
        Dipole               -0.2344 Ry au,         -0.5958 Debye
        Dipole field         -0.0004 Ry au

        Potential amp.        0.0383 Ry
        Total length         47.3240 bohr

     End of self-consistent calculation

[...]

          k = 0.0479-0.0553 0.0000 ( 27352 PWs)   bands (ev):

[...]

          k =-0.0718-0.0415 0.0000 ( 27378 PWs)   bands (ev):

   -22.3586 -22.3401 -22.3260 -22.3169 -22.3011 -22.2999 -22.2883 -22.2847
   -22.2834 -22.2817 -22.2809 -22.2774 -22.2757 -22.2666 -22.2520 -22.2470
   -22.2349 -22.2321 -22.2268 -22.2198 -22.2191 -22.2147 -22.2134 -22.2042
   -22.1961 -22.1950 -22.1925 -22.1855 -22.1840 -22.1833 -22.1824 -22.1795
   -22.1792 -22.1753 -22.1676 -22.1625 -22.1552 -22.1480 -22.1330 -22.1325
   -22.1295 -22.1290 -22.1240 -22.1233 -22.1225 -22.1170 -22.1170 -22.1058
   -22.0996 -22.0803 -22.0687 -22.0676 -22.0586 -22.0521 -22.0281 -21.9764
   -21.9698 -21.9610 -21.9597 -21.9525 -13.6785 -11.0849 -10.9934 -10.3391
    -9.7501  -9.5131  -9.5012  -9.4336  -9.1695  -9.0744  -8.5371  -8.5133
    -7.7598  -3.1762  -2.2112  -2.1767  -2.0848  -1.9663  -1.8781  -1.8505
    -1.7963  -1.3890  -1.3036  -0.6197  -0.4704  -0.3168  -0.3041   0.2515
     0.3568   0.6421   0.6651   0.8086   0.8920   1.0187   1.0787   1.5383
     1.5808   1.6474   1.9612   2.2559   2.5954   3.1483

     the Fermi energy is     1.3133 ev

!    total energy              =   -2266.02372433 Ry
     Harris-Foulkes estimate   =   -2266.02372441 Ry
     estimated scf accuracy    <       0.00000003 Ry

     The total energy is the sum of the following terms:

     one-electron contribution =  -10511.21599314 Ry
     hartree contribution      =    5311.66117920 Ry
     xc contribution           =    -804.33129486 Ry
     ewald contribution        =    3737.91465302 Ry
     electric field correction =       0.00009489 Ry
     smearing contrib. (-TS)   =      -0.05236343 Ry

     convergence has been achieved in   9 iterations

 BEEF-vdW xc energy contributions
           1 :   -717.019056406210
           2 :    666.265378536354
           3 :   -576.738115489962
           4 :    467.937532152491
           5 :   -360.352456641792
           6 :    269.459609212278
           7 :   -202.210232803247
           8 :    156.911054424138
           9 :   -126.137035093491
          10 :    101.158583848377
          11 :   -75.9080208357336
          12 :    48.9221472963523
          13 :   -22.7852882602181
          14 :    1.76145847571479
          15 :    10.9754130235510
          16 :   -15.1334571571872
          17 :    13.3899107397160
          18 :   -9.95948502218027
          19 :    8.52793456538893
          20 :   -10.6459393446853
          21 :    15.3371953015895
          22 :   -20.0030004754567
          23 :    22.0409818946684
          24 :   -20.2906355768780
          25 :    15.5853813243837
          26 :   -10.2101013498349
          27 :    6.63321479348895
          28 :   -6.22535019946690
          29 :    8.62793526972223
          30 :   -12.0558315885598
          31 :   -57.3399013104170
          32 :   -42.1683663133392

     Forces acting on atoms (Ry/au):

     negative rho (up, down):  5.257E-01 0.000E+00
     atom    1 type  1   force =    -0.00183556   -0.00106020   -0.00389684
     atom    2 type  1   force =     0.00183545   -0.00105968   -0.00389724
     atom    3 type  1   force =     0.00000037    0.00211951   -0.00389681
     atom    4 type  1   force =     0.00000002    0.00000023   -0.00309656
     atom    5 type  1   force =    -0.00000036    0.00537619    0.00338253
     atom    6 type  1   force =    -0.00000009   -0.00000009    0.00430471
     atom    7 type  1   force =    -0.00465593   -0.00268786    0.00338249
     atom    8 type  1   force =     0.00465623   -0.00268842    0.00338225
     atom    9 type  1   force =    -0.00000029   -0.00000044   -0.00163866
     atom   10 type  1   force =     0.00000138   -0.00095370    0.00014112
     atom   11 type  1   force =    -0.00082463    0.00047609    0.00014187
     atom   12 type  1   force =     0.00082630    0.00047751    0.00014116
     atom   13 type  2   force =    -0.00000288    0.00000086    0.00154997

     Total force =     0.002806     Total SCF correction =     0.000260

     entering subroutine stress ...

     negative rho (up, down):  5.257E-01 0.000E+00
          total   stress  (Ry/bohr**3)                   (kbar)     P=    2.20
   0.00002443   0.00000000  -0.00000000          3.59      0.00     -0.00
   0.00000000   0.00002444   0.00000000          0.00      3.59      0.00
  -0.00000000   0.00000000  -0.00000405         -0.00      0.00     -0.60

     bfgs converged in  19 scf cycles and  18 bfgs steps
     (criteria: energy <  1.0E+00, force <  1.9E-03)

     End of BFGS Geometry Optimization

     Final energy   =   -2266.0237243265 Ry
Begin final coordinates

ATOMIC_POSITIONS (crystal)
Bi1      0.166666667   0.166666667   0.389334134    0   0   0
Bi1      0.666666667   0.166666667   0.389334134    0   0   0
Bi1      0.166666667   0.666666667   0.389334134    0   0   0
Bi1      0.666666667   0.666666667   0.389334134    0   0   0
Bi1      0.833333333   0.333333333   0.500000000    0   0   0
Bi1      0.333333333   0.333333333   0.500000000    0   0   0
Bi1      0.833333333   0.833333333   0.500000000    0   0   0
Bi1      0.333333333   0.833333333   0.500000000    0   0   0
Bi1     -0.000003716  -0.000000579   0.616285836
Bi1      0.502388767  -0.004775749   0.626822585
Bi1     -0.004773990   0.502385198   0.626822190
Bi1      0.502386404   0.502390798   0.626823382
N1       0.333335421   0.333332547   0.661008320
End final coordinates

     Writing output data file calc.save

     General routines

     Parallel routines

   This run was terminated on:  22:32: 0  22Feb2018

   JOB DONE.