     Program PWSCF v.5.1rc2 starts on 11Jul2018 at 20:46:47

     Current dimensions of program PWSCF are:
     Max number of different atomic species (ntypx) = 10
     Max number of k-points (npk) =  40000
     Max angular momentum in pseudopotentials (lmaxx) =  3
     Presently stress not available with electric field

     IMPORTANT: XC functional enforced from input :
     Exchange-correlation      = BEEF-VDW ( 1  4 27 13 2)
     Any further DFT definition will be discarded
     Please, verify this is what you really want

     Generating pointlists ...
     new r_m :   0.4125 (alat units)  0.7795 (a.u.) for type    1
     new r_m :   0.4125 (alat units)  0.7795 (a.u.) for type    2
     new r_m :   0.4125 (alat units)  0.7795 (a.u.) for type    3

     bravais-lattice index     =            0
     lattice parameter (alat)  =       1.8897  a.u.
     unit-cell volume          =    3797.2497 (a.u.)^3
     number of atoms/cell      =           16
     number of atomic types    =            3
     number of electrons       =       199.00
     number of Kohn-Sham states=          109
     kinetic-energy cutoff     =      36.7493  Ry
     charge density cutoff     =     367.4932  Ry
     convergence threshold     =      1.0E-05
     mixing beta               =       0.3000
     number of iterations used =           10  plain     mixing
     Exchange-correlation      = BEEF-VDW ( 1  4 27 13 2)
     nstep                     =           50

     celldm(1)=   1.889726  celldm(2)=   0.000000  celldm(3)=   0.000000
     celldm(4)=   0.000000  celldm(5)=   0.000000  celldm(6)=   0.000000

     crystal axes: (cart. coord. in units of alat)
               a(1) = (   5.178568   0.000000   0.000000 )
               a(2) = (   2.589284   4.484771   0.000000 )
               a(3) = (   0.000000   0.000000  24.228283 )

     reciprocal axes: (cart. coord. in units 2 pi/alat)
               b(1) = (  0.193104 -0.111488  0.000000 )
               b(2) = (  0.000000  0.222977  0.000000 )
               b(3) = (  0.000000  0.000000  0.041274 )

     PseudoPot. # 1 for Fe read from file:
     /home/users/mamunm/src/pseudo/gbrv1.5pbe/Fe.UPF
     MD5 check sum: a130daea23fe5165f5d574ae7f82ed95
     Pseudo is Ultrasoft + core correction, Zval = 16.0
     Generated by new atomic code, or converted to UPF format
     Using radial grid of  861 points,  6 beta functions with:
                l(1) =   0
                l(2) =   0
                l(3) =   1
                l(4) =   1
                l(5) =   2
                l(6) =   2
     Q(r) pseudized with  8 coefficients,  rinner =    1.000   1.000   1.000
                                                       1.000   1.000

     PseudoPot. # 2 for C  read from file:
     /home/users/mamunm/src/pseudo/gbrv1.5pbe/C.UPF
     MD5 check sum: d1aef80898a10debaa0f26306b886e00
     Pseudo is Ultrasoft + core correction, Zval =  4.0
     Generated by new atomic code, or converted to UPF format
     Using radial grid of  721 points,  4 beta functions with:
                l(1) =   0
                l(2) =   0
                l(3) =   1
                l(4) =   1
     Q(r) pseudized with  8 coefficients,  rinner =    1.100   1.100   1.100

     PseudoPot. # 3 for H  read from file:
     /home/users/mamunm/src/pseudo/gbrv1.5pbe/H.UPF
     MD5 check sum: 761ae9a214b05c3daf00ab9f6b793d6f
     Pseudo is Ultrasoft, Zval =  1.0
     Generated by new atomic code, or converted to UPF format
     Using radial grid of  615 points,  2 beta functions with:
                l(1) =   0
                l(2) =   0
     Q(r) pseudized with  8 coefficients,  rinner =    0.700

     vdW kernel table read from file vdW_kernel_table
     MD5 check sum: 095c7af220d748ca6e76c0b4c6cfb241

     atomic species   valence    mass     pseudopotential
        Fe1           16.00    55.84500     Fe( 1.00)
        C1             4.00    12.01100     C ( 1.00)
        H1             1.00     1.00800     H ( 1.00)

     Starting magnetic structure
     atomic species   magnetization
        Fe1          0.125
        C1           0.000
        H1           0.000

     No symmetry found

   Cartesian axes

     site n.     atom                  positions (alat units)
         1           Fe1 tau(   1) = (   1.2946419   0.7474618  10.0000000  )
         2           Fe1 tau(   2) = (   3.8839257   0.7474618  10.0000000  )
         3           Fe1 tau(   3) = (   2.5892838   2.9898474  10.0000000  )
         4           Fe1 tau(   4) = (   5.1785676   2.9898474  10.0000000  )
         5           Fe1 tau(   5) = (   5.1785676   1.4949237  12.1141414  )
         6           Fe1 tau(   6) = (   2.5892838   1.4949237  12.1141414  )
         7           Fe1 tau(   7) = (   6.4732095   3.7373092  12.1141414  )
         8           Fe1 tau(   8) = (   3.8839257   3.7373092  12.1141414  )
         9           Fe1 tau(   9) = (   0.0000000   0.0000000  14.2282827  )
        10           Fe1 tau(  10) = (   2.5892838   0.0000000  14.2282827  )
        11           Fe1 tau(  11) = (   1.2946419   2.2423855  14.2282827  )
        12           Fe1 tau(  12) = (   3.8839257   2.2423855  14.2282827  )
        13           C1  tau(  13) = (   1.2946419   0.0000000  15.7882827  )
        14           H1  tau(  14) = (   2.3846419   0.0000000  16.4182827  )
        15           H1  tau(  15) = (   0.8446419   0.8895000  16.4182827  )
        16           H1  tau(  16) = (   3.4339257   3.5952711  16.4182827  )

     number of k points=    40  Fermi-Dirac smearing, width (Ry)=  0.0110
                       cart. coord. in units 2pi/alat
        k(    1) = (   0.0000000   0.0000000   0.0000000), wk =   0.0277778
        k(    2) = (   0.0000000   0.0371628   0.0000000), wk =   0.0555556
        k(    3) = (   0.0000000   0.0743256   0.0000000), wk =   0.0555556
        k(    4) = (   0.0000000  -0.1114884   0.0000000), wk =   0.0277778
        k(    5) = (   0.0321839  -0.0185814   0.0000000), wk =   0.0555556
        k(    6) = (   0.0321839   0.0185814   0.0000000), wk =   0.0555556
        k(    7) = (   0.0321839   0.0557442   0.0000000), wk =   0.0555556
        k(    8) = (   0.0321839  -0.1300698   0.0000000), wk =   0.0555556
        k(    9) = (   0.0321839  -0.0929070   0.0000000), wk =   0.0555556
        k(   10) = (   0.0321839  -0.0557442   0.0000000), wk =   0.0555556
        k(   11) = (   0.0643679  -0.0371628   0.0000000), wk =   0.0555556
        k(   12) = (   0.0643679  -0.0000000   0.0000000), wk =   0.0555556
        k(   13) = (   0.0643679   0.0371628   0.0000000), wk =   0.0555556
        k(   14) = (   0.0643679  -0.1486512   0.0000000), wk =   0.0555556
        k(   15) = (   0.0643679  -0.1114884   0.0000000), wk =   0.0555556
        k(   16) = (   0.0643679  -0.0743256   0.0000000), wk =   0.0555556
        k(   17) = (  -0.0965518   0.0557442   0.0000000), wk =   0.0277778
        k(   18) = (  -0.0965518   0.0929070   0.0000000), wk =   0.0555556
        k(   19) = (  -0.0965518   0.1300698   0.0000000), wk =   0.0555556
        k(   20) = (  -0.0965518  -0.0557442   0.0000000), wk =   0.0277778
        k(   21) = (   0.0000000   0.0000000   0.0000000), wk =   0.0277778
        k(   22) = (   0.0000000   0.0371628   0.0000000), wk =   0.0555556
        k(   23) = (   0.0000000   0.0743256   0.0000000), wk =   0.0555556
        k(   24) = (   0.0000000  -0.1114884   0.0000000), wk =   0.0277778
        k(   25) = (   0.0321839  -0.0185814   0.0000000), wk =   0.0555556
        k(   26) = (   0.0321839   0.0185814   0.0000000), wk =   0.0555556
        k(   27) = (   0.0321839   0.0557442   0.0000000), wk =   0.0555556
        k(   28) = (   0.0321839  -0.1300698   0.0000000), wk =   0.0555556
        k(   29) = (   0.0321839  -0.0929070   0.0000000), wk =   0.0555556
        k(   30) = (   0.0321839  -0.0557442   0.0000000), wk =   0.0555556
        k(   31) = (   0.0643679  -0.0371628   0.0000000), wk =   0.0555556
        k(   32) = (   0.0643679  -0.0000000   0.0000000), wk =   0.0555556
        k(   33) = (   0.0643679   0.0371628   0.0000000), wk =   0.0555556
        k(   34) = (   0.0643679  -0.1486512   0.0000000), wk =   0.0555556
        k(   35) = (   0.0643679  -0.1114884   0.0000000), wk =   0.0555556
        k(   36) = (   0.0643679  -0.0743256   0.0000000), wk =   0.0555556
        k(   37) = (  -0.0965518   0.0557442   0.0000000), wk =   0.0277778
        k(   38) = (  -0.0965518   0.0929070   0.0000000), wk =   0.0555556
        k(   39) = (  -0.0965518   0.1300698   0.0000000), wk =   0.0555556
        k(   40) = (  -0.0965518  -0.0557442   0.0000000), wk =   0.0277778

     Largest allocated arrays     est. size (Mb)     dimensions
     Largest temporary arrays     est. size (Mb)     dimensions

     Check: negative/imaginary core charge=   -0.000008    0.000000

     Initial potential from superposition of free atoms
     Check: negative starting charge=(component1):   -0.000102

     starting charge  186.99986, renormalised to  199.00000

     negative rho (up, down):  1.082E-04 8.844E-05

     *
     * You are using vdW-DF for exchange-correlation in this calculation.
     * Please cite the following three references that made this development
     * possible:
     *
     *   M. Dion, H. Rydberg, E. Schroder, D. C. Langreth, and
     *   B. I. Lundqvist, Phys. Rev. Lett. 92, 246401 (2004).
     *
     *   T. Thonhauser, V. R. Cooper, S. Li, A. Puzder, P. Hyldgaard, and
     *   D. C. Langreth, Phys. Rev. B 76, 125112 (2007).
     *
     *   G. Roman-Perez and J. M. Soler, Phys. Rev. Lett. 103, 096102 (2009).
     *
     *
     * If you are using vdW-DF2, please also cite:
     *
     *   K. Lee, E. D. Murray, L. Kong, B. I. Lundqvist, and
     *   D. C. Langreth, Phys. Rev. B 82, 081101(R) (2010).
     *
     *
     * If you are calculating the stress with vdW-DF, please also cite:
     *
     *   R. Sabatini, E. Kucukbenli, B. Kolb, T. Thonhauser, and
     *   S. de Gironcoli, J. Phys.: Condens. Matter 24, 424209 (2012).
     *

     Carrying out vdW-DF run using the following parameters:

     Nqs =      20    Nr_points =    1024   r_max =   100.000
     q_mesh =
               0.00001000     0.04494208     0.09755937     0.15916263
               0.23128650     0.31572767     0.41458969     0.53033537
               0.66584808     0.82450364     1.01025438     1.22772762
               1.48234092     1.78043706     2.12944203     2.53805004
               3.01644009     3.57652955     4.23227104     5.00000000

     Gradients computed in reciprocal space

     Adding external electric field

     Computed dipole along edir(3) :
        Dipole               -3.3475 Ry au,         -8.5086 Debye
        Dipole field         -0.0111 Ry au

        Potential amp.        0.9891 Ry
        Total length         44.6402 bohr

[...]

     Starting wfc are  163 randomized atomic wfcs

     Self-consistent Calculation

     iteration #  1     ecut=    36.75 Ry     beta=0.30
     Davidson diagonalization with overlap
     ethr =  1.00E-02,  avg # of iterations =  6.9

[...]

     Magnetic moment per site:
[...]
   -53.0837 -53.0243 -52.9998 -52.9795 -52.9605 -52.9553 -52.9488 -52.9459
   -52.9252 -52.9040 -52.8997 -52.8882 -52.8858 -52.8500 -52.8453 -50.5126
   -50.4339 -50.4026 -50.3827 -50.3715 -50.2596 -50.2588 -50.1943 -50.1123
   -11.7609  -6.0150  -4.5953  -4.5104  -4.3902  -3.5241  -2.9999  -2.9733
    -2.9689  -2.8859  -2.7803  -2.7692  -2.6590  -2.4857  -2.4815  -2.4659
    -2.0880  -1.9422  -1.7203  -1.5535  -1.5350  -1.2027  -1.1736  -1.1401
    -1.0101  -0.9065  -0.8983  -0.8021  -0.8018  -0.7519  -0.7500  -0.7362
    -0.7098  -0.6712  -0.3273  -0.2974  -0.1235  -0.1182  -0.0883   0.0456
     0.0473   0.1997   0.2605   0.2949   0.3881   0.3939   0.5191   0.8199
     0.8548   0.9082   0.9111   0.9223   0.9728   0.9827   0.9910   1.0335
     1.4462   1.5019   1.5609   1.7168   1.8770

[...]

          k =-0.0966 0.0557 0.0000 ( 14254 PWs)   bands (ev):

[...]

 ------ SPIN DOWN ----------

[...]

     the Fermi energy is     1.5938 ev

!    total energy              =   -3031.06859945 Ry
     Harris-Foulkes estimate   =   -3031.06861264 Ry
     estimated scf accuracy    <       0.00000727 Ry

     The total energy is the sum of the following terms:

     one-electron contribution =  -26114.24997968 Ry
     hartree contribution      =   13061.75124964 Ry
     xc contribution           =    -369.23772137 Ry
     ewald contribution        =   10390.76242023 Ry
     electric field correction =       0.00022795 Ry
     smearing contrib. (-TS)   =      -0.09479622 Ry

[...]

     convergence has been achieved in 336 iterations

 BEEF-vdW xc energy contributions
           1 :   -322.883613497975
           2 :    291.740761776999
           3 :   -239.787717485668
           4 :    182.485381946754
           5 :   -133.497761625320
           6 :    99.7454310806229
           7 :   -80.4728143597933
           8 :    69.9464964704169
           9 :   -61.7119809570064
          10 :    51.9384829007766
          11 :   -40.4214515512209
          12 :    29.3335184624753
          13 :   -21.0220429663344
          14 :    16.3426343354868
          15 :   -14.3726096988632
          16 :    13.3060802856405
          17 :   -11.6910052634940
          18 :    9.15141360000007
          19 :   -6.28855977412604
          20 :    4.01577880513361
          21 :   -2.87436074449727
          22 :    2.73592749707041
          23 :   -2.98299859942341
          24 :    2.94306886149178
          25 :   -2.27326023578939
          26 :    1.08199198303890
          27 :   0.211228402293898
          28 :   -1.14993921773583
          29 :    1.48028961987296
          30 :   -1.26218931914030
          31 :   -28.7530944093181
          32 :   -20.2792034875482

     Forces acting on atoms (Ry/au):

     negative rho (up, down):  5.631E-04 7.257E-04
     atom    1 type  1   force =    -0.00014011    0.00042587    0.00170641
     atom    2 type  1   force =     0.00011994   -0.00119120   -0.00200880
     atom    3 type  1   force =    -0.00141303    0.00032573   -0.00151067
     atom    4 type  1   force =     0.00132156    0.00035571   -0.00110287
     atom    5 type  1   force =    -0.00131900    0.00057750    0.01234511
     atom    6 type  1   force =     0.00182010    0.00097481    0.01428902
     atom    7 type  1   force =     0.00021504   -0.00025161    0.01521510
     atom    8 type  1   force =     0.00022733   -0.00096944    0.01204434
     atom    9 type  1   force =    -0.00198287   -0.00087356   -0.02505433
     atom   10 type  1   force =     0.00817715   -0.00066176   -0.01782781
     atom   11 type  1   force =    -0.00114374    0.00400830   -0.01634350
     atom   12 type  1   force =    -0.00130146   -0.00843065   -0.04202837
     atom   13 type  2   force =     0.02497812   -0.00005501    0.20989956
     atom   14 type  3   force =    -0.06859180   -0.00093232   -0.07391361
     atom   15 type  3   force =     0.01847360   -0.03654799   -0.04290240
     atom   16 type  3   force =     0.02055917    0.04324563   -0.04280719

     Total force =     0.256193     Total SCF correction =     0.006724

     entering subroutine stress ...

     negative rho (up, down):  5.631E-04 7.257E-04
          total   stress  (Ry/bohr**3)                   (kbar)     P=  -26.81
  -0.00022957  -0.00000040  -0.00001334        -33.77     -0.06     -1.96
  -0.00000040  -0.00023694   0.00000605         -0.06    -34.86      0.89
  -0.00001334   0.00000605  -0.00008020         -1.96      0.89    -11.80

     BFGS Geometry Optimization

     number of scf cycles    =   1
     number of bfgs steps    =   0

     energy   new            =   -3031.0685994542 Ry

     new trust radius        =       0.2113805476 bohr
     new conv_thr            =       0.0000099958 Ry

ATOMIC_POSITIONS (crystal)
Fe1      0.166666667   0.166666667   0.412740767    0   0   0
Fe1      0.666666667   0.166666667   0.412740767    0   0   0
Fe1      0.166666667   0.666666667   0.412740767    0   0   0
Fe1      0.666666667   0.666666667   0.412740767    0   0   0
Fe1      0.833333333   0.333333333   0.500000000    0   0   0
Fe1      0.333333333   0.333333333   0.500000000    0   0   0
Fe1      0.833333333   0.833333333   0.500000000    0   0   0
Fe1      0.333333333   0.833333333   0.500000000    0   0   0
Fe1     -0.000151085  -0.000103075   0.586712013
Fe1      0.500874633  -0.000078084   0.586869850
Fe1     -0.000353352   0.500472956   0.586902270
Fe1      0.500364393   0.499005232   0.586341279
C1       0.252555660  -0.000006491   0.656231272
H1       0.453528796  -0.000110008   0.676035091
H1       0.067978413   0.194025429   0.676712417
H1       0.261821817   0.806764853   0.676714496

     Writing output data file calc.save
     Check: negative starting charge=(component1):   -0.000185
     NEW-OLD atomic charge density approx. for the potential

     Check: negative/imaginary core charge=   -0.000008    0.000000
     Check: negative starting charge=(component1):   -0.000183

[...]

     energy   old            =   -3031.0685994542 Ry
     energy   new            =   -3031.1120786687 Ry

     CASE: energy  _new < energy  _old

[...]

     iteration #  1     ecut=    36.75 Ry     beta=0.30
     Davidson diagonalization with overlap
     c_bands:  1 eigenvalues not converged
     c_bands:  1 eigenvalues not converged
     c_bands:  1 eigenvalues not converged
     c_bands:  1 eigenvalues not converged
     c_bands:  1 eigenvalues not converged
     c_bands:  1 eigenvalues not converged
     c_bands:  1 eigenvalues not converged
     c_bands:  1 eigenvalues not converged
     c_bands:  1 eigenvalues not converged
     ethr =  1.00E-06,  avg # of iterations = 14.6

[...]

     Total force =     0.011768     Total SCF correction =     0.001621
     SCF correction compared to forces is large: reduce conv_thr to get better values

[...]

     Total force =     0.004377     Total SCF correction =     0.000857
     SCF correction compared to forces is large: reduce conv_thr to get better values

[...]

     number of scf cycles    =  23
     number of bfgs steps    =  22

     energy   old            =   -3031.1383246762 Ry
     energy   new            =   -3031.1383593757 Ry

     CASE: energy  _new < energy  _old

     new trust radius        =       0.0198690681 bohr
     new conv_thr            =       0.0000001000 Ry

ATOMIC_POSITIONS (crystal)
Fe1      0.166666667   0.166666667   0.412740767    0   0   0
Fe1      0.666666667   0.166666667   0.412740767    0   0   0
Fe1      0.166666667   0.666666667   0.412740767    0   0   0
Fe1      0.666666667   0.666666667   0.412740767    0   0   0
Fe1      0.833333333   0.333333333   0.500000000    0   0   0
Fe1      0.333333333   0.333333333   0.500000000    0   0   0
Fe1      0.833333333   0.833333333   0.500000000    0   0   0
Fe1      0.333333333   0.833333333   0.500000000    0   0   0
Fe1      0.020916113  -0.002535112   0.589352115
Fe1      0.494626002  -0.006272185   0.587037681
Fe1     -0.004375395   0.507101963   0.583897560
Fe1      0.507512659   0.484096946   0.576117462
C1       0.226924397   0.014990917   0.663376945
H1       0.446319615   0.001200439   0.670659181
H1       0.062983980   0.215563595   0.685340218
H1       0.245113878   0.819882856   0.684646366

     Writing output data file calc.save
     Check: negative starting charge=(component1):   -0.000190
     NEW-OLD atomic charge density approx. for the potential

     Check: negative/imaginary core charge=   -0.000008    0.000000
     Check: negative starting charge=(component1):   -0.000190

[...]

     Self-consistent Calculation

[...]

     total energy              =   -3031.13840365 Ry
     Harris-Foulkes estimate   =   -3031.13840359 Ry
     estimated scf accuracy    <       0.00000017 Ry

[...]

     iteration # 17     ecut=    36.75 Ry     beta=0.30
     Davidson diagonalization with overlap
     ethr =  8.44E-11,  avg # of iterations =  5.2

[...]

     negative rho (up, down):  5.515E-04 7.313E-04

[...]

     Adding external electric field

     Computed dipole along edir(3) :
        Dipole                0.1645 Ry au,          0.4180 Debye
        Dipole field          0.0005 Ry au

        Potential amp.       -0.0486 Ry
        Total length         44.6402 bohr

     Magnetic moment per site:
     atom:    1    charge:    7.0976    magn:    1.3401    constr:    0.0000
     atom:    2    charge:    7.0973    magn:    1.3321    constr:    0.0000
     atom:    3    charge:    7.0975    magn:    1.3334    constr:    0.0000
     atom:    4    charge:    7.0974    magn:    1.3362    constr:    0.0000
     atom:    5    charge:    7.0937    magn:    1.1476    constr:    0.0000
     atom:    6    charge:    7.0935    magn:    1.1382    constr:    0.0000
     atom:    7    charge:    7.0938    magn:    1.1893    constr:    0.0000
     atom:    8    charge:    7.0938    magn:    1.1744    constr:    0.0000
     atom:    9    charge:    6.7058    magn:   -1.1179    constr:    0.0000
     atom:   10    charge:    7.0093    magn:   -1.1657    constr:    0.0000
     atom:   11    charge:    6.8701    magn:   -1.2099    constr:    0.0000
     atom:   12    charge:    5.1961    magn:    0.7252    constr:    0.0000
     atom:   13    charge:    0.5600    magn:    0.0056    constr:    0.0000
     atom:   14    charge:    0.3314    magn:   -0.0030    constr:    0.0000
     atom:   15    charge:    0.4553    magn:   -0.0015    constr:    0.0000
     atom:   16    charge:    0.3916    magn:   -0.0024    constr:    0.0000

     End of self-consistent calculation

 ------ SPIN UP ------------

[...]

 ------ SPIN DOWN ----------

[...]

          k = 0.0644-0.0743 0.0000 ( 14261 PWs)   bands (ev):

[...]

          k =-0.0966-0.0557 0.0000 ( 14254 PWs)   bands (ev):

   -87.5143 -87.3966 -87.3793 -84.3623 -84.1645 -84.1442 -84.1418 -84.1236
   -83.8222 -83.8198 -83.8034 -83.8008 -53.7834 -53.6142 -53.5747 -53.5022
   -53.4329 -53.3897 -53.3246 -53.2101 -53.1303 -50.5231 -50.5015 -50.4747
   -50.3456 -50.3199 -50.3109 -50.3021 -50.2856 -50.2475 -50.2129 -50.1986
   -50.1880 -50.1490 -50.1306 -50.0868 -50.0036 -50.0005 -49.9247 -49.9226
   -49.9113 -49.9069 -49.9057 -49.9031 -49.8987 -49.8941 -49.8250 -49.8239
   -11.8023  -5.2925  -4.8470  -4.3824  -4.2239  -3.1817  -2.7618  -2.5306
    -2.4431  -2.2416  -2.0713  -1.9807  -1.8692  -1.6618  -1.6080  -1.4905
    -1.3275  -1.2109  -1.1781  -1.1327  -1.0285  -1.0158  -0.9605  -0.5869
    -0.5001  -0.3393  -0.3052  -0.2013  -0.1214  -0.0002   0.0320   0.2724
     0.3490   0.4116   0.4692   0.5796   0.6688   0.8107   0.8316   0.8835
     0.8939   0.9640   1.2096   1.2910   1.3552   1.3932   1.4020   1.6924
     1.8478   1.9601   2.0129   2.1177   2.1612   2.3872   2.4022   2.4943
     2.5142   2.5309   2.6881   2.7331   2.7829

     the Fermi energy is     1.4023 ev

!    total energy              =   -3031.13840363 Ry
     Harris-Foulkes estimate   =   -3031.13840373 Ry
     estimated scf accuracy    <       0.00000008 Ry

     The total energy is the sum of the following terms:

     one-electron contribution =  -26261.72813468 Ry
     hartree contribution      =   13134.45957240 Ry
     xc contribution           =    -369.39527335 Ry
     ewald contribution        =   10465.61958296 Ry
     electric field correction =       0.00008952 Ry
     smearing contrib. (-TS)   =      -0.09424048 Ry

     total magnetization       =    15.05 Bohr mag/cell
     absolute magnetization    =    31.65 Bohr mag/cell

     convergence has been achieved in  17 iterations

 BEEF-vdW xc energy contributions
           1 :   -323.016233728124
           2 :    291.839715518793
           3 :   -239.850469105442
           4 :    182.515398707614
           5 :   -133.483037841569
           6 :    99.6801413232490
           7 :   -80.3853310115609
           8 :    69.8939385584337
           9 :   -61.7447333609922
          10 :    52.0626574181348
          11 :   -40.5882793348921
          12 :    29.4638485726764
          13 :   -21.0517486466852
          14 :    16.2606185528243
          15 :   -14.2273412584103
          16 :    13.1753092285368
          17 :   -11.6335037193149
          18 :    9.17186543951777
          19 :   -6.33904786981356
          20 :    4.03014357691455
          21 :   -2.81041456118135
          22 :    2.59815901409951
          23 :   -2.81598371513684
          24 :    2.80374968714386
          25 :   -2.20067768085755
          26 :    1.08173266400763
          27 :   0.161619753668504
          28 :   -1.08269826357218
          29 :    1.41937564310513
          30 :   -1.21479481399439
          31 :   -28.7674396222160
          32 :   -20.2831958554119

     Forces acting on atoms (Ry/au):

     negative rho (up, down):  5.515E-04 7.313E-04
     atom    1 type  1   force =     0.00018335    0.00043199    0.00326574
     atom    2 type  1   force =    -0.00025349   -0.00002901   -0.00201776
     atom    3 type  1   force =    -0.00110128   -0.00040398   -0.00193148
     atom    4 type  1   force =     0.00108436    0.00001010   -0.00146953
     atom    5 type  1   force =     0.00381716   -0.00656374   -0.00537716
     atom    6 type  1   force =    -0.00358957   -0.00485923   -0.00657387
     atom    7 type  1   force =     0.00182065    0.00628288    0.01543038
     atom    8 type  1   force =    -0.00091031    0.00164539   -0.00049163
     atom    9 type  1   force =    -0.00097498    0.00035445   -0.00138500
     atom   10 type  1   force =     0.00044678    0.00072978   -0.00009152
     atom   11 type  1   force =    -0.00063664    0.00114413   -0.00055943
     atom   12 type  1   force =    -0.00019021   -0.00186524    0.00039306
     atom   13 type  2   force =     0.00019651    0.00095657    0.00044350
     atom   14 type  3   force =    -0.00037548   -0.00029228    0.00097418
     atom   15 type  3   force =     0.00098995    0.00166738   -0.00055779
     atom   16 type  3   force =    -0.00050680    0.00079079   -0.00005168

     Total force =     0.004088     Total SCF correction =     0.000340

     entering subroutine stress ...

     negative rho (up, down):  5.515E-04 7.313E-04
          total   stress  (Ry/bohr**3)                   (kbar)     P=  -17.46
  -0.00017761   0.00000045  -0.00000054        -26.13      0.07     -0.08
   0.00000045  -0.00017249   0.00000739          0.07    -25.37      1.09
  -0.00000054   0.00000739  -0.00000600         -0.08      1.09     -0.88

     bfgs converged in  24 scf cycles and  23 bfgs steps
     (criteria: energy <  1.0E+00, force <  1.9E-03)

     End of BFGS Geometry Optimization

     Final energy   =   -3031.1384036303 Ry
Begin final coordinates

ATOMIC_POSITIONS (crystal)
Fe1      0.166666667   0.166666667   0.412740767    0   0   0
Fe1      0.666666667   0.166666667   0.412740767    0   0   0
Fe1      0.166666667   0.666666667   0.412740767    0   0   0
Fe1      0.666666667   0.666666667   0.412740767    0   0   0
Fe1      0.833333333   0.333333333   0.500000000    0   0   0
Fe1      0.333333333   0.333333333   0.500000000    0   0   0
Fe1      0.833333333   0.833333333   0.500000000    0   0   0
Fe1      0.333333333   0.833333333   0.500000000    0   0   0
Fe1      0.020916113  -0.002535112   0.589352115
Fe1      0.494626002  -0.006272185   0.587037681
Fe1     -0.004375395   0.507101963   0.583897560
Fe1      0.507512659   0.484096946   0.576117462
C1       0.226924397   0.014990917   0.663376945
H1       0.446319615   0.001200439   0.670659181
H1       0.062983980   0.215563595   0.685340218
H1       0.245113878   0.819882856   0.684646366
End final coordinates

     Writing output data file calc.save

     General routines

     Parallel routines

   This run was terminated on:   1:20:30  12Jul2018

   JOB DONE.