     Program PWSCF v.5.1rc2 (svn rev. 11289) starts on 30Apr2018 at 16:26: 1

     Current dimensions of program PWSCF are:
     Max number of different atomic species (ntypx) = 10
     Max number of k-points (npk) =  40000
     Max angular momentum in pseudopotentials (lmaxx) =  3
     Presently stress not available with electric field

     IMPORTANT: XC functional enforced from input :
     Exchange-correlation      = BEEF-VDW ( 1  4 27 13 2)
     Any further DFT definition will be discarded
     Please, verify this is what you really want

     Subspace diagonalization in iterative solution of the eigenvalue problem:
     a serial algorithm will be used

     bravais-lattice index     =            0
     lattice parameter (alat)  =       1.8897  a.u.
     unit-cell volume          =    4650.5773 (a.u.)^3
     number of atoms/cell      =           13
     number of atomic types    =            2
     number of electrons       =        40.00
     number of Kohn-Sham states=           30
     kinetic-energy cutoff     =      36.7493  Ry
     charge density cutoff     =     367.4932  Ry
     convergence threshold     =      1.0E-05
     mixing beta               =       0.3000
     number of iterations used =           10  plain     mixing
     Exchange-correlation      = BEEF-VDW ( 1  4 27 13 2)
     nstep                     =           50

     celldm(1)=   1.889726  celldm(2)=   0.000000  celldm(3)=   0.000000
     celldm(4)=   0.000000  celldm(5)=   0.000000  celldm(6)=   0.000000

     crystal axes: (cart. coord. in units of alat)
               a(1) = (   5.682886   0.000000   0.000000 )
               a(2) = (   2.841443   4.921524   0.000000 )
               a(3) = (   0.000000   0.000000  24.640057 )

     reciprocal axes: (cart. coord. in units 2 pi/alat)
               b(1) = (  0.175967 -0.101595  0.000000 )
               b(2) = (  0.000000  0.203189  0.000000 )
               b(3) = (  0.000000  0.000000  0.040584 )

     PseudoPot. # 1 for Al read from file:
     /u/if/mamunm/psp/gbrv1.5pbe/Al.UPF
     MD5 check sum: 0a6289f5291fc8f409219462bc851e1f
     Pseudo is Ultrasoft + core correction, Zval =  3.0
     Generated by new atomic code, or converted to UPF format
     Using radial grid of  893 points,  3 beta functions with:
                l(1) =   0
                l(2) =   1
                l(3) =   2
     Q(r) pseudized with  8 coefficients,  rinner =    0.900   0.900   0.900
                                                       0.900   0.900

     PseudoPot. # 2 for C  read from file:
     /u/if/mamunm/psp/gbrv1.5pbe/C.UPF
     MD5 check sum: d1aef80898a10debaa0f26306b886e00
     Pseudo is Ultrasoft + core correction, Zval =  4.0
     Generated by new atomic code, or converted to UPF format
     Using radial grid of  721 points,  4 beta functions with:
                l(1) =   0
                l(2) =   0
                l(3) =   1
                l(4) =   1
     Q(r) pseudized with  8 coefficients,  rinner =    1.100   1.100   1.100

     vdW kernel table read from file vdW_kernel_table
     MD5 check sum: 095c7af220d748ca6e76c0b4c6cfb241

     atomic species   valence    mass     pseudopotential
        Al1            3.00    26.98154     Al( 1.00)
        C1             4.00    12.01100     C ( 1.00)

     No symmetry found

   Cartesian axes

     site n.     atom                  positions (alat units)
         1           Al1 tau(   1) = (   1.4207216   0.8202540  10.0000000  )
         2           Al1 tau(   2) = (   4.2621647   0.8202540  10.0000000  )
         3           Al1 tau(   3) = (   2.8414431   3.2810159  10.0000000  )
         4           Al1 tau(   4) = (   5.6828862   3.2810159  10.0000000  )
         5           Al1 tau(   5) = (   5.6828862   1.6405079  12.3200286  )
         6           Al1 tau(   6) = (   2.8414431   1.6405079  12.3200286  )
         7           Al1 tau(   7) = (   7.1036078   4.1012699  12.3200286  )
         8           Al1 tau(   8) = (   4.2621647   4.1012699  12.3200286  )
         9           Al1 tau(   9) = (   0.0000000   0.0000000  14.6400572  )
        10           Al1 tau(  10) = (   2.8414431   0.0000000  14.6400572  )
        11           Al1 tau(  11) = (   1.4207216   2.4607619  14.6400572  )
        12           Al1 tau(  12) = (   4.2621647   2.4607619  14.6400572  )
        13           C1  tau(  13) = (   2.8414431   1.6405079  15.9205572  )

     number of k points=    20  Fermi-Dirac smearing, width (Ry)=  0.0110
                       cart. coord. in units 2pi/alat
        k(    1) = (   0.0000000   0.0000000   0.0000000), wk =   0.0555556
        k(    2) = (   0.0000000   0.0338648   0.0000000), wk =   0.1111111
        k(    3) = (   0.0000000   0.0677297   0.0000000), wk =   0.1111111
        k(    4) = (   0.0000000  -0.1015945   0.0000000), wk =   0.0555556
        k(    5) = (   0.0293278  -0.0169324   0.0000000), wk =   0.1111111
        k(    6) = (   0.0293278   0.0169324   0.0000000), wk =   0.1111111
        k(    7) = (   0.0293278   0.0507973   0.0000000), wk =   0.1111111
        k(    8) = (   0.0293278  -0.1185270   0.0000000), wk =   0.1111111
        k(    9) = (   0.0293278  -0.0846621   0.0000000), wk =   0.1111111
        k(   10) = (   0.0293278  -0.0507973   0.0000000), wk =   0.1111111
        k(   11) = (   0.0586556  -0.0338648   0.0000000), wk =   0.1111111
        k(   12) = (   0.0586556   0.0000000   0.0000000), wk =   0.1111111
        k(   13) = (   0.0586556   0.0338648   0.0000000), wk =   0.1111111
        k(   14) = (   0.0586556  -0.1354594   0.0000000), wk =   0.1111111
        k(   15) = (   0.0586556  -0.1015945   0.0000000), wk =   0.1111111
        k(   16) = (   0.0586556  -0.0677297   0.0000000), wk =   0.1111111
        k(   17) = (  -0.0879835   0.0507973   0.0000000), wk =   0.0555556
        k(   18) = (  -0.0879835   0.0846621   0.0000000), wk =   0.1111111
        k(   19) = (  -0.0879835   0.1185270   0.0000000), wk =   0.1111111
        k(   20) = (  -0.0879835  -0.0507973   0.0000000), wk =   0.0555556

     Largest allocated arrays     est. size (Mb)     dimensions
     Largest temporary arrays     est. size (Mb)     dimensions

     Initial potential from superposition of free atoms
     Check: negative starting charge=   -0.000183

     starting charge   39.97037, renormalised to   40.00000

     negative rho (up, down):  1.833E-04 0.000E+00

     *
     * You are using vdW-DF for exchange-correlation in this calculation.
     * Please cite the following three references that made this development
     * possible:
     *
     *   M. Dion, H. Rydberg, E. Schroder, D. C. Langreth, and
     *   B. I. Lundqvist, Phys. Rev. Lett. 92, 246401 (2004).
     *
     *   T. Thonhauser, V. R. Cooper, S. Li, A. Puzder, P. Hyldgaard, and
     *   D. C. Langreth, Phys. Rev. B 76, 125112 (2007).
     *
     *   G. Roman-Perez and J. M. Soler, Phys. Rev. Lett. 103, 096102 (2009).
     *
     *
     * If you are using vdW-DF2, please also cite:
     *
     *   K. Lee, E. D. Murray, L. Kong, B. I. Lundqvist, and
     *   D. C. Langreth, Phys. Rev. B 82, 081101(R) (2010).
     *
     *
     * If you are calculating the stress with vdW-DF, please also cite:
     *
     *   R. Sabatini, E. Kucukbenli, B. Kolb, T. Thonhauser, and
     *   S. de Gironcoli, J. Phys.: Condens. Matter 24, 424209 (2012).
     *

     Carrying out vdW-DF run using the following parameters:

     Nqs =      20    Nr_points =    1024   r_max =   100.000
     q_mesh =
               0.00001000     0.04494208     0.09755937     0.15916263
               0.23128650     0.31572767     0.41458969     0.53033537
               0.66584808     0.82450364     1.01025438     1.22772762
               1.48234092     1.78043706     2.12944203     2.53805004
               3.01644009     3.57652955     4.23227104     5.00000000

     Gradients computed in reciprocal space

     Adding external electric field

     Computed dipole along edir(3) :
        Dipole               -0.0199 Ry au,         -0.0506 Debye
        Dipole field         -0.0001 Ry au

        Potential amp.        0.0049 Ry
        Total length         45.3989 bohr

     Starting wfc are   52 randomized atomic wfcs

     Self-consistent Calculation

     iteration #  1     ecut=    36.75 Ry     beta=0.30
     Davidson diagonalization with overlap
     ethr =  1.00E-02,  avg # of iterations =  3.0

[...]

     total energy              =     -92.87247726 Ry
     Harris-Foulkes estimate   =     -94.06469418 Ry
     estimated scf accuracy    <       2.67192250 Ry

[...]

     End of self-consistent calculation

          k = 0.0000 0.0000 0.0000 ( 17579 PWs)   bands (ev):

   -12.3125 -11.3069  -9.4306  -6.8944  -6.0308  -6.0308  -5.9538  -5.8789
    -5.8789  -5.6925  -4.5830  -4.5830  -4.5559  -4.4947  -4.4947  -3.9488
    -3.3631  -2.7307  -2.7307  -1.9324  -1.6041  -1.3675  -1.3675  -0.0952
     0.0376   0.0376   0.5927   1.4633   1.4975   1.4975

[...]

          k =-0.0880 0.0508 0.0000 ( 17464 PWs)   bands (ev):

[...]

     the Fermi energy is    -1.2129 ev

!    total energy              =     -93.81576850 Ry
     Harris-Foulkes estimate   =     -93.81577642 Ry
     estimated scf accuracy    <       0.00000055 Ry

     The total energy is the sum of the following terms:

     one-electron contribution =    -721.97852175 Ry
     hartree contribution      =     368.59222957 Ry
     xc contribution           =     -56.69568484 Ry
     ewald contribution        =     316.29871989 Ry
     electric field correction =       0.00048263 Ry
     smearing contrib. (-TS)   =      -0.03299399 Ry

     convergence has been achieved in  11 iterations

 BEEF-vdW xc energy contributions
           1 :   -46.5676783845490
           2 :    40.0367362215405
           3 :   -30.0209321061877
           4 :    20.4852549262648
           5 :   -13.9602566161484
           6 :    10.5862322717029
           7 :   -8.87414081809559
           8 :    7.29370293850887
           9 :   -5.38105247880857
          10 :    3.66693152881574
          11 :   -2.79476860980735
          12 :    2.77060072978824
          13 :   -2.97891465727012
          14 :    2.79722853924935
          15 :   -2.13485465042395
          16 :    1.40307358961735
          17 :   -1.02859661564305
          18 :    1.03504028859982
          19 :   -1.08091222546992
          20 :   0.846904607520649
          21 :  -0.348851727273242
          22 :  -0.115950670853934
          23 :   0.289109938214082
          24 :  -0.196455322392119
          25 :   9.027712308741087E-002
          26 :  -0.178665990039335
          27 :   0.426032492373743
          28 :  -0.612222111238026
          29 :   0.568000427950281
          30 :  -0.341839969210817
          31 :   -6.96996259646647
          32 :   -5.10172289363184

     Forces acting on atoms (Ry/au):

     negative rho (up, down):  4.237E-04 0.000E+00
     atom    1 type  1   force =     0.00205646    0.00118734   -0.00302428
     atom    2 type  1   force =    -0.00205637    0.00118731   -0.00302384
     atom    3 type  1   force =     0.00000025   -0.00237443   -0.00302369
     atom    4 type  1   force =    -0.00000002   -0.00000008   -0.00443421
     atom    5 type  1   force =     0.00000015   -0.00159974    0.00313129
     atom    6 type  1   force =     0.00000004   -0.00000014   -0.00392032
     atom    7 type  1   force =     0.00138509    0.00079975    0.00313112
     atom    8 type  1   force =    -0.00138518    0.00079992    0.00313138
     atom    9 type  1   force =    -0.00000004   -0.00000001   -0.00659331
     atom   10 type  1   force =    -0.00000006    0.00219747    0.03447833
     atom   11 type  1   force =     0.00190318   -0.00109864    0.03447818
     atom   12 type  1   force =    -0.00190324   -0.00109878    0.03447821
     atom   13 type  2   force =    -0.00000026    0.00000003   -0.08880886

     Total force =     0.107290     Total SCF correction =     0.000743

     entering subroutine stress ...

     negative rho (up, down):  4.237E-04 0.000E+00
          total   stress  (Ry/bohr**3)                   (kbar)     P=   -8.68
  -0.00007548  -0.00000000   0.00000000        -11.10     -0.00      0.00
  -0.00000000  -0.00007548   0.00000000         -0.00    -11.10      0.00
   0.00000000   0.00000000  -0.00002614          0.00      0.00     -3.85

     BFGS Geometry Optimization

     number of scf cycles    =   1
     number of bfgs steps    =   0

     energy   new            =     -93.8157684972 Ry

     new trust radius        =       0.0888088590 bohr
     new conv_thr            =       0.0000099958 Ry

ATOMIC_POSITIONS (crystal)
Al1      0.166666667   0.166666667   0.405843214    0   0   0
Al1      0.666666667   0.166666667   0.405843214    0   0   0
Al1      0.166666667   0.666666667   0.405843214    0   0   0
Al1      0.666666667   0.666666667   0.405843214    0   0   0
Al1      0.833333333   0.333333333   0.500000000    0   0   0
Al1      0.333333333   0.333333333   0.500000000    0   0   0
Al1      0.833333333   0.833333333   0.500000000    0   0   0
Al1      0.333333333   0.833333333   0.500000000    0   0   0
Al1     -0.000000003  -0.000000001   0.594015186
Al1      0.499881855   0.000236279   0.594897253
Al1      0.000236284   0.499881871   0.594897250
Al1      0.499881847   0.499881856   0.594897250
C1       0.333333308   0.333333336   0.644217724

     Writing output data file calc.save
     Check: negative starting charge=   -0.000183
     NEW-OLD atomic charge density approx. for the potential
     Check: negative starting charge=   -0.000180

[...]

     energy   old            =     -93.8157684972 Ry
     energy   new            =     -93.8262813999 Ry

     CASE: energy  _new < energy  _old

     WARNING: bfgs curvature condition failed, Theta= 0.975
     new trust radius        =       0.0976897449 bohr
     new conv_thr            =       0.0000001000 Ry

[...]

     Threshold (ethr) on eigenvalues was too large:
     Diagonalizing with lowered threshold

     Davidson diagonalization with overlap
     ethr =  7.07E-08,  avg # of iterations =  1.2

[...]

     WARNING: bfgs curvature condition failed, Theta= 0.985
     new trust radius        =       0.0110345445 bohr
     new conv_thr            =       0.0000001000 Ry

[...]

     Threshold (ethr) on eigenvalues was too large:
     Diagonalizing with lowered threshold

     Davidson diagonalization with overlap
     ethr =  6.74E-08,  avg # of iterations =  1.4

[...]

     number of scf cycles    =  18
     number of bfgs steps    =  17

     energy   old            =     -93.8604184760 Ry
     energy   new            =     -93.8604601029 Ry

     CASE: energy  _new < energy  _old

     new trust radius        =       0.0248277252 bohr
     new conv_thr            =       0.0000001000 Ry

ATOMIC_POSITIONS (crystal)
Al1      0.166666667   0.166666667   0.405843214    0   0   0
Al1      0.666666667   0.166666667   0.405843214    0   0   0
Al1      0.166666667   0.666666667   0.405843214    0   0   0
Al1      0.666666667   0.666666667   0.405843214    0   0   0
Al1      0.833333333   0.333333333   0.500000000    0   0   0
Al1      0.333333333   0.333333333   0.500000000    0   0   0
Al1      0.833333333   0.833333333   0.500000000    0   0   0
Al1      0.333333333   0.833333333   0.500000000    0   0   0
Al1     -0.000000036  -0.000000016   0.589872655
Al1      0.512520702  -0.025041436   0.597832138
Al1     -0.025041442   0.512520711   0.597832136
Al1      0.512520697   0.512520715   0.597832135
C1       0.333333319   0.333333329   0.626124636

     Writing output data file calc.save
     Check: negative starting charge=   -0.000183
     NEW-OLD atomic charge density approx. for the potential
     Check: negative starting charge=   -0.000183

[...]

     Self-consistent Calculation

[...]

     total energy              =     -93.86051342 Ry
     Harris-Foulkes estimate   =     -93.86051302 Ry
     estimated scf accuracy    <       0.00000046 Ry

     iteration #  7     ecut=    36.75 Ry     beta=0.30
     Davidson diagonalization with overlap
     ethr =  1.15E-09,  avg # of iterations =  1.9

[...]

     negative rho (up, down):  4.779E-04 0.000E+00

     Adding external electric field

     Computed dipole along edir(3) :
        Dipole               -0.2001 Ry au,         -0.5087 Debye
        Dipole field         -0.0005 Ry au

        Potential amp.        0.0491 Ry
        Total length         45.3989 bohr

     End of self-consistent calculation

[...]

          k = 0.0587-0.0677 0.0000 ( 17495 PWs)   bands (ev):

[...]

          k =-0.0880-0.0508 0.0000 ( 17464 PWs)   bands (ev):

   -12.0065 -10.1799  -9.7521  -8.6292  -7.8057  -7.1836  -6.8519  -6.0877
    -5.8643  -5.6652  -4.1885  -3.7484  -3.4587  -3.1158  -2.2554  -2.2086
    -1.5276  -1.3373  -1.2950  -0.9002  -0.6616  -0.5061   0.1911   0.3321
     0.7257   0.7952   1.2510   1.6284   1.7505   1.9690

     the Fermi energy is    -0.9374 ev

!    total energy              =     -93.86051353 Ry
     Harris-Foulkes estimate   =     -93.86051360 Ry
     estimated scf accuracy    <       0.00000008 Ry

     The total energy is the sum of the following terms:

     one-electron contribution =    -739.76773065 Ry
     hartree contribution      =     377.84841125 Ry
     xc contribution           =     -56.93453277 Ry
     ewald contribution        =     325.02433204 Ry
     electric field correction =       0.00010823 Ry
     smearing contrib. (-TS)   =      -0.03110162 Ry

     convergence has been achieved in   7 iterations

 BEEF-vdW xc energy contributions
           1 :   -46.7967297644569
           2 :    40.2655475982430
           3 :   -30.2046300320375
           4 :    20.5466314311802
           5 :   -13.8320907152962
           6 :    10.2459968363960
           7 :   -8.35943569832725
           8 :    6.68887387066065
           9 :   -4.77866620045349
          10 :    3.12682127678803
          11 :   -2.32905844962057
          12 :    2.36491881321171
          13 :   -2.62766605563095
          14 :    2.51805613825690
          15 :   -1.94913089308865
          16 :    1.30450286196849
          17 :  -0.977461243240008
          18 :   0.987018421956506
          19 :   -1.01982314962329
          20 :   0.789048203998163
          21 :  -0.317781198308147
          22 :  -0.116031978120311
          23 :   0.273642014732367
          24 :  -0.176684771598524
          25 :   5.390396298424349E-002
          26 :  -9.882743064711264E-002
          27 :   0.291412855356633
          28 :  -0.446967214462255
          29 :   0.418936911971265
          30 :  -0.243473944341048
          31 :   -6.98525440320402
          32 :   -5.10874440186867

     Forces acting on atoms (Ry/au):

     negative rho (up, down):  4.779E-04 0.000E+00
     atom    1 type  1   force =    -0.00235909   -0.00136202   -0.00377850
     atom    2 type  1   force =     0.00235908   -0.00136202   -0.00377850
     atom    3 type  1   force =    -0.00000000    0.00272403   -0.00377850
     atom    4 type  1   force =    -0.00000000   -0.00000000   -0.00566394
     atom    5 type  1   force =    -0.00000000    0.00359233    0.00040868
     atom    6 type  1   force =     0.00000000   -0.00000000    0.01548575
     atom    7 type  1   force =    -0.00311106   -0.00179617    0.00040867
     atom    8 type  1   force =     0.00311105   -0.00179616    0.00040869
     atom    9 type  1   force =     0.00000004    0.00000002    0.00147887
     atom   10 type  1   force =    -0.00000001   -0.00078675   -0.00061780
     atom   11 type  1   force =    -0.00068136    0.00039337   -0.00061779
     atom   12 type  1   force =     0.00068135    0.00039337   -0.00061780
     atom   13 type  2   force =     0.00000002    0.00000000    0.00066217

     Total force =     0.002372     Total SCF correction =     0.000076

     entering subroutine stress ...

     negative rho (up, down):  4.779E-04 0.000E+00
          total   stress  (Ry/bohr**3)                   (kbar)     P=   -0.88
  -0.00001686  -0.00000000   0.00000000         -2.48     -0.00      0.00
  -0.00000000  -0.00001686   0.00000000         -0.00     -2.48      0.00
   0.00000000   0.00000000   0.00001581          0.00      0.00      2.33

     bfgs converged in  19 scf cycles and  18 bfgs steps
     (criteria: energy <  1.0E+00, force <  1.9E-03)

     End of BFGS Geometry Optimization

     Final energy   =     -93.8605135267 Ry
Begin final coordinates

ATOMIC_POSITIONS (crystal)
Al1      0.166666667   0.166666667   0.405843214    0   0   0
Al1      0.666666667   0.166666667   0.405843214    0   0   0
Al1      0.166666667   0.666666667   0.405843214    0   0   0
Al1      0.666666667   0.666666667   0.405843214    0   0   0
Al1      0.833333333   0.333333333   0.500000000    0   0   0
Al1      0.333333333   0.333333333   0.500000000    0   0   0
Al1      0.833333333   0.833333333   0.500000000    0   0   0
Al1      0.333333333   0.833333333   0.500000000    0   0   0
Al1     -0.000000036  -0.000000016   0.589872655
Al1      0.512520702  -0.025041436   0.597832138
Al1     -0.025041442   0.512520711   0.597832136
Al1      0.512520697   0.512520715   0.597832135
C1       0.333333319   0.333333329   0.626124636
End final coordinates

     Writing output data file calc.save

     General routines

     Parallel routines

   This run was terminated on:  17: 6:11  30Apr2018

   JOB DONE.
Job  /afs/slac/g/suncat/bin/suncat-tsmpirun -x LD_LIBRARY_PATH -wdir /scratch/qe510325_LBrFd pw.x -npool 4 -in pw.inp

TID   HOST_NAME   COMMAND_LINE            STATUS            TERMINATION_TIME
00000 suncat0188 pw.x -npool 4 -i  Done                     04/30/2018 17:06:11
00001 suncat0188 pw.x -npool 4 -i  Done                     04/30/2018 17:06:11
00002 suncat0188 pw.x -npool 4 -i  Done                     04/30/2018 17:06:11
00003 suncat0188 pw.x -npool 4 -i  Done                     04/30/2018 17:06:11
00004 suncat0188 pw.x -npool 4 -i  Done                     04/30/2018 17:06:11
00005 suncat0188 pw.x -npool 4 -i  Done                     04/30/2018 17:06:11
00006 suncat0188 pw.x -npool 4 -i  Done                     04/30/2018 17:06:11
00007 suncat0188 pw.x -npool 4 -i  Done                     04/30/2018 17:06:11
00008 suncat0179 pw.x -npool 4 -i  Done                     04/30/2018 17:06:11
00009 suncat0179 pw.x -npool 4 -i  Done                     04/30/2018 17:06:11
00010 suncat0179 pw.x -npool 4 -i  Done                     04/30/2018 17:06:11
00011 suncat0179 pw.x -npool 4 -i  Done                     04/30/2018 17:06:11
00012 suncat0179 pw.x -npool 4 -i  Done                     04/30/2018 17:06:11
00013 suncat0179 pw.x -npool 4 -i  Done                     04/30/2018 17:06:11
00014 suncat0179 pw.x -npool 4 -i  Done                     04/30/2018 17:06:11
00015 suncat0179 pw.x -npool 4 -i  Done                     04/30/2018 17:06:11
00016 suncat0163 pw.x -npool 4 -i  Done                     04/30/2018 17:06:11
00017 suncat0163 pw.x -npool 4 -i  Done                     04/30/2018 17:06:11
00018 suncat0163 pw.x -npool 4 -i  Done                     04/30/2018 17:06:11
00019 suncat0163 pw.x -npool 4 -i  Done                     04/30/2018 17:06:11
00020 suncat0163 pw.x -npool 4 -i  Done                     04/30/2018 17:06:11
00021 suncat0163 pw.x -npool 4 -i  Done                     04/30/2018 17:06:11
00022 suncat0163 pw.x -npool 4 -i  Done                     04/30/2018 17:06:11
00023 suncat0163 pw.x -npool 4 -i  Done                     04/30/2018 17:06:11
00024 suncat0280 pw.x -npool 4 -i  Done                     04/30/2018 17:06:11
00025 suncat0280 pw.x -npool 4 -i  Done                     04/30/2018 17:06:11
00026 suncat0280 pw.x -npool 4 -i  Done                     04/30/2018 17:06:11
00027 suncat0280 pw.x -npool 4 -i  Done                     04/30/2018 17:06:11
00028 suncat0280 pw.x -npool 4 -i  Done                     04/30/2018 17:06:11
00029 suncat0280 pw.x -npool 4 -i  Done                     04/30/2018 17:06:11
00030 suncat0280 pw.x -npool 4 -i  Done                     04/30/2018 17:06:11
00031 suncat0280 pw.x -npool 4 -i  Done                     04/30/2018 17:06:11