     Program PWSCF v.5.1rc2 (svn rev. 11289) starts on  4May2018 at  8:12:26

     Current dimensions of program PWSCF are:
     Max number of different atomic species (ntypx) = 10
     Max number of k-points (npk) =  40000
     Max angular momentum in pseudopotentials (lmaxx) =  3
     Presently stress not available with electric field

     IMPORTANT: XC functional enforced from input :
     Exchange-correlation      = BEEF-VDW ( 1  4 27 13 2)
     Any further DFT definition will be discarded
     Please, verify this is what you really want

     Subspace diagonalization in iterative solution of the eigenvalue problem:
     a serial algorithm will be used

     bravais-lattice index     =            0
     lattice parameter (alat)  =       1.8897  a.u.
     unit-cell volume          =    5144.9564 (a.u.)^3
     number of atoms/cell      =           13
     number of atomic types    =            2
     number of electrons       =       133.00
     number of Kohn-Sham states=           76
     kinetic-energy cutoff     =      36.7493  Ry
     charge density cutoff     =     367.4932  Ry
     convergence threshold     =      1.0E-05
     mixing beta               =       0.3000
     number of iterations used =           10  plain     mixing
     Exchange-correlation      = BEEF-VDW ( 1  4 27 13 2)
     nstep                     =           50

     celldm(1)=   1.889726  celldm(2)=   0.000000  celldm(3)=   0.000000
     celldm(4)=   0.000000  celldm(5)=   0.000000  celldm(6)=   0.000000

     crystal axes: (cart. coord. in units of alat)
               a(1) = (   5.950946   0.000000   0.000000 )
               a(2) = (   2.975473   5.153671   0.000000 )
               a(3) = (   0.000000   0.000000  24.858927 )

     reciprocal axes: (cart. coord. in units 2 pi/alat)
               b(1) = (  0.168040 -0.097018  0.000000 )
               b(2) = (  0.000000  0.194036  0.000000 )
               b(3) = (  0.000000  0.000000  0.040227 )

     PseudoPot. # 1 for Au read from file:
     /u/if/mamunm/psp/gbrv1.5pbe/Au.UPF
     MD5 check sum: 9d7f43293ad2c663164586bc4b293ffc
     Pseudo is Ultrasoft + core correction, Zval = 11.0
     Generated by new atomic code, or converted to UPF format
     Using radial grid of  985 points,  7 beta functions with:
                l(1) =   0
                l(2) =   0
                l(3) =   1
                l(4) =   1
                l(5) =   2
                l(6) =   2
                l(7) =   3
     Q(r) pseudized with  6 coefficients,  rinner =    1.900   1.900   1.900
                                                       1.900   1.900   1.900
                                                       1.900

     PseudoPot. # 2 for H  read from file:
     /u/if/mamunm/psp/gbrv1.5pbe/H.UPF
     MD5 check sum: 761ae9a214b05c3daf00ab9f6b793d6f
     Pseudo is Ultrasoft, Zval =  1.0
     Generated by new atomic code, or converted to UPF format
     Using radial grid of  615 points,  2 beta functions with:
                l(1) =   0
                l(2) =   0
     Q(r) pseudized with  8 coefficients,  rinner =    0.700

     vdW kernel table read from file vdW_kernel_table
     MD5 check sum: 095c7af220d748ca6e76c0b4c6cfb241

     atomic species   valence    mass     pseudopotential
        Au1           11.00   196.96657     Au( 1.00)
        H1             1.00     1.00800     H ( 1.00)

     No symmetry found

   Cartesian axes

     site n.     atom                  positions (alat units)
         1           Au1 tau(   1) = (   1.4877366   0.8589451  10.0000000  )
         2           Au1 tau(   2) = (   4.4632098   0.8589451  10.0000000  )
         3           Au1 tau(   3) = (   2.9754732   3.4357805  10.0000000  )
         4           Au1 tau(   4) = (   5.9509464   3.4357805  10.0000000  )
         5           Au1 tau(   5) = (   5.9509464   1.7178903  12.4294637  )
         6           Au1 tau(   6) = (   2.9754732   1.7178903  12.4294637  )
         7           Au1 tau(   7) = (   7.4386830   4.2947256  12.4294637  )
         8           Au1 tau(   8) = (   4.4632098   4.2947256  12.4294637  )
         9           Au1 tau(   9) = (   0.0000000   0.0000000  14.8589274  )
        10           Au1 tau(  10) = (   2.9754732   0.0000000  14.8589274  )
        11           Au1 tau(  11) = (   1.4877366   2.5768354  14.8589274  )
        12           Au1 tau(  12) = (   4.4632098   2.5768354  14.8589274  )
        13           H1  tau(  13) = (   1.4877366   0.8589451  15.9444274  )

     number of k points=    20  Fermi-Dirac smearing, width (Ry)=  0.0110
                       cart. coord. in units 2pi/alat
        k(    1) = (   0.0000000   0.0000000   0.0000000), wk =   0.0555556
        k(    2) = (   0.0000000   0.0323394   0.0000000), wk =   0.1111111
        k(    3) = (   0.0000000   0.0646788   0.0000000), wk =   0.1111111
        k(    4) = (   0.0000000  -0.0970182   0.0000000), wk =   0.0555556
        k(    5) = (   0.0280067  -0.0161697   0.0000000), wk =   0.1111111
        k(    6) = (   0.0280067   0.0161697   0.0000000), wk =   0.1111111
        k(    7) = (   0.0280067   0.0485091   0.0000000), wk =   0.1111111
        k(    8) = (   0.0280067  -0.1131879   0.0000000), wk =   0.1111111
        k(    9) = (   0.0280067  -0.0808485   0.0000000), wk =   0.1111111
        k(   10) = (   0.0280067  -0.0485091   0.0000000), wk =   0.1111111
        k(   11) = (   0.0560135  -0.0323394   0.0000000), wk =   0.1111111
        k(   12) = (   0.0560135   0.0000000   0.0000000), wk =   0.1111111
        k(   13) = (   0.0560135   0.0323394   0.0000000), wk =   0.1111111
        k(   14) = (   0.0560135  -0.1293576   0.0000000), wk =   0.1111111
        k(   15) = (   0.0560135  -0.0970182   0.0000000), wk =   0.1111111
        k(   16) = (   0.0560135  -0.0646788   0.0000000), wk =   0.1111111
        k(   17) = (  -0.0840202   0.0485091   0.0000000), wk =   0.0555556
        k(   18) = (  -0.0840202   0.0808485   0.0000000), wk =   0.1111111
        k(   19) = (  -0.0840202   0.1131879   0.0000000), wk =   0.1111111
        k(   20) = (  -0.0840202  -0.0485091   0.0000000), wk =   0.0555556

     Largest allocated arrays     est. size (Mb)     dimensions
     Largest temporary arrays     est. size (Mb)     dimensions

     Check: negative/imaginary core charge=   -0.000002    0.000000

     Initial potential from superposition of free atoms

     starting charge  132.99852, renormalised to  133.00000

     negative rho (up, down):  7.630E-05 0.000E+00

     *
     * You are using vdW-DF for exchange-correlation in this calculation.
     * Please cite the following three references that made this development
     * possible:
     *
     *   M. Dion, H. Rydberg, E. Schroder, D. C. Langreth, and
     *   B. I. Lundqvist, Phys. Rev. Lett. 92, 246401 (2004).
     *
     *   T. Thonhauser, V. R. Cooper, S. Li, A. Puzder, P. Hyldgaard, and
     *   D. C. Langreth, Phys. Rev. B 76, 125112 (2007).
     *
     *   G. Roman-Perez and J. M. Soler, Phys. Rev. Lett. 103, 096102 (2009).
     *
     *
     * If you are using vdW-DF2, please also cite:
     *
     *   K. Lee, E. D. Murray, L. Kong, B. I. Lundqvist, and
     *   D. C. Langreth, Phys. Rev. B 82, 081101(R) (2010).
     *
     *
     * If you are calculating the stress with vdW-DF, please also cite:
     *
     *   R. Sabatini, E. Kucukbenli, B. Kolb, T. Thonhauser, and
     *   S. de Gironcoli, J. Phys.: Condens. Matter 24, 424209 (2012).
     *

     Carrying out vdW-DF run using the following parameters:

     Nqs =      20    Nr_points =    1024   r_max =   100.000
     q_mesh =
               0.00001000     0.04494208     0.09755937     0.15916263
               0.23128650     0.31572767     0.41458969     0.53033537
               0.66584808     0.82450364     1.01025438     1.22772762
               1.48234092     1.78043706     2.12944203     2.53805004
               3.01644009     3.57652955     4.23227104     5.00000000

     Gradients computed in reciprocal space

     Adding external electric field

     Computed dipole along edir(3) :
        Dipole               -0.0000 Ry au,         -0.0000 Debye
        Dipole field         -0.0000 Ry au

        Potential amp.        0.0000 Ry
        Total length         45.8022 bohr

     Starting wfc are  109 randomized atomic wfcs

     Self-consistent Calculation

     iteration #  1     ecut=    36.75 Ry     beta=0.30
     Davidson diagonalization with overlap
     ethr =  1.00E-02,  avg # of iterations =  2.3

     Threshold (ethr) on eigenvalues was too large:
     Diagonalizing with lowered threshold

     Davidson diagonalization with overlap
     ethr =  1.98E-04,  avg # of iterations =  3.6

[...]

     total energy              =   -1401.60083638 Ry
     Harris-Foulkes estimate   =   -1401.69284399 Ry
     estimated scf accuracy    <       0.31937047 Ry

[...]

     End of self-consistent calculation

          k = 0.0000 0.0000 0.0000 ( 19315 PWs)   bands (ev):

    -8.0574  -7.0839  -6.2067  -5.9817  -5.8635  -5.8635  -5.7980  -5.6981
    -5.6981  -5.5386  -5.3920  -5.3920  -5.3005  -5.2544  -5.2544  -4.6113
    -4.3080  -4.3080  -4.1654  -4.1387  -4.1387  -4.0405  -3.9975  -3.9975
    -3.8679  -3.8679  -3.7117  -3.7100  -3.7100  -3.7062  -3.6198  -3.6198
    -3.1971  -3.1971  -3.1819  -2.9328  -2.8098  -2.8098  -2.7905  -2.7525
    -2.7525  -2.4467  -2.4467  -2.3836  -2.3836  -2.0377  -2.0377  -2.0368
    -2.0288  -1.9502  -1.9502  -1.9107  -1.9107  -1.7922  -1.7724  -1.7724
    -1.6818  -1.6799  -1.6146  -1.6146  -1.4673  -1.4599  -1.4599  -0.4051
     0.7055   0.7055   0.7538   1.1448   1.4216   1.4216   1.6678   1.7334
     1.7334   2.8853   3.2717   3.2717

[...]

          k =-0.0840 0.0485 0.0000 ( 19380 PWs)   bands (ev):

[...]

     the Fermi energy is     0.1607 ev

!    total energy              =   -1401.64063172 Ry
     Harris-Foulkes estimate   =   -1401.64063256 Ry
     estimated scf accuracy    <       0.00000265 Ry

     The total energy is the sum of the following terms:

     one-electron contribution =   -8038.77167174 Ry
     hartree contribution      =    4115.63874715 Ry
     xc contribution           =    -768.82320339 Ry
     ewald contribution        =    3290.33737676 Ry
     electric field correction =       0.00000025 Ry
     smearing contrib. (-TS)   =      -0.02188075 Ry

     convergence has been achieved in   9 iterations

 BEEF-vdW xc energy contributions
           1 :   -687.326591584588
           2 :    638.995843729665
           3 :   -552.509476061142
           4 :    444.592273919475
           5 :   -333.369401447265
           6 :    233.662051681831
           7 :   -154.154378169455
           8 :    96.9269206751376
           9 :   -59.0586636980920
          10 :    35.2841969465180
          11 :   -20.5018638091907
          12 :    11.2087888966204
          13 :   -5.63451818049725
          14 :    2.96877082478704
          15 :   -2.41820921862086
          16 :    2.70043340893051
          17 :   -2.21007120942159
          18 :  -0.346495217049551
          19 :    5.28853189635299
          20 :   -11.7084704015253
          21 :    17.8122648851357
          22 :   -21.7128824793016
          23 :    22.2748796399676
          24 :   -19.5953809453315
          25 :    14.9005759810882
          26 :   -9.94291531834483
          27 :    6.21948856967788
          28 :   -4.40336536957329
          29 :    4.23358210315610
          30 :   -4.86362919880492
          31 :   -54.2552911688899
          32 :   -39.5355024331095

     Forces acting on atoms (Ry/au):

     negative rho (up, down):  1.821E-04 0.000E+00
     atom    1 type  1   force =     0.00000463   -0.00000402   -0.00223600
     atom    2 type  1   force =    -0.00000115    0.00012503   -0.00326228
     atom    3 type  1   force =     0.00011170   -0.00005529   -0.00327998
     atom    4 type  1   force =    -0.00010654   -0.00005871   -0.00327374
     atom    5 type  1   force =    -0.00098362    0.00056361   -0.00422037
     atom    6 type  1   force =     0.00098139    0.00056608   -0.00421125
     atom    7 type  1   force =     0.00000237   -0.00000938    0.01018300
     atom    8 type  1   force =    -0.00000193   -0.00113211   -0.00422490
     atom    9 type  1   force =    -0.00247974   -0.00142296    0.01478197
     atom   10 type  1   force =     0.00247475   -0.00142557    0.01478421
     atom   11 type  1   force =    -0.00000181    0.00285529    0.01478335
     atom   12 type  1   force =    -0.00000181   -0.00000208   -0.00043578
     atom   13 type  2   force =     0.00000175    0.00000011   -0.02938822

     Total force =     0.039293     Total SCF correction =     0.004002
     SCF correction compared to forces is large: reduce conv_thr to get better values

     entering subroutine stress ...

     negative rho (up, down):  1.821E-04 0.000E+00
          total   stress  (Ry/bohr**3)                   (kbar)     P=   -9.25
  -0.00010147  -0.00000000  -0.00000000        -14.93     -0.00     -0.00
  -0.00000000  -0.00010147   0.00000000         -0.00    -14.93      0.00
  -0.00000000   0.00000000   0.00001437         -0.00      0.00      2.11

     BFGS Geometry Optimization

     number of scf cycles    =   1
     number of bfgs steps    =   0

     energy   new            =   -1401.6406317160 Ry

     new trust radius        =       0.0293882191 bohr
     new conv_thr            =       0.0000099958 Ry

ATOMIC_POSITIONS (crystal)
Au1      0.166666667   0.166666667   0.402269971    0   0   0
Au1      0.666666667   0.166666667   0.402269971    0   0   0
Au1      0.166666667   0.666666667   0.402269971    0   0   0
Au1      0.666666667   0.666666667   0.402269971    0   0   0
Au1      0.833333333   0.333333333   0.500000000    0   0   0
Au1      0.333333333   0.333333333   0.500000000    0   0   0
Au1      0.833333333   0.833333333   0.500000000    0   0   0
Au1      0.333333333   0.833333333   0.500000000    0   0   0
Au1     -0.000147451  -0.000146109   0.598044696
Au1      0.500293251  -0.000146377   0.598044744
Au1     -0.000146751   0.500293180   0.598044725
Au1      0.499999946   0.499999786   0.597720752
H1       0.166666817   0.166666678   0.640770841

     Writing output data file calc.save
     NEW-OLD atomic charge density approx. for the potential

[...]

     Total force =     0.036555     Total SCF correction =     0.002279

[...]

     energy   old            =   -1401.6406317160 Ry
     energy   new            =   -1401.6421153677 Ry

     CASE: energy  _new < energy  _old

     WARNING: bfgs curvature condition failed, Theta= 0.862
     new trust radius        =       0.0440823287 bohr
     new conv_thr            =       0.0000001000 Ry

[...]

     Total force =     0.006528     Total SCF correction =     0.000184

[...]

     number of scf cycles    =   9
     number of bfgs steps    =   8

     energy   old            =   -1401.6534542820 Ry
     energy   new            =   -1401.6535254295 Ry

     CASE: energy  _new < energy  _old

     new trust radius        =       0.0108729153 bohr
     new conv_thr            =       0.0000001000 Ry

ATOMIC_POSITIONS (crystal)
Au1      0.166666667   0.166666667   0.402269971    0   0   0
Au1      0.666666667   0.166666667   0.402269971    0   0   0
Au1      0.166666667   0.666666667   0.402269971    0   0   0
Au1      0.666666667   0.666666667   0.402269971    0   0   0
Au1      0.833333333   0.333333333   0.500000000    0   0   0
Au1      0.333333333   0.333333333   0.500000000    0   0   0
Au1      0.833333333   0.833333333   0.500000000    0   0   0
Au1      0.333333333   0.833333333   0.500000000    0   0   0
Au1     -0.006045406  -0.006041518   0.602856140
Au1      0.512085110  -0.006042755   0.602856342
Au1     -0.006044250   0.512086179   0.602856273
Au1      0.499998022   0.500000906   0.597133493
H1       0.166667363   0.166666579   0.629463746

     Writing output data file calc.save
     NEW-OLD atomic charge density approx. for the potential

     Check: negative/imaginary core charge=   -0.000002    0.000000

[...]

     Self-consistent Calculation

[...]

     Threshold (ethr) on eigenvalues was too large:
     Diagonalizing with lowered threshold

     Davidson diagonalization with overlap
     ethr =  5.06E-09,  avg # of iterations =  2.0

[...]

     total energy              =   -1401.65356325 Ry
     Harris-Foulkes estimate   =   -1401.65356323 Ry
     estimated scf accuracy    <       0.00000015 Ry

     iteration #  6     ecut=    36.75 Ry     beta=0.30
     Davidson diagonalization with overlap
     ethr =  1.12E-10,  avg # of iterations =  3.0

[...]

     negative rho (up, down):  1.777E-04 0.000E+00

     Adding external electric field

     Computed dipole along edir(3) :
        Dipole                0.0165 Ry au,          0.0419 Debye
        Dipole field          0.0000 Ry au

        Potential amp.       -0.0037 Ry
        Total length         45.8022 bohr

     End of self-consistent calculation

[...]

          k = 0.0560-0.0647 0.0000 ( 19376 PWs)   bands (ev):

[...]

          k =-0.0840-0.0485 0.0000 ( 19380 PWs)   bands (ev):

    -7.3450  -6.3610  -6.1886  -5.3617  -5.2228  -5.1491  -5.0975  -5.0620
    -5.0352  -5.0036  -4.9353  -4.7321  -4.7184  -4.6494  -4.6363  -4.4765
    -4.4641  -4.2834  -4.2597  -4.2297  -4.2049  -4.1709  -4.1425  -3.9993
    -3.9537  -3.8156  -3.7462  -3.7218  -3.6424  -3.6063  -3.5514  -3.4996
    -3.4908  -3.4305  -3.3973  -3.3668  -3.3387  -3.3145  -3.2951  -3.2496
    -3.0857  -3.0386  -3.0082  -3.0031  -2.9432  -2.9406  -2.8334  -2.8015
    -2.7288  -2.6704  -2.6384  -2.6061  -2.4457  -2.4119  -2.3994  -2.2947
    -2.0778  -2.0327  -1.9834  -1.9620  -1.9134  -1.8806  -1.7162  -1.7031
    -0.2888   0.0548   0.0945   0.1684   0.9096   1.0576   2.6444   2.9662
     3.2373   3.4559   5.0934   5.4090

     the Fermi energy is     0.1470 ev

!    total energy              =   -1401.65356328 Ry
     Harris-Foulkes estimate   =   -1401.65356330 Ry
     estimated scf accuracy    <       0.00000005 Ry

     The total energy is the sum of the following terms:

     one-electron contribution =   -7942.31140807 Ry
     hartree contribution      =    4067.40448341 Ry
     xc contribution           =    -768.80762646 Ry
     ewald contribution        =    3242.08256921 Ry
     electric field correction =       0.00000067 Ry
     smearing contrib. (-TS)   =      -0.02158203 Ry

     convergence has been achieved in   6 iterations

 BEEF-vdW xc energy contributions
           1 :   -687.302897086446
           2 :    638.918845486217
           3 :   -552.361092761557
           4 :    444.402207918337
           5 :   -333.195331335816
           6 :    233.551480827149
           7 :   -154.113682858515
           8 :    96.9179312957992
           9 :   -59.0236014188316
          10 :    35.1844312060217
          11 :   -20.3474971585988
          12 :    11.0592204918357
          13 :   -5.56573175355174
          14 :    3.02662425983965
          15 :   -2.58657897478633
          16 :    2.90419282151686
          17 :   -2.35355944944695
          18 :  -0.326994703645937
          19 :    5.38857264394471
          20 :   -11.8573369714270
          21 :    17.9137737451845
          22 :   -21.7009593587951
          23 :    22.1522905250915
          24 :   -19.4330334750930
          25 :    14.7956364304794
          26 :   -9.96003570280004
          27 :    6.35068560897093
          28 :   -4.57010151066731
          29 :    4.33113376463734
          30 :   -4.82269610360254
          31 :   -54.2530612084710
          32 :   -39.5182552989274

     Forces acting on atoms (Ry/au):

     negative rho (up, down):  1.777E-04 0.000E+00
     atom    1 type  1   force =     0.00000001   -0.00000002   -0.00164608
     atom    2 type  1   force =     0.00000002   -0.00028550   -0.00421268
     atom    3 type  1   force =    -0.00024724    0.00014273   -0.00421270
     atom    4 type  1   force =     0.00024725    0.00014272   -0.00421264
     atom    5 type  1   force =     0.00184987   -0.00106796    0.00365887
     atom    6 type  1   force =    -0.00185009   -0.00106811    0.00365870
     atom    7 type  1   force =    -0.00000014   -0.00000003    0.01061402
     atom    8 type  1   force =    -0.00000003    0.00213622    0.00365881
     atom    9 type  1   force =     0.00114319    0.00065908   -0.00151749
     atom   10 type  1   force =    -0.00114260    0.00065940   -0.00151775
     atom   11 type  1   force =     0.00000014   -0.00131885   -0.00151774
     atom   12 type  1   force =     0.00000018    0.00000027   -0.00080925
     atom   13 type  2   force =    -0.00000055    0.00000006   -0.00194406

     Total force =     0.004070     Total SCF correction =     0.000865
     SCF correction compared to forces is large: reduce conv_thr to get better values

     entering subroutine stress ...

     negative rho (up, down):  1.777E-04 0.000E+00
          total   stress  (Ry/bohr**3)                   (kbar)     P=  -10.63
  -0.00011023  -0.00000000   0.00000000        -16.22     -0.00      0.00
  -0.00000000  -0.00011023  -0.00000000         -0.00    -16.22     -0.00
   0.00000000  -0.00000000   0.00000363          0.00     -0.00      0.53

     bfgs converged in  10 scf cycles and   9 bfgs steps
     (criteria: energy <  1.0E+00, force <  1.9E-03)

     End of BFGS Geometry Optimization

     Final energy   =   -1401.6535632751 Ry
Begin final coordinates

ATOMIC_POSITIONS (crystal)
Au1      0.166666667   0.166666667   0.402269971    0   0   0
Au1      0.666666667   0.166666667   0.402269971    0   0   0
Au1      0.166666667   0.666666667   0.402269971    0   0   0
Au1      0.666666667   0.666666667   0.402269971    0   0   0
Au1      0.833333333   0.333333333   0.500000000    0   0   0
Au1      0.333333333   0.333333333   0.500000000    0   0   0
Au1      0.833333333   0.833333333   0.500000000    0   0   0
Au1      0.333333333   0.833333333   0.500000000    0   0   0
Au1     -0.006045406  -0.006041518   0.602856140
Au1      0.512085110  -0.006042755   0.602856342
Au1     -0.006044250   0.512086179   0.602856273
Au1      0.499998022   0.500000906   0.597133493
H1       0.166667363   0.166666579   0.629463746
End final coordinates

     Writing output data file calc.save

     General routines

     Parallel routines

   This run was terminated on:   9:14:35   4May2018

   JOB DONE.
Job  /afs/slac/g/suncat/bin/suncat-tsmpirun -x LD_LIBRARY_PATH -wdir /scratch/qe920551_E74WT pw.x -npool 4 -in pw.inp

TID   HOST_NAME   COMMAND_LINE            STATUS            TERMINATION_TIME
00000 suncat0095 pw.x -npool 4 -i  Done                     05/04/2018 09:14:35
00001 suncat0095 pw.x -npool 4 -i  Done                     05/04/2018 09:14:35
00002 suncat0095 pw.x -npool 4 -i  Done                     05/04/2018 09:14:35
00003 suncat0095 pw.x -npool 4 -i  Done                     05/04/2018 09:14:35
00004 suncat0095 pw.x -npool 4 -i  Done                     05/04/2018 09:14:35
00005 suncat0095 pw.x -npool 4 -i  Done                     05/04/2018 09:14:35
00006 suncat0095 pw.x -npool 4 -i  Done                     05/04/2018 09:14:35
00007 suncat0095 pw.x -npool 4 -i  Done                     05/04/2018 09:14:35
00008 suncat0198 pw.x -npool 4 -i  Done                     05/04/2018 09:14:35
00009 suncat0198 pw.x -npool 4 -i  Done                     05/04/2018 09:14:35
00010 suncat0198 pw.x -npool 4 -i  Done                     05/04/2018 09:14:35
00011 suncat0198 pw.x -npool 4 -i  Done                     05/04/2018 09:14:35
00012 suncat0198 pw.x -npool 4 -i  Done                     05/04/2018 09:14:35
00013 suncat0198 pw.x -npool 4 -i  Done                     05/04/2018 09:14:35
00014 suncat0198 pw.x -npool 4 -i  Done                     05/04/2018 09:14:35
00015 suncat0198 pw.x -npool 4 -i  Done                     05/04/2018 09:14:35
00016 suncat0178 pw.x -npool 4 -i  Done                     05/04/2018 09:14:35
00017 suncat0178 pw.x -npool 4 -i  Done                     05/04/2018 09:14:35
00018 suncat0178 pw.x -npool 4 -i  Done                     05/04/2018 09:14:35
00019 suncat0178 pw.x -npool 4 -i  Done                     05/04/2018 09:14:35
00020 suncat0178 pw.x -npool 4 -i  Done                     05/04/2018 09:14:35
00021 suncat0178 pw.x -npool 4 -i  Done                     05/04/2018 09:14:35
00022 suncat0178 pw.x -npool 4 -i  Done                     05/04/2018 09:14:35
00023 suncat0178 pw.x -npool 4 -i  Done                     05/04/2018 09:14:35
00024 suncat0105 pw.x -npool 4 -i  Done                     05/04/2018 09:14:35
00025 suncat0105 pw.x -npool 4 -i  Done                     05/04/2018 09:14:35
00026 suncat0105 pw.x -npool 4 -i  Done                     05/04/2018 09:14:35
00027 suncat0105 pw.x -npool 4 -i  Done                     05/04/2018 09:14:35
00028 suncat0105 pw.x -npool 4 -i  Done                     05/04/2018 09:14:35
00029 suncat0105 pw.x -npool 4 -i  Done                     05/04/2018 09:14:35
00030 suncat0105 pw.x -npool 4 -i  Done                     05/04/2018 09:14:35
00031 suncat0105 pw.x -npool 4 -i  Done                     05/04/2018 09:14:35