     Program PWSCF v.5.1rc2 (svn rev. 11289) starts on 30Apr2018 at 16:36:53

     Current dimensions of program PWSCF are:
     Max number of different atomic species (ntypx) = 10
     Max number of k-points (npk) =  40000
     Max angular momentum in pseudopotentials (lmaxx) =  3
     Presently stress not available with electric field

     IMPORTANT: XC functional enforced from input :
     Exchange-correlation      = BEEF-VDW ( 1  4 27 13 2)
     Any further DFT definition will be discarded
     Please, verify this is what you really want

     Subspace diagonalization in iterative solution of the eigenvalue problem:
     a serial algorithm will be used

     bravais-lattice index     =            0
     lattice parameter (alat)  =       1.8897  a.u.
     unit-cell volume          =    4650.5773 (a.u.)^3
     number of atoms/cell      =           13
     number of atomic types    =            2
     number of electrons       =        37.00
     number of Kohn-Sham states=           28
     kinetic-energy cutoff     =      36.7493  Ry
     charge density cutoff     =     367.4932  Ry
     convergence threshold     =      1.0E-05
     mixing beta               =       0.3000
     number of iterations used =           10  plain     mixing
     Exchange-correlation      = BEEF-VDW ( 1  4 27 13 2)
     nstep                     =           50

     celldm(1)=   1.889726  celldm(2)=   0.000000  celldm(3)=   0.000000
     celldm(4)=   0.000000  celldm(5)=   0.000000  celldm(6)=   0.000000

     crystal axes: (cart. coord. in units of alat)
               a(1) = (   5.682886   0.000000   0.000000 )
               a(2) = (   2.841443   4.921524   0.000000 )
               a(3) = (   0.000000   0.000000  24.640057 )

     reciprocal axes: (cart. coord. in units 2 pi/alat)
               b(1) = (  0.175967 -0.101595  0.000000 )
               b(2) = (  0.000000  0.203189  0.000000 )
               b(3) = (  0.000000  0.000000  0.040584 )

     PseudoPot. # 1 for Al read from file:
     /u/if/mamunm/psp/gbrv1.5pbe/Al.UPF
     MD5 check sum: 0a6289f5291fc8f409219462bc851e1f
     Pseudo is Ultrasoft + core correction, Zval =  3.0
     Generated by new atomic code, or converted to UPF format
     Using radial grid of  893 points,  3 beta functions with:
                l(1) =   0
                l(2) =   1
                l(3) =   2
     Q(r) pseudized with  8 coefficients,  rinner =    0.900   0.900   0.900
                                                       0.900   0.900

     PseudoPot. # 2 for H  read from file:
     /u/if/mamunm/psp/gbrv1.5pbe/H.UPF
     MD5 check sum: 761ae9a214b05c3daf00ab9f6b793d6f
     Pseudo is Ultrasoft, Zval =  1.0
     Generated by new atomic code, or converted to UPF format
     Using radial grid of  615 points,  2 beta functions with:
                l(1) =   0
                l(2) =   0
     Q(r) pseudized with  8 coefficients,  rinner =    0.700

     vdW kernel table read from file vdW_kernel_table
     MD5 check sum: 095c7af220d748ca6e76c0b4c6cfb241

     atomic species   valence    mass     pseudopotential
        Al1            3.00    26.98154     Al( 1.00)
        H1             1.00     1.00800     H ( 1.00)

     No symmetry found

   Cartesian axes

     site n.     atom                  positions (alat units)
         1           Al1 tau(   1) = (   1.4207216   0.8202540  10.0000000  )
         2           Al1 tau(   2) = (   4.2621647   0.8202540  10.0000000  )
         3           Al1 tau(   3) = (   2.8414431   3.2810159  10.0000000  )
         4           Al1 tau(   4) = (   5.6828862   3.2810159  10.0000000  )
         5           Al1 tau(   5) = (   5.6828862   1.6405079  12.3200286  )
         6           Al1 tau(   6) = (   2.8414431   1.6405079  12.3200286  )
         7           Al1 tau(   7) = (   7.1036078   4.1012699  12.3200286  )
         8           Al1 tau(   8) = (   4.2621647   4.1012699  12.3200286  )
         9           Al1 tau(   9) = (   0.0000000   0.0000000  14.6400572  )
        10           Al1 tau(  10) = (   2.8414431   0.0000000  14.6400572  )
        11           Al1 tau(  11) = (   1.4207216   2.4607619  14.6400572  )
        12           Al1 tau(  12) = (   4.2621647   2.4607619  14.6400572  )
        13           H1  tau(  13) = (   1.4207216   0.8202540  15.6280572  )

     number of k points=    20  Fermi-Dirac smearing, width (Ry)=  0.0110
                       cart. coord. in units 2pi/alat
        k(    1) = (   0.0000000   0.0000000   0.0000000), wk =   0.0555556
        k(    2) = (   0.0000000   0.0338648   0.0000000), wk =   0.1111111
        k(    3) = (   0.0000000   0.0677297   0.0000000), wk =   0.1111111
        k(    4) = (   0.0000000  -0.1015945   0.0000000), wk =   0.0555556
        k(    5) = (   0.0293278  -0.0169324   0.0000000), wk =   0.1111111
        k(    6) = (   0.0293278   0.0169324   0.0000000), wk =   0.1111111
        k(    7) = (   0.0293278   0.0507973   0.0000000), wk =   0.1111111
        k(    8) = (   0.0293278  -0.1185270   0.0000000), wk =   0.1111111
        k(    9) = (   0.0293278  -0.0846621   0.0000000), wk =   0.1111111
        k(   10) = (   0.0293278  -0.0507973   0.0000000), wk =   0.1111111
        k(   11) = (   0.0586556  -0.0338648   0.0000000), wk =   0.1111111
        k(   12) = (   0.0586556   0.0000000   0.0000000), wk =   0.1111111
        k(   13) = (   0.0586556   0.0338648   0.0000000), wk =   0.1111111
        k(   14) = (   0.0586556  -0.1354594   0.0000000), wk =   0.1111111
        k(   15) = (   0.0586556  -0.1015945   0.0000000), wk =   0.1111111
        k(   16) = (   0.0586556  -0.0677297   0.0000000), wk =   0.1111111
        k(   17) = (  -0.0879835   0.0507973   0.0000000), wk =   0.0555556
        k(   18) = (  -0.0879835   0.0846621   0.0000000), wk =   0.1111111
        k(   19) = (  -0.0879835   0.1185270   0.0000000), wk =   0.1111111
        k(   20) = (  -0.0879835  -0.0507973   0.0000000), wk =   0.0555556

     Largest allocated arrays     est. size (Mb)     dimensions
     Largest temporary arrays     est. size (Mb)     dimensions

     Initial potential from superposition of free atoms
     Check: negative starting charge=   -0.000171

     starting charge   36.97041, renormalised to   37.00000

     negative rho (up, down):  1.714E-04 0.000E+00

     *
     * You are using vdW-DF for exchange-correlation in this calculation.
     * Please cite the following three references that made this development
     * possible:
     *
     *   M. Dion, H. Rydberg, E. Schroder, D. C. Langreth, and
     *   B. I. Lundqvist, Phys. Rev. Lett. 92, 246401 (2004).
     *
     *   T. Thonhauser, V. R. Cooper, S. Li, A. Puzder, P. Hyldgaard, and
     *   D. C. Langreth, Phys. Rev. B 76, 125112 (2007).
     *
     *   G. Roman-Perez and J. M. Soler, Phys. Rev. Lett. 103, 096102 (2009).
     *
     *
     * If you are using vdW-DF2, please also cite:
     *
     *   K. Lee, E. D. Murray, L. Kong, B. I. Lundqvist, and
     *   D. C. Langreth, Phys. Rev. B 82, 081101(R) (2010).
     *
     *
     * If you are calculating the stress with vdW-DF, please also cite:
     *
     *   R. Sabatini, E. Kucukbenli, B. Kolb, T. Thonhauser, and
     *   S. de Gironcoli, J. Phys.: Condens. Matter 24, 424209 (2012).
     *

     Carrying out vdW-DF run using the following parameters:

     Nqs =      20    Nr_points =    1024   r_max =   100.000
     q_mesh =
               0.00001000     0.04494208     0.09755937     0.15916263
               0.23128650     0.31572767     0.41458969     0.53033537
               0.66584808     0.82450364     1.01025438     1.22772762
               1.48234092     1.78043706     2.12944203     2.53805004
               3.01644009     3.57652955     4.23227104     5.00000000

     Gradients computed in reciprocal space

     Adding external electric field

     Computed dipole along edir(3) :
        Dipole               -0.0049 Ry au,         -0.0126 Debye
        Dipole field         -0.0000 Ry au

        Potential amp.        0.0012 Ry
        Total length         45.3989 bohr

     Starting wfc are   49 randomized atomic wfcs

     Self-consistent Calculation

     iteration #  1     ecut=    36.75 Ry     beta=0.30
     Davidson diagonalization with overlap
     ethr =  1.00E-02,  avg # of iterations =  3.0

[...]

     total energy              =     -83.36441446 Ry
     Harris-Foulkes estimate   =     -83.71057297 Ry
     estimated scf accuracy    <       0.83358002 Ry

[...]

     End of self-consistent calculation

          k = 0.0000 0.0000 0.0000 ( 17579 PWs)   bands (ev):

   -11.3929  -9.9296  -7.7269  -5.9757  -5.3784  -5.3784  -5.3275  -5.3274
    -5.3151  -4.9274  -4.0329  -4.0329  -3.9359  -3.6383  -3.4039  -3.4039
    -2.0753  -1.1669  -1.1669  -0.9242  -0.9242  -0.8627  -0.4721   0.8878
     1.7672   1.8194   1.8194   1.9410

[...]

          k =-0.0880 0.0508 0.0000 ( 17464 PWs)   bands (ev):

[...]

     the Fermi energy is    -0.6218 ev

!    total energy              =     -83.55366807 Ry
     Harris-Foulkes estimate   =     -83.55366956 Ry
     estimated scf accuracy    <       0.00000070 Ry

     The total energy is the sum of the following terms:

     one-electron contribution =    -646.90779707 Ry
     hartree contribution      =     330.61611906 Ry
     xc contribution           =     -53.88033583 Ry
     ewald contribution        =     286.64668344 Ry
     electric field correction =       0.00000115 Ry
     smearing contrib. (-TS)   =      -0.02833882 Ry

     convergence has been achieved in  10 iterations

 BEEF-vdW xc energy contributions
           1 :   -44.2062554196228
           2 :    37.9147306159647
           3 :   -28.2806288022177
           4 :    19.1653110790257
           5 :   -13.0428655824617
           6 :    10.0311704290987
           7 :   -8.62537902012124
           8 :    7.27830969844346
           9 :   -5.52054244924674
          10 :    3.89763442979775
          11 :   -3.07772515096191
          12 :    3.07978429158897
          13 :   -3.27938183255063
          14 :    3.03803604656844
          15 :   -2.26746875563844
          16 :    1.40936684267376
          17 :  -0.932608909278294
          18 :   0.885708701717093
          19 :  -0.918423360212110
          20 :   0.682254611978664
          21 :  -0.174078318672848
          22 :  -0.300258180378727
          23 :   0.458575240848155
          24 :  -0.316465731966680
          25 :   0.145529646345622
          26 :  -0.188990982587029
          27 :   0.432480214718503
          28 :  -0.646565273933533
          29 :   0.633366157983986
          30 :  -0.420321652631316
          31 :   -6.62752946482748
          32 :   -4.84038732536273

     Forces acting on atoms (Ry/au):

     negative rho (up, down):  3.825E-04 0.000E+00
     atom    1 type  1   force =    -0.00000043   -0.00000033    0.00416903
     atom    2 type  1   force =     0.00000047    0.00175423   -0.00114379
     atom    3 type  1   force =     0.00151951   -0.00087679   -0.00114394
     atom    4 type  1   force =    -0.00151937   -0.00087727   -0.00114385
     atom    5 type  1   force =    -0.00008887    0.00005138    0.00593570
     atom    6 type  1   force =     0.00008926    0.00005151    0.00593569
     atom    7 type  1   force =     0.00000011    0.00000031   -0.00384554
     atom    8 type  1   force =     0.00000004   -0.00010246    0.00593554
     atom    9 type  1   force =    -0.01459748   -0.00842779   -0.00240437
     atom   10 type  1   force =     0.01459697   -0.00842766   -0.00240420
     atom   11 type  1   force =    -0.00000001    0.01685521   -0.00240442
     atom   12 type  1   force =    -0.00000021   -0.00000030   -0.00321613
     atom   13 type  2   force =     0.00000002   -0.00000004   -0.00426973

     Total force =     0.029970     Total SCF correction =     0.000669

     entering subroutine stress ...

     negative rho (up, down):  3.825E-04 0.000E+00
          total   stress  (Ry/bohr**3)                   (kbar)     P=   -5.60
  -0.00004877  -0.00000000  -0.00000000         -7.17     -0.00     -0.00
  -0.00000000  -0.00004877  -0.00000000         -0.00     -7.17     -0.00
  -0.00000000  -0.00000000  -0.00001670         -0.00     -0.00     -2.46

     BFGS Geometry Optimization

     number of scf cycles    =   1
     number of bfgs steps    =   0

     energy   new            =     -83.5536680706 Ry

     new trust radius        =       0.0170263060 bohr
     new conv_thr            =       0.0000099958 Ry

ATOMIC_POSITIONS (crystal)
Al1      0.166666667   0.166666667   0.405843214    0   0   0
Al1      0.666666667   0.166666667   0.405843214    0   0   0
Al1      0.166666667   0.666666667   0.405843214    0   0   0
Al1      0.666666667   0.666666667   0.405843214    0   0   0
Al1      0.833333333   0.333333333   0.500000000    0   0   0
Al1      0.333333333   0.333333333   0.500000000    0   0   0
Al1      0.833333333   0.833333333   0.500000000    0   0   0
Al1      0.333333333   0.833333333   0.500000000    0   0   0
Al1     -0.000906193  -0.000906182   0.594105149
Al1      0.501812320  -0.000906168   0.594105153
Al1     -0.000906163   0.501812323   0.594105148
Al1      0.499999997   0.499999968   0.594087715
H1       0.166666670   0.166666663   0.634162398

     Writing output data file calc.save
     Check: negative starting charge=   -0.000171
     NEW-OLD atomic charge density approx. for the potential
     Check: negative starting charge=   -0.000172

[...]

     energy   old            =     -83.5536680706 Ry
     energy   new            =     -83.5544821203 Ry

     CASE: energy  _new < energy  _old

     WARNING: bfgs curvature condition failed, Theta= 0.988
     new trust radius        =       0.0255394590 bohr
     new conv_thr            =       0.0000001000 Ry

[...]

     Threshold (ethr) on eigenvalues was too large:
     Diagonalizing with lowered threshold

     Davidson diagonalization with overlap
     ethr =  8.63E-08,  avg # of iterations =  1.6

[...]

     number of scf cycles    =  11
     number of bfgs steps    =  10

     energy   old            =     -83.5573383960 Ry
     energy   new            =     -83.5573640151 Ry

     CASE: energy  _new < energy  _old

     new trust radius        =       0.0076008658 bohr
     new conv_thr            =       0.0000001000 Ry

ATOMIC_POSITIONS (crystal)
Al1      0.166666667   0.166666667   0.405843214    0   0   0
Al1      0.666666667   0.166666667   0.405843214    0   0   0
Al1      0.166666667   0.666666667   0.405843214    0   0   0
Al1      0.666666667   0.666666667   0.405843214    0   0   0
Al1      0.833333333   0.333333333   0.500000000    0   0   0
Al1      0.333333333   0.333333333   0.500000000    0   0   0
Al1      0.833333333   0.833333333   0.500000000    0   0   0
Al1      0.333333333   0.833333333   0.500000000    0   0   0
Al1     -0.005619304  -0.005619308   0.593210169
Al1      0.511238480  -0.005619317   0.593210170
Al1     -0.005619293   0.511238482   0.593210159
Al1      0.499999980   0.499999953   0.592339751
H1       0.166666674   0.166666643   0.628164830

     Writing output data file calc.save
     Check: negative starting charge=   -0.000174
     NEW-OLD atomic charge density approx. for the potential
     Check: negative starting charge=   -0.000174

[...]

     Self-consistent Calculation

[...]

     Threshold (ethr) on eigenvalues was too large:
     Diagonalizing with lowered threshold

     Davidson diagonalization with overlap
     ethr =  3.64E-08,  avg # of iterations =  2.4

[...]

     total energy              =     -83.55740942 Ry
     Harris-Foulkes estimate   =     -83.55740941 Ry
     estimated scf accuracy    <       0.00000015 Ry

     iteration #  6     ecut=    36.75 Ry     beta=0.30
     Davidson diagonalization with overlap
     ethr =  4.05E-10,  avg # of iterations =  2.2

[...]

     negative rho (up, down):  3.880E-04 0.000E+00

     Adding external electric field

     Computed dipole along edir(3) :
        Dipole                0.0264 Ry au,          0.0671 Debye
        Dipole field          0.0001 Ry au

        Potential amp.       -0.0065 Ry
        Total length         45.3989 bohr

     End of self-consistent calculation

[...]

          k = 0.0587-0.0677 0.0000 ( 17495 PWs)   bands (ev):

[...]

          k =-0.0880-0.0508 0.0000 ( 17464 PWs)   bands (ev):

   -10.0157  -9.8363  -8.7269  -8.1565  -7.1138  -6.8273  -6.3686  -5.4707
    -5.2671  -5.1788  -3.5966  -2.6445  -2.5468  -2.3938  -1.3706  -1.1400
    -1.0092  -0.8330  -0.0921   0.3076   0.4840   0.5584   0.7885   0.9606
     0.9881   1.0108   1.9656   2.0081

     the Fermi energy is    -0.5905 ev

!    total energy              =     -83.55740944 Ry
     Harris-Foulkes estimate   =     -83.55740946 Ry
     estimated scf accuracy    <       0.00000005 Ry

     The total energy is the sum of the following terms:

     one-electron contribution =    -651.14387086 Ry
     hartree contribution      =     332.77485297 Ry
     xc contribution           =     -53.92645176 Ry
     ewald contribution        =     288.76579822 Ry
     electric field correction =       0.00000188 Ry
     smearing contrib. (-TS)   =      -0.02773989 Ry

     convergence has been achieved in   6 iterations

 BEEF-vdW xc energy contributions
           1 :   -44.2497318245653
           2 :    37.9617386354343
           3 :   -28.3260368402182
           4 :    19.1962303327311
           5 :   -13.0500260086797
           6 :    10.0190406727619
           7 :   -8.61035471561912
           8 :    7.27705837953295
           9 :   -5.53894394857815
          10 :    3.92978954800572
          11 :   -3.11487089705953
          12 :    3.11983819535342
          13 :   -3.32758171421202
          14 :    3.09844365219728
          15 :   -2.33496334819651
          16 :    1.47112491022412
          17 :  -0.978427799167690
          18 :   0.917755989681922
          19 :  -0.950423614617797
          20 :   0.727747043764140
          21 :  -0.234318677645732
          22 :  -0.236814460215655
          23 :   0.404518423947735
          24 :  -0.273244141322934
          25 :   0.102941191379387
          26 :  -0.137338800209264
          27 :   0.375602386700450
          28 :  -0.601742990313532
          29 :   0.616494474919989
          30 :  -0.429969413777876
          31 :   -6.63116316740801
          32 :   -4.84388858060515

     Forces acting on atoms (Ry/au):

     negative rho (up, down):  3.880E-04 0.000E+00
     atom    1 type  1   force =     0.00000000   -0.00000000    0.00377659
     atom    2 type  1   force =    -0.00000000    0.00152427    0.00010181
     atom    3 type  1   force =     0.00132006   -0.00076214    0.00010181
     atom    4 type  1   force =    -0.00132006   -0.00076214    0.00010181
     atom    5 type  1   force =     0.00137697   -0.00079501    0.00319056
     atom    6 type  1   force =    -0.00137699   -0.00079502    0.00319056
     atom    7 type  1   force =    -0.00000001    0.00000000   -0.01079178
     atom    8 type  1   force =    -0.00000000    0.00159000    0.00319057
     atom    9 type  1   force =    -0.00053544   -0.00030913   -0.00168992
     atom   10 type  1   force =     0.00053547   -0.00030913   -0.00168993
     atom   11 type  1   force =     0.00000001    0.00061828   -0.00168989
     atom   12 type  1   force =     0.00000001    0.00000000    0.00184896
     atom   13 type  2   force =    -0.00000001   -0.00000000    0.00035884

     Total force =     0.003642     Total SCF correction =     0.000184

     entering subroutine stress ...

     negative rho (up, down):  3.880E-04 0.000E+00
          total   stress  (Ry/bohr**3)                   (kbar)     P=   -3.88
  -0.00003635   0.00000000   0.00000000         -5.35      0.00      0.00
   0.00000000  -0.00003635   0.00000000          0.00     -5.35      0.00
   0.00000000   0.00000000  -0.00000634          0.00      0.00     -0.93

     bfgs converged in  12 scf cycles and  11 bfgs steps
     (criteria: energy <  1.0E+00, force <  1.9E-03)

     End of BFGS Geometry Optimization

     Final energy   =     -83.5574094438 Ry
Begin final coordinates

ATOMIC_POSITIONS (crystal)
Al1      0.166666667   0.166666667   0.405843214    0   0   0
Al1      0.666666667   0.166666667   0.405843214    0   0   0
Al1      0.166666667   0.666666667   0.405843214    0   0   0
Al1      0.666666667   0.666666667   0.405843214    0   0   0
Al1      0.833333333   0.333333333   0.500000000    0   0   0
Al1      0.333333333   0.333333333   0.500000000    0   0   0
Al1      0.833333333   0.833333333   0.500000000    0   0   0
Al1      0.333333333   0.833333333   0.500000000    0   0   0
Al1     -0.005619304  -0.005619308   0.593210169
Al1      0.511238480  -0.005619317   0.593210170
Al1     -0.005619293   0.511238482   0.593210159
Al1      0.499999980   0.499999953   0.592339751
H1       0.166666674   0.166666643   0.628164830
End final coordinates

     Writing output data file calc.save

     General routines

     Parallel routines

   This run was terminated on:  17: 0: 1  30Apr2018

   JOB DONE.
Job  /afs/slac/g/suncat/bin/suncat-tsmpirun -x LD_LIBRARY_PATH -wdir /scratch/qe514356_60YA9 pw.x -npool 4 -in pw.inp

TID   HOST_NAME   COMMAND_LINE            STATUS            TERMINATION_TIME
00000 suncat0096 pw.x -npool 4 -i  Done                     04/30/2018 17:00:01
00001 suncat0096 pw.x -npool 4 -i  Done                     04/30/2018 17:00:01
00002 suncat0096 pw.x -npool 4 -i  Done                     04/30/2018 17:00:01
00003 suncat0096 pw.x -npool 4 -i  Done                     04/30/2018 17:00:01
00004 suncat0096 pw.x -npool 4 -i  Done                     04/30/2018 17:00:01
00005 suncat0096 pw.x -npool 4 -i  Done                     04/30/2018 17:00:01
00006 suncat0096 pw.x -npool 4 -i  Done                     04/30/2018 17:00:01
00007 suncat0096 pw.x -npool 4 -i  Done                     04/30/2018 17:00:01
00008 suncat0092 pw.x -npool 4 -i  Done                     04/30/2018 17:00:01
00009 suncat0092 pw.x -npool 4 -i  Done                     04/30/2018 17:00:01
00010 suncat0092 pw.x -npool 4 -i  Done                     04/30/2018 17:00:01
00011 suncat0092 pw.x -npool 4 -i  Done                     04/30/2018 17:00:01
00012 suncat0092 pw.x -npool 4 -i  Done                     04/30/2018 17:00:01
00013 suncat0092 pw.x -npool 4 -i  Done                     04/30/2018 17:00:01
00014 suncat0092 pw.x -npool 4 -i  Done                     04/30/2018 17:00:01
00015 suncat0092 pw.x -npool 4 -i  Done                     04/30/2018 17:00:01
00016 suncat0074 pw.x -npool 4 -i  Done                     04/30/2018 17:00:01
00017 suncat0074 pw.x -npool 4 -i  Done                     04/30/2018 17:00:01
00018 suncat0074 pw.x -npool 4 -i  Done                     04/30/2018 17:00:01
00019 suncat0074 pw.x -npool 4 -i  Done                     04/30/2018 17:00:01
00020 suncat0074 pw.x -npool 4 -i  Done                     04/30/2018 17:00:01
00021 suncat0074 pw.x -npool 4 -i  Done                     04/30/2018 17:00:01
00022 suncat0074 pw.x -npool 4 -i  Done                     04/30/2018 17:00:01
00023 suncat0074 pw.x -npool 4 -i  Done                     04/30/2018 17:00:01
00024 suncat0271 pw.x -npool 4 -i  Done                     04/30/2018 17:00:01
00025 suncat0271 pw.x -npool 4 -i  Done                     04/30/2018 17:00:01
00026 suncat0271 pw.x -npool 4 -i  Done                     04/30/2018 17:00:01
00027 suncat0271 pw.x -npool 4 -i  Done                     04/30/2018 17:00:01
00028 suncat0271 pw.x -npool 4 -i  Done                     04/30/2018 17:00:01
00029 suncat0271 pw.x -npool 4 -i  Done                     04/30/2018 17:00:01
00030 suncat0271 pw.x -npool 4 -i  Done                     04/30/2018 17:00:01
00031 suncat0271 pw.x -npool 4 -i  Done                     04/30/2018 17:00:01