     Program PWSCF v.5.1rc2 (svn rev. 11289) starts on  4May2018 at 10:59:37

     Current dimensions of program PWSCF are:
     Max number of different atomic species (ntypx) = 10
     Max number of k-points (npk) =  40000
     Max angular momentum in pseudopotentials (lmaxx) =  3
     Presently stress not available with electric field

     IMPORTANT: XC functional enforced from input :
     Exchange-correlation      = BEEF-VDW ( 1  4 27 13 2)
     Any further DFT definition will be discarded
     Please, verify this is what you really want

     Subspace diagonalization in iterative solution of the eigenvalue problem:
     a serial algorithm will be used

     bravais-lattice index     =            0
     lattice parameter (alat)  =       1.8897  a.u.
     unit-cell volume          =    5174.6160 (a.u.)^3
     number of atoms/cell      =           13
     number of atomic types    =            2
     number of electrons       =       234.00
     number of Kohn-Sham states=          127
     kinetic-energy cutoff     =      36.7493  Ry
     charge density cutoff     =     367.4932  Ry
     convergence threshold     =      1.0E-05
     mixing beta               =       0.3000
     number of iterations used =           10  plain     mixing
     Exchange-correlation      = BEEF-VDW ( 1  4 27 13 2)
     nstep                     =           50

     celldm(1)=   1.889726  celldm(2)=   0.000000  celldm(3)=   0.000000
     celldm(4)=   0.000000  celldm(5)=   0.000000  celldm(6)=   0.000000

     crystal axes: (cart. coord. in units of alat)
               a(1) = (   5.966546   0.000000   0.000000 )
               a(2) = (   2.983273   5.167181   0.000000 )
               a(3) = (   0.000000   0.000000  24.871665 )

     reciprocal axes: (cart. coord. in units 2 pi/alat)
               b(1) = (  0.167601 -0.096765  0.000000 )
               b(2) = (  0.000000  0.193529  0.000000 )
               b(3) = (  0.000000  0.000000  0.040206 )

     PseudoPot. # 1 for Ag read from file:
     /u/if/mamunm/psp/gbrv1.5pbe/Ag.UPF
     MD5 check sum: d66d668201baa78d5eb5b04ef7011058
     Pseudo is Ultrasoft + core correction, Zval = 19.0
     Generated by new atomic code, or converted to UPF format
     Using radial grid of  887 points,  6 beta functions with:
                l(1) =   0
                l(2) =   0
                l(3) =   1
                l(4) =   1
                l(5) =   2
                l(6) =   2
     Q(r) pseudized with  6 coefficients,  rinner =    1.300   1.300   1.300
                                                       1.300   1.300

     PseudoPot. # 2 for O  read from file:
     /u/if/mamunm/psp/gbrv1.5pbe/O.UPF
     MD5 check sum: 734c27235a0248c51dbae37a1fbe46ec
     Pseudo is Ultrasoft + core correction, Zval =  6.0
     Generated by new atomic code, or converted to UPF format
     Using radial grid of  737 points,  5 beta functions with:
                l(1) =   0
                l(2) =   0
                l(3) =   1
                l(4) =   1
                l(5) =   2
     Q(r) pseudized with  8 coefficients,  rinner =    0.900   0.900   0.900
                                                       0.900   0.900

     vdW kernel table read from file vdW_kernel_table
     MD5 check sum: 095c7af220d748ca6e76c0b4c6cfb241

     atomic species   valence    mass     pseudopotential
        Ag1           19.00   107.86820     Ag( 1.00)
        O1             6.00    15.99900     O ( 1.00)

     No symmetry found

   Cartesian axes

     site n.     atom                  positions (alat units)
         1           Ag1 tau(   1) = (   1.4916366   0.8611968  10.0000000  )
         2           Ag1 tau(   2) = (   4.4749098   0.8611968  10.0000000  )
         3           Ag1 tau(   3) = (   2.9832732   3.4447871  10.0000000  )
         4           Ag1 tau(   4) = (   5.9665464   3.4447871  10.0000000  )
         5           Ag1 tau(   5) = (   5.9665464   1.7223936  12.4358324  )
         6           Ag1 tau(   6) = (   2.9832732   1.7223936  12.4358324  )
         7           Ag1 tau(   7) = (   7.4581830   4.3059839  12.4358324  )
         8           Ag1 tau(   8) = (   4.4749098   4.3059839  12.4358324  )
         9           Ag1 tau(   9) = (   0.0000000   0.0000000  14.8716647  )
        10           Ag1 tau(  10) = (   2.9832732   0.0000000  14.8716647  )
        11           Ag1 tau(  11) = (   1.4916366   2.5835904  14.8716647  )
        12           Ag1 tau(  12) = (   4.4749098   2.5835904  14.8716647  )
        13           O1  tau(  13) = (   1.4916366   0.0000000  16.4541647  )

     number of k points=    20  Fermi-Dirac smearing, width (Ry)=  0.0110
                       cart. coord. in units 2pi/alat
        k(    1) = (   0.0000000   0.0000000   0.0000000), wk =   0.0555556
        k(    2) = (   0.0000000   0.0322549   0.0000000), wk =   0.1111111
        k(    3) = (   0.0000000   0.0645097   0.0000000), wk =   0.1111111
        k(    4) = (   0.0000000  -0.0967646   0.0000000), wk =   0.0555556
        k(    5) = (   0.0279335  -0.0161274   0.0000000), wk =   0.1111111
        k(    6) = (   0.0279335   0.0161274   0.0000000), wk =   0.1111111
        k(    7) = (   0.0279335   0.0483823   0.0000000), wk =   0.1111111
        k(    8) = (   0.0279335  -0.1128920   0.0000000), wk =   0.1111111
        k(    9) = (   0.0279335  -0.0806371   0.0000000), wk =   0.1111111
        k(   10) = (   0.0279335  -0.0483823   0.0000000), wk =   0.1111111
        k(   11) = (   0.0558670  -0.0322549   0.0000000), wk =   0.1111111
        k(   12) = (   0.0558670   0.0000000   0.0000000), wk =   0.1111111
        k(   13) = (   0.0558670   0.0322549   0.0000000), wk =   0.1111111
        k(   14) = (   0.0558670  -0.1290194   0.0000000), wk =   0.1111111
        k(   15) = (   0.0558670  -0.0967646   0.0000000), wk =   0.1111111
        k(   16) = (   0.0558670  -0.0645097   0.0000000), wk =   0.1111111
        k(   17) = (  -0.0838006   0.0483823   0.0000000), wk =   0.0555556
        k(   18) = (  -0.0838006   0.0806371   0.0000000), wk =   0.1111111
        k(   19) = (  -0.0838006   0.1128920   0.0000000), wk =   0.1111111
        k(   20) = (  -0.0838006  -0.0483823   0.0000000), wk =   0.0555556

     Largest allocated arrays     est. size (Mb)     dimensions
     Largest temporary arrays     est. size (Mb)     dimensions

     Initial potential from superposition of free atoms
     Check: negative starting charge=   -0.002312

     starting charge  227.99943, renormalised to  234.00000

     negative rho (up, down):  2.373E-03 0.000E+00

     *
     * You are using vdW-DF for exchange-correlation in this calculation.
     * Please cite the following three references that made this development
     * possible:
     *
     *   M. Dion, H. Rydberg, E. Schroder, D. C. Langreth, and
     *   B. I. Lundqvist, Phys. Rev. Lett. 92, 246401 (2004).
     *
     *   T. Thonhauser, V. R. Cooper, S. Li, A. Puzder, P. Hyldgaard, and
     *   D. C. Langreth, Phys. Rev. B 76, 125112 (2007).
     *
     *   G. Roman-Perez and J. M. Soler, Phys. Rev. Lett. 103, 096102 (2009).
     *
     *
     * If you are using vdW-DF2, please also cite:
     *
     *   K. Lee, E. D. Murray, L. Kong, B. I. Lundqvist, and
     *   D. C. Langreth, Phys. Rev. B 82, 081101(R) (2010).
     *
     *
     * If you are calculating the stress with vdW-DF, please also cite:
     *
     *   R. Sabatini, E. Kucukbenli, B. Kolb, T. Thonhauser, and
     *   S. de Gironcoli, J. Phys.: Condens. Matter 24, 424209 (2012).
     *

     Carrying out vdW-DF run using the following parameters:

     Nqs =      20    Nr_points =    1024   r_max =   100.000
     q_mesh =
               0.00001000     0.04494208     0.09755937     0.15916263
               0.23128650     0.31572767     0.41458969     0.53033537
               0.66584808     0.82450364     1.01025438     1.22772762
               1.48234092     1.78043706     2.12944203     2.53805004
               3.01644009     3.57652955     4.23227104     5.00000000

     Gradients computed in reciprocal space

     Adding external electric field

     Computed dipole along edir(3) :
        Dipole               -1.1991 Ry au,         -3.0478 Debye
        Dipole field         -0.0029 Ry au

        Potential amp.        0.2669 Ry
        Total length         45.8256 bohr

     Starting wfc are  160 randomized atomic wfcs

     Self-consistent Calculation

     iteration #  1     ecut=    36.75 Ry     beta=0.30
     Davidson diagonalization with overlap
     ethr =  1.00E-02,  avg # of iterations =  5.8

[...]

     total energy              =   -3580.74800540 Ry
     Harris-Foulkes estimate   =   -3595.53304315 Ry
     estimated scf accuracy    <      31.82509697 Ry

[...]

     End of self-consistent calculation

          k = 0.0000 0.0000 0.0000 ( 19435 PWs)   bands (ev):

   -91.4974 -91.4897 -91.4869 -91.4645 -91.3141 -91.3033 -91.2990 -91.2989
   -91.1604 -91.1429 -91.1178 -91.1147 -55.0304 -55.0263 -55.0262 -54.9912
   -54.9820 -54.9813 -54.9723 -54.9634 -54.9600 -54.9588 -54.9401 -54.9398
   -54.8530 -54.8529 -54.8469 -54.7931 -54.7929 -54.7886 -54.7874 -54.7780
   -54.7739 -54.7737 -54.7701 -54.7698 -54.7196 -54.6870 -54.6696 -54.6559
   -54.6372 -54.6234 -54.6216 -54.6101 -54.5948 -54.5844 -54.5759 -54.5678
   -15.6063  -5.8781  -5.2176  -5.2159  -5.2158  -5.1881  -5.0674  -5.0667
    -5.0622  -4.9611  -4.9578  -4.9472  -4.9343  -4.7750  -4.7638  -4.7471
    -4.2001  -4.1901  -4.1735  -4.1225  -4.0980  -4.0705  -4.0488  -4.0434
    -4.0140  -3.8753  -3.8724  -3.8640  -3.8235  -3.8182  -3.7154  -3.6810
    -3.5294  -3.2592  -3.2374  -3.1998  -3.1925  -3.1611  -3.1448  -3.1275
    -3.1148  -2.9930  -2.9646  -2.9383  -2.9158  -2.8867  -2.7923  -2.6988
    -2.6744  -2.6657  -2.6169  -2.5800  -2.5757  -2.5642  -2.5607  -2.5449
    -2.5435  -2.4043  -2.4041  -2.3989  -2.2677  -2.2429  -2.2348  -0.7329
    -0.5274  -0.2347  -0.0777   1.0923   1.1763   1.1917   1.6181   1.8450
     1.9654   2.0435   2.3175   2.6269   3.2174   4.2782   4.3845

[...]

          k =-0.0838 0.0484 0.0000 ( 19500 PWs)   bands (ev):

[...]

     the Fermi energy is     0.5472 ev

!    total energy              =   -3592.23589736 Ry
     Harris-Foulkes estimate   =   -3592.23589587 Ry
     estimated scf accuracy    <       0.00000070 Ry

     The total energy is the sum of the following terms:

     one-electron contribution =  -26256.80092672 Ry
     hartree contribution      =   13117.78486258 Ry
     xc contribution           =    -368.41700114 Ry
     ewald contribution        =    9915.22327080 Ry
     electric field correction =       0.00094440 Ry
     smearing contrib. (-TS)   =      -0.02704729 Ry

     convergence has been achieved in  16 iterations

 BEEF-vdW xc energy contributions
           1 :   -319.130213964061
           2 :    288.644154246967
           3 :   -237.914264097924
           4 :    182.369337918216
           5 :   -135.877960882297
           6 :    105.778055004080
           7 :   -91.6077980257868
           8 :    87.4157059152747
           9 :   -85.9103012223594
          10 :    82.1114633891787
          11 :   -74.8587450069136
          12 :    65.9388602644674
          13 :   -57.9236603759445
          14 :    52.2771001528782
          15 :   -48.7596367095498
          16 :    46.1078354143739
          17 :   -43.1998784976664
          18 :    39.8032477316563
          19 :   -36.4915671622558
          20 :    33.9688422347806
          21 :   -32.4141093875736
          22 :    31.3331049766042
          23 :   -29.9644814648116
          24 :    27.8750363070041
          25 :   -25.2872234608354
          26 :    22.9155100075983
          27 :   -21.4543350182813
          28 :    21.0933786362298
          29 :   -21.4008457860016
          30 :    21.6357214222019
          31 :   -31.8855482363966
          32 :   -23.1272422894140

     Forces acting on atoms (Ry/au):

     negative rho (up, down):  2.258E-03 0.000E+00
     atom    1 type  1   force =    -0.00000073    0.00010568    0.00178104
     atom    2 type  1   force =     0.00000073    0.00008344   -0.00210160
     atom    3 type  1   force =    -0.00021137   -0.00007188   -0.00014136
     atom    4 type  1   force =     0.00021131   -0.00007263   -0.00014022
     atom    5 type  1   force =    -0.00109608   -0.00011749    0.00227554
     atom    6 type  1   force =     0.00109609   -0.00011798    0.00227552
     atom    7 type  1   force =    -0.00000035    0.00218767    0.00913945
     atom    8 type  1   force =     0.00000041   -0.00050079   -0.00228348
     atom    9 type  1   force =    -0.00856826   -0.00173928    0.01107040
     atom   10 type  1   force =     0.00856820   -0.00173923    0.01106998
     atom   11 type  1   force =     0.00000001   -0.00289465    0.00445354
     atom   12 type  1   force =    -0.00000002    0.00353140    0.00335775
     atom   13 type  2   force =     0.00000005    0.00134573   -0.04075654

     Total force =     0.045966     Total SCF correction =     0.004035

     entering subroutine stress ...

     negative rho (up, down):  2.258E-03 0.000E+00
          total   stress  (Ry/bohr**3)                   (kbar)     P=   -8.56
  -0.00005261   0.00000000   0.00000000         -7.74      0.00      0.00
   0.00000000  -0.00006836  -0.00000060          0.00    -10.06     -0.09
   0.00000000  -0.00000060  -0.00005369          0.00     -0.09     -7.90

     BFGS Geometry Optimization

     number of scf cycles    =   1
     number of bfgs steps    =   0

     energy   new            =   -3592.2358973629 Ry

     new trust radius        =       0.0407787519 bohr
     new conv_thr            =       0.0000099958 Ry

ATOMIC_POSITIONS (crystal)
Ag1      0.166666667   0.166666667   0.402063960    0   0   0
Ag1      0.666666667   0.166666667   0.402063960    0   0   0
Ag1      0.166666667   0.666666667   0.402063960    0   0   0
Ag1      0.666666667   0.666666667   0.402063960    0   0   0
Ag1      0.833333333   0.333333333   0.500000000    0   0   0
Ag1      0.333333333   0.333333333   0.500000000    0   0   0
Ag1      0.833333333   0.833333333   0.500000000    0   0   0
Ag1      0.333333333   0.833333333   0.500000000    0   0   0
Ag1     -0.000670865  -0.000178121   0.598171577
Ag1      0.500848978  -0.000178116   0.598171568
Ag1      0.000148224   0.499703555   0.598030795
Ag1      0.499819171   0.500361655   0.598007481
O1       0.249931096   0.000137818   0.660695513

     Writing output data file calc.save
     Check: negative starting charge=   -0.002312
     NEW-OLD atomic charge density approx. for the potential
     Check: negative starting charge=   -0.002322

[...]

     Total force =     0.040255     Total SCF correction =     0.006255
     SCF correction compared to forces is large: reduce conv_thr to get better values

[...]

     energy   old            =   -3592.2358973629 Ry
     energy   new            =   -3592.2378658533 Ry

     CASE: energy  _new < energy  _old

     WARNING: bfgs curvature condition failed, Theta= 0.921
     new trust radius        =       0.0448566270 bohr
     new conv_thr            =       0.0000001000 Ry

[...]

     Threshold (ethr) on eigenvalues was too large:
     Diagonalizing with lowered threshold

     Davidson diagonalization with overlap
     ethr =  4.51E-08,  avg # of iterations =  1.0

[...]

     Total force =     0.005452     Total SCF correction =     0.000455

[...]

     number of scf cycles    =  46
     number of bfgs steps    =  45

     energy   old            =   -3592.2748759830 Ry
     energy   new            =   -3592.2749247731 Ry

     CASE: energy  _new < energy  _old

     new trust radius        =       0.0188155848 bohr
     new conv_thr            =       0.0000001000 Ry

ATOMIC_POSITIONS (crystal)
Ag1      0.166666667   0.166666667   0.402063960    0   0   0
Ag1      0.666666667   0.166666667   0.402063960    0   0   0
Ag1      0.166666667   0.666666667   0.402063960    0   0   0
Ag1      0.666666667   0.666666667   0.402063960    0   0   0
Ag1      0.833333333   0.333333333   0.500000000    0   0   0
Ag1      0.333333333   0.333333333   0.500000000    0   0   0
Ag1      0.833333333   0.833333333   0.500000000    0   0   0
Ag1      0.333333333   0.833333333   0.500000000    0   0   0
Ag1     -0.007711309  -0.009938065   0.598196462
Ag1      0.517649216  -0.009937953   0.598196479
Ag1     -0.007636856   0.515273785   0.598304303
Ag1      0.500171112   0.499657736   0.594492688
O1       0.167264308   0.165471575   0.644924291

     Writing output data file calc.save
     Check: negative starting charge=   -0.002438
     NEW-OLD atomic charge density approx. for the potential
     Check: negative starting charge=   -0.002443

[...]

     Self-consistent Calculation

[...]

     Threshold (ethr) on eigenvalues was too large:
     Diagonalizing with lowered threshold

     Davidson diagonalization with overlap
     ethr =  3.08E-08,  avg # of iterations =  1.0

[...]

     total energy              =   -3592.27495492 Ry
     Harris-Foulkes estimate   =   -3592.27495499 Ry
     estimated scf accuracy    <       0.00000020 Ry

     iteration #  7     ecut=    36.75 Ry     beta=0.30
     Davidson diagonalization with overlap
     ethr =  8.38E-11,  avg # of iterations =  2.0

[...]

     negative rho (up, down):  2.375E-03 0.000E+00

     Adding external electric field

     Computed dipole along edir(3) :
        Dipole               -0.3888 Ry au,         -0.9881 Debye
        Dipole field         -0.0009 Ry au

        Potential amp.        0.0865 Ry
        Total length         45.8256 bohr

     End of self-consistent calculation

[...]

          k = 0.0559-0.0645 0.0000 ( 19479 PWs)   bands (ev):

[...]

          k =-0.0838-0.0484 0.0000 ( 19500 PWs)   bands (ev):

   -91.2811 -91.2477 -91.2454 -91.2441 -91.0824 -91.0623 -91.0368 -91.0353
   -91.0333 -90.8946 -90.8895 -90.8887 -54.7933 -54.7777 -54.7765 -54.7690
   -54.7492 -54.7474 -54.7431 -54.7428 -54.7391 -54.7371 -54.7267 -54.7183
   -54.6000 -54.5872 -54.5753 -54.5711 -54.5672 -54.5563 -54.5512 -54.5437
   -54.5396 -54.5388 -54.5295 -54.5118 -54.5108 -54.5092 -54.5072 -54.4341
   -54.4204 -54.4190 -54.3992 -54.3727 -54.3599 -54.3555 -54.3491 -54.3441
   -16.1166  -4.8266  -4.7375  -4.6852  -4.5624  -4.5488  -4.5283  -4.4408
    -4.4150  -4.3538  -4.3496  -4.3026  -4.2803  -4.2495  -4.1836  -4.1266
    -4.0965  -3.9693  -3.9376  -3.9032  -3.8653  -3.8391  -3.8180  -3.7970
    -3.7514  -3.7286  -3.6744  -3.5442  -3.5430  -3.4669  -3.4541  -3.4267
    -3.3282  -3.3007  -3.2812  -3.2674  -3.2273  -3.2249  -3.1931  -3.1727
    -3.1553  -3.1228  -3.0413  -3.0046  -2.9912  -2.9721  -2.9310  -2.8949
    -2.8858  -2.8794  -2.8477  -2.8123  -2.8003  -2.6954  -2.6391  -2.6133
    -2.4881  -2.4192  -2.3767  -2.3660  -2.3276  -2.3147  -2.1943  -1.6371
    -1.2951  -0.5347  -0.5065   0.1488   0.7299   0.7723   1.4948   1.6836
     2.3849   2.7919   3.9215   4.0367   4.6817   5.1567   5.9565

     the Fermi energy is     0.8171 ev

!    total energy              =   -3592.27495493 Ry
     Harris-Foulkes estimate   =   -3592.27495492 Ry
     estimated scf accuracy    <       0.00000004 Ry

     The total energy is the sum of the following terms:

     one-electron contribution =  -26468.59389405 Ry
     hartree contribution      =   13225.30141857 Ry
     xc contribution           =    -368.53745146 Ry
     ewald contribution        =   10019.57913485 Ry
     electric field correction =       0.00036703 Ry
     smearing contrib. (-TS)   =      -0.02452987 Ry

     convergence has been achieved in   7 iterations

 BEEF-vdW xc energy contributions
           1 :   -319.269266763766
           2 :    288.866258502715
           3 :   -238.199379346078
           4 :    182.604232653485
           5 :   -135.948472008607
           6 :    105.652936739233
           7 :   -91.3605588990458
           8 :    87.1781656541896
           9 :   -85.7931183560087
          10 :    82.1434654873046
          11 :   -74.9806102025443
          12 :    66.0510966049309
          13 :   -57.9549689713886
          14 :    52.2242636863454
          15 :   -48.6757547783758
          16 :    46.0574759020363
          17 :   -43.2153482343297
          18 :    39.8674924540357
          19 :   -36.5540139343337
          20 :    33.9808517597908
          21 :   -32.3609833616753
          22 :    31.2430206341884
          23 :   -29.8894503055589
          24 :    27.8579627212544
          25 :   -25.3363531120597
          26 :    22.9996745611017
          27 :   -21.5222010608331
          28 :    21.1056273811470
          29 :   -21.3530311318474
          30 :    21.5560892938979
          31 :   -31.8961993847336
          32 :   -23.1517166243539

     Forces acting on atoms (Ry/au):

     negative rho (up, down):  2.375E-03 0.000E+00
     atom    1 type  1   force =    -0.00000000    0.00003175    0.00318839
     atom    2 type  1   force =    -0.00000000    0.00031091   -0.00122957
     atom    3 type  1   force =     0.00023692   -0.00012949   -0.00124882
     atom    4 type  1   force =    -0.00023692   -0.00012949   -0.00124882
     atom    5 type  1   force =     0.00064833   -0.00044118   -0.00242684
     atom    6 type  1   force =    -0.00064833   -0.00044119   -0.00242685
     atom    7 type  1   force =    -0.00000002   -0.00023202    0.00637459
     atom    8 type  1   force =     0.00000001    0.00072635   -0.00260882
     atom    9 type  1   force =    -0.00058984    0.00010906    0.00038576
     atom   10 type  1   force =     0.00059016    0.00010879    0.00038555
     atom   11 type  1   force =    -0.00000009    0.00128516   -0.00018311
     atom   12 type  1   force =     0.00000004   -0.00061359    0.00027377
     atom   13 type  2   force =    -0.00000027   -0.00058505    0.00076476

     Total force =     0.002020     Total SCF correction =     0.001031
     SCF correction compared to forces is large: reduce conv_thr to get better values

     entering subroutine stress ...

     negative rho (up, down):  2.375E-03 0.000E+00
          total   stress  (Ry/bohr**3)                   (kbar)     P=   -3.98
  -0.00003065  -0.00000000  -0.00000000         -4.51     -0.00     -0.00
  -0.00000000  -0.00003067   0.00000013         -0.00     -4.51      0.02
  -0.00000000   0.00000013  -0.00001975         -0.00      0.02     -2.91

     bfgs converged in  47 scf cycles and  46 bfgs steps
     (criteria: energy <  1.0E+00, force <  1.9E-03)

     End of BFGS Geometry Optimization

     Final energy   =   -3592.2749549341 Ry
Begin final coordinates

ATOMIC_POSITIONS (crystal)
Ag1      0.166666667   0.166666667   0.402063960    0   0   0
Ag1      0.666666667   0.166666667   0.402063960    0   0   0
Ag1      0.166666667   0.666666667   0.402063960    0   0   0
Ag1      0.666666667   0.666666667   0.402063960    0   0   0
Ag1      0.833333333   0.333333333   0.500000000    0   0   0
Ag1      0.333333333   0.333333333   0.500000000    0   0   0
Ag1      0.833333333   0.833333333   0.500000000    0   0   0
Ag1      0.333333333   0.833333333   0.500000000    0   0   0
Ag1     -0.007711309  -0.009938065   0.598196462
Ag1      0.517649216  -0.009937953   0.598196479
Ag1     -0.007636856   0.515273785   0.598304303
Ag1      0.500171112   0.499657736   0.594492688
O1       0.167264308   0.165471575   0.644924291
End final coordinates

     Writing output data file calc.save

     General routines

     Parallel routines

   This run was terminated on:  14:12:24   4May2018

   JOB DONE.
Job  /afs/slac/g/suncat/bin/suncat-tsmpirun -x LD_LIBRARY_PATH -wdir /scratch/qe31694_Mrtl3 pw.x -npool 3 -in pw.inp

TID   HOST_NAME   COMMAND_LINE            STATUS            TERMINATION_TIME
00000 suncat2014 pw.x -npool 3 -i  Done                     05/04/2018 14:12:24
00001 suncat2014 pw.x -npool 3 -i  Done                     05/04/2018 14:12:24
00002 suncat2014 pw.x -npool 3 -i  Done                     05/04/2018 14:12:24
00003 suncat2014 pw.x -npool 3 -i  Done                     05/04/2018 14:12:24
00004 suncat2069 pw.x -npool 3 -i  Done                     05/04/2018 14:12:24
00005 suncat2069 pw.x -npool 3 -i  Done                     05/04/2018 14:12:24
00006 suncat2069 pw.x -npool 3 -i  Done                     05/04/2018 14:12:24
00007 suncat2069 pw.x -npool 3 -i  Done                     05/04/2018 14:12:24
00008 suncat2069 pw.x -npool 3 -i  Done                     05/04/2018 14:12:24
00009 suncat2069 pw.x -npool 3 -i  Done                     05/04/2018 14:12:24
00010 suncat2069 pw.x -npool 3 -i  Done                     05/04/2018 14:12:24
00011 suncat2069 pw.x -npool 3 -i  Done                     05/04/2018 14:12:24
00012 suncat2069 pw.x -npool 3 -i  Done                     05/04/2018 14:12:24
00013 suncat2069 pw.x -npool 3 -i  Done                     05/04/2018 14:12:24
00014 suncat2069 pw.x -npool 3 -i  Done                     05/04/2018 14:12:24
00015 suncat2069 pw.x -npool 3 -i  Done                     05/04/2018 14:12:24
00016 suncat2069 pw.x -npool 3 -i  Done                     05/04/2018 14:12:24
00017 suncat2069 pw.x -npool 3 -i  Done                     05/04/2018 14:12:24
00018 suncat2069 pw.x -npool 3 -i  Done                     05/04/2018 14:12:24
00019 suncat2069 pw.x -npool 3 -i  Done                     05/04/2018 14:12:24
00020 suncat2015 pw.x -npool 3 -i  Done                     05/04/2018 14:12:24
00021 suncat2015 pw.x -npool 3 -i  Done                     05/04/2018 14:12:24
00022 suncat2015 pw.x -npool 3 -i  Done                     05/04/2018 14:12:24
00023 suncat2015 pw.x -npool 3 -i  Done                     05/04/2018 14:12:24
00024 suncat2015 pw.x -npool 3 -i  Done                     05/04/2018 14:12:24
00025 suncat2015 pw.x -npool 3 -i  Done                     05/04/2018 14:12:24
00026 suncat2015 pw.x -npool 3 -i  Done                     05/04/2018 14:12:24
00027 suncat2015 pw.x -npool 3 -i  Done                     05/04/2018 14:12:24
00028 suncat2015 pw.x -npool 3 -i  Done                     05/04/2018 14:12:24
00029 suncat2015 pw.x -npool 3 -i  Done                     05/04/2018 14:12:24
00030 suncat2015 pw.x -npool 3 -i  Done                     05/04/2018 14:12:24
00031 suncat2015 pw.x -npool 3 -i  Done                     05/04/2018 14:12:24
00032 suncat2015 pw.x -npool 3 -i  Done                     05/04/2018 14:12:24
00033 suncat2015 pw.x -npool 3 -i  Done                     05/04/2018 14:12:24
00034 suncat2015 pw.x -npool 3 -i  Done                     05/04/2018 14:12:24
00035 suncat2015 pw.x -npool 3 -i  Done                     05/04/2018 14:12:24