     Program PWSCF v.5.1rc2 (svn rev. 11289) starts on 16Apr2018 at 12:17:28

     Current dimensions of program PWSCF are:
     Max number of different atomic species (ntypx) = 10
     Max number of k-points (npk) =  40000
     Max angular momentum in pseudopotentials (lmaxx) =  3
     Presently stress not available with electric field

     IMPORTANT: XC functional enforced from input :
     Exchange-correlation      = BEEF-VDW ( 1  4 27 13 2)
     Any further DFT definition will be discarded
     Please, verify this is what you really want

     Subspace diagonalization in iterative solution of the eigenvalue problem:
     a serial algorithm will be used

     bravais-lattice index     =            0
     lattice parameter (alat)  =       1.8897  a.u.
     unit-cell volume          =    5144.9564 (a.u.)^3
     number of atoms/cell      =           15
     number of atomic types    =            3
     number of electrons       =       138.00
     number of Kohn-Sham states=           79
     kinetic-energy cutoff     =      36.7493  Ry
     charge density cutoff     =     367.4932  Ry
     convergence threshold     =      1.0E-05
     mixing beta               =       0.3000
     number of iterations used =           10  plain     mixing
     Exchange-correlation      = BEEF-VDW ( 1  4 27 13 2)
     nstep                     =           50

     celldm(1)=   1.889726  celldm(2)=   0.000000  celldm(3)=   0.000000
     celldm(4)=   0.000000  celldm(5)=   0.000000  celldm(6)=   0.000000

     crystal axes: (cart. coord. in units of alat)
               a(1) = (   5.950946   0.000000   0.000000 )
               a(2) = (   2.975473   5.153671   0.000000 )
               a(3) = (   0.000000   0.000000  24.858927 )

     reciprocal axes: (cart. coord. in units 2 pi/alat)
               b(1) = (  0.168040 -0.097018  0.000000 )
               b(2) = (  0.000000  0.194036  0.000000 )
               b(3) = (  0.000000  0.000000  0.040227 )

     PseudoPot. # 1 for Au read from file:
     /u/if/mamunm/psp/gbrv1.5pbe/Au.UPF
     MD5 check sum: 9d7f43293ad2c663164586bc4b293ffc
     Pseudo is Ultrasoft + core correction, Zval = 11.0
     Generated by new atomic code, or converted to UPF format
     Using radial grid of  985 points,  7 beta functions with:
                l(1) =   0
                l(2) =   0
                l(3) =   1
                l(4) =   1
                l(5) =   2
                l(6) =   2
                l(7) =   3
     Q(r) pseudized with  6 coefficients,  rinner =    1.900   1.900   1.900
                                                       1.900   1.900   1.900
                                                       1.900

     PseudoPot. # 2 for C  read from file:
     /u/if/mamunm/psp/gbrv1.5pbe/C.UPF
     MD5 check sum: d1aef80898a10debaa0f26306b886e00
     Pseudo is Ultrasoft + core correction, Zval =  4.0
     Generated by new atomic code, or converted to UPF format
     Using radial grid of  721 points,  4 beta functions with:
                l(1) =   0
                l(2) =   0
                l(3) =   1
                l(4) =   1
     Q(r) pseudized with  8 coefficients,  rinner =    1.100   1.100   1.100

     PseudoPot. # 3 for H  read from file:
     /u/if/mamunm/psp/gbrv1.5pbe/H.UPF
     MD5 check sum: 761ae9a214b05c3daf00ab9f6b793d6f
     Pseudo is Ultrasoft, Zval =  1.0
     Generated by new atomic code, or converted to UPF format
     Using radial grid of  615 points,  2 beta functions with:
                l(1) =   0
                l(2) =   0
     Q(r) pseudized with  8 coefficients,  rinner =    0.700

     vdW kernel table read from file vdW_kernel_table
     MD5 check sum: 095c7af220d748ca6e76c0b4c6cfb241

     atomic species   valence    mass     pseudopotential
        Au1           11.00   196.96657     Au( 1.00)
        C1             4.00    12.01100     C ( 1.00)
        H1             1.00     1.00800     H ( 1.00)

     No symmetry found

   Cartesian axes

     site n.     atom                  positions (alat units)
         1           Au1 tau(   1) = (   1.4877366   0.8589451  10.0000000  )
         2           Au1 tau(   2) = (   4.4632098   0.8589451  10.0000000  )
         3           Au1 tau(   3) = (   2.9754732   3.4357805  10.0000000  )
         4           Au1 tau(   4) = (   5.9509464   3.4357805  10.0000000  )
         5           Au1 tau(   5) = (   5.9509464   1.7178903  12.4294637  )
         6           Au1 tau(   6) = (   2.9754732   1.7178903  12.4294637  )
         7           Au1 tau(   7) = (   7.4386830   4.2947256  12.4294637  )
         8           Au1 tau(   8) = (   4.4632098   4.2947256  12.4294637  )
         9           Au1 tau(   9) = (   0.0000000   0.0000000  14.8589274  )
        10           Au1 tau(  10) = (   2.9754732   0.0000000  14.8589274  )
        11           Au1 tau(  11) = (   1.4877366   2.5768354  14.8589274  )
        12           Au1 tau(  12) = (   4.4632098   2.5768354  14.8589274  )
        13           C1  tau(  13) = (   1.4877366   0.0000000  16.4489274  )
        14           H1  tau(  14) = (   2.1177366   0.6300000  17.0789274  )
        15           H1  tau(  15) = (   3.8332098   4.5236708  17.0789274  )

     number of k points=    20  Fermi-Dirac smearing, width (Ry)=  0.0110
                       cart. coord. in units 2pi/alat
        k(    1) = (   0.0000000   0.0000000   0.0000000), wk =   0.0555556
        k(    2) = (   0.0000000   0.0323394   0.0000000), wk =   0.1111111
        k(    3) = (   0.0000000   0.0646788   0.0000000), wk =   0.1111111
        k(    4) = (   0.0000000  -0.0970182   0.0000000), wk =   0.0555556
        k(    5) = (   0.0280067  -0.0161697   0.0000000), wk =   0.1111111
        k(    6) = (   0.0280067   0.0161697   0.0000000), wk =   0.1111111
        k(    7) = (   0.0280067   0.0485091   0.0000000), wk =   0.1111111
        k(    8) = (   0.0280067  -0.1131879   0.0000000), wk =   0.1111111
        k(    9) = (   0.0280067  -0.0808485   0.0000000), wk =   0.1111111
        k(   10) = (   0.0280067  -0.0485091   0.0000000), wk =   0.1111111
        k(   11) = (   0.0560135  -0.0323394   0.0000000), wk =   0.1111111
        k(   12) = (   0.0560135   0.0000000   0.0000000), wk =   0.1111111
        k(   13) = (   0.0560135   0.0323394   0.0000000), wk =   0.1111111
        k(   14) = (   0.0560135  -0.1293576   0.0000000), wk =   0.1111111
        k(   15) = (   0.0560135  -0.0970182   0.0000000), wk =   0.1111111
        k(   16) = (   0.0560135  -0.0646788   0.0000000), wk =   0.1111111
        k(   17) = (  -0.0840202   0.0485091   0.0000000), wk =   0.0555556
        k(   18) = (  -0.0840202   0.0808485   0.0000000), wk =   0.1111111
        k(   19) = (  -0.0840202   0.1131879   0.0000000), wk =   0.1111111
        k(   20) = (  -0.0840202  -0.0485091   0.0000000), wk =   0.0555556

     Largest allocated arrays     est. size (Mb)     dimensions
     Largest temporary arrays     est. size (Mb)     dimensions

     Check: negative/imaginary core charge=   -0.000002    0.000000

     Initial potential from superposition of free atoms
     Check: negative starting charge=   -0.000110

     starting charge  137.99847, renormalised to  138.00000

     negative rho (up, down):  1.098E-04 0.000E+00

     *
     * You are using vdW-DF for exchange-correlation in this calculation.
     * Please cite the following three references that made this development
     * possible:
     *
     *   M. Dion, H. Rydberg, E. Schroder, D. C. Langreth, and
     *   B. I. Lundqvist, Phys. Rev. Lett. 92, 246401 (2004).
     *
     *   T. Thonhauser, V. R. Cooper, S. Li, A. Puzder, P. Hyldgaard, and
     *   D. C. Langreth, Phys. Rev. B 76, 125112 (2007).
     *
     *   G. Roman-Perez and J. M. Soler, Phys. Rev. Lett. 103, 096102 (2009).
     *
     *
     * If you are using vdW-DF2, please also cite:
     *
     *   K. Lee, E. D. Murray, L. Kong, B. I. Lundqvist, and
     *   D. C. Langreth, Phys. Rev. B 82, 081101(R) (2010).
     *
     *
     * If you are calculating the stress with vdW-DF, please also cite:
     *
     *   R. Sabatini, E. Kucukbenli, B. Kolb, T. Thonhauser, and
     *   S. de Gironcoli, J. Phys.: Condens. Matter 24, 424209 (2012).
     *

     Carrying out vdW-DF run using the following parameters:

     Nqs =      20    Nr_points =    1024   r_max =   100.000
     q_mesh =
               0.00001000     0.04494208     0.09755937     0.15916263
               0.23128650     0.31572767     0.41458969     0.53033537
               0.66584808     0.82450364     1.01025438     1.22772762
               1.48234092     1.78043706     2.12944203     2.53805004
               3.01644009     3.57652955     4.23227104     5.00000000

     Gradients computed in reciprocal space

     Adding external electric field

     Computed dipole along edir(3) :
        Dipole               -0.0001 Ry au,         -0.0002 Debye
        Dipole field         -0.0000 Ry au

        Potential amp.        0.0000 Ry
        Total length         45.8022 bohr

     Starting wfc are  114 randomized atomic wfcs

     Self-consistent Calculation

     iteration #  1     ecut=    36.75 Ry     beta=0.30
     Davidson diagonalization with overlap
     ethr =  1.00E-02,  avg # of iterations =  2.4

[...]

     total energy              =   -1413.79916573 Ry
     Harris-Foulkes estimate   =   -1414.62919306 Ry
     estimated scf accuracy    <       1.92041627 Ry

[...]

     End of self-consistent calculation

          k = 0.0000 0.0000 0.0000 ( 19315 PWs)   bands (ev):

   -11.9046  -7.5100  -6.3490  -6.3256  -5.8129  -5.6396  -5.5092  -5.4681
    -5.4101  -5.3508  -5.2275  -5.1276  -5.0363  -5.0134  -4.9287  -4.8994
    -4.8447  -4.3853  -4.0731  -3.9422  -3.7997  -3.7579  -3.7344  -3.6723
    -3.6091  -3.6006  -3.5178  -3.5052  -3.3599  -3.3399  -3.3185  -3.2718
    -3.2405  -3.2357  -2.9433  -2.8386  -2.7068  -2.6446  -2.5896  -2.4855
    -2.3878  -2.3443  -2.2456  -2.1412  -2.0586  -2.0285  -1.9800  -1.7051
    -1.6658  -1.6632  -1.6359  -1.5702  -1.5389  -1.5310  -1.4810  -1.4341
    -1.3872  -1.3666  -1.3296  -1.2627  -1.1918  -1.1730  -1.0820  -1.0767
    -1.0729  -0.1403   0.2698   1.0717   1.1976   1.2699   1.4981   1.7873
     1.9671   2.0432   2.1066   2.3233   2.9662   3.7219   3.9291

[...]

          k =-0.0840 0.0485 0.0000 ( 19380 PWs)   bands (ev):

[...]

     the Fermi energy is     0.5762 ev

!    total energy              =   -1414.33886392 Ry
     Harris-Foulkes estimate   =   -1414.33887812 Ry
     estimated scf accuracy    <       0.00000642 Ry

     The total energy is the sum of the following terms:

     one-electron contribution =   -8283.34064661 Ry
     hartree contribution      =    4241.10246324 Ry
     xc contribution           =    -773.31116959 Ry
     ewald contribution        =    3401.23562187 Ry
     electric field correction =       0.00011149 Ry
     smearing contrib. (-TS)   =      -0.02524431 Ry

     convergence has been achieved in  10 iterations

 BEEF-vdW xc energy contributions
           1 :   -691.049146243245
           2 :    642.257374206105
           3 :   -555.058421294078
           4 :    446.395628372113
           5 :   -334.513359986853
           6 :    234.283642218580
           7 :   -154.409573986238
           8 :    96.9683788542295
           9 :   -59.0154427464058
          10 :    35.2454457036297
          11 :   -20.5095873926816
          12 :    11.2626437644760
          13 :   -5.70678272741407
          14 :    3.02556613378772
          15 :   -2.43906834456959
          16 :    2.68762045776555
          17 :   -2.18529607878554
          18 :  -0.353748780113619
          19 :    5.25474271337885
          20 :   -11.6273689219418
          21 :    17.6996998794114
          22 :   -21.6017095280972
          23 :    22.2020063600272
          24 :   -19.5870517932491
          25 :    14.9615627537873
          26 :   -10.0542786016722
          27 :    6.34706269206026
          28 :   -4.51301161694755
          29 :    4.30547261904826
          30 :   -4.89854083481055
          31 :   -54.8050506326387
          32 :   -39.9374173221369

     Forces acting on atoms (Ry/au):

     negative rho (up, down):  2.643E-04 0.000E+00
     atom    1 type  1   force =    -0.00085759   -0.00088379   -0.00335428
     atom    2 type  1   force =     0.00077276   -0.00031644   -0.00704317
     atom    3 type  1   force =    -0.00004286    0.00091589   -0.00499421
     atom    4 type  1   force =     0.00026498    0.00042277   -0.00420277
     atom    5 type  1   force =    -0.00068937    0.00056427   -0.00370380
     atom    6 type  1   force =     0.00118776   -0.00040798    0.00323208
     atom    7 type  1   force =     0.00121520    0.00515940    0.01169601
     atom    8 type  1   force =    -0.00068813   -0.00144208   -0.00727042
     atom    9 type  1   force =    -0.01185835    0.01840469    0.00778521
     atom   10 type  1   force =     0.01081248   -0.02537898    0.00865967
     atom   11 type  1   force =    -0.00359183    0.00926876   -0.00030157
     atom   12 type  1   force =     0.00377420   -0.00837034   -0.00312340
     atom   13 type  2   force =     0.00011243    0.00176830   -0.00076148
     atom   14 type  3   force =    -0.01755399    0.01698488    0.00167541
     atom   15 type  3   force =     0.01714231   -0.01668936    0.00170672

     Total force =     0.052415     Total SCF correction =     0.009349
     SCF correction compared to forces is large: reduce conv_thr to get better values

     entering subroutine stress ...

     negative rho (up, down):  2.643E-04 0.000E+00
          total   stress  (Ry/bohr**3)                   (kbar)     P=   -7.35
  -0.00010257  -0.00001271  -0.00000144        -15.09     -1.87     -0.21
  -0.00001271  -0.00007257  -0.00000242         -1.87    -10.67     -0.36
  -0.00000144  -0.00000242   0.00002522         -0.21     -0.36      3.71

     BFGS Geometry Optimization

     number of scf cycles    =   1
     number of bfgs steps    =   0

     energy   new            =   -1414.3388639216 Ry

     new trust radius        =       0.0289135290 bohr
     new conv_thr            =       0.0000099958 Ry

ATOMIC_POSITIONS (crystal)
Au1      0.166666667   0.166666667   0.402269971    0   0   0
Au1      0.666666667   0.166666667   0.402269971    0   0   0
Au1      0.166666667   0.666666667   0.402269971    0   0   0
Au1      0.666666667   0.666666667   0.402269971    0   0   0
Au1      0.833333333   0.333333333   0.500000000    0   0   0
Au1      0.333333333   0.333333333   0.500000000    0   0   0
Au1      0.833333333   0.833333333   0.500000000    0   0   0
Au1      0.333333333   0.833333333   0.500000000    0   0   0
Au1     -0.001999376   0.001889787   0.597895754
Au1      0.502264433  -0.002605905   0.597914369
Au1     -0.000795254   0.500951714   0.597723610
Au1      0.500765346   0.499140536   0.597663541
C1       0.249919213   0.000181569   0.661674745
H1       0.292311073   0.123986968   0.687069627
H1       0.207637147   0.876043376   0.687070294

     Writing output data file calc.save
     Check: negative starting charge=   -0.000110
     NEW-OLD atomic charge density approx. for the potential

     Check: negative/imaginary core charge=   -0.000002    0.000000
     Check: negative starting charge=   -0.000110

[...]

     energy   old            =   -1414.3388639216 Ry
     energy   new            =   -1414.3415427231 Ry

     CASE: energy  _new < energy  _old

     WARNING: bfgs curvature condition failed, Theta= 0.851
     new trust radius        =       0.0433702934 bohr
     new conv_thr            =       0.0000001000 Ry

[...]

     Total force =     0.046005     Total SCF correction =     0.000179

[...]

     Threshold (ethr) on eigenvalues was too large:
     Diagonalizing with lowered threshold

     Davidson diagonalization with overlap
     ethr =  8.99E-08,  avg # of iterations =  1.0

[...]

     Total force =     0.005614     Total SCF correction =     0.000557

[...]

     number of scf cycles    =  21
     number of bfgs steps    =  20

     energy   old            =   -1414.3897371235 Ry
     energy   new            =   -1414.3897952463 Ry

     CASE: energy  _new < energy  _old

     new trust radius        =       0.0144350850 bohr
     new conv_thr            =       0.0000001000 Ry

ATOMIC_POSITIONS (crystal)
Au1      0.166666667   0.166666667   0.402269971    0   0   0
Au1      0.666666667   0.166666667   0.402269971    0   0   0
Au1      0.166666667   0.666666667   0.402269971    0   0   0
Au1      0.666666667   0.666666667   0.402269971    0   0   0
Au1      0.833333333   0.333333333   0.500000000    0   0   0
Au1      0.333333333   0.333333333   0.500000000    0   0   0
Au1      0.833333333   0.833333333   0.500000000    0   0   0
Au1      0.333333333   0.833333333   0.500000000    0   0   0
Au1      0.003439339  -0.012131619   0.606195845
Au1      0.513897650  -0.013237682   0.606902653
Au1      0.000924825   0.504129283   0.594225717
Au1      0.511669873   0.478523091   0.594029717
C1       0.250769705   0.000244499   0.665601800
H1       0.161096299   0.178080214   0.689144516
H1       0.336232688   0.828228749   0.690973918

     Writing output data file calc.save
     Check: negative starting charge=   -0.000108
     NEW-OLD atomic charge density approx. for the potential

     Check: negative/imaginary core charge=   -0.000002    0.000000
     Check: negative starting charge=   -0.000108

[...]

     Self-consistent Calculation

[...]

     Threshold (ethr) on eigenvalues was too large:
     Diagonalizing with lowered threshold

     Davidson diagonalization with overlap
     ethr =  9.60E-09,  avg # of iterations =  2.0

[...]

     total energy              =   -1414.38985585 Ry
     Harris-Foulkes estimate   =   -1414.38985618 Ry
     estimated scf accuracy    <       0.00000076 Ry

     iteration #  6     ecut=    36.75 Ry     beta=0.30
     Davidson diagonalization with overlap
     ethr =  5.48E-10,  avg # of iterations =  2.1

[...]

     negative rho (up, down):  2.658E-04 0.000E+00

     Adding external electric field

     Computed dipole along edir(3) :
        Dipole                0.1726 Ry au,          0.4388 Debye
        Dipole field          0.0004 Ry au

        Potential amp.       -0.0386 Ry
        Total length         45.8022 bohr

     End of self-consistent calculation

[...]

          k = 0.0560-0.0647 0.0000 ( 19376 PWs)   bands (ev):

[...]

          k =-0.0840-0.0485 0.0000 ( 19380 PWs)   bands (ev):

   -11.7863  -6.2035  -6.0235  -5.8813  -5.3167  -5.1220  -4.9789  -4.9428
    -4.8390  -4.8211  -4.7470  -4.7207  -4.7098  -4.4506  -4.4302  -4.3948
    -4.3202  -4.2247  -4.1295  -4.0607  -4.0138  -3.9698  -3.8989  -3.8609
    -3.8144  -3.7812  -3.6520  -3.5427  -3.4931  -3.4214  -3.3197  -3.2944
    -3.2452  -3.2287  -3.1975  -3.1349  -3.0791  -3.0604  -3.0065  -2.9880
    -2.9714  -2.8209  -2.8013  -2.7502  -2.7137  -2.6276  -2.6236  -2.5639
    -2.5070  -2.4613  -2.4154  -2.3413  -2.3047  -2.2874  -2.1599  -2.1259
    -2.0580  -1.9691  -1.8524  -1.7523  -1.6195  -1.6014  -1.5752  -1.5607
    -1.3947  -1.3547  -0.3891   0.0117   0.4744   0.5255   1.1915   1.4153
     1.8429   2.6428   3.6670   3.7605   4.4701   4.7358   5.3095

     the Fermi energy is     0.5126 ev

!    total energy              =   -1414.38985594 Ry
     Harris-Foulkes estimate   =   -1414.38985587 Ry
     estimated scf accuracy    <       0.00000009 Ry

     The total energy is the sum of the following terms:

     one-electron contribution =   -8190.76787161 Ry
     hartree contribution      =    4194.61134393 Ry
     xc contribution           =    -773.29158467 Ry
     ewald contribution        =    3355.08468275 Ry
     electric field correction =       0.00007280 Ry
     smearing contrib. (-TS)   =      -0.02649913 Ry

     convergence has been achieved in   6 iterations

 BEEF-vdW xc energy contributions
           1 :   -691.020794000645
           2 :    642.177152874081
           3 :   -554.916575411027
           4 :    446.227455675719
           5 :   -334.371178675148
           6 :    234.203265959677
           7 :   -154.389846359413
           8 :    96.9748972526709
           9 :   -59.0047649050865
          10 :    35.1944802122123
          11 :   -20.4326143471570
          12 :    11.2046875065115
          13 :   -5.71451495504130
          14 :    3.11347972212002
          15 :   -2.57324110958962
          16 :    2.79928786854475
          17 :   -2.20858393037179
          18 :  -0.441438623073736
          19 :    5.41461013431342
          20 :   -11.7758661629877
          21 :    17.7532307018000
          22 :   -21.5238468230561
          23 :    22.0254217659090
          24 :   -19.3963051299789
          25 :    14.8456756802238
          26 :   -10.0559347672977
          27 :    6.43835191364496
          28 :   -4.61284504826051
          29 :    4.32909124882519
          30 :   -4.80927601348117
          31 :   -54.8030254477999
          32 :   -39.9209496644858

     Forces acting on atoms (Ry/au):

     negative rho (up, down):  2.658E-04 0.000E+00
     atom    1 type  1   force =    -0.00004456   -0.00046029   -0.00114848
     atom    2 type  1   force =    -0.00003512   -0.00076293   -0.00513240
     atom    3 type  1   force =    -0.00078162    0.00085626   -0.00604748
     atom    4 type  1   force =     0.00075893    0.00082406   -0.00577557
     atom    5 type  1   force =     0.00185951   -0.00795756   -0.00156610
     atom    6 type  1   force =    -0.00128775   -0.00842383   -0.00226751
     atom    7 type  1   force =    -0.00009886    0.01275419    0.01443736
     atom    8 type  1   force =     0.00030468    0.00460999    0.00493666
     atom    9 type  1   force =    -0.00139217   -0.00038029    0.00004701
     atom   10 type  1   force =     0.00085626   -0.00079408   -0.00004748
     atom   11 type  1   force =    -0.00144870    0.00036564    0.00134508
     atom   12 type  1   force =     0.00102878   -0.00081311    0.00092902
     atom   13 type  2   force =     0.00020695    0.00024306   -0.00185326
     atom   14 type  3   force =     0.00020837    0.00071464    0.00099054
     atom   15 type  3   force =    -0.00013469   -0.00077577    0.00115262

     Total force =     0.004135     Total SCF correction =     0.000560
     SCF correction compared to forces is large: reduce conv_thr to get better values

     entering subroutine stress ...

     negative rho (up, down):  2.658E-04 0.000E+00
          total   stress  (Ry/bohr**3)                   (kbar)     P=   -7.60
  -0.00009533  -0.00000009  -0.00000049        -14.02     -0.01     -0.07
  -0.00000009  -0.00007688  -0.00000164         -0.01    -11.31     -0.24
  -0.00000049  -0.00000164   0.00001714         -0.07     -0.24      2.52

     bfgs converged in  22 scf cycles and  21 bfgs steps
     (criteria: energy <  1.0E+00, force <  1.9E-03)

     End of BFGS Geometry Optimization

     Final energy   =   -1414.3898559392 Ry
Begin final coordinates

ATOMIC_POSITIONS (crystal)
Au1      0.166666667   0.166666667   0.402269971    0   0   0
Au1      0.666666667   0.166666667   0.402269971    0   0   0
Au1      0.166666667   0.666666667   0.402269971    0   0   0
Au1      0.666666667   0.666666667   0.402269971    0   0   0
Au1      0.833333333   0.333333333   0.500000000    0   0   0
Au1      0.333333333   0.333333333   0.500000000    0   0   0
Au1      0.833333333   0.833333333   0.500000000    0   0   0
Au1      0.333333333   0.833333333   0.500000000    0   0   0
Au1      0.003439339  -0.012131619   0.606195845
Au1      0.513897650  -0.013237682   0.606902653
Au1      0.000924825   0.504129283   0.594225717
Au1      0.511669873   0.478523091   0.594029717
C1       0.250769705   0.000244499   0.665601800
H1       0.161096299   0.178080214   0.689144516
H1       0.336232688   0.828228749   0.690973918
End final coordinates

     Writing output data file calc.save

     General routines

     Parallel routines

   This run was terminated on:  15: 3:52  16Apr2018

   JOB DONE.
Job  /afs/slac/g/suncat/bin/suncat-tsmpirun -x LD_LIBRARY_PATH -wdir /scratch/qe125030_T6GpV pw.x -npool 4 -in pw.inp

TID   HOST_NAME   COMMAND_LINE            STATUS            TERMINATION_TIME
00000 suncat0005 pw.x -npool 4 -i  Done                     04/16/2018 15:03:52
00001 suncat0005 pw.x -npool 4 -i  Done                     04/16/2018 15:03:52
00002 suncat0005 pw.x -npool 4 -i  Done                     04/16/2018 15:03:52
00003 suncat0005 pw.x -npool 4 -i  Done                     04/16/2018 15:03:52
00004 suncat0005 pw.x -npool 4 -i  Done                     04/16/2018 15:03:52
00005 suncat0005 pw.x -npool 4 -i  Done                     04/16/2018 15:03:52
00006 suncat0005 pw.x -npool 4 -i  Done                     04/16/2018 15:03:52
00007 suncat0005 pw.x -npool 4 -i  Done                     04/16/2018 15:03:52
00008 suncat0188 pw.x -npool 4 -i  Done                     04/16/2018 15:03:52
00009 suncat0188 pw.x -npool 4 -i  Done                     04/16/2018 15:03:52
00010 suncat0188 pw.x -npool 4 -i  Done                     04/16/2018 15:03:52
00011 suncat0188 pw.x -npool 4 -i  Done                     04/16/2018 15:03:52
00012 suncat0188 pw.x -npool 4 -i  Done                     04/16/2018 15:03:52
00013 suncat0188 pw.x -npool 4 -i  Done                     04/16/2018 15:03:52
00014 suncat0188 pw.x -npool 4 -i  Done                     04/16/2018 15:03:52
00015 suncat0188 pw.x -npool 4 -i  Done                     04/16/2018 15:03:52
00016 suncat0169 pw.x -npool 4 -i  Done                     04/16/2018 15:03:52
00017 suncat0169 pw.x -npool 4 -i  Done                     04/16/2018 15:03:52
00018 suncat0169 pw.x -npool 4 -i  Done                     04/16/2018 15:03:52
00019 suncat0169 pw.x -npool 4 -i  Done                     04/16/2018 15:03:52
00020 suncat0169 pw.x -npool 4 -i  Done                     04/16/2018 15:03:52
00021 suncat0169 pw.x -npool 4 -i  Done                     04/16/2018 15:03:52
00022 suncat0169 pw.x -npool 4 -i  Done                     04/16/2018 15:03:52
00023 suncat0169 pw.x -npool 4 -i  Done                     04/16/2018 15:03:52
00024 suncat0148 pw.x -npool 4 -i  Done                     04/16/2018 15:03:52
00025 suncat0148 pw.x -npool 4 -i  Done                     04/16/2018 15:03:52
00026 suncat0148 pw.x -npool 4 -i  Done                     04/16/2018 15:03:52
00027 suncat0148 pw.x -npool 4 -i  Done                     04/16/2018 15:03:52
00028 suncat0148 pw.x -npool 4 -i  Done                     04/16/2018 15:03:52
00029 suncat0148 pw.x -npool 4 -i  Done                     04/16/2018 15:03:52
00030 suncat0148 pw.x -npool 4 -i  Done                     04/16/2018 15:03:52
00031 suncat0148 pw.x -npool 4 -i  Done                     04/16/2018 15:03:52