     Program PWSCF v.5.1rc2 (svn rev. 11289) starts on  3May2018 at 12:20:29

     Current dimensions of program PWSCF are:
     Max number of different atomic species (ntypx) = 10
     Max number of k-points (npk) =  40000
     Max angular momentum in pseudopotentials (lmaxx) =  3
     Presently stress not available with electric field

     IMPORTANT: XC functional enforced from input :
     Exchange-correlation      = BEEF-VDW ( 1  4 27 13 2)
     Any further DFT definition will be discarded
     Please, verify this is what you really want

     Subspace diagonalization in iterative solution of the eigenvalue problem:
     a serial algorithm will be used

     bravais-lattice index     =            0
     lattice parameter (alat)  =       1.8897  a.u.
     unit-cell volume          =    8507.0471 (a.u.)^3
     number of atoms/cell      =           13
     number of atomic types    =            2
     number of electrons       =       138.00
     number of Kohn-Sham states=           79
     kinetic-energy cutoff     =      36.7493  Ry
     charge density cutoff     =     367.4932  Ry
     convergence threshold     =      1.0E-05
     mixing beta               =       0.3000
     number of iterations used =           10  plain     mixing
     Exchange-correlation      = BEEF-VDW ( 1  4 27 13 2)
     nstep                     =           50

     celldm(1)=   1.889726  celldm(2)=   0.000000  celldm(3)=   0.000000
     celldm(4)=   0.000000  celldm(5)=   0.000000  celldm(6)=   0.000000

     crystal axes: (cart. coord. in units of alat)
               a(1) = (   7.468327   0.000000   0.000000 )
               a(2) = (   3.734164   6.467761   0.000000 )
               a(3) = (   0.000000   0.000000  26.097863 )

     reciprocal axes: (cart. coord. in units 2 pi/alat)
               b(1) = (  0.133899 -0.077307  0.000000 )
               b(2) = (  0.000000  0.154613  0.000000 )
               b(3) = (  0.000000  0.000000  0.038317 )

     PseudoPot. # 1 for La read from file:
     /u/if/mamunm/psp/gbrv1.5pbe/La.UPF
     MD5 check sum: 5937b0c7494ba0601a847275249473aa
     Pseudo is Ultrasoft + core correction, Zval = 11.0
     Generated by new atomic code, or converted to UPF format
     Using radial grid of  995 points,  8 beta functions with:
                l(1) =   0
                l(2) =   0
                l(3) =   1
                l(4) =   1
                l(5) =   2
                l(6) =   2
                l(7) =   3
                l(8) =   3
     Q(r) pseudized with  8 coefficients,  rinner =    1.700   1.700   1.700
                                                       1.700   1.700   1.700
                                                       1.700

     PseudoPot. # 2 for S  read from file:
     /u/if/mamunm/psp/gbrv1.5pbe/S.UPF
     MD5 check sum: 88d86576ff6df21479756cfb9bdac1df
     Pseudo is Ultrasoft + core correction, Zval =  6.0
     Generated by new atomic code, or converted to UPF format
     Using radial grid of  907 points,  6 beta functions with:
                l(1) =   0
                l(2) =   0
                l(3) =   1
                l(4) =   1
                l(5) =   2
                l(6) =   2
     Q(r) pseudized with  8 coefficients,  rinner =    1.300   1.300   1.300
                                                       1.300   1.300

     vdW kernel table read from file vdW_kernel_table
     MD5 check sum: 095c7af220d748ca6e76c0b4c6cfb241

     atomic species   valence    mass     pseudopotential
        La1           11.00   138.90547     La( 1.00)
        S1             6.00    32.06000     S ( 1.00)

     No symmetry found

   Cartesian axes

     site n.     atom                  positions (alat units)
         1           La1 tau(   1) = (   1.8670818   1.0779602  10.0000000  )
         2           La1 tau(   2) = (   5.6012453   1.0779602  10.0000000  )
         3           La1 tau(   3) = (   3.7341635   4.3118406  10.0000000  )
         4           La1 tau(   4) = (   7.4683270   4.3118406  10.0000000  )
         5           La1 tau(   5) = (   7.4683270   2.1559203  13.0489317  )
         6           La1 tau(   6) = (   3.7341635   2.1559203  13.0489317  )
         7           La1 tau(   7) = (   9.3354088   5.3898008  13.0489317  )
         8           La1 tau(   8) = (   5.6012453   5.3898008  13.0489317  )
         9           La1 tau(   9) = (   0.0000000   0.0000000  16.0978635  )
        10           La1 tau(  10) = (   3.7341635   0.0000000  16.0978635  )
        11           La1 tau(  11) = (   1.8670818   3.2338805  16.0978635  )
        12           La1 tau(  12) = (   5.6012453   3.2338805  16.0978635  )
        13           S1  tau(  13) = (   1.8670818   1.0779602  18.1258635  )

     number of k points=    20  Fermi-Dirac smearing, width (Ry)=  0.0110
                       cart. coord. in units 2pi/alat
        k(    1) = (   0.0000000   0.0000000   0.0000000), wk =   0.0555556
        k(    2) = (   0.0000000   0.0257688   0.0000000), wk =   0.1111111
        k(    3) = (   0.0000000   0.0515377   0.0000000), wk =   0.1111111
        k(    4) = (   0.0000000  -0.0773065   0.0000000), wk =   0.0555556
        k(    5) = (   0.0223165  -0.0128844   0.0000000), wk =   0.1111111
        k(    6) = (   0.0223165   0.0128844   0.0000000), wk =   0.1111111
        k(    7) = (   0.0223165   0.0386533   0.0000000), wk =   0.1111111
        k(    8) = (   0.0223165  -0.0901909   0.0000000), wk =   0.1111111
        k(    9) = (   0.0223165  -0.0644221   0.0000000), wk =   0.1111111
        k(   10) = (   0.0223165  -0.0386533   0.0000000), wk =   0.1111111
        k(   11) = (   0.0446329  -0.0257688   0.0000000), wk =   0.1111111
        k(   12) = (   0.0446329   0.0000000   0.0000000), wk =   0.1111111
        k(   13) = (   0.0446329   0.0257688   0.0000000), wk =   0.1111111
        k(   14) = (   0.0446329  -0.1030753   0.0000000), wk =   0.1111111
        k(   15) = (   0.0446329  -0.0773065   0.0000000), wk =   0.1111111
        k(   16) = (   0.0446329  -0.0515377   0.0000000), wk =   0.1111111
        k(   17) = (  -0.0669494   0.0386533   0.0000000), wk =   0.0555556
        k(   18) = (  -0.0669494   0.0644221   0.0000000), wk =   0.1111111
        k(   19) = (  -0.0669494   0.0901909   0.0000000), wk =   0.1111111
        k(   20) = (  -0.0669494  -0.0386533   0.0000000), wk =   0.0555556

     Largest allocated arrays     est. size (Mb)     dimensions
     Largest temporary arrays     est. size (Mb)     dimensions

     Initial potential from superposition of free atoms
     Check: negative starting charge=   -0.831031

     starting charge  137.61514, renormalised to  138.00000

     negative rho (up, down):  8.334E-01 0.000E+00

     *
     * You are using vdW-DF for exchange-correlation in this calculation.
     * Please cite the following three references that made this development
     * possible:
     *
     *   M. Dion, H. Rydberg, E. Schroder, D. C. Langreth, and
     *   B. I. Lundqvist, Phys. Rev. Lett. 92, 246401 (2004).
     *
     *   T. Thonhauser, V. R. Cooper, S. Li, A. Puzder, P. Hyldgaard, and
     *   D. C. Langreth, Phys. Rev. B 76, 125112 (2007).
     *
     *   G. Roman-Perez and J. M. Soler, Phys. Rev. Lett. 103, 096102 (2009).
     *
     *
     * If you are using vdW-DF2, please also cite:
     *
     *   K. Lee, E. D. Murray, L. Kong, B. I. Lundqvist, and
     *   D. C. Langreth, Phys. Rev. B 82, 081101(R) (2010).
     *
     *
     * If you are calculating the stress with vdW-DF, please also cite:
     *
     *   R. Sabatini, E. Kucukbenli, B. Kolb, T. Thonhauser, and
     *   S. de Gironcoli, J. Phys.: Condens. Matter 24, 424209 (2012).
     *

     Carrying out vdW-DF run using the following parameters:

     Nqs =      20    Nr_points =    1024   r_max =   100.000
     q_mesh =
               0.00001000     0.04494208     0.09755937     0.15916263
               0.23128650     0.31572767     0.41458969     0.53033537
               0.66584808     0.82450364     1.01025438     1.22772762
               1.48234092     1.78043706     2.12944203     2.53805004
               3.01644009     3.57652955     4.23227104     5.00000000

     Gradients computed in reciprocal space

     Adding external electric field

     Computed dipole along edir(3) :
        Dipole               -0.1606 Ry au,         -0.4083 Debye
        Dipole field         -0.0002 Ry au

        Potential amp.        0.0228 Ry
        Total length         48.0849 bohr

     Starting wfc are  244 randomized atomic wfcs

     Self-consistent Calculation

     iteration #  1     ecut=    36.75 Ry     beta=0.30
     Davidson diagonalization with overlap
     ethr =  1.00E-02,  avg # of iterations =  2.0

[...]

     total energy              =   -1270.23960769 Ry
     Harris-Foulkes estimate   =   -1273.51654303 Ry
     estimated scf accuracy    <       6.85874517 Ry

[...]

     iteration # 14     ecut=    36.75 Ry     beta=0.30
     Davidson diagonalization with overlap
     c_bands:  1 eigenvalues not converged
     ethr =  4.23E-05,  avg # of iterations = 11.8

[...]

     End of self-consistent calculation

          k = 0.0000 0.0000 0.0000 ( 31997 PWs)   bands (ev):

   -31.7204 -31.6940 -31.5628 -31.5621 -31.5619 -31.5358 -31.4533 -31.4532
   -31.2342 -31.1243 -31.1056 -31.1056 -15.7960 -15.7960 -15.7949 -15.7266
   -15.7266 -15.7216 -15.6493 -15.5601 -15.5321 -15.5321 -15.3668 -15.2194
   -15.1459 -15.1458 -15.0292 -14.9815 -14.9815 -14.9545 -14.9544 -14.9506
   -14.9208 -14.9208 -14.8664 -14.6990 -14.6990 -14.6441 -14.6441 -14.6425
   -14.6019 -14.6019 -14.5860 -14.5132 -14.5132 -14.5043 -14.2835 -14.2835
    -9.8829  -1.2331  -0.9070  -0.8240  -0.8240  -0.3097  -0.0057   0.0200
     0.1087   0.1088   0.3068   0.3068   0.4019   0.5486   0.5486   0.5972
     0.7395   0.7395   0.9461   1.4877   1.4877   1.8533   1.9734   2.2015
     2.2704   2.2704   2.5003   2.5415   2.7918   2.8611   2.8855

[...]

          k =-0.0669 0.0387 0.0000 ( 31970 PWs)   bands (ev):

[...]

     the Fermi energy is     1.6605 ev

!    total energy              =   -1272.80518070 Ry
     Harris-Foulkes estimate   =   -1272.80518381 Ry
     estimated scf accuracy    <       0.00000136 Ry

     The total energy is the sum of the following terms:

     one-electron contribution =   -4776.37838341 Ry
     hartree contribution      =    2400.99914457 Ry
     xc contribution           =    -617.37875431 Ry
     ewald contribution        =    1720.07181030 Ry
     electric field correction =       0.00043449 Ry
     smearing contrib. (-TS)   =      -0.11943233 Ry

     convergence has been achieved in  25 iterations

 BEEF-vdW xc energy contributions
           1 :   -546.779904509299
           2 :    502.760903683896
           3 :   -424.924443687683
           4 :    329.881068851529
           5 :   -235.282834280612
           6 :    155.131467374239
           7 :   -97.1128438450537
           8 :    62.2539690355253
           9 :   -46.4133955580193
          10 :    42.7143109161784
          11 :   -43.9996462420909
          12 :    44.6065870681277
          13 :   -41.1892697385099
          14 :    32.7371349879750
          15 :   -20.1465520700785
          16 :    5.62025862129883
          17 :    8.01369180192580
          18 :   -18.0609573951807
          19 :    22.7206581451958
          20 :   -21.6540232117936
          21 :    16.1309133120754
          22 :   -8.63288181332541
          23 :    1.99901123861923
          24 :    1.57947838448831
          25 :   -1.30840042871421
          26 :   -2.04134706448326
          27 :    6.61103104428912
          28 :   -10.3387184575790
          29 :    11.8307096054255
          30 :   -10.8401790207345
          31 :   -46.6731382056236
          32 :   -33.4702769888798

     Forces acting on atoms (Ry/au):

     negative rho (up, down):  5.843E-01 0.000E+00
     atom    1 type  1   force =     0.00002070    0.00000067    0.00321290
     atom    2 type  1   force =    -0.00001820   -0.00269889    0.00470397
     atom    3 type  1   force =    -0.00234128    0.00134121    0.00467410
     atom    4 type  1   force =     0.00233219    0.00135821    0.00469822
     atom    5 type  1   force =    -0.00352785    0.00203888   -0.00319228
     atom    6 type  1   force =     0.00353611    0.00199436   -0.00318408
     atom    7 type  1   force =    -0.00004365    0.00002953   -0.00668955
     atom    8 type  1   force =     0.00004161   -0.00405355   -0.00317935
     atom    9 type  1   force =     0.01705803    0.00985533    0.01650465
     atom   10 type  1   force =    -0.01705454    0.00985232    0.01644474
     atom   11 type  1   force =    -0.00000600   -0.01971530    0.01649498
     atom   12 type  1   force =    -0.00000006   -0.00000365   -0.00069266
     atom   13 type  2   force =     0.00000293    0.00000087   -0.04979564

     Total force =     0.066781     Total SCF correction =     0.002985

     entering subroutine stress ...

     negative rho (up, down):  5.843E-01 0.000E+00
          total   stress  (Ry/bohr**3)                   (kbar)     P=   -2.09
  -0.00000315  -0.00000000  -0.00000000         -0.46     -0.00     -0.00
  -0.00000000  -0.00000315  -0.00000000         -0.00     -0.46     -0.00
  -0.00000000  -0.00000000  -0.00003629         -0.00     -0.00     -5.34

     BFGS Geometry Optimization

     number of scf cycles    =   1
     number of bfgs steps    =   0

     energy   new            =   -1272.8051806982 Ry

     new trust radius        =       0.0497956381 bohr
     new conv_thr            =       0.0000099958 Ry

ATOMIC_POSITIONS (crystal)
La1      0.166666667   0.166666667   0.383173129    0   0   0
La1      0.666666667   0.166666667   0.383173129    0   0   0
La1      0.166666667   0.666666667   0.383173129    0   0   0
La1      0.666666667   0.666666667   0.383173129    0   0   0
La1      0.833333333   0.333333333   0.500000000    0   0   0
La1      0.333333333   0.333333333   0.500000000    0   0   0
La1      0.833333333   0.833333333   0.500000000    0   0   0
La1      0.333333333   0.833333333   0.500000000    0   0   0
La1      0.000805497   0.000806341   0.617161530
La1      0.498388533   0.000806094   0.617160315
La1      0.000806105   0.498386940   0.617161334
La1      0.500000145   0.499999702   0.616812826
S1       0.166666839   0.166666738   0.693524693

     Writing output data file calc.save
     Check: negative starting charge=   -0.831031
     NEW-OLD atomic charge density approx. for the potential
     Check: negative starting charge=   -0.831303

[...]

     energy   old            =   -1272.8051806982 Ry
     energy   new            =   -1272.8092531564 Ry

     CASE: energy  _new < energy  _old

     WARNING: bfgs curvature condition failed, Theta= 0.966
     new trust radius        =       0.0746934571 bohr
     new conv_thr            =       0.0000001000 Ry

[...]

     iteration #  6     ecut=    36.75 Ry     beta=0.30
     Davidson diagonalization with overlap
     c_bands:  1 eigenvalues not converged
     ethr =  2.08E-07,  avg # of iterations = 11.2

[...]

     Threshold (ethr) on eigenvalues was too large:
     Diagonalizing with lowered threshold

     Davidson diagonalization with overlap
     ethr =  5.88E-08,  avg # of iterations =  6.2

[...]

     number of scf cycles    =   7
     number of bfgs steps    =   6

     energy   old            =   -1272.8168510512 Ry
     energy   new            =   -1272.8170759365 Ry

     CASE: energy  _new < energy  _old

     new trust radius        =       0.0138582783 bohr
     new conv_thr            =       0.0000001000 Ry

ATOMIC_POSITIONS (crystal)
La1      0.166666667   0.166666667   0.383173129    0   0   0
La1      0.666666667   0.166666667   0.383173129    0   0   0
La1      0.166666667   0.666666667   0.383173129    0   0   0
La1      0.666666667   0.666666667   0.383173129    0   0   0
La1      0.833333333   0.333333333   0.500000000    0   0   0
La1      0.333333333   0.333333333   0.500000000    0   0   0
La1      0.833333333   0.833333333   0.500000000    0   0   0
La1      0.333333333   0.833333333   0.500000000    0   0   0
La1      0.001546478   0.001546432   0.618724357
La1      0.496904630   0.001547432   0.618723277
La1      0.001545794   0.496907106   0.618724424
La1      0.499999296   0.500000579   0.615930018
S1       0.166668230   0.166665838   0.687921394

     Writing output data file calc.save
     Check: negative starting charge=   -0.833496
     NEW-OLD atomic charge density approx. for the potential
     Check: negative starting charge=   -0.833603

[...]

     Self-consistent Calculation

[...]

     total energy              =   -1272.81715025 Ry
     Harris-Foulkes estimate   =   -1272.81715016 Ry
     estimated scf accuracy    <       0.00000018 Ry

     iteration # 10     ecut=    36.75 Ry     beta=0.30
     Davidson diagonalization with overlap
     ethr =  1.32E-10,  avg # of iterations =  5.7

[...]

     negative rho (up, down):  5.850E-01 0.000E+00

     Adding external electric field

     Computed dipole along edir(3) :
        Dipole               -0.3677 Ry au,         -0.9346 Debye
        Dipole field         -0.0005 Ry au

        Potential amp.        0.0522 Ry
        Total length         48.0849 bohr

     End of self-consistent calculation

[...]

          k = 0.0446-0.0515 0.0000 ( 31991 PWs)   bands (ev):

[...]

          k =-0.0669-0.0387 0.0000 ( 31970 PWs)   bands (ev):

   -31.5470 -31.5071 -31.5058 -31.4404 -31.4391 -31.3914 -31.3489 -31.3201
   -31.0859 -31.0549 -31.0091 -30.9934 -15.5285 -15.4826 -15.4545 -15.4218
   -15.3928 -15.3563 -15.2956 -15.2727 -15.2454 -15.2133 -15.1726 -15.1418
   -15.1291 -15.1187 -15.1064 -15.0765 -15.0351 -15.0174 -14.9976 -14.9630
   -14.8019 -14.7988 -14.7074 -14.7062 -14.6786 -14.6745 -14.6460 -14.6221
   -14.6173 -14.5979 -14.5039 -14.4654 -14.4557 -14.4461 -14.3009 -14.2814
   -10.0921  -1.3022  -1.1155  -1.0466   0.1981   0.2634   0.6471   0.7204
     0.9481   0.9623   1.0234   1.0368   1.0453   1.3086   1.4226   1.4592
     1.6012   1.6074   1.6362   1.6774   1.8829   1.9141   1.9745   1.9892
     2.0314   2.0426   2.1078   2.2145   2.3307   2.3431   2.3550

     the Fermi energy is     1.7809 ev

!    total energy              =   -1272.81715019 Ry
     Harris-Foulkes estimate   =   -1272.81715140 Ry
     estimated scf accuracy    <       0.00000002 Ry

     The total energy is the sum of the following terms:

     one-electron contribution =   -4780.75490254 Ry
     hartree contribution      =    2403.60227001 Ry
     xc contribution           =    -617.45104839 Ry
     ewald contribution        =    1721.90648110 Ry
     electric field correction =       0.00019972 Ry
     smearing contrib. (-TS)   =      -0.12015009 Ry

     convergence has been achieved in  10 iterations

 BEEF-vdW xc energy contributions
           1 :   -546.854763106084
           2 :    502.866275750326
           3 :   -425.062354259814
           4 :    330.028426082318
           5 :   -235.410413057916
           6 :    155.216222235687
           7 :   -97.1410424539475
           8 :    62.2221561259959
           9 :   -46.3311325071544
          10 :    42.6050650228887
          11 :   -43.8953052251330
          12 :    44.5364326650944
          13 :   -41.1678809906065
          14 :    32.7568985461273
          15 :   -20.1805050807685
          16 :    5.63645913804305
          17 :    8.03402438555338
          18 :   -18.1136386914362
          19 :    22.7834428722734
          20 :   -21.7021938738438
          21 :    16.1531363704568
          22 :   -8.63734183818599
          23 :    2.00622637759000
          24 :    1.55272395737722
          25 :   -1.26339547460827
          26 :   -2.08317152632003
          27 :    6.62040260393485
          28 :   -10.2972163240653
          29 :    11.7439521728062
          30 :   -10.7374079019534
          31 :   -46.6783721719902
          32 :   -33.4829695685570

     Forces acting on atoms (Ry/au):

     negative rho (up, down):  5.850E-01 0.000E+00
     atom    1 type  1   force =    -0.00000010    0.00000016    0.00330720
     atom    2 type  1   force =     0.00000005   -0.00265182    0.00497963
     atom    3 type  1   force =    -0.00229632    0.00132591    0.00497929
     atom    4 type  1   force =     0.00229652    0.00132618    0.00497922
     atom    5 type  1   force =    -0.00287546    0.00165988   -0.00217659
     atom    6 type  1   force =     0.00287550    0.00166059   -0.00217698
     atom    7 type  1   force =    -0.00000018    0.00000036   -0.00643898
     atom    8 type  1   force =    -0.00000050   -0.00332028   -0.00217713
     atom    9 type  1   force =    -0.00057483   -0.00033196   -0.00155408
     atom   10 type  1   force =     0.00057588   -0.00033184   -0.00155301
     atom   11 type  1   force =     0.00000029    0.00066302   -0.00155388
     atom   12 type  1   force =    -0.00000031   -0.00000059   -0.00158153
     atom   13 type  2   force =    -0.00000054    0.00000040    0.00096684

     Total force =     0.003464     Total SCF correction =     0.000117

     entering subroutine stress ...

     negative rho (up, down):  5.850E-01 0.000E+00
          total   stress  (Ry/bohr**3)                   (kbar)     P=    0.29
   0.00001118  -0.00000000   0.00000000          1.64     -0.00      0.00
  -0.00000000   0.00001118  -0.00000000         -0.00      1.64     -0.00
   0.00000000  -0.00000000  -0.00001640          0.00     -0.00     -2.41

     bfgs converged in   8 scf cycles and   7 bfgs steps
     (criteria: energy <  1.0E+00, force <  1.9E-03)

     End of BFGS Geometry Optimization

     Final energy   =   -1272.8171501873 Ry
Begin final coordinates

ATOMIC_POSITIONS (crystal)
La1      0.166666667   0.166666667   0.383173129    0   0   0
La1      0.666666667   0.166666667   0.383173129    0   0   0
La1      0.166666667   0.666666667   0.383173129    0   0   0
La1      0.666666667   0.666666667   0.383173129    0   0   0
La1      0.833333333   0.333333333   0.500000000    0   0   0
La1      0.333333333   0.333333333   0.500000000    0   0   0
La1      0.833333333   0.833333333   0.500000000    0   0   0
La1      0.333333333   0.833333333   0.500000000    0   0   0
La1      0.001546478   0.001546432   0.618724357
La1      0.496904630   0.001547432   0.618723277
La1      0.001545794   0.496907106   0.618724424
La1      0.499999296   0.500000579   0.615930018
S1       0.166668230   0.166665838   0.687921394
End final coordinates

     Writing output data file calc.save

     General routines

     Parallel routines

   This run was terminated on:  15:34:12   3May2018

   JOB DONE.
Job  /afs/slac/g/suncat/bin/suncat-tsmpirun -x LD_LIBRARY_PATH -wdir /scratch/qe762902_ZoLRo pw.x -npool 4 -in pw.inp

TID   HOST_NAME   COMMAND_LINE            STATUS            TERMINATION_TIME
00000 suncat0068 pw.x -npool 4 -i  Done                     05/03/2018 15:34:12
00001 suncat0068 pw.x -npool 4 -i  Done                     05/03/2018 15:34:12
00002 suncat0068 pw.x -npool 4 -i  Done                     05/03/2018 15:34:12
00003 suncat0068 pw.x -npool 4 -i  Done                     05/03/2018 15:34:12
00004 suncat0068 pw.x -npool 4 -i  Done                     05/03/2018 15:34:12
00005 suncat0068 pw.x -npool 4 -i  Done                     05/03/2018 15:34:12
00006 suncat0068 pw.x -npool 4 -i  Done                     05/03/2018 15:34:12
00007 suncat0068 pw.x -npool 4 -i  Done                     05/03/2018 15:34:12
00008 suncat0053 pw.x -npool 4 -i  Done                     05/03/2018 15:34:12
00009 suncat0053 pw.x -npool 4 -i  Done                     05/03/2018 15:34:12
00010 suncat0053 pw.x -npool 4 -i  Done                     05/03/2018 15:34:12
00011 suncat0053 pw.x -npool 4 -i  Done                     05/03/2018 15:34:12
00012 suncat0053 pw.x -npool 4 -i  Done                     05/03/2018 15:34:12
00013 suncat0053 pw.x -npool 4 -i  Done                     05/03/2018 15:34:12
00014 suncat0053 pw.x -npool 4 -i  Done                     05/03/2018 15:34:12
00015 suncat0053 pw.x -npool 4 -i  Done                     05/03/2018 15:34:12
00016 suncat0047 pw.x -npool 4 -i  Done                     05/03/2018 15:34:12
00017 suncat0047 pw.x -npool 4 -i  Done                     05/03/2018 15:34:12
00018 suncat0047 pw.x -npool 4 -i  Done                     05/03/2018 15:34:12
00019 suncat0047 pw.x -npool 4 -i  Done                     05/03/2018 15:34:12
00020 suncat0047 pw.x -npool 4 -i  Done                     05/03/2018 15:34:12
00021 suncat0047 pw.x -npool 4 -i  Done                     05/03/2018 15:34:12
00022 suncat0047 pw.x -npool 4 -i  Done                     05/03/2018 15:34:12
00023 suncat0047 pw.x -npool 4 -i  Done                     05/03/2018 15:34:12
00024 suncat0039 pw.x -npool 4 -i  Done                     05/03/2018 15:34:12
00025 suncat0039 pw.x -npool 4 -i  Done                     05/03/2018 15:34:12
00026 suncat0039 pw.x -npool 4 -i  Done                     05/03/2018 15:34:12
00027 suncat0039 pw.x -npool 4 -i  Done                     05/03/2018 15:34:12
00028 suncat0039 pw.x -npool 4 -i  Done                     05/03/2018 15:34:12
00029 suncat0039 pw.x -npool 4 -i  Done                     05/03/2018 15:34:12
00030 suncat0039 pw.x -npool 4 -i  Done                     05/03/2018 15:34:12
00031 suncat0039 pw.x -npool 4 -i  Done                     05/03/2018 15:34:12