     Program PWSCF v.5.1rc2 starts on  9May2018 at 18:31:34

     Current dimensions of program PWSCF are:
     Max number of different atomic species (ntypx) = 10
     Max number of k-points (npk) =  40000
     Max angular momentum in pseudopotentials (lmaxx) =  3
     Presently stress not available with electric field

     IMPORTANT: XC functional enforced from input :
     Exchange-correlation      = BEEF-VDW ( 1  4 27 13 2)
     Any further DFT definition will be discarded
     Please, verify this is what you really want

     bravais-lattice index     =            0
     lattice parameter (alat)  =       1.8897  a.u.
     unit-cell volume          =    5185.0501 (a.u.)^3
     number of atoms/cell      =           16
     number of atomic types    =            3
     number of electrons       =       163.00
     number of Kohn-Sham states=           91
     kinetic-energy cutoff     =      36.7493  Ry
     charge density cutoff     =     367.4932  Ry
     convergence threshold     =      1.0E-05
     mixing beta               =       0.3000
     number of iterations used =           10  plain     mixing
     Exchange-correlation      = BEEF-VDW ( 1  4 27 13 2)
     nstep                     =           50

     celldm(1)=   1.889726  celldm(2)=   0.000000  celldm(3)=   0.000000
     celldm(4)=   0.000000  celldm(5)=   0.000000  celldm(6)=   0.000000

     crystal axes: (cart. coord. in units of alat)
               a(1) = (   5.972022   0.000000   0.000000 )
               a(2) = (   2.986011   5.171923  -0.000000 )
               a(3) = (   0.000000   0.000000  24.876136 )

     reciprocal axes: (cart. coord. in units 2 pi/alat)
               b(1) = (  0.167447 -0.096676  0.000000 )
               b(2) = (  0.000000  0.193352 -0.000000 )
               b(3) = (  0.000000  0.000000  0.040199 )

     PseudoPot. # 1 for Ta read from file:
     /home/users/winther/src/pseudo/Ta.UPF
     MD5 check sum: f8bbe9446314a3b8ea5d9f3e3836c939
     Pseudo is Ultrasoft + core correction, Zval = 13.0
     Generated by new atomic code, or converted to UPF format
     Using radial grid of  921 points,  7 beta functions with:
                l(1) =   0
                l(2) =   0
                l(3) =   1
                l(4) =   1
                l(5) =   2
                l(6) =   2
                l(7) =   3
     Q(r) pseudized with  6 coefficients,  rinner =    1.300   1.300   1.300
                                                       1.300   1.300   1.300
                                                       1.300

     PseudoPot. # 2 for C  read from file:
     /home/users/winther/src/pseudo/C.UPF
     MD5 check sum: d1aef80898a10debaa0f26306b886e00
     Pseudo is Ultrasoft + core correction, Zval =  4.0
     Generated by new atomic code, or converted to UPF format
     Using radial grid of  721 points,  4 beta functions with:
                l(1) =   0
                l(2) =   0
                l(3) =   1
                l(4) =   1
     Q(r) pseudized with  8 coefficients,  rinner =    1.100   1.100   1.100

     PseudoPot. # 3 for H  read from file:
     /home/users/winther/src/pseudo/H.UPF
     MD5 check sum: 761ae9a214b05c3daf00ab9f6b793d6f
     Pseudo is Ultrasoft, Zval =  1.0
     Generated by new atomic code, or converted to UPF format
     Using radial grid of  615 points,  2 beta functions with:
                l(1) =   0
                l(2) =   0
     Q(r) pseudized with  8 coefficients,  rinner =    0.700

     vdW kernel table read from file vdW_kernel_table
     MD5 check sum: 095c7af220d748ca6e76c0b4c6cfb241

     atomic species   valence    mass     pseudopotential
        Ta1           13.00   180.94788     Ta( 1.00)
        C1             4.00    12.01100     C ( 1.00)
        H1             1.00     1.00800     H ( 1.00)

     No symmetry found

   Cartesian axes

     site n.     atom                  positions (alat units)
         1           Ta1 tau(   1) = (   0.0000000   0.0000000  10.0000000  )
         2           Ta1 tau(   2) = (   1.4930055   2.5859614  10.0000000  )
         3           Ta1 tau(   3) = (   2.9860110   0.0000000  10.0000000  )
         4           Ta1 tau(   4) = (   4.4790165   2.5859614  10.0000000  )
         5           Ta1 tau(   5) = (   5.9720221   3.4479485  12.4380678  )
         6           Ta1 tau(   6) = (   4.4790165   0.8619871  12.4380678  )
         7           Ta1 tau(   7) = (   2.9860110   3.4479485  12.4380678  )
         8           Ta1 tau(   8) = (   1.4930055   0.8619871  12.4380678  )
         9           Ta1 tau(   9) = (   2.9854666   1.7240852  14.8749846  )
        10           Ta1 tau(  10) = (   4.4793922   4.3093350  14.8758439  )
        11           Ta1 tau(  11) = (   5.9714203   1.7258265  14.8761221  )
        12           Ta1 tau(  12) = (   7.4639699   4.3107582  14.8749147  )
        13           C1  tau(  13) = (   3.7327226   3.0149953  16.6727238  )
        14           H1  tau(  14) = (   4.1960342   3.8201934  17.2092234  )
        15           H1  tau(  15) = (   3.2690745   2.2141539  17.2075735  )
        16           H1  tau(  16) = (   2.9852912   1.7235136  16.7866927  )

     number of k points=    20  Fermi-Dirac smearing, width (Ry)=  0.0110
                       cart. coord. in units 2pi/alat
        k(    1) = (   0.0000000   0.0000000   0.0000000), wk =   0.0555556
        k(    2) = (   0.0000000   0.0322253  -0.0000000), wk =   0.1111111
        k(    3) = (   0.0000000   0.0644506  -0.0000000), wk =   0.1111111
        k(    4) = (   0.0000000  -0.0966758   0.0000000), wk =   0.0555556
        k(    5) = (   0.0279079  -0.0161126   0.0000000), wk =   0.1111111
        k(    6) = (   0.0279079   0.0161126  -0.0000000), wk =   0.1111111
        k(    7) = (   0.0279079   0.0483379  -0.0000000), wk =   0.1111111
        k(    8) = (   0.0279079  -0.1127885   0.0000000), wk =   0.1111111
        k(    9) = (   0.0279079  -0.0805632   0.0000000), wk =   0.1111111
        k(   10) = (   0.0279079  -0.0483379   0.0000000), wk =   0.1111111
        k(   11) = (   0.0558158  -0.0322253   0.0000000), wk =   0.1111111
        k(   12) = (   0.0558158  -0.0000000  -0.0000000), wk =   0.1111111
        k(   13) = (   0.0558158   0.0322253  -0.0000000), wk =   0.1111111
        k(   14) = (   0.0558158  -0.1289011   0.0000000), wk =   0.1111111
        k(   15) = (   0.0558158  -0.0966758   0.0000000), wk =   0.1111111
        k(   16) = (   0.0558158  -0.0644506   0.0000000), wk =   0.1111111
        k(   17) = (  -0.0837237   0.0483379  -0.0000000), wk =   0.0555556
        k(   18) = (  -0.0837237   0.0805632  -0.0000000), wk =   0.1111111
        k(   19) = (  -0.0837237   0.1127885  -0.0000000), wk =   0.1111111
        k(   20) = (  -0.0837237  -0.0483379   0.0000000), wk =   0.0555556

     Largest allocated arrays     est. size (Mb)     dimensions
     Largest temporary arrays     est. size (Mb)     dimensions

     Initial potential from superposition of free atoms
     Check: negative starting charge=   -1.121546

     starting charge  162.98659, renormalised to  163.00000

     negative rho (up, down):  1.122E+00 0.000E+00

     *
     * You are using vdW-DF for exchange-correlation in this calculation.
     * Please cite the following three references that made this development
     * possible:
     *
     *   M. Dion, H. Rydberg, E. Schroder, D. C. Langreth, and
     *   B. I. Lundqvist, Phys. Rev. Lett. 92, 246401 (2004).
     *
     *   T. Thonhauser, V. R. Cooper, S. Li, A. Puzder, P. Hyldgaard, and
     *   D. C. Langreth, Phys. Rev. B 76, 125112 (2007).
     *
     *   G. Roman-Perez and J. M. Soler, Phys. Rev. Lett. 103, 096102 (2009).
     *
     *
     * If you are using vdW-DF2, please also cite:
     *
     *   K. Lee, E. D. Murray, L. Kong, B. I. Lundqvist, and
     *   D. C. Langreth, Phys. Rev. B 82, 081101(R) (2010).
     *
     *
     * If you are calculating the stress with vdW-DF, please also cite:
     *
     *   R. Sabatini, E. Kucukbenli, B. Kolb, T. Thonhauser, and
     *   S. de Gironcoli, J. Phys.: Condens. Matter 24, 424209 (2012).
     *

     Carrying out vdW-DF run using the following parameters:

     Nqs =      20    Nr_points =    1024   r_max =   100.000
     q_mesh =
               0.00001000     0.04494208     0.09755937     0.15916263
               0.23128650     0.31572767     0.41458969     0.53033537
               0.66584808     0.82450364     1.01025438     1.22772762
               1.48234092     1.78043706     2.12944203     2.53805004
               3.01644009     3.57652955     4.23227104     5.00000000

     Gradients computed in reciprocal space

     Adding external electric field

     Computed dipole along edir(3) :
        Dipole               -0.0042 Ry au,         -0.0108 Debye
        Dipole field         -0.0000 Ry au

        Potential amp.        0.0009 Ry
        Total length         45.8339 bohr

     Starting wfc are  163 randomized atomic wfcs

     Self-consistent Calculation

     iteration #  1     ecut=    36.75 Ry     beta=0.30
     Davidson diagonalization with overlap
     ethr =  1.00E-02,  avg # of iterations =  2.0

[...]

     total energy              =   -1731.04348577 Ry
     Harris-Foulkes estimate   =   -1733.72217633 Ry
     estimated scf accuracy    <       5.88895703 Ry

[...]

     End of self-consistent calculation

          k = 0.0000 0.0000 0.0000 ( 19447 PWs)   bands (ev):

   -65.9983 -65.9582 -65.9412 -65.8907 -65.8344 -65.8312 -65.8298 -65.7940
   -65.7538 -65.7426 -65.7255 -65.7189 -32.6746 -32.6560 -32.6304 -32.6244
   -32.6061 -32.5884 -32.5690 -32.5393 -32.5349 -32.5319 -32.3762 -32.3136
   -32.3044 -32.1973 -32.1778 -32.1713 -32.1398 -32.1131 -32.0432 -32.0318
   -31.9926 -31.9816 -31.9765 -31.9573 -31.9532 -31.9407 -31.8952 -31.8816
   -31.8799 -31.8723 -31.8435 -31.8233 -31.8030 -31.7954 -31.7311 -31.7256
   -12.5518  -7.4221  -5.0534  -3.6158  -2.6115  -2.0659  -1.7372  -1.6626
    -1.6507  -1.5436  -1.4491  -1.2229  -1.0069  -0.7787  -0.6647  -0.5458
    -0.5322  -0.2447   0.1593   0.6324   0.9960   1.1219   1.4038   1.8954
     1.9387   2.0726   2.2452   2.3379   2.4517   2.5246   2.5551   2.7585
     2.7858   2.7974   3.0571   3.0748   3.1215   3.1410   3.1487   3.2308
     3.2444   3.3420   3.6715

[...]

          k =-0.0837 0.0483-0.0000 ( 19532 PWs)   bands (ev):

[...]

     the Fermi energy is     2.4272 ev

!    total energy              =   -1733.24155087 Ry
     Harris-Foulkes estimate   =   -1733.24153379 Ry
     estimated scf accuracy    <       0.00000673 Ry

     The total energy is the sum of the following terms:

     one-electron contribution =  -11739.07673236 Ry
     hartree contribution      =    5855.97222697 Ry
     xc contribution           =    -528.80386342 Ry
     ewald contribution        =    4678.77029037 Ry
     electric field correction =       0.00015740 Ry
     smearing contrib. (-TS)   =      -0.10362982 Ry

     convergence has been achieved in  16 iterations

 BEEF-vdW xc energy contributions
           1 :   -465.351899246579
           2 :    429.436317036743
           3 :   -366.786327766323
           4 :    291.926348233414
           5 :   -219.373479838464
           6 :    159.206604279453
           7 :   -115.075070352582
           8 :    85.0094183154363
           9 :   -64.1477911085276
          10 :    47.7846275990840
          11 :   -33.3114481520926
          12 :    20.4568787962203
          13 :   -10.2121553564699
          14 :    3.39884930301264
          15 :   0.219602113214819
          16 :   -1.90264064683362
          17 :    3.19847417927957
          18 :   -5.08488024771543
          19 :    7.53191763383404
          20 :   -9.71030310203003
          21 :    10.6600112039382
          22 :   -9.97827540060791
          23 :    8.11067991845749
          24 :   -6.09736361020771
          25 :    4.96474972319373
          26 :   -5.15286053360597
          27 :    6.31786588334052
          28 :   -7.59986991324160
          29 :    8.16148379918877
          30 :   -7.65828800712313
          31 :   -41.7770176108763
          32 :   -31.0066171323913

     Forces acting on atoms (Ry/au):

     negative rho (up, down):  1.177E+00 0.000E+00
     atom    1 type  1   force =    -0.00041774    0.00003174    0.00306991
     atom    2 type  1   force =    -0.00099172    0.00054257    0.00332268
     atom    3 type  1   force =     0.00103272   -0.00060555    0.00145188
     atom    4 type  1   force =    -0.00007379    0.00077794    0.00262694
     atom    5 type  1   force =     0.00226779   -0.00168165    0.00017445
     atom    6 type  1   force =     0.00201921   -0.00435169   -0.00291716
     atom    7 type  1   force =    -0.00004108   -0.00090288   -0.00369763
     atom    8 type  1   force =    -0.00577032   -0.00187146   -0.00835011
     atom    9 type  1   force =    -0.00608986    0.00322303    0.02517058
     atom   10 type  1   force =    -0.00965735    0.00290575    0.04901982
     atom   11 type  1   force =     0.01604496   -0.00806031   -0.00466086
     atom   12 type  1   force =    -0.00550915    0.00627145   -0.00290783
     atom   13 type  2   force =     0.07523457    0.12124615   -0.17869356
     atom   14 type  3   force =     0.01330910    0.02138585    0.04001627
     atom   15 type  3   force =     0.08405513    0.14365311    0.25343859
     atom   16 type  3   force =    -0.16541244   -0.28256406   -0.17706396

     Total force =     0.537237     Total SCF correction =     0.007049

     entering subroutine stress ...

     negative rho (up, down):  1.177E+00 0.000E+00
          total   stress  (Ry/bohr**3)                   (kbar)     P=  -24.38
  -0.00025318   0.00005292   0.00001902        -37.24      7.78      2.80
   0.00005292  -0.00019471   0.00002941          7.78    -28.64      4.33
   0.00001902   0.00002941  -0.00004940          2.80      4.33     -7.27

     BFGS Geometry Optimization

     number of scf cycles    =   1
     number of bfgs steps    =   0

     energy   new            =   -1733.2415508668 Ry

     new trust radius        =       0.3722302642 bohr
     new conv_thr            =       0.0000099958 Ry

ATOMIC_POSITIONS (crystal)
Ta1      0.000000000   0.000000000   0.401991699    0   0   0
Ta1     -0.000000000   0.500000000   0.401991699    0   0   0
Ta1      0.500000000   0.000000000   0.401991699    0   0   0
Ta1      0.500000000   0.500000000   0.401991699    0   0   0
Ta1      0.666666667   0.666666667   0.500000000    0   0   0
Ta1      0.666666667   0.166666667   0.500000000    0   0   0
Ta1      0.166666667   0.666666667   0.500000000    0   0   0
Ta1      0.166666667   0.166666667   0.500000000    0   0   0
Ta1      0.332526950   0.333684552   0.598497473
Ta1      0.332449924   0.833514507   0.599039349
Ta1      0.834887597   0.332866766   0.597908611
Ta1      0.832267701   0.834134052   0.597897368
C1       0.334021459   0.595360007   0.666428402
H1       0.333380145   0.740828989   0.692647740
H1       0.333442052   0.442808585   0.697121439
H1       0.333055831   0.304333075   0.671044521

     Writing output data file calc.save
     Check: negative starting charge=   -1.121546
     NEW-OLD atomic charge density approx. for the potential
     Check: negative starting charge=   -1.120818

[...]

     iteration #  1     ecut=    36.75 Ry     beta=0.30
     Davidson diagonalization with overlap
     c_bands:  1 eigenvalues not converged
     c_bands:  1 eigenvalues not converged
     c_bands:  1 eigenvalues not converged
     ethr =  1.00E-06,  avg # of iterations = 13.2

[...]

     energy   old            =   -1733.2415508668 Ry
     energy   new            =   -1733.3961203132 Ry

     CASE: energy  _new < energy  _old

[...]

     iteration #  1     ecut=    36.75 Ry     beta=0.30
     Davidson diagonalization with overlap
     c_bands:  1 eigenvalues not converged
     ethr =  1.00E-06,  avg # of iterations = 13.3

[...]

     Threshold (ethr) on eigenvalues was too large:
     Diagonalizing with lowered threshold

     Davidson diagonalization with overlap
     ethr =  4.88E-08,  avg # of iterations =  2.5

[...]

     Threshold (ethr) on eigenvalues was too large:
     Diagonalizing with lowered threshold

     Davidson diagonalization with overlap
     ethr =  8.00E-08,  avg # of iterations =  1.8

[...]

     new trust radius        =       0.0868242565 bohr
     new conv_thr            =       0.0000001000 Ry

ATOMIC_POSITIONS (crystal)
Ta1     -0.000000000   0.000000000   0.401991699    0   0   0
Ta1     -0.000000000   0.500000000   0.401991699    0   0   0
Ta1      0.500000000   0.000000000   0.401991699    0   0   0
Ta1      0.500000000   0.500000000   0.401991699    0   0   0
Ta1      0.666666667   0.666666667   0.500000000    0   0   0
Ta1      0.666666667   0.166666667   0.500000000    0   0   0
Ta1      0.166666667   0.666666667   0.500000000    0   0   0
Ta1      0.166666667   0.166666667   0.500000000    0   0   0
Ta1      0.300710177   0.361629771   0.600549498
Ta1      0.301195605   0.863190556   0.599027754
Ta1      0.814243879   0.354084336   0.598481558
Ta1      0.796244441   0.862834889   0.587698801
C1       0.467211416   0.530587472   0.655643202
H1       0.467540179   0.666652313   0.685623059
H1       0.425279363   0.400863197   0.680992184
H1       0.134688383   0.200192717   0.644696638

     Writing output data file calc.save
     Check: negative starting charge=   -1.124234
     NEW-OLD atomic charge density approx. for the potential
     Check: negative starting charge=   -1.124370

[...]

     Self-consistent Calculation

[...]

     total energy              =   -1733.64298932 Ry
     Harris-Foulkes estimate   =   -1733.64298933 Ry
     estimated scf accuracy    <       0.00000026 Ry

     iteration # 10     ecut=    36.75 Ry     beta=0.30
     Davidson diagonalization with overlap
     ethr =  1.61E-10,  avg # of iterations =  3.1

[...]

     negative rho (up, down):  1.182E+00 0.000E+00

     Adding external electric field

     Computed dipole along edir(3) :
        Dipole                0.2520 Ry au,          0.6405 Debye
        Dipole field          0.0006 Ry au

        Potential amp.       -0.0560 Ry
        Total length         45.8339 bohr

     End of self-consistent calculation

[...]

          k = 0.0558-0.0645 0.0000 ( 19521 PWs)   bands (ev):

[...]

          k =-0.0837-0.0483 0.0000 ( 19532 PWs)   bands (ev):

   -65.9874 -65.9368 -65.8603 -65.8547 -65.8295 -65.8237 -65.8075 -65.7541
   -65.7150 -65.6885 -65.6693 -65.6183 -32.5452 -32.5250 -32.5114 -32.5032
   -32.4538 -32.4454 -32.4140 -32.3961 -32.3794 -32.3647 -32.3440 -32.3189
   -32.2930 -32.2316 -32.1829 -32.1753 -32.1511 -32.1271 -32.1208 -32.1188
   -32.0640 -32.0490 -32.0315 -32.0102 -31.9745 -31.9623 -31.9293 -31.9098
   -31.8926 -31.8876 -31.8823 -31.8189 -31.7771 -31.7711 -31.7315 -31.6499
   -10.5512  -4.9470  -3.8004  -3.2477  -2.9341  -2.7650  -1.6454  -1.2640
    -1.0464  -0.9138  -0.7745  -0.6031  -0.5471  -0.4018  -0.0349   0.2452
     0.4540   0.4945   0.5804   0.6056   0.7957   0.9354   1.0965   1.1328
     1.1904   1.3317   1.3751   1.6361   1.7283   1.7841   1.8373   1.8760
     1.9449   2.1224   2.1610   2.3602   2.6773   2.7082   2.7849   2.8673
     3.3090   3.6481   3.7893

     the Fermi energy is     2.4276 ev

!    total energy              =   -1733.64298934 Ry
     Harris-Foulkes estimate   =   -1733.64298976 Ry
     estimated scf accuracy    <       0.00000006 Ry

     The total energy is the sum of the following terms:

     one-electron contribution =  -11904.85253391 Ry
     hartree contribution      =    5939.12375104 Ry
     xc contribution           =    -529.03966508 Ry
     ewald contribution        =    4761.21980956 Ry
     electric field correction =       0.00015391 Ry
     smearing contrib. (-TS)   =      -0.09450486 Ry

     convergence has been achieved in  10 iterations

 BEEF-vdW xc energy contributions
           1 :   -465.584555224012
           2 :    429.738357063523
           3 :   -367.165368150043
           4 :    292.318252232621
           5 :   -219.686420035977
           6 :    159.378473553573
           7 :   -115.105546071630
           8 :    84.9517497942896
           9 :   -64.0715203371262
          10 :    47.7374052104673
          11 :   -33.3015778785547
          12 :    20.4594931458134
          13 :   -10.1895494157592
          14 :    3.32320408451534
          15 :   0.350659736230682
          16 :   -2.06179980167849
          17 :    3.33602565496295
          18 :   -5.14872437038309
          19 :    7.49613183557233
          20 :   -9.59630489094513
          21 :    10.5325062168250
          22 :   -9.91228122391738
          23 :    8.14715225036173
          24 :   -6.21669506626000
          25 :    5.09820785475489
          26 :   -5.22676621865594
          27 :    6.30184070992129
          28 :   -7.52633094341820
          29 :    8.10313214318899
          30 :   -7.67948595608721
          31 :   -41.7947495731878
          32 :   -31.0372746527557

     Forces acting on atoms (Ry/au):

     negative rho (up, down):  1.182E+00 0.000E+00
     atom    1 type  1   force =     0.00071382   -0.00034037    0.00342146
     atom    2 type  1   force =     0.00052249   -0.00096296    0.00351840
     atom    3 type  1   force =     0.00062574   -0.00031756    0.00473979
     atom    4 type  1   force =     0.00184242   -0.00224149    0.00493343
     atom    5 type  1   force =    -0.01886271   -0.00705023   -0.01361080
     atom    6 type  1   force =    -0.00189373    0.02364365   -0.01738384
     atom    7 type  1   force =     0.02067769   -0.00974527    0.00165224
     atom    8 type  1   force =     0.00639793   -0.00214266    0.01271100
     atom    9 type  1   force =    -0.00160590   -0.00003676    0.00107137
     atom   10 type  1   force =    -0.00306021    0.00391022    0.00181282
     atom   11 type  1   force =    -0.00159027    0.00433511   -0.00212103
     atom   12 type  1   force =    -0.00212885   -0.00329393    0.00078416
     atom   13 type  2   force =    -0.00260573    0.00026516   -0.00051872
     atom   14 type  3   force =     0.00157817   -0.00156415    0.00182393
     atom   15 type  3   force =    -0.00074542   -0.00070212   -0.00126129
     atom   16 type  3   force =     0.00013455   -0.00375662   -0.00157293

     Total force =     0.010398     Total SCF correction =     0.000439

     entering subroutine stress ...

     negative rho (up, down):  1.182E+00 0.000E+00
          total   stress  (Ry/bohr**3)                   (kbar)     P=  -22.97
  -0.00022143   0.00000901  -0.00001271        -32.57      1.33     -1.87
   0.00000901  -0.00018352  -0.00000017          1.33    -27.00     -0.02
  -0.00001271  -0.00000017  -0.00006346         -1.87     -0.02     -9.33

     number of scf cycles    =  50
     number of bfgs steps    =  49

     energy   old            =   -1733.6427325628 Ry
     energy   new            =   -1733.6429893397 Ry

     CASE: energy  _new < energy  _old

     new trust radius        =       0.1071423025 bohr

     The maximum number of steps has been reached.

     End of BFGS Geometry Optimization
Begin final coordinates

ATOMIC_POSITIONS (crystal)
Ta1     -0.000000000   0.000000000   0.401991699    0   0   0
Ta1     -0.000000000   0.500000000   0.401991699    0   0   0
Ta1      0.500000000   0.000000000   0.401991699    0   0   0
Ta1      0.500000000   0.500000000   0.401991699    0   0   0
Ta1      0.666666667   0.666666667   0.500000000    0   0   0
Ta1      0.666666667   0.166666667   0.500000000    0   0   0
Ta1      0.166666667   0.666666667   0.500000000    0   0   0
Ta1      0.166666667   0.166666667   0.500000000    0   0   0
Ta1      0.298667826   0.359709585   0.600627362
Ta1      0.299897768   0.861294748   0.599170857
Ta1      0.812224440   0.352155254   0.598819169
Ta1      0.794766614   0.861025705   0.588010129
C1       0.466043979   0.528231713   0.655680762
H1       0.466789713   0.662233758   0.686080865
H1       0.414916392   0.403472198   0.680578354
H1       0.132705764   0.196655319   0.645095860
End final coordinates

     Writing output data file calc.save

     General routines

     Parallel routines

   This run was terminated on:  20:52:53   9May2018

   JOB DONE.