     Program PWSCF v.5.1rc2 (svn rev. 11289) starts on 27Jan2018 at 15:25:15

     Current dimensions of program PWSCF are:
     Max number of different atomic species (ntypx) = 10
     Max number of k-points (npk) =  40000
     Max angular momentum in pseudopotentials (lmaxx) =  3
     Presently stress not available with electric field

     IMPORTANT: XC functional enforced from input :
     Exchange-correlation      = BEEF-VDW ( 1  4 27 13 2)
     Any further DFT definition will be discarded
     Please, verify this is what you really want

     Subspace diagonalization in iterative solution of the eigenvalue problem:
     a serial algorithm will be used

     bravais-lattice index     =            0
     lattice parameter (alat)  =       1.8897  a.u.
     unit-cell volume          =    7171.5276 (a.u.)^3
     number of atoms/cell      =           13
     number of atomic types    =            2
     number of electrons       =       174.00
     number of Kohn-Sham states=           97
     kinetic-energy cutoff     =      36.7493  Ry
     charge density cutoff     =     367.4932  Ry
     convergence threshold     =      1.0E-05
     mixing beta               =       0.3000
     number of iterations used =           10  plain     mixing
     Exchange-correlation      = BEEF-VDW ( 1  4 27 13 2)
     nstep                     =           50

     celldm(1)=   1.889726  celldm(2)=   0.000000  celldm(3)=   0.000000
     celldm(4)=   0.000000  celldm(5)=   0.000000  celldm(6)=   0.000000

     crystal axes: (cart. coord. in units of alat)
               a(1) = (   6.917003   0.000000   0.000000 )
               a(2) = (   3.458501   5.990300   0.000000 )
               a(3) = (   0.000000   0.000000  25.647709 )

     reciprocal axes: (cart. coord. in units 2 pi/alat)
               b(1) = (  0.144571 -0.083468  0.000000 )
               b(2) = (  0.000000  0.166937  0.000000 )
               b(3) = (  0.000000  0.000000  0.038990 )

     PseudoPot. # 1 for Pb read from file:
     /afs/slac.stanford.edu/u/if/mamunm/psp/gbrv1.5pbe/Pb.UPF
     MD5 check sum: 3d1c1779aa92214d1e8f3a7db79003e2
     Pseudo is Ultrasoft + core correction, Zval = 14.0
     Generated by new atomic code, or converted to UPF format
     Using radial grid of  899 points,  6 beta functions with:
                l(1) =   0
                l(2) =   0
                l(3) =   1
                l(4) =   1
                l(5) =   2
                l(6) =   2
     Q(r) pseudized with  6 coefficients,  rinner =    1.000   1.000   1.000
                                                       1.000   1.000

     PseudoPot. # 2 for S  read from file:
     /afs/slac.stanford.edu/u/if/mamunm/psp/gbrv1.5pbe/S.UPF
     MD5 check sum: 88d86576ff6df21479756cfb9bdac1df
     Pseudo is Ultrasoft + core correction, Zval =  6.0
     Generated by new atomic code, or converted to UPF format
     Using radial grid of  907 points,  6 beta functions with:
                l(1) =   0
                l(2) =   0
                l(3) =   1
                l(4) =   1
                l(5) =   2
                l(6) =   2
     Q(r) pseudized with  8 coefficients,  rinner =    1.300   1.300   1.300
                                                       1.300   1.300

     vdW kernel table read from file vdW_kernel_table
     MD5 check sum: 095c7af220d748ca6e76c0b4c6cfb241

     atomic species   valence    mass     pseudopotential
        Pb1           14.00   207.20000     Pb( 1.00)
        S1             6.00    32.06000     S ( 1.00)

     No symmetry found

   Cartesian axes

     site n.     atom                  positions (alat units)
         1           Pb1 tau(   1) = (   1.7292506   0.9983833  10.0000000  )
         2           Pb1 tau(   2) = (   5.1877519   0.9983833  10.0000000  )
         3           Pb1 tau(   3) = (   3.4585013   3.9935333  10.0000000  )
         4           Pb1 tau(   4) = (   6.9170025   3.9935333  10.0000000  )
         5           Pb1 tau(   5) = (   6.9170025   1.9967666  12.8238544  )
         6           Pb1 tau(   6) = (   3.4585013   1.9967666  12.8238544  )
         7           Pb1 tau(   7) = (   8.6462531   4.9919166  12.8238544  )
         8           Pb1 tau(   8) = (   5.1877519   4.9919166  12.8238544  )
         9           Pb1 tau(   9) = (   0.0000000   0.0000000  15.6477089  )
        10           Pb1 tau(  10) = (   3.4585013   0.0000000  15.6477089  )
        11           Pb1 tau(  11) = (   1.7292506   2.9951499  15.6477089  )
        12           Pb1 tau(  12) = (   5.1877519   2.9951499  15.6477089  )
        13           S1  tau(  13) = (   1.7292506   0.0000000  18.1577089  )

     number of k points=    20  Fermi-Dirac smearing, width (Ry)=  0.0110
                       cart. coord. in units 2pi/alat
        k(    1) = (   0.0000000   0.0000000   0.0000000), wk =   0.0555556
        k(    2) = (   0.0000000   0.0278228   0.0000000), wk =   0.1111111
        k(    3) = (   0.0000000   0.0556455   0.0000000), wk =   0.1111111
        k(    4) = (   0.0000000  -0.0834683   0.0000000), wk =   0.0555556
        k(    5) = (   0.0240952  -0.0139114   0.0000000), wk =   0.1111111
        k(    6) = (   0.0240952   0.0139114   0.0000000), wk =   0.1111111
        k(    7) = (   0.0240952   0.0417341   0.0000000), wk =   0.1111111
        k(    8) = (   0.0240952  -0.0973797   0.0000000), wk =   0.1111111
        k(    9) = (   0.0240952  -0.0695569   0.0000000), wk =   0.1111111
        k(   10) = (   0.0240952  -0.0417341   0.0000000), wk =   0.1111111
        k(   11) = (   0.0481904  -0.0278228   0.0000000), wk =   0.1111111
        k(   12) = (   0.0481904   0.0000000   0.0000000), wk =   0.1111111
        k(   13) = (   0.0481904   0.0278228   0.0000000), wk =   0.1111111
        k(   14) = (   0.0481904  -0.1112910   0.0000000), wk =   0.1111111
        k(   15) = (   0.0481904  -0.0834683   0.0000000), wk =   0.1111111
        k(   16) = (   0.0481904  -0.0556455   0.0000000), wk =   0.1111111
        k(   17) = (  -0.0722856   0.0417341   0.0000000), wk =   0.0555556
        k(   18) = (  -0.0722856   0.0695569   0.0000000), wk =   0.1111111
        k(   19) = (  -0.0722856   0.0973797   0.0000000), wk =   0.1111111
        k(   20) = (  -0.0722856  -0.0417341   0.0000000), wk =   0.0555556

     Largest allocated arrays     est. size (Mb)     dimensions
     Largest temporary arrays     est. size (Mb)     dimensions

     Check: negative/imaginary core charge=   -0.000001    0.000000

     Initial potential from superposition of free atoms
     Check: negative starting charge=   -0.197636

     starting charge  173.97174, renormalised to  174.00000

     negative rho (up, down):  1.977E-01 0.000E+00

     *
     * You are using vdW-DF for exchange-correlation in this calculation.
     * Please cite the following three references that made this development
     * possible:
     *
     *   M. Dion, H. Rydberg, E. Schroder, D. C. Langreth, and
     *   B. I. Lundqvist, Phys. Rev. Lett. 92, 246401 (2004).
     *
     *   T. Thonhauser, V. R. Cooper, S. Li, A. Puzder, P. Hyldgaard, and
     *   D. C. Langreth, Phys. Rev. B 76, 125112 (2007).
     *
     *   G. Roman-Perez and J. M. Soler, Phys. Rev. Lett. 103, 096102 (2009).
     *
     *
     * If you are using vdW-DF2, please also cite:
     *
     *   K. Lee, E. D. Murray, L. Kong, B. I. Lundqvist, and
     *   D. C. Langreth, Phys. Rev. B 82, 081101(R) (2010).
     *
     *
     * If you are calculating the stress with vdW-DF, please also cite:
     *
     *   R. Sabatini, E. Kucukbenli, B. Kolb, T. Thonhauser, and
     *   S. de Gironcoli, J. Phys.: Condens. Matter 24, 424209 (2012).
     *

     Carrying out vdW-DF run using the following parameters:

     Nqs =      20    Nr_points =    1024   r_max =   100.000
     q_mesh =
               0.00001000     0.04494208     0.09755937     0.15916263
               0.23128650     0.31572767     0.41458969     0.53033537
               0.66584808     0.82450364     1.01025438     1.22772762
               1.48234092     1.78043706     2.12944203     2.53805004
               3.01644009     3.57652955     4.23227104     5.00000000

     Gradients computed in reciprocal space

     Adding external electric field

     Computed dipole along edir(3) :
        Dipole               -0.0094 Ry au,         -0.0240 Debye
        Dipole field         -0.0000 Ry au

        Potential amp.        0.0016 Ry
        Total length         47.2555 bohr

     Starting wfc are  112 randomized atomic wfcs

     Self-consistent Calculation

     iteration #  1     ecut=    36.75 Ry     beta=0.30
     Davidson diagonalization with overlap
     ethr =  1.00E-02,  avg # of iterations =  2.0

     Threshold (ethr) on eigenvalues was too large:
     Diagonalizing with lowered threshold

     Davidson diagonalization with overlap
     ethr =  7.82E-04,  avg # of iterations =  1.9

[...]

     total energy              =   -2016.08682778 Ry
     Harris-Foulkes estimate   =   -2016.69951559 Ry
     estimated scf accuracy    <       1.34456835 Ry

[...]

     End of self-consistent calculation

          k = 0.0000 0.0000 0.0000 ( 27033 PWs)   bands (ev):

   -16.9688 -16.9658 -16.9641 -16.9266 -16.9228 -16.9151 -16.8881 -16.8804
   -16.8700 -16.8680 -16.8634 -16.8522 -16.8511 -16.8402 -16.8253 -16.8219
   -16.8200 -16.8143 -16.8140 -16.8123 -16.8097 -16.8017 -16.7968 -16.7939
   -16.7935 -16.7792 -16.7764 -16.7753 -16.7608 -16.7511 -16.7174 -16.6898
   -16.6772 -16.6766 -16.6670 -16.6610 -16.6392 -16.6305 -16.6296 -16.6268
   -16.5916 -16.5776 -16.5724 -16.5670 -16.5649 -16.5580 -16.5517 -16.5510
   -16.5487 -16.5453 -16.5447 -16.5310 -16.5283 -16.5272 -16.5200 -16.5183
   -16.5092 -16.4998 -16.4935 -16.4881 -10.9587 -10.3158  -9.6095  -8.2105
    -7.3885  -7.3719  -7.3620  -6.9443  -6.9163  -6.9045  -6.3085  -6.2931
    -6.2800  -3.1051  -3.0883  -3.0879  -2.5346  -2.1062  -2.0769  -2.0264
    -1.9745  -1.9320  -1.8949  -0.2835  -0.2515   0.0688   0.7316   1.8124
     1.8351   1.8510   2.0349   2.3640   2.4826   3.1289   3.2298   3.2366
     3.2546

[...]

          k =-0.0723 0.0417 0.0000 ( 26962 PWs)   bands (ev):

[...]

     the Fermi energy is     0.6862 ev

!    total energy              =   -2016.60097150 Ry
     Harris-Foulkes estimate   =   -2016.60100917 Ry
     estimated scf accuracy    <       0.00000168 Ry

     The total energy is the sum of the following terms:

     one-electron contribution =   -9501.19892732 Ry
     hartree contribution      =    4819.93020778 Ry
     xc contribution           =    -792.48778038 Ry
     ewald contribution        =    3457.19893723 Ry
     electric field correction =       0.00143712 Ry
     smearing contrib. (-TS)   =      -0.04484594 Ry

     convergence has been achieved in  11 iterations

 BEEF-vdW xc energy contributions
           1 :   -706.104477869697
           2 :    655.484951251154
           3 :   -566.463712235516
           4 :    458.636592246397
           5 :   -352.119163206846
           6 :    261.575667190576
           7 :   -193.084491471407
           8 :    144.569459277954
           9 :   -109.107855730722
          10 :    79.3284063872103
[...]

[...]

   This run was terminated on:  18: 3: 6  27Jan2018

[...]

     Program PWSCF v.5.1rc2 (svn rev. 11289) starts on 27Jan2018 at 18: 3:12

[...]

   This run was terminated on:  18:15:12  27Jan2018

[...]

     Program PWSCF v.5.1rc2 (svn rev. 11289) starts on 27Jan2018 at 18:15:18

     Current dimensions of program PWSCF are:
     Max number of different atomic species (ntypx) = 10
     Max number of k-points (npk) =  40000
     Max angular momentum in pseudopotentials (lmaxx) =  3
     Presently stress not available with electric field

     IMPORTANT: XC functional enforced from input :
     Exchange-correlation      = BEEF-VDW ( 1  4 27 13 2)
     Any further DFT definition will be discarded
     Please, verify this is what you really want

     Subspace diagonalization in iterative solution of the eigenvalue problem:
     a serial algorithm will be used

     bravais-lattice index     =            0
     lattice parameter (alat)  =       1.8897  a.u.
     unit-cell volume          =    7171.5276 (a.u.)^3
     number of atoms/cell      =           13
     number of atomic types    =            2
     number of electrons       =       174.00
     number of Kohn-Sham states=           97
     kinetic-energy cutoff     =      36.7493  Ry
     charge density cutoff     =     367.4932  Ry
     convergence threshold     =      1.0E-05
     mixing beta               =       0.3000
     number of iterations used =           10  plain     mixing
     Exchange-correlation      = BEEF-VDW ( 1  4 27 13 2)
     nstep                     =           50

     celldm(1)=   1.889726  celldm(2)=   0.000000  celldm(3)=   0.000000
     celldm(4)=   0.000000  celldm(5)=   0.000000  celldm(6)=   0.000000

     crystal axes: (cart. coord. in units of alat)
               a(1) = (   6.917003   0.000000   0.000000 )
               a(2) = (   3.458501   5.990300   0.000000 )
               a(3) = (   0.000000   0.000000  25.647709 )

     reciprocal axes: (cart. coord. in units 2 pi/alat)
               b(1) = (  0.144571 -0.083468  0.000000 )
               b(2) = (  0.000000  0.166937  0.000000 )
               b(3) = (  0.000000  0.000000  0.038990 )

     PseudoPot. # 1 for Pb read from file:
     /afs/slac.stanford.edu/u/if/mamunm/psp/gbrv1.5pbe/Pb.UPF
     MD5 check sum: 3d1c1779aa92214d1e8f3a7db79003e2
     Pseudo is Ultrasoft + core correction, Zval = 14.0
     Generated by new atomic code, or converted to UPF format
     Using radial grid of  899 points,  6 beta functions with:
                l(1) =   0
                l(2) =   0
                l(3) =   1
                l(4) =   1
                l(5) =   2
                l(6) =   2
     Q(r) pseudized with  6 coefficients,  rinner =    1.000   1.000   1.000
                                                       1.000   1.000

     PseudoPot. # 2 for S  read from file:
     /afs/slac.stanford.edu/u/if/mamunm/psp/gbrv1.5pbe/S.UPF
     MD5 check sum: 88d86576ff6df21479756cfb9bdac1df
     Pseudo is Ultrasoft + core correction, Zval =  6.0
     Generated by new atomic code, or converted to UPF format
     Using radial grid of  907 points,  6 beta functions with:
                l(1) =   0
                l(2) =   0
                l(3) =   1
                l(4) =   1
                l(5) =   2
                l(6) =   2
     Q(r) pseudized with  8 coefficients,  rinner =    1.300   1.300   1.300
                                                       1.300   1.300

     vdW kernel table read from file vdW_kernel_table
     MD5 check sum: 095c7af220d748ca6e76c0b4c6cfb241

     atomic species   valence    mass     pseudopotential
        Pb1           14.00   207.20000     Pb( 1.00)
        S1             6.00    32.06000     S ( 1.00)

     No symmetry found

   Cartesian axes

     site n.     atom                  positions (alat units)
         1           Pb1 tau(   1) = (   1.7292506   0.9983833  10.0000000  )
         2           Pb1 tau(   2) = (   5.1877519   0.9983833  10.0000000  )
         3           Pb1 tau(   3) = (   3.4585013   3.9935333  10.0000000  )
         4           Pb1 tau(   4) = (   6.9170025   3.9935333  10.0000000  )
         5           Pb1 tau(   5) = (   6.9170025   1.9967666  12.8238544  )
         6           Pb1 tau(   6) = (   3.4585013   1.9967666  12.8238544  )
         7           Pb1 tau(   7) = (   8.6462531   4.9919166  12.8238544  )
         8           Pb1 tau(   8) = (   5.1877519   4.9919166  12.8238544  )
         9           Pb1 tau(   9) = (   6.9015479   0.0087861  16.0237227  )
        10           Pb1 tau(  10) = (   3.4741875   0.0088878  16.0236285  )
        11           Pb1 tau(  11) = (   1.7292598   2.9579367  15.8893505  )
        12           Pb1 tau(  12) = (   5.1876747   3.0616463  15.9243037  )
        13           S1  tau(  13) = (   1.7293099   0.0029063  18.0193236  )

     number of k points=    20  Fermi-Dirac smearing, width (Ry)=  0.0110
                       cart. coord. in units 2pi/alat
        k(    1) = (   0.0000000   0.0000000   0.0000000), wk =   0.0555556
        k(    2) = (   0.0000000   0.0278228   0.0000000), wk =   0.1111111
        k(    3) = (   0.0000000   0.0556455   0.0000000), wk =   0.1111111
        k(    4) = (   0.0000000  -0.0834683   0.0000000), wk =   0.0555556
        k(    5) = (   0.0240952  -0.0139114   0.0000000), wk =   0.1111111
        k(    6) = (   0.0240952   0.0139114   0.0000000), wk =   0.1111111
        k(    7) = (   0.0240952   0.0417341   0.0000000), wk =   0.1111111
        k(    8) = (   0.0240952  -0.0973797   0.0000000), wk =   0.1111111
        k(    9) = (   0.0240952  -0.0695569   0.0000000), wk =   0.1111111
        k(   10) = (   0.0240952  -0.0417341   0.0000000), wk =   0.1111111
        k(   11) = (   0.0481904  -0.0278228   0.0000000), wk =   0.1111111
        k(   12) = (   0.0481904   0.0000000   0.0000000), wk =   0.1111111
        k(   13) = (   0.0481904   0.0278228   0.0000000), wk =   0.1111111
        k(   14) = (   0.0481904  -0.1112910   0.0000000), wk =   0.1111111
        k(   15) = (   0.0481904  -0.0834683   0.0000000), wk =   0.1111111
        k(   16) = (   0.0481904  -0.0556455   0.0000000), wk =   0.1111111
        k(   17) = (  -0.0722856   0.0417341   0.0000000), wk =   0.0555556
        k(   18) = (  -0.0722856   0.0695569   0.0000000), wk =   0.1111111
        k(   19) = (  -0.0722856   0.0973797   0.0000000), wk =   0.1111111
        k(   20) = (  -0.0722856  -0.0417341   0.0000000), wk =   0.0555556

     Largest allocated arrays     est. size (Mb)     dimensions
     Largest temporary arrays     est. size (Mb)     dimensions

     Check: negative/imaginary core charge=   -0.000001    0.000000

     Initial potential from superposition of free atoms
     Check: negative starting charge=   -0.196102

     starting charge  173.97174, renormalised to  174.00000

[...]

     *
     * You are using vdW-DF for exchange-correlation in this calculation.
     * Please cite the following three references that made this development
     * possible:
     *
     *   M. Dion, H. Rydberg, E. Schroder, D. C. Langreth, and
     *   B. I. Lundqvist, Phys. Rev. Lett. 92, 246401 (2004).
     *
     *   T. Thonhauser, V. R. Cooper, S. Li, A. Puzder, P. Hyldgaard, and
     *   D. C. Langreth, Phys. Rev. B 76, 125112 (2007).
     *
     *   G. Roman-Perez and J. M. Soler, Phys. Rev. Lett. 103, 096102 (2009).
     *
     *
     * If you are using vdW-DF2, please also cite:
     *
     *   K. Lee, E. D. Murray, L. Kong, B. I. Lundqvist, and
     *   D. C. Langreth, Phys. Rev. B 82, 081101(R) (2010).
     *
     *
     * If you are calculating the stress with vdW-DF, please also cite:
     *
     *   R. Sabatini, E. Kucukbenli, B. Kolb, T. Thonhauser, and
     *   S. de Gironcoli, J. Phys.: Condens. Matter 24, 424209 (2012).
     *

     Carrying out vdW-DF run using the following parameters:

     Nqs =      20    Nr_points =    1024   r_max =   100.000
     q_mesh =
               0.00001000     0.04494208     0.09755937     0.15916263
               0.23128650     0.31572767     0.41458969     0.53033537
               0.66584808     0.82450364     1.01025438     1.22772762
               1.48234092     1.78043706     2.12944203     2.53805004
               3.01644009     3.57652955     4.23227104     5.00000000

     Gradients computed in reciprocal space

[...]

     Starting wfc are  112 randomized atomic wfcs

     Self-consistent Calculation

[...]

     Threshold (ethr) on eigenvalues was too large:
     Diagonalizing with lowered threshold

     Davidson diagonalization with overlap
     ethr =  3.41E-04,  avg # of iterations =  2.0

[...]

     total energy              =   -2016.65884632 Ry
     Harris-Foulkes estimate   =   -2016.65886143 Ry
     estimated scf accuracy    <       0.00008301 Ry

     iteration # 10     ecut=    36.75 Ry     beta=0.30
     Davidson diagonalization with overlap
     ethr =  4.77E-08,  avg # of iterations =  4.8

[...]

     negative rho (up, down):  2.121E-01 0.000E+00

     Adding external electric field

     Computed dipole along edir(3) :
        Dipole               -0.5689 Ry au,         -1.4461 Debye
        Dipole field         -0.0010 Ry au

        Potential amp.        0.0942 Ry
        Total length         47.2555 bohr

     End of self-consistent calculation

[...]

          k = 0.0482-0.0556 0.0000 ( 26956 PWs)   bands (ev):

[...]

          k =-0.0723-0.0417 0.0000 ( 26962 PWs)   bands (ev):

   -16.6319 -16.6266 -16.6113 -16.6088 -16.5836 -16.5827 -16.5742 -16.5653
   -16.5580 -16.5557 -16.5487 -16.5419 -16.5368 -16.5354 -16.5339 -16.5319
   -16.5284 -16.5221 -16.5167 -16.5128 -16.4959 -16.4940 -16.4835 -16.4812
   -16.4748 -16.4695 -16.4502 -16.4495 -16.4467 -16.4389 -16.4228 -16.4147
   -16.4112 -16.4062 -16.4019 -16.3893 -16.3856 -16.3824 -16.3792 -16.3748
   -16.3711 -16.3644 -16.3580 -16.3556 -16.3544 -16.3474 -16.3465 -16.3424
   -16.3406 -16.3380 -16.3310 -16.3276 -16.3078 -16.3010 -16.2984 -16.2968
   -16.2910 -16.2872 -16.2527 -16.2416 -11.2092  -9.3485  -9.3122  -8.4202
    -8.1647  -7.4107  -7.3647  -7.3182  -7.1937  -6.7969  -6.4928  -6.0307
    -5.9478  -1.9477  -1.3880  -1.2451  -1.0174  -1.0015  -0.9613  -0.7292
    -0.6316  -0.5328  -0.2178   0.2400   0.5020   0.6708   0.9174   1.0567
     1.6252   1.6996   1.7318   1.9475   2.0495   2.1093   2.2723   2.3803
     2.4962

     the Fermi energy is     0.9553 ev

!    total energy              =   -2016.65884742 Ry
     Harris-Foulkes estimate   =   -2016.65889505 Ry
     estimated scf accuracy    <       0.00000407 Ry

     The total energy is the sum of the following terms:

     one-electron contribution =   -9140.02440500 Ry
     hartree contribution      =    4640.56479759 Ry
     xc contribution           =    -792.47058389 Ry
     ewald contribution        =    3275.31348178 Ry
     electric field correction =       0.00056721 Ry
     smearing contrib. (-TS)   =      -0.04270511 Ry

     convergence has been achieved in  10 iterations

 BEEF-vdW xc energy contributions
           1 :   -706.080193311179
           2 :    655.406203063677
           3 :   -566.306384246578
           4 :    458.442671899726
           5 :   -351.989502317705
           6 :    261.601247507464
           7 :   -193.267418948462
           8 :    144.799004676147
           9 :   -109.216788669409
          10 :    79.1959937547537
          11 :   -50.4998530898290
          12 :    23.0693335968447
          13 :   0.259167945540867
          14 :   -16.2972095572741
          15 :    23.7657387663785
          16 :   -24.1453578247032
          17 :    20.8873836505584
          18 :   -17.6378937531415
          19 :    16.5525477084709
          20 :   -17.5969276318574
          21 :    19.0897520358983
          22 :   -19.0492642005555
          23 :    16.5117413143195
          24 :   -12.0963514420616
          25 :    7.58079574841054
          26 :   -4.82718017206071
          27 :    4.72508225943966
          28 :   -6.74941320310950
          29 :    9.33622714991520
          30 :   -10.8093532468085
          31 :   -56.7260604354024
          32 :   -41.5144794914505

     Forces acting on atoms (Ry/au):

     negative rho (up, down):  2.121E-01 0.000E+00
     atom    1 type  1   force =     0.00001941   -0.00196605   -0.00706795
     atom    2 type  1   force =    -0.00001977   -0.00105106   -0.00527855
     atom    3 type  1   force =    -0.00238361    0.00148311   -0.00417912
     atom    4 type  1   force =     0.00235841    0.00148365   -0.00419144
     atom    5 type  1   force =    -0.00090872    0.00009816    0.00706690
     atom    6 type  1   force =     0.00092730    0.00010949    0.00704529
     atom    7 type  1   force =    -0.00000571   -0.00335014   -0.00284485
     atom    8 type  1   force =     0.00001292    0.00254764    0.00985709
     atom    9 type  1   force =    -0.00028888    0.00034933    0.00001427
     atom   10 type  1   force =     0.00027895    0.00033597    0.00003241
     atom   11 type  1   force =    -0.00001238    0.00142984   -0.00118878
     atom   12 type  1   force =     0.00000896   -0.00059744    0.00020249
     atom   13 type  2   force =     0.00001313   -0.00087249    0.00053226

     Total force =     0.019053     Total SCF correction =     0.007625
     SCF correction compared to forces is large: reduce conv_thr to get better values

     entering subroutine stress ...

     negative rho (up, down):  2.121E-01 0.000E+00
          total   stress  (Ry/bohr**3)                   (kbar)     P=    7.85
   0.00007604  -0.00000000   0.00000000         11.19     -0.00      0.00
  -0.00000000   0.00006315  -0.00000011         -0.00      9.29     -0.02
   0.00000000  -0.00000011   0.00002097          0.00     -0.02      3.08

 !ASE

     Writing output data file calc.save

     General routines

     Parallel routines

   This run was terminated on:  18:27: 8  27Jan2018

   JOB DONE.
Job  /afs/slac/g/suncat/bin/suncat-tsmpirun -x LD_LIBRARY_PATH -wdir /scratch/qe498627_QVwGM pw.x -in pw.inp

TID   HOST_NAME   COMMAND_LINE            STATUS            TERMINATION_TIME
00000 suncat0085 pw.x -in pw.inp   Done                     01/27/2018 18:27:08
00001 suncat0085 pw.x -in pw.inp   Done                     01/27/2018 18:27:08
00002 suncat0085 pw.x -in pw.inp   Done                     01/27/2018 18:27:08
00003 suncat0085 pw.x -in pw.inp   Done                     01/27/2018 18:27:08
00004 suncat0085 pw.x -in pw.inp   Done                     01/27/2018 18:27:08
00005 suncat0085 pw.x -in pw.inp   Done                     01/27/2018 18:27:08
00006 suncat0085 pw.x -in pw.inp   Done                     01/27/2018 18:27:08
00007 suncat0085 pw.x -in pw.inp   Done                     01/27/2018 18:27:08
00008 suncat0075 pw.x -in pw.inp   Done                     01/27/2018 18:27:08
00009 suncat0075 pw.x -in pw.inp   Done                     01/27/2018 18:27:08
00010 suncat0075 pw.x -in pw.inp   Done                     01/27/2018 18:27:08
00011 suncat0075 pw.x -in pw.inp   Done                     01/27/2018 18:27:08
00012 suncat0075 pw.x -in pw.inp   Done                     01/27/2018 18:27:08
00013 suncat0075 pw.x -in pw.inp   Done                     01/27/2018 18:27:08
00014 suncat0075 pw.x -in pw.inp   Done                     01/27/2018 18:27:08
00015 suncat0075 pw.x -in pw.inp   Done                     01/27/2018 18:27:08
00016 suncat0129 pw.x -in pw.inp   Done                     01/27/2018 18:27:08
00017 suncat0129 pw.x -in pw.inp   Done                     01/27/2018 18:27:08
00018 suncat0129 pw.x -in pw.inp   Done                     01/27/2018 18:27:08
00019 suncat0129 pw.x -in pw.inp   Done                     01/27/2018 18:27:08
00020 suncat0129 pw.x -in pw.inp   Done                     01/27/2018 18:27:08
00021 suncat0129 pw.x -in pw.inp   Done                     01/27/2018 18:27:08
00022 suncat0129 pw.x -in pw.inp   Done                     01/27/2018 18:27:08
00023 suncat0129 pw.x -in pw.inp   Done                     01/27/2018 18:27:08
00024 suncat0255 pw.x -in pw.inp   Done                     01/27/2018 18:27:08
00025 suncat0255 pw.x -in pw.inp   Done                     01/27/2018 18:27:08
00026 suncat0255 pw.x -in pw.inp   Done                     01/27/2018 18:27:08
00027 suncat0255 pw.x -in pw.inp   Done                     01/27/2018 18:27:08
00028 suncat0255 pw.x -in pw.inp   Done                     01/27/2018 18:27:08
00029 suncat0255 pw.x -in pw.inp   Done                     01/27/2018 18:27:08
00030 suncat0255 pw.x -in pw.inp   Done                     01/27/2018 18:27:08
00031 suncat0255 pw.x -in pw.inp   Done                     01/27/2018 18:27:08