     Program PWSCF v.5.1rc2 (svn rev. 11289) starts on 18Apr2018 at 22:13:17

     Current dimensions of program PWSCF are:
     Max number of different atomic species (ntypx) = 10
     Max number of k-points (npk) =  40000
     Max angular momentum in pseudopotentials (lmaxx) =  3
     Presently stress not available with electric field

     IMPORTANT: XC functional enforced from input :
     Exchange-correlation      = BEEF-VDW ( 1  4 27 13 2)
     Any further DFT definition will be discarded
     Please, verify this is what you really want

     Subspace diagonalization in iterative solution of the eigenvalue problem:
     a serial algorithm will be used

     bravais-lattice index     =            0
     lattice parameter (alat)  =       1.8897  a.u.
     unit-cell volume          =    8507.0471 (a.u.)^3
     number of atoms/cell      =           14
     number of atomic types    =            3
     number of electrons       =       139.00
     number of Kohn-Sham states=           79
     kinetic-energy cutoff     =      36.7493  Ry
     charge density cutoff     =     367.4932  Ry
     convergence threshold     =      1.0E-05
     mixing beta               =       0.3000
     number of iterations used =           10  plain     mixing
     Exchange-correlation      = BEEF-VDW ( 1  4 27 13 2)
     nstep                     =           50

     celldm(1)=   1.889726  celldm(2)=   0.000000  celldm(3)=   0.000000
     celldm(4)=   0.000000  celldm(5)=   0.000000  celldm(6)=   0.000000

     crystal axes: (cart. coord. in units of alat)
               a(1) = (   7.468327   0.000000   0.000000 )
               a(2) = (   3.734164   6.467761   0.000000 )
               a(3) = (   0.000000   0.000000  26.097863 )

     reciprocal axes: (cart. coord. in units 2 pi/alat)
               b(1) = (  0.133899 -0.077307  0.000000 )
               b(2) = (  0.000000  0.154613  0.000000 )
               b(3) = (  0.000000  0.000000  0.038317 )

     PseudoPot. # 1 for La read from file:
     /u/if/mamunm/psp/gbrv1.5pbe/La.UPF
     MD5 check sum: 5937b0c7494ba0601a847275249473aa
     Pseudo is Ultrasoft + core correction, Zval = 11.0
     Generated by new atomic code, or converted to UPF format
     Using radial grid of  995 points,  8 beta functions with:
                l(1) =   0
                l(2) =   0
                l(3) =   1
                l(4) =   1
                l(5) =   2
                l(6) =   2
                l(7) =   3
                l(8) =   3
     Q(r) pseudized with  8 coefficients,  rinner =    1.700   1.700   1.700
                                                       1.700   1.700   1.700
                                                       1.700

     PseudoPot. # 2 for S  read from file:
     /u/if/mamunm/psp/gbrv1.5pbe/S.UPF
     MD5 check sum: 88d86576ff6df21479756cfb9bdac1df
     Pseudo is Ultrasoft + core correction, Zval =  6.0
     Generated by new atomic code, or converted to UPF format
     Using radial grid of  907 points,  6 beta functions with:
                l(1) =   0
                l(2) =   0
                l(3) =   1
                l(4) =   1
                l(5) =   2
                l(6) =   2
     Q(r) pseudized with  8 coefficients,  rinner =    1.300   1.300   1.300
                                                       1.300   1.300

     PseudoPot. # 3 for H  read from file:
     /u/if/mamunm/psp/gbrv1.5pbe/H.UPF
     MD5 check sum: 761ae9a214b05c3daf00ab9f6b793d6f
     Pseudo is Ultrasoft, Zval =  1.0
     Generated by new atomic code, or converted to UPF format
     Using radial grid of  615 points,  2 beta functions with:
                l(1) =   0
                l(2) =   0
     Q(r) pseudized with  8 coefficients,  rinner =    0.700

     vdW kernel table read from file vdW_kernel_table
     MD5 check sum: 095c7af220d748ca6e76c0b4c6cfb241

     atomic species   valence    mass     pseudopotential
        La1           11.00   138.90547     La( 1.00)
        S1             6.00    32.06000     S ( 1.00)
        H1             1.00     1.00800     H ( 1.00)

     No symmetry found

   Cartesian axes

     site n.     atom                  positions (alat units)
         1           La1 tau(   1) = (   1.8670818   1.0779602  10.0000000  )
         2           La1 tau(   2) = (   5.6012453   1.0779602  10.0000000  )
         3           La1 tau(   3) = (   3.7341635   4.3118406  10.0000000  )
         4           La1 tau(   4) = (   7.4683270   4.3118406  10.0000000  )
         5           La1 tau(   5) = (   7.4683270   2.1559203  13.0489317  )
         6           La1 tau(   6) = (   3.7341635   2.1559203  13.0489317  )
         7           La1 tau(   7) = (   9.3354088   5.3898008  13.0489317  )
         8           La1 tau(   8) = (   5.6012453   5.3898008  13.0489317  )
         9           La1 tau(   9) = (   0.0000000   0.0000000  16.0978635  )
        10           La1 tau(  10) = (   3.7341635   0.0000000  16.0978635  )
        11           La1 tau(  11) = (   1.8670818   3.2338805  16.0978635  )
        12           La1 tau(  12) = (   5.6012453   3.2338805  16.0978635  )
        13           S1  tau(  13) = (   3.7341635   2.1559203  18.1258635  )
        14           H1  tau(  14) = (   3.7341635   2.1559203  19.3758635  )

     number of k points=    20  Fermi-Dirac smearing, width (Ry)=  0.0110
                       cart. coord. in units 2pi/alat
        k(    1) = (   0.0000000   0.0000000   0.0000000), wk =   0.0555556
        k(    2) = (   0.0000000   0.0257688   0.0000000), wk =   0.1111111
        k(    3) = (   0.0000000   0.0515377   0.0000000), wk =   0.1111111
        k(    4) = (   0.0000000  -0.0773065   0.0000000), wk =   0.0555556
        k(    5) = (   0.0223165  -0.0128844   0.0000000), wk =   0.1111111
        k(    6) = (   0.0223165   0.0128844   0.0000000), wk =   0.1111111
        k(    7) = (   0.0223165   0.0386533   0.0000000), wk =   0.1111111
        k(    8) = (   0.0223165  -0.0901909   0.0000000), wk =   0.1111111
        k(    9) = (   0.0223165  -0.0644221   0.0000000), wk =   0.1111111
        k(   10) = (   0.0223165  -0.0386533   0.0000000), wk =   0.1111111
        k(   11) = (   0.0446329  -0.0257688   0.0000000), wk =   0.1111111
        k(   12) = (   0.0446329   0.0000000   0.0000000), wk =   0.1111111
        k(   13) = (   0.0446329   0.0257688   0.0000000), wk =   0.1111111
        k(   14) = (   0.0446329  -0.1030753   0.0000000), wk =   0.1111111
        k(   15) = (   0.0446329  -0.0773065   0.0000000), wk =   0.1111111
        k(   16) = (   0.0446329  -0.0515377   0.0000000), wk =   0.1111111
        k(   17) = (  -0.0669494   0.0386533   0.0000000), wk =   0.0555556
        k(   18) = (  -0.0669494   0.0644221   0.0000000), wk =   0.1111111
        k(   19) = (  -0.0669494   0.0901909   0.0000000), wk =   0.1111111
        k(   20) = (  -0.0669494  -0.0386533   0.0000000), wk =   0.0555556

     Largest allocated arrays     est. size (Mb)     dimensions
     Largest temporary arrays     est. size (Mb)     dimensions

     Initial potential from superposition of free atoms
     Check: negative starting charge=   -0.830900

     starting charge  138.61513, renormalised to  139.00000

     negative rho (up, down):  8.332E-01 0.000E+00

     *
     * You are using vdW-DF for exchange-correlation in this calculation.
     * Please cite the following three references that made this development
     * possible:
     *
     *   M. Dion, H. Rydberg, E. Schroder, D. C. Langreth, and
     *   B. I. Lundqvist, Phys. Rev. Lett. 92, 246401 (2004).
     *
     *   T. Thonhauser, V. R. Cooper, S. Li, A. Puzder, P. Hyldgaard, and
     *   D. C. Langreth, Phys. Rev. B 76, 125112 (2007).
     *
     *   G. Roman-Perez and J. M. Soler, Phys. Rev. Lett. 103, 096102 (2009).
     *
     *
     * If you are using vdW-DF2, please also cite:
     *
     *   K. Lee, E. D. Murray, L. Kong, B. I. Lundqvist, and
     *   D. C. Langreth, Phys. Rev. B 82, 081101(R) (2010).
     *
     *
     * If you are calculating the stress with vdW-DF, please also cite:
     *
     *   R. Sabatini, E. Kucukbenli, B. Kolb, T. Thonhauser, and
     *   S. de Gironcoli, J. Phys.: Condens. Matter 24, 424209 (2012).
     *

     Carrying out vdW-DF run using the following parameters:

     Nqs =      20    Nr_points =    1024   r_max =   100.000
     q_mesh =
               0.00001000     0.04494208     0.09755937     0.15916263
               0.23128650     0.31572767     0.41458969     0.53033537
               0.66584808     0.82450364     1.01025438     1.22772762
               1.48234092     1.78043706     2.12944203     2.53805004
               3.01644009     3.57652955     4.23227104     5.00000000

     Gradients computed in reciprocal space

     Adding external electric field

     Computed dipole along edir(3) :
        Dipole               -0.1926 Ry au,         -0.4895 Debye
        Dipole field         -0.0003 Ry au

        Potential amp.        0.0274 Ry
        Total length         48.0849 bohr

     Starting wfc are  245 randomized atomic wfcs

     Self-consistent Calculation

     iteration #  1     ecut=    36.75 Ry     beta=0.30
     Davidson diagonalization with overlap
     ethr =  1.00E-02,  avg # of iterations =  2.0

[...]

     total energy              =   -1270.98900034 Ry
     Harris-Foulkes estimate   =   -1274.75191517 Ry
     estimated scf accuracy    <       7.83889446 Ry

[...]

     End of self-consistent calculation

          k = 0.0000 0.0000 0.0000 ( 31997 PWs)   bands (ev):

   -31.2575 -31.2468 -31.1244 -31.1233 -31.1229 -31.1190 -31.0514 -31.0513
   -30.7930 -30.6742 -30.6702 -30.6699 -15.4287 -15.3590 -15.3589 -15.3187
   -15.2893 -15.2893 -15.2108 -15.1127 -15.0976 -15.0974 -14.9383 -14.7909
   -14.7283 -14.7281 -14.5983 -14.5607 -14.5607 -14.5194 -14.5193 -14.5149
   -14.4913 -14.4913 -14.4562 -14.2609 -14.2609 -14.2278 -14.2278 -14.1841
   -14.1733 -14.1730 -14.1593 -14.0706 -14.0706 -14.0704 -13.8428 -13.8427
   -12.4040  -5.1248  -1.5830  -1.5830  -0.6560   0.0592   0.4058   0.4472
     0.4472   0.5663   0.7251   0.8166   0.8166   0.9717   0.9859   0.9860
     1.0586   1.0587   1.1210   1.8787   1.8787   1.9679   2.2582   2.4809
     2.6549   2.6549   2.9124   2.9948   3.1943   3.3012   3.3051

[...]

          k =-0.0669 0.0387 0.0000 ( 31970 PWs)   bands (ev):

[...]

     the Fermi energy is     2.1022 ev

!    total energy              =   -1273.94181247 Ry
     Harris-Foulkes estimate   =   -1273.94180918 Ry
     estimated scf accuracy    <       0.00000205 Ry

     The total energy is the sum of the following terms:

     one-electron contribution =   -4782.96353551 Ry
     hartree contribution      =    2406.02767022 Ry
     xc contribution           =    -618.21372567 Ry
     ewald contribution        =    1721.33260992 Ry
     electric field correction =       0.00001403 Ry
     smearing contrib. (-TS)   =      -0.12484547 Ry

     convergence has been achieved in  21 iterations

 BEEF-vdW xc energy contributions
           1 :   -547.463217886334
           2 :    503.344782619704
           3 :   -425.347746616213
           4 :    330.133706533121
           5 :   -235.405985765278
           6 :    155.201110701349
           7 :   -97.1977681196845
           8 :    62.3800020659262
           9 :   -46.5637798722287
          10 :    42.8546499710487
          11 :   -44.0989249590353
          12 :    44.6444470861421
          13 :   -41.1597053370767
          14 :    32.6532064480849
          15 :   -20.0374553773994
          16 :    5.51673137970852
          17 :    8.09380167545828
          18 :   -18.1158828003795
          19 :    22.7592347230900
          20 :   -21.6895374224457
          21 :    16.1771982013693
          22 :   -8.70068002748349
          23 :    2.09170175199824
          24 :    1.46779835954680
          25 :   -1.19050232171207
          26 :   -2.15048304937454
          27 :    6.69762958295109
          28 :   -10.3918967608718
          29 :    11.8449417166078
          30 :   -10.8189375926229
          31 :   -46.7765678310583
          32 :   -33.5426024550586

     Forces acting on atoms (Ry/au):

     negative rho (up, down):  5.856E-01 0.000E+00
     atom    1 type  1   force =    -0.00057312   -0.00035016    0.00405220
     atom    2 type  1   force =     0.00057247   -0.00034597    0.00403266
     atom    3 type  1   force =     0.00000346    0.00068489    0.00399426
     atom    4 type  1   force =    -0.00000018    0.00001619    0.00461131
     atom    5 type  1   force =     0.00000701   -0.00046983   -0.00402176
     atom    6 type  1   force =    -0.00000674   -0.00001955   -0.00227494
     atom    7 type  1   force =     0.00040815    0.00023210   -0.00398658
     atom    8 type  1   force =    -0.00040792    0.00024075   -0.00400515
     atom    9 type  1   force =    -0.00002084    0.00001999   -0.00736553
     atom   10 type  1   force =     0.00001296    0.00129591   -0.00062649
     atom   11 type  1   force =     0.00109382   -0.00064510   -0.00060635
     atom   12 type  1   force =    -0.00108974   -0.00066256   -0.00059285
     atom   13 type  2   force =    -0.00000116    0.00000036   -0.12037778
     atom   14 type  3   force =     0.00000181    0.00000297    0.12716699

     Total force =     0.175278     Total SCF correction =     0.003866

     entering subroutine stress ...

     negative rho (up, down):  5.856E-01 0.000E+00
          total   stress  (Ry/bohr**3)                   (kbar)     P=    1.42
   0.00000226   0.00000000  -0.00000000          0.33      0.00     -0.00
   0.00000000   0.00000226  -0.00000001          0.00      0.33     -0.00
  -0.00000000  -0.00000001   0.00002442         -0.00     -0.00      3.59

     BFGS Geometry Optimization

     number of scf cycles    =   1
     number of bfgs steps    =   0

     energy   new            =   -1273.9418124721 Ry

     new trust radius        =       0.1271669868 bohr
     new conv_thr            =       0.0000099958 Ry

ATOMIC_POSITIONS (crystal)
La1      0.166666667   0.166666667   0.383173129    0   0   0
La1      0.666666667   0.166666667   0.383173129    0   0   0
La1      0.166666667   0.666666667   0.383173129    0   0   0
La1      0.666666667   0.666666667   0.383173129    0   0   0
La1      0.833333333   0.333333333   0.500000000    0   0   0
La1      0.333333333   0.333333333   0.500000000    0   0   0
La1      0.833333333   0.833333333   0.500000000    0   0   0
La1      0.333333333   0.833333333   0.500000000    0   0   0
La1     -0.000002295   0.000001636   0.616677523
La1      0.499947904   0.000106029   0.616814168
La1      0.000103894   0.499947219   0.616814576
La1      0.499949890   0.499945791   0.616814850
S1       0.333333237   0.333333363   0.692093524
H1       0.333333340   0.333333576   0.745009543

     Writing output data file calc.save
     Check: negative starting charge=   -0.830900
     NEW-OLD atomic charge density approx. for the potential
     Check: negative starting charge=   -0.830752

[...]

     iteration #  1     ecut=    36.75 Ry     beta=0.30
     Davidson diagonalization with overlap
     c_bands:  1 eigenvalues not converged
     ethr =  1.00E-06,  avg # of iterations = 13.0

[...]

     energy   old            =   -1273.9418124721 Ry
     energy   new            =   -1273.9519937371 Ry

     CASE: energy  _new < energy  _old

[...]

     iteration #  2     ecut=    36.75 Ry     beta=0.30
     Davidson diagonalization with overlap
     c_bands:  1 eigenvalues not converged
     ethr =  1.09E-07,  avg # of iterations = 12.5

[...]

     Total force =     0.006648     Total SCF correction =     0.000714
     SCF correction compared to forces is large: reduce conv_thr to get better values

[...]

     number of scf cycles    =  13
     number of bfgs steps    =  12

     energy   old            =   -1273.9543735620 Ry
     energy   new            =   -1273.9544247544 Ry

     CASE: energy  _new < energy  _old

     new trust radius        =       0.0072960661 bohr
     new conv_thr            =       0.0000001000 Ry

ATOMIC_POSITIONS (crystal)
La1      0.166666667   0.166666667   0.383173129    0   0   0
La1      0.666666667   0.166666667   0.383173129    0   0   0
La1      0.166666667   0.666666667   0.383173129    0   0   0
La1      0.666666667   0.666666667   0.383173129    0   0   0
La1      0.833333333   0.333333333   0.500000000    0   0   0
La1      0.333333333   0.333333333   0.500000000    0   0   0
La1      0.833333333   0.833333333   0.500000000    0   0   0
La1      0.333333333   0.833333333   0.500000000    0   0   0
La1      0.000000003  -0.000000759   0.611623560
La1      0.498340795   0.003318367   0.617280333
La1      0.003317757   0.498341284   0.617280022
La1      0.498340443   0.498341714   0.617280255
S1       0.333332712   0.333334303   0.695816082
H1       0.333333896   0.333332742   0.747738434

     Writing output data file calc.save
     Check: negative starting charge=   -0.831324
     NEW-OLD atomic charge density approx. for the potential
     Check: negative starting charge=   -0.831342

[...]

     Self-consistent Calculation

[...]

     Threshold (ethr) on eigenvalues was too large:
     Diagonalizing with lowered threshold

     Davidson diagonalization with overlap
     ethr =  4.31E-08,  avg # of iterations =  7.1

[...]

     total energy              =   -1273.95445199 Ry
     Harris-Foulkes estimate   =   -1273.95445200 Ry
     estimated scf accuracy    <       0.00000013 Ry

     iteration # 10     ecut=    36.75 Ry     beta=0.30
     Davidson diagonalization with overlap
     ethr =  7.28E-11,  avg # of iterations =  3.4

[...]

     negative rho (up, down):  5.847E-01 0.000E+00

     Adding external electric field

     Computed dipole along edir(3) :
        Dipole                0.0507 Ry au,          0.1290 Debye
        Dipole field          0.0001 Ry au

        Potential amp.       -0.0072 Ry
        Total length         48.0849 bohr

     End of self-consistent calculation

[...]

          k = 0.0446-0.0515 0.0000 ( 31991 PWs)   bands (ev):

[...]

          k =-0.0669-0.0387 0.0000 ( 31970 PWs)   bands (ev):

   -31.2169 -31.2163 -31.1767 -31.1605 -31.1502 -31.1494 -31.1030 -31.0918
   -30.7554 -30.7422 -30.6902 -30.6816 -15.2428 -15.1917 -15.1584 -15.1219
   -15.1044 -15.0858 -15.0142 -14.9802 -14.9631 -14.9295 -14.8780 -14.8630
   -14.8508 -14.8287 -14.8244 -14.7795 -14.7485 -14.7413 -14.7184 -14.7152
   -14.4974 -14.4881 -14.4178 -14.4160 -14.3881 -14.3690 -14.3463 -14.3348
   -14.2916 -14.2849 -14.1657 -14.1587 -14.1447 -14.1250 -13.9798 -13.9661
   -11.9722  -4.8208  -1.5687  -1.4937   0.5013   0.5449   0.9088   0.9875
     1.2190   1.2613   1.2963   1.3327   1.3386   1.4605   1.6607   1.7252
     1.8658   1.8853   1.9071   1.9500   2.1427   2.1980   2.2417   2.2731
     2.2776   2.3149   2.4379   2.4825   2.5884   2.5920   2.6580

     the Fermi energy is     2.0771 ev

!    total energy              =   -1273.95445188 Ry
     Harris-Foulkes estimate   =   -1273.95445164 Ry
     estimated scf accuracy    <       0.00000006 Ry

     The total energy is the sum of the following terms:

     one-electron contribution =   -4791.81527622 Ry
     hartree contribution      =    2410.38650676 Ry
     xc contribution           =    -618.17406071 Ry
     ewald contribution        =    1725.77253753 Ry
     electric field correction =       0.00000380 Ry
     smearing contrib. (-TS)   =      -0.12416304 Ry

     convergence has been achieved in  10 iterations

 BEEF-vdW xc energy contributions
           1 :   -547.429833590424
           2 :    503.322293908126
           3 :   -425.341181188230
           4 :    330.136951273000
           5 :   -235.404796517445
           6 :    155.183389485764
           7 :   -97.1623853018033
           8 :    62.3385111046313
           9 :   -46.5335772280611
          10 :    42.8474687296746
          11 :   -44.1124219773454
          12 :    44.6633684900711
          13 :   -41.1665458484380
          14 :    32.6404445998855
          15 :   -20.0122358947855
          16 :    5.49545916674333
          17 :    8.09623121390689
          18 :   -18.0949764364289
          19 :    22.7235773124864
          20 :   -21.6563044310739
          21 :    16.1622801231935
          22 :   -8.70882975900838
          23 :    2.11365529831994
          24 :    1.44824585824074
          25 :   -1.18428447760505
          26 :   -2.14550219177806
          27 :    6.69400292405419
          28 :   -10.4021298155965
          29 :    11.8713034945403
          30 :   -10.8503946872034
          31 :   -46.7749593889279
          32 :   -33.5433064005128

     Forces acting on atoms (Ry/au):

     negative rho (up, down):  5.847E-01 0.000E+00
     atom    1 type  1   force =    -0.00051592   -0.00029797    0.00386173
     atom    2 type  1   force =     0.00051591   -0.00029796    0.00386142
     atom    3 type  1   force =    -0.00000013    0.00059574    0.00386158
     atom    4 type  1   force =    -0.00000016    0.00000002    0.00381895
     atom    5 type  1   force =     0.00000037    0.00078035   -0.00602957
     atom    6 type  1   force =    -0.00000012   -0.00000028   -0.00266904
     atom    7 type  1   force =    -0.00067599   -0.00038998   -0.00602967
     atom    8 type  1   force =     0.00067590   -0.00038990   -0.00602984
     atom    9 type  1   force =     0.00000022    0.00000055    0.00083613
     atom   10 type  1   force =     0.00000008   -0.00134507    0.00076955
     atom   11 type  1   force =    -0.00116528    0.00067225    0.00077022
     atom   12 type  1   force =     0.00116531    0.00067232    0.00076968
     atom   13 type  2   force =    -0.00000010   -0.00000017    0.00121572
     atom   14 type  3   force =    -0.00000008    0.00000012    0.00099313

     Total force =     0.003220     Total SCF correction =     0.000172

     entering subroutine stress ...

     negative rho (up, down):  5.847E-01 0.000E+00
          total   stress  (Ry/bohr**3)                   (kbar)     P=    0.03
   0.00000355   0.00000000  -0.00000000          0.52      0.00     -0.00
   0.00000000   0.00000355   0.00000000          0.00      0.52      0.00
  -0.00000000   0.00000000  -0.00000658         -0.00      0.00     -0.97

     bfgs converged in  14 scf cycles and  13 bfgs steps
     (criteria: energy <  1.0E+00, force <  1.9E-03)

     End of BFGS Geometry Optimization

     Final energy   =   -1273.9544518805 Ry
Begin final coordinates

ATOMIC_POSITIONS (crystal)
La1      0.166666667   0.166666667   0.383173129    0   0   0
La1      0.666666667   0.166666667   0.383173129    0   0   0
La1      0.166666667   0.666666667   0.383173129    0   0   0
La1      0.666666667   0.666666667   0.383173129    0   0   0
La1      0.833333333   0.333333333   0.500000000    0   0   0
La1      0.333333333   0.333333333   0.500000000    0   0   0
La1      0.833333333   0.833333333   0.500000000    0   0   0
La1      0.333333333   0.833333333   0.500000000    0   0   0
La1      0.000000003  -0.000000759   0.611623560
La1      0.498340795   0.003318367   0.617280333
La1      0.003317757   0.498341284   0.617280022
La1      0.498340443   0.498341714   0.617280255
S1       0.333332712   0.333334303   0.695816082
H1       0.333333896   0.333332742   0.747738434
End final coordinates

     Writing output data file calc.save

     General routines

     Parallel routines

   This run was terminated on:   3:35: 7  19Apr2018

   JOB DONE.
Job  /afs/slac/g/suncat/bin/suncat-tsmpirun -x LD_LIBRARY_PATH -wdir /scratch/qe340110_yCupu pw.x -npool 4 -in pw.inp

TID   HOST_NAME   COMMAND_LINE            STATUS            TERMINATION_TIME
00000 suncat0073 pw.x -npool 4 -i  Done                     04/19/2018 03:35:07
00001 suncat0073 pw.x -npool 4 -i  Done                     04/19/2018 03:35:07
00002 suncat0073 pw.x -npool 4 -i  Done                     04/19/2018 03:35:07
00003 suncat0073 pw.x -npool 4 -i  Done                     04/19/2018 03:35:07
00004 suncat0073 pw.x -npool 4 -i  Done                     04/19/2018 03:35:07
00005 suncat0073 pw.x -npool 4 -i  Done                     04/19/2018 03:35:07
00006 suncat0073 pw.x -npool 4 -i  Done                     04/19/2018 03:35:07
00007 suncat0073 pw.x -npool 4 -i  Done                     04/19/2018 03:35:07
00008 suncat0173 pw.x -npool 4 -i  Done                     04/19/2018 03:35:07
00009 suncat0173 pw.x -npool 4 -i  Done                     04/19/2018 03:35:07
00010 suncat0173 pw.x -npool 4 -i  Done                     04/19/2018 03:35:07
00011 suncat0173 pw.x -npool 4 -i  Done                     04/19/2018 03:35:07
00012 suncat0173 pw.x -npool 4 -i  Done                     04/19/2018 03:35:07
00013 suncat0173 pw.x -npool 4 -i  Done                     04/19/2018 03:35:07
00014 suncat0173 pw.x -npool 4 -i  Done                     04/19/2018 03:35:07
00015 suncat0173 pw.x -npool 4 -i  Done                     04/19/2018 03:35:07
00016 suncat0141 pw.x -npool 4 -i  Done                     04/19/2018 03:35:07
00017 suncat0141 pw.x -npool 4 -i  Done                     04/19/2018 03:35:07
00018 suncat0141 pw.x -npool 4 -i  Done                     04/19/2018 03:35:07
00019 suncat0141 pw.x -npool 4 -i  Done                     04/19/2018 03:35:07
00020 suncat0141 pw.x -npool 4 -i  Done                     04/19/2018 03:35:07
00021 suncat0141 pw.x -npool 4 -i  Done                     04/19/2018 03:35:07
00022 suncat0141 pw.x -npool 4 -i  Done                     04/19/2018 03:35:07
00023 suncat0141 pw.x -npool 4 -i  Done                     04/19/2018 03:35:07
00024 suncat0124 pw.x -npool 4 -i  Done                     04/19/2018 03:35:07
00025 suncat0124 pw.x -npool 4 -i  Done                     04/19/2018 03:35:07
00026 suncat0124 pw.x -npool 4 -i  Done                     04/19/2018 03:35:07
00027 suncat0124 pw.x -npool 4 -i  Done                     04/19/2018 03:35:07
00028 suncat0124 pw.x -npool 4 -i  Done                     04/19/2018 03:35:07
00029 suncat0124 pw.x -npool 4 -i  Done                     04/19/2018 03:35:07
00030 suncat0124 pw.x -npool 4 -i  Done                     04/19/2018 03:35:07
00031 suncat0124 pw.x -npool 4 -i  Done                     04/19/2018 03:35:07