     Program PWSCF v.5.1rc2 (svn rev. 11289) starts on 16Apr2018 at 12: 1:28

     Current dimensions of program PWSCF are:
     Max number of different atomic species (ntypx) = 10
     Max number of k-points (npk) =  40000
     Max angular momentum in pseudopotentials (lmaxx) =  3
     Presently stress not available with electric field

     IMPORTANT: XC functional enforced from input :
     Exchange-correlation      = BEEF-VDW ( 1  4 27 13 2)
     Any further DFT definition will be discarded
     Please, verify this is what you really want

     Subspace diagonalization in iterative solution of the eigenvalue problem:
     a serial algorithm will be used

     bravais-lattice index     =            0
     lattice parameter (alat)  =       1.8897  a.u.
     unit-cell volume          =    5144.9564 (a.u.)^3
     number of atoms/cell      =           14
     number of atomic types    =            3
     number of electrons       =       139.00
     number of Kohn-Sham states=           79
     kinetic-energy cutoff     =      36.7493  Ry
     charge density cutoff     =     367.4932  Ry
     convergence threshold     =      1.0E-05
     mixing beta               =       0.3000
     number of iterations used =           10  plain     mixing
     Exchange-correlation      = BEEF-VDW ( 1  4 27 13 2)
     nstep                     =           50

     celldm(1)=   1.889726  celldm(2)=   0.000000  celldm(3)=   0.000000
     celldm(4)=   0.000000  celldm(5)=   0.000000  celldm(6)=   0.000000

     crystal axes: (cart. coord. in units of alat)
               a(1) = (   5.950946   0.000000   0.000000 )
               a(2) = (   2.975473   5.153671   0.000000 )
               a(3) = (   0.000000   0.000000  24.858927 )

     reciprocal axes: (cart. coord. in units 2 pi/alat)
               b(1) = (  0.168040 -0.097018  0.000000 )
               b(2) = (  0.000000  0.194036  0.000000 )
               b(3) = (  0.000000  0.000000  0.040227 )

     PseudoPot. # 1 for Au read from file:
     /u/if/mamunm/psp/gbrv1.5pbe/Au.UPF
     MD5 check sum: 9d7f43293ad2c663164586bc4b293ffc
     Pseudo is Ultrasoft + core correction, Zval = 11.0
     Generated by new atomic code, or converted to UPF format
     Using radial grid of  985 points,  7 beta functions with:
                l(1) =   0
                l(2) =   0
                l(3) =   1
                l(4) =   1
                l(5) =   2
                l(6) =   2
                l(7) =   3
     Q(r) pseudized with  6 coefficients,  rinner =    1.900   1.900   1.900
                                                       1.900   1.900   1.900
                                                       1.900

     PseudoPot. # 2 for S  read from file:
     /u/if/mamunm/psp/gbrv1.5pbe/S.UPF
     MD5 check sum: 88d86576ff6df21479756cfb9bdac1df
     Pseudo is Ultrasoft + core correction, Zval =  6.0
     Generated by new atomic code, or converted to UPF format
     Using radial grid of  907 points,  6 beta functions with:
                l(1) =   0
                l(2) =   0
                l(3) =   1
                l(4) =   1
                l(5) =   2
                l(6) =   2
     Q(r) pseudized with  8 coefficients,  rinner =    1.300   1.300   1.300
                                                       1.300   1.300

     PseudoPot. # 3 for H  read from file:
     /u/if/mamunm/psp/gbrv1.5pbe/H.UPF
     MD5 check sum: 761ae9a214b05c3daf00ab9f6b793d6f
     Pseudo is Ultrasoft, Zval =  1.0
     Generated by new atomic code, or converted to UPF format
     Using radial grid of  615 points,  2 beta functions with:
                l(1) =   0
                l(2) =   0
     Q(r) pseudized with  8 coefficients,  rinner =    0.700

     vdW kernel table read from file vdW_kernel_table
     MD5 check sum: 095c7af220d748ca6e76c0b4c6cfb241

     atomic species   valence    mass     pseudopotential
        Au1           11.00   196.96657     Au( 1.00)
        S1             6.00    32.06000     S ( 1.00)
        H1             1.00     1.00800     H ( 1.00)

     No symmetry found

   Cartesian axes

     site n.     atom                  positions (alat units)
         1           Au1 tau(   1) = (   1.4877366   0.8589451  10.0000000  )
         2           Au1 tau(   2) = (   4.4632098   0.8589451  10.0000000  )
         3           Au1 tau(   3) = (   2.9754732   3.4357805  10.0000000  )
         4           Au1 tau(   4) = (   5.9509464   3.4357805  10.0000000  )
         5           Au1 tau(   5) = (   5.9509464   1.7178903  12.4294637  )
         6           Au1 tau(   6) = (   2.9754732   1.7178903  12.4294637  )
         7           Au1 tau(   7) = (   7.4386830   4.2947256  12.4294637  )
         8           Au1 tau(   8) = (   4.4632098   4.2947256  12.4294637  )
         9           Au1 tau(   9) = (   0.0000000   0.0000000  14.8589274  )
        10           Au1 tau(  10) = (   2.9754732   0.0000000  14.8589274  )
        11           Au1 tau(  11) = (   1.4877366   2.5768354  14.8589274  )
        12           Au1 tau(  12) = (   4.4632098   2.5768354  14.8589274  )
        13           S1  tau(  13) = (   0.0000000   0.0000000  16.9074274  )
        14           H1  tau(  14) = (   0.0000000   0.0000000  18.1574274  )

     number of k points=    20  Fermi-Dirac smearing, width (Ry)=  0.0110
                       cart. coord. in units 2pi/alat
        k(    1) = (   0.0000000   0.0000000   0.0000000), wk =   0.0555556
        k(    2) = (   0.0000000   0.0323394   0.0000000), wk =   0.1111111
        k(    3) = (   0.0000000   0.0646788   0.0000000), wk =   0.1111111
        k(    4) = (   0.0000000  -0.0970182   0.0000000), wk =   0.0555556
        k(    5) = (   0.0280067  -0.0161697   0.0000000), wk =   0.1111111
        k(    6) = (   0.0280067   0.0161697   0.0000000), wk =   0.1111111
        k(    7) = (   0.0280067   0.0485091   0.0000000), wk =   0.1111111
        k(    8) = (   0.0280067  -0.1131879   0.0000000), wk =   0.1111111
        k(    9) = (   0.0280067  -0.0808485   0.0000000), wk =   0.1111111
        k(   10) = (   0.0280067  -0.0485091   0.0000000), wk =   0.1111111
        k(   11) = (   0.0560135  -0.0323394   0.0000000), wk =   0.1111111
        k(   12) = (   0.0560135   0.0000000   0.0000000), wk =   0.1111111
        k(   13) = (   0.0560135   0.0323394   0.0000000), wk =   0.1111111
        k(   14) = (   0.0560135  -0.1293576   0.0000000), wk =   0.1111111
        k(   15) = (   0.0560135  -0.0970182   0.0000000), wk =   0.1111111
        k(   16) = (   0.0560135  -0.0646788   0.0000000), wk =   0.1111111
        k(   17) = (  -0.0840202   0.0485091   0.0000000), wk =   0.0555556
        k(   18) = (  -0.0840202   0.0808485   0.0000000), wk =   0.1111111
        k(   19) = (  -0.0840202   0.1131879   0.0000000), wk =   0.1111111
        k(   20) = (  -0.0840202  -0.0485091   0.0000000), wk =   0.0555556

     Largest allocated arrays     est. size (Mb)     dimensions
     Largest temporary arrays     est. size (Mb)     dimensions

     Check: negative/imaginary core charge=   -0.000002    0.000000

     Initial potential from superposition of free atoms

     starting charge  138.99849, renormalised to  139.00000

     negative rho (up, down):  5.941E-05 0.000E+00

     *
     * You are using vdW-DF for exchange-correlation in this calculation.
     * Please cite the following three references that made this development
     * possible:
     *
     *   M. Dion, H. Rydberg, E. Schroder, D. C. Langreth, and
     *   B. I. Lundqvist, Phys. Rev. Lett. 92, 246401 (2004).
     *
     *   T. Thonhauser, V. R. Cooper, S. Li, A. Puzder, P. Hyldgaard, and
     *   D. C. Langreth, Phys. Rev. B 76, 125112 (2007).
     *
     *   G. Roman-Perez and J. M. Soler, Phys. Rev. Lett. 103, 096102 (2009).
     *
     *
     * If you are using vdW-DF2, please also cite:
     *
     *   K. Lee, E. D. Murray, L. Kong, B. I. Lundqvist, and
     *   D. C. Langreth, Phys. Rev. B 82, 081101(R) (2010).
     *
     *
     * If you are calculating the stress with vdW-DF, please also cite:
     *
     *   R. Sabatini, E. Kucukbenli, B. Kolb, T. Thonhauser, and
     *   S. de Gironcoli, J. Phys.: Condens. Matter 24, 424209 (2012).
     *

     Carrying out vdW-DF run using the following parameters:

     Nqs =      20    Nr_points =    1024   r_max =   100.000
     q_mesh =
               0.00001000     0.04494208     0.09755937     0.15916263
               0.23128650     0.31572767     0.41458969     0.53033537
               0.66584808     0.82450364     1.01025438     1.22772762
               1.48234092     1.78043706     2.12944203     2.53805004
               3.01644009     3.57652955     4.23227104     5.00000000

     Gradients computed in reciprocal space

     Adding external electric field

     Computed dipole along edir(3) :
        Dipole               -0.0003 Ry au,         -0.0007 Debye
        Dipole field         -0.0000 Ry au

        Potential amp.        0.0001 Ry
        Total length         45.8022 bohr

     Starting wfc are  113 randomized atomic wfcs

     Self-consistent Calculation

     iteration #  1     ecut=    36.75 Ry     beta=0.30
     Davidson diagonalization with overlap
     ethr =  1.00E-02,  avg # of iterations =  2.2

     Threshold (ethr) on eigenvalues was too large:
     Diagonalizing with lowered threshold

     Davidson diagonalization with overlap
     ethr =  5.94E-04,  avg # of iterations =  2.4

[...]

     total energy              =   -1425.69299856 Ry
     Harris-Foulkes estimate   =   -1426.07972202 Ry
     estimated scf accuracy    <       0.93789080 Ry

[...]

     End of self-consistent calculation

          k = 0.0000 0.0000 0.0000 ( 19315 PWs)   bands (ev):

   -13.2745  -7.8427  -7.2784  -6.2094  -5.8321  -5.6237  -5.6237  -5.4996
    -5.4407  -5.4407  -5.3247  -5.2581  -5.2581  -5.0435  -4.9862  -4.9862
    -4.9250  -4.5631  -4.5631  -3.9340  -3.8408  -3.8408  -3.7975  -3.7032
    -3.6923  -3.6923  -3.5529  -3.5529  -3.4545  -3.4545  -3.3704  -3.3132
    -3.3132  -3.1514  -2.8999  -2.8999  -2.7626  -2.7626  -2.4980  -2.4409
    -2.4409  -2.3740  -2.2890  -2.2890  -2.1124  -2.0596  -2.0596  -1.7606
    -1.7606  -1.6809  -1.6142  -1.6142  -1.5841  -1.5841  -1.5343  -1.4799
    -1.4799  -1.4569  -1.3748  -1.3748  -1.1956  -1.1612  -1.1612  -1.1475
    -0.6694  -0.6694  -0.2362   0.9942   1.1896   1.1896   1.6712   1.7484
     1.8888   1.8888   2.0492   2.2917   2.2917   3.6688   3.6688

[...]

          k =-0.0840 0.0485 0.0000 ( 19380 PWs)   bands (ev):

[...]

     the Fermi energy is     0.4988 ev

!    total energy              =   -1425.94077747 Ry
     Harris-Foulkes estimate   =   -1425.94077414 Ry
     estimated scf accuracy    <       0.00000184 Ry

     The total energy is the sum of the following terms:

     one-electron contribution =   -8233.01677101 Ry
     hartree contribution      =    4215.99625794 Ry
     xc contribution           =    -777.83663217 Ry
     ewald contribution        =    3368.94755572 Ry
     electric field correction =       0.00002766 Ry
     smearing contrib. (-TS)   =      -0.03121560 Ry

     convergence has been achieved in  11 iterations

 BEEF-vdW xc energy contributions
           1 :   -694.912229034218
           2 :    645.562186378002
           3 :   -557.429992907538
           4 :    447.732676667097
           5 :   -334.959106921938
           6 :    234.119623508221
           7 :   -153.939779607324
           8 :    96.4354977522169
           9 :   -58.5594247292910
          10 :    34.9018887536579
          11 :   -20.2403388124499
          12 :    11.0020627127365
          13 :   -5.40354718701633
          14 :    2.66712238950481
          15 :   -2.05517804105546
          16 :    2.33436276754719
          17 :   -1.91662837928789
          18 :  -0.512860375708442
          19 :    5.31844226696217
          20 :   -11.6366251286479
          21 :    17.6959484277941
          22 :   -21.6031567356915
          23 :    22.1963581282253
          24 :   -19.5434209861556
          25 :    14.8536960615921
          26 :   -9.88120299316438
          27 :    6.13869816889041
          28 :   -4.31796840642005
          29 :    4.16901735248837
          30 :   -4.84271063456026
          31 :   -55.2109877291994
          32 :   -40.1836088595865

     Forces acting on atoms (Ry/au):

     negative rho (up, down):  1.508E-04 0.000E+00
     atom    1 type  1   force =    -0.00035450   -0.00020328   -0.00341001
     atom    2 type  1   force =     0.00034919   -0.00020312   -0.00341290
     atom    3 type  1   force =     0.00000849    0.00040676   -0.00341410
     atom    4 type  1   force =     0.00000213   -0.00000091    0.00014944
     atom    5 type  1   force =    -0.00000098   -0.00195078    0.00353501
     atom    6 type  1   force =    -0.00000164   -0.00000026    0.00347142
     atom    7 type  1   force =     0.00168753    0.00097807    0.00353310
     atom    8 type  1   force =    -0.00168996    0.00097741    0.00353533
     atom    9 type  1   force =     0.00000349   -0.00000088   -0.22657904
     atom   10 type  1   force =    -0.00000009    0.00133352   -0.00655115
     atom   11 type  1   force =     0.00115198   -0.00066759   -0.00654515
     atom   12 type  1   force =    -0.00115487   -0.00066755   -0.00655139
     atom   13 type  2   force =    -0.00000069   -0.00000099    0.11140591
     atom   14 type  3   force =    -0.00000009   -0.00000039    0.13083354

     Total force =     0.284606     Total SCF correction =     0.003993

     entering subroutine stress ...

     negative rho (up, down):  1.508E-04 0.000E+00
          total   stress  (Ry/bohr**3)                   (kbar)     P=    4.95
  -0.00007830  -0.00000000  -0.00000000        -11.52     -0.00     -0.00
  -0.00000000  -0.00007830  -0.00000000         -0.00    -11.52     -0.00
  -0.00000000  -0.00000000   0.00025750         -0.00     -0.00     37.88

     BFGS Geometry Optimization

     number of scf cycles    =   1
     number of bfgs steps    =   0

     energy   new            =   -1425.9407774749 Ry

     new trust radius        =       0.2265790402 bohr
     new conv_thr            =       0.0000099958 Ry

ATOMIC_POSITIONS (crystal)
Au1      0.166666667   0.166666667   0.402269971    0   0   0
Au1      0.666666667   0.166666667   0.402269971    0   0   0
Au1      0.166666667   0.666666667   0.402269971    0   0   0
Au1      0.666666667   0.666666667   0.402269971    0   0   0
Au1      0.833333333   0.333333333   0.500000000    0   0   0
Au1      0.333333333   0.333333333   0.500000000    0   0   0
Au1      0.833333333   0.833333333   0.500000000    0   0   0
Au1      0.333333333   0.833333333   0.500000000    0   0   0
Au1      0.000000356  -0.000000091   0.592906793
Au1      0.499931529   0.000136925   0.597590573
Au1      0.000136712   0.499931452   0.597590701
Au1      0.499931577   0.499931457   0.597590568
S1      -0.000000011  -0.000000101   0.682506554
H1       0.000000012  -0.000000040   0.733203860

     Writing output data file calc.save
     NEW-OLD atomic charge density approx. for the potential

[...]

     energy   old            =   -1425.9407774749 Ry
     energy   new            =   -1425.9936434287 Ry

     CASE: energy  _new < energy  _old

[...]

     Total force =     0.006147     Total SCF correction =     0.000366

[...]

     number of scf cycles    =  12
     number of bfgs steps    =  11

     energy   old            =   -1426.0285675230 Ry
     energy   new            =   -1426.0288562865 Ry

     CASE: energy  _new < energy  _old

     new trust radius        =       0.0388812249 bohr
     new conv_thr            =       0.0000001000 Ry

ATOMIC_POSITIONS (crystal)
Au1      0.166666667   0.166666667   0.402269971    0   0   0
Au1      0.666666667   0.166666667   0.402269971    0   0   0
Au1      0.166666667   0.666666667   0.402269971    0   0   0
Au1      0.666666667   0.666666667   0.402269971    0   0   0
Au1      0.833333333   0.333333333   0.500000000    0   0   0
Au1      0.333333333   0.333333333   0.500000000    0   0   0
Au1      0.833333333   0.833333333   0.500000000    0   0   0
Au1      0.333333333   0.833333333   0.500000000    0   0   0
Au1      0.000000926   0.000000213   0.595901570
Au1      0.499662801   0.000674404   0.598590639
Au1      0.000674587   0.499662627   0.598590658
Au1      0.499662715   0.499662267   0.598590745
S1      -0.000003209  -0.000001811   0.700876396
H1       0.000002052   0.000001079   0.755452786

     Writing output data file calc.save
     NEW-OLD atomic charge density approx. for the potential

     Check: negative/imaginary core charge=   -0.000002    0.000000

[...]

     Self-consistent Calculation

[...]

     total energy              =   -1426.02902621 Ry
     Harris-Foulkes estimate   =   -1426.02902590 Ry
     estimated scf accuracy    <       0.00000018 Ry

     iteration #  8     ecut=    36.75 Ry     beta=0.30
     Davidson diagonalization with overlap
     ethr =  1.32E-10,  avg # of iterations =  3.0

[...]

     negative rho (up, down):  1.423E-04 0.000E+00

     Adding external electric field

     Computed dipole along edir(3) :
        Dipole               -0.1319 Ry au,         -0.3353 Debye
        Dipole field         -0.0003 Ry au

        Potential amp.        0.0295 Ry
        Total length         45.8022 bohr

     End of self-consistent calculation

[...]

          k = 0.0560-0.0647 0.0000 ( 19376 PWs)   bands (ev):

[...]

          k =-0.0840-0.0485 0.0000 ( 19380 PWs)   bands (ev):

   -11.7752  -6.4695  -6.4018  -5.5022  -5.3577  -5.2910  -5.1530  -5.1307
    -5.1247  -5.1130  -5.0983  -4.9236  -4.7868  -4.7359  -4.6344  -4.5953
    -4.4807  -4.4333  -4.3071  -4.2860  -4.2811  -4.1962  -4.1299  -4.0842
    -3.9340  -3.9026  -3.6938  -3.6595  -3.5975  -3.5876  -3.5607  -3.5385
    -3.4815  -3.4486  -3.4402  -3.3568  -3.3560  -3.3310  -3.3232  -3.3176
    -3.2881  -3.2009  -3.1002  -3.0822  -2.8814  -2.8373  -2.8314  -2.7614
    -2.7273  -2.6669  -2.6656  -2.6313  -2.5746  -2.5659  -2.3735  -2.3250
    -2.3095  -2.2636  -1.9410  -1.8898  -1.8876  -1.8755  -1.8571  -1.6976
    -1.6721  -1.4708  -0.4032  -0.3947   0.1474   0.2336   0.5016   0.5594
     1.3012   1.3467   3.1313   3.2308   3.7976   3.8721   5.4935

     the Fermi energy is     0.1508 ev

!    total energy              =   -1426.02902624 Ry
     Harris-Foulkes estimate   =   -1426.02902627 Ry
     estimated scf accuracy    <       0.00000005 Ry

     The total energy is the sum of the following terms:

     one-electron contribution =   -8096.29895191 Ry
     hartree contribution      =    4146.85281150 Ry
     xc contribution           =    -777.53611730 Ry
     ewald contribution        =    3300.98790058 Ry
     electric field correction =       0.00004249 Ry
     smearing contrib. (-TS)   =      -0.03471160 Ry

     convergence has been achieved in   8 iterations

 BEEF-vdW xc energy contributions
           1 :   -694.595038239539
           2 :    645.095582757191
           3 :   -556.791757029740
           4 :    447.038676866561
           5 :   -334.379815748907
           6 :    233.782909103900
           7 :   -153.870580530177
           8 :    96.5524432871483
           9 :   -58.7201531504688
          10 :    34.9728628336104
          11 :   -20.1587096731131
          12 :    10.8008987488045
          13 :   -5.18715439102129
          14 :    2.55115973362444
          15 :   -2.10540647086668
          16 :    2.53645708920931
          17 :   -2.18997703222249
          18 :  -0.268235001309904
          19 :    5.17028365371550
          20 :   -11.5917140875505
          21 :    17.7079359615116
          22 :   -21.6092473515577
          23 :    22.1589263620776
          24 :   -19.4713502343669
          25 :    14.7922058779749
          26 :   -9.87886256845809
          27 :    6.21383609678196
          28 :   -4.44543798003201
          29 :    4.29495932228042
          30 :   -4.91685599948232
          31 :   -55.1884539922178
          32 :   -40.1241956915034

     Forces acting on atoms (Ry/au):

     negative rho (up, down):  1.423E-04 0.000E+00
     atom    1 type  1   force =     0.00010887    0.00006278   -0.00362608
     atom    2 type  1   force =    -0.00010887    0.00006290   -0.00362609
     atom    3 type  1   force =     0.00000010   -0.00012563   -0.00362629
     atom    4 type  1   force =    -0.00000009   -0.00000003   -0.00091629
     atom    5 type  1   force =    -0.00000012    0.00162608    0.00326816
     atom    6 type  1   force =     0.00000005   -0.00000002    0.00442866
     atom    7 type  1   force =    -0.00140800   -0.00081290    0.00326862
     atom    8 type  1   force =     0.00140827   -0.00081321    0.00326794
     atom    9 type  1   force =     0.00000084    0.00000042    0.00038596
     atom   10 type  1   force =     0.00000041   -0.00049243   -0.00051135
     atom   11 type  1   force =    -0.00042623    0.00024644   -0.00051134
     atom   12 type  1   force =     0.00042630    0.00024612   -0.00051162
     atom   13 type  2   force =    -0.00000433   -0.00000156   -0.00120471
     atom   14 type  3   force =     0.00000281    0.00000103   -0.00008557

     Total force =     0.001766     Total SCF correction =     0.000779
     SCF correction compared to forces is large: reduce conv_thr to get better values

     entering subroutine stress ...

     negative rho (up, down):  1.423E-04 0.000E+00
          total   stress  (Ry/bohr**3)                   (kbar)     P=  -10.49
  -0.00011017  -0.00000000  -0.00000000        -16.21     -0.00     -0.00
  -0.00000000  -0.00011017  -0.00000000         -0.00    -16.21     -0.00
  -0.00000000  -0.00000000   0.00000633         -0.00     -0.00      0.93

     bfgs converged in  13 scf cycles and  12 bfgs steps
     (criteria: energy <  1.0E+00, force <  1.9E-03)

     End of BFGS Geometry Optimization

     Final energy   =   -1426.0290262398 Ry
Begin final coordinates

ATOMIC_POSITIONS (crystal)
Au1      0.166666667   0.166666667   0.402269971    0   0   0
Au1      0.666666667   0.166666667   0.402269971    0   0   0
Au1      0.166666667   0.666666667   0.402269971    0   0   0
Au1      0.666666667   0.666666667   0.402269971    0   0   0
Au1      0.833333333   0.333333333   0.500000000    0   0   0
Au1      0.333333333   0.333333333   0.500000000    0   0   0
Au1      0.833333333   0.833333333   0.500000000    0   0   0
Au1      0.333333333   0.833333333   0.500000000    0   0   0
Au1      0.000000926   0.000000213   0.595901570
Au1      0.499662801   0.000674404   0.598590639
Au1      0.000674587   0.499662627   0.598590658
Au1      0.499662715   0.499662267   0.598590745
S1      -0.000003209  -0.000001811   0.700876396
H1       0.000002052   0.000001079   0.755452786
End final coordinates

     Writing output data file calc.save

     General routines

     Parallel routines

   This run was terminated on:  13:38:46  16Apr2018

   JOB DONE.
Job  /afs/slac/g/suncat/bin/suncat-tsmpirun -x LD_LIBRARY_PATH -wdir /scratch/qe121385_M7Yfw pw.x -npool 4 -in pw.inp

TID   HOST_NAME   COMMAND_LINE            STATUS            TERMINATION_TIME
00000 suncat0034 pw.x -npool 4 -i  Done                     04/16/2018 13:38:47
00001 suncat0034 pw.x -npool 4 -i  Done                     04/16/2018 13:38:46
00002 suncat0034 pw.x -npool 4 -i  Done                     04/16/2018 13:38:47
00003 suncat0034 pw.x -npool 4 -i  Done                     04/16/2018 13:38:47
00004 suncat0034 pw.x -npool 4 -i  Done                     04/16/2018 13:38:47
00005 suncat0034 pw.x -npool 4 -i  Done                     04/16/2018 13:38:47
00006 suncat0034 pw.x -npool 4 -i  Done                     04/16/2018 13:38:47
00007 suncat0034 pw.x -npool 4 -i  Done                     04/16/2018 13:38:47
00008 suncat0027 pw.x -npool 4 -i  Done                     04/16/2018 13:38:46
00009 suncat0027 pw.x -npool 4 -i  Done                     04/16/2018 13:38:47
00010 suncat0027 pw.x -npool 4 -i  Done                     04/16/2018 13:38:47
00011 suncat0027 pw.x -npool 4 -i  Done                     04/16/2018 13:38:47
00012 suncat0027 pw.x -npool 4 -i  Done                     04/16/2018 13:38:47
00013 suncat0027 pw.x -npool 4 -i  Done                     04/16/2018 13:38:47
00014 suncat0027 pw.x -npool 4 -i  Done                     04/16/2018 13:38:47
00015 suncat0027 pw.x -npool 4 -i  Done                     04/16/2018 13:38:47
00016 suncat0010 pw.x -npool 4 -i  Done                     04/16/2018 13:38:46
00017 suncat0010 pw.x -npool 4 -i  Done                     04/16/2018 13:38:47
00018 suncat0010 pw.x -npool 4 -i  Done                     04/16/2018 13:38:46
00019 suncat0010 pw.x -npool 4 -i  Done                     04/16/2018 13:38:46
00020 suncat0010 pw.x -npool 4 -i  Done                     04/16/2018 13:38:46
00021 suncat0010 pw.x -npool 4 -i  Done                     04/16/2018 13:38:46
00022 suncat0010 pw.x -npool 4 -i  Done                     04/16/2018 13:38:46
00023 suncat0010 pw.x -npool 4 -i  Done                     04/16/2018 13:38:46
00024 suncat0194 pw.x -npool 4 -i  Done                     04/16/2018 13:38:46
00025 suncat0194 pw.x -npool 4 -i  Done                     04/16/2018 13:38:47
00026 suncat0194 pw.x -npool 4 -i  Done                     04/16/2018 13:38:47
00027 suncat0194 pw.x -npool 4 -i  Done                     04/16/2018 13:38:46
00028 suncat0194 pw.x -npool 4 -i  Done                     04/16/2018 13:38:46
00029 suncat0194 pw.x -npool 4 -i  Done                     04/16/2018 13:38:46
00030 suncat0194 pw.x -npool 4 -i  Done                     04/16/2018 13:38:46
00031 suncat0194 pw.x -npool 4 -i  Done                     04/16/2018 13:38:47