     Program PWSCF v.5.1rc2 starts on 27Apr2018 at 11:22:53

     Current dimensions of program PWSCF are:
     Max number of different atomic species (ntypx) = 10
     Max number of k-points (npk) =  40000
     Max angular momentum in pseudopotentials (lmaxx) =  3
     Presently stress not available with electric field

     IMPORTANT: XC functional enforced from input :
     Exchange-correlation      = BEEF-VDW ( 1  4 27 13 2)
     Any further DFT definition will be discarded
     Please, verify this is what you really want

     bravais-lattice index     =            0
     lattice parameter (alat)  =       1.8897  a.u.
     unit-cell volume          =    6082.7792 (a.u.)^3
     number of atoms/cell      =           14
     number of atomic types    =            3
     number of electrons       =       151.00
     number of Kohn-Sham states=           85
     kinetic-energy cutoff     =      36.7493  Ry
     charge density cutoff     =     367.4932  Ry
     convergence threshold     =      1.0E-05
     mixing beta               =       0.3000
     number of iterations used =           10  plain     mixing
     Exchange-correlation      = BEEF-VDW ( 1  4 27 13 2)
     nstep                     =           50

     celldm(1)=   1.889726  celldm(2)=   0.000000  celldm(3)=   0.000000
     celldm(4)=   0.000000  celldm(5)=   0.000000  celldm(6)=   0.000000

     crystal axes: (cart. coord. in units of alat)
               a(1) = (   6.421223   0.000000   0.000000 )
               a(2) = (   3.210611   5.560942   0.000000 )
               a(3) = (   0.000000   0.000000  25.242906 )

     reciprocal axes: (cart. coord. in units 2 pi/alat)
               b(1) = (  0.155734 -0.089913  0.000000 )
               b(2) = (  0.000000  0.179826  0.000000 )
               b(3) = (  0.000000  0.000000  0.039615 )

     PseudoPot. # 1 for Zr read from file:
     /home/users/mamunm/src/pseudo/gbrv1.5pbe/Zr.UPF
     MD5 check sum: 5db81b1e868ab7776c4564c113de050b
     Pseudo is Ultrasoft + core correction, Zval = 12.0
     Generated by new atomic code, or converted to UPF format
     Using radial grid of  887 points,  6 beta functions with:
                l(1) =   0
                l(2) =   0
                l(3) =   1
                l(4) =   1
                l(5) =   2
                l(6) =   2
     Q(r) pseudized with  6 coefficients,  rinner =    1.200   1.200   1.200
                                                       1.200   1.200

     PseudoPot. # 2 for S  read from file:
     /home/users/mamunm/src/pseudo/gbrv1.5pbe/S.UPF
     MD5 check sum: 88d86576ff6df21479756cfb9bdac1df
     Pseudo is Ultrasoft + core correction, Zval =  6.0
     Generated by new atomic code, or converted to UPF format
     Using radial grid of  907 points,  6 beta functions with:
                l(1) =   0
                l(2) =   0
                l(3) =   1
                l(4) =   1
                l(5) =   2
                l(6) =   2
     Q(r) pseudized with  8 coefficients,  rinner =    1.300   1.300   1.300
                                                       1.300   1.300

     PseudoPot. # 3 for H  read from file:
     /home/users/mamunm/src/pseudo/gbrv1.5pbe/H.UPF
     MD5 check sum: 761ae9a214b05c3daf00ab9f6b793d6f
     Pseudo is Ultrasoft, Zval =  1.0
     Generated by new atomic code, or converted to UPF format
     Using radial grid of  615 points,  2 beta functions with:
                l(1) =   0
                l(2) =   0
     Q(r) pseudized with  8 coefficients,  rinner =    0.700

     vdW kernel table read from file vdW_kernel_table
     MD5 check sum: 095c7af220d748ca6e76c0b4c6cfb241

     atomic species   valence    mass     pseudopotential
        Zr1           12.00    91.22400     Zr( 1.00)
        S1             6.00    32.06000     S ( 1.00)
        H1             1.00     1.00800     H ( 1.00)

     No symmetry found

   Cartesian axes

     site n.     atom                  positions (alat units)
         1           Zr1 tau(   1) = (   1.6053057   0.9268237  10.0000000  )
         2           Zr1 tau(   2) = (   4.8159170   0.9268237  10.0000000  )
         3           Zr1 tau(   3) = (   3.2106113   3.7072946  10.0000000  )
         4           Zr1 tau(   4) = (   6.4212227   3.7072946  10.0000000  )
         5           Zr1 tau(   5) = (   6.4212227   1.8536473  12.6214532  )
         6           Zr1 tau(   6) = (   3.2106113   1.8536473  12.6214532  )
         7           Zr1 tau(   7) = (   8.0265283   4.6341183  12.6214532  )
         8           Zr1 tau(   8) = (   4.8159170   4.6341183  12.6214532  )
         9           Zr1 tau(   9) = (   0.0000000   0.0000000  15.2429064  )
        10           Zr1 tau(  10) = (   3.2106113   0.0000000  15.2429064  )
        11           Zr1 tau(  11) = (   1.6053057   2.7804710  15.2429064  )
        12           Zr1 tau(  12) = (   4.8159170   2.7804710  15.2429064  )
        13           S1  tau(  13) = (   3.2106113   1.8536473  17.0629064  )
        14           H1  tau(  14) = (   3.2106113   1.8536473  18.3129064  )

     number of k points=    20  Fermi-Dirac smearing, width (Ry)=  0.0110
                       cart. coord. in units 2pi/alat
        k(    1) = (   0.0000000   0.0000000   0.0000000), wk =   0.0555556
        k(    2) = (   0.0000000   0.0299709   0.0000000), wk =   0.1111111
        k(    3) = (   0.0000000   0.0599419   0.0000000), wk =   0.1111111
        k(    4) = (   0.0000000  -0.0899128   0.0000000), wk =   0.0555556
        k(    5) = (   0.0259556  -0.0149855   0.0000000), wk =   0.1111111
        k(    6) = (   0.0259556   0.0149855   0.0000000), wk =   0.1111111
        k(    7) = (   0.0259556   0.0449564   0.0000000), wk =   0.1111111
        k(    8) = (   0.0259556  -0.1048983   0.0000000), wk =   0.1111111
        k(    9) = (   0.0259556  -0.0749274   0.0000000), wk =   0.1111111
        k(   10) = (   0.0259556  -0.0449564   0.0000000), wk =   0.1111111
        k(   11) = (   0.0519112  -0.0299709   0.0000000), wk =   0.1111111
        k(   12) = (   0.0519112   0.0000000   0.0000000), wk =   0.1111111
        k(   13) = (   0.0519112   0.0299709   0.0000000), wk =   0.1111111
        k(   14) = (   0.0519112  -0.1198838   0.0000000), wk =   0.1111111
        k(   15) = (   0.0519112  -0.0899128   0.0000000), wk =   0.1111111
        k(   16) = (   0.0519112  -0.0599419   0.0000000), wk =   0.1111111
        k(   17) = (  -0.0778668   0.0449564   0.0000000), wk =   0.0555556
        k(   18) = (  -0.0778668   0.0749274   0.0000000), wk =   0.1111111
        k(   19) = (  -0.0778668   0.1048983   0.0000000), wk =   0.1111111
        k(   20) = (  -0.0778668  -0.0449564   0.0000000), wk =   0.0555556

     Largest allocated arrays     est. size (Mb)     dimensions
     Largest temporary arrays     est. size (Mb)     dimensions

     Initial potential from superposition of free atoms
     Check: negative starting charge=   -0.728967

     starting charge  150.97416, renormalised to  151.00000

     negative rho (up, down):  7.291E-01 0.000E+00

     *
     * You are using vdW-DF for exchange-correlation in this calculation.
     * Please cite the following three references that made this development
     * possible:
     *
     *   M. Dion, H. Rydberg, E. Schroder, D. C. Langreth, and
     *   B. I. Lundqvist, Phys. Rev. Lett. 92, 246401 (2004).
     *
     *   T. Thonhauser, V. R. Cooper, S. Li, A. Puzder, P. Hyldgaard, and
     *   D. C. Langreth, Phys. Rev. B 76, 125112 (2007).
     *
     *   G. Roman-Perez and J. M. Soler, Phys. Rev. Lett. 103, 096102 (2009).
     *
     *
     * If you are using vdW-DF2, please also cite:
     *
     *   K. Lee, E. D. Murray, L. Kong, B. I. Lundqvist, and
     *   D. C. Langreth, Phys. Rev. B 82, 081101(R) (2010).
     *
     *
     * If you are calculating the stress with vdW-DF, please also cite:
     *
     *   R. Sabatini, E. Kucukbenli, B. Kolb, T. Thonhauser, and
     *   S. de Gironcoli, J. Phys.: Condens. Matter 24, 424209 (2012).
     *

     Carrying out vdW-DF run using the following parameters:

     Nqs =      20    Nr_points =    1024   r_max =   100.000
     q_mesh =
               0.00001000     0.04494208     0.09755937     0.15916263
               0.23128650     0.31572767     0.41458969     0.53033537
               0.66584808     0.82450364     1.01025438     1.22772762
               1.48234092     1.78043706     2.12944203     2.53805004
               3.01644009     3.57652955     4.23227104     5.00000000

     Gradients computed in reciprocal space

     Adding external electric field

     Computed dipole along edir(3) :
        Dipole               -0.0101 Ry au,         -0.0256 Debye
        Dipole field         -0.0000 Ry au

        Potential amp.        0.0019 Ry
        Total length         46.5096 bohr

     Starting wfc are  161 randomized atomic wfcs

     Self-consistent Calculation

     iteration #  1     ecut=    36.75 Ry     beta=0.30
     Davidson diagonalization with overlap
     ethr =  1.00E-02,  avg # of iterations =  2.0

[...]

     total energy              =   -1219.64794556 Ry
     Harris-Foulkes estimate   =   -1223.21009924 Ry
     estimated scf accuracy    <       7.45834912 Ry

[...]

     iteration # 15     ecut=    36.75 Ry     beta=0.30
     Davidson diagonalization with overlap
     c_bands:  1 eigenvalues not converged
     ethr =  5.91E-08,  avg # of iterations =  8.6

[...]

     End of self-consistent calculation

          k = 0.0000 0.0000 0.0000 ( 22923 PWs)   bands (ev):

   -47.3299 -47.3160 -47.2407 -47.2400 -47.2366 -47.2186 -47.1682 -47.1676
   -47.0328 -46.9623 -46.9434 -46.9428 -25.6251 -25.6199 -25.6197 -25.5788
   -25.5699 -25.5696 -25.5320 -25.4575 -25.4517 -25.4516 -25.3383 -25.2508
   -25.2172 -25.2166 -25.1148 -25.0992 -25.0989 -25.0654 -25.0651 -25.0639
   -25.0384 -25.0382 -25.0159 -24.8976 -24.8976 -24.8799 -24.8666 -24.8664
   -24.8493 -24.8490 -24.8365 -24.7689 -24.7639 -24.7637 -24.6153 -24.6153
   -13.1098  -6.0204  -2.9261  -2.4113  -2.4113  -1.7471  -1.0255  -0.6199
    -0.6197  -0.5298  -0.4661  -0.3729  -0.3729  -0.0234   0.0358   0.0359
     0.1244   0.1244   0.1613   1.0410   1.0412   1.1620   1.7264   1.9449
     2.1497   2.1498   2.4417   2.4904   2.6030   2.7362   2.7363   2.8183
     2.8609   2.8611   3.0779   3.0798   3.0954

[...]

          k =-0.0779 0.0450 0.0000 ( 22880 PWs)   bands (ev):

[...]

     the Fermi energy is     1.9521 ev

!    total energy              =   -1222.62646114 Ry
     Harris-Foulkes estimate   =   -1222.62643728 Ry
     estimated scf accuracy    <       0.00000435 Ry

     The total energy is the sum of the following terms:

     one-electron contribution =   -8463.89478310 Ry
     hartree contribution      =    4227.01000628 Ry
     xc contribution           =    -230.23702101 Ry
     ewald contribution        =    3244.61330765 Ry
     electric field correction =       0.00020006 Ry
     smearing contrib. (-TS)   =      -0.11817100 Ry

     convergence has been achieved in  16 iterations

 BEEF-vdW xc energy contributions
           1 :   -197.106341564740
           2 :    178.189940684354
           3 :   -146.303994795437
           4 :    110.397581364561
           5 :   -78.5760925462367
           6 :    55.3094171492752
           7 :   -40.6993861621550
           8 :    31.7747910230797
           9 :   -24.8194560581540
          10 :    17.4089705903054
          11 :   -9.23175616045253
          12 :    1.57071329148815
          13 :    3.95980977422894
          14 :   -6.56456315403270
          15 :    6.69285246313427
          16 :   -5.64740930586439
          17 :    4.75418548354807
          18 :   -4.65379956117550
          19 :    5.11567343670802
          20 :   -5.40598153395277
          21 :    4.90165952848969
          22 :   -3.53420679534830
          23 :    1.80808941561898
          24 :  -0.438612187217103
          25 :  -0.110801166940036
          26 :  -0.116354520522663
          27 :   0.660159242619500
          28 :  -0.983660843716137
          29 :   0.819511221473107
          30 :  -0.303872783329695
          31 :   -22.8996580335840
          32 :   -17.0230783676893

     Forces acting on atoms (Ry/au):

     negative rho (up, down):  7.486E-01 0.000E+00
     atom    1 type  1   force =     0.00153663    0.00082799    0.01599413
     atom    2 type  1   force =    -0.00154355    0.00091135    0.01599915
     atom    3 type  1   force =     0.00006928   -0.00175521    0.01597431
     atom    4 type  1   force =    -0.00006628    0.00001928    0.01559573
     atom    5 type  1   force =    -0.00000291   -0.00143435   -0.00686774
     atom    6 type  1   force =     0.00001488   -0.00001530   -0.00680017
     atom    7 type  1   force =     0.00123307    0.00071879   -0.00686412
     atom    8 type  1   force =    -0.00123294    0.00072061   -0.00685589
     atom    9 type  1   force =     0.00007296   -0.00000132   -0.03132139
     atom   10 type  1   force =    -0.00007407   -0.02048623   -0.00346859
     atom   11 type  1   force =    -0.01773795    0.01019784   -0.00343446
     atom   12 type  1   force =     0.01774356    0.01028849   -0.00349099
     atom   13 type  2   force =    -0.00001166    0.00000636   -0.12536970
     atom   14 type  3   force =    -0.00000101    0.00000170    0.13090974

     Total force =     0.187433     Total SCF correction =     0.011157

     entering subroutine stress ...

     negative rho (up, down):  7.486E-01 0.000E+00
          total   stress  (Ry/bohr**3)                   (kbar)     P=   -6.35
  -0.00005236   0.00000002  -0.00000003         -7.70      0.00     -0.00
   0.00000002  -0.00005234   0.00000001          0.00     -7.70      0.00
  -0.00000003   0.00000001  -0.00002478         -0.00      0.00     -3.65

     BFGS Geometry Optimization

     number of scf cycles    =   1
     number of bfgs steps    =   0

     energy   new            =   -1222.6264611432 Ry

     new trust radius        =       0.1309097443 bohr
     new conv_thr            =       0.0000099958 Ry

ATOMIC_POSITIONS (crystal)
Zr1      0.166666667   0.166666667   0.396150897    0   0   0
Zr1      0.666666667   0.166666667   0.396150897    0   0   0
Zr1      0.166666667   0.666666667   0.396150897    0   0   0
Zr1      0.666666667   0.666666667   0.396150897    0   0   0
Zr1      0.833333333   0.333333333   0.500000000    0   0   0
Zr1      0.333333333   0.333333333   0.500000000    0   0   0
Zr1      0.833333333   0.833333333   0.500000000    0   0   0
Zr1      0.333333333   0.833333333   0.500000000    0   0   0
Zr1      0.000006075  -0.000000126   0.603192500
Zr1      0.500968626  -0.001949462   0.603776389
Zr1     -0.001947007   0.500970422   0.603777105
Zr1      0.500972734   0.500979049   0.603775920
S1       0.333332069   0.333333939   0.673320391
H1       0.333333169   0.333333495   0.728211742

     Writing output data file calc.save
     Check: negative starting charge=   -0.728967
     NEW-OLD atomic charge density approx. for the potential
     Check: negative starting charge=   -0.729405

[...]

     energy   old            =   -1222.6264611432 Ry
     energy   new            =   -1222.6398024929 Ry

     CASE: energy  _new < energy  _old

[...]

     iteration #  3     ecut=    36.75 Ry     beta=0.30
     Davidson diagonalization with overlap
     c_bands:  1 eigenvalues not converged
     ethr =  2.29E-06,  avg # of iterations =  8.1

[...]

     Total force =     0.008856     Total SCF correction =     0.000643

[...]

     number of scf cycles    =   9
     number of bfgs steps    =   8

     energy   old            =   -1222.6504535198 Ry
     energy   new            =   -1222.6509979626 Ry

     CASE: energy  _new < energy  _old

     new trust radius        =       0.0181270311 bohr
     new conv_thr            =       0.0000001000 Ry

ATOMIC_POSITIONS (crystal)
Zr1      0.166666667   0.166666667   0.396150897    0   0   0
Zr1      0.666666667   0.166666667   0.396150897    0   0   0
Zr1      0.166666667   0.666666667   0.396150897    0   0   0
Zr1      0.666666667   0.666666667   0.396150897    0   0   0
Zr1      0.833333333   0.333333333   0.500000000    0   0   0
Zr1      0.333333333   0.333333333   0.500000000    0   0   0
Zr1      0.833333333   0.833333333   0.500000000    0   0   0
Zr1      0.333333333   0.833333333   0.500000000    0   0   0
Zr1      0.000001371  -0.000000151   0.594201956
Zr1      0.506039088  -0.012083620   0.603407509
Zr1     -0.012083008   0.506039871   0.603407556
Zr1      0.506041019   0.506042723   0.603407219
S1       0.333337579   0.333334124   0.674039832
H1       0.333332719   0.333333382   0.728119850

     Writing output data file calc.save
     Check: negative starting charge=   -0.732419
     NEW-OLD atomic charge density approx. for the potential
     Check: negative starting charge=   -0.732446

[...]

     Self-consistent Calculation

[...]

     total energy              =   -1222.65116181 Ry
     Harris-Foulkes estimate   =   -1222.65116197 Ry
     estimated scf accuracy    <       0.00000040 Ry

     iteration # 10     ecut=    36.75 Ry     beta=0.30
     Davidson diagonalization with overlap
     ethr =  2.62E-10,  avg # of iterations =  3.4

[...]

     negative rho (up, down):  7.516E-01 0.000E+00

     Adding external electric field

     Computed dipole along edir(3) :
        Dipole                0.2527 Ry au,          0.6422 Debye
        Dipole field          0.0005 Ry au

        Potential amp.       -0.0486 Ry
        Total length         46.5096 bohr

     End of self-consistent calculation

[...]

          k = 0.0519-0.0599 0.0000 ( 22856 PWs)   bands (ev):

[...]

          k =-0.0779-0.0450 0.0000 ( 22880 PWs)   bands (ev):

   -47.3312 -47.3305 -47.2858 -47.2855 -47.2572 -47.2260 -47.2004 -47.1381
   -47.0644 -46.9600 -46.9377 -46.9229 -25.5356 -25.5314 -25.4970 -25.4806
   -25.4634 -25.4520 -25.4043 -25.3972 -25.3593 -25.3552 -25.3226 -25.3009
   -25.2985 -25.2897 -25.2877 -25.2356 -25.2315 -25.1948 -25.1945 -25.1496
   -25.0702 -25.0278 -25.0265 -24.9948 -24.9871 -24.9742 -24.9393 -24.9227
   -24.9066 -24.8653 -24.8609 -24.8016 -24.7877 -24.7456 -24.7201 -24.6616
   -12.6355  -5.5266  -2.5172  -2.2575  -1.5783  -1.4690  -0.5919  -0.4554
     0.0191   0.0238   0.1032   0.1433   0.1851   0.2576   0.7821   0.8326
     0.8971   0.9082   0.9422   0.9918   1.2897   1.3251   1.3501   1.4091
     1.4862   1.5607   1.6841   1.7740   1.7996   1.8746   1.9348   1.9735
     2.0737   2.1170   2.2450   2.3333   2.6044

     the Fermi energy is     1.8979 ev

!    total energy              =   -1222.65116190 Ry
     Harris-Foulkes estimate   =   -1222.65116157 Ry
     estimated scf accuracy    <       0.00000005 Ry

     The total energy is the sum of the following terms:

     one-electron contribution =   -8543.71732040 Ry
     hartree contribution      =    4266.86026912 Ry
     xc contribution           =    -230.27123376 Ry
     ewald contribution        =    3284.59131313 Ry
     electric field correction =       0.00013190 Ry
     smearing contrib. (-TS)   =      -0.11432188 Ry

     convergence has been achieved in  10 iterations

 BEEF-vdW xc energy contributions
           1 :   -197.146551865207
           2 :    178.255582559233
           3 :   -146.391485343096
           4 :    110.468757000802
           5 :   -78.5831535948998
           6 :    55.2311345074127
           7 :   -40.5599178559746
           8 :    31.6317234164506
           9 :   -24.7305632137014
          10 :    17.3995437049076
          11 :   -9.28078328842216
          12 :    1.62246553324204
          13 :    3.96468447867025
          14 :   -6.65390666224769
          15 :    6.84391048350247
          16 :   -5.79844038611773
          17 :    4.84322053098074
          18 :   -4.66028531056489
          19 :    5.07520092898920
          20 :   -5.38583939576327
          21 :    4.95415991424420
          22 :   -3.66152514507058
          23 :    1.96282209446562
          24 :  -0.557437626619475
          25 :  -6.552026091921448E-002
          26 :  -9.796916675597345E-002
          27 :   0.625854564495768
          28 :  -0.986866972966510
          29 :   0.885718595359378
          30 :  -0.415396791531350
          31 :   -22.9037293987239
          32 :   -17.0297538147349

     Forces acting on atoms (Ry/au):

     negative rho (up, down):  7.516E-01 0.000E+00
     atom    1 type  1   force =     0.00112038    0.00064706    0.01410887
     atom    2 type  1   force =    -0.00112044    0.00064633    0.01410924
     atom    3 type  1   force =    -0.00000035   -0.00129381    0.01410916
     atom    4 type  1   force =     0.00000021    0.00000037    0.01176016
     atom    5 type  1   force =     0.00000085    0.00905118   -0.01902450
     atom    6 type  1   force =    -0.00000109   -0.00000064    0.00506762
     atom    7 type  1   force =    -0.00783909   -0.00452577   -0.01902149
     atom    8 type  1   force =     0.00783906   -0.00452489   -0.01902581
     atom    9 type  1   force =    -0.00000167   -0.00000013    0.00091671
     atom   10 type  1   force =     0.00000127    0.00086865   -0.00065583
     atom   11 type  1   force =     0.00075327   -0.00043407   -0.00065570
     atom   12 type  1   force =    -0.00075075   -0.00043388   -0.00065501
     atom   13 type  2   force =    -0.00000222   -0.00000053    0.00038841
     atom   14 type  3   force =     0.00000057    0.00000012   -0.00142184

     Total force =     0.002562     Total SCF correction =     0.000288
     SCF correction compared to forces is large: reduce conv_thr to get better values

     entering subroutine stress ...

     negative rho (up, down):  7.516E-01 0.000E+00
          total   stress  (Ry/bohr**3)                   (kbar)     P=   -6.31
  -0.00004079   0.00000000  -0.00000000         -6.00      0.00     -0.00
   0.00000000  -0.00004079  -0.00000000          0.00     -6.00     -0.00
  -0.00000000  -0.00000000  -0.00004708         -0.00     -0.00     -6.93

     bfgs converged in  10 scf cycles and   9 bfgs steps
     (criteria: energy <  1.0E+00, force <  1.9E-03)

     End of BFGS Geometry Optimization

     Final energy   =   -1222.6511618994 Ry
Begin final coordinates

ATOMIC_POSITIONS (crystal)
Zr1      0.166666667   0.166666667   0.396150897    0   0   0
Zr1      0.666666667   0.166666667   0.396150897    0   0   0
Zr1      0.166666667   0.666666667   0.396150897    0   0   0
Zr1      0.666666667   0.666666667   0.396150897    0   0   0
Zr1      0.833333333   0.333333333   0.500000000    0   0   0
Zr1      0.333333333   0.333333333   0.500000000    0   0   0
Zr1      0.833333333   0.833333333   0.500000000    0   0   0
Zr1      0.333333333   0.833333333   0.500000000    0   0   0
Zr1      0.000001371  -0.000000151   0.594201956
Zr1      0.506039088  -0.012083620   0.603407509
Zr1     -0.012083008   0.506039871   0.603407556
Zr1      0.506041019   0.506042723   0.603407219
S1       0.333337579   0.333334124   0.674039832
H1       0.333332719   0.333333382   0.728119850
End final coordinates

     Writing output data file calc.save

     General routines

     Parallel routines

   This run was terminated on:  11:57:31  27Apr2018

   JOB DONE.