     Program PWSCF v.5.1rc2 (svn rev. 11289) starts on  3May2018 at  6:50:33

     Current dimensions of program PWSCF are:
     Max number of different atomic species (ntypx) = 10
     Max number of k-points (npk) =  40000
     Max angular momentum in pseudopotentials (lmaxx) =  3
     Presently stress not available with electric field

     IMPORTANT: XC functional enforced from input :
     Exchange-correlation      = BEEF-VDW ( 1  4 27 13 2)
     Any further DFT definition will be discarded
     Please, verify this is what you really want

     Subspace diagonalization in iterative solution of the eigenvalue problem:
     a serial algorithm will be used

     bravais-lattice index     =            0
     lattice parameter (alat)  =       1.8897  a.u.
     unit-cell volume          =    5185.0501 (a.u.)^3
     number of atoms/cell      =           13
     number of atomic types    =            2
     number of electrons       =       157.00
     number of Kohn-Sham states=           88
     kinetic-energy cutoff     =      36.7493  Ry
     charge density cutoff     =     367.4932  Ry
     convergence threshold     =      1.0E-05
     mixing beta               =       0.3000
     number of iterations used =           10  plain     mixing
     Exchange-correlation      = BEEF-VDW ( 1  4 27 13 2)
     nstep                     =           50

     celldm(1)=   1.889726  celldm(2)=   0.000000  celldm(3)=   0.000000
     celldm(4)=   0.000000  celldm(5)=   0.000000  celldm(6)=   0.000000

     crystal axes: (cart. coord. in units of alat)
               a(1) = (   5.972022   0.000000   0.000000 )
               a(2) = (   2.986011   5.171923   0.000000 )
               a(3) = (   0.000000   0.000000  24.876136 )

     reciprocal axes: (cart. coord. in units 2 pi/alat)
               b(1) = (  0.167447 -0.096676  0.000000 )
               b(2) = (  0.000000  0.193352  0.000000 )
               b(3) = (  0.000000  0.000000  0.040199 )

     PseudoPot. # 1 for Ta read from file:
     /u/if/mamunm/psp/gbrv1.5pbe/Ta.UPF
     MD5 check sum: f8bbe9446314a3b8ea5d9f3e3836c939
     Pseudo is Ultrasoft + core correction, Zval = 13.0
     Generated by new atomic code, or converted to UPF format
     Using radial grid of  921 points,  7 beta functions with:
                l(1) =   0
                l(2) =   0
                l(3) =   1
                l(4) =   1
                l(5) =   2
                l(6) =   2
                l(7) =   3
     Q(r) pseudized with  6 coefficients,  rinner =    1.300   1.300   1.300
                                                       1.300   1.300   1.300
                                                       1.300

     PseudoPot. # 2 for H  read from file:
     /u/if/mamunm/psp/gbrv1.5pbe/H.UPF
     MD5 check sum: 761ae9a214b05c3daf00ab9f6b793d6f
     Pseudo is Ultrasoft, Zval =  1.0
     Generated by new atomic code, or converted to UPF format
     Using radial grid of  615 points,  2 beta functions with:
                l(1) =   0
                l(2) =   0
     Q(r) pseudized with  8 coefficients,  rinner =    0.700

     vdW kernel table read from file vdW_kernel_table
     MD5 check sum: 095c7af220d748ca6e76c0b4c6cfb241

     atomic species   valence    mass     pseudopotential
        Ta1           13.00   180.94788     Ta( 1.00)
        H1             1.00     1.00800     H ( 1.00)

     No symmetry found

   Cartesian axes

     site n.     atom                  positions (alat units)
         1           Ta1 tau(   1) = (   1.4930055   0.8619871  10.0000000  )
         2           Ta1 tau(   2) = (   4.4790165   0.8619871  10.0000000  )
         3           Ta1 tau(   3) = (   2.9860110   3.4479485  10.0000000  )
         4           Ta1 tau(   4) = (   5.9720221   3.4479485  10.0000000  )
         5           Ta1 tau(   5) = (   5.9720221   1.7239743  12.4380678  )
         6           Ta1 tau(   6) = (   2.9860110   1.7239743  12.4380678  )
         7           Ta1 tau(   7) = (   7.4650276   4.3099357  12.4380678  )
         8           Ta1 tau(   8) = (   4.4790165   4.3099357  12.4380678  )
         9           Ta1 tau(   9) = (   0.0000000   0.0000000  14.8761356  )
        10           Ta1 tau(  10) = (   2.9860110   0.0000000  14.8761356  )
        11           Ta1 tau(  11) = (   1.4930055   2.5859614  14.8761356  )
        12           Ta1 tau(  12) = (   4.4790165   2.5859614  14.8761356  )
        13           H1  tau(  13) = (   1.4930055   0.8619871  16.1826356  )

     number of k points=    20  Fermi-Dirac smearing, width (Ry)=  0.0110
                       cart. coord. in units 2pi/alat
        k(    1) = (   0.0000000   0.0000000   0.0000000), wk =   0.0555556
        k(    2) = (   0.0000000   0.0322253   0.0000000), wk =   0.1111111
        k(    3) = (   0.0000000   0.0644506   0.0000000), wk =   0.1111111
        k(    4) = (   0.0000000  -0.0966758   0.0000000), wk =   0.0555556
        k(    5) = (   0.0279079  -0.0161126   0.0000000), wk =   0.1111111
        k(    6) = (   0.0279079   0.0161126   0.0000000), wk =   0.1111111
        k(    7) = (   0.0279079   0.0483379   0.0000000), wk =   0.1111111
        k(    8) = (   0.0279079  -0.1127885   0.0000000), wk =   0.1111111
        k(    9) = (   0.0279079  -0.0805632   0.0000000), wk =   0.1111111
        k(   10) = (   0.0279079  -0.0483379   0.0000000), wk =   0.1111111
        k(   11) = (   0.0558158  -0.0322253   0.0000000), wk =   0.1111111
        k(   12) = (   0.0558158   0.0000000   0.0000000), wk =   0.1111111
        k(   13) = (   0.0558158   0.0322253   0.0000000), wk =   0.1111111
        k(   14) = (   0.0558158  -0.1289011   0.0000000), wk =   0.1111111
        k(   15) = (   0.0558158  -0.0966758   0.0000000), wk =   0.1111111
        k(   16) = (   0.0558158  -0.0644506   0.0000000), wk =   0.1111111
        k(   17) = (  -0.0837237   0.0483379   0.0000000), wk =   0.0555556
        k(   18) = (  -0.0837237   0.0805632   0.0000000), wk =   0.1111111
        k(   19) = (  -0.0837237   0.1127885   0.0000000), wk =   0.1111111
        k(   20) = (  -0.0837237  -0.0483379   0.0000000), wk =   0.0555556

     Largest allocated arrays     est. size (Mb)     dimensions
     Largest temporary arrays     est. size (Mb)     dimensions

     Initial potential from superposition of free atoms
     Check: negative starting charge=   -1.121610

     starting charge  156.98665, renormalised to  157.00000

     negative rho (up, down):  1.122E+00 0.000E+00

     *
     * You are using vdW-DF for exchange-correlation in this calculation.
     * Please cite the following three references that made this development
     * possible:
     *
     *   M. Dion, H. Rydberg, E. Schroder, D. C. Langreth, and
     *   B. I. Lundqvist, Phys. Rev. Lett. 92, 246401 (2004).
     *
     *   T. Thonhauser, V. R. Cooper, S. Li, A. Puzder, P. Hyldgaard, and
     *   D. C. Langreth, Phys. Rev. B 76, 125112 (2007).
     *
     *   G. Roman-Perez and J. M. Soler, Phys. Rev. Lett. 103, 096102 (2009).
     *
     *
     * If you are using vdW-DF2, please also cite:
     *
     *   K. Lee, E. D. Murray, L. Kong, B. I. Lundqvist, and
     *   D. C. Langreth, Phys. Rev. B 82, 081101(R) (2010).
     *
     *
     * If you are calculating the stress with vdW-DF, please also cite:
     *
     *   R. Sabatini, E. Kucukbenli, B. Kolb, T. Thonhauser, and
     *   S. de Gironcoli, J. Phys.: Condens. Matter 24, 424209 (2012).
     *

     Carrying out vdW-DF run using the following parameters:

     Nqs =      20    Nr_points =    1024   r_max =   100.000
     q_mesh =
               0.00001000     0.04494208     0.09755937     0.15916263
               0.23128650     0.31572767     0.41458969     0.53033537
               0.66584808     0.82450364     1.01025438     1.22772762
               1.48234092     1.78043706     2.12944203     2.53805004
               3.01644009     3.57652955     4.23227104     5.00000000

     Gradients computed in reciprocal space

     Adding external electric field

     Computed dipole along edir(3) :
        Dipole               -0.0005 Ry au,         -0.0014 Debye
        Dipole field         -0.0000 Ry au

        Potential amp.        0.0001 Ry
        Total length         45.8339 bohr

     Starting wfc are  157 randomized atomic wfcs

     Self-consistent Calculation

     iteration #  1     ecut=    36.75 Ry     beta=0.30
     Davidson diagonalization with overlap
     ethr =  1.00E-02,  avg # of iterations =  2.0

[...]

     total energy              =   -1717.68165266 Ry
     Harris-Foulkes estimate   =   -1719.88711708 Ry
     estimated scf accuracy    <       4.75165777 Ry

[...]

     iteration #  5     ecut=    36.75 Ry     beta=0.30
     Davidson diagonalization with overlap
     c_bands:  4 eigenvalues not converged
     ethr =  1.68E-04,  avg # of iterations =  5.1

[...]

     End of self-consistent calculation

          k = 0.0000 0.0000 0.0000 ( 19447 PWs)   bands (ev):

   -66.3657 -66.3424 -66.3085 -66.3085 -66.2985 -66.2838 -66.2838 -66.2830
   -66.2662 -66.2259 -66.2259 -66.1934 -33.0938 -33.0793 -33.0793 -33.0594
   -33.0398 -33.0223 -33.0223 -32.9824 -32.9670 -32.9670 -32.7946 -32.6914
   -32.6914 -32.6860 -32.6238 -32.6238 -32.6211 -32.4921 -32.4921 -32.4878
   -32.4235 -32.4235 -32.4211 -32.4210 -32.4100 -32.3993 -32.3584 -32.3369
   -32.3369 -32.3341 -32.2839 -32.2839 -32.2457 -32.2457 -32.1935 -32.1935
    -5.5934  -4.3018  -3.1266  -2.4282  -2.1174  -2.1174  -2.0165  -1.9231
    -1.9231  -1.6897  -1.2310  -1.2310  -1.0974  -0.9792  -0.9792  -0.5157
     0.2158   0.2158   0.7108   1.3084   1.4981   1.4981   1.5485   1.8701
     1.9107   2.0145   2.0145   2.1410   2.3288   2.3288   2.5748   2.6217
     2.6217   2.6934   2.6934   2.7013   2.8047   2.8047   2.9614   2.9614

[...]

          k =-0.0837 0.0483 0.0000 ( 19532 PWs)   bands (ev):

[...]

     the Fermi energy is     1.9764 ev

!    total energy              =   -1719.51341068 Ry
     Harris-Foulkes estimate   =   -1719.51341135 Ry
     estimated scf accuracy    <       0.00000656 Ry

     The total energy is the sum of the following terms:

     one-electron contribution =  -11432.19881041 Ry
     hartree contribution      =    5698.29704476 Ry
     xc contribution           =    -523.42343959 Ry
     ewald contribution        =    4537.91773433 Ry
     electric field correction =       0.00000057 Ry
     smearing contrib. (-TS)   =      -0.10594035 Ry

     convergence has been achieved in  13 iterations

 BEEF-vdW xc energy contributions
           1 :   -460.885229730294
           2 :    425.510600967850
           3 :   -363.706483120535
           4 :    289.744511448742
           5 :   -217.996096471655
           6 :    158.473477277409
           7 :   -114.796072888562
           8 :    84.9956498562531
           9 :   -64.2471457271743
          10 :    47.9057000097452
          11 :   -33.4191435637896
          12 :    20.5451229893221
          13 :   -10.2750132896140
          14 :    3.41941791079029
          15 :   0.260776657735562
          16 :   -2.01196782079484
          17 :    3.36021096361281
          18 :   -5.26652993608099
          19 :    7.70045629379337
          20 :   -9.84545076441179
          21 :    10.7555848748316
          22 :   -10.0352092892574
          23 :    8.13127437689656
          24 :   -6.08594776726352
          25 :    4.93177479867137
          26 :   -5.11554874244820
          27 :    6.29422051149260
          28 :   -7.59951412424186
          29 :    8.18061934628241
          30 :   -7.68362519618171
          31 :   -41.1185579968423
          32 :   -30.5218957907414

     Forces acting on atoms (Ry/au):

     negative rho (up, down):  1.177E+00 0.000E+00
     atom    1 type  1   force =    -0.00000716   -0.00000347    0.00265835
     atom    2 type  1   force =     0.00000187    0.00043625    0.00431562
     atom    3 type  1   force =     0.00038149   -0.00021499    0.00431769
     atom    4 type  1   force =    -0.00038156   -0.00021694    0.00431881
     atom    5 type  1   force =     0.00036533   -0.00020813    0.00157981
     atom    6 type  1   force =    -0.00036041   -0.00020310    0.00158247
     atom    7 type  1   force =     0.00000157   -0.00000052   -0.00886034
     atom    8 type  1   force =    -0.00000354    0.00041391    0.00157716
     atom    9 type  1   force =    -0.00407441   -0.00235427    0.01102653
     atom   10 type  1   force =     0.00407371   -0.00235709    0.01102718
     atom   11 type  1   force =     0.00000053    0.00470567    0.01102960
     atom   12 type  1   force =     0.00000205    0.00000300   -0.01174687
     atom   13 type  2   force =     0.00000052   -0.00000032   -0.03282601

     Total force =     0.040581     Total SCF correction =     0.004271
     SCF correction compared to forces is large: reduce conv_thr to get better values

     entering subroutine stress ...

     negative rho (up, down):  1.177E+00 0.000E+00
          total   stress  (Ry/bohr**3)                   (kbar)     P=  -32.84
  -0.00029287   0.00000001  -0.00000000        -43.08      0.00     -0.00
   0.00000001  -0.00029285   0.00000000          0.00    -43.08      0.00
  -0.00000000   0.00000000  -0.00008400         -0.00      0.00    -12.36

     BFGS Geometry Optimization

     number of scf cycles    =   1
     number of bfgs steps    =   0

     energy   new            =   -1719.5134106839 Ry

     new trust radius        =       0.0328260097 bohr
     new conv_thr            =       0.0000099958 Ry

ATOMIC_POSITIONS (crystal)
Ta1      0.166666667   0.166666667   0.401991699    0   0   0
Ta1      0.666666667   0.166666667   0.401991699    0   0   0
Ta1      0.166666667   0.666666667   0.401991699    0   0   0
Ta1      0.666666667   0.666666667   0.401991699    0   0   0
Ta1      0.833333333   0.333333333   0.500000000    0   0   0
Ta1      0.333333333   0.333333333   0.500000000    0   0   0
Ta1      0.833333333   0.833333333   0.500000000    0   0   0
Ta1      0.333333333   0.833333333   0.500000000    0   0   0
Ta1     -0.000240590  -0.000240883   0.598242863
Ta1      0.500481554  -0.000241171   0.598242877
Ta1     -0.000240688   0.500481472   0.598242928
Ta1      0.500000028   0.500000307   0.597758416
H1       0.166666729   0.166666634   0.649830226

     Writing output data file calc.save
     Check: negative starting charge=   -1.121610
     NEW-OLD atomic charge density approx. for the potential
     Check: negative starting charge=   -1.120697

[...]

     Total force =     0.036618     Total SCF correction =     0.003553

[...]

     energy   old            =   -1719.5134106839 Ry
     energy   new            =   -1719.5149738809 Ry

     CASE: energy  _new < energy  _old

     WARNING: bfgs curvature condition failed, Theta= 0.887
     new trust radius        =       0.0361086107 bohr
     new conv_thr            =       0.0000001000 Ry

[...]

     Total force =     0.009302     Total SCF correction =     0.000159

[...]

     number of scf cycles    =  11
     number of bfgs steps    =  10

     energy   old            =   -1719.5241868798 Ry
     energy   new            =   -1719.5242305058 Ry

     CASE: energy  _new < energy  _old

     new trust radius        =       0.0082419929 bohr
     new conv_thr            =       0.0000001000 Ry

ATOMIC_POSITIONS (crystal)
Ta1      0.166666667   0.166666667   0.401991699    0   0   0
Ta1      0.666666667   0.166666667   0.401991699    0   0   0
Ta1      0.166666667   0.666666667   0.401991699    0   0   0
Ta1      0.666666667   0.666666667   0.401991699    0   0   0
Ta1      0.833333333   0.333333333   0.500000000    0   0   0
Ta1      0.333333333   0.333333333   0.500000000    0   0   0
Ta1      0.833333333   0.833333333   0.500000000    0   0   0
Ta1      0.333333333   0.833333333   0.500000000    0   0   0
Ta1     -0.004758647  -0.004760019   0.598664003
Ta1      0.509520892  -0.004760655   0.598664435
Ta1     -0.004758816   0.509519260   0.598664296
Ta1      0.500000509   0.499999962   0.592835293
H1       0.166666276   0.166666310   0.639915155

     Writing output data file calc.save
     Check: negative starting charge=   -1.122868
     NEW-OLD atomic charge density approx. for the potential
     Check: negative starting charge=   -1.123429

[...]

     Self-consistent Calculation

[...]

     total energy              =   -1719.52426315 Ry
     Harris-Foulkes estimate   =   -1719.52426316 Ry
     estimated scf accuracy    <       0.00000015 Ry

     iteration #  9     ecut=    36.75 Ry     beta=0.30
     Davidson diagonalization with overlap
     ethr =  9.54E-11,  avg # of iterations =  3.8

[...]

     negative rho (up, down):  1.179E+00 0.000E+00

     Adding external electric field

     Computed dipole along edir(3) :
        Dipole                0.0323 Ry au,          0.0821 Debye
        Dipole field          0.0001 Ry au

        Potential amp.       -0.0072 Ry
        Total length         45.8339 bohr

     End of self-consistent calculation

[...]

          k = 0.0558-0.0645 0.0000 ( 19521 PWs)   bands (ev):

[...]

          k =-0.0837-0.0483 0.0000 ( 19532 PWs)   bands (ev):

   -66.3069 -66.2941 -66.2913 -66.2861 -66.2724 -66.2629 -66.2618 -66.2229
   -66.2127 -66.1954 -66.1750 -66.1558 -32.9403 -32.9331 -32.9180 -32.9121
   -32.8987 -32.8917 -32.8194 -32.7980 -32.7943 -32.7892 -32.7491 -32.7452
   -32.6533 -32.6211 -32.6094 -32.5861 -32.5686 -32.5610 -32.5551 -32.5462
   -32.5135 -32.4974 -32.4760 -32.4672 -32.4621 -32.4453 -32.3670 -32.3586
   -32.3497 -32.3165 -32.3070 -32.3008 -32.2842 -32.2716 -32.2320 -32.2102
    -4.2229  -3.6692  -3.3025  -2.2319  -1.7583  -1.3690  -1.3523  -1.1190
    -1.0125  -0.9862  -0.7877  -0.1697  -0.1380   0.1348   0.1435   0.1989
     0.2735   0.5182   0.5428   0.6748   0.7134   0.8747   0.8791   1.1507
     1.2044   1.2722   1.3760   1.4298   1.4797   1.6312   1.6769   1.7705
     1.9235   2.2276   2.2490   2.3460   2.4040   2.4161   3.1588   3.1979

     the Fermi energy is     1.9945 ev

!    total energy              =   -1719.52426315 Ry
     Harris-Foulkes estimate   =   -1719.52426317 Ry
     estimated scf accuracy    <       0.00000002 Ry

     The total energy is the sum of the following terms:

     one-electron contribution =  -11475.59670187 Ry
     hartree contribution      =    5720.13965134 Ry
     xc contribution           =    -523.52835935 Ry
     ewald contribution        =    4559.56477724 Ry
     electric field correction =       0.00000253 Ry
     smearing contrib. (-TS)   =      -0.10363304 Ry

     convergence has been achieved in   9 iterations

 BEEF-vdW xc energy contributions
           1 :   -460.988724651113
           2 :    425.633442133610
           3 :   -363.845547471946
           4 :    289.871975176479
           5 :   -218.074018770622
           6 :    158.474946162588
           7 :   -114.723039348756
           8 :    84.8819458113667
           9 :   -64.1425319792635
          10 :    47.8490122236128
          11 :   -33.4168628981031
          12 :    20.5696650541476
          13 :   -10.2842403171261
          14 :    3.38428939819636
          15 :   0.338788228825990
          16 :   -2.10434321573609
          17 :    3.43193077962326
          18 :   -5.29916631320901
          19 :    7.70274748820361
          20 :   -9.84538807120896
          21 :    10.7807549444297
          22 :   -10.0950445798701
          23 :    8.21171762527848
          24 :   -6.15838220059044
          25 :    4.96999028114971
          26 :   -5.11069355805517
          27 :    6.25948328084456
          28 :   -7.56234213854788
          29 :    8.16723069695320
          30 :   -7.70468151664585
          31 :   -41.1256518725518
          32 :   -30.5317831617408

     Forces acting on atoms (Ry/au):

     negative rho (up, down):  1.179E+00 0.000E+00
     atom    1 type  1   force =    -0.00000035   -0.00000024    0.00453075
     atom    2 type  1   force =     0.00000051   -0.00006569    0.00381252
     atom    3 type  1   force =    -0.00005712    0.00003355    0.00381325
     atom    4 type  1   force =     0.00005666    0.00003270    0.00381265
     atom    5 type  1   force =     0.01102872   -0.00636439   -0.00356830
     atom    6 type  1   force =    -0.01102863   -0.00636856   -0.00356072
     atom    7 type  1   force =    -0.00000265   -0.00000083   -0.00506698
     atom    8 type  1   force =     0.00000360    0.01273403   -0.00356547
     atom    9 type  1   force =     0.00086215    0.00049770    0.00014206
     atom   10 type  1   force =    -0.00086433    0.00049668    0.00014595
     atom   11 type  1   force =    -0.00000189   -0.00099588    0.00014399
     atom   12 type  1   force =     0.00000154    0.00000068    0.00110186
     atom   13 type  2   force =     0.00000180    0.00000026   -0.00174158

     Total force =     0.002699     Total SCF correction =     0.000288
     SCF correction compared to forces is large: reduce conv_thr to get better values

     entering subroutine stress ...

     negative rho (up, down):  1.179E+00 0.000E+00
          total   stress  (Ry/bohr**3)                   (kbar)     P=  -28.88
  -0.00026287   0.00000000   0.00000000        -38.67      0.00      0.00
   0.00000000  -0.00026287  -0.00000000          0.00    -38.67     -0.00
   0.00000000  -0.00000000  -0.00006332          0.00     -0.00     -9.31

     bfgs converged in  12 scf cycles and  11 bfgs steps
     (criteria: energy <  1.0E+00, force <  1.9E-03)

     End of BFGS Geometry Optimization

     Final energy   =   -1719.5242631484 Ry
Begin final coordinates

ATOMIC_POSITIONS (crystal)
Ta1      0.166666667   0.166666667   0.401991699    0   0   0
Ta1      0.666666667   0.166666667   0.401991699    0   0   0
Ta1      0.166666667   0.666666667   0.401991699    0   0   0
Ta1      0.666666667   0.666666667   0.401991699    0   0   0
Ta1      0.833333333   0.333333333   0.500000000    0   0   0
Ta1      0.333333333   0.333333333   0.500000000    0   0   0
Ta1      0.833333333   0.833333333   0.500000000    0   0   0
Ta1      0.333333333   0.833333333   0.500000000    0   0   0
Ta1     -0.004758647  -0.004760019   0.598664003
Ta1      0.509520892  -0.004760655   0.598664435
Ta1     -0.004758816   0.509519260   0.598664296
Ta1      0.500000509   0.499999962   0.592835293
H1       0.166666276   0.166666310   0.639915155
End final coordinates

     Writing output data file calc.save

     General routines

     Parallel routines

   This run was terminated on:   8:29:50   3May2018

   JOB DONE.
Job  /afs/slac/g/suncat/bin/suncat-tsmpirun -x LD_LIBRARY_PATH -wdir /scratch/qe651638_xHtL8 pw.x -npool 4 -in pw.inp

TID   HOST_NAME   COMMAND_LINE            STATUS            TERMINATION_TIME
00000 suncat0251 pw.x -npool 4 -i  Done                     05/03/2018 08:29:50
00001 suncat0251 pw.x -npool 4 -i  Done                     05/03/2018 08:29:50
00002 suncat0251 pw.x -npool 4 -i  Done                     05/03/2018 08:29:50
00003 suncat0251 pw.x -npool 4 -i  Done                     05/03/2018 08:29:50
00004 suncat0251 pw.x -npool 4 -i  Done                     05/03/2018 08:29:50
00005 suncat0251 pw.x -npool 4 -i  Done                     05/03/2018 08:29:50
00006 suncat0251 pw.x -npool 4 -i  Done                     05/03/2018 08:29:50
00007 suncat0251 pw.x -npool 4 -i  Done                     05/03/2018 08:29:50
00008 suncat0249 pw.x -npool 4 -i  Done                     05/03/2018 08:29:50
00009 suncat0249 pw.x -npool 4 -i  Done                     05/03/2018 08:29:50
00010 suncat0249 pw.x -npool 4 -i  Done                     05/03/2018 08:29:50
00011 suncat0249 pw.x -npool 4 -i  Done                     05/03/2018 08:29:50
00012 suncat0249 pw.x -npool 4 -i  Done                     05/03/2018 08:29:50
00013 suncat0249 pw.x -npool 4 -i  Done                     05/03/2018 08:29:50
00014 suncat0249 pw.x -npool 4 -i  Done                     05/03/2018 08:29:50
00015 suncat0249 pw.x -npool 4 -i  Done                     05/03/2018 08:29:50
00016 suncat0244 pw.x -npool 4 -i  Done                     05/03/2018 08:29:50
00017 suncat0244 pw.x -npool 4 -i  Done                     05/03/2018 08:29:50
00018 suncat0244 pw.x -npool 4 -i  Done                     05/03/2018 08:29:50
00019 suncat0244 pw.x -npool 4 -i  Done                     05/03/2018 08:29:50
00020 suncat0244 pw.x -npool 4 -i  Done                     05/03/2018 08:29:50
00021 suncat0244 pw.x -npool 4 -i  Done                     05/03/2018 08:29:50
00022 suncat0244 pw.x -npool 4 -i  Done                     05/03/2018 08:29:50
00023 suncat0244 pw.x -npool 4 -i  Done                     05/03/2018 08:29:50
00024 suncat0243 pw.x -npool 4 -i  Done                     05/03/2018 08:29:50
00025 suncat0243 pw.x -npool 4 -i  Done                     05/03/2018 08:29:50
00026 suncat0243 pw.x -npool 4 -i  Done                     05/03/2018 08:29:50
00027 suncat0243 pw.x -npool 4 -i  Done                     05/03/2018 08:29:50
00028 suncat0243 pw.x -npool 4 -i  Done                     05/03/2018 08:29:50
00029 suncat0243 pw.x -npool 4 -i  Done                     05/03/2018 08:29:50
00030 suncat0243 pw.x -npool 4 -i  Done                     05/03/2018 08:29:50
00031 suncat0243 pw.x -npool 4 -i  Done                     05/03/2018 08:29:50