     Program PWSCF v.5.1rc2 (svn rev. ) starts on 22Feb2018 at 18:46:39

     Current dimensions of program PWSCF are:
     Max number of different atomic species (ntypx) = 10
     Max number of k-points (npk) =  40000
     Max angular momentum in pseudopotentials (lmaxx) =  3
     Presently stress not available with electric field

     IMPORTANT: XC functional enforced from input :
     Exchange-correlation      = BEEF-VDW ( 1  4 27 13 2)
     Any further DFT definition will be discarded
     Please, verify this is what you really want

     Subspace diagonalization in iterative solution of the eigenvalue problem:
     a serial algorithm will be used

     bravais-lattice index     =            0
     lattice parameter (alat)  =       1.8897  a.u.
     unit-cell volume          =    7276.7660 (a.u.)^3
     number of atoms/cell      =           13
     number of atomic types    =            2
     number of electrons       =       185.00
     number of Kohn-Sham states=          102
     kinetic-energy cutoff     =      36.7493  Ry
     charge density cutoff     =     367.4932  Ry
     convergence threshold     =      1.0E-05
     mixing beta               =       0.3000
     number of iterations used =           10  plain     mixing
     Exchange-correlation      = BEEF-VDW ( 1  4 27 13 2)
     nstep                     =           50

     celldm(1)=   1.889726  celldm(2)=   0.000000  celldm(3)=   0.000000
     celldm(4)=   0.000000  celldm(5)=   0.000000  celldm(6)=   0.000000

     crystal axes: (cart. coord. in units of alat)
               a(1) = (   6.962526   0.000000   0.000000 )
               a(2) = (   3.481263   6.029724   0.000000 )
               a(3) = (   0.000000   0.000000  25.684879 )

     reciprocal axes: (cart. coord. in units 2 pi/alat)
               b(1) = (  0.143626 -0.082923  0.000000 )
               b(2) = (  0.000000  0.165845  0.000000 )
               b(3) = (  0.000000  0.000000  0.038933 )

     PseudoPot. # 1 for Bi read from file:
     /home/mamunm/src/pseudo/gbrv1.5pbe/Bi.UPF
     MD5 check sum: 81103212dc04adf40945787f699eab19
     Pseudo is Ultrasoft + core correction, Zval = 15.0
     Generated by new atomic code, or converted to UPF format
     Using radial grid of  899 points,  6 beta functions with:
                l(1) =   0
                l(2) =   0
                l(3) =   1
                l(4) =   1
                l(5) =   2
                l(6) =   2
     Q(r) pseudized with  6 coefficients,  rinner =    1.000   1.000   1.000
                                                       1.000   1.000

     PseudoPot. # 2 for N  read from file:
     /home/mamunm/src/pseudo/gbrv1.5pbe/N.UPF
     MD5 check sum: 95339753478d7afb44899504a8723017
     Pseudo is Ultrasoft + core correction, Zval =  5.0
     Generated by new atomic code, or converted to UPF format
     Using radial grid of  729 points,  4 beta functions with:
                l(1) =   0
                l(2) =   0
                l(3) =   1
                l(4) =   1
     Q(r) pseudized with  8 coefficients,  rinner =    0.900   0.900   0.900

     vdW kernel table read from file vdW_kernel_table
     MD5 check sum: 095c7af220d748ca6e76c0b4c6cfb241

     atomic species   valence    mass     pseudopotential
        Bi1           15.00   208.98040     Bi( 1.00)
        N1             5.00    14.00700     N ( 1.00)

     No symmetry found

   Cartesian axes

     site n.     atom                  positions (alat units)
         1           Bi1 tau(   1) = (   1.7406315   1.0049541  10.0000000  )
         2           Bi1 tau(   2) = (   5.2218945   1.0049541  10.0000000  )
         3           Bi1 tau(   3) = (   3.4812630   4.0198163  10.0000000  )
         4           Bi1 tau(   4) = (   6.9625260   4.0198163  10.0000000  )
         5           Bi1 tau(   5) = (   6.9625260   2.0099081  12.8424393  )
         6           Bi1 tau(   6) = (   3.4812630   2.0099081  12.8424393  )
         7           Bi1 tau(   7) = (   8.7031575   5.0247703  12.8424393  )
         8           Bi1 tau(   8) = (   5.2218945   5.0247703  12.8424393  )
         9           Bi1 tau(   9) = (   0.0000000   0.0000000  15.6848787  )
        10           Bi1 tau(  10) = (   3.4812630   0.0000000  15.6848787  )
        11           Bi1 tau(  11) = (   1.7406315   3.0148622  15.6848787  )
        12           Bi1 tau(  12) = (   5.2218945   3.0148622  15.6848787  )
        13           N1  tau(  13) = (   1.7406315   0.0000000  17.3273787  )

     number of k points=    20  Fermi-Dirac smearing, width (Ry)=  0.0110
                       cart. coord. in units 2pi/alat
        k(    1) = (   0.0000000   0.0000000   0.0000000), wk =   0.0555556
        k(    2) = (   0.0000000   0.0276408   0.0000000), wk =   0.1111111
        k(    3) = (   0.0000000   0.0552817   0.0000000), wk =   0.1111111
        k(    4) = (   0.0000000  -0.0829225   0.0000000), wk =   0.0555556
        k(    5) = (   0.0239377  -0.0138204   0.0000000), wk =   0.1111111
        k(    6) = (   0.0239377   0.0138204   0.0000000), wk =   0.1111111
        k(    7) = (   0.0239377   0.0414613   0.0000000), wk =   0.1111111
        k(    8) = (   0.0239377  -0.0967430   0.0000000), wk =   0.1111111
        k(    9) = (   0.0239377  -0.0691021   0.0000000), wk =   0.1111111
        k(   10) = (   0.0239377  -0.0414613   0.0000000), wk =   0.1111111
        k(   11) = (   0.0478753  -0.0276408   0.0000000), wk =   0.1111111
        k(   12) = (   0.0478753   0.0000000   0.0000000), wk =   0.1111111
        k(   13) = (   0.0478753   0.0276408   0.0000000), wk =   0.1111111
        k(   14) = (   0.0478753  -0.1105634   0.0000000), wk =   0.1111111
        k(   15) = (   0.0478753  -0.0829225   0.0000000), wk =   0.1111111
        k(   16) = (   0.0478753  -0.0552817   0.0000000), wk =   0.1111111
        k(   17) = (  -0.0718130   0.0414613   0.0000000), wk =   0.0555556
        k(   18) = (  -0.0718130   0.0691021   0.0000000), wk =   0.1111111
        k(   19) = (  -0.0718130   0.0967430   0.0000000), wk =   0.1111111
        k(   20) = (  -0.0718130  -0.0414613   0.0000000), wk =   0.0555556

     Largest allocated arrays     est. size (Mb)     dimensions
     Largest temporary arrays     est. size (Mb)     dimensions

     Check: negative/imaginary core charge=   -0.000001    0.000000

     Initial potential from superposition of free atoms
     Check: negative starting charge=   -0.503428

     starting charge  172.99949, renormalised to  185.00000

     negative rho (up, down):  5.383E-01 0.000E+00

     *
     * You are using vdW-DF for exchange-correlation in this calculation.
     * Please cite the following three references that made this development
     * possible:
     *
     *   M. Dion, H. Rydberg, E. Schroder, D. C. Langreth, and
     *   B. I. Lundqvist, Phys. Rev. Lett. 92, 246401 (2004).
     *
     *   T. Thonhauser, V. R. Cooper, S. Li, A. Puzder, P. Hyldgaard, and
     *   D. C. Langreth, Phys. Rev. B 76, 125112 (2007).
     *
     *   G. Roman-Perez and J. M. Soler, Phys. Rev. Lett. 103, 096102 (2009).
     *
     *
     * If you are using vdW-DF2, please also cite:
     *
     *   K. Lee, E. D. Murray, L. Kong, B. I. Lundqvist, and
     *   D. C. Langreth, Phys. Rev. B 82, 081101(R) (2010).
     *
     *
     * If you are calculating the stress with vdW-DF, please also cite:
     *
     *   R. Sabatini, E. Kucukbenli, B. Kolb, T. Thonhauser, and
     *   S. de Gironcoli, J. Phys.: Condens. Matter 24, 424209 (2012).
     *

     Carrying out vdW-DF run using the following parameters:

     Nqs =      20    Nr_points =    1024   r_max =   100.000
     q_mesh =
               0.00001000     0.04494208     0.09755937     0.15916263
               0.23128650     0.31572767     0.41458969     0.53033537
               0.66584808     0.82450364     1.01025438     1.22772762
               1.48234092     1.78043706     2.12944203     2.53805004
               3.01644009     3.57652955     4.23227104     5.00000000

     Gradients computed in reciprocal space

     Adding external electric field

     Computed dipole along edir(3) :
        Dipole               -2.9395 Ry au,         -7.4714 Debye
        Dipole field         -0.0051 Ry au

        Potential amp.        0.4805 Ry
        Total length         47.3240 bohr

     Starting wfc are  112 randomized atomic wfcs

     Self-consistent Calculation

     iteration #  1     ecut=    36.75 Ry     beta=0.30
     Davidson diagonalization with overlap
     ethr =  1.00E-02,  avg # of iterations =  7.0

[...]

     total energy              =   -2238.14733106 Ry
     Harris-Foulkes estimate   =   -2268.91299143 Ry
     estimated scf accuracy    <      65.02459730 Ry

[...]

     End of self-consistent calculation

          k = 0.0000 0.0000 0.0000 ( 27441 PWs)   bands (ev):

   -22.7726 -22.7664 -22.7598 -22.7169 -22.7110 -22.7061 -22.7048 -22.6967
   -22.6966 -22.6624 -22.6551 -22.6508 -22.6363 -22.6320 -22.5858 -22.5719
   -22.5715 -22.5667 -22.5497 -22.5428 -22.5409 -22.5342 -22.5311 -22.5172
   -22.5164 -22.5126 -22.5020 -22.5017 -22.4816 -22.4714 -22.4704 -22.4668
   -22.4628 -22.4588 -22.4574 -22.4323 -22.4306 -22.4287 -22.4176 -22.4139
   -22.4101 -22.3971 -22.3947 -22.3911 -22.3898 -22.3852 -22.3762 -22.3715
   -22.3673 -22.3610 -22.3603 -22.3588 -22.3549 -22.3463 -22.3385 -22.3362
   -22.3342 -22.3322 -22.3279 -22.3222 -12.7669 -12.1462 -11.0531 -10.0895
    -9.7669  -9.7140  -9.6772  -9.2532  -9.1648  -9.0296  -8.8490  -8.7779
    -8.5392  -4.0240  -4.0150  -3.9837  -3.3456  -3.1647  -3.1403  -3.0755
    -2.9376  -2.8656  -2.8146  -0.9921  -0.5969   0.0308   0.2042   0.6281
     0.6641   0.7043   1.1614   1.5038   1.5313   1.7549   1.9200   1.9663
     2.5146   2.8346   2.8899   2.9241   2.9778   3.5059

[...]

          k =-0.0718 0.0415 0.0000 ( 27378 PWs)   bands (ev):

[...]

     the Fermi energy is     1.0069 ev

!    total energy              =   -2265.92883871 Ry
     Harris-Foulkes estimate   =   -2265.92879570 Ry
     estimated scf accuracy    <       0.00000232 Ry

     The total energy is the sum of the following terms:

     one-electron contribution =  -10942.47927577 Ry
     hartree contribution      =    5525.50819079 Ry
     xc contribution           =    -804.27386932 Ry
     ewald contribution        =    3955.37333120 Ry
     electric field correction =       0.00055115 Ry
     smearing contrib. (-TS)   =      -0.05776676 Ry

     convergence has been achieved in  16 iterations

 BEEF-vdW xc energy contributions
           1 :   -716.966603520312
           2 :    666.275509611859
           3 :   -576.872696995546
           4 :    468.205780745304
           5 :   -360.676303713154
           6 :    269.714679515574
           7 :   -202.309474749453
           8 :    156.865077638064
           9 :   -126.049781067385
          10 :    101.162225951836
          11 :   -76.0792051309982
          12 :    49.2301683413455
          13 :   -23.1017042073444
          14 :    1.92690238565069
          15 :    11.0605146275569
          16 :   -15.4442183523718
          17 :    13.7811276137934
          18 :   -10.2404198958870
          19 :    8.56437444396602
          20 :   -10.4315961890338
          21 :    14.9965842928893
          22 :   -19.7243344513222
          23 :    21.9748867369044
          24 :   -20.4698895760451
          25 :    15.9091084406223
          26 :   -10.5011019134702
          27 :    6.73765745886635
          28 :   -6.09827404278508
          29 :    8.35577008693554
          30 :   -11.8061348165701
          31 :   -57.3418472340529
          32 :   -42.1959011000803

     Forces acting on atoms (Ry/au):

     negative rho (up, down):  5.267E-01 0.000E+00
     atom    1 type  1   force =     0.00000177    0.00005768   -0.01049531
     atom    2 type  1   force =    -0.00000526    0.00081633   -0.00634423
     atom    3 type  1   force =     0.00149722   -0.00147499   -0.00947033
     atom    4 type  1   force =    -0.00149783   -0.00147566   -0.00945806
     atom    5 type  1   force =    -0.00100532    0.00243971   -0.00455160
     atom    6 type  1   force =     0.00100757    0.00244981   -0.00455439
     atom    7 type  1   force =     0.00000060   -0.00404304   -0.01544529
     atom    8 type  1   force =    -0.00000357   -0.00069292    0.00262130
     atom    9 type  1   force =     0.03489045   -0.00241775    0.05646026
     atom   10 type  1   force =    -0.03489035   -0.00241632    0.05647370
     atom   11 type  1   force =     0.00000137    0.00284396    0.01282789
     atom   12 type  1   force =    -0.00000038    0.00211797    0.01214688
     atom   13 type  2   force =     0.00000374    0.00179522   -0.08021083

     Total force =     0.124840     Total SCF correction =     0.002067

     entering subroutine stress ...

     negative rho (up, down):  5.267E-01 0.000E+00
          total   stress  (Ry/bohr**3)                   (kbar)     P=    3.27
   0.00001659  -0.00000000   0.00000000          2.44     -0.00      0.00
  -0.00000000   0.00003560   0.00000379         -0.00      5.24      0.56
   0.00000000   0.00000379   0.00001452          0.00      0.56      2.14

     BFGS Geometry Optimization

     number of scf cycles    =   1
     number of bfgs steps    =   0

     energy   new            =   -2265.9288387109 Ry

     new trust radius        =       0.0802309196 bohr
     new conv_thr            =       0.0000099958 Ry

ATOMIC_POSITIONS (crystal)
Bi1      0.166666667   0.166666667   0.389334134    0   0   0
Bi1      0.666666667   0.166666667   0.389334134    0   0   0
Bi1      0.166666667   0.666666667   0.389334134    0   0   0
Bi1      0.666666667   0.666666667   0.389334134    0   0   0
Bi1      0.833333333   0.333333333   0.500000000    0   0   0
Bi1      0.333333333   0.333333333   0.500000000    0   0   0
Bi1      0.833333333   0.833333333   0.500000000    0   0   0
Bi1      0.333333333   0.833333333   0.500000000    0   0   0
Bi1      0.002757893  -0.000212185   0.611829098
Bi1      0.497454237  -0.000212060   0.611829375
Bi1     -0.000124690   0.500249590   0.610930155
Bi1      0.499907033   0.500185876   0.610916124
N1       0.249921509   0.000157551   0.672961440

     Writing output data file calc.save
     Check: negative starting charge=   -0.503428
     NEW-OLD atomic charge density approx. for the potential

     Check: negative/imaginary core charge=   -0.000001    0.000000
     Check: negative starting charge=   -0.505065

[...]

     energy   old            =   -2265.9288387109 Ry
     energy   new            =   -2265.9432244971 Ry

     CASE: energy  _new < energy  _old

     WARNING: bfgs curvature condition failed, Theta= 0.938
     new trust radius        =       0.0882540115 bohr
     new conv_thr            =       0.0000001000 Ry

[...]

     Threshold (ethr) on eigenvalues was too large:
     Diagonalizing with lowered threshold

     Davidson diagonalization with overlap
     ethr =  5.35E-08,  avg # of iterations =  1.9

[...]

     iteration #  1     ecut=    36.75 Ry     beta=0.30
     Davidson diagonalization with overlap
     c_bands:  1 eigenvalues not converged
     c_bands:  1 eigenvalues not converged
     ethr =  1.00E-06,  avg # of iterations = 10.1

[...]

     iteration #  1     ecut=    36.75 Ry     beta=0.30
     Davidson diagonalization with overlap
     c_bands:  1 eigenvalues not converged
     c_bands:  1 eigenvalues not converged
     ethr =  1.00E-06,  avg # of iterations = 11.7

[...]

     WARNING: bfgs curvature condition failed, Theta= 0.414
     new trust radius        =       0.4927897731 bohr
     new conv_thr            =       0.0000001000 Ry

[...]

     Total force =     0.007915     Total SCF correction =     0.001013
     SCF correction compared to forces is large: reduce conv_thr to get better values

[...]

     Threshold (ethr) on eigenvalues was too large:
     Diagonalizing with lowered threshold

     Davidson diagonalization with overlap
     ethr =  5.13E-08,  avg # of iterations =  1.9

[...]

     Total force =     0.005019     Total SCF correction =     0.000738
     SCF correction compared to forces is large: reduce conv_thr to get better values

[...]

     new trust radius        =       0.0291244713 bohr
     new conv_thr            =       0.0000001000 Ry

ATOMIC_POSITIONS (crystal)
Bi1      0.166666667   0.166666667   0.389334134    0   0   0
Bi1      0.666666667   0.166666667   0.389334134    0   0   0
Bi1      0.166666667   0.666666667   0.389334134    0   0   0
Bi1      0.666666667   0.666666667   0.389334134    0   0   0
Bi1      0.833333333   0.333333333   0.500000000    0   0   0
Bi1      0.333333333   0.333333333   0.500000000    0   0   0
Bi1      0.833333333   0.833333333   0.500000000    0   0   0
Bi1      0.333333333   0.833333333   0.500000000    0   0   0
Bi1      0.003137356  -0.015171649   0.625546772
Bi1      0.511862966  -0.020293505   0.625570705
Bi1      0.002958892   0.500087504   0.629891789
Bi1      0.524798964   0.448847225   0.613195518
N1       0.173299124   0.154024020   0.660040759

     Writing output data file calc.save
     Check: negative starting charge=   -0.503278
     NEW-OLD atomic charge density approx. for the potential

     Check: negative/imaginary core charge=   -0.000001    0.000000
     Check: negative starting charge=   -0.503467

[...]

     Self-consistent Calculation

[...]

     total energy              =   -2266.02621298 Ry
     Harris-Foulkes estimate   =   -2266.02621301 Ry
     estimated scf accuracy    <       0.00000019 Ry

     iteration #  8     ecut=    36.75 Ry     beta=0.30
     Davidson diagonalization with overlap
     ethr =  1.02E-10,  avg # of iterations =  2.6

[...]

     negative rho (up, down):  5.270E-01 0.000E+00

     Adding external electric field

     Computed dipole along edir(3) :
        Dipole               -0.2014 Ry au,         -0.5119 Debye
        Dipole field         -0.0003 Ry au

        Potential amp.        0.0329 Ry
        Total length         47.3240 bohr

     End of self-consistent calculation

[...]

          k = 0.0479-0.0553 0.0000 ( 27352 PWs)   bands (ev):

[...]

          k =-0.0718-0.0415 0.0000 ( 27378 PWs)   bands (ev):

   -22.3574 -22.3440 -22.3228 -22.3184 -22.3079 -22.3047 -22.2972 -22.2937
   -22.2926 -22.2915 -22.2881 -22.2725 -22.2697 -22.2624 -22.2592 -22.2487
   -22.2369 -22.2346 -22.2288 -22.2248 -22.2223 -22.2174 -22.2141 -22.2128
   -22.2104 -22.2041 -22.1999 -22.1978 -22.1950 -22.1848 -22.1834 -22.1745
   -22.1662 -22.1554 -22.1528 -22.1513 -22.1388 -22.1294 -22.1184 -22.1172
   -22.1119 -22.1088 -22.1068 -22.1061 -22.1035 -22.0982 -22.0948 -22.0937
   -22.0833 -22.0787 -22.0752 -22.0673 -22.0577 -22.0475 -22.0275 -22.0029
   -21.9956 -21.9912 -21.9850 -21.9772 -13.6261 -11.1285 -10.9918 -10.4435
    -9.7302  -9.5480  -9.5106  -9.4317  -9.1885  -8.9745  -8.5276  -8.5041
    -7.8015  -3.1705  -2.3497  -2.1952  -2.1096  -1.9791  -1.9103  -1.7733
    -1.6553  -1.4075  -1.2930  -0.6737  -0.5583  -0.4128  -0.2691   0.0489
     0.3732   0.6994   0.7316   0.8425   0.8972   1.0534   1.0758   1.4513
     1.5172   1.7623   1.9939   2.5447   2.7117   3.2048

     the Fermi energy is     1.3360 ev

!    total energy              =   -2266.02621300 Ry
     Harris-Foulkes estimate   =   -2266.02621294 Ry
     estimated scf accuracy    <       0.00000002 Ry

     The total energy is the sum of the following terms:

     one-electron contribution =  -10536.72745710 Ry
     hartree contribution      =    5324.41804985 Ry
     xc contribution           =    -804.35294294 Ry
     ewald contribution        =    3750.69057818 Ry
     electric field correction =       0.00007003 Ry
     smearing contrib. (-TS)   =      -0.05451103 Ry

     convergence has been achieved in   8 iterations

 BEEF-vdW xc energy contributions
           1 :   -717.041146725214
           2 :    666.292400852643
           3 :   -576.768315626525
           4 :    467.961172572731
           5 :   -360.356588618762
           6 :    269.435850420846
           7 :   -202.161626310329
           8 :    156.853744294253
           9 :   -126.094698289422
          10 :    101.151502886411
          11 :   -75.9424907801506
          12 :    48.9861959789680
          13 :   -22.8535536976442
          14 :    1.80708526633953
          15 :    10.9677766113937
          16 :   -15.1604084017486
          17 :    13.4315328022396
          18 :   -9.98970204387012
          19 :    8.52764744222418
          20 :   -10.6123270331054
          21 :    15.2848169224660
          22 :   -19.9561396827330
          23 :    22.0212406593325
          24 :   -20.3063436300791
          25 :    15.6279909910310
          26 :   -10.2588835575120
          27 :    6.66551190575501
          28 :   -6.22739230923457
          29 :    8.60081938008193
          30 :   -12.0141586871609
          31 :   -57.3417800055163
          32 :   -42.1704557797002

     Forces acting on atoms (Ry/au):

     negative rho (up, down):  5.270E-01 0.000E+00
     atom    1 type  1   force =     0.00000116    0.00227353   -0.00358224
     atom    2 type  1   force =    -0.00011490   -0.00110537   -0.00560083
     atom    3 type  1   force =    -0.00008193   -0.00025826   -0.00552859
     atom    4 type  1   force =     0.00018614   -0.00048849   -0.00536509
     atom    5 type  1   force =     0.00679421   -0.00039253    0.00603147
     atom    6 type  1   force =    -0.00667442   -0.00029404    0.00615756
     atom    7 type  1   force =     0.00006068   -0.00280743   -0.00265676
     atom    8 type  1   force =     0.00018889    0.00710063    0.00741283
     atom    9 type  1   force =     0.00066781    0.00006944   -0.00032120
     atom   10 type  1   force =    -0.00056853   -0.00174653   -0.00117087
     atom   11 type  1   force =     0.00082362   -0.00051682    0.00078607
     atom   12 type  1   force =    -0.00032567   -0.00060167    0.00282307
     atom   13 type  2   force =    -0.00095706   -0.00123247    0.00101460

     Total force =     0.004332     Total SCF correction =     0.000398

     entering subroutine stress ...

     negative rho (up, down):  5.270E-01 0.000E+00
          total   stress  (Ry/bohr**3)                   (kbar)     P=    3.07
   0.00002962  -0.00000038  -0.00000042          4.36     -0.06     -0.06
  -0.00000038   0.00003139  -0.00000432         -0.06      4.62     -0.64
  -0.00000042  -0.00000432   0.00000156         -0.06     -0.64      0.23

     number of scf cycles    =  50
     number of bfgs steps    =  49

     energy   old            =   -2266.0261614575 Ry
     energy   new            =   -2266.0262130046 Ry

     CASE: energy  _new < energy  _old

     new trust radius        =       0.0320369184 bohr

     The maximum number of steps has been reached.

     End of BFGS Geometry Optimization
Begin final coordinates

ATOMIC_POSITIONS (crystal)
Bi1      0.166666667   0.166666667   0.389334134    0   0   0
Bi1      0.666666667   0.166666667   0.389334134    0   0   0
Bi1      0.166666667   0.666666667   0.389334134    0   0   0
Bi1      0.666666667   0.666666667   0.389334134    0   0   0
Bi1      0.833333333   0.333333333   0.500000000    0   0   0
Bi1      0.333333333   0.333333333   0.500000000    0   0   0
Bi1      0.833333333   0.833333333   0.500000000    0   0   0
Bi1      0.333333333   0.833333333   0.500000000    0   0   0
Bi1      0.003406392  -0.015609890   0.625132373
Bi1      0.512756331  -0.021997769   0.625045857
Bi1      0.003924443   0.499107007   0.629837508
Bi1      0.525575958   0.447004248   0.613039364
N1       0.173203214   0.153141610   0.659886568
End final coordinates

     Writing output data file calc.save

     General routines

     Parallel routines

   This run was terminated on:  23:12: 6  22Feb2018

   JOB DONE.