     Program PWSCF v.5.1rc2 (svn rev. 11289) starts on  2May2018 at 17:59:27

     Current dimensions of program PWSCF are:
     Max number of different atomic species (ntypx) = 10
     Max number of k-points (npk) =  40000
     Max angular momentum in pseudopotentials (lmaxx) =  3
     Presently stress not available with electric field

     IMPORTANT: XC functional enforced from input :
     Exchange-correlation      = BEEF-VDW ( 1  4 27 13 2)
     Any further DFT definition will be discarded
     Please, verify this is what you really want

     Subspace diagonalization in iterative solution of the eigenvalue problem:
     a serial algorithm will be used

     bravais-lattice index     =            0
     lattice parameter (alat)  =       1.8897  a.u.
     unit-cell volume          =    4158.3597 (a.u.)^3
     number of atoms/cell      =           13
     number of atomic types    =            2
     number of electrons       =       162.00
     number of Kohn-Sham states=           91
     kinetic-energy cutoff     =      36.7493  Ry
     charge density cutoff     =     367.4932  Ry
     convergence threshold     =      1.0E-05
     mixing beta               =       0.3000
     number of iterations used =           10  plain     mixing
     Exchange-correlation      = BEEF-VDW ( 1  4 27 13 2)
     nstep                     =           50

     celldm(1)=   1.889726  celldm(2)=   0.000000  celldm(3)=   0.000000
     celldm(4)=   0.000000  celldm(5)=   0.000000  celldm(6)=   0.000000

     crystal axes: (cart. coord. in units of alat)
               a(1) = (   5.399178   0.000000   0.000000 )
               a(2) = (   2.699589   4.675825   0.000000 )
               a(3) = (   0.000000   0.000000  24.408411 )

     reciprocal axes: (cart. coord. in units 2 pi/alat)
               b(1) = (  0.185213 -0.106933  0.000000 )
               b(2) = (  0.000000  0.213866  0.000000 )
               b(3) = (  0.000000  0.000000  0.040969 )

     PseudoPot. # 1 for V  read from file:
     /u/if/mamunm/psp/gbrv1.5pbe/V.UPF
     MD5 check sum: 22b79981416ebb76fdaf5b1b8640f6fb
     Pseudo is Ultrasoft + core correction, Zval = 13.0
     Generated by new atomic code, or converted to UPF format
     Using radial grid of  853 points,  6 beta functions with:
                l(1) =   0
                l(2) =   0
                l(3) =   1
                l(4) =   1
                l(5) =   2
                l(6) =   2
     Q(r) pseudized with  8 coefficients,  rinner =    1.100   1.100   1.100
                                                       1.100   1.100

     PseudoPot. # 2 for S  read from file:
     /u/if/mamunm/psp/gbrv1.5pbe/S.UPF
     MD5 check sum: 88d86576ff6df21479756cfb9bdac1df
     Pseudo is Ultrasoft + core correction, Zval =  6.0
     Generated by new atomic code, or converted to UPF format
     Using radial grid of  907 points,  6 beta functions with:
                l(1) =   0
                l(2) =   0
                l(3) =   1
                l(4) =   1
                l(5) =   2
                l(6) =   2
     Q(r) pseudized with  8 coefficients,  rinner =    1.300   1.300   1.300
                                                       1.300   1.300

     vdW kernel table read from file vdW_kernel_table
     MD5 check sum: 095c7af220d748ca6e76c0b4c6cfb241

     atomic species   valence    mass     pseudopotential
        V1            13.00    50.94150     V ( 1.00)
        S1             6.00    32.06000     S ( 1.00)

     No symmetry found

   Cartesian axes

     site n.     atom                  positions (alat units)
         1           V1  tau(   1) = (   1.3497945   0.7793042  10.0000000  )
         2           V1  tau(   2) = (   4.0493836   0.7793042  10.0000000  )
         3           V1  tau(   3) = (   2.6995891   3.1172170  10.0000000  )
         4           V1  tau(   4) = (   5.3991782   3.1172170  10.0000000  )
         5           V1  tau(   5) = (   5.3991782   1.5586085  12.2042053  )
         6           V1  tau(   6) = (   2.6995891   1.5586085  12.2042053  )
         7           V1  tau(   7) = (   6.7489727   3.8965212  12.2042053  )
         8           V1  tau(   8) = (   4.0493836   3.8965212  12.2042053  )
         9           V1  tau(   9) = (   0.0000000   0.0000000  14.4084105  )
        10           V1  tau(  10) = (   2.6995891   0.0000000  14.4084105  )
        11           V1  tau(  11) = (   1.3497945   2.3379127  14.4084105  )
        12           V1  tau(  12) = (   4.0493836   2.3379127  14.4084105  )
        13           S1  tau(  13) = (   2.6995891   1.5586085  16.0854105  )

     number of k points=    20  Fermi-Dirac smearing, width (Ry)=  0.0110
                       cart. coord. in units 2pi/alat
        k(    1) = (   0.0000000   0.0000000   0.0000000), wk =   0.0555556
        k(    2) = (   0.0000000   0.0356443   0.0000000), wk =   0.1111111
        k(    3) = (   0.0000000   0.0712887   0.0000000), wk =   0.1111111
        k(    4) = (   0.0000000  -0.1069330   0.0000000), wk =   0.0555556
        k(    5) = (   0.0308689  -0.0178222   0.0000000), wk =   0.1111111
        k(    6) = (   0.0308689   0.0178222   0.0000000), wk =   0.1111111
        k(    7) = (   0.0308689   0.0534665   0.0000000), wk =   0.1111111
        k(    8) = (   0.0308689  -0.1247552   0.0000000), wk =   0.1111111
        k(    9) = (   0.0308689  -0.0891108   0.0000000), wk =   0.1111111
        k(   10) = (   0.0308689  -0.0534665   0.0000000), wk =   0.1111111
        k(   11) = (   0.0617378  -0.0356443   0.0000000), wk =   0.1111111
        k(   12) = (   0.0617378   0.0000000   0.0000000), wk =   0.1111111
        k(   13) = (   0.0617378   0.0356443   0.0000000), wk =   0.1111111
        k(   14) = (   0.0617378  -0.1425773   0.0000000), wk =   0.1111111
        k(   15) = (   0.0617378  -0.1069330   0.0000000), wk =   0.1111111
        k(   16) = (   0.0617378  -0.0712887   0.0000000), wk =   0.1111111
        k(   17) = (  -0.0926067   0.0534665   0.0000000), wk =   0.0555556
        k(   18) = (  -0.0926067   0.0891108   0.0000000), wk =   0.1111111
        k(   19) = (  -0.0926067   0.1247552   0.0000000), wk =   0.1111111
        k(   20) = (  -0.0926067  -0.0534665   0.0000000), wk =   0.0555556

     Largest allocated arrays     est. size (Mb)     dimensions
     Largest temporary arrays     est. size (Mb)     dimensions

     Check: negative/imaginary core charge=   -0.000001    0.000000

     Initial potential from superposition of free atoms
     Check: negative starting charge=   -0.011610

     starting charge  161.98523, renormalised to  162.00000

     negative rho (up, down):  1.161E-02 0.000E+00

     *
     * You are using vdW-DF for exchange-correlation in this calculation.
     * Please cite the following three references that made this development
     * possible:
     *
     *   M. Dion, H. Rydberg, E. Schroder, D. C. Langreth, and
     *   B. I. Lundqvist, Phys. Rev. Lett. 92, 246401 (2004).
     *
     *   T. Thonhauser, V. R. Cooper, S. Li, A. Puzder, P. Hyldgaard, and
     *   D. C. Langreth, Phys. Rev. B 76, 125112 (2007).
     *
     *   G. Roman-Perez and J. M. Soler, Phys. Rev. Lett. 103, 096102 (2009).
     *
     *
     * If you are using vdW-DF2, please also cite:
     *
     *   K. Lee, E. D. Murray, L. Kong, B. I. Lundqvist, and
     *   D. C. Langreth, Phys. Rev. B 82, 081101(R) (2010).
     *
     *
     * If you are calculating the stress with vdW-DF, please also cite:
     *
     *   R. Sabatini, E. Kucukbenli, B. Kolb, T. Thonhauser, and
     *   S. de Gironcoli, J. Phys.: Condens. Matter 24, 424209 (2012).
     *

     Carrying out vdW-DF run using the following parameters:

     Nqs =      20    Nr_points =    1024   r_max =   100.000
     q_mesh =
               0.00001000     0.04494208     0.09755937     0.15916263
               0.23128650     0.31572767     0.41458969     0.53033537
               0.66584808     0.82450364     1.01025438     1.22772762
               1.48234092     1.78043706     2.12944203     2.53805004
               3.01644009     3.57652955     4.23227104     5.00000000

     Gradients computed in reciprocal space

     Adding external electric field

     Computed dipole along edir(3) :
        Dipole               -0.0037 Ry au,         -0.0095 Debye
        Dipole field         -0.0000 Ry au

        Potential amp.        0.0010 Ry
        Total length         44.9721 bohr

     Starting wfc are  124 randomized atomic wfcs

     Self-consistent Calculation

     iteration #  1     ecut=    36.75 Ry     beta=0.30
     Davidson diagonalization with overlap
     ethr =  1.00E-02,  avg # of iterations =  2.4

[...]

     total energy              =   -1767.95850124 Ry
     Harris-Foulkes estimate   =   -1774.17972164 Ry
     estimated scf accuracy    <      12.73798228 Ry

[...]

     End of self-consistent calculation

          k = 0.0000 0.0000 0.0000 ( 15569 PWs)   bands (ev):

   -63.1274 -63.0600 -63.0085 -62.9900 -62.9865 -62.9862 -62.9654 -62.9569
   -62.9565 -62.9327 -62.9324 -62.9299 -37.2239 -37.2165 -37.2163 -37.1764
   -37.1590 -37.1533 -37.1531 -37.0896 -37.0849 -37.0848 -36.9285 -36.8566
   -36.8331 -36.8325 -36.8063 -36.8024 -36.8022 -36.7266 -36.7210 -36.7209
   -36.6650 -36.6581 -36.6579 -36.6365 -36.6363 -36.6309 -36.6141 -36.5822
   -36.5793 -36.5792 -36.5597 -36.5597 -36.5007 -36.5007 -36.4594 -36.4594
   -11.8600  -4.8961  -3.5173  -2.7506  -2.7506  -2.7388  -2.1508  -1.8841
    -1.8840  -1.7675  -1.4654  -1.4403  -1.4403  -1.1265  -1.1265  -1.1252
    -0.9356  -0.9355  -0.7322  -0.1540  -0.1540   0.0756   0.6378   0.8222
     0.8222   1.0027   1.0570   1.2840   1.3046   1.3046   1.4468   1.4468
     1.4539   1.5137   1.5138   1.5628   1.5904   1.5904   1.6938   1.6938
     2.0160   2.0824   2.0826

[...]

          k =-0.0926 0.0535 0.0000 ( 15660 PWs)   bands (ev):

[...]

     the Fermi energy is     1.1741 ev

!    total energy              =   -1773.46603730 Ry
     Harris-Foulkes estimate   =   -1773.46604392 Ry
     estimated scf accuracy    <       0.00000773 Ry

     The total energy is the sum of the following terms:

     one-electron contribution =  -15349.65447124 Ry
     hartree contribution      =    7664.77135713 Ry
     xc contribution           =    -253.18651367 Ry
     ewald contribution        =    6164.74831207 Ry
     electric field correction =       0.00001925 Ry
     smearing contrib. (-TS)   =      -0.14474084 Ry

     convergence has been achieved in  31 iterations

 BEEF-vdW xc energy contributions
           1 :   -218.074101226961
           2 :    195.616773468628
           3 :   -158.479068889758
           4 :    118.264480671214
           5 :   -85.1319462959270
           6 :    64.0012362222301
           7 :   -53.8423356056204
           8 :    49.8376175274917
           9 :   -46.7920338229597
          10 :    41.7996172679775
          11 :   -34.9759619316231
          12 :    28.3327008004389
          13 :   -23.8708839100994
          14 :    22.1693434485481
          15 :   -22.2044381843716
          16 :    22.2534897943058
          17 :   -21.1096560939045
          18 :    18.7674494284553
          19 :   -16.2093147092233
          20 :    14.5575557304852
          21 :   -14.2480818822314
          22 :    14.7829298973638
          23 :   -15.1633387027456
          24 :    14.6276466147447
          25 :   -13.1549063269860
          26 :    11.4099407635069
          27 :   -10.2217268617390
          28 :    9.99363477879342
          29 :   -10.4570195188477
          30 :    10.9084923297712
          31 :   -22.7100264245787
          32 :   -16.3672268131521

     Forces acting on atoms (Ry/au):

     negative rho (up, down):  1.542E-02 0.000E+00
     atom    1 type  1   force =     0.00015933    0.00007878   -0.00012920
     atom    2 type  1   force =    -0.00015784    0.00008082   -0.00016109
     atom    3 type  1   force =     0.00000317   -0.00017054   -0.00013904
     atom    4 type  1   force =    -0.00000429    0.00001095   -0.00215737
     atom    5 type  1   force =     0.00000505   -0.00140204   -0.00326345
     atom    6 type  1   force =     0.00000469   -0.00000210   -0.00224409
     atom    7 type  1   force =     0.00122226    0.00069861   -0.00327637
     atom    8 type  1   force =    -0.00121597    0.00070210   -0.00329770
     atom    9 type  1   force =     0.00002225   -0.00001033   -0.01757736
     atom   10 type  1   force =    -0.00000467   -0.03454645    0.00058000
     atom   11 type  1   force =    -0.02992219    0.01728385    0.00060526
     atom   12 type  1   force =     0.02991618    0.01728642    0.00057264
     atom   13 type  2   force =    -0.00002798   -0.00001008    0.03048777

     Total force =     0.069432     Total SCF correction =     0.001936

     entering subroutine stress ...

     negative rho (up, down):  1.542E-02 0.000E+00
          total   stress  (Ry/bohr**3)                   (kbar)     P=  -12.47
  -0.00014367   0.00000001  -0.00000002        -21.13      0.00     -0.00
   0.00000001  -0.00014370  -0.00000002          0.00    -21.14     -0.00
  -0.00000002  -0.00000002   0.00003300         -0.00     -0.00      4.85

     BFGS Geometry Optimization

     number of scf cycles    =   1
     number of bfgs steps    =   0

     energy   new            =   -1773.4660372981 Ry

     new trust radius        =       0.0345606044 bohr
     new conv_thr            =       0.0000099958 Ry

ATOMIC_POSITIONS (crystal)
V1       0.166666667   0.166666667   0.409694847    0   0   0
V1       0.666666667   0.166666667   0.409694847    0   0   0
V1       0.166666667   0.666666667   0.409694847    0   0   0
V1       0.666666667   0.666666667   0.409694847    0   0   0
V1       0.833333333   0.333333333   0.500000000    0   0   0
V1       0.333333333   0.333333333   0.500000000    0   0   0
V1       0.833333333   0.833333333   0.500000000    0   0   0
V1       0.333333333   0.833333333   0.500000000    0   0   0
V1       0.000002765  -0.000001169   0.589924074
V1       0.501954405  -0.003909725   0.590317728
V1      -0.003910727   0.501956066   0.590318276
V1       0.501953928   0.501956356   0.590317568
S1       0.333331161   0.333332193   0.659671958

     Writing output data file calc.save
     Check: negative starting charge=   -0.011610
     NEW-OLD atomic charge density approx. for the potential

     Check: negative/imaginary core charge=   -0.000001    0.000000
     Check: negative starting charge=   -0.011385

[...]

     energy   old            =   -1773.4660372981 Ry
     energy   new            =   -1773.4699654961 Ry

     CASE: energy  _new < energy  _old

[...]

     iteration #  1     ecut=    36.75 Ry     beta=0.30
     Davidson diagonalization with overlap
     c_bands:  1 eigenvalues not converged
     ethr =  1.00E-06,  avg # of iterations = 15.3

[...]

     iteration #  1     ecut=    36.75 Ry     beta=0.30
     Davidson diagonalization with overlap
     c_bands:  1 eigenvalues not converged
     ethr =  1.00E-06,  avg # of iterations = 14.3

[...]

     Threshold (ethr) on eigenvalues was too large:
     Diagonalizing with lowered threshold

     Davidson diagonalization with overlap
     ethr =  8.77E-08,  avg # of iterations =  2.1

[...]

     Total force =     0.005632     Total SCF correction =     0.000788
     SCF correction compared to forces is large: reduce conv_thr to get better values

[...]

     Total force =     0.004619     Total SCF correction =     0.000136

[...]

     number of scf cycles    =  17
     number of bfgs steps    =  16

     energy   old            =   -1773.4919170538 Ry
     energy   new            =   -1773.4919736451 Ry

     CASE: energy  _new < energy  _old

     new trust radius        =       0.0179980936 bohr
     new conv_thr            =       0.0000001000 Ry

ATOMIC_POSITIONS (crystal)
V1       0.166666667   0.166666667   0.409694847    0   0   0
V1       0.666666667   0.166666667   0.409694847    0   0   0
V1       0.166666667   0.666666667   0.409694847    0   0   0
V1       0.666666667   0.666666667   0.409694847    0   0   0
V1       0.833333333   0.333333333   0.500000000    0   0   0
V1       0.333333333   0.333333333   0.500000000    0   0   0
V1       0.833333333   0.833333333   0.500000000    0   0   0
V1       0.333333333   0.833333333   0.500000000    0   0   0
V1      -0.000000593   0.000001795   0.573038070
V1       0.506728581  -0.013461511   0.594493851
V1      -0.013454580   0.506723027   0.594492952
V1       0.506727860   0.506724806   0.594492846
S1       0.333329741   0.333330341   0.663255710

     Writing output data file calc.save
     Check: negative starting charge=   -0.010961
     NEW-OLD atomic charge density approx. for the potential

     Check: negative/imaginary core charge=   -0.000001    0.000000
     Check: negative starting charge=   -0.011230

[...]

     Self-consistent Calculation

[...]

     total energy              =   -1773.49202419 Ry
     Harris-Foulkes estimate   =   -1773.49202425 Ry
     estimated scf accuracy    <       0.00000014 Ry

     iteration # 18     ecut=    36.75 Ry     beta=0.30
     Davidson diagonalization with overlap
     ethr =  8.37E-11,  avg # of iterations =  3.9

[...]

     negative rho (up, down):  1.555E-02 0.000E+00

     Adding external electric field

     Computed dipole along edir(3) :
        Dipole               -0.1299 Ry au,         -0.3301 Debye
        Dipole field         -0.0004 Ry au

        Potential amp.        0.0353 Ry
        Total length         44.9721 bohr

     End of self-consistent calculation

[...]

          k = 0.0617-0.0713 0.0000 ( 15642 PWs)   bands (ev):

[...]

          k =-0.0926-0.0535 0.0000 ( 15660 PWs)   bands (ev):

   -63.1710 -63.1526 -63.1179 -63.0983 -63.0974 -63.0736 -63.0455 -63.0311
   -63.0281 -63.0053 -62.9866 -62.7519 -37.2522 -37.1812 -37.1737 -37.1566
   -37.1546 -37.1403 -37.1042 -37.0642 -37.0506 -37.0397 -37.0239 -37.0009
   -36.9970 -36.9183 -36.9066 -36.9005 -36.8921 -36.8624 -36.8494 -36.8413
   -36.8348 -36.8276 -36.8158 -36.7996 -36.7747 -36.7520 -36.7306 -36.7296
   -36.7059 -36.6838 -36.6606 -36.6123 -36.6040 -36.4295 -36.3813 -36.3152
   -11.6455  -3.4576  -3.2981  -2.6990  -2.6134  -2.3795  -1.7825  -1.5946
    -1.2888  -1.2746  -1.1991  -1.1427  -1.1159  -0.8147  -0.6111  -0.5677
    -0.4077  -0.4001  -0.2183  -0.1882  -0.0701   0.1259   0.1612   0.1929
     0.2213   0.3940   0.4348   0.4567   0.6099   0.6179   0.7126   0.7428
     0.8041   0.8700   1.0614   1.1148   1.2439   1.2526   1.4046   1.4072
     1.6442   1.7241   1.9209

     the Fermi energy is     1.0747 ev

!    total energy              =   -1773.49202418 Ry
     Harris-Foulkes estimate   =   -1773.49202371 Ry
     estimated scf accuracy    <       0.00000002 Ry

     The total energy is the sum of the following terms:

     one-electron contribution =  -15356.86722303 Ry
     hartree contribution      =    7668.09242392 Ry
     xc contribution           =    -253.23845245 Ry
     ewald contribution        =    6168.65203824 Ry
     electric field correction =       0.00005099 Ry
     smearing contrib. (-TS)   =      -0.13086184 Ry

     convergence has been achieved in  18 iterations

 BEEF-vdW xc energy contributions
           1 :   -218.125168710874
           2 :    195.651699791786
           3 :   -158.480836045797
           4 :    118.212519930844
           5 :   -85.0050313088465
           6 :    63.7872912734578
           7 :   -53.5479758084819
           8 :    49.4945904571833
           9 :   -46.4563332539531
          10 :    41.5322044276475
          11 :   -34.8053333547398
          12 :    28.2241514555088
          13 :   -23.7363003998319
          14 :    21.9241867277277
          15 :   -21.8332456122004
          16 :    21.8293227480291
          17 :   -20.7466898725241
          18 :    18.5403683654948
          19 :   -16.0998539530238
          20 :    14.4660969833021
          21 :   -14.0595955191413
          22 :    14.4419313315568
          23 :   -14.7116285031551
          24 :    14.1825961192242
          25 :   -12.8407972088938
          26 :    11.2821834428420
          27 :   -10.2307299294280
          28 :    10.0142863136895
          29 :   -10.3687974837163
          30 :    10.6745817218702
          31 :   -22.7122633895111
          32 :   -16.3603955377356

     Forces acting on atoms (Ry/au):

     negative rho (up, down):  1.555E-02 0.000E+00
     atom    1 type  1   force =     0.00022136    0.00012761   -0.00052585
     atom    2 type  1   force =    -0.00022160    0.00012907   -0.00052821
     atom    3 type  1   force =     0.00000120   -0.00025593   -0.00052635
     atom    4 type  1   force =    -0.00000113   -0.00000009    0.00285499
     atom    5 type  1   force =     0.00000021    0.02368990   -0.01376372
     atom    6 type  1   force =    -0.00000109   -0.00000087    0.04097695
     atom    7 type  1   force =    -0.02051587   -0.01184468   -0.01375979
     atom    8 type  1   force =     0.02051467   -0.01184340   -0.01376183
     atom    9 type  1   force =     0.00000114   -0.00000377   -0.00024209
     atom   10 type  1   force =     0.00000098    0.00094224    0.00020821
     atom   11 type  1   force =     0.00081435   -0.00046849    0.00021649
     atom   12 type  1   force =    -0.00081744   -0.00047205    0.00021391
     atom   13 type  2   force =     0.00000323    0.00000046   -0.00136270

     Total force =     0.002171     Total SCF correction =     0.000547
     SCF correction compared to forces is large: reduce conv_thr to get better values

     entering subroutine stress ...

     negative rho (up, down):  1.555E-02 0.000E+00
          total   stress  (Ry/bohr**3)                   (kbar)     P=  -12.47
  -0.00012208   0.00000000   0.00000001        -17.96      0.00      0.00
   0.00000000  -0.00012208  -0.00000000          0.00    -17.96     -0.00
   0.00000001  -0.00000000  -0.00001021          0.00     -0.00     -1.50

     bfgs converged in  18 scf cycles and  17 bfgs steps
     (criteria: energy <  1.0E+00, force <  1.9E-03)

     End of BFGS Geometry Optimization

     Final energy   =   -1773.4920241809 Ry
Begin final coordinates

ATOMIC_POSITIONS (crystal)
V1       0.166666667   0.166666667   0.409694847    0   0   0
V1       0.666666667   0.166666667   0.409694847    0   0   0
V1       0.166666667   0.666666667   0.409694847    0   0   0
V1       0.666666667   0.666666667   0.409694847    0   0   0
V1       0.833333333   0.333333333   0.500000000    0   0   0
V1       0.333333333   0.333333333   0.500000000    0   0   0
V1       0.833333333   0.833333333   0.500000000    0   0   0
V1       0.333333333   0.833333333   0.500000000    0   0   0
V1      -0.000000593   0.000001795   0.573038070
V1       0.506728581  -0.013461511   0.594493851
V1      -0.013454580   0.506723027   0.594492952
V1       0.506727860   0.506724806   0.594492846
S1       0.333329741   0.333330341   0.663255710
End final coordinates

     Writing output data file calc.save

     General routines

     Parallel routines

   This run was terminated on:  20:29:19   2May2018

   JOB DONE.
Job  /afs/slac/g/suncat/bin/suncat-tsmpirun -x LD_LIBRARY_PATH -wdir /scratch/qe829244_NeYxl pw.x -npool 4 -in pw.inp

TID   HOST_NAME   COMMAND_LINE            STATUS            TERMINATION_TIME
00000 suncat0160 pw.x -npool 4 -i  Done                     05/02/2018 20:29:19
00001 suncat0160 pw.x -npool 4 -i  Done                     05/02/2018 20:29:19
00002 suncat0160 pw.x -npool 4 -i  Done                     05/02/2018 20:29:19
00003 suncat0160 pw.x -npool 4 -i  Done                     05/02/2018 20:29:19
00004 suncat0160 pw.x -npool 4 -i  Done                     05/02/2018 20:29:19
00005 suncat0160 pw.x -npool 4 -i  Done                     05/02/2018 20:29:19
00006 suncat0160 pw.x -npool 4 -i  Done                     05/02/2018 20:29:19
00007 suncat0160 pw.x -npool 4 -i  Done                     05/02/2018 20:29:19
00008 suncat0125 pw.x -npool 4 -i  Done                     05/02/2018 20:29:19
00009 suncat0125 pw.x -npool 4 -i  Done                     05/02/2018 20:29:19
00010 suncat0125 pw.x -npool 4 -i  Done                     05/02/2018 20:29:19
00011 suncat0125 pw.x -npool 4 -i  Done                     05/02/2018 20:29:19
00012 suncat0125 pw.x -npool 4 -i  Done                     05/02/2018 20:29:19
00013 suncat0125 pw.x -npool 4 -i  Done                     05/02/2018 20:29:19
00014 suncat0125 pw.x -npool 4 -i  Done                     05/02/2018 20:29:19
00015 suncat0125 pw.x -npool 4 -i  Done                     05/02/2018 20:29:19
00016 suncat0231 pw.x -npool 4 -i  Done                     05/02/2018 20:29:19
00017 suncat0231 pw.x -npool 4 -i  Done                     05/02/2018 20:29:19
00018 suncat0231 pw.x -npool 4 -i  Done                     05/02/2018 20:29:19
00019 suncat0231 pw.x -npool 4 -i  Done                     05/02/2018 20:29:19
00020 suncat0231 pw.x -npool 4 -i  Done                     05/02/2018 20:29:19
00021 suncat0231 pw.x -npool 4 -i  Done                     05/02/2018 20:29:19
00022 suncat0231 pw.x -npool 4 -i  Done                     05/02/2018 20:29:19
00023 suncat0231 pw.x -npool 4 -i  Done                     05/02/2018 20:29:19
00024 suncat0230 pw.x -npool 4 -i  Done                     05/02/2018 20:29:19
00025 suncat0230 pw.x -npool 4 -i  Done                     05/02/2018 20:29:19
00026 suncat0230 pw.x -npool 4 -i  Done                     05/02/2018 20:29:19
00027 suncat0230 pw.x -npool 4 -i  Done                     05/02/2018 20:29:19
00028 suncat0230 pw.x -npool 4 -i  Done                     05/02/2018 20:29:19
00029 suncat0230 pw.x -npool 4 -i  Done                     05/02/2018 20:29:19
00030 suncat0230 pw.x -npool 4 -i  Done                     05/02/2018 20:29:19
00031 suncat0230 pw.x -npool 4 -i  Done                     05/02/2018 20:29:19