     Program PWSCF v.5.1rc2 (svn rev. 11289) starts on 17Jan2019 at  1:20:15

     Current dimensions of program PWSCF are:
     Max number of different atomic species (ntypx) = 10
     Max number of k-points (npk) =  40000
     Max angular momentum in pseudopotentials (lmaxx) =  3

     IMPORTANT: XC functional enforced from input :
     Exchange-correlation      = BEEF-VDW ( 1  4 27 13 2)
     Any further DFT definition will be discarded
     Please, verify this is what you really want

     Subspace diagonalization in iterative solution of the eigenvalue problem:
     a serial algorithm will be used

     bravais-lattice index     =            0
     lattice parameter (alat)  =      12.7122  a.u.
     unit-cell volume          =    6741.9071 (a.u.)^3
     number of atoms/cell      =           13
     number of atomic types    =            2
     number of electrons       =       173.00
     number of Kohn-Sham states=           96
     kinetic-energy cutoff     =      36.7493  Ry
     charge density cutoff     =     367.4933  Ry
     convergence threshold     =      1.0E-04
     mixing beta               =       0.2000
     number of iterations used =            8  plain     mixing
     Exchange-correlation      = BEEF-VDW ( 1  4 27 13 2)
     nstep                     =           50

     celldm(1)=  12.712175  celldm(2)=   0.000000  celldm(3)=   0.000000
     celldm(4)=   0.000000  celldm(5)=   0.000000  celldm(6)=   0.000000

     crystal axes: (cart. coord. in units of alat)
               a(1) = (   1.000000   0.000000   0.000000 )
               a(2) = (   0.500000   0.866025   0.000000 )
               a(3) = (   0.000000   0.000000   3.789593 )

     reciprocal axes: (cart. coord. in units 2 pi/alat)
               b(1) = (  1.000000 -0.577350  0.000000 )
               b(2) = (  0.000000  1.154701  0.000000 )
               b(3) = (  0.000000  0.000000  0.263881 )

     PseudoPot. # 1 for Sn read from file:
     /nfs/slac/g/suncatfs/mamunm/src/decaf-espresso/gbrv15pbe/Sn.UPF
     MD5 check sum: 469debedee59599fedebd795477fea03
     Pseudo is Ultrasoft + core correction, Zval = 14.0
     Generated by new atomic code, or converted to UPF format
     Using radial grid of  891 points,  6 beta functions with:
                l(1) =   0
                l(2) =   0
                l(3) =   1
                l(4) =   1
                l(5) =   2
                l(6) =   2
     Q(r) pseudized with  8 coefficients,  rinner =    1.350   1.350   1.350
                                                       1.350   1.350

     PseudoPot. # 2 for N  read from file:
     /nfs/slac/g/suncatfs/mamunm/src/decaf-espresso/gbrv15pbe/N.UPF
     MD5 check sum: 95339753478d7afb44899504a8723017
     Pseudo is Ultrasoft + core correction, Zval =  5.0
     Generated by new atomic code, or converted to UPF format
     Using radial grid of  729 points,  4 beta functions with:
                l(1) =   0
                l(2) =   0
                l(3) =   1
                l(4) =   1
     Q(r) pseudized with  8 coefficients,  rinner =    0.900   0.900   0.900

     vdW kernel table read from file vdW_kernel_table
     MD5 check sum: 095c7af220d748ca6e76c0b4c6cfb241

     atomic species   valence    mass     pseudopotential
        Sn            14.00   118.71000     Sn( 1.00)
        N              5.00    14.00700     N ( 1.00)

     No symmetry found

   Cartesian axes

     site n.     atom                  positions (alat units)
         1           Sn  tau(   1) = (   0.2500000   0.1443376   1.4865483  )
         2           Sn  tau(   2) = (   0.7500000   0.1443376   1.4865483  )
         3           Sn  tau(   3) = (   0.5000000   0.5773503   1.4865483  )
         4           Sn  tau(   4) = (   1.0000000   0.5773503   1.4865483  )
         5           Sn  tau(   5) = (   1.0000000   0.2886751   1.8947966  )
         6           Sn  tau(   6) = (   0.5000000   0.2886751   1.8947966  )
         7           Sn  tau(   7) = (   1.2500000   0.7216878   1.8947966  )
         8           Sn  tau(   8) = (   0.7500000   0.7216878   1.8947966  )
         9           Sn  tau(   9) = (  -0.0054138  -0.0031154   2.3390339  )
        10           Sn  tau(  10) = (   0.5054059  -0.0031244   2.3390452  )
        11           Sn  tau(  11) = (   0.2500030   0.4392619   2.3390348  )
        12           Sn  tau(  12) = (   0.7499965   0.4330103   2.2812407  )
        13           N   tau(  13) = (   0.2499971   0.1443398   2.4398704  )

     number of k points=    20  Fermi-Dirac smearing, width (Ry)=  0.0110
                       cart. coord. in units 2pi/alat
        k(    1) = (   0.0000000   0.0000000   0.0000000), wk =   0.0555556
        k(    2) = (   0.0000000   0.1924501   0.0000000), wk =   0.1111111
        k(    3) = (   0.0000000   0.3849002   0.0000000), wk =   0.1111111
        k(    4) = (   0.0000000  -0.5773503   0.0000000), wk =   0.0555556
        k(    5) = (   0.1666667  -0.0962250   0.0000000), wk =   0.1111111
        k(    6) = (   0.1666667   0.0962250   0.0000000), wk =   0.1111111
        k(    7) = (   0.1666667   0.2886751   0.0000000), wk =   0.1111111
        k(    8) = (   0.1666667  -0.6735753   0.0000000), wk =   0.1111111
        k(    9) = (   0.1666667  -0.4811252   0.0000000), wk =   0.1111111
        k(   10) = (   0.1666667  -0.2886751   0.0000000), wk =   0.1111111
        k(   11) = (   0.3333333  -0.1924501   0.0000000), wk =   0.1111111
        k(   12) = (   0.3333333   0.0000000   0.0000000), wk =   0.1111111
        k(   13) = (   0.3333333   0.1924501   0.0000000), wk =   0.1111111
        k(   14) = (   0.3333333  -0.7698004   0.0000000), wk =   0.1111111
        k(   15) = (   0.3333333  -0.5773503   0.0000000), wk =   0.1111111
        k(   16) = (   0.3333333  -0.3849002   0.0000000), wk =   0.1111111
        k(   17) = (  -0.5000000   0.2886751   0.0000000), wk =   0.0555556
        k(   18) = (  -0.5000000   0.4811252   0.0000000), wk =   0.1111111
        k(   19) = (  -0.5000000   0.6735753   0.0000000), wk =   0.1111111
        k(   20) = (  -0.5000000  -0.2886751   0.0000000), wk =   0.0555556

     Largest allocated arrays     est. size (Mb)     dimensions
     Largest temporary arrays     est. size (Mb)     dimensions

     Initial potential from superposition of free atoms
     Check: negative starting charge=   -0.001538

     starting charge  160.99945, renormalised to  173.00000

     negative rho (up, down):  1.653E-03 0.000E+00

     *
     * You are using vdW-DF for exchange-correlation in this calculation.
     * Please cite the following three references that made this development
     * possible:
     *
     *   M. Dion, H. Rydberg, E. Schroder, D. C. Langreth, and
     *   B. I. Lundqvist, Phys. Rev. Lett. 92, 246401 (2004).
     *
     *   T. Thonhauser, V. R. Cooper, S. Li, A. Puzder, P. Hyldgaard, and
     *   D. C. Langreth, Phys. Rev. B 76, 125112 (2007).
     *
     *   G. Roman-Perez and J. M. Soler, Phys. Rev. Lett. 103, 096102 (2009).
     *
     *
     * If you are using vdW-DF2, please also cite:
     *
     *   K. Lee, E. D. Murray, L. Kong, B. I. Lundqvist, and
     *   D. C. Langreth, Phys. Rev. B 82, 081101(R) (2010).
     *
     *
     * If you are calculating the stress with vdW-DF, please also cite:
     *
     *   R. Sabatini, E. Kucukbenli, B. Kolb, T. Thonhauser, and
     *   S. de Gironcoli, J. Phys.: Condens. Matter 24, 424209 (2012).
     *

     Carrying out vdW-DF run using the following parameters:

     Nqs =      20    Nr_points =    1024   r_max =   100.000
     q_mesh =
               0.00001000     0.04494208     0.09755937     0.15916263
               0.23128650     0.31572767     0.41458969     0.53033537
               0.66584808     0.82450364     1.01025438     1.22772762
               1.48234092     1.78043706     2.12944203     2.53805004
               3.01644009     3.57652955     4.23227104     5.00000000

     Gradients computed in reciprocal space

     Adding external electric field

     Computed dipole along edir(3) :
        Dipole               -2.5483 Ry au,         -6.4771 Debye
        Dipole field         -0.0047 Ry au

        Potential amp.        0.4119 Ry
        Total length         43.3566 bohr

     Starting wfc are  112 randomized atomic wfcs

     Self-consistent Calculation

     iteration #  1     ecut=    36.75 Ry     beta=0.20
     Davidson diagonalization with overlap
     ethr =  1.00E-02,  avg # of iterations =  7.2

[...]

     total energy              =   -1930.98214558 Ry
     Harris-Foulkes estimate   =   -1954.53726754 Ry
     estimated scf accuracy    <      69.38907485 Ry

[...]

     End of self-consistent calculation

          k = 0.0000 0.0000 0.0000 ( 25377 PWs)   bands (ev):

   -21.3076 -21.2580 -21.2509 -21.2509 -21.2205 -21.2146 -21.2050 -21.2049
   -21.1948 -21.1945 -21.1945 -21.1866 -21.1866 -21.1753 -21.1749 -21.1749
   -21.1661 -21.1661 -21.1612 -21.1603 -21.1603 -21.1495 -21.1495 -21.1399
   -21.1395 -21.1352 -21.1352 -21.1329 -21.1177 -21.1177 -21.1130 -21.1022
   -21.1021 -21.0833 -21.0833 -21.0654 -21.0654 -21.0648 -21.0562 -21.0521
   -21.0521 -21.0328 -21.0328 -21.0322 -21.0300 -21.0300 -21.0228 -21.0194
   -21.0193 -21.0058 -21.0058 -20.9973 -20.9972 -20.9894 -20.9661 -20.9617
   -20.9531 -20.9531 -20.9205 -20.9205 -13.6224  -9.7348  -8.2257  -6.6657
    -6.1518  -6.1518  -5.8067  -5.6614  -5.6614  -5.2768  -4.7551  -4.7550
    -4.1784  -3.3249  -3.3249  -3.0904  -2.5735  -2.2299  -2.2299  -1.9175
    -1.9175  -1.8885  -1.6216  -0.1386  -0.1385   0.6248   1.2475   1.7607
     1.7608   1.9272   2.4016   2.4016   2.8376   3.2523   3.5290   4.0030

[...]

          k =-0.5000 0.2887 0.0000 ( 25386 PWs)   bands (ev):

[...]

     the Fermi energy is     0.8531 ev

!    total energy              =   -1948.54402715 Ry
     Harris-Foulkes estimate   =   -1948.54417064 Ry
     estimated scf accuracy    <       0.00009162 Ry

     The total energy is the sum of the following terms:

     one-electron contribution =  -10524.76390890 Ry
     hartree contribution      =    5327.79989839 Ry
     xc contribution           =    -539.47052096 Ry
     ewald contribution        =    3787.93622509 Ry
     electric field correction =       0.00001283 Ry
     smearing contrib. (-TS)   =      -0.04573360 Ry

     convergence has been achieved in  13 iterations

     Forces acting on atoms (Ry/au):

     negative rho (up, down):  7.005E-04 0.000E+00
     atom    1 type  1   force =    -0.00004301   -0.00003002    0.00207908
     atom    2 type  1   force =     0.00001879   -0.00049916    0.00922722
     atom    3 type  1   force =    -0.00043129    0.00027509    0.00914737
     atom    4 type  1   force =     0.00046261    0.00024959    0.00918362
     atom    5 type  1   force =     0.00212357   -0.00119936   -0.00079810
     atom    6 type  1   force =    -0.00210612   -0.00119570   -0.00077691
     atom    7 type  1   force =    -0.00001450   -0.00002432   -0.00422371
     atom    8 type  1   force =    -0.00000991    0.00244194   -0.00079381
     atom    9 type  1   force =    -0.00351956   -0.00205784   -0.00580601
     atom   10 type  1   force =     0.00350188   -0.00202607   -0.00581042
     atom   11 type  1   force =     0.00001957    0.00404367   -0.00581718
     atom   12 type  1   force =    -0.00000805    0.00002143   -0.00634840
     atom   13 type  2   force =     0.00000602    0.00000075    0.00073723

     Total force =     0.013838     Total SCF correction =     0.013914
     SCF correction compared to forces is large: reduce conv_thr to get better values

     BFGS Geometry Optimization

     number of scf cycles    =   1
     number of bfgs steps    =   0

     energy   new            =   -1948.5440271467 Ry

     new trust radius        =       0.0070944887 bohr
     new conv_thr            =       0.0001000000 Ry

ATOMIC_POSITIONS (angstrom)
Sn       1.681748263   0.970957812  10.000000000    0   0   0
Sn       5.045244789   0.970957812  10.000000000    0   0   0
Sn       3.363496526   3.883831250  10.000000000    0   0   0
Sn       6.726993052   3.883831250  10.000000000    0   0   0
Sn       6.726993052   1.941915625  12.746283414    0   0   0
Sn       3.363496526   1.941915625  12.746283414    0   0   0
Sn       8.408741315   4.854789062  12.746283414    0   0   0
Sn       5.045244789   4.854789062  12.746283414    0   0   0
Sn      -0.038280971  -0.022045934  15.731592371
Sn       3.401715134  -0.022090188  15.731666109
Sn       1.681778765   2.957051672  15.731592656
Sn       5.045217197   2.912868478  15.342531115
N        1.681731714   0.970973201  16.413381417

     Writing output data file calc.save
     Check: negative starting charge=   -0.001538
     NEW-OLD atomic charge density approx. for the potential
     Check: negative starting charge=   -0.001536

[...]

     number of scf cycles    =   2
     number of bfgs steps    =   1

     energy   old            =   -1948.5440271467 Ry
     energy   new            =   -1948.5440776404 Ry

     CASE: energy  _new < energy  _old

     new trust radius        =       0.0058397930 bohr
     new conv_thr            =       0.0000010000 Ry

ATOMIC_POSITIONS (angstrom)
Sn       1.681748263   0.970957812  10.000000000    0   0   0
Sn       5.045244789   0.970957812  10.000000000    0   0   0
Sn       3.363496526   3.883831250  10.000000000    0   0   0
Sn       6.726993052   3.883831250  10.000000000    0   0   0
Sn       6.726993052   1.941915625  12.746283413    0   0   0
Sn       3.363496526   1.941915625  12.746283413    0   0   0
Sn       8.408741315   4.854789062  12.746283413    0   0   0
Sn       5.045244789   4.854789062  12.746283413    0   0   0
Sn      -0.039497176  -0.022726261  15.728834134
Sn       3.402935544  -0.022788872  15.728914957
Sn       1.681768284   2.958431902  15.728836250
Sn       5.045223167   2.912867263  15.340350663
N        1.681727219   0.970975040  16.412009427

     Writing output data file calc.save
     Check: negative starting charge=   -0.001536
     NEW-OLD atomic charge density approx. for the potential
     Check: negative starting charge=   -0.001535

[...]

     Self-consistent Calculation

[...]

     total energy              =   -1948.54408771 Ry
     Harris-Foulkes estimate   =   -1948.54408822 Ry
     estimated scf accuracy    <       0.00000327 Ry

     iteration #  6     ecut=    36.75 Ry     beta=0.20
     Davidson diagonalization with overlap
     ethr =  1.89E-09,  avg # of iterations =  2.0

     negative rho (up, down):  7.075E-04 0.000E+00

     Adding external electric field

     Computed dipole along edir(3) :
        Dipole               -0.1024 Ry au,         -0.2602 Debye
        Dipole field         -0.0002 Ry au

        Potential amp.        0.0165 Ry
        Total length         43.3566 bohr

     End of self-consistent calculation

[...]

          k = 0.3333-0.3849 0.0000 ( 25368 PWs)   bands (ev):

[...]

          k =-0.5000-0.2887 0.0000 ( 25386 PWs)   bands (ev):

   -21.3050 -21.2974 -21.2696 -21.2657 -21.2523 -21.2506 -21.2459 -21.2454
   -21.2429 -21.2393 -21.2355 -21.2348 -21.2324 -21.2321 -21.2261 -21.2206
   -21.2198 -21.2186 -21.2153 -21.2115 -21.2095 -21.2064 -21.1951 -21.1931
   -21.1813 -21.1788 -21.1767 -21.1763 -21.1710 -21.1638 -21.1620 -21.1550
   -21.1490 -21.1477 -21.1398 -21.1380 -21.1350 -21.1319 -21.1267 -21.1259
   -21.1237 -21.1226 -21.1192 -21.1173 -21.1156 -21.1114 -21.1104 -21.1066
   -21.1000 -21.0986 -21.0952 -21.0854 -21.0767 -21.0677 -21.0394 -21.0320
   -21.0197 -21.0168 -21.0027 -20.9946 -13.6181  -8.8157  -8.5994  -7.7620
    -7.1243  -6.6789  -6.4793  -6.2277  -6.0293  -5.6578  -4.8543  -4.5756
    -4.0943  -2.9577  -1.8655  -1.7701  -1.4465  -1.3531  -1.1150  -0.9868
    -0.9848  -0.7298  -0.0746   0.0626   0.1705   0.7267   0.8696   1.0471
     1.3919   1.4180   1.5398   1.7283   1.9795   2.0071   2.2402   2.2592

     the Fermi energy is     0.7983 ev

!    total energy              =   -1948.54408791 Ry
     Harris-Foulkes estimate   =   -1948.54408812 Ry
     estimated scf accuracy    <       0.00000031 Ry

     The total energy is the sum of the following terms:

     one-electron contribution =  -10532.90145537 Ry
     hartree contribution      =    5332.05988416 Ry
     xc contribution           =    -539.48117657 Ry
     ewald contribution        =    3791.82431309 Ry
     electric field correction =       0.00001953 Ry
     smearing contrib. (-TS)   =      -0.04567274 Ry

     convergence has been achieved in   6 iterations

     Forces acting on atoms (Ry/au):

     negative rho (up, down):  7.075E-04 0.000E+00
     atom    1 type  1   force =    -0.00000083    0.00000073   -0.00616015
     atom    2 type  1   force =    -0.00000111   -0.00070491    0.00242335
     atom    3 type  1   force =    -0.00061128    0.00035207    0.00242125
     atom    4 type  1   force =     0.00061018    0.00035509    0.00242055
     atom    5 type  1   force =     0.00210974   -0.00121839    0.00088607
     atom    6 type  1   force =    -0.00211113   -0.00121862    0.00088766
     atom    7 type  1   force =    -0.00000190   -0.00000115   -0.00413440
     atom    8 type  1   force =     0.00000337    0.00243789    0.00088641
     atom    9 type  1   force =     0.00056163    0.00032535    0.00006849
     atom   10 type  1   force =    -0.00056149    0.00032013    0.00006346
     atom   11 type  1   force =    -0.00000057   -0.00064243    0.00006539
     atom   12 type  1   force =     0.00000418   -0.00000101    0.00003319
     atom   13 type  2   force =    -0.00000078   -0.00000475    0.00013872

     Total force =     0.001134     Total SCF correction =     0.000351
     SCF correction compared to forces is large: reduce conv_thr to get better values

     bfgs converged in   3 scf cycles and   2 bfgs steps
     (criteria: energy <  1.0E+12, force <  1.9E-03)

     End of BFGS Geometry Optimization

     Final energy   =   -1948.5440879091 Ry
Begin final coordinates

ATOMIC_POSITIONS (angstrom)
Sn       1.681748263   0.970957812  10.000000000    0   0   0
Sn       5.045244789   0.970957812  10.000000000    0   0   0
Sn       3.363496526   3.883831250  10.000000000    0   0   0
Sn       6.726993052   3.883831250  10.000000000    0   0   0
Sn       6.726993052   1.941915625  12.746283413    0   0   0
Sn       3.363496526   1.941915625  12.746283413    0   0   0
Sn       8.408741315   4.854789062  12.746283413    0   0   0
Sn       5.045244789   4.854789062  12.746283413    0   0   0
Sn      -0.039497176  -0.022726261  15.728834134
Sn       3.402935544  -0.022788872  15.728914957
Sn       1.681768284   2.958431902  15.728836250
Sn       5.045223167   2.912867263  15.340350663
N        1.681727219   0.970975040  16.412009427
End final coordinates

     Writing output data file calc.save

     General routines

     Parallel routines

   This run was terminated on:   1:33:23  17Jan2019

   JOB DONE.
Job  /afs/slac/g/suncat/bin/suncat-tsmpirun -x LD_LIBRARY_PATH -wdir /tmp/qe_379272ap1b7nyg_scratch pw.x -npool 3 -in pw.pwi

TID   HOST_NAME   COMMAND_LINE            STATUS            TERMINATION_TIME
00000 suncat1031 pw.x -npool 3 -i  Done                     01/17/2019 01:33:23
00001 suncat1031 pw.x -npool 3 -i  Done                     01/17/2019 01:33:23
00002 suncat1031 pw.x -npool 3 -i  Done                     01/17/2019 01:33:23
00003 suncat1031 pw.x -npool 3 -i  Done                     01/17/2019 01:33:23
00004 suncat1031 pw.x -npool 3 -i  Done                     01/17/2019 01:33:23
00005 suncat1031 pw.x -npool 3 -i  Done                     01/17/2019 01:33:23
00006 suncat1031 pw.x -npool 3 -i  Done                     01/17/2019 01:33:23
00007 suncat1031 pw.x -npool 3 -i  Done                     01/17/2019 01:33:23
00008 suncat1031 pw.x -npool 3 -i  Done                     01/17/2019 01:33:23
00009 suncat1031 pw.x -npool 3 -i  Done                     01/17/2019 01:33:23
00010 suncat1031 pw.x -npool 3 -i  Done                     01/17/2019 01:33:23
00011 suncat1031 pw.x -npool 3 -i  Done                     01/17/2019 01:33:23
00012 suncat1024 pw.x -npool 3 -i  Done                     01/17/2019 01:33:23
00013 suncat1024 pw.x -npool 3 -i  Done                     01/17/2019 01:33:23
00014 suncat1024 pw.x -npool 3 -i  Done                     01/17/2019 01:33:23
00015 suncat1024 pw.x -npool 3 -i  Done                     01/17/2019 01:33:23
00016 suncat1024 pw.x -npool 3 -i  Done                     01/17/2019 01:33:23
00017 suncat1024 pw.x -npool 3 -i  Done                     01/17/2019 01:33:23
00018 suncat1024 pw.x -npool 3 -i  Done                     01/17/2019 01:33:23
00019 suncat1024 pw.x -npool 3 -i  Done                     01/17/2019 01:33:23
00020 suncat1024 pw.x -npool 3 -i  Done                     01/17/2019 01:33:23
00021 suncat1024 pw.x -npool 3 -i  Done                     01/17/2019 01:33:23
00022 suncat1024 pw.x -npool 3 -i  Done                     01/17/2019 01:33:23
00023 suncat1024 pw.x -npool 3 -i  Done                     01/17/2019 01:33:23
00024 suncat1012 pw.x -npool 3 -i  Done                     01/17/2019 01:33:23
00025 suncat1012 pw.x -npool 3 -i  Done                     01/17/2019 01:33:23
00026 suncat1012 pw.x -npool 3 -i  Done                     01/17/2019 01:33:23
00027 suncat1012 pw.x -npool 3 -i  Done                     01/17/2019 01:33:23
00028 suncat1012 pw.x -npool 3 -i  Done                     01/17/2019 01:33:23
00029 suncat1012 pw.x -npool 3 -i  Done                     01/17/2019 01:33:23
00030 suncat1012 pw.x -npool 3 -i  Done                     01/17/2019 01:33:23
00031 suncat1012 pw.x -npool 3 -i  Done                     01/17/2019 01:33:23
00032 suncat1012 pw.x -npool 3 -i  Done                     01/17/2019 01:33:23
00033 suncat1012 pw.x -npool 3 -i  Done                     01/17/2019 01:33:23
00034 suncat1012 pw.x -npool 3 -i  Done                     01/17/2019 01:33:23
00035 suncat1012 pw.x -npool 3 -i  Done                     01/17/2019 01:33:23