     Program PWSCF v.5.1rc2 (svn rev. ) starts on  4Feb2018 at 11:48:42

     Current dimensions of program PWSCF are:
     Max number of different atomic species (ntypx) = 10
     Max number of k-points (npk) =  40000
     Max angular momentum in pseudopotentials (lmaxx) =  3
     Presently stress not available with electric field

     IMPORTANT: XC functional enforced from input :
     Exchange-correlation      = BEEF-VDW ( 1  4 27 13 2)
     Any further DFT definition will be discarded
     Please, verify this is what you really want

     Subspace diagonalization in iterative solution of the eigenvalue problem:
     a serial algorithm will be used

     bravais-lattice index     =            0
     lattice parameter (alat)  =       1.8897  a.u.
     unit-cell volume          =    8507.0471 (a.u.)^3
     number of atoms/cell      =           13
     number of atomic types    =            2
     number of electrons       =       138.00
     number of Kohn-Sham states=           79
     kinetic-energy cutoff     =      36.7493  Ry
     charge density cutoff     =     367.4932  Ry
     convergence threshold     =      1.0E-05
     mixing beta               =       0.3000
     number of iterations used =           10  plain     mixing
     Exchange-correlation      = BEEF-VDW ( 1  4 27 13 2)
     nstep                     =           50

     celldm(1)=   1.889726  celldm(2)=   0.000000  celldm(3)=   0.000000
     celldm(4)=   0.000000  celldm(5)=   0.000000  celldm(6)=   0.000000

     crystal axes: (cart. coord. in units of alat)
               a(1) = (   7.468327   0.000000   0.000000 )
               a(2) = (   3.734164   6.467761   0.000000 )
               a(3) = (   0.000000   0.000000  26.097863 )

     reciprocal axes: (cart. coord. in units 2 pi/alat)
               b(1) = (  0.133899 -0.077307  0.000000 )
               b(2) = (  0.000000  0.154613  0.000000 )
               b(3) = (  0.000000  0.000000  0.038317 )

     PseudoPot. # 1 for La read from file:
     /home/mamunm/src/pseudo/gbrv1.5pbe/La.UPF
     MD5 check sum: 5937b0c7494ba0601a847275249473aa
     Pseudo is Ultrasoft + core correction, Zval = 11.0
     Generated by new atomic code, or converted to UPF format
     Using radial grid of  995 points,  8 beta functions with:
                l(1) =   0
                l(2) =   0
                l(3) =   1
                l(4) =   1
                l(5) =   2
                l(6) =   2
                l(7) =   3
                l(8) =   3
     Q(r) pseudized with  8 coefficients,  rinner =    1.700   1.700   1.700
                                                       1.700   1.700   1.700
                                                       1.700

     PseudoPot. # 2 for O  read from file:
     /home/mamunm/src/pseudo/gbrv1.5pbe/O.UPF
     MD5 check sum: 734c27235a0248c51dbae37a1fbe46ec
     Pseudo is Ultrasoft + core correction, Zval =  6.0
     Generated by new atomic code, or converted to UPF format
     Using radial grid of  737 points,  5 beta functions with:
                l(1) =   0
                l(2) =   0
                l(3) =   1
                l(4) =   1
                l(5) =   2
     Q(r) pseudized with  8 coefficients,  rinner =    0.900   0.900   0.900
                                                       0.900   0.900

     vdW kernel table read from file vdW_kernel_table
     MD5 check sum: 095c7af220d748ca6e76c0b4c6cfb241

     atomic species   valence    mass     pseudopotential
        La1           11.00   138.90547     La( 1.00)
        O1             6.00    15.99900     O ( 1.00)

     No symmetry found

   Cartesian axes

     site n.     atom                  positions (alat units)
         1           La1 tau(   1) = (   1.8670818   1.0779602  10.0000000  )
         2           La1 tau(   2) = (   5.6012453   1.0779602  10.0000000  )
         3           La1 tau(   3) = (   3.7341635   4.3118406  10.0000000  )
         4           La1 tau(   4) = (   7.4683270   4.3118406  10.0000000  )
         5           La1 tau(   5) = (   7.4683270   2.1559203  13.0489317  )
         6           La1 tau(   6) = (   3.7341635   2.1559203  13.0489317  )
         7           La1 tau(   7) = (   9.3354088   5.3898008  13.0489317  )
         8           La1 tau(   8) = (   5.6012453   5.3898008  13.0489317  )
         9           La1 tau(   9) = (   0.0000000   0.0000000  16.0978635  )
        10           La1 tau(  10) = (   3.7341635   0.0000000  16.0978635  )
        11           La1 tau(  11) = (   1.8670818   3.2338805  16.0978635  )
        12           La1 tau(  12) = (   5.6012453   3.2338805  16.0978635  )
        13           O1  tau(  13) = (   1.8670818   1.0779602  17.8723635  )

     number of k points=    20  Fermi-Dirac smearing, width (Ry)=  0.0110
                       cart. coord. in units 2pi/alat
        k(    1) = (   0.0000000   0.0000000   0.0000000), wk =   0.0555556
        k(    2) = (   0.0000000   0.0257688   0.0000000), wk =   0.1111111
        k(    3) = (   0.0000000   0.0515377   0.0000000), wk =   0.1111111
        k(    4) = (   0.0000000  -0.0773065   0.0000000), wk =   0.0555556
        k(    5) = (   0.0223165  -0.0128844   0.0000000), wk =   0.1111111
        k(    6) = (   0.0223165   0.0128844   0.0000000), wk =   0.1111111
        k(    7) = (   0.0223165   0.0386533   0.0000000), wk =   0.1111111
        k(    8) = (   0.0223165  -0.0901909   0.0000000), wk =   0.1111111
        k(    9) = (   0.0223165  -0.0644221   0.0000000), wk =   0.1111111
        k(   10) = (   0.0223165  -0.0386533   0.0000000), wk =   0.1111111
        k(   11) = (   0.0446329  -0.0257688   0.0000000), wk =   0.1111111
        k(   12) = (   0.0446329   0.0000000   0.0000000), wk =   0.1111111
        k(   13) = (   0.0446329   0.0257688   0.0000000), wk =   0.1111111
        k(   14) = (   0.0446329  -0.1030753   0.0000000), wk =   0.1111111
        k(   15) = (   0.0446329  -0.0773065   0.0000000), wk =   0.1111111
        k(   16) = (   0.0446329  -0.0515377   0.0000000), wk =   0.1111111
        k(   17) = (  -0.0669494   0.0386533   0.0000000), wk =   0.0555556
        k(   18) = (  -0.0669494   0.0644221   0.0000000), wk =   0.1111111
        k(   19) = (  -0.0669494   0.0901909   0.0000000), wk =   0.1111111
        k(   20) = (  -0.0669494  -0.0386533   0.0000000), wk =   0.0555556

     Largest allocated arrays     est. size (Mb)     dimensions
     Largest temporary arrays     est. size (Mb)     dimensions

     Initial potential from superposition of free atoms
     Check: negative starting charge=   -0.831355

     starting charge  137.61518, renormalised to  138.00000

     negative rho (up, down):  8.337E-01 0.000E+00

     *
     * You are using vdW-DF for exchange-correlation in this calculation.
     * Please cite the following three references that made this development
     * possible:
     *
     *   M. Dion, H. Rydberg, E. Schroder, D. C. Langreth, and
     *   B. I. Lundqvist, Phys. Rev. Lett. 92, 246401 (2004).
     *
     *   T. Thonhauser, V. R. Cooper, S. Li, A. Puzder, P. Hyldgaard, and
     *   D. C. Langreth, Phys. Rev. B 76, 125112 (2007).
     *
     *   G. Roman-Perez and J. M. Soler, Phys. Rev. Lett. 103, 096102 (2009).
     *
     *
     * If you are using vdW-DF2, please also cite:
     *
     *   K. Lee, E. D. Murray, L. Kong, B. I. Lundqvist, and
     *   D. C. Langreth, Phys. Rev. B 82, 081101(R) (2010).
     *
     *
     * If you are calculating the stress with vdW-DF, please also cite:
     *
     *   R. Sabatini, E. Kucukbenli, B. Kolb, T. Thonhauser, and
     *   S. de Gironcoli, J. Phys.: Condens. Matter 24, 424209 (2012).
     *

     Carrying out vdW-DF run using the following parameters:

     Nqs =      20    Nr_points =    1024   r_max =   100.000
     q_mesh =
               0.00001000     0.04494208     0.09755937     0.15916263
               0.23128650     0.31572767     0.41458969     0.53033537
               0.66584808     0.82450364     1.01025438     1.22772762
               1.48234092     1.78043706     2.12944203     2.53805004
               3.01644009     3.57652955     4.23227104     5.00000000

     Gradients computed in reciprocal space

     Adding external electric field

     Computed dipole along edir(3) :
        Dipole               -0.1529 Ry au,         -0.3887 Debye
        Dipole field         -0.0002 Ry au

        Potential amp.        0.0217 Ry
        Total length         48.0849 bohr

     Starting wfc are  244 randomized atomic wfcs

     Self-consistent Calculation

     iteration #  1     ecut=    36.75 Ry     beta=0.30
     Davidson diagonalization with overlap
     ethr =  1.00E-02,  avg # of iterations =  2.0

[...]

     total energy              =   -1278.20397168 Ry
     Harris-Foulkes estimate   =   -1281.71121950 Ry
     estimated scf accuracy    <       7.40482580 Ry

[...]

     iteration # 14     ecut=    36.75 Ry     beta=0.30
     Davidson diagonalization with overlap
     c_bands:  3 eigenvalues not converged
     c_bands:  1 eigenvalues not converged
     c_bands:  1 eigenvalues not converged
     c_bands:  1 eigenvalues not converged
     c_bands:  1 eigenvalues not converged
     c_bands:  1 eigenvalues not converged
     c_bands:  1 eigenvalues not converged
     c_bands:  1 eigenvalues not converged
     ethr =  4.54E-07,  avg # of iterations = 18.4

[...]

     End of self-consistent calculation

          k = 0.0000 0.0000 0.0000 ( 31997 PWs)   bands (ev):

   -31.8099 -31.7819 -31.6505 -31.6502 -31.6500 -31.6470 -31.5701 -31.5700
   -31.3161 -31.2035 -31.1891 -31.1891 -15.9480 -15.8898 -15.8897 -15.8471
   -15.8214 -15.8213 -15.7422 -15.6512 -15.6169 -15.6168 -15.4735 -15.3296
   -15.2364 -15.2362 -15.1169 -15.0775 -15.0775 -15.0405 -15.0405 -15.0400
   -14.9989 -14.9988 -14.9849 -14.7872 -14.7872 -14.7562 -14.7380 -14.7379
   -14.6871 -14.6871 -14.6840 -14.5942 -14.5942 -14.5890 -14.3657 -14.3657
   -13.9135  -1.2177  -0.6390  -0.4322  -0.4322  -0.3560  -0.0940  -0.0406
     0.0543   0.0543   0.2181   0.2181   0.3092   0.4731   0.4731   0.5165
     0.6471   0.6471   0.9135   1.3853   1.3853   1.7639   1.8118   2.1061
     2.2150   2.2151   2.3898   2.4786   2.7095   2.7711   2.7961

[...]

          k =-0.0669 0.0387 0.0000 ( 31970 PWs)   bands (ev):

[...]

     the Fermi energy is     1.5717 ev

!    total energy              =   -1280.83862010 Ry
     Harris-Foulkes estimate   =   -1280.83858010 Ry
     estimated scf accuracy    <       0.00000584 Ry

     The total energy is the sum of the following terms:

     one-electron contribution =   -4829.80158651 Ry
     hartree contribution      =    2428.50512655 Ry
     xc contribution           =    -616.02727859 Ry
     ewald contribution        =    1736.60473474 Ry
     electric field correction =       0.00043651 Ry
     smearing contrib. (-TS)   =      -0.12005281 Ry

     convergence has been achieved in  20 iterations

 BEEF-vdW xc energy contributions
           1 :   -545.657370773417
           2 :    501.704604814210
           3 :   -424.067436474281
           4 :    329.406404266351
           5 :   -235.321234882851
           6 :    155.668389062154
           7 :   -97.9888699263043
           8 :    63.2405716931778
           9 :   -47.3054730791496
          10 :    43.3961153805648
          11 :   -44.4658474464134
          12 :    44.9341589087090
          13 :   -41.4733856671380
          14 :    33.0263308026690
          15 :   -20.4177042230134
          16 :    5.80511607789845
          17 :    7.97687699637436
          18 :   -18.1879198601152
          19 :    22.9704730414226
          20 :   -21.9461438347043
          21 :    16.3818217344819
          22 :   -8.79564736983548
          23 :    2.08218825268341
          24 :    1.52463791012826
          25 :   -1.22133051638468
          26 :   -2.19815001214010
          27 :    6.83504670328944
          28 :   -10.5887081747483
          29 :    12.0434811086925
          30 :   -10.9578771681840
          31 :   -46.4732800661618
          32 :   -33.3030269978568

     Forces acting on atoms (Ry/au):

     negative rho (up, down):  5.843E-01 0.000E+00
     atom    1 type  1   force =    -0.00000423    0.00001091    0.00303316
     atom    2 type  1   force =     0.00000644   -0.00265946    0.00457020
     atom    3 type  1   force =    -0.00229340    0.00132618    0.00455937
     atom    4 type  1   force =     0.00229366    0.00132812    0.00455551
     atom    5 type  1   force =    -0.00344202    0.00197917   -0.00259377
     atom    6 type  1   force =     0.00344070    0.00199031   -0.00258300
     atom    7 type  1   force =     0.00001627    0.00000687   -0.00787604
     atom    8 type  1   force =    -0.00001127   -0.00397400   -0.00257008
     atom    9 type  1   force =     0.04733097    0.02732311    0.04565650
     atom   10 type  1   force =    -0.04733537    0.02733027    0.04566325
     atom   11 type  1   force =    -0.00000695   -0.05466688    0.04566575
     atom   12 type  1   force =     0.00000095    0.00000603   -0.00386225
     atom   13 type  2   force =     0.00000424   -0.00000063   -0.13421860

     Total force =     0.182339     Total SCF correction =     0.003535

     entering subroutine stress ...

     negative rho (up, down):  5.843E-01 0.000E+00
          total   stress  (Ry/bohr**3)                   (kbar)     P=   -5.71
  -0.00002550  -0.00000000   0.00000000         -3.75     -0.00      0.00
  -0.00000000  -0.00002550   0.00000000         -0.00     -3.75      0.00
   0.00000000   0.00000000  -0.00006543          0.00      0.00     -9.62

     BFGS Geometry Optimization

     number of scf cycles    =   1
     number of bfgs steps    =   0

     energy   new            =   -1280.8386201015 Ry

     new trust radius        =       0.1342186018 bohr
     new conv_thr            =       0.0000099958 Ry

ATOMIC_POSITIONS (crystal)
La1      0.166666667   0.166666667   0.383173129    0   0   0
La1      0.666666667   0.166666667   0.383173129    0   0   0
La1      0.166666667   0.666666667   0.383173129    0   0   0
La1      0.666666667   0.666666667   0.383173129    0   0   0
La1      0.833333333   0.333333333   0.500000000    0   0   0
La1      0.333333333   0.333333333   0.500000000    0   0   0
La1      0.833333333   0.833333333   0.500000000    0   0   0
La1      0.333333333   0.833333333   0.500000000    0   0   0
La1      0.002235936   0.002235513   0.617752632
La1      0.495527946   0.002236099   0.617752769
La1      0.002235866   0.495527282   0.617752819
La1      0.499999821   0.500000493   0.616748558
O1       0.166666993   0.166666616   0.682099439

     Writing output data file calc.save
     Check: negative starting charge=   -0.831355
     NEW-OLD atomic charge density approx. for the potential
     Check: negative starting charge=   -0.832654

[...]

     energy   old            =   -1280.8386201015 Ry
     energy   new            =   -1280.8711500319 Ry

     CASE: energy  _new < energy  _old

     WARNING: bfgs curvature condition failed, Theta= 0.840
     new trust radius        =       0.2013279026 bohr
     new conv_thr            =       0.0000001000 Ry

[...]

     WARNING: bfgs curvature condition failed, Theta= 0.922
     new trust radius        =       0.0452229922 bohr
     new conv_thr            =       0.0000001000 Ry

[...]

     iteration #  1     ecut=    36.75 Ry     beta=0.30
     Davidson diagonalization with overlap
     c_bands:  1 eigenvalues not converged
     c_bands:  1 eigenvalues not converged
     c_bands:  1 eigenvalues not converged
     c_bands:  1 eigenvalues not converged
     c_bands:  1 eigenvalues not converged
     c_bands:  1 eigenvalues not converged
     ethr =  1.00E-06,  avg # of iterations = 14.7

[...]

     Total force =     0.004146     Total SCF correction =     0.000154

[...]

     number of scf cycles    =  16
     number of bfgs steps    =  15

     energy   old            =   -1280.9912933359 Ry
     energy   new            =   -1280.9914527169 Ry

     CASE: energy  _new < energy  _old

     new trust radius        =       0.0147378309 bohr
     new conv_thr            =       0.0000001000 Ry

ATOMIC_POSITIONS (crystal)
La1      0.166666667   0.166666667   0.383173129    0   0   0
La1      0.666666667   0.166666667   0.383173129    0   0   0
La1      0.166666667   0.666666667   0.383173129    0   0   0
La1      0.666666667   0.666666667   0.383173129    0   0   0
La1      0.833333333   0.333333333   0.500000000    0   0   0
La1      0.333333333   0.333333333   0.500000000    0   0   0
La1      0.833333333   0.833333333   0.500000000    0   0   0
La1      0.333333333   0.833333333   0.500000000    0   0   0
La1      0.004759814   0.004760587   0.623611382
La1      0.490478864   0.004761130   0.623612023
La1      0.004761603   0.490477531   0.623612146
La1      0.500000133   0.499999011   0.609579350
O1       0.166666537   0.166666867   0.657624687

     Writing output data file calc.save
     Check: negative starting charge=   -0.833838
     NEW-OLD atomic charge density approx. for the potential
     Check: negative starting charge=   -0.833808

[...]

     Self-consistent Calculation

[...]

     total energy              =   -1280.99150885 Ry
     Harris-Foulkes estimate   =   -1280.99150893 Ry
     estimated scf accuracy    <       0.00000031 Ry

     iteration # 10     ecut=    36.75 Ry     beta=0.30
     Davidson diagonalization with overlap
     ethr =  2.25E-10,  avg # of iterations =  6.0

[...]

     negative rho (up, down):  5.846E-01 0.000E+00

     Adding external electric field

     Computed dipole along edir(3) :
        Dipole               -0.0279 Ry au,         -0.0708 Debye
        Dipole field         -0.0000 Ry au

        Potential amp.        0.0040 Ry
        Total length         48.0849 bohr

     End of self-consistent calculation

[...]

          k = 0.0446-0.0515 0.0000 ( 31991 PWs)   bands (ev):

[...]

          k =-0.0669-0.0387 0.0000 ( 31970 PWs)   bands (ev):

   -31.3662 -31.3654 -31.3468 -31.2993 -31.2983 -31.2864 -31.2409 -31.2153
   -30.9899 -30.9149 -30.8759 -30.8554 -18.3282 -15.3329 -15.3261 -15.2471
   -15.2433 -15.2373 -15.2111 -15.1509 -15.1386 -15.0703 -15.0615 -15.0036
   -14.9845 -14.9828 -14.9653 -14.9293 -14.9151 -14.8806 -14.8718 -14.8413
   -14.7195 -14.6450 -14.5986 -14.5832 -14.5674 -14.5632 -14.5341 -14.5164
   -14.4760 -14.4419 -14.4149 -14.3204 -14.3160 -14.2698 -14.1847 -14.1395
   -13.1897  -2.7118  -2.4973  -2.4137   0.3217   0.3737   0.7631   0.8734
     1.0799   1.1178   1.1642   1.2077   1.2219   1.3651   1.5288   1.6070
     1.7278   1.7558   1.7766   1.8615   1.9878   2.0754   2.0892   2.1224
     2.1689   2.1760   2.2695   2.3995   2.4538   2.4616   2.5074

     the Fermi energy is     1.9201 ev

!    total energy              =   -1280.99150882 Ry
     Harris-Foulkes estimate   =   -1280.99150898 Ry
     estimated scf accuracy    <       0.00000007 Ry

     The total energy is the sum of the following terms:

     one-electron contribution =   -4874.26185701 Ry
     hartree contribution      =    2451.71411657 Ry
     xc contribution           =    -616.29189995 Ry
     ewald contribution        =    1757.97099426 Ry
     electric field correction =       0.00000115 Ry
     smearing contrib. (-TS)   =      -0.12286384 Ry

     convergence has been achieved in  10 iterations

 BEEF-vdW xc energy contributions
           1 :   -545.939205394648
           2 :    502.087213425555
           3 :   -424.530517327107
           4 :    329.833605741249
           5 :   -235.600425072130
           6 :    155.746912766379
           7 :   -97.8677553224082
           8 :    62.9541089054253
           9 :   -46.9191606779358
          10 :    43.0097949395353
          11 :   -44.1916773744057
          12 :    44.8478945521613
          13 :   -41.5712868581762
          14 :    33.2207535731008
          15 :   -20.5772274393927
          16 :    5.81802784048125
          17 :    8.14659061426232
          18 :   -18.4832121672044
          19 :    23.2774275041993
          20 :   -22.1634269510135
          21 :    16.4770043072796
          22 :   -8.81243505190162
          23 :    2.09912152948539
          24 :    1.45184207542604
          25 :   -1.09415928499459
          26 :   -2.33093004863247
          27 :    6.92034711641747
          28 :   -10.6124935142844
          29 :    12.0435894519055
          30 :   -10.9965888748588
          31 :   -46.4877117982957
          32 :   -33.3369995305859

     Forces acting on atoms (Ry/au):

     negative rho (up, down):  5.846E-01 0.000E+00
     atom    1 type  1   force =    -0.00000010   -0.00000017    0.00184467
     atom    2 type  1   force =     0.00000020   -0.00218105    0.00525935
     atom    3 type  1   force =    -0.00188878    0.00109040    0.00525918
     atom    4 type  1   force =     0.00188866    0.00109064    0.00525933
     atom    5 type  1   force =    -0.00120174    0.00069422   -0.00260526
     atom    6 type  1   force =     0.00120084    0.00069295   -0.00260507
     atom    7 type  1   force =    -0.00000083   -0.00000007   -0.00832143
     atom    8 type  1   force =     0.00000134   -0.00138672   -0.00260469
     atom    9 type  1   force =    -0.00030593   -0.00017768   -0.00113910
     atom   10 type  1   force =     0.00030716   -0.00017936   -0.00113835
     atom   11 type  1   force =    -0.00000065    0.00035827   -0.00113935
     atom   12 type  1   force =     0.00000103    0.00000061    0.00147412
     atom   13 type  2   force =    -0.00000119   -0.00000204    0.00045660

     Total force =     0.002579     Total SCF correction =     0.000371
     SCF correction compared to forces is large: reduce conv_thr to get better values

     entering subroutine stress ...

     negative rho (up, down):  5.846E-01 0.000E+00
          total   stress  (Ry/bohr**3)                   (kbar)     P=    0.47
   0.00001198  -0.00000000  -0.00000000          1.76     -0.00     -0.00
  -0.00000000   0.00001198  -0.00000000         -0.00      1.76     -0.00
  -0.00000000  -0.00000000  -0.00001439         -0.00     -0.00     -2.12

     bfgs converged in  17 scf cycles and  16 bfgs steps
     (criteria: energy <  1.0E+00, force <  1.9E-03)

     End of BFGS Geometry Optimization

     Final energy   =   -1280.9915088237 Ry
Begin final coordinates

ATOMIC_POSITIONS (crystal)
La1      0.166666667   0.166666667   0.383173129    0   0   0
La1      0.666666667   0.166666667   0.383173129    0   0   0
La1      0.166666667   0.666666667   0.383173129    0   0   0
La1      0.666666667   0.666666667   0.383173129    0   0   0
La1      0.833333333   0.333333333   0.500000000    0   0   0
La1      0.333333333   0.333333333   0.500000000    0   0   0
La1      0.833333333   0.833333333   0.500000000    0   0   0
La1      0.333333333   0.833333333   0.500000000    0   0   0
La1      0.004759814   0.004760587   0.623611382
La1      0.490478864   0.004761130   0.623612023
La1      0.004761603   0.490477531   0.623612146
La1      0.500000133   0.499999011   0.609579350
O1       0.166666537   0.166666867   0.657624687
End final coordinates

     Writing output data file calc.save

     General routines

     Parallel routines

   This run was terminated on:  15:26: 9   4Feb2018

   JOB DONE.