     Program PWSCF v.5.1rc2 (svn rev. 11289) starts on  4May2018 at 10: 4:46

     Current dimensions of program PWSCF are:
     Max number of different atomic species (ntypx) = 10
     Max number of k-points (npk) =  40000
     Max angular momentum in pseudopotentials (lmaxx) =  3
     Presently stress not available with electric field

     IMPORTANT: XC functional enforced from input :
     Exchange-correlation      = BEEF-VDW ( 1  4 27 13 2)
     Any further DFT definition will be discarded
     Please, verify this is what you really want

     Subspace diagonalization in iterative solution of the eigenvalue problem:
     a serial algorithm will be used

     bravais-lattice index     =            0
     lattice parameter (alat)  =       1.8897  a.u.
     unit-cell volume          =    5174.6160 (a.u.)^3
     number of atoms/cell      =           13
     number of atomic types    =            2
     number of electrons       =       232.00
     number of Kohn-Sham states=          126
     kinetic-energy cutoff     =      36.7493  Ry
     charge density cutoff     =     367.4932  Ry
     convergence threshold     =      1.0E-05
     mixing beta               =       0.3000
     number of iterations used =           10  plain     mixing
     Exchange-correlation      = BEEF-VDW ( 1  4 27 13 2)
     nstep                     =           50

     celldm(1)=   1.889726  celldm(2)=   0.000000  celldm(3)=   0.000000
     celldm(4)=   0.000000  celldm(5)=   0.000000  celldm(6)=   0.000000

     crystal axes: (cart. coord. in units of alat)
               a(1) = (   5.966546   0.000000   0.000000 )
               a(2) = (   2.983273   5.167181   0.000000 )
               a(3) = (   0.000000   0.000000  24.871665 )

     reciprocal axes: (cart. coord. in units 2 pi/alat)
               b(1) = (  0.167601 -0.096765  0.000000 )
               b(2) = (  0.000000  0.193529  0.000000 )
               b(3) = (  0.000000  0.000000  0.040206 )

     PseudoPot. # 1 for Ag read from file:
     /u/if/mamunm/psp/gbrv1.5pbe/Ag.UPF
     MD5 check sum: d66d668201baa78d5eb5b04ef7011058
     Pseudo is Ultrasoft + core correction, Zval = 19.0
     Generated by new atomic code, or converted to UPF format
     Using radial grid of  887 points,  6 beta functions with:
                l(1) =   0
                l(2) =   0
                l(3) =   1
                l(4) =   1
                l(5) =   2
                l(6) =   2
     Q(r) pseudized with  6 coefficients,  rinner =    1.300   1.300   1.300
                                                       1.300   1.300

     PseudoPot. # 2 for C  read from file:
     /u/if/mamunm/psp/gbrv1.5pbe/C.UPF
     MD5 check sum: d1aef80898a10debaa0f26306b886e00
     Pseudo is Ultrasoft + core correction, Zval =  4.0
     Generated by new atomic code, or converted to UPF format
     Using radial grid of  721 points,  4 beta functions with:
                l(1) =   0
                l(2) =   0
                l(3) =   1
                l(4) =   1
     Q(r) pseudized with  8 coefficients,  rinner =    1.100   1.100   1.100

     vdW kernel table read from file vdW_kernel_table
     MD5 check sum: 095c7af220d748ca6e76c0b4c6cfb241

     atomic species   valence    mass     pseudopotential
        Ag1           19.00   107.86820     Ag( 1.00)
        C1             4.00    12.01100     C ( 1.00)

     No symmetry found

   Cartesian axes

     site n.     atom                  positions (alat units)
         1           Ag1 tau(   1) = (   1.4916366   0.8611968  10.0000000  )
         2           Ag1 tau(   2) = (   4.4749098   0.8611968  10.0000000  )
         3           Ag1 tau(   3) = (   2.9832732   3.4447871  10.0000000  )
         4           Ag1 tau(   4) = (   5.9665464   3.4447871  10.0000000  )
         5           Ag1 tau(   5) = (   5.9665464   1.7223936  12.4358324  )
         6           Ag1 tau(   6) = (   2.9832732   1.7223936  12.4358324  )
         7           Ag1 tau(   7) = (   7.4581830   4.3059839  12.4358324  )
         8           Ag1 tau(   8) = (   4.4749098   4.3059839  12.4358324  )
         9           Ag1 tau(   9) = (   0.0000000   0.0000000  14.8716647  )
        10           Ag1 tau(  10) = (   2.9832732   0.0000000  14.8716647  )
        11           Ag1 tau(  11) = (   1.4916366   2.5835904  14.8716647  )
        12           Ag1 tau(  12) = (   4.4749098   2.5835904  14.8716647  )
        13           C1  tau(  13) = (   0.0000000   0.0000000  16.7501647  )

     number of k points=    20  Fermi-Dirac smearing, width (Ry)=  0.0110
                       cart. coord. in units 2pi/alat
        k(    1) = (   0.0000000   0.0000000   0.0000000), wk =   0.0555556
        k(    2) = (   0.0000000   0.0322549   0.0000000), wk =   0.1111111
        k(    3) = (   0.0000000   0.0645097   0.0000000), wk =   0.1111111
        k(    4) = (   0.0000000  -0.0967646   0.0000000), wk =   0.0555556
        k(    5) = (   0.0279335  -0.0161274   0.0000000), wk =   0.1111111
        k(    6) = (   0.0279335   0.0161274   0.0000000), wk =   0.1111111
        k(    7) = (   0.0279335   0.0483823   0.0000000), wk =   0.1111111
        k(    8) = (   0.0279335  -0.1128920   0.0000000), wk =   0.1111111
        k(    9) = (   0.0279335  -0.0806371   0.0000000), wk =   0.1111111
        k(   10) = (   0.0279335  -0.0483823   0.0000000), wk =   0.1111111
        k(   11) = (   0.0558670  -0.0322549   0.0000000), wk =   0.1111111
        k(   12) = (   0.0558670   0.0000000   0.0000000), wk =   0.1111111
        k(   13) = (   0.0558670   0.0322549   0.0000000), wk =   0.1111111
        k(   14) = (   0.0558670  -0.1290194   0.0000000), wk =   0.1111111
        k(   15) = (   0.0558670  -0.0967646   0.0000000), wk =   0.1111111
        k(   16) = (   0.0558670  -0.0645097   0.0000000), wk =   0.1111111
        k(   17) = (  -0.0838006   0.0483823   0.0000000), wk =   0.0555556
        k(   18) = (  -0.0838006   0.0806371   0.0000000), wk =   0.1111111
        k(   19) = (  -0.0838006   0.1128920   0.0000000), wk =   0.1111111
        k(   20) = (  -0.0838006  -0.0483823   0.0000000), wk =   0.0555556

     Largest allocated arrays     est. size (Mb)     dimensions
     Largest temporary arrays     est. size (Mb)     dimensions

     Initial potential from superposition of free atoms
     Check: negative starting charge=   -0.002068

     starting charge  225.99939, renormalised to  232.00000

     negative rho (up, down):  2.123E-03 0.000E+00

     *
     * You are using vdW-DF for exchange-correlation in this calculation.
     * Please cite the following three references that made this development
     * possible:
     *
     *   M. Dion, H. Rydberg, E. Schroder, D. C. Langreth, and
     *   B. I. Lundqvist, Phys. Rev. Lett. 92, 246401 (2004).
     *
     *   T. Thonhauser, V. R. Cooper, S. Li, A. Puzder, P. Hyldgaard, and
     *   D. C. Langreth, Phys. Rev. B 76, 125112 (2007).
     *
     *   G. Roman-Perez and J. M. Soler, Phys. Rev. Lett. 103, 096102 (2009).
     *
     *
     * If you are using vdW-DF2, please also cite:
     *
     *   K. Lee, E. D. Murray, L. Kong, B. I. Lundqvist, and
     *   D. C. Langreth, Phys. Rev. B 82, 081101(R) (2010).
     *
     *
     * If you are calculating the stress with vdW-DF, please also cite:
     *
     *   R. Sabatini, E. Kucukbenli, B. Kolb, T. Thonhauser, and
     *   S. de Gironcoli, J. Phys.: Condens. Matter 24, 424209 (2012).
     *

     Carrying out vdW-DF run using the following parameters:

     Nqs =      20    Nr_points =    1024   r_max =   100.000
     q_mesh =
               0.00001000     0.04494208     0.09755937     0.15916263
               0.23128650     0.31572767     0.41458969     0.53033537
               0.66584808     0.82450364     1.01025438     1.22772762
               1.48234092     1.78043706     2.12944203     2.53805004
               3.01644009     3.57652955     4.23227104     5.00000000

     Gradients computed in reciprocal space

     Adding external electric field

     Computed dipole along edir(3) :
        Dipole               -0.8656 Ry au,         -2.2000 Debye
        Dipole field         -0.0021 Ry au

        Potential amp.        0.1926 Ry
        Total length         45.8256 bohr

     Starting wfc are  160 randomized atomic wfcs

     Self-consistent Calculation

     iteration #  1     ecut=    36.75 Ry     beta=0.30
     Davidson diagonalization with overlap
     ethr =  1.00E-02,  avg # of iterations =  5.8

[...]

     total energy              =   -3564.08155771 Ry
     Harris-Foulkes estimate   =   -3574.60201082 Ry
     estimated scf accuracy    <      22.86957721 Ry

[...]

     End of self-consistent calculation

          k = 0.0000 0.0000 0.0000 ( 19435 PWs)   bands (ev):

   -92.2984 -91.1391 -91.1334 -91.1334 -91.1142 -90.9339 -90.9278 -90.9252
   -90.9252 -90.8458 -90.8406 -90.8406 -56.0651 -55.6103 -55.6103 -54.6781
   -54.6688 -54.6688 -54.6358 -54.6269 -54.6269 -54.6142 -54.6127 -54.6086
   -54.6086 -54.5849 -54.5849 -54.4764 -54.4764 -54.4752 -54.4167 -54.4167
   -54.4161 -54.4110 -54.4100 -54.4019 -54.3980 -54.3980 -54.3960 -54.3960
   -54.3629 -54.3629 -54.3246 -54.3245 -54.3245 -54.3187 -54.3187 -54.3150
    -9.2205  -5.5617  -5.0976  -5.0970  -5.0970  -4.9378  -4.9378  -4.8590
    -4.7930  -4.7930  -4.7656  -4.7128  -4.6135  -4.5705  -4.5705  -4.4687
    -4.3735  -4.3735  -3.8912  -3.8349  -3.8325  -3.8325  -3.7166  -3.6959
    -3.6959  -3.6292  -3.6292  -3.5314  -3.5314  -3.4750  -3.4637  -3.4637
    -3.2391  -3.1487  -3.1487  -2.9116  -2.9116  -2.8598  -2.8598  -2.8389
    -2.7879  -2.6878  -2.6878  -2.6239  -2.5772  -2.5771  -2.4213  -2.4213
    -2.4168  -2.3461  -2.3332  -2.3332  -2.2919  -2.2919  -2.2238  -2.2238
    -2.2124  -2.1736  -2.1736  -2.0306  -2.0300  -2.0300  -1.9553  -0.2283
     0.5154   0.5154   1.2124   1.4073   1.5944   1.5944   2.1681   2.2905
     2.3728   2.3728   2.5909   3.2323   3.2323   4.6247

[...]

          k =-0.0838 0.0484 0.0000 ( 19500 PWs)   bands (ev):

[...]

     the Fermi energy is     0.9046 ev

!    total energy              =   -3570.98100029 Ry
     Harris-Foulkes estimate   =   -3570.98098424 Ry
     estimated scf accuracy    <       0.00000163 Ry

     The total energy is the sum of the following terms:

     one-electron contribution =  -25964.69559416 Ry
     hartree contribution      =   12971.47262385 Ry
     xc contribution           =    -364.23403104 Ry
     ewald contribution        =    9786.50320760 Ry
     electric field correction =       0.00036075 Ry
     smearing contrib. (-TS)   =      -0.02756729 Ry

     convergence has been achieved in  13 iterations

 BEEF-vdW xc energy contributions
           1 :   -315.549629880159
           2 :    285.650413146541
           3 :   -235.803367537275
           4 :    181.080396587127
           5 :   -135.140738284275
           6 :    105.316652229509
           7 :   -91.2670397005930
           8 :    87.1703343562286
           9 :   -85.7924227350594
          10 :    82.1265094734263
          11 :   -74.9498206443626
          12 :    66.0176714053958
          13 :   -57.9350998852090
          14 :    52.2387680886814
          15 :   -48.7436150617958
          16 :    46.1845250175306
          17 :   -43.3888427777683
          18 :    40.0629271788821
          19 :   -36.7477619290405
          20 :    34.1584569692493
          21 :   -32.5168834319533
          22 :    31.3743305909488
          23 :   -29.9903092310236
          24 :    27.9202609157745
          25 :   -25.3582485892982
          26 :    22.9954250189800
          27 :   -21.5206576858618
          28 :    21.1349610912456
          29 :   -21.4234461908634
          30 :    21.6538171406343
          31 :   -31.5594991498310
          32 :   -22.9527374777424

     Forces acting on atoms (Ry/au):

     negative rho (up, down):  2.072E-03 0.000E+00
     atom    1 type  1   force =    -0.00041775   -0.00024118   -0.00034776
     atom    2 type  1   force =     0.00041839   -0.00024187   -0.00034769
     atom    3 type  1   force =    -0.00000020    0.00048232   -0.00034894
     atom    4 type  1   force =     0.00000023    0.00000021   -0.00006294
     atom    5 type  1   force =     0.00000026   -0.00064675   -0.00058968
     atom    6 type  1   force =    -0.00000084    0.00000129   -0.00036124
     atom    7 type  1   force =     0.00056068    0.00032236   -0.00058935
     atom    8 type  1   force =    -0.00056128    0.00032347   -0.00059008
     atom    9 type  1   force =    -0.00000088   -0.00000127   -0.04750034
     atom   10 type  1   force =     0.00000082   -0.00057384    0.00491362
     atom   11 type  1   force =    -0.00049583    0.00028799    0.00491081
     atom   12 type  1   force =     0.00049599    0.00028735    0.00491224
     atom   13 type  2   force =     0.00000041   -0.00000006    0.03600133

     Total force =     0.060214     Total SCF correction =     0.006353
     SCF correction compared to forces is large: reduce conv_thr to get better values

     entering subroutine stress ...

     negative rho (up, down):  2.072E-03 0.000E+00
          total   stress  (Ry/bohr**3)                   (kbar)     P=   -7.04
  -0.00007272  -0.00000000  -0.00000000        -10.70     -0.00     -0.00
  -0.00000000  -0.00007272  -0.00000000         -0.00    -10.70     -0.00
  -0.00000000  -0.00000000   0.00000189         -0.00     -0.00      0.28

     BFGS Geometry Optimization

     number of scf cycles    =   1
     number of bfgs steps    =   0

     energy   new            =   -3570.9810002909 Ry

     new trust radius        =       0.0475003370 bohr
     new conv_thr            =       0.0000099958 Ry

ATOMIC_POSITIONS (crystal)
Ag1      0.166666667   0.166666667   0.402063960    0   0   0
Ag1      0.666666667   0.166666667   0.402063960    0   0   0
Ag1      0.166666667   0.666666667   0.402063960    0   0   0
Ag1      0.666666667   0.666666667   0.402063960    0   0   0
Ag1      0.833333333   0.333333333   0.500000000    0   0   0
Ag1      0.333333333   0.333333333   0.500000000    0   0   0
Ag1      0.833333333   0.833333333   0.500000000    0   0   0
Ag1      0.333333333   0.833333333   0.500000000    0   0   0
Ag1     -0.000000013  -0.000000131   0.596925408
Ag1      0.500029456  -0.000058768   0.598040584
Ag1     -0.000058723   0.500029494   0.598040524
Ag1      0.500029276   0.500029427   0.598040554
C1       0.000000040  -0.000000006   0.674229730

     Writing output data file calc.save
     Check: negative starting charge=   -0.002068
     NEW-OLD atomic charge density approx. for the potential
     Check: negative starting charge=   -0.002067

[...]

     energy   old            =   -3570.9810002909 Ry
     energy   new            =   -3570.9834587836 Ry

     CASE: energy  _new < energy  _old

[...]

     Total force =     0.011092     Total SCF correction =     0.000536

[...]

     Threshold (ethr) on eigenvalues was too large:
     Diagonalizing with lowered threshold

     Davidson diagonalization with overlap
     ethr =  4.77E-08,  avg # of iterations =  1.0

[...]

     Total force =     0.008132     Total SCF correction =     0.000483

[...]

     number of scf cycles    =   9
     number of bfgs steps    =   8

     energy   old            =   -3570.9859385474 Ry
     energy   new            =   -3570.9860007037 Ry

     CASE: energy  _new < energy  _old

     new trust radius        =       0.0091257544 bohr
     new conv_thr            =       0.0000001000 Ry

ATOMIC_POSITIONS (crystal)
Ag1      0.166666667   0.166666667   0.402063960    0   0   0
Ag1      0.666666667   0.166666667   0.402063960    0   0   0
Ag1      0.166666667   0.666666667   0.402063960    0   0   0
Ag1      0.666666667   0.666666667   0.402063960    0   0   0
Ag1      0.833333333   0.333333333   0.500000000    0   0   0
Ag1      0.333333333   0.333333333   0.500000000    0   0   0
Ag1      0.833333333   0.833333333   0.500000000    0   0   0
Ag1      0.333333333   0.833333333   0.500000000    0   0   0
Ag1     -0.000000031  -0.000000030   0.592491725
Ag1      0.500335020  -0.000669973   0.601561951
Ag1     -0.000669964   0.500335076   0.601561892
Ag1      0.500334936   0.500335046   0.601561947
C1       0.000000131  -0.000000117   0.671003001

     Writing output data file calc.save
     Check: negative starting charge=   -0.002087
     NEW-OLD atomic charge density approx. for the potential
     Check: negative starting charge=   -0.002089

[...]

     Self-consistent Calculation

[...]

     Threshold (ethr) on eigenvalues was too large:
     Diagonalizing with lowered threshold

     Davidson diagonalization with overlap
     ethr =  3.58E-08,  avg # of iterations =  1.0

[...]

     total energy              =   -3570.98600847 Ry
     Harris-Foulkes estimate   =   -3570.98600803 Ry
     estimated scf accuracy    <       0.00000181 Ry

     iteration #  6     ecut=    36.75 Ry     beta=0.30
     Davidson diagonalization with overlap
     ethr =  6.35E-10,  avg # of iterations =  2.0

[...]

     negative rho (up, down):  2.070E-03 0.000E+00

     Adding external electric field

     Computed dipole along edir(3) :
        Dipole               -0.3613 Ry au,         -0.9184 Debye
        Dipole field         -0.0009 Ry au

        Potential amp.        0.0804 Ry
        Total length         45.8256 bohr

     End of self-consistent calculation

[...]

          k = 0.0559-0.0645 0.0000 ( 19479 PWs)   bands (ev):

[...]

          k =-0.0838-0.0484 0.0000 ( 19500 PWs)   bands (ev):

   -92.0547 -91.1283 -91.1267 -91.1248 -91.0857 -90.9296 -90.9198 -90.9178
   -90.9164 -90.8015 -90.7997 -90.7980 -55.7605 -55.4006 -55.4001 -54.6565
   -54.6362 -54.6337 -54.6267 -54.6250 -54.6172 -54.6142 -54.6129 -54.5944
   -54.5839 -54.5818 -54.5684 -54.4572 -54.4522 -54.4342 -54.4275 -54.4243
   -54.4231 -54.4067 -54.4015 -54.3973 -54.3916 -54.3897 -54.3882 -54.3537
   -54.3300 -54.3124 -54.2960 -54.2889 -54.2774 -54.2770 -54.2753 -54.2732
    -8.8813  -4.8182  -4.7922  -4.7162  -4.5759  -4.4788  -4.4613  -4.4157
    -4.3889  -4.2944  -4.2502  -4.2279  -4.1986  -4.1288  -4.1223  -4.0756
    -3.9967  -3.9793  -3.9503  -3.8876  -3.7314  -3.6907  -3.6849  -3.6715
    -3.6286  -3.6102  -3.5942  -3.4406  -3.4148  -3.3757  -3.3226  -3.3086
    -3.2704  -3.2533  -3.1571  -3.1414  -3.0894  -3.0857  -3.0679  -3.0569
    -3.0264  -3.0052  -2.9260  -2.9066  -2.8848  -2.8806  -2.8750  -2.7947
    -2.7840  -2.7725  -2.7302  -2.7177  -2.6809  -2.6344  -2.5645  -2.5624
    -2.5552  -2.4153  -2.3416  -2.2862  -2.2602  -2.1852  -2.1403  -1.4422
    -1.2605   0.3322   0.6016   0.6546   0.7250   1.1410   1.7048   2.0080
     2.5563   2.7600   3.9404   4.0455   4.5527   5.3302

     the Fermi energy is     0.9083 ev

!    total energy              =   -3570.98600864 Ry
     Harris-Foulkes estimate   =   -3570.98600949 Ry
     estimated scf accuracy    <       0.00000007 Ry

     The total energy is the sum of the following terms:

     one-electron contribution =  -25857.56295139 Ry
     hartree contribution      =   12918.21019451 Ry
     xc contribution           =    -364.21365396 Ry
     ewald contribution        =    9732.60732028 Ry
     electric field correction =       0.00031707 Ry
     smearing contrib. (-TS)   =      -0.02723515 Ry

     convergence has been achieved in   6 iterations

 BEEF-vdW xc energy contributions
           1 :   -315.521152602192
           2 :    285.589667495375
           3 :   -235.704339538352
           4 :    180.973693976315
           5 :   -135.074008440918
           6 :    105.317242821750
           7 :   -91.3186763579217
           8 :    87.2227219212754
           9 :   -85.7960931452065
          10 :    82.0672632619205
          11 :   -74.8576857767611
          12 :    65.9447284702831
          13 :   -57.9196774378102
          14 :    52.2807984597823
          15 :   -48.8072579467004
          16 :    46.2262562949441
          17 :   -43.3889885630651
          18 :    40.0367385936741
          19 :   -36.7299462401284
          20 :    34.1750414349950
          21 :   -32.5656502216260
          22 :    31.4279012852481
          23 :   -30.0181883356086
          24 :    27.9129712646842
          25 :   -25.3349753492093
          26 :    22.9882694044606
          27 :   -21.5479059106647
          28 :    21.1844212068477
          29 :   -21.4578448823046
          30 :    21.6349169624454
          31 :   -31.5567446366970
          32 :   -22.9431530124546

     Forces acting on atoms (Ry/au):

     negative rho (up, down):  2.070E-03 0.000E+00
     atom    1 type  1   force =    -0.00032838   -0.00018959   -0.00052118
     atom    2 type  1   force =     0.00032837   -0.00018959   -0.00052120
     atom    3 type  1   force =    -0.00000000    0.00037917   -0.00052123
     atom    4 type  1   force =    -0.00000000    0.00000000    0.00043661
     atom    5 type  1   force =     0.00000000    0.00428876   -0.00148783
     atom    6 type  1   force =     0.00000000   -0.00000004    0.00581581
     atom    7 type  1   force =    -0.00371423   -0.00214436   -0.00148784
     atom    8 type  1   force =     0.00371421   -0.00214436   -0.00148781
     atom    9 type  1   force =     0.00000003    0.00000006   -0.00027483
     atom   10 type  1   force =    -0.00000003    0.00043992   -0.00004738
     atom   11 type  1   force =     0.00038092   -0.00022000   -0.00004732
     atom   12 type  1   force =    -0.00038094   -0.00021997   -0.00004737
     atom   13 type  2   force =     0.00000004    0.00000000    0.00019156

     Total force =     0.000836     Total SCF correction =     0.001001
     SCF correction compared to forces is large: reduce conv_thr to get better values

     entering subroutine stress ...

     negative rho (up, down):  2.070E-03 0.000E+00
          total   stress  (Ry/bohr**3)                   (kbar)     P=   -8.56
  -0.00007707   0.00000000   0.00000000        -11.34      0.00      0.00
   0.00000000  -0.00007707  -0.00000000          0.00    -11.34     -0.00
   0.00000000  -0.00000000  -0.00002053          0.00     -0.00     -3.02

     bfgs converged in  10 scf cycles and   9 bfgs steps
     (criteria: energy <  1.0E+00, force <  1.9E-03)

     End of BFGS Geometry Optimization

     Final energy   =   -3570.9860086356 Ry
Begin final coordinates

ATOMIC_POSITIONS (crystal)
Ag1      0.166666667   0.166666667   0.402063960    0   0   0
Ag1      0.666666667   0.166666667   0.402063960    0   0   0
Ag1      0.166666667   0.666666667   0.402063960    0   0   0
Ag1      0.666666667   0.666666667   0.402063960    0   0   0
Ag1      0.833333333   0.333333333   0.500000000    0   0   0
Ag1      0.333333333   0.333333333   0.500000000    0   0   0
Ag1      0.833333333   0.833333333   0.500000000    0   0   0
Ag1      0.333333333   0.833333333   0.500000000    0   0   0
Ag1     -0.000000031  -0.000000030   0.592491725
Ag1      0.500335020  -0.000669973   0.601561951
Ag1     -0.000669964   0.500335076   0.601561892
Ag1      0.500334936   0.500335046   0.601561947
C1       0.000000131  -0.000000117   0.671003001
End final coordinates

     Writing output data file calc.save

     General routines

     Parallel routines

   This run was terminated on:  11: 2:58   4May2018

   JOB DONE.
Job  /afs/slac/g/suncat/bin/suncat-tsmpirun -x LD_LIBRARY_PATH -wdir /scratch/qe932779_15CLx pw.x -npool 4 -in pw.inp

TID   HOST_NAME   COMMAND_LINE            STATUS            TERMINATION_TIME
00000 suncat0096 pw.x -npool 4 -i  Done                     05/04/2018 11:02:58
00001 suncat0096 pw.x -npool 4 -i  Done                     05/04/2018 11:02:58
00002 suncat0096 pw.x -npool 4 -i  Done                     05/04/2018 11:02:58
00003 suncat0096 pw.x -npool 4 -i  Done                     05/04/2018 11:02:58
00004 suncat0096 pw.x -npool 4 -i  Done                     05/04/2018 11:02:58
00005 suncat0096 pw.x -npool 4 -i  Done                     05/04/2018 11:02:58
00006 suncat0096 pw.x -npool 4 -i  Done                     05/04/2018 11:02:58
00007 suncat0096 pw.x -npool 4 -i  Done                     05/04/2018 11:02:58
00008 suncat0076 pw.x -npool 4 -i  Done                     05/04/2018 11:02:58
00009 suncat0076 pw.x -npool 4 -i  Done                     05/04/2018 11:02:58
00010 suncat0076 pw.x -npool 4 -i  Done                     05/04/2018 11:02:58
00011 suncat0076 pw.x -npool 4 -i  Done                     05/04/2018 11:02:58
00012 suncat0076 pw.x -npool 4 -i  Done                     05/04/2018 11:02:58
00013 suncat0076 pw.x -npool 4 -i  Done                     05/04/2018 11:02:58
00014 suncat0076 pw.x -npool 4 -i  Done                     05/04/2018 11:02:58
00015 suncat0076 pw.x -npool 4 -i  Done                     05/04/2018 11:02:58
00016 suncat0070 pw.x -npool 4 -i  Done                     05/04/2018 11:02:58
00017 suncat0070 pw.x -npool 4 -i  Done                     05/04/2018 11:02:58
00018 suncat0070 pw.x -npool 4 -i  Done                     05/04/2018 11:02:58
00019 suncat0070 pw.x -npool 4 -i  Done                     05/04/2018 11:02:58
00020 suncat0070 pw.x -npool 4 -i  Done                     05/04/2018 11:02:58
00021 suncat0070 pw.x -npool 4 -i  Done                     05/04/2018 11:02:58
00022 suncat0070 pw.x -npool 4 -i  Done                     05/04/2018 11:02:58
00023 suncat0070 pw.x -npool 4 -i  Done                     05/04/2018 11:02:58
00024 suncat0030 pw.x -npool 4 -i  Done                     05/04/2018 11:02:58
00025 suncat0030 pw.x -npool 4 -i  Done                     05/04/2018 11:02:58
00026 suncat0030 pw.x -npool 4 -i  Done                     05/04/2018 11:02:58
00027 suncat0030 pw.x -npool 4 -i  Done                     05/04/2018 11:02:58
00028 suncat0030 pw.x -npool 4 -i  Done                     05/04/2018 11:02:58
00029 suncat0030 pw.x -npool 4 -i  Done                     05/04/2018 11:02:58
00030 suncat0030 pw.x -npool 4 -i  Done                     05/04/2018 11:02:58
00031 suncat0030 pw.x -npool 4 -i  Done                     05/04/2018 11:02:58