     Program PWSCF v.5.1rc2 (svn rev. ) starts on 18Apr2018 at  1:23:18

     Current dimensions of program PWSCF are:
     Max number of different atomic species (ntypx) = 10
     Max number of k-points (npk) =  40000
     Max angular momentum in pseudopotentials (lmaxx) =  3
     Presently stress not available with electric field

     IMPORTANT: XC functional enforced from input :
     Exchange-correlation      = BEEF-VDW ( 1  4 27 13 2)
     Any further DFT definition will be discarded
     Please, verify this is what you really want

     Subspace diagonalization in iterative solution of the eigenvalue problem:
     a serial algorithm will be used

     bravais-lattice index     =            0
     lattice parameter (alat)  =       1.8897  a.u.
     unit-cell volume          =    6024.3322 (a.u.)^3
     number of atoms/cell      =           14
     number of atomic types    =            3
     number of electrons       =       149.00
     number of Kohn-Sham states=           84
     kinetic-energy cutoff     =      36.7493  Ry
     charge density cutoff     =     367.4932  Ry
     convergence threshold     =      1.0E-05
     mixing beta               =       0.3000
     number of iterations used =           10  plain     mixing
     Exchange-correlation      = BEEF-VDW ( 1  4 27 13 2)
     nstep                     =           50

     celldm(1)=   1.889726  celldm(2)=   0.000000  celldm(3)=   0.000000
     celldm(4)=   0.000000  celldm(5)=   0.000000  celldm(6)=   0.000000

     crystal axes: (cart. coord. in units of alat)
               a(1) = (   6.393197   0.000000   0.000000 )
               a(2) = (   3.196599   5.536671   0.000000 )
               a(3) = (   0.000000   0.000000  25.220024 )

     reciprocal axes: (cart. coord. in units 2 pi/alat)
               b(1) = (  0.156416 -0.090307  0.000000 )
               b(2) = (  0.000000  0.180614  0.000000 )
               b(3) = (  0.000000  0.000000  0.039651 )

     PseudoPot. # 1 for Hf read from file:
     /home/mamunm/src/pseudo/gbrv1.5pbe/Hf.UPF
     MD5 check sum: 8ee9378dfe14276e333edf04c5e4aa26
     Pseudo is Ultrasoft + core correction, Zval = 12.0
     Generated by new atomic code, or converted to UPF format
     Using radial grid of  921 points,  8 beta functions with:
                l(1) =   0
                l(2) =   0
                l(3) =   0
                l(4) =   1
                l(5) =   1
                l(6) =   2
                l(7) =   2
                l(8) =   3
     Q(r) pseudized with  6 coefficients,  rinner =    1.200   1.200   1.200
                                                       1.200   1.200   1.200
                                                       1.200

     PseudoPot. # 2 for C  read from file:
     /home/mamunm/src/pseudo/gbrv1.5pbe/C.UPF
     MD5 check sum: d1aef80898a10debaa0f26306b886e00
     Pseudo is Ultrasoft + core correction, Zval =  4.0
     Generated by new atomic code, or converted to UPF format
     Using radial grid of  721 points,  4 beta functions with:
                l(1) =   0
                l(2) =   0
                l(3) =   1
                l(4) =   1
     Q(r) pseudized with  8 coefficients,  rinner =    1.100   1.100   1.100

     PseudoPot. # 3 for H  read from file:
     /home/mamunm/src/pseudo/gbrv1.5pbe/H.UPF
     MD5 check sum: 761ae9a214b05c3daf00ab9f6b793d6f
     Pseudo is Ultrasoft, Zval =  1.0
     Generated by new atomic code, or converted to UPF format
     Using radial grid of  615 points,  2 beta functions with:
                l(1) =   0
                l(2) =   0
     Q(r) pseudized with  8 coefficients,  rinner =    0.700

     vdW kernel table read from file vdW_kernel_table
     MD5 check sum: 095c7af220d748ca6e76c0b4c6cfb241

     atomic species   valence    mass     pseudopotential
        Hf1           12.00   178.49000     Hf( 1.00)
        C1             4.00    12.01100     C ( 1.00)
        H1             1.00     1.00800     H ( 1.00)

     No symmetry found

   Cartesian axes

     site n.     atom                  positions (alat units)
         1           Hf1 tau(   1) = (   1.5982993   0.9227785  10.0000000  )
         2           Hf1 tau(   2) = (   4.7948978   0.9227785  10.0000000  )
         3           Hf1 tau(   3) = (   3.1965986   3.6911141  10.0000000  )
         4           Hf1 tau(   4) = (   6.3931971   3.6911141  10.0000000  )
         5           Hf1 tau(   5) = (   6.3931971   1.8455570  12.6100118  )
         6           Hf1 tau(   6) = (   3.1965986   1.8455570  12.6100118  )
         7           Hf1 tau(   7) = (   7.9914964   4.6138926  12.6100118  )
         8           Hf1 tau(   8) = (   4.7948978   4.6138926  12.6100118  )
         9           Hf1 tau(   9) = (   0.0000000   0.0000000  15.2200236  )
        10           Hf1 tau(  10) = (   3.1965986   0.0000000  15.2200236  )
        11           Hf1 tau(  11) = (   1.5982993   2.7683356  15.2200236  )
        12           Hf1 tau(  12) = (   4.7948978   2.7683356  15.2200236  )
        13           C1  tau(  13) = (   0.0000000   0.0000000  17.3535236  )
        14           H1  tau(  14) = (   0.0000000   0.0000000  18.4535236  )

     number of k points=    20  Fermi-Dirac smearing, width (Ry)=  0.0110
                       cart. coord. in units 2pi/alat
        k(    1) = (   0.0000000   0.0000000   0.0000000), wk =   0.0555556
        k(    2) = (   0.0000000   0.0301023   0.0000000), wk =   0.1111111
        k(    3) = (   0.0000000   0.0602046   0.0000000), wk =   0.1111111
        k(    4) = (   0.0000000  -0.0903070   0.0000000), wk =   0.0555556
        k(    5) = (   0.0260694  -0.0150512   0.0000000), wk =   0.1111111
        k(    6) = (   0.0260694   0.0150512   0.0000000), wk =   0.1111111
        k(    7) = (   0.0260694   0.0451535   0.0000000), wk =   0.1111111
        k(    8) = (   0.0260694  -0.1053581   0.0000000), wk =   0.1111111
        k(    9) = (   0.0260694  -0.0752558   0.0000000), wk =   0.1111111
        k(   10) = (   0.0260694  -0.0451535   0.0000000), wk =   0.1111111
        k(   11) = (   0.0521388  -0.0301023   0.0000000), wk =   0.1111111
        k(   12) = (   0.0521388   0.0000000   0.0000000), wk =   0.1111111
        k(   13) = (   0.0521388   0.0301023   0.0000000), wk =   0.1111111
        k(   14) = (   0.0521388  -0.1204093   0.0000000), wk =   0.1111111
        k(   15) = (   0.0521388  -0.0903070   0.0000000), wk =   0.1111111
        k(   16) = (   0.0521388  -0.0602046   0.0000000), wk =   0.1111111
        k(   17) = (  -0.0782081   0.0451535   0.0000000), wk =   0.0555556
        k(   18) = (  -0.0782081   0.0752558   0.0000000), wk =   0.1111111
        k(   19) = (  -0.0782081   0.1053581   0.0000000), wk =   0.1111111
        k(   20) = (  -0.0782081  -0.0451535   0.0000000), wk =   0.0555556

     Largest allocated arrays     est. size (Mb)     dimensions
     Largest temporary arrays     est. size (Mb)     dimensions

     Check: negative/imaginary core charge=   -0.000003    0.000000

     Initial potential from superposition of free atoms
     Check: negative starting charge=   -1.301322

     starting charge  124.99993, renormalised to  149.00000

     negative rho (up, down):  1.551E+00 0.000E+00

     *
     * You are using vdW-DF for exchange-correlation in this calculation.
     * Please cite the following three references that made this development
     * possible:
     *
     *   M. Dion, H. Rydberg, E. Schroder, D. C. Langreth, and
     *   B. I. Lundqvist, Phys. Rev. Lett. 92, 246401 (2004).
     *
     *   T. Thonhauser, V. R. Cooper, S. Li, A. Puzder, P. Hyldgaard, and
     *   D. C. Langreth, Phys. Rev. B 76, 125112 (2007).
     *
     *   G. Roman-Perez and J. M. Soler, Phys. Rev. Lett. 103, 096102 (2009).
     *
     *
     * If you are using vdW-DF2, please also cite:
     *
     *   K. Lee, E. D. Murray, L. Kong, B. I. Lundqvist, and
     *   D. C. Langreth, Phys. Rev. B 82, 081101(R) (2010).
     *
     *
     * If you are calculating the stress with vdW-DF, please also cite:
     *
     *   R. Sabatini, E. Kucukbenli, B. Kolb, T. Thonhauser, and
     *   S. de Gironcoli, J. Phys.: Condens. Matter 24, 424209 (2012).
     *

     Carrying out vdW-DF run using the following parameters:

     Nqs =      20    Nr_points =    1024   r_max =   100.000
     q_mesh =
               0.00001000     0.04494208     0.09755937     0.15916263
               0.23128650     0.31572767     0.41458969     0.53033537
               0.66584808     0.82450364     1.01025438     1.22772762
               1.48234092     1.78043706     2.12944203     2.53805004
               3.01644009     3.57652955     4.23227104     5.00000000

     Gradients computed in reciprocal space

     Adding external electric field

     Computed dipole along edir(3) :
        Dipole               -9.0040 Ry au,        -22.8858 Debye
        Dipole field         -0.0188 Ry au

        Potential amp.        1.7455 Ry
        Total length         46.4675 bohr

     Starting wfc are  161 randomized atomic wfcs

     Self-consistent Calculation

     iteration #  1     ecut=    36.75 Ry     beta=0.30
     Davidson diagonalization with overlap
     ethr =  1.00E-02,  avg # of iterations =  9.0

[...]

     total energy              =   -1372.28975276 Ry
     Harris-Foulkes estimate   =   -1931.89496892 Ry
     estimated scf accuracy    <    1201.38777499 Ry

     iteration #  2     ecut=    36.75 Ry     beta=0.30
     Davidson diagonalization with overlap
     c_bands:  5 eigenvalues not converged
     c_bands:  5 eigenvalues not converged
     c_bands:  4 eigenvalues not converged
     ethr =  1.00E-02,  avg # of iterations = 21.6

[...]

     End of self-consistent calculation

          k = 0.0000 0.0000 0.0000 ( 22729 PWs)   bands (ev):

   -61.4197 -61.3941 -61.3938 -61.2933 -61.2633 -61.2552 -61.2546 -60.9041
   -60.8735 -60.8731 -60.8587 -60.5070 -30.1164 -30.0841 -30.0564 -30.0561
   -30.0363 -30.0298 -30.0296 -30.0091 -30.0088 -29.9259 -29.8615 -29.8351
   -29.8345 -29.7576 -29.6426 -29.6416 -29.6413 -29.6303 -29.6300 -29.6272
   -29.5981 -29.5978 -29.5015 -29.5015 -29.3976 -29.3675 -29.3670 -29.3482
   -29.2662 -29.2660 -29.2564 -29.1387 -29.1386 -29.0595 -29.0594 -28.9183
    -8.8383  -5.1821  -3.9001  -2.6718  -2.4083  -1.6959  -1.6958  -1.5850
    -1.4303  -1.4303  -1.3604  -0.9902  -0.9901  -0.8501  -0.3879  -0.3878
    -0.3491   0.1380   0.1381   0.3675   0.9859   0.9859   1.3415   1.5482
     1.6854   1.7727   1.7727   1.8185   2.1129   2.1345   2.1345   2.3861
     2.4585   2.5665   2.5667   2.6294

[...]

          k =-0.0782 0.0452 0.0000 ( 22668 PWs)   bands (ev):

[...]

     the Fermi energy is     1.3407 ev

!    total energy              =   -1939.29320177 Ry
     Harris-Foulkes estimate   =   -1939.29320574 Ry
     estimated scf accuracy    <       0.00000409 Ry

     The total energy is the sum of the following terms:

     one-electron contribution =   -8427.13318736 Ry
     hartree contribution      =    4197.99459518 Ry
     xc contribution           =    -931.92995593 Ry
     ewald contribution        =    3221.88691905 Ry
     electric field correction =       0.00000550 Ry
     smearing contrib. (-TS)   =      -0.11157820 Ry

     convergence has been achieved in  37 iterations

 BEEF-vdW xc energy contributions
           1 :   -842.540341633803
           2 :    782.952882068086
           3 :   -677.435876551707
           4 :    547.856173854281
           5 :   -416.757933448248
           6 :    301.070168739190
           7 :   -209.379668028633
           8 :    142.856667262157
           9 :   -98.2854154385878
          10 :    71.0207635780723
          11 :   -56.5496360600441
          12 :    50.5979051799077
          13 :   -48.7325376638564
          14 :    46.4300312919806
          15 :   -39.9701480462015
          16 :    27.6676734033913
          17 :   -10.5980432003373
          18 :   -7.80735189718496
          19 :    23.2165711374431
          20 :   -32.2094565626506
          21 :    33.5465974004311
          22 :   -28.3628447734079
          23 :    19.3643919360030
          24 :   -9.62352259678573
          25 :    1.62296511005775
          26 :    3.11465124250844
          27 :   -3.93660129596481
          28 :   0.864592884342983
          29 :    5.43710427201040
          30 :   -13.5720765209456
          31 :   -60.6849006672676
          32 :   -43.6248431700001

     Forces acting on atoms (Ry/au):

     negative rho (up, down):  1.380E+00 0.000E+00
     atom    1 type  1   force =     0.00063006    0.00043987    0.02446784
     atom    2 type  1   force =    -0.00062134    0.00038032    0.02455028
     atom    3 type  1   force =    -0.00005075   -0.00077847    0.02445741
     atom    4 type  1   force =     0.00005377   -0.00004723    0.02587244
     atom    5 type  1   force =    -0.00005557    0.00935868   -0.01204120
     atom    6 type  1   force =     0.00005761   -0.00000744   -0.00277555
     atom    7 type  1   force =    -0.00811440   -0.00464017   -0.01204697
     atom    8 type  1   force =     0.00811149   -0.00470709   -0.01199086
     atom    9 type  1   force =    -0.00005403    0.00004024    0.04955031
     atom   10 type  1   force =     0.00005523   -0.00383230   -0.00548230
     atom   11 type  1   force =    -0.00336758    0.00193178   -0.00553451
     atom   12 type  1   force =     0.00335795    0.00186206   -0.00549742
     atom   13 type  2   force =    -0.00000116   -0.00000027   -0.08628636
     atom   14 type  3   force =    -0.00000127    0.00000004   -0.00724310

     Total force =     0.100441     Total SCF correction =     0.002593

     entering subroutine stress ...

     negative rho (up, down):  1.380E+00 0.000E+00
          total   stress  (Ry/bohr**3)                   (kbar)     P=  -26.52
  -0.00015791  -0.00000000   0.00000000        -23.23     -0.00      0.00
  -0.00000000  -0.00015792   0.00000000         -0.00    -23.23      0.00
   0.00000000   0.00000000  -0.00022510          0.00      0.00    -33.11

     BFGS Geometry Optimization

     number of scf cycles    =   1
     number of bfgs steps    =   0

     energy   new            =   -1939.2932017678 Ry

     new trust radius        =       0.0862863635 bohr
     new conv_thr            =       0.0000099958 Ry

ATOMIC_POSITIONS (crystal)
Hf1      0.166666667   0.166666667   0.396510335    0   0   0
Hf1      0.666666667   0.166666667   0.396510335    0   0   0
Hf1      0.166666667   0.666666667   0.396510335    0   0   0
Hf1      0.666666667   0.666666667   0.396510335    0   0   0
Hf1      0.833333333   0.333333333   0.500000000    0   0   0
Hf1      0.333333333   0.333333333   0.500000000    0   0   0
Hf1      0.833333333   0.833333333   0.500000000    0   0   0
Hf1      0.333333333   0.833333333   0.500000000    0   0   0
Hf1     -0.000006395   0.000003846   0.604529351
Hf1      0.500187711  -0.000366279   0.603374633
Hf1     -0.000371057   0.500184633   0.603373538
Hf1      0.500188959   0.500177969   0.603374316
C1      -0.000000084  -0.000000026   0.686274648
H1      -0.000000107   0.000000004   0.731549304

     Writing output data file calc.save
     Check: negative starting charge=   -1.301322
     NEW-OLD atomic charge density approx. for the potential

     Check: negative/imaginary core charge=   -0.000003    0.000000
     Check: negative starting charge=   -1.301474

[...]

     Total force =     0.055826     Total SCF correction =     0.006967
     SCF correction compared to forces is large: reduce conv_thr to get better values

[...]

     energy   old            =   -1939.2932017678 Ry
     energy   new            =   -1939.2987462991 Ry

     CASE: energy  _new < energy  _old

[...]

     iteration #  1     ecut=    36.75 Ry     beta=0.30
     Davidson diagonalization with overlap
     c_bands:  1 eigenvalues not converged
     ethr =  1.00E-06,  avg # of iterations = 16.9

[...]

     number of scf cycles    =   9
     number of bfgs steps    =   8

     energy   old            =   -1939.3189368322 Ry
     energy   new            =   -1939.3197224159 Ry

     CASE: energy  _new < energy  _old

     new trust radius        =       0.0244123131 bohr
     new conv_thr            =       0.0000001000 Ry

ATOMIC_POSITIONS (crystal)
Hf1      0.166666667   0.166666667   0.396510335    0   0   0
Hf1      0.666666667   0.166666667   0.396510335    0   0   0
Hf1      0.166666667   0.666666667   0.396510335    0   0   0
Hf1      0.666666667   0.666666667   0.396510335    0   0   0
Hf1      0.833333333   0.333333333   0.500000000    0   0   0
Hf1      0.333333333   0.333333333   0.500000000    0   0   0
Hf1      0.833333333   0.833333333   0.500000000    0   0   0
Hf1      0.333333333   0.833333333   0.500000000    0   0   0
Hf1      0.000001649  -0.000001483   0.594526649
Hf1      0.504097091  -0.008187962   0.600161621
Hf1     -0.008188319   0.504093424   0.600158669
Hf1      0.504097742   0.504090406   0.600161108
C1      -0.000007961   0.000004800   0.673773003
H1      -0.000002186   0.000001273   0.717172973

     Writing output data file calc.save
     Check: negative starting charge=   -1.298805
     NEW-OLD atomic charge density approx. for the potential

     Check: negative/imaginary core charge=   -0.000003    0.000000
     Check: negative starting charge=   -1.299759

[...]

     Self-consistent Calculation

[...]

     total energy              =   -1939.31983357 Ry
     Harris-Foulkes estimate   =   -1939.31983357 Ry
     estimated scf accuracy    <       0.00000028 Ry

     iteration # 11     ecut=    36.75 Ry     beta=0.30
     Davidson diagonalization with overlap
     ethr =  1.86E-10,  avg # of iterations =  3.9

[...]

     negative rho (up, down):  1.377E+00 0.000E+00

     Adding external electric field

     Computed dipole along edir(3) :
        Dipole                0.0242 Ry au,          0.0616 Debye
        Dipole field          0.0001 Ry au

        Potential amp.       -0.0047 Ry
        Total length         46.4675 bohr

     End of self-consistent calculation

[...]

          k = 0.0521-0.0602 0.0000 ( 22643 PWs)   bands (ev):

[...]

          k =-0.0782-0.0452 0.0000 ( 22668 PWs)   bands (ev):

   -61.2936 -61.2817 -61.2741 -61.1883 -61.1780 -61.1655 -61.1609 -60.7581
   -60.6933 -60.6837 -60.6760 -60.0569 -29.9640 -29.9310 -29.9284 -29.9053
   -29.8556 -29.8436 -29.8220 -29.8159 -29.7954 -29.7743 -29.7483 -29.7443
   -29.7201 -29.6955 -29.6836 -29.6777 -29.6452 -29.6390 -29.5334 -29.4733
   -29.4690 -29.4144 -29.3738 -29.2813 -29.2459 -29.2391 -29.2161 -29.2140
   -29.1971 -29.1780 -29.1614 -29.0406 -29.0318 -28.7024 -28.6715 -28.5877
    -8.7706  -3.6586  -3.5102  -2.7366  -2.3021  -1.8679  -1.2523  -1.1863
    -1.0655  -0.8600  -0.6535  -0.5660  -0.2081   0.1348   0.3381   0.3421
     0.3967   0.4305   0.5882   0.6267   0.7451   0.9127   0.9545   1.0013
     1.0727   1.1135   1.1899   1.3721   1.4033   1.4588   1.4883   1.7244
     1.8314   1.9565   2.1038   2.3622

     the Fermi energy is     1.4301 ev

!    total energy              =   -1939.31983358 Ry
     Harris-Foulkes estimate   =   -1939.31983356 Ry
     estimated scf accuracy    <       0.00000004 Ry

     The total energy is the sum of the following terms:

     one-electron contribution =   -8621.18044176 Ry
     hartree contribution      =    4295.77735741 Ry
     xc contribution           =    -932.25935960 Ry
     ewald contribution        =    3318.44999877 Ry
     electric field correction =       0.00000122 Ry
     smearing contrib. (-TS)   =      -0.10738963 Ry

     convergence has been achieved in  11 iterations

 BEEF-vdW xc energy contributions
           1 :   -842.866032858706
           2 :    783.362776154134
           3 :   -677.926881646056
           4 :    548.326393416444
           5 :   -417.070641094268
           6 :    301.145140978483
           7 :   -209.250066836342
           8 :    142.652806802526
           9 :   -98.1536937242731
          10 :    71.0339666448947
          11 :   -56.6681931806711
          12 :    50.7085814899015
          13 :   -48.7377461290362
          14 :    46.3214347922245
          15 :   -39.8309067047792
          16 :    27.6036793114952
          17 :   -10.6526038112518
          18 :   -7.68768450695052
          19 :    23.1385311397457
          20 :   -32.2476709828962
          21 :    33.6833604130068
          22 :   -28.4996572267269
          23 :    19.3964754931020
          24 :   -9.51836837680503
          25 :    1.44305720909313
          26 :    3.26041938651633
          27 :   -3.97424195119970
          28 :   0.806997087601530
          29 :    5.50573596156266
          30 :   -13.5663310862587
          31 :   -60.7084027926925
          32 :   -43.6628780815490

     Forces acting on atoms (Ry/au):

     negative rho (up, down):  1.377E+00 0.000E+00
     atom    1 type  1   force =     0.00126529    0.00072999    0.02108985
     atom    2 type  1   force =    -0.00126518    0.00072868    0.02109097
     atom    3 type  1   force =    -0.00000109   -0.00145972    0.02109252
     atom    4 type  1   force =     0.00000142    0.00000096    0.02167510
     atom    5 type  1   force =    -0.00000369    0.02038186   -0.02992158
     atom    6 type  1   force =     0.00000264    0.00000128    0.00318973
     atom    7 type  1   force =    -0.01765150   -0.01018944   -0.02992251
     atom    8 type  1   force =     0.01765303   -0.01019455   -0.02991564
     atom    9 type  1   force =    -0.00000146   -0.00000054    0.00036332
     atom   10 type  1   force =     0.00000049    0.00184473    0.00111106
     atom   11 type  1   force =     0.00160210   -0.00092271    0.00112454
     atom   12 type  1   force =    -0.00159989   -0.00092225    0.00111468
     atom   13 type  2   force =     0.00000052   -0.00000038   -0.00135585
     atom   14 type  3   force =    -0.00000267    0.00000209   -0.00073620

     Total force =     0.004060     Total SCF correction =     0.000131

     entering subroutine stress ...

     negative rho (up, down):  1.377E+00 0.000E+00
          total   stress  (Ry/bohr**3)                   (kbar)     P=  -18.11
  -0.00013740   0.00000000  -0.00000000        -20.21      0.00     -0.00
   0.00000000  -0.00013740   0.00000000          0.00    -20.21      0.00
  -0.00000000   0.00000000  -0.00009447         -0.00      0.00    -13.90

     bfgs converged in  10 scf cycles and   9 bfgs steps
     (criteria: energy <  1.0E+00, force <  1.9E-03)

     End of BFGS Geometry Optimization

     Final energy   =   -1939.3198335761 Ry
Begin final coordinates

ATOMIC_POSITIONS (crystal)
Hf1      0.166666667   0.166666667   0.396510335    0   0   0
Hf1      0.666666667   0.166666667   0.396510335    0   0   0
Hf1      0.166666667   0.666666667   0.396510335    0   0   0
Hf1      0.666666667   0.666666667   0.396510335    0   0   0
Hf1      0.833333333   0.333333333   0.500000000    0   0   0
Hf1      0.333333333   0.333333333   0.500000000    0   0   0
Hf1      0.833333333   0.833333333   0.500000000    0   0   0
Hf1      0.333333333   0.833333333   0.500000000    0   0   0
Hf1      0.000001649  -0.000001483   0.594526649
Hf1      0.504097091  -0.008187962   0.600161621
Hf1     -0.008188319   0.504093424   0.600158669
Hf1      0.504097742   0.504090406   0.600161108
C1      -0.000007961   0.000004800   0.673773003
H1      -0.000002186   0.000001273   0.717172973
End final coordinates

     Writing output data file calc.save

     General routines

     Parallel routines

   This run was terminated on:   2:36: 1  18Apr2018

   JOB DONE.