     Program PWSCF v.5.1rc2 (svn rev. 11289) starts on 15Jan2018 at 20:37: 7

     Current dimensions of program PWSCF are:
     Max number of different atomic species (ntypx) = 10
     Max number of k-points (npk) =  40000
     Max angular momentum in pseudopotentials (lmaxx) =  3
     Presently stress not available with electric field

     IMPORTANT: XC functional enforced from input :
     Exchange-correlation      = BEEF-VDW ( 1  4 27 13 2)
     Any further DFT definition will be discarded
     Please, verify this is what you really want

     Subspace diagonalization in iterative solution of the eigenvalue problem:
     a serial algorithm will be used

     bravais-lattice index     =            0
     lattice parameter (alat)  =       1.8897  a.u.
     unit-cell volume          =    4306.9643 (a.u.)^3
     number of atoms/cell      =           13
     number of atomic types    =            2
     number of electrons       =       185.00
     number of Kohn-Sham states=          102
     kinetic-energy cutoff     =      36.7493  Ry
     charge density cutoff     =     367.4932  Ry
     convergence threshold     =      1.0E-05
     mixing beta               =       0.3000
     number of iterations used =           10  plain     mixing
     Exchange-correlation      = BEEF-VDW ( 1  4 27 13 2)
     nstep                     =           50

     celldm(1)=   1.889726  celldm(2)=   0.000000  celldm(3)=   0.000000
     celldm(4)=   0.000000  celldm(5)=   0.000000  celldm(6)=   0.000000

     crystal axes: (cart. coord. in units of alat)
               a(1) = (   5.486772   0.000000   0.000000 )
               a(2) = (   2.743386   4.751684   0.000000 )
               a(3) = (   0.000000   0.000000  24.479931 )

     reciprocal axes: (cart. coord. in units 2 pi/alat)
               b(1) = (  0.182257 -0.105226  0.000000 )
               b(2) = (  0.000000  0.210452  0.000000 )
               b(3) = (  0.000000  0.000000  0.040850 )

     PseudoPot. # 1 for Re read from file:
     /afs/slac.stanford.edu/u/if/mamunm/psp/gbrv1.5pbe/Re.UPF
     MD5 check sum: 85f993410f3e006da9d71c142b4ad953
     Pseudo is Ultrasoft + core correction, Zval = 15.0
     Generated by new atomic code, or converted to UPF format
     Using radial grid of  981 points,  8 beta functions with:
                l(1) =   0
                l(2) =   0
                l(3) =   1
                l(4) =   1
                l(5) =   2
                l(6) =   2
                l(7) =   3
                l(8) =   3
     Q(r) pseudized with  8 coefficients,  rinner =    1.150   1.150   1.150
                                                       1.150   1.150   1.150
                                                       1.150

     PseudoPot. # 2 for N  read from file:
     /afs/slac.stanford.edu/u/if/mamunm/psp/gbrv1.5pbe/N.UPF
     MD5 check sum: 95339753478d7afb44899504a8723017
     Pseudo is Ultrasoft + core correction, Zval =  5.0
     Generated by new atomic code, or converted to UPF format
     Using radial grid of  729 points,  4 beta functions with:
                l(1) =   0
                l(2) =   0
                l(3) =   1
                l(4) =   1
     Q(r) pseudized with  8 coefficients,  rinner =    0.900   0.900   0.900

     vdW kernel table read from file vdW_kernel_table
     MD5 check sum: 095c7af220d748ca6e76c0b4c6cfb241

     atomic species   valence    mass     pseudopotential
        Re1           15.00   186.20700     Re( 1.00)
        N1             5.00    14.00700     N ( 1.00)

     No symmetry found

   Cartesian axes

     site n.     atom                  positions (alat units)
         1           Re1 tau(   1) = (   1.3716930   0.7919474  10.0000000  )
         2           Re1 tau(   2) = (   4.1150791   0.7919474  10.0000000  )
         3           Re1 tau(   3) = (   2.7433861   3.1677894  10.0000000  )
         4           Re1 tau(   4) = (   5.4867722   3.1677894  10.0000000  )
         5           Re1 tau(   5) = (   5.4867722   1.5838947  12.2399654  )
         6           Re1 tau(   6) = (   2.7433861   1.5838947  12.2399654  )
         7           Re1 tau(   7) = (   6.8584652   3.9597368  12.2399654  )
         8           Re1 tau(   8) = (   4.1150791   3.9597368  12.2399654  )
         9           Re1 tau(   9) = (   0.0000000   0.0000000  14.4799307  )
        10           Re1 tau(  10) = (   2.7433861   0.0000000  14.4799307  )
        11           Re1 tau(  11) = (   1.3716930   2.3758421  14.4799307  )
        12           Re1 tau(  12) = (   4.1150791   2.3758421  14.4799307  )
        13           N1  tau(  13) = (   1.3716930   0.7919474  16.6999307  )

     number of k points=    20  Fermi-Dirac smearing, width (Ry)=  0.0110
                       cart. coord. in units 2pi/alat
        k(    1) = (   0.0000000   0.0000000   0.0000000), wk =   0.0555556
        k(    2) = (   0.0000000   0.0350753   0.0000000), wk =   0.1111111
        k(    3) = (   0.0000000   0.0701506   0.0000000), wk =   0.1111111
        k(    4) = (   0.0000000  -0.1052259   0.0000000), wk =   0.0555556
        k(    5) = (   0.0303761  -0.0175376   0.0000000), wk =   0.1111111
        k(    6) = (   0.0303761   0.0175376   0.0000000), wk =   0.1111111
        k(    7) = (   0.0303761   0.0526129   0.0000000), wk =   0.1111111
        k(    8) = (   0.0303761  -0.1227635   0.0000000), wk =   0.1111111
        k(    9) = (   0.0303761  -0.0876882   0.0000000), wk =   0.1111111
        k(   10) = (   0.0303761  -0.0526129   0.0000000), wk =   0.1111111
        k(   11) = (   0.0607522  -0.0350753   0.0000000), wk =   0.1111111
        k(   12) = (   0.0607522   0.0000000   0.0000000), wk =   0.1111111
        k(   13) = (   0.0607522   0.0350753   0.0000000), wk =   0.1111111
        k(   14) = (   0.0607522  -0.1403011   0.0000000), wk =   0.1111111
        k(   15) = (   0.0607522  -0.1052259   0.0000000), wk =   0.1111111
        k(   16) = (   0.0607522  -0.0701506   0.0000000), wk =   0.1111111
        k(   17) = (  -0.0911283   0.0526129   0.0000000), wk =   0.0555556
        k(   18) = (  -0.0911283   0.0876882   0.0000000), wk =   0.1111111
        k(   19) = (  -0.0911283   0.1227635   0.0000000), wk =   0.1111111
        k(   20) = (  -0.0911283  -0.0526129   0.0000000), wk =   0.0555556

     Largest allocated arrays     est. size (Mb)     dimensions
     Largest temporary arrays     est. size (Mb)     dimensions

     Initial potential from superposition of free atoms
     Check: negative starting charge=   -1.539609

     starting charge  178.99945, renormalised to  185.00000

     negative rho (up, down):  1.591E+00 0.000E+00

     *
     * You are using vdW-DF for exchange-correlation in this calculation.
     * Please cite the following three references that made this development
     * possible:
     *
     *   M. Dion, H. Rydberg, E. Schroder, D. C. Langreth, and
     *   B. I. Lundqvist, Phys. Rev. Lett. 92, 246401 (2004).
     *
     *   T. Thonhauser, V. R. Cooper, S. Li, A. Puzder, P. Hyldgaard, and
     *   D. C. Langreth, Phys. Rev. B 76, 125112 (2007).
     *
     *   G. Roman-Perez and J. M. Soler, Phys. Rev. Lett. 103, 096102 (2009).
     *
     *
     * If you are using vdW-DF2, please also cite:
     *
     *   K. Lee, E. D. Murray, L. Kong, B. I. Lundqvist, and
     *   D. C. Langreth, Phys. Rev. B 82, 081101(R) (2010).
     *
     *
     * If you are calculating the stress with vdW-DF, please also cite:
     *
     *   R. Sabatini, E. Kucukbenli, B. Kolb, T. Thonhauser, and
     *   S. de Gironcoli, J. Phys.: Condens. Matter 24, 424209 (2012).
     *

     Carrying out vdW-DF run using the following parameters:

     Nqs =      20    Nr_points =    1024   r_max =   100.000
     q_mesh =
               0.00001000     0.04494208     0.09755937     0.15916263
               0.23128650     0.31572767     0.41458969     0.53033537
               0.66584808     0.82450364     1.01025438     1.22772762
               1.48234092     1.78043706     2.12944203     2.53805004
               3.01644009     3.57652955     4.23227104     5.00000000

     Gradients computed in reciprocal space

     Adding external electric field

     Computed dipole along edir(3) :
        Dipole               -1.4126 Ry au,         -3.5904 Debye
        Dipole field         -0.0041 Ry au

        Potential amp.        0.3718 Ry
        Total length         45.1039 bohr

     Starting wfc are  160 randomized atomic wfcs

     Self-consistent Calculation

     iteration #  1     ecut=    36.75 Ry     beta=0.30
     Davidson diagonalization with overlap
     ethr =  1.00E-02,  avg # of iterations =  2.0

[...]

     total energy              =   -2297.80212917 Ry
     Harris-Foulkes estimate   =   -2326.18855062 Ry
     estimated scf accuracy    <      58.84684152 Ry

[...]

     iteration # 10     ecut=    36.75 Ry     beta=0.30
     Davidson diagonalization with overlap
     c_bands:  1 eigenvalues not converged
     ethr =  5.08E-05,  avg # of iterations =  7.7

[...]

     End of self-consistent calculation

          k = 0.0000 0.0000 0.0000 ( 16091 PWs)   bands (ev):

   -78.2250 -78.1500 -78.1305 -78.1299 -78.1298 -78.0907 -78.0905 -78.0859
   -78.0486 -78.0222 -78.0125 -78.0119 -40.4817 -40.4658 -40.4658 -40.3665
   -40.3182 -40.2971 -40.2971 -40.1769 -40.1753 -40.1751 -39.9423 -39.8236
   -39.8201 -39.8199 -39.8053 -39.7976 -39.7972 -39.7207 -39.7207 -39.7074
   -39.6037 -39.5933 -39.5932 -39.5199 -39.5114 -39.5101 -39.5100 -39.4685
   -39.4685 -39.4332 -39.4330 -39.4317 -39.3026 -39.3026 -39.2323 -39.2323
    -9.3792  -6.7866  -4.8248  -4.2873  -3.8940  -3.8923  -3.8923  -3.5957
    -3.5939  -3.5939  -2.9207  -2.9065  -2.9065  -2.7305  -2.7290  -2.7290
    -1.1910  -1.1786  -1.1786  -0.1122  -0.1074  -0.1074   0.0635   0.2162
     0.5617   0.5617   0.9408   0.9408   0.9881   1.0085   1.0085   1.0587
     1.0668   1.0668   1.2959   1.2959   1.4160   1.8964   1.8965   2.0830
     2.8232   2.8232   2.8821   3.0733   3.1294   3.1294   3.6298   3.6298
     3.7331   4.1939   4.1939   4.2770   4.2771   4.4414

[...]

          k =-0.0911 0.0526 0.0000 ( 16164 PWs)   bands (ev):

[...]

     the Fermi energy is     2.4057 ev

!    total energy              =   -2325.89535812 Ry
     Harris-Foulkes estimate   =   -2325.89533317 Ry
     estimated scf accuracy    <       0.00000683 Ry

     The total energy is the sum of the following terms:

     one-electron contribution =  -18699.39399998 Ry
     hartree contribution      =    9333.98555940 Ry
     xc contribution           =    -654.39956802 Ry
     ewald contribution        =    7693.98272983 Ry
     electric field correction =       0.00063918 Ry
     smearing contrib. (-TS)   =      -0.07071853 Ry

     convergence has been achieved in  21 iterations

 BEEF-vdW xc energy contributions
           1 :   -581.690255310330
           2 :    540.607154804332
           3 :   -466.954940204655
           4 :    374.800719510878
           5 :   -279.568693534504
           6 :    194.144190024764
           7 :   -126.294029402376
           8 :    77.9689570892599
           9 :   -46.4274136364977
          10 :    26.4929580954581
[...]

[...]

     Total force =     0.241187     Total SCF correction =     0.018218

[...]

     Total force =     0.089008     Total SCF correction =     0.018225
     SCF correction compared to forces is large: reduce conv_thr to get better values

[...]

     Program PWSCF v.5.1rc2 (svn rev. 11289) starts on 15Jan2018 at 23: 4: 3

[...]

   This run was terminated on:  23:20: 4  15Jan2018

[...]

   This run was terminated on:  23:52:40  15Jan2018

[...]

     Program PWSCF v.5.1rc2 (svn rev. 11289) starts on 15Jan2018 at 23:52:46

     Current dimensions of program PWSCF are:
     Max number of different atomic species (ntypx) = 10
     Max number of k-points (npk) =  40000
     Max angular momentum in pseudopotentials (lmaxx) =  3
     Presently stress not available with electric field

     IMPORTANT: XC functional enforced from input :
     Exchange-correlation      = BEEF-VDW ( 1  4 27 13 2)
     Any further DFT definition will be discarded
     Please, verify this is what you really want

     Subspace diagonalization in iterative solution of the eigenvalue problem:
     a serial algorithm will be used

     bravais-lattice index     =            0
     lattice parameter (alat)  =       1.8897  a.u.
     unit-cell volume          =    4306.9643 (a.u.)^3
     number of atoms/cell      =           13
     number of atomic types    =            2
     number of electrons       =       185.00
     number of Kohn-Sham states=          102
     kinetic-energy cutoff     =      36.7493  Ry
     charge density cutoff     =     367.4932  Ry
     convergence threshold     =      1.0E-05
     mixing beta               =       0.3000
     number of iterations used =           10  plain     mixing
     Exchange-correlation      = BEEF-VDW ( 1  4 27 13 2)
     nstep                     =           50

     celldm(1)=   1.889726  celldm(2)=   0.000000  celldm(3)=   0.000000
     celldm(4)=   0.000000  celldm(5)=   0.000000  celldm(6)=   0.000000

     crystal axes: (cart. coord. in units of alat)
               a(1) = (   5.486772   0.000000   0.000000 )
               a(2) = (   2.743386   4.751684   0.000000 )
               a(3) = (   0.000000   0.000000  24.479931 )

     reciprocal axes: (cart. coord. in units 2 pi/alat)
               b(1) = (  0.182257 -0.105226  0.000000 )
               b(2) = (  0.000000  0.210452  0.000000 )
               b(3) = (  0.000000  0.000000  0.040850 )

     PseudoPot. # 1 for Re read from file:
     /afs/slac.stanford.edu/u/if/mamunm/psp/gbrv1.5pbe/Re.UPF
     MD5 check sum: 85f993410f3e006da9d71c142b4ad953
     Pseudo is Ultrasoft + core correction, Zval = 15.0
     Generated by new atomic code, or converted to UPF format
     Using radial grid of  981 points,  8 beta functions with:
                l(1) =   0
                l(2) =   0
                l(3) =   1
                l(4) =   1
                l(5) =   2
                l(6) =   2
                l(7) =   3
                l(8) =   3
     Q(r) pseudized with  8 coefficients,  rinner =    1.150   1.150   1.150
                                                       1.150   1.150   1.150
                                                       1.150

     PseudoPot. # 2 for N  read from file:
     /afs/slac.stanford.edu/u/if/mamunm/psp/gbrv1.5pbe/N.UPF
     MD5 check sum: 95339753478d7afb44899504a8723017
     Pseudo is Ultrasoft + core correction, Zval =  5.0
     Generated by new atomic code, or converted to UPF format
     Using radial grid of  729 points,  4 beta functions with:
                l(1) =   0
                l(2) =   0
                l(3) =   1
                l(4) =   1
     Q(r) pseudized with  8 coefficients,  rinner =    0.900   0.900   0.900

     vdW kernel table read from file vdW_kernel_table
     MD5 check sum: 095c7af220d748ca6e76c0b4c6cfb241

     atomic species   valence    mass     pseudopotential
        Re1           15.00   186.20700     Re( 1.00)
        N1             5.00    14.00700     N ( 1.00)

     No symmetry found

   Cartesian axes

     site n.     atom                  positions (alat units)
         1           Re1 tau(   1) = (   1.3716930   0.7919474  10.0000000  )
         2           Re1 tau(   2) = (   4.1150791   0.7919474  10.0000000  )
         3           Re1 tau(   3) = (   2.7433861   3.1677894  10.0000000  )
         4           Re1 tau(   4) = (   5.4867722   3.1677894  10.0000000  )
         5           Re1 tau(   5) = (   5.4867722   1.5838947  12.2399654  )
         6           Re1 tau(   6) = (   2.7433861   1.5838947  12.2399654  )
         7           Re1 tau(   7) = (   6.8584652   3.9597368  12.2399654  )
         8           Re1 tau(   8) = (   4.1150791   3.9597368  12.2399654  )
         9           Re1 tau(   9) = (   8.2056766   4.7376623  14.5317697  )
        10           Re1 tau(  10) = (   5.5112455   4.7375404  14.5318254  )
        11           Re1 tau(  11) = (   6.8583477   2.4040810  14.5317519  )
        12           Re1 tau(  12) = (   4.1151817   2.3757758  14.3341169  )
        13           N1  tau(  13) = (   1.3716966   0.7919191  15.6957714  )

     number of k points=    20  Fermi-Dirac smearing, width (Ry)=  0.0110
                       cart. coord. in units 2pi/alat
        k(    1) = (   0.0000000   0.0000000   0.0000000), wk =   0.0555556
        k(    2) = (   0.0000000   0.0350753   0.0000000), wk =   0.1111111
        k(    3) = (   0.0000000   0.0701506   0.0000000), wk =   0.1111111
        k(    4) = (   0.0000000  -0.1052259   0.0000000), wk =   0.0555556
        k(    5) = (   0.0303761  -0.0175376   0.0000000), wk =   0.1111111
        k(    6) = (   0.0303761   0.0175376   0.0000000), wk =   0.1111111
        k(    7) = (   0.0303761   0.0526129   0.0000000), wk =   0.1111111
        k(    8) = (   0.0303761  -0.1227635   0.0000000), wk =   0.1111111
        k(    9) = (   0.0303761  -0.0876882   0.0000000), wk =   0.1111111
        k(   10) = (   0.0303761  -0.0526129   0.0000000), wk =   0.1111111
        k(   11) = (   0.0607522  -0.0350753   0.0000000), wk =   0.1111111
        k(   12) = (   0.0607522   0.0000000   0.0000000), wk =   0.1111111
        k(   13) = (   0.0607522   0.0350753   0.0000000), wk =   0.1111111
        k(   14) = (   0.0607522  -0.1403011   0.0000000), wk =   0.1111111
        k(   15) = (   0.0607522  -0.1052259   0.0000000), wk =   0.1111111
        k(   16) = (   0.0607522  -0.0701506   0.0000000), wk =   0.1111111
        k(   17) = (  -0.0911283   0.0526129   0.0000000), wk =   0.0555556
        k(   18) = (  -0.0911283   0.0876882   0.0000000), wk =   0.1111111
        k(   19) = (  -0.0911283   0.1227635   0.0000000), wk =   0.1111111
        k(   20) = (  -0.0911283  -0.0526129   0.0000000), wk =   0.0555556

     Largest allocated arrays     est. size (Mb)     dimensions
     Largest temporary arrays     est. size (Mb)     dimensions

     Initial potential from superposition of free atoms
     Check: negative starting charge=   -1.539370

     starting charge  178.99945, renormalised to  185.00000

[...]

     *
     * You are using vdW-DF for exchange-correlation in this calculation.
     * Please cite the following three references that made this development
     * possible:
     *
     *   M. Dion, H. Rydberg, E. Schroder, D. C. Langreth, and
     *   B. I. Lundqvist, Phys. Rev. Lett. 92, 246401 (2004).
     *
     *   T. Thonhauser, V. R. Cooper, S. Li, A. Puzder, P. Hyldgaard, and
     *   D. C. Langreth, Phys. Rev. B 76, 125112 (2007).
     *
     *   G. Roman-Perez and J. M. Soler, Phys. Rev. Lett. 103, 096102 (2009).
     *
     *
     * If you are using vdW-DF2, please also cite:
     *
     *   K. Lee, E. D. Murray, L. Kong, B. I. Lundqvist, and
     *   D. C. Langreth, Phys. Rev. B 82, 081101(R) (2010).
     *
     *
     * If you are calculating the stress with vdW-DF, please also cite:
     *
     *   R. Sabatini, E. Kucukbenli, B. Kolb, T. Thonhauser, and
     *   S. de Gironcoli, J. Phys.: Condens. Matter 24, 424209 (2012).
     *

     Carrying out vdW-DF run using the following parameters:

     Nqs =      20    Nr_points =    1024   r_max =   100.000
     q_mesh =
               0.00001000     0.04494208     0.09755937     0.15916263
               0.23128650     0.31572767     0.41458969     0.53033537
               0.66584808     0.82450364     1.01025438     1.22772762
               1.48234092     1.78043706     2.12944203     2.53805004
               3.01644009     3.57652955     4.23227104     5.00000000

     Gradients computed in reciprocal space

[...]

     Starting wfc are  160 randomized atomic wfcs

     Self-consistent Calculation

[...]

     total energy              =   -2326.22699710 Ry
     Harris-Foulkes estimate   =   -2326.22700089 Ry
     estimated scf accuracy    <       0.00003427 Ry

     iteration # 21     ecut=    36.75 Ry     beta=0.30
     Davidson diagonalization with overlap
     ethr =  1.85E-08,  avg # of iterations =  4.3

[...]

     negative rho (up, down):  1.623E+00 0.000E+00

     Adding external electric field

     Computed dipole along edir(3) :
        Dipole               -0.0553 Ry au,         -0.1405 Debye
        Dipole field         -0.0002 Ry au

        Potential amp.        0.0146 Ry
        Total length         45.1039 bohr

     End of self-consistent calculation

[...]

          k = 0.0608-0.0702 0.0000 ( 16218 PWs)   bands (ev):

[...]

          k =-0.0911-0.0526 0.0000 ( 16164 PWs)   bands (ev):

   -77.7380 -77.7158 -77.6934 -77.6354 -77.6324 -77.5958 -77.5914 -77.4899
   -77.4532 -77.4309 -77.4085 -77.3946 -39.8865 -39.7972 -39.7695 -39.7201
   -39.6978 -39.6695 -39.6172 -39.5495 -39.5299 -39.4941 -39.4580 -39.4478
   -39.4101 -39.3946 -39.3933 -39.2799 -39.2583 -39.2534 -39.1998 -39.1852
   -39.1747 -39.1459 -39.1104 -39.1015 -39.0840 -39.0705 -39.0588 -39.0581
   -39.0112 -38.9730 -38.9668 -38.9411 -38.9014 -38.8655 -38.7577 -38.7254
   -12.1580  -4.4075  -4.2250  -3.2215  -2.6835  -2.4715  -2.4536  -2.2618
    -2.1119  -2.0617  -1.9986  -1.9872  -1.6096  -1.2379  -1.1359  -1.1239
    -1.0052  -0.8639  -0.7275  -0.6228  -0.3693  -0.2832  -0.2583  -0.1725
     0.0593   0.1360   0.4411   0.7250   0.7946   0.8079   1.0169   1.0780
     1.0781   1.1887   1.2781   1.4797   1.5314   1.5694   1.6857   1.9354
     2.0518   2.3887   2.5364   2.8973   2.9129   2.9720   3.1204   3.1369
     3.4618   3.4711   3.5620   3.8487   4.0127   4.0835

     the Fermi energy is     2.9805 ev

!    total energy              =   -2326.22699737 Ry
     Harris-Foulkes estimate   =   -2326.22700017 Ry
     estimated scf accuracy    <       0.00000374 Ry

     The total energy is the sum of the following terms:

     one-electron contribution =  -19001.15161424 Ry
     hartree contribution      =    9487.46147203 Ry
     xc contribution           =    -655.08435504 Ry
     ewald contribution        =    7842.61147167 Ry
     electric field correction =       0.00000892 Ry
     smearing contrib. (-TS)   =      -0.06398070 Ry

     convergence has been achieved in  21 iterations

 BEEF-vdW xc energy contributions
           1 :   -582.383254788038
           2 :    541.503512135179
           3 :   -468.076868375731
           4 :    375.980978842748
           5 :   -280.562082844194
           6 :    194.747484776074
           7 :   -126.425689343638
           8 :    77.6897201222301
           9 :   -45.9034934621279
          10 :    25.9223669891495
          11 :   -12.4978390582105
          12 :    1.99645447121247
          13 :    7.00425964346755
          14 :   -14.1683720073652
          15 :    18.4473007390288
          16 :   -19.1558975723573
          17 :    16.6276746236706
          18 :   -12.2445137670097
          19 :    7.91577259933592
          20 :   -5.30986717063479
          21 :    5.21122740509941
          22 :   -7.28335002241317
          23 :    10.3130180681992
          24 :   -12.7981892504770
          25 :    13.6043608551049
          26 :   -12.4068952799901
          27 :    9.74505781645371
          28 :   -6.69757360252800
          29 :    4.35793546584887
          30 :   -3.36307745714953
          31 :   -48.5341857980242
          32 :   -36.0408645875945

     Forces acting on atoms (Ry/au):

     negative rho (up, down):  1.623E+00 0.000E+00
     atom    1 type  1   force =     0.00003742    0.00005204    0.02431294
     atom    2 type  1   force =    -0.00002984   -0.00274098    0.02240266
     atom    3 type  1   force =    -0.00242369    0.00133492    0.02239408
     atom    4 type  1   force =     0.00241293    0.00136577    0.02236210
     atom    5 type  1   force =     0.00844908   -0.00495816   -0.00789170
     atom    6 type  1   force =    -0.00845467   -0.00490401   -0.00793202
     atom    7 type  1   force =     0.00007579    0.00005847   -0.06511040
     atom    8 type  1   force =    -0.00006754    0.00980661   -0.00790717
     atom    9 type  1   force =     0.00045981    0.00024144   -0.00044613
     atom   10 type  1   force =    -0.00044900    0.00035355   -0.00055275
     atom   11 type  1   force =     0.00010571   -0.00056554   -0.00051086
     atom   12 type  1   force =    -0.00012567   -0.00004881   -0.00139470
     atom   13 type  2   force =     0.00000967    0.00000471    0.00027395

     Total force =     0.082680     Total SCF correction =     0.011051
     SCF correction compared to forces is large: reduce conv_thr to get better values

     entering subroutine stress ...

     negative rho (up, down):  1.623E+00 0.000E+00
          total   stress  (Ry/bohr**3)                   (kbar)     P=  -16.73
  -0.00011087  -0.00000003  -0.00000001        -16.31     -0.00     -0.00
  -0.00000003  -0.00011090   0.00000000         -0.00    -16.31      0.00
  -0.00000001   0.00000000  -0.00011946         -0.00      0.00    -17.57

 !ASE

     Writing output data file calc.save

     General routines

     Parallel routines

   This run was terminated on:   0: 9:10  16Jan2018

   JOB DONE.
Job  /afs/slac/g/suncat/bin/suncat-tsmpirun -x LD_LIBRARY_PATH -wdir /scratch/qe842473_OPsiz pw.x -in pw.inp

TID   HOST_NAME   COMMAND_LINE            STATUS            TERMINATION_TIME
00000 suncat0050 pw.x -in pw.inp   Done                     01/16/2018 00:09:10
00001 suncat0050 pw.x -in pw.inp   Done                     01/16/2018 00:09:10
00002 suncat0050 pw.x -in pw.inp   Done                     01/16/2018 00:09:10
00003 suncat0050 pw.x -in pw.inp   Done                     01/16/2018 00:09:10
00004 suncat0050 pw.x -in pw.inp   Done                     01/16/2018 00:09:10
00005 suncat0050 pw.x -in pw.inp   Done                     01/16/2018 00:09:10
00006 suncat0050 pw.x -in pw.inp   Done                     01/16/2018 00:09:10
00007 suncat0050 pw.x -in pw.inp   Done                     01/16/2018 00:09:10
00008 suncat0242 pw.x -in pw.inp   Done                     01/16/2018 00:09:10
00009 suncat0242 pw.x -in pw.inp   Done                     01/16/2018 00:09:10
00010 suncat0242 pw.x -in pw.inp   Done                     01/16/2018 00:09:10
00011 suncat0242 pw.x -in pw.inp   Done                     01/16/2018 00:09:10
00012 suncat0242 pw.x -in pw.inp   Done                     01/16/2018 00:09:10
00013 suncat0242 pw.x -in pw.inp   Done                     01/16/2018 00:09:10
00014 suncat0242 pw.x -in pw.inp   Done                     01/16/2018 00:09:10
00015 suncat0242 pw.x -in pw.inp   Done                     01/16/2018 00:09:10
00016 suncat0241 pw.x -in pw.inp   Done                     01/16/2018 00:09:10
00017 suncat0241 pw.x -in pw.inp   Done                     01/16/2018 00:09:10
00018 suncat0241 pw.x -in pw.inp   Done                     01/16/2018 00:09:10
00019 suncat0241 pw.x -in pw.inp   Done                     01/16/2018 00:09:10
00020 suncat0241 pw.x -in pw.inp   Done                     01/16/2018 00:09:10
00021 suncat0241 pw.x -in pw.inp   Done                     01/16/2018 00:09:10
00022 suncat0241 pw.x -in pw.inp   Done                     01/16/2018 00:09:10
00023 suncat0241 pw.x -in pw.inp   Done                     01/16/2018 00:09:10
00024 suncat0240 pw.x -in pw.inp   Done                     01/16/2018 00:09:10
00025 suncat0240 pw.x -in pw.inp   Done                     01/16/2018 00:09:10
00026 suncat0240 pw.x -in pw.inp   Done                     01/16/2018 00:09:10
00027 suncat0240 pw.x -in pw.inp   Done                     01/16/2018 00:09:10
00028 suncat0240 pw.x -in pw.inp   Done                     01/16/2018 00:09:10
00029 suncat0240 pw.x -in pw.inp   Done                     01/16/2018 00:09:10
00030 suncat0240 pw.x -in pw.inp   Done                     01/16/2018 00:09:10
00031 suncat0240 pw.x -in pw.inp   Done                     01/16/2018 00:09:10