     Program PWSCF v.5.1rc2 (svn rev. 11289) starts on 22Apr2018 at 21:15: 7

     Current dimensions of program PWSCF are:
     Max number of different atomic species (ntypx) = 10
     Max number of k-points (npk) =  40000
     Max angular momentum in pseudopotentials (lmaxx) =  3
     Presently stress not available with electric field

     IMPORTANT: XC functional enforced from input :
     Exchange-correlation      = BEEF-VDW ( 1  4 27 13 2)
     Any further DFT definition will be discarded
     Please, verify this is what you really want

     Subspace diagonalization in iterative solution of the eigenvalue problem:
     a serial algorithm will be used

     bravais-lattice index     =            0
     lattice parameter (alat)  =       1.8897  a.u.
     unit-cell volume          =    6116.8020 (a.u.)^3
     number of atoms/cell      =           14
     number of atomic types    =            3
     number of electrons       =       139.00
     number of Kohn-Sham states=           79
     kinetic-energy cutoff     =      36.7493  Ry
     charge density cutoff     =     367.4932  Ry
     convergence threshold     =      1.0E-05
     mixing beta               =       0.3000
     number of iterations used =           10  plain     mixing
     Exchange-correlation      = BEEF-VDW ( 1  4 27 13 2)
     nstep                     =           50

     celldm(1)=   1.889726  celldm(2)=   0.000000  celldm(3)=   0.000000
     celldm(4)=   0.000000  celldm(5)=   0.000000  celldm(6)=   0.000000

     crystal axes: (cart. coord. in units of alat)
               a(1) = (   6.437465   0.000000   0.000000 )
               a(2) = (   3.218732   5.575008   0.000000 )
               a(3) = (   0.000000   0.000000  25.256168 )

     reciprocal axes: (cart. coord. in units 2 pi/alat)
               b(1) = (  0.155341 -0.089686  0.000000 )
               b(2) = (  0.000000  0.179372  0.000000 )
               b(3) = (  0.000000  0.000000  0.039594 )

     PseudoPot. # 1 for Sc read from file:
     /u/if/mamunm/psp/gbrv1.5pbe/Sc.UPF
     MD5 check sum: db30a2753ba66ef00f23801d899b7e7f
     Pseudo is Ultrasoft + core correction, Zval = 11.0
     Generated by new atomic code, or converted to UPF format
     Using radial grid of  849 points,  6 beta functions with:
                l(1) =   0
                l(2) =   0
                l(3) =   1
                l(4) =   1
                l(5) =   2
                l(6) =   2
     Q(r) pseudized with  6 coefficients,  rinner =    1.200   1.200   1.200
                                                       1.200   1.200

     PseudoPot. # 2 for S  read from file:
     /u/if/mamunm/psp/gbrv1.5pbe/S.UPF
     MD5 check sum: 88d86576ff6df21479756cfb9bdac1df
     Pseudo is Ultrasoft + core correction, Zval =  6.0
     Generated by new atomic code, or converted to UPF format
     Using radial grid of  907 points,  6 beta functions with:
                l(1) =   0
                l(2) =   0
                l(3) =   1
                l(4) =   1
                l(5) =   2
                l(6) =   2
     Q(r) pseudized with  8 coefficients,  rinner =    1.300   1.300   1.300
                                                       1.300   1.300

     PseudoPot. # 3 for H  read from file:
     /u/if/mamunm/psp/gbrv1.5pbe/H.UPF
     MD5 check sum: 761ae9a214b05c3daf00ab9f6b793d6f
     Pseudo is Ultrasoft, Zval =  1.0
     Generated by new atomic code, or converted to UPF format
     Using radial grid of  615 points,  2 beta functions with:
                l(1) =   0
                l(2) =   0
     Q(r) pseudized with  8 coefficients,  rinner =    0.700

     vdW kernel table read from file vdW_kernel_table
     MD5 check sum: 095c7af220d748ca6e76c0b4c6cfb241

     atomic species   valence    mass     pseudopotential
        Sc1           11.00    44.95591     Sc( 1.00)
        S1             6.00    32.06000     S ( 1.00)
        H1             1.00     1.00800     H ( 1.00)

     No symmetry found

   Cartesian axes

     site n.     atom                  positions (alat units)
         1           Sc1 tau(   1) = (   1.6093662   0.9291680  10.0000000  )
         2           Sc1 tau(   2) = (   4.8280986   0.9291680  10.0000000  )
         3           Sc1 tau(   3) = (   3.2187324   3.7166720  10.0000000  )
         4           Sc1 tau(   4) = (   6.4374648   3.7166720  10.0000000  )
         5           Sc1 tau(   5) = (   6.4374648   1.8583360  12.6280840  )
         6           Sc1 tau(   6) = (   3.2187324   1.8583360  12.6280840  )
         7           Sc1 tau(   7) = (   8.0468310   4.6458400  12.6280840  )
         8           Sc1 tau(   8) = (   4.8280986   4.6458400  12.6280840  )
         9           Sc1 tau(   9) = (   0.0000000   0.0000000  15.2561680  )
        10           Sc1 tau(  10) = (   3.2187324   0.0000000  15.2561680  )
        11           Sc1 tau(  11) = (   1.6093662   2.7875040  15.2561680  )
        12           Sc1 tau(  12) = (   4.8280986   2.7875040  15.2561680  )
        13           S1  tau(  13) = (   0.0000000   0.0000000  17.5936680  )
        14           H1  tau(  14) = (   0.0000000   0.0000000  18.8436680  )

     number of k points=    20  Fermi-Dirac smearing, width (Ry)=  0.0110
                       cart. coord. in units 2pi/alat
        k(    1) = (   0.0000000   0.0000000   0.0000000), wk =   0.0555556
        k(    2) = (   0.0000000   0.0298953   0.0000000), wk =   0.1111111
        k(    3) = (   0.0000000   0.0597906   0.0000000), wk =   0.1111111
        k(    4) = (   0.0000000  -0.0896860   0.0000000), wk =   0.0555556
        k(    5) = (   0.0258901  -0.0149477   0.0000000), wk =   0.1111111
        k(    6) = (   0.0258901   0.0149477   0.0000000), wk =   0.1111111
        k(    7) = (   0.0258901   0.0448430   0.0000000), wk =   0.1111111
        k(    8) = (   0.0258901  -0.1046336   0.0000000), wk =   0.1111111
        k(    9) = (   0.0258901  -0.0747383   0.0000000), wk =   0.1111111
        k(   10) = (   0.0258901  -0.0448430   0.0000000), wk =   0.1111111
        k(   11) = (   0.0517802  -0.0298953   0.0000000), wk =   0.1111111
        k(   12) = (   0.0517802   0.0000000   0.0000000), wk =   0.1111111
        k(   13) = (   0.0517802   0.0298953   0.0000000), wk =   0.1111111
        k(   14) = (   0.0517802  -0.1195813   0.0000000), wk =   0.1111111
        k(   15) = (   0.0517802  -0.0896860   0.0000000), wk =   0.1111111
        k(   16) = (   0.0517802  -0.0597906   0.0000000), wk =   0.1111111
        k(   17) = (  -0.0776703   0.0448430   0.0000000), wk =   0.0555556
        k(   18) = (  -0.0776703   0.0747383   0.0000000), wk =   0.1111111
        k(   19) = (  -0.0776703   0.1046336   0.0000000), wk =   0.1111111
        k(   20) = (  -0.0776703  -0.0448430   0.0000000), wk =   0.0555556

     Largest allocated arrays     est. size (Mb)     dimensions
     Largest temporary arrays     est. size (Mb)     dimensions

     Initial potential from superposition of free atoms
     Check: negative starting charge=   -0.000216

     starting charge  138.97113, renormalised to  139.00000

     negative rho (up, down):  2.163E-04 0.000E+00

     *
     * You are using vdW-DF for exchange-correlation in this calculation.
     * Please cite the following three references that made this development
     * possible:
     *
     *   M. Dion, H. Rydberg, E. Schroder, D. C. Langreth, and
     *   B. I. Lundqvist, Phys. Rev. Lett. 92, 246401 (2004).
     *
     *   T. Thonhauser, V. R. Cooper, S. Li, A. Puzder, P. Hyldgaard, and
     *   D. C. Langreth, Phys. Rev. B 76, 125112 (2007).
     *
     *   G. Roman-Perez and J. M. Soler, Phys. Rev. Lett. 103, 096102 (2009).
     *
     *
     * If you are using vdW-DF2, please also cite:
     *
     *   K. Lee, E. D. Murray, L. Kong, B. I. Lundqvist, and
     *   D. C. Langreth, Phys. Rev. B 82, 081101(R) (2010).
     *
     *
     * If you are calculating the stress with vdW-DF, please also cite:
     *
     *   R. Sabatini, E. Kucukbenli, B. Kolb, T. Thonhauser, and
     *   S. de Gironcoli, J. Phys.: Condens. Matter 24, 424209 (2012).
     *

     Carrying out vdW-DF run using the following parameters:

     Nqs =      20    Nr_points =    1024   r_max =   100.000
     q_mesh =
               0.00001000     0.04494208     0.09755937     0.15916263
               0.23128650     0.31572767     0.41458969     0.53033537
               0.66584808     0.82450364     1.01025438     1.22772762
               1.48234092     1.78043706     2.12944203     2.53805004
               3.01644009     3.57652955     4.23227104     5.00000000

     Gradients computed in reciprocal space

     Adding external electric field

     Computed dipole along edir(3) :
        Dipole               -0.0137 Ry au,         -0.0348 Debye
        Dipole field         -0.0000 Ry au

        Potential amp.        0.0026 Ry
        Total length         46.5341 bohr

     Starting wfc are  161 randomized atomic wfcs

     Self-consistent Calculation

     iteration #  1     ecut=    36.75 Ry     beta=0.30
     Davidson diagonalization with overlap
     ethr =  1.00E-02,  avg # of iterations =  2.0

[...]

     total energy              =   -1160.85255354 Ry
     Harris-Foulkes estimate   =   -1163.85804678 Ry
     estimated scf accuracy    <       6.33003232 Ry

[...]

     End of self-consistent calculation

          k = 0.0000 0.0000 0.0000 ( 23031 PWs)   bands (ev):

   -49.0637 -49.0283 -49.0275 -49.0136 -48.9688 -48.9679 -48.9661 -48.7845
   -48.5751 -48.5312 -48.5305 -48.5299 -27.7853 -27.7420 -27.7417 -27.7375
   -27.7368 -27.7363 -27.7236 -27.7233 -27.7218 -27.6908 -27.6360 -27.6357
   -27.6350 -27.5393 -27.5217 -27.4678 -27.4657 -27.4652 -27.4416 -27.4410
   -27.3876 -27.3876 -27.3153 -27.3151 -27.2960 -27.2920 -27.2917 -27.1403
   -27.1175 -27.1129 -27.1123 -27.0590 -27.0586 -27.0517 -26.9797 -26.9797
   -13.7129  -6.4093  -3.7732  -2.6757  -2.4360  -2.4360  -1.4157  -0.5561
    -0.5561  -0.5531  -0.4504  -0.4504  -0.4408  -0.2031  -0.2030  -0.1701
     0.3542   0.3633   0.3634   0.6116   0.6982   0.6983   1.0263   1.2808
     1.4287   1.4861   1.5591   1.5592   1.6326   1.8839   1.8840

[...]

          k =-0.0777 0.0448 0.0000 ( 23032 PWs)   bands (ev):

[...]

     the Fermi energy is     0.9360 ev

!    total energy              =   -1163.33475974 Ry
     Harris-Foulkes estimate   =   -1163.33477153 Ry
     estimated scf accuracy    <       0.00000385 Ry

     The total energy is the sum of the following terms:

     one-electron contribution =   -7273.83396682 Ry
     hartree contribution      =    3622.84543067 Ry
     xc contribution           =    -176.03520251 Ry
     ewald contribution        =    2663.81871068 Ry
     electric field correction =       0.00009372 Ry
     smearing contrib. (-TS)   =      -0.12982547 Ry

     convergence has been achieved in  18 iterations

 BEEF-vdW xc energy contributions
           1 :   -149.131020908870
           2 :    131.081252976483
           3 :   -102.916900528417
           4 :    75.4186266652452
           5 :   -56.1803185899682
           6 :    46.6406071269754
           7 :   -43.3321545880307
           8 :    41.5678406085092
           9 :   -38.6285419928357
          10 :    34.5961233832016
          11 :   -31.0185795195254
          12 :    28.9823649000299
          13 :   -28.1712388119135
          14 :    27.3884398189437
          15 :   -25.7842293381798
          16 :    23.5866358679430
          17 :   -21.7507496948573
          18 :    20.9773590883498
          19 :   -21.0629062850621
          20 :    21.1304403948653
          21 :   -20.4420765126463
          22 :    19.0144623953293
          23 :   -17.5230947691535
          24 :    16.6543416445317
          25 :   -16.5204810833311
          26 :    16.6307548216068
          27 :   -16.3829034049825
          28 :    15.5926786019603
          29 :   -14.5968782261728
          30 :    13.8876272895308
          31 :   -17.6487300135194
          32 :   -12.6000246124443

     Forces acting on atoms (Ry/au):

     negative rho (up, down):  9.753E-05 0.000E+00
     atom    1 type  1   force =    -0.00017611   -0.00009337    0.00112097
     atom    2 type  1   force =     0.00017474   -0.00007761    0.00103677
     atom    3 type  1   force =     0.00002366    0.00018718    0.00112619
     atom    4 type  1   force =    -0.00001222   -0.00001142    0.00049829
     atom    5 type  1   force =    -0.00002134    0.00200362    0.00308782
     atom    6 type  1   force =     0.00001937   -0.00002503    0.00473868
     atom    7 type  1   force =    -0.00175653   -0.00097432    0.00308120
     atom    8 type  1   force =     0.00175093   -0.00100142    0.00312988
     atom    9 type  1   force =    -0.00001222    0.00001527   -0.02261001
     atom   10 type  1   force =     0.00001269   -0.00256992   -0.00442137
     atom   11 type  1   force =    -0.00223384    0.00128455   -0.00443208
     atom   12 type  1   force =     0.00223155    0.00126513   -0.00432710
     atom   13 type  2   force =    -0.00000158   -0.00000139   -0.10080472
     atom   14 type  3   force =     0.00000089   -0.00000127    0.11877546

     Total force =     0.157665     Total SCF correction =     0.002956

     entering subroutine stress ...

     negative rho (up, down):  9.753E-05 0.000E+00
          total   stress  (Ry/bohr**3)                   (kbar)     P=    4.03
   0.00002300  -0.00000001   0.00000000          3.38     -0.00      0.00
  -0.00000001   0.00002300  -0.00000000         -0.00      3.38     -0.00
   0.00000000  -0.00000000   0.00003609          0.00     -0.00      5.31

     BFGS Geometry Optimization

     number of scf cycles    =   1
     number of bfgs steps    =   0

     energy   new            =   -1163.3347597384 Ry

     new trust radius        =       0.1187754624 bohr
     new conv_thr            =       0.0000099958 Ry

ATOMIC_POSITIONS (crystal)
Sc1      0.166666667   0.166666667   0.395942884    0   0   0
Sc1      0.666666667   0.166666667   0.395942884    0   0   0
Sc1      0.166666667   0.666666667   0.395942884    0   0   0
Sc1      0.666666667   0.666666667   0.395942884    0   0   0
Sc1      0.833333333   0.333333333   0.500000000    0   0   0
Sc1      0.333333333   0.333333333   0.500000000    0   0   0
Sc1      0.833333333   0.833333333   0.500000000    0   0   0
Sc1      0.333333333   0.833333333   0.500000000    0   0   0
Sc1     -0.000001729   0.000001449   0.603583382
Sc1      0.500123011  -0.000243935   0.603964477
Sc1     -0.000244592   0.500121929   0.603964253
Sc1      0.500123397   0.500120086   0.603966453
S1      -0.000000064  -0.000000132   0.694496665
H1       0.000000133  -0.000000121   0.748590256

     Writing output data file calc.save
     Check: negative starting charge=   -0.000216
     NEW-OLD atomic charge density approx. for the potential
     Check: negative starting charge=   -0.000216

[...]

     energy   old            =   -1163.3347597384 Ry
     energy   new            =   -1163.3421235916 Ry

     CASE: energy  _new < energy  _old

[...]

     Threshold (ethr) on eigenvalues was too large:
     Diagonalizing with lowered threshold

     Davidson diagonalization with overlap
     ethr =  6.60E-08,  avg # of iterations =  6.1

[...]

     Total force =     0.005125     Total SCF correction =     0.000252

[...]

     number of scf cycles    =  10
     number of bfgs steps    =   9

     energy   old            =   -1163.3463838035 Ry
     energy   new            =   -1163.3464572207 Ry

     CASE: energy  _new < energy  _old

     new trust radius        =       0.0054103753 bohr
     new conv_thr            =       0.0000001000 Ry

ATOMIC_POSITIONS (crystal)
Sc1      0.166666667   0.166666667   0.395942884    0   0   0
Sc1      0.666666667   0.166666667   0.395942884    0   0   0
Sc1      0.166666667   0.666666667   0.395942884    0   0   0
Sc1      0.666666667   0.666666667   0.395942884    0   0   0
Sc1      0.833333333   0.333333333   0.500000000    0   0   0
Sc1      0.333333333   0.333333333   0.500000000    0   0   0
Sc1      0.833333333   0.833333333   0.500000000    0   0   0
Sc1      0.333333333   0.833333333   0.500000000    0   0   0
Sc1      0.000002161   0.000001179   0.600910808
Sc1      0.501851514  -0.003707741   0.602230507
Sc1     -0.003707739   0.501851348   0.602230920
Sc1      0.501854365   0.501854472   0.602233053
S1      -0.000000684  -0.000000331   0.695898190
H1       0.000000504   0.000000436   0.749179710

     Writing output data file calc.save
     Check: negative starting charge=   -0.000210
     NEW-OLD atomic charge density approx. for the potential
     Check: negative starting charge=   -0.000209

[...]

     Self-consistent Calculation

[...]

     Threshold (ethr) on eigenvalues was too large:
     Diagonalizing with lowered threshold

     Davidson diagonalization with overlap
     ethr =  3.08E-08,  avg # of iterations =  6.2

[...]

     total energy              =   -1163.34647605 Ry
     Harris-Foulkes estimate   =   -1163.34647623 Ry
     estimated scf accuracy    <       0.00000027 Ry

     iteration # 10     ecut=    36.75 Ry     beta=0.30
     Davidson diagonalization with overlap
     ethr =  1.95E-10,  avg # of iterations =  7.4

[...]

     negative rho (up, down):  9.445E-05 0.000E+00

     Adding external electric field

     Computed dipole along edir(3) :
        Dipole                0.1982 Ry au,          0.5038 Debye
        Dipole field          0.0004 Ry au

        Potential amp.       -0.0379 Ry
        Total length         46.5341 bohr

     End of self-consistent calculation

[...]

          k = 0.0518-0.0598 0.0000 ( 23012 PWs)   bands (ev):

[...]

          k =-0.0777-0.0448 0.0000 ( 23032 PWs)   bands (ev):

   -49.0537 -49.0419 -49.0301 -49.0246 -49.0243 -49.0016 -49.0013 -48.8146
   -48.5547 -48.5322 -48.5172 -48.5099 -27.7744 -27.7594 -27.7430 -27.7057
   -27.6976 -27.6974 -27.6973 -27.6916 -27.6731 -27.6683 -27.6675 -27.6160
   -27.5966 -27.5929 -27.5920 -27.5669 -27.5659 -27.5602 -27.5477 -27.4610
   -27.4593 -27.4523 -27.4053 -27.3508 -27.2312 -27.2200 -27.1421 -27.1388
   -27.1238 -27.1122 -27.1016 -27.1004 -27.0943 -27.0918 -27.0097 -27.0030
   -13.2629  -6.1119  -2.7185  -2.4969  -2.3635  -2.3537  -1.4616  -1.4236
    -0.6260  -0.6251  -0.3091  -0.2484  -0.0745  -0.0707   0.6176   0.6305
     0.6349   0.6623   0.7410   0.7651   0.8752   0.9591   0.9617   1.0143
     1.0455   1.1578   1.1988   1.3502   1.3565   1.3692   1.4138

     the Fermi energy is     0.9080 ev

!    total energy              =   -1163.34647515 Ry
     Harris-Foulkes estimate   =   -1163.34647601 Ry
     estimated scf accuracy    <       0.00000008 Ry

     The total energy is the sum of the following terms:

     one-electron contribution =   -7322.53955788 Ry
     hartree contribution      =    3647.19223986 Ry
     xc contribution           =    -176.01399405 Ry
     ewald contribution        =    2688.14273820 Ry
     electric field correction =       0.00008071 Ry
     smearing contrib. (-TS)   =      -0.12798199 Ry

     convergence has been achieved in  10 iterations

 BEEF-vdW xc energy contributions
           1 :   -149.113802479697
           2 :    131.073263827916
           3 :   -102.914604901980
           4 :    75.4056078171416
           5 :   -56.1429326814891
           6 :    46.5858269471256
           7 :   -43.2881775174798
           8 :    41.5630406772782
           9 :   -38.6652245213829
          10 :    34.6442769479338
          11 :   -31.0392684020285
          12 :    28.9617815921327
          13 :   -28.1333586993329
          14 :    27.3730526634627
          15 :   -25.8102998805298
          16 :    23.6354632948908
          17 :   -21.7844349624492
          18 :    20.9745304224467
          19 :   -21.0379345442222
          20 :    21.1186785959876
          21 :   -20.4654260112701
          22 :    19.0596209192898
          23 :   -17.5529633299373
          24 :    16.6422331143668
          25 :   -16.4750524174088
          26 :    16.5876324801634
          27 :   -16.3706667701895
          28 :    15.6060810340779
          29 :   -14.6025867742681
          30 :    13.8562663559132
          31 :   -17.6485076014100
          32 :   -12.6003084731062

     Forces acting on atoms (Ry/au):

     negative rho (up, down):  9.445E-05 0.000E+00
     atom    1 type  1   force =     0.00010116    0.00005850    0.00072994
     atom    2 type  1   force =    -0.00010118    0.00005226    0.00073685
     atom    3 type  1   force =    -0.00000547   -0.00011381    0.00073530
     atom    4 type  1   force =     0.00000537    0.00000301   -0.00005877
     atom    5 type  1   force =    -0.00000205    0.00251154   -0.00100538
     atom    6 type  1   force =     0.00000207    0.00000148    0.00302221
     atom    7 type  1   force =    -0.00217381   -0.00125542   -0.00100964
     atom    8 type  1   force =     0.00217367   -0.00125765   -0.00100612
     atom    9 type  1   force =    -0.00001136   -0.00000538   -0.00032962
     atom   10 type  1   force =     0.00001142    0.00115118   -0.00032216
     atom   11 type  1   force =     0.00100201   -0.00056617   -0.00032634
     atom   12 type  1   force =    -0.00100192   -0.00057959   -0.00032006
     atom   13 type  2   force =    -0.00000032   -0.00000013    0.00109041
     atom   14 type  3   force =     0.00000041    0.00000019   -0.00193662

     Total force =     0.003058     Total SCF correction =     0.000310
     SCF correction compared to forces is large: reduce conv_thr to get better values

     entering subroutine stress ...

     negative rho (up, down):  9.445E-05 0.000E+00
          total   stress  (Ry/bohr**3)                   (kbar)     P=    2.49
   0.00002948   0.00000000   0.00000000          4.34      0.00      0.00
   0.00000000   0.00002948   0.00000000          0.00      4.34      0.00
   0.00000000   0.00000000  -0.00000823          0.00      0.00     -1.21

     bfgs converged in  11 scf cycles and  10 bfgs steps
     (criteria: energy <  1.0E+00, force <  1.9E-03)

     End of BFGS Geometry Optimization

     Final energy   =   -1163.3464751458 Ry
Begin final coordinates

ATOMIC_POSITIONS (crystal)
Sc1      0.166666667   0.166666667   0.395942884    0   0   0
Sc1      0.666666667   0.166666667   0.395942884    0   0   0
Sc1      0.166666667   0.666666667   0.395942884    0   0   0
Sc1      0.666666667   0.666666667   0.395942884    0   0   0
Sc1      0.833333333   0.333333333   0.500000000    0   0   0
Sc1      0.333333333   0.333333333   0.500000000    0   0   0
Sc1      0.833333333   0.833333333   0.500000000    0   0   0
Sc1      0.333333333   0.833333333   0.500000000    0   0   0
Sc1      0.000002161   0.000001179   0.600910808
Sc1      0.501851514  -0.003707741   0.602230507
Sc1     -0.003707739   0.501851348   0.602230920
Sc1      0.501854365   0.501854472   0.602233053
S1      -0.000000684  -0.000000331   0.695898190
H1       0.000000504   0.000000436   0.749179710
End final coordinates

     Writing output data file calc.save

     General routines

     Parallel routines

   This run was terminated on:  22:46: 9  22Apr2018

   JOB DONE.
Job  /afs/slac/g/suncat/bin/suncat-tsmpirun -x LD_LIBRARY_PATH -wdir /scratch/qe327671_Azl4T pw.x -npool 4 -in pw.inp

TID   HOST_NAME   COMMAND_LINE            STATUS            TERMINATION_TIME
00000 suncat0253 pw.x -npool 4 -i  Done                     04/22/2018 22:46:09
00001 suncat0253 pw.x -npool 4 -i  Done                     04/22/2018 22:46:09
00002 suncat0253 pw.x -npool 4 -i  Done                     04/22/2018 22:46:09
00003 suncat0253 pw.x -npool 4 -i  Done                     04/22/2018 22:46:09
00004 suncat0253 pw.x -npool 4 -i  Done                     04/22/2018 22:46:09
00005 suncat0253 pw.x -npool 4 -i  Done                     04/22/2018 22:46:09
00006 suncat0253 pw.x -npool 4 -i  Done                     04/22/2018 22:46:09
00007 suncat0253 pw.x -npool 4 -i  Done                     04/22/2018 22:46:09
00008 suncat0231 pw.x -npool 4 -i  Done                     04/22/2018 22:46:09
00009 suncat0231 pw.x -npool 4 -i  Done                     04/22/2018 22:46:09
00010 suncat0231 pw.x -npool 4 -i  Done                     04/22/2018 22:46:09
00011 suncat0231 pw.x -npool 4 -i  Done                     04/22/2018 22:46:09
00012 suncat0231 pw.x -npool 4 -i  Done                     04/22/2018 22:46:09
00013 suncat0231 pw.x -npool 4 -i  Done                     04/22/2018 22:46:09
00014 suncat0231 pw.x -npool 4 -i  Done                     04/22/2018 22:46:09
00015 suncat0231 pw.x -npool 4 -i  Done                     04/22/2018 22:46:09
00016 suncat0229 pw.x -npool 4 -i  Done                     04/22/2018 22:46:09
00017 suncat0229 pw.x -npool 4 -i  Done                     04/22/2018 22:46:09
00018 suncat0229 pw.x -npool 4 -i  Done                     04/22/2018 22:46:09
00019 suncat0229 pw.x -npool 4 -i  Done                     04/22/2018 22:46:09
00020 suncat0229 pw.x -npool 4 -i  Done                     04/22/2018 22:46:09
00021 suncat0229 pw.x -npool 4 -i  Done                     04/22/2018 22:46:09
00022 suncat0229 pw.x -npool 4 -i  Done                     04/22/2018 22:46:09
00023 suncat0229 pw.x -npool 4 -i  Done                     04/22/2018 22:46:09
00024 suncat0217 pw.x -npool 4 -i  Done                     04/22/2018 22:46:09
00025 suncat0217 pw.x -npool 4 -i  Done                     04/22/2018 22:46:09
00026 suncat0217 pw.x -npool 4 -i  Done                     04/22/2018 22:46:09
00027 suncat0217 pw.x -npool 4 -i  Done                     04/22/2018 22:46:09
00028 suncat0217 pw.x -npool 4 -i  Done                     04/22/2018 22:46:09
00029 suncat0217 pw.x -npool 4 -i  Done                     04/22/2018 22:46:09
00030 suncat0217 pw.x -npool 4 -i  Done                     04/22/2018 22:46:09
00031 suncat0217 pw.x -npool 4 -i  Done                     04/22/2018 22:46:09