     Program PWSCF v.5.1rc2 (svn rev. 11289) starts on 22Apr2018 at 21:14:26

     Current dimensions of program PWSCF are:
     Max number of different atomic species (ntypx) = 10
     Max number of k-points (npk) =  40000
     Max angular momentum in pseudopotentials (lmaxx) =  3
     Presently stress not available with electric field

     IMPORTANT: XC functional enforced from input :
     Exchange-correlation      = BEEF-VDW ( 1  4 27 13 2)
     Any further DFT definition will be discarded
     Please, verify this is what you really want

     Subspace diagonalization in iterative solution of the eigenvalue problem:
     a serial algorithm will be used

     bravais-lattice index     =            0
     lattice parameter (alat)  =       1.8897  a.u.
     unit-cell volume          =    6116.8020 (a.u.)^3
     number of atoms/cell      =           14
     number of atomic types    =            3
     number of electrons       =       138.00
     number of Kohn-Sham states=           79
     kinetic-energy cutoff     =      36.7493  Ry
     charge density cutoff     =     367.4932  Ry
     convergence threshold     =      1.0E-05
     mixing beta               =       0.3000
     number of iterations used =           10  plain     mixing
     Exchange-correlation      = BEEF-VDW ( 1  4 27 13 2)
     nstep                     =           50

     celldm(1)=   1.889726  celldm(2)=   0.000000  celldm(3)=   0.000000
     celldm(4)=   0.000000  celldm(5)=   0.000000  celldm(6)=   0.000000

     crystal axes: (cart. coord. in units of alat)
               a(1) = (   6.437465   0.000000   0.000000 )
               a(2) = (   3.218732   5.575008   0.000000 )
               a(3) = (   0.000000   0.000000  25.256168 )

     reciprocal axes: (cart. coord. in units 2 pi/alat)
               b(1) = (  0.155341 -0.089686  0.000000 )
               b(2) = (  0.000000  0.179372  0.000000 )
               b(3) = (  0.000000  0.000000  0.039594 )

     PseudoPot. # 1 for Sc read from file:
     /u/if/mamunm/psp/gbrv1.5pbe/Sc.UPF
     MD5 check sum: db30a2753ba66ef00f23801d899b7e7f
     Pseudo is Ultrasoft + core correction, Zval = 11.0
     Generated by new atomic code, or converted to UPF format
     Using radial grid of  849 points,  6 beta functions with:
                l(1) =   0
                l(2) =   0
                l(3) =   1
                l(4) =   1
                l(5) =   2
                l(6) =   2
     Q(r) pseudized with  6 coefficients,  rinner =    1.200   1.200   1.200
                                                       1.200   1.200

     PseudoPot. # 2 for N  read from file:
     /u/if/mamunm/psp/gbrv1.5pbe/N.UPF
     MD5 check sum: 95339753478d7afb44899504a8723017
     Pseudo is Ultrasoft + core correction, Zval =  5.0
     Generated by new atomic code, or converted to UPF format
     Using radial grid of  729 points,  4 beta functions with:
                l(1) =   0
                l(2) =   0
                l(3) =   1
                l(4) =   1
     Q(r) pseudized with  8 coefficients,  rinner =    0.900   0.900   0.900

     PseudoPot. # 3 for H  read from file:
     /u/if/mamunm/psp/gbrv1.5pbe/H.UPF
     MD5 check sum: 761ae9a214b05c3daf00ab9f6b793d6f
     Pseudo is Ultrasoft, Zval =  1.0
     Generated by new atomic code, or converted to UPF format
     Using radial grid of  615 points,  2 beta functions with:
                l(1) =   0
                l(2) =   0
     Q(r) pseudized with  8 coefficients,  rinner =    0.700

     vdW kernel table read from file vdW_kernel_table
     MD5 check sum: 095c7af220d748ca6e76c0b4c6cfb241

     atomic species   valence    mass     pseudopotential
        Sc1           11.00    44.95591     Sc( 1.00)
        N1             5.00    14.00700     N ( 1.00)
        H1             1.00     1.00800     H ( 1.00)

     No symmetry found

   Cartesian axes

     site n.     atom                  positions (alat units)
         1           Sc1 tau(   1) = (   1.6093662   0.9291680  10.0000000  )
         2           Sc1 tau(   2) = (   4.8280986   0.9291680  10.0000000  )
         3           Sc1 tau(   3) = (   3.2187324   3.7166720  10.0000000  )
         4           Sc1 tau(   4) = (   6.4374648   3.7166720  10.0000000  )
         5           Sc1 tau(   5) = (   6.4374648   1.8583360  12.6280840  )
         6           Sc1 tau(   6) = (   3.2187324   1.8583360  12.6280840  )
         7           Sc1 tau(   7) = (   8.0468310   4.6458400  12.6280840  )
         8           Sc1 tau(   8) = (   4.8280986   4.6458400  12.6280840  )
         9           Sc1 tau(   9) = (   0.0000000   0.0000000  15.2561680  )
        10           Sc1 tau(  10) = (   3.2187324   0.0000000  15.2561680  )
        11           Sc1 tau(  11) = (   1.6093662   2.7875040  15.2561680  )
        12           Sc1 tau(  12) = (   4.8280986   2.7875040  15.2561680  )
        13           N1  tau(  13) = (   3.2187324   1.8583360  16.8226680  )
        14           H1  tau(  14) = (   3.2187324   1.8583360  17.8726680  )

     number of k points=    20  Fermi-Dirac smearing, width (Ry)=  0.0110
                       cart. coord. in units 2pi/alat
        k(    1) = (   0.0000000   0.0000000   0.0000000), wk =   0.0555556
        k(    2) = (   0.0000000   0.0298953   0.0000000), wk =   0.1111111
        k(    3) = (   0.0000000   0.0597906   0.0000000), wk =   0.1111111
        k(    4) = (   0.0000000  -0.0896860   0.0000000), wk =   0.0555556
        k(    5) = (   0.0258901  -0.0149477   0.0000000), wk =   0.1111111
        k(    6) = (   0.0258901   0.0149477   0.0000000), wk =   0.1111111
        k(    7) = (   0.0258901   0.0448430   0.0000000), wk =   0.1111111
        k(    8) = (   0.0258901  -0.1046336   0.0000000), wk =   0.1111111
        k(    9) = (   0.0258901  -0.0747383   0.0000000), wk =   0.1111111
        k(   10) = (   0.0258901  -0.0448430   0.0000000), wk =   0.1111111
        k(   11) = (   0.0517802  -0.0298953   0.0000000), wk =   0.1111111
        k(   12) = (   0.0517802   0.0000000   0.0000000), wk =   0.1111111
        k(   13) = (   0.0517802   0.0298953   0.0000000), wk =   0.1111111
        k(   14) = (   0.0517802  -0.1195813   0.0000000), wk =   0.1111111
        k(   15) = (   0.0517802  -0.0896860   0.0000000), wk =   0.1111111
        k(   16) = (   0.0517802  -0.0597906   0.0000000), wk =   0.1111111
        k(   17) = (  -0.0776703   0.0448430   0.0000000), wk =   0.0555556
        k(   18) = (  -0.0776703   0.0747383   0.0000000), wk =   0.1111111
        k(   19) = (  -0.0776703   0.1046336   0.0000000), wk =   0.1111111
        k(   20) = (  -0.0776703  -0.0448430   0.0000000), wk =   0.0555556

     Largest allocated arrays     est. size (Mb)     dimensions
     Largest temporary arrays     est. size (Mb)     dimensions

     Initial potential from superposition of free atoms
     Check: negative starting charge=   -0.000254

     starting charge  137.97115, renormalised to  138.00000

     negative rho (up, down):  2.536E-04 0.000E+00

     *
     * You are using vdW-DF for exchange-correlation in this calculation.
     * Please cite the following three references that made this development
     * possible:
     *
     *   M. Dion, H. Rydberg, E. Schroder, D. C. Langreth, and
     *   B. I. Lundqvist, Phys. Rev. Lett. 92, 246401 (2004).
     *
     *   T. Thonhauser, V. R. Cooper, S. Li, A. Puzder, P. Hyldgaard, and
     *   D. C. Langreth, Phys. Rev. B 76, 125112 (2007).
     *
     *   G. Roman-Perez and J. M. Soler, Phys. Rev. Lett. 103, 096102 (2009).
     *
     *
     * If you are using vdW-DF2, please also cite:
     *
     *   K. Lee, E. D. Murray, L. Kong, B. I. Lundqvist, and
     *   D. C. Langreth, Phys. Rev. B 82, 081101(R) (2010).
     *
     *
     * If you are calculating the stress with vdW-DF, please also cite:
     *
     *   R. Sabatini, E. Kucukbenli, B. Kolb, T. Thonhauser, and
     *   S. de Gironcoli, J. Phys.: Condens. Matter 24, 424209 (2012).
     *

     Carrying out vdW-DF run using the following parameters:

     Nqs =      20    Nr_points =    1024   r_max =   100.000
     q_mesh =
               0.00001000     0.04494208     0.09755937     0.15916263
               0.23128650     0.31572767     0.41458969     0.53033537
               0.66584808     0.82450364     1.01025438     1.22772762
               1.48234092     1.78043706     2.12944203     2.53805004
               3.01644009     3.57652955     4.23227104     5.00000000

     Gradients computed in reciprocal space

     Adding external electric field

     Computed dipole along edir(3) :
        Dipole               -0.0102 Ry au,         -0.0259 Debye
        Dipole field         -0.0000 Ry au

        Potential amp.        0.0020 Ry
        Total length         46.5341 bohr

     Starting wfc are  161 randomized atomic wfcs

     Self-consistent Calculation

     iteration #  1     ecut=    36.75 Ry     beta=0.30
     Davidson diagonalization with overlap
     ethr =  1.00E-02,  avg # of iterations =  2.0

[...]

     total energy              =   -1156.70926164 Ry
     Harris-Foulkes estimate   =   -1159.97485616 Ry
     estimated scf accuracy    <       6.98034951 Ry

[...]

     End of self-consistent calculation

          k = 0.0000 0.0000 0.0000 ( 23031 PWs)   bands (ev):

   -49.4407 -49.3406 -49.2983 -49.2926 -49.2919 -49.2803 -49.2489 -49.2479
   -48.8894 -48.8494 -48.8491 -48.8260 -28.1793 -28.0862 -28.0858 -28.0530
   -28.0526 -28.0512 -28.0287 -28.0140 -27.9673 -27.9616 -27.9609 -27.8987
   -27.8979 -27.8961 -27.7981 -27.7978 -27.7936 -27.7934 -27.7925 -27.7655
   -27.7147 -27.7146 -27.6686 -27.6680 -27.6100 -27.6032 -27.6031 -27.4546
   -27.4358 -27.4355 -27.4057 -27.3793 -27.3641 -27.3639 -27.2922 -27.2922
   -13.6071  -4.9678  -4.0059  -2.8331  -1.6379  -1.6379  -1.6145  -0.8886
    -0.8414  -0.8412  -0.7126  -0.7126  -0.6989  -0.3224  -0.3224  -0.2636
     0.0469   0.0618   0.0618   0.3501   0.4062   0.4063   0.6999   1.0419
     1.1660   1.2330   1.2331   1.2571   1.5431   1.5432   1.7243

[...]

          k =-0.0777 0.0448 0.0000 ( 23032 PWs)   bands (ev):

[...]

     the Fermi energy is     0.6088 ev

!    total energy              =   -1159.29618027 Ry
     Harris-Foulkes estimate   =   -1159.29618155 Ry
     estimated scf accuracy    <       0.00000472 Ry

     The total energy is the sum of the following terms:

     one-electron contribution =   -7391.62579862 Ry
     hartree contribution      =    3680.80933032 Ry
     xc contribution           =    -172.65597961 Ry
     ewald contribution        =    2724.30364776 Ry
     electric field correction =       0.00000555 Ry
     smearing contrib. (-TS)   =      -0.12738567 Ry

     convergence has been achieved in  18 iterations

 BEEF-vdW xc energy contributions
           1 :   -146.288555644268
           2 :    128.656247288848
           3 :   -101.187357459611
           4 :    74.4835573429827
           5 :   -55.9641115310307
           6 :    46.9128478883199
           7 :   -43.7899752978232
           8 :    41.9634114341648
           9 :   -38.8650195158193
          10 :    34.7221275133151
          11 :   -31.1363010735417
          12 :    29.1520392573723
          13 :   -28.3802215403142
          14 :    27.5841553235187
          15 :   -25.9196407519720
          16 :    23.6368535814983
          17 :   -21.7059023187175
          18 :    20.8352552434959
          19 :   -20.8323593503408
          20 :    20.8406434269660
          21 :   -20.1455139868227
          22 :    18.7696352541575
          23 :   -17.3614678989104
          24 :    16.5580899099226
          25 :   -16.4366573251843
          26 :    16.5157896778831
          27 :   -16.2408176409514
          28 :    15.4754004830441
          29 :   -14.5689030780641
          30 :    13.9819753598987
          31 :   -17.3027446975378
          32 :   -12.3737955520458

     Forces acting on atoms (Ry/au):

     negative rho (up, down):  5.164E-04 0.000E+00
     atom    1 type  1   force =    -0.00005601   -0.00001563    0.00226367
     atom    2 type  1   force =     0.00006091   -0.00001466    0.00232808
     atom    3 type  1   force =     0.00000269    0.00004601    0.00222215
     atom    4 type  1   force =    -0.00000140   -0.00001275    0.00200841
     atom    5 type  1   force =     0.00005190   -0.00311514    0.00370646
     atom    6 type  1   force =    -0.00005781   -0.00002105   -0.01299562
     atom    7 type  1   force =     0.00267720    0.00154781    0.00377062
     atom    8 type  1   force =    -0.00268353    0.00159913    0.00369128
     atom    9 type  1   force =    -0.00001156    0.00002247   -0.00905181
     atom   10 type  1   force =     0.00001230    0.04441661    0.04238934
     atom   11 type  1   force =     0.03846382   -0.02221870    0.04236083
     atom   12 type  1   force =    -0.03845984   -0.02222961    0.04234814
     atom   13 type  2   force =     0.00000065   -0.00000516   -0.08374077
     atom   14 type  3   force =     0.00000068    0.00000067   -0.04130078

     Total force =     0.141789     Total SCF correction =     0.002327

     entering subroutine stress ...

     negative rho (up, down):  5.164E-04 0.000E+00
          total   stress  (Ry/bohr**3)                   (kbar)     P=   -5.20
  -0.00000624  -0.00000000   0.00000001         -0.92     -0.00      0.00
  -0.00000000  -0.00000623   0.00000001         -0.00     -0.92      0.00
   0.00000001   0.00000001  -0.00009353          0.00      0.00    -13.76

     BFGS Geometry Optimization

     number of scf cycles    =   1
     number of bfgs steps    =   0

     energy   new            =   -1159.2961802704 Ry

     new trust radius        =       0.0837407744 bohr
     new conv_thr            =       0.0000099958 Ry

ATOMIC_POSITIONS (crystal)
Sc1      0.166666667   0.166666667   0.395942884    0   0   0
Sc1      0.666666667   0.166666667   0.395942884    0   0   0
Sc1      0.166666667   0.666666667   0.395942884    0   0   0
Sc1      0.666666667   0.666666667   0.395942884    0   0   0
Sc1      0.833333333   0.333333333   0.500000000    0   0   0
Sc1      0.333333333   0.333333333   0.500000000    0   0   0
Sc1      0.833333333   0.833333333   0.500000000    0   0   0
Sc1      0.333333333   0.833333333   0.500000000    0   0   0
Sc1     -0.000002017   0.000002132   0.603867459
Sc1      0.497893009   0.004216004   0.604945274
Sc1      0.004216326   0.497891011   0.604944676
Sc1      0.497893508   0.497889975   0.604944410
N1       0.333333632   0.333332844   0.664326999
H1       0.333333358   0.333333397   0.706790221

     Writing output data file calc.save
     Check: negative starting charge=   -0.000254
     NEW-OLD atomic charge density approx. for the potential
     Check: negative starting charge=   -0.000253

[...]

     energy   old            =   -1159.2961802704 Ry
     energy   new            =   -1159.3143852654 Ry

     CASE: energy  _new < energy  _old

     WARNING: bfgs curvature condition failed, Theta= 0.998
     new trust radius        =       0.0921148518 bohr
     new conv_thr            =       0.0000001000 Ry

[...]

     iteration #  1     ecut=    36.75 Ry     beta=0.30
     Davidson diagonalization with overlap
     c_bands:  1 eigenvalues not converged
     ethr =  1.00E-06,  avg # of iterations = 15.8

[...]

     iteration #  1     ecut=    36.75 Ry     beta=0.30
     Davidson diagonalization with overlap
     c_bands:  1 eigenvalues not converged
     c_bands:  1 eigenvalues not converged
     ethr =  1.00E-06,  avg # of iterations = 16.8

[...]

     Threshold (ethr) on eigenvalues was too large:
     Diagonalizing with lowered threshold

     Davidson diagonalization with overlap
     ethr =  2.83E-08,  avg # of iterations = 10.6

[...]

     Total force =     0.003474     Total SCF correction =     0.000507
     SCF correction compared to forces is large: reduce conv_thr to get better values

[...]

     Total force =     0.003783     Total SCF correction =     0.000258

[...]

     number of scf cycles    =  21
     number of bfgs steps    =  20

     energy   old            =   -1159.3695533858 Ry
     energy   new            =   -1159.3695805011 Ry

     CASE: energy  _new < energy  _old

     new trust radius        =       0.0160216695 bohr
     new conv_thr            =       0.0000001000 Ry

ATOMIC_POSITIONS (crystal)
Sc1      0.166666667   0.166666667   0.395942884    0   0   0
Sc1      0.666666667   0.166666667   0.395942884    0   0   0
Sc1      0.166666667   0.666666667   0.395942884    0   0   0
Sc1      0.666666667   0.666666667   0.395942884    0   0   0
Sc1      0.833333333   0.333333333   0.500000000    0   0   0
Sc1      0.333333333   0.333333333   0.500000000    0   0   0
Sc1      0.833333333   0.833333333   0.500000000    0   0   0
Sc1      0.333333333   0.833333333   0.500000000    0   0   0
Sc1      0.000001070   0.000007533   0.598061498
Sc1      0.498467925   0.003053465   0.607799554
Sc1      0.003062240   0.498462688   0.607799237
Sc1      0.498472586   0.498470809   0.607798803
N1       0.333329081   0.333339736   0.649585002
H1       0.333333555   0.333333022   0.690379507

     Writing output data file calc.save
     Check: negative starting charge=   -0.000262
     NEW-OLD atomic charge density approx. for the potential
     Check: negative starting charge=   -0.000262

[...]

     Self-consistent Calculation

[...]

     Threshold (ethr) on eigenvalues was too large:
     Diagonalizing with lowered threshold

     Davidson diagonalization with overlap
     ethr =  8.11E-08,  avg # of iterations =  4.0

[...]

     total energy              =   -1159.36961262 Ry
     Harris-Foulkes estimate   =   -1159.36961261 Ry
     estimated scf accuracy    <       0.00000018 Ry

     iteration # 12     ecut=    36.75 Ry     beta=0.30
     Davidson diagonalization with overlap
     ethr =  1.28E-10,  avg # of iterations =  5.2

[...]

     negative rho (up, down):  4.854E-04 0.000E+00

     Adding external electric field

     Computed dipole along edir(3) :
        Dipole                0.1663 Ry au,          0.4228 Debye
        Dipole field          0.0003 Ry au

        Potential amp.       -0.0318 Ry
        Total length         46.5341 bohr

     End of self-consistent calculation

[...]

          k = 0.0518-0.0598 0.0000 ( 23012 PWs)   bands (ev):

[...]

          k =-0.0777-0.0448 0.0000 ( 23032 PWs)   bands (ev):

   -49.1793 -49.1684 -49.1510 -49.1453 -49.1363 -49.1015 -49.0855 -49.0764
   -48.7821 -48.7366 -48.7233 -48.7144 -27.8803 -27.8542 -27.8499 -27.8431
   -27.8411 -27.8268 -27.8165 -27.8099 -27.7975 -27.7755 -27.7581 -27.7525
   -27.7455 -27.7382 -27.7156 -27.7125 -27.6980 -27.6887 -27.6549 -27.6159
   -27.6135 -27.6052 -27.5677 -27.5148 -27.4506 -27.4128 -27.3656 -27.3634
   -27.3292 -27.3095 -27.3071 -27.3037 -27.2969 -27.2960 -27.2296 -27.1948
   -14.6527  -5.7740  -3.0959  -2.6808  -2.6113  -2.4367  -1.5547  -1.3686
    -0.7408  -0.7332  -0.4220  -0.3099  -0.1895  -0.1665   0.4742   0.4758
     0.5221   0.5278   0.5708   0.6586   0.8059   0.8266   0.8520   0.8832
     0.9496   1.0368   1.1149   1.2300   1.2570   1.2778   1.2987

     the Fermi energy is     0.7498 ev

!    total energy              =   -1159.36961265 Ry
     Harris-Foulkes estimate   =   -1159.36961261 Ry
     estimated scf accuracy    <       0.00000002 Ry

     The total energy is the sum of the following terms:

     one-electron contribution =   -7442.22403425 Ry
     hartree contribution      =    3706.60265172 Ry
     xc contribution           =    -172.86532508 Ry
     ewald contribution        =    2749.24743055 Ry
     electric field correction =       0.00005684 Ry
     smearing contrib. (-TS)   =      -0.13039243 Ry

     convergence has been achieved in  12 iterations

 BEEF-vdW xc energy contributions
           1 :   -146.502198576674
           2 :    128.931878021967
           3 :   -101.513420574617
           4 :    74.7870112134230
           5 :   -56.1682551032980
           6 :    46.9792131378854
           7 :   -43.7274352974708
           8 :    41.8146259315725
           9 :   -38.6892330349767
          10 :    34.5760591293722
          11 :   -31.0500616984590
          12 :    29.1155867390738
          13 :   -28.3581326718662
          14 :    27.5491385332382
          15 :   -25.8740730302300
          16 :    23.6016450583990
          17 :   -21.6890453395269
          18 :    20.8146618658510
          19 :   -20.7719408661619
          20 :    20.7232185161999
          21 :   -19.9925007696449
          22 :    18.6308560669873
          23 :   -17.2815115397763
          24 :    16.5433114158007
          25 :   -16.4493214816194
          26 :    16.5023763809526
          27 :   -16.1723860982187
          28 :    15.3645239920252
          29 :   -14.4488351423681
          30 :    13.8715481199025
          31 :   -17.3155442131983
          32 :   -12.3992952293320

     Forces acting on atoms (Ry/au):

     negative rho (up, down):  4.854E-04 0.000E+00
     atom    1 type  1   force =     0.00106652    0.00061559    0.00204779
     atom    2 type  1   force =    -0.00106647    0.00061530    0.00204804
     atom    3 type  1   force =    -0.00000025   -0.00123156    0.00204754
     atom    4 type  1   force =     0.00000019    0.00000001    0.00326172
     atom    5 type  1   force =    -0.00000115   -0.00070456    0.00088471
     atom    6 type  1   force =     0.00000086   -0.00000245   -0.01187923
     atom    7 type  1   force =     0.00061074    0.00035421    0.00088956
     atom    8 type  1   force =    -0.00061054    0.00035276    0.00088784
     atom    9 type  1   force =    -0.00000903   -0.00001173    0.00002714
     atom   10 type  1   force =     0.00001024    0.00063196    0.00032396
     atom   11 type  1   force =     0.00053567   -0.00029543    0.00031717
     atom   12 type  1   force =    -0.00054193   -0.00031097    0.00032205
     atom   13 type  2   force =     0.00000469   -0.00001366   -0.00111007
     atom   14 type  3   force =     0.00000048    0.00000053   -0.00006823

     Total force =     0.001647     Total SCF correction =     0.000169
     SCF correction compared to forces is large: reduce conv_thr to get better values

     entering subroutine stress ...

     negative rho (up, down):  4.854E-04 0.000E+00
          total   stress  (Ry/bohr**3)                   (kbar)     P=    3.13
   0.00003810  -0.00000000   0.00000000          5.60     -0.00      0.00
  -0.00000000   0.00003810  -0.00000000         -0.00      5.60     -0.00
   0.00000000  -0.00000000  -0.00001231          0.00     -0.00     -1.81

     bfgs converged in  22 scf cycles and  21 bfgs steps
     (criteria: energy <  1.0E+00, force <  1.9E-03)

     End of BFGS Geometry Optimization

     Final energy   =   -1159.3696126521 Ry
Begin final coordinates

ATOMIC_POSITIONS (crystal)
Sc1      0.166666667   0.166666667   0.395942884    0   0   0
Sc1      0.666666667   0.166666667   0.395942884    0   0   0
Sc1      0.166666667   0.666666667   0.395942884    0   0   0
Sc1      0.666666667   0.666666667   0.395942884    0   0   0
Sc1      0.833333333   0.333333333   0.500000000    0   0   0
Sc1      0.333333333   0.333333333   0.500000000    0   0   0
Sc1      0.833333333   0.833333333   0.500000000    0   0   0
Sc1      0.333333333   0.833333333   0.500000000    0   0   0
Sc1      0.000001070   0.000007533   0.598061498
Sc1      0.498467925   0.003053465   0.607799554
Sc1      0.003062240   0.498462688   0.607799237
Sc1      0.498472586   0.498470809   0.607798803
N1       0.333329081   0.333339736   0.649585002
H1       0.333333555   0.333333022   0.690379507
End final coordinates

     Writing output data file calc.save

     General routines

     Parallel routines

   This run was terminated on:   0:33:43  23Apr2018

   JOB DONE.
Job  /afs/slac/g/suncat/bin/suncat-tsmpirun -x LD_LIBRARY_PATH -wdir /scratch/qe322409_cGX7V pw.x -npool 4 -in pw.inp

TID   HOST_NAME   COMMAND_LINE            STATUS            TERMINATION_TIME
00000 suncat0186 pw.x -npool 4 -i  Done                     04/23/2018 00:33:43
00001 suncat0186 pw.x -npool 4 -i  Done                     04/23/2018 00:33:43
00002 suncat0186 pw.x -npool 4 -i  Done                     04/23/2018 00:33:43
00003 suncat0186 pw.x -npool 4 -i  Done                     04/23/2018 00:33:43
00004 suncat0186 pw.x -npool 4 -i  Done                     04/23/2018 00:33:43
00005 suncat0186 pw.x -npool 4 -i  Done                     04/23/2018 00:33:43
00006 suncat0186 pw.x -npool 4 -i  Done                     04/23/2018 00:33:43
00007 suncat0186 pw.x -npool 4 -i  Done                     04/23/2018 00:33:43
00008 suncat0178 pw.x -npool 4 -i  Done                     04/23/2018 00:33:43
00009 suncat0178 pw.x -npool 4 -i  Done                     04/23/2018 00:33:43
00010 suncat0178 pw.x -npool 4 -i  Done                     04/23/2018 00:33:43
00011 suncat0178 pw.x -npool 4 -i  Done                     04/23/2018 00:33:43
00012 suncat0178 pw.x -npool 4 -i  Done                     04/23/2018 00:33:43
00013 suncat0178 pw.x -npool 4 -i  Done                     04/23/2018 00:33:43
00014 suncat0178 pw.x -npool 4 -i  Done                     04/23/2018 00:33:43
00015 suncat0178 pw.x -npool 4 -i  Done                     04/23/2018 00:33:43
00016 suncat0169 pw.x -npool 4 -i  Done                     04/23/2018 00:33:43
00017 suncat0169 pw.x -npool 4 -i  Done                     04/23/2018 00:33:43
00018 suncat0169 pw.x -npool 4 -i  Done                     04/23/2018 00:33:43
00019 suncat0169 pw.x -npool 4 -i  Done                     04/23/2018 00:33:43
00020 suncat0169 pw.x -npool 4 -i  Done                     04/23/2018 00:33:43
00021 suncat0169 pw.x -npool 4 -i  Done                     04/23/2018 00:33:43
00022 suncat0169 pw.x -npool 4 -i  Done                     04/23/2018 00:33:43
00023 suncat0169 pw.x -npool 4 -i  Done                     04/23/2018 00:33:43
00024 suncat0218 pw.x -npool 4 -i  Done                     04/23/2018 00:33:43
00025 suncat0218 pw.x -npool 4 -i  Done                     04/23/2018 00:33:43
00026 suncat0218 pw.x -npool 4 -i  Done                     04/23/2018 00:33:43
00027 suncat0218 pw.x -npool 4 -i  Done                     04/23/2018 00:33:43
00028 suncat0218 pw.x -npool 4 -i  Done                     04/23/2018 00:33:43
00029 suncat0218 pw.x -npool 4 -i  Done                     04/23/2018 00:33:43
00030 suncat0218 pw.x -npool 4 -i  Done                     04/23/2018 00:33:43
00031 suncat0218 pw.x -npool 4 -i  Done                     04/23/2018 00:33:43