     Program PWSCF v.5.1rc2 (svn rev. 11289) starts on 17Jan2018 at 23:46: 6

     Current dimensions of program PWSCF are:
     Max number of different atomic species (ntypx) = 10
     Max number of k-points (npk) =  40000
     Max angular momentum in pseudopotentials (lmaxx) =  3
     Presently stress not available with electric field

     IMPORTANT: XC functional enforced from input :
     Exchange-correlation      = BEEF-VDW ( 1  4 27 13 2)
     Any further DFT definition will be discarded
     Please, verify this is what you really want

     Subspace diagonalization in iterative solution of the eigenvalue problem:
     a serial algorithm will be used

     bravais-lattice index     =            0
     lattice parameter (alat)  =       1.8897  a.u.
     unit-cell volume          =    4198.3539 (a.u.)^3
     number of atoms/cell      =           13
     number of atomic types    =            2
     number of electrons       =       197.00
     number of Kohn-Sham states=          108
     kinetic-energy cutoff     =      36.7493  Ry
     charge density cutoff     =     367.4932  Ry
     convergence threshold     =      1.0E-05
     mixing beta               =       0.3000
     number of iterations used =           10  plain     mixing
     Exchange-correlation      = BEEF-VDW ( 1  4 27 13 2)
     nstep                     =           50

     celldm(1)=   1.889726  celldm(2)=   0.000000  celldm(3)=   0.000000
     celldm(4)=   0.000000  celldm(5)=   0.000000  celldm(6)=   0.000000

     crystal axes: (cart. coord. in units of alat)
               a(1) = (   5.422927   0.000000   0.000000 )
               a(2) = (   2.711463   4.696392   0.000000 )
               a(3) = (   0.000000   0.000000  24.427801 )

     reciprocal axes: (cart. coord. in units 2 pi/alat)
               b(1) = (  0.184402 -0.106465  0.000000 )
               b(2) = (  0.000000  0.212929  0.000000 )
               b(3) = (  0.000000  0.000000  0.040937 )

     PseudoPot. # 1 for Ru read from file:
     /afs/slac.stanford.edu/u/if/mamunm/psp/gbrv1.5pbe/Ru.UPF
     MD5 check sum: 7158a806dd851261a58e6920c40ebe78
     Pseudo is Ultrasoft + core correction, Zval = 16.0
     Generated by new atomic code, or converted to UPF format
     Using radial grid of  967 points,  6 beta functions with:
                l(1) =   0
                l(2) =   0
                l(3) =   1
                l(4) =   1
                l(5) =   2
                l(6) =   2
     Q(r) pseudized with  8 coefficients,  rinner =    1.300   1.300   1.300
                                                       1.300   1.300

     PseudoPot. # 2 for N  read from file:
     /afs/slac.stanford.edu/u/if/mamunm/psp/gbrv1.5pbe/N.UPF
     MD5 check sum: 95339753478d7afb44899504a8723017
     Pseudo is Ultrasoft + core correction, Zval =  5.0
     Generated by new atomic code, or converted to UPF format
     Using radial grid of  729 points,  4 beta functions with:
                l(1) =   0
                l(2) =   0
                l(3) =   1
                l(4) =   1
     Q(r) pseudized with  8 coefficients,  rinner =    0.900   0.900   0.900

     vdW kernel table read from file vdW_kernel_table
     MD5 check sum: 095c7af220d748ca6e76c0b4c6cfb241

     atomic species   valence    mass     pseudopotential
        Ru1           16.00   101.07000     Ru( 1.00)
        N1             5.00    14.00700     N ( 1.00)

     No symmetry found

   Cartesian axes

     site n.     atom                  positions (alat units)
         1           Ru1 tau(   1) = (   1.3557316   0.7827320  10.0000000  )
         2           Ru1 tau(   2) = (   4.0671949   0.7827320  10.0000000  )
         3           Ru1 tau(   3) = (   2.7114633   3.1309281  10.0000000  )
         4           Ru1 tau(   4) = (   5.4229265   3.1309281  10.0000000  )
         5           Ru1 tau(   5) = (   5.4229265   1.5654640  12.2139005  )
         6           Ru1 tau(   6) = (   2.7114633   1.5654640  12.2139005  )
         7           Ru1 tau(   7) = (   6.7786581   3.9136601  12.2139005  )
         8           Ru1 tau(   8) = (   4.0671949   3.9136601  12.2139005  )
         9           Ru1 tau(   9) = (   0.0000000   0.0000000  14.4278010  )
        10           Ru1 tau(  10) = (   2.7114633   0.0000000  14.4278010  )
        11           Ru1 tau(  11) = (   1.3557316   2.3481961  14.4278010  )
        12           Ru1 tau(  12) = (   4.0671949   2.3481961  14.4278010  )
        13           N1  tau(  13) = (   1.3557316   0.7827320  16.5978010  )

     number of k points=    20  Fermi-Dirac smearing, width (Ry)=  0.0110
                       cart. coord. in units 2pi/alat
        k(    1) = (   0.0000000   0.0000000   0.0000000), wk =   0.0555556
        k(    2) = (   0.0000000   0.0354882   0.0000000), wk =   0.1111111
        k(    3) = (   0.0000000   0.0709765   0.0000000), wk =   0.1111111
        k(    4) = (   0.0000000  -0.1064647   0.0000000), wk =   0.0555556
        k(    5) = (   0.0307337  -0.0177441   0.0000000), wk =   0.1111111
        k(    6) = (   0.0307337   0.0177441   0.0000000), wk =   0.1111111
        k(    7) = (   0.0307337   0.0532324   0.0000000), wk =   0.1111111
        k(    8) = (   0.0307337  -0.1242088   0.0000000), wk =   0.1111111
        k(    9) = (   0.0307337  -0.0887206   0.0000000), wk =   0.1111111
        k(   10) = (   0.0307337  -0.0532324   0.0000000), wk =   0.1111111
        k(   11) = (   0.0614674  -0.0354882   0.0000000), wk =   0.1111111
        k(   12) = (   0.0614674   0.0000000   0.0000000), wk =   0.1111111
        k(   13) = (   0.0614674   0.0354882   0.0000000), wk =   0.1111111
        k(   14) = (   0.0614674  -0.1419529   0.0000000), wk =   0.1111111
        k(   15) = (   0.0614674  -0.1064647   0.0000000), wk =   0.1111111
        k(   16) = (   0.0614674  -0.0709765   0.0000000), wk =   0.1111111
        k(   17) = (  -0.0922011   0.0532324   0.0000000), wk =   0.0555556
        k(   18) = (  -0.0922011   0.0887206   0.0000000), wk =   0.1111111
        k(   19) = (  -0.0922011   0.1242088   0.0000000), wk =   0.1111111
        k(   20) = (  -0.0922011  -0.0532324   0.0000000), wk =   0.0555556

     Largest allocated arrays     est. size (Mb)     dimensions
     Largest temporary arrays     est. size (Mb)     dimensions

     Initial potential from superposition of free atoms
     Check: negative starting charge=   -0.873646

     starting charge  184.99980, renormalised to  197.00000

     negative rho (up, down):  9.303E-01 0.000E+00

     *
     * You are using vdW-DF for exchange-correlation in this calculation.
     * Please cite the following three references that made this development
     * possible:
     *
     *   M. Dion, H. Rydberg, E. Schroder, D. C. Langreth, and
     *   B. I. Lundqvist, Phys. Rev. Lett. 92, 246401 (2004).
     *
     *   T. Thonhauser, V. R. Cooper, S. Li, A. Puzder, P. Hyldgaard, and
     *   D. C. Langreth, Phys. Rev. B 76, 125112 (2007).
     *
     *   G. Roman-Perez and J. M. Soler, Phys. Rev. Lett. 103, 096102 (2009).
     *
     *
     * If you are using vdW-DF2, please also cite:
     *
     *   K. Lee, E. D. Murray, L. Kong, B. I. Lundqvist, and
     *   D. C. Langreth, Phys. Rev. B 82, 081101(R) (2010).
     *
     *
     * If you are calculating the stress with vdW-DF, please also cite:
     *
     *   R. Sabatini, E. Kucukbenli, B. Kolb, T. Thonhauser, and
     *   S. de Gironcoli, J. Phys.: Condens. Matter 24, 424209 (2012).
     *

     Carrying out vdW-DF run using the following parameters:

     Nqs =      20    Nr_points =    1024   r_max =   100.000
     q_mesh =
               0.00001000     0.04494208     0.09755937     0.15916263
               0.23128650     0.31572767     0.41458969     0.53033537
               0.66584808     0.82450364     1.01025438     1.22772762
               1.48234092     1.78043706     2.12944203     2.53805004
               3.01644009     3.57652955     4.23227104     5.00000000

     Gradients computed in reciprocal space

     Adding external electric field

     Computed dipole along edir(3) :
        Dipole               -2.6868 Ry au,         -6.8291 Debye
        Dipole field         -0.0080 Ry au

        Potential amp.        0.7239 Ry
        Total length         45.0078 bohr

     Starting wfc are  160 randomized atomic wfcs

     Self-consistent Calculation

     iteration #  1     ecut=    36.75 Ry     beta=0.30
     Davidson diagonalization with overlap
     ethr =  1.00E-02,  avg # of iterations =  5.2

[...]

     total energy              =   -2205.68723615 Ry
     Harris-Foulkes estimate   =   -2361.59142253 Ry
     estimated scf accuracy    <     326.22732482 Ry

[...]

     iteration #  3     ecut=    36.75 Ry     beta=0.30
     Davidson diagonalization with overlap
     c_bands:  2 eigenvalues not converged
     c_bands:  3 eigenvalues not converged
     c_bands:  4 eigenvalues not converged
     c_bands:  2 eigenvalues not converged
     c_bands:  1 eigenvalues not converged
     c_bands:  2 eigenvalues not converged
     c_bands:  1 eigenvalues not converged
     ethr =  1.00E-02,  avg # of iterations = 18.4

[...]

     End of self-consistent calculation

          k = 0.0000 0.0000 0.0000 ( 15761 PWs)   bands (ev):

   -71.5594 -71.4676 -71.4673 -71.3840 -71.1731 -71.0912 -71.0907 -71.0729
   -70.9901 -70.9786 -70.9745 -70.9742 -41.8470 -41.8068 -41.8067 -41.6693
   -41.5801 -41.5798 -41.5649 -41.3881 -41.3676 -41.3675 -41.2717 -41.2604
   -41.2602 -41.2152 -41.2151 -41.1873 -41.0797 -41.0797 -41.0558 -40.9838
   -40.9834 -40.9333 -40.8910 -40.8794 -40.8792 -40.8689 -40.8687 -40.8671
   -40.8618 -40.7950 -40.7949 -40.7936 -40.7027 -40.7026 -40.6319 -40.6319
   -10.0191  -4.9861  -3.7842  -3.7716  -3.7716  -3.6728  -3.5240  -3.4143
    -3.4037  -3.4036  -3.1753  -3.1545  -3.1544  -2.8125  -2.8000  -2.8000
    -1.6792  -1.6487  -1.6486  -1.0409  -1.0376  -1.0376  -0.8039  -0.6528
    -0.6528  -0.4186  -0.2767  -0.2767  -0.2250  -0.2250  -0.2212  -0.0097
    -0.0097   0.3753   0.3754   0.4321   0.9073   1.1067   1.1068   1.3981
     1.4389   1.4389   1.5461   1.5461   1.6651   1.8604   1.8604   2.1418
     2.1418   2.2610   2.7767   2.7768   2.7769   2.7960   2.9256   2.9256
     3.0053   3.0054   3.2853   3.3126

[...]

          k =-0.0922 0.0532 0.0000 ( 15808 PWs)   bands (ev):

[...]

     the Fermi energy is     1.7302 ev

!    total energy              =   -2361.26401428 Ry
     Harris-Foulkes estimate   =   -2361.26400113 Ry
     estimated scf accuracy    <       0.00000679 Ry

     The total energy is the sum of the following terms:

     one-electron contribution =  -22130.99651104 Ry
     hartree contribution      =   11063.53170000 Ry
     xc contribution           =    -326.78092196 Ry
     ewald contribution        =    9033.08176965 Ry
     electric field correction =       0.00071808 Ry
     smearing contrib. (-TS)   =      -0.10076900 Ry

     convergence has been achieved in  27 iterations

 BEEF-vdW xc energy contributions
           1 :   -283.272118367651
           2 :    259.775161739998
           3 :   -219.208279577214
           4 :    171.714608418039
[...]

[...]

     Program PWSCF v.5.1rc2 (svn rev. 11289) starts on 18Jan2018 at  2: 4:19

[...]

     Total force =     0.098703     Total SCF correction =     0.020254
     SCF correction compared to forces is large: reduce conv_thr to get better values

[...]

   This run was terminated on:   2:23: 5  18Jan2018

[...]

   This run was terminated on:   2:42:33  18Jan2018

[...]

     Program PWSCF v.5.1rc2 (svn rev. 11289) starts on 18Jan2018 at  2:42:39

     Current dimensions of program PWSCF are:
     Max number of different atomic species (ntypx) = 10
     Max number of k-points (npk) =  40000
     Max angular momentum in pseudopotentials (lmaxx) =  3
     Presently stress not available with electric field

     IMPORTANT: XC functional enforced from input :
     Exchange-correlation      = BEEF-VDW ( 1  4 27 13 2)
     Any further DFT definition will be discarded
     Please, verify this is what you really want

     Subspace diagonalization in iterative solution of the eigenvalue problem:
     a serial algorithm will be used

     bravais-lattice index     =            0
     lattice parameter (alat)  =       1.8897  a.u.
     unit-cell volume          =    4198.3539 (a.u.)^3
     number of atoms/cell      =           13
     number of atomic types    =            2
     number of electrons       =       197.00
     number of Kohn-Sham states=          108
     kinetic-energy cutoff     =      36.7493  Ry
     charge density cutoff     =     367.4932  Ry
     convergence threshold     =      1.0E-05
     mixing beta               =       0.3000
     number of iterations used =           10  plain     mixing
     Exchange-correlation      = BEEF-VDW ( 1  4 27 13 2)
     nstep                     =           50

     celldm(1)=   1.889726  celldm(2)=   0.000000  celldm(3)=   0.000000
     celldm(4)=   0.000000  celldm(5)=   0.000000  celldm(6)=   0.000000

     crystal axes: (cart. coord. in units of alat)
               a(1) = (   5.422927   0.000000   0.000000 )
               a(2) = (   2.711463   4.696392   0.000000 )
               a(3) = (   0.000000   0.000000  24.427801 )

     reciprocal axes: (cart. coord. in units 2 pi/alat)
               b(1) = (  0.184402 -0.106465  0.000000 )
               b(2) = (  0.000000  0.212929  0.000000 )
               b(3) = (  0.000000  0.000000  0.040937 )

     PseudoPot. # 1 for Ru read from file:
     /afs/slac.stanford.edu/u/if/mamunm/psp/gbrv1.5pbe/Ru.UPF
     MD5 check sum: 7158a806dd851261a58e6920c40ebe78
     Pseudo is Ultrasoft + core correction, Zval = 16.0
     Generated by new atomic code, or converted to UPF format
     Using radial grid of  967 points,  6 beta functions with:
                l(1) =   0
                l(2) =   0
                l(3) =   1
                l(4) =   1
                l(5) =   2
                l(6) =   2
     Q(r) pseudized with  8 coefficients,  rinner =    1.300   1.300   1.300
                                                       1.300   1.300

     PseudoPot. # 2 for N  read from file:
     /afs/slac.stanford.edu/u/if/mamunm/psp/gbrv1.5pbe/N.UPF
     MD5 check sum: 95339753478d7afb44899504a8723017
     Pseudo is Ultrasoft + core correction, Zval =  5.0
     Generated by new atomic code, or converted to UPF format
     Using radial grid of  729 points,  4 beta functions with:
                l(1) =   0
                l(2) =   0
                l(3) =   1
                l(4) =   1
     Q(r) pseudized with  8 coefficients,  rinner =    0.900   0.900   0.900

     vdW kernel table read from file vdW_kernel_table
     MD5 check sum: 095c7af220d748ca6e76c0b4c6cfb241

     atomic species   valence    mass     pseudopotential
        Ru1           16.00   101.07000     Ru( 1.00)
        N1             5.00    14.00700     N ( 1.00)

     No symmetry found

   Cartesian axes

     site n.     atom                  positions (alat units)
         1           Ru1 tau(   1) = (   1.3557316   0.7827320  10.0000000  )
         2           Ru1 tau(   2) = (   4.0671949   0.7827320  10.0000000  )
         3           Ru1 tau(   3) = (   2.7114633   3.1309281  10.0000000  )
         4           Ru1 tau(   4) = (   5.4229265   3.1309281  10.0000000  )
         5           Ru1 tau(   5) = (   5.4229265   1.5654640  12.2139005  )
         6           Ru1 tau(   6) = (   2.7114633   1.5654640  12.2139005  )
         7           Ru1 tau(   7) = (   6.7786581   3.9136601  12.2139005  )
         8           Ru1 tau(   8) = (   4.0671949   3.9136601  12.2139005  )
         9           Ru1 tau(   9) = (   8.0838338   4.6672309  14.4246343  )
        10           Ru1 tau(  10) = (   5.4734399   4.6672067  14.4246676  )
        11           Ru1 tau(  11) = (   6.7786521   2.4065649  14.4245658  )
        12           Ru1 tau(  12) = (   4.0671738   2.3481682  14.2981537  )
        13           N1  tau(  13) = (   1.3557349   0.7827440  15.4831201  )

     number of k points=    20  Fermi-Dirac smearing, width (Ry)=  0.0110
                       cart. coord. in units 2pi/alat
        k(    1) = (   0.0000000   0.0000000   0.0000000), wk =   0.0555556
        k(    2) = (   0.0000000   0.0354882   0.0000000), wk =   0.1111111
        k(    3) = (   0.0000000   0.0709765   0.0000000), wk =   0.1111111
        k(    4) = (   0.0000000  -0.1064647   0.0000000), wk =   0.0555556
        k(    5) = (   0.0307337  -0.0177441   0.0000000), wk =   0.1111111
        k(    6) = (   0.0307337   0.0177441   0.0000000), wk =   0.1111111
        k(    7) = (   0.0307337   0.0532324   0.0000000), wk =   0.1111111
        k(    8) = (   0.0307337  -0.1242088   0.0000000), wk =   0.1111111
        k(    9) = (   0.0307337  -0.0887206   0.0000000), wk =   0.1111111
        k(   10) = (   0.0307337  -0.0532324   0.0000000), wk =   0.1111111
        k(   11) = (   0.0614674  -0.0354882   0.0000000), wk =   0.1111111
        k(   12) = (   0.0614674   0.0000000   0.0000000), wk =   0.1111111
        k(   13) = (   0.0614674   0.0354882   0.0000000), wk =   0.1111111
        k(   14) = (   0.0614674  -0.1419529   0.0000000), wk =   0.1111111
        k(   15) = (   0.0614674  -0.1064647   0.0000000), wk =   0.1111111
        k(   16) = (   0.0614674  -0.0709765   0.0000000), wk =   0.1111111
        k(   17) = (  -0.0922011   0.0532324   0.0000000), wk =   0.0555556
        k(   18) = (  -0.0922011   0.0887206   0.0000000), wk =   0.1111111
        k(   19) = (  -0.0922011   0.1242088   0.0000000), wk =   0.1111111
        k(   20) = (  -0.0922011  -0.0532324   0.0000000), wk =   0.0555556

     Largest allocated arrays     est. size (Mb)     dimensions
     Largest temporary arrays     est. size (Mb)     dimensions

     Initial potential from superposition of free atoms
     Check: negative starting charge=   -0.880389

     starting charge  184.99980, renormalised to  197.00000

[...]

     *
     * You are using vdW-DF for exchange-correlation in this calculation.
     * Please cite the following three references that made this development
     * possible:
     *
     *   M. Dion, H. Rydberg, E. Schroder, D. C. Langreth, and
     *   B. I. Lundqvist, Phys. Rev. Lett. 92, 246401 (2004).
     *
     *   T. Thonhauser, V. R. Cooper, S. Li, A. Puzder, P. Hyldgaard, and
     *   D. C. Langreth, Phys. Rev. B 76, 125112 (2007).
     *
     *   G. Roman-Perez and J. M. Soler, Phys. Rev. Lett. 103, 096102 (2009).
     *
     *
     * If you are using vdW-DF2, please also cite:
     *
     *   K. Lee, E. D. Murray, L. Kong, B. I. Lundqvist, and
     *   D. C. Langreth, Phys. Rev. B 82, 081101(R) (2010).
     *
     *
     * If you are calculating the stress with vdW-DF, please also cite:
     *
     *   R. Sabatini, E. Kucukbenli, B. Kolb, T. Thonhauser, and
     *   S. de Gironcoli, J. Phys.: Condens. Matter 24, 424209 (2012).
     *

     Carrying out vdW-DF run using the following parameters:

     Nqs =      20    Nr_points =    1024   r_max =   100.000
     q_mesh =
               0.00001000     0.04494208     0.09755937     0.15916263
               0.23128650     0.31572767     0.41458969     0.53033537
               0.66584808     0.82450364     1.01025438     1.22772762
               1.48234092     1.78043706     2.12944203     2.53805004
               3.01644009     3.57652955     4.23227104     5.00000000

     Gradients computed in reciprocal space

[...]

     Starting wfc are  160 randomized atomic wfcs

     Self-consistent Calculation

[...]

     iteration # 19     ecut=    36.75 Ry     beta=0.30
     Davidson diagonalization with overlap
     c_bands:  1 eigenvalues not converged
     ethr =  2.25E-06,  avg # of iterations =  6.7

[...]

     total energy              =   -2361.56617971 Ry
     Harris-Foulkes estimate   =   -2361.56618141 Ry
     estimated scf accuracy    <       0.00004365 Ry

     iteration # 26     ecut=    36.75 Ry     beta=0.30
     Davidson diagonalization with overlap
     ethr =  2.22E-08,  avg # of iterations =  5.3

[...]

     negative rho (up, down):  9.182E-01 0.000E+00

     Adding external electric field

     Computed dipole along edir(3) :
        Dipole               -0.1103 Ry au,         -0.2802 Debye
        Dipole field         -0.0003 Ry au

        Potential amp.        0.0297 Ry
        Total length         45.0078 bohr

     End of self-consistent calculation

[...]

          k = 0.0615-0.0710 0.0000 ( 15803 PWs)   bands (ev):

[...]

          k =-0.0922-0.0532 0.0000 ( 15808 PWs)   bands (ev):

   -70.9313 -70.9109 -70.8767 -70.8031 -70.7593 -70.7439 -70.7237 -70.4358
   -70.4278 -70.4021 -70.3872 -70.3731 -41.2584 -41.1345 -41.0929 -41.0496
   -41.0282 -40.9875 -40.9747 -40.9118 -40.8993 -40.8603 -40.8186 -40.7946
   -40.7454 -40.6937 -40.6550 -40.6080 -40.5699 -40.5672 -40.5407 -40.5392
   -40.5113 -40.5011 -40.4329 -40.3825 -40.3789 -40.3606 -40.3457 -40.3332
   -40.3161 -40.2953 -40.2905 -40.2679 -40.2570 -40.1997 -40.1199 -40.1129
   -12.4625  -3.7071  -2.9844  -2.8210  -2.7928  -2.6558  -2.3522  -2.3411
    -2.2139  -2.0253  -2.0018  -1.9215  -1.8038  -1.6773  -1.6502  -1.6187
    -1.4582  -1.3419  -1.2083  -0.9964  -0.9144  -0.8010  -0.7461  -0.7362
    -0.5969  -0.4652  -0.2102  -0.1515   0.0640   0.0806   0.3691   0.3702
     0.3864   0.4919   0.5552   0.6423   0.6548   0.6854   0.6877   0.7470
     0.8004   1.1781   1.3293   1.3592   1.3939   1.5010   1.6110   1.7335
     1.8200   1.9482   1.9692   2.1821   2.2295   2.2522   2.4898   2.5405
     2.5989   2.7497   3.0489   3.1193

     the Fermi energy is     2.3557 ev

!    total energy              =   -2361.56617947 Ry
     Harris-Foulkes estimate   =   -2361.56618076 Ry
     estimated scf accuracy    <       0.00000205 Ry

     The total energy is the sum of the following terms:

     one-electron contribution =  -22610.56157860 Ry
     hartree contribution      =   11306.31881829 Ry
     xc contribution           =    -327.50277706 Ry
     ewald contribution        =    9270.26732739 Ry
     electric field correction =       0.00003638 Ry
     smearing contrib. (-TS)   =      -0.08800588 Ry

     convergence has been achieved in  26 iterations

 BEEF-vdW xc energy contributions
           1 :   -284.020147911738
           2 :    260.789979420905
           3 :   -220.525147685499
           4 :    173.113992475609
           5 :   -128.639905585691
           6 :    94.3474757362465
           7 :   -72.9985984023591
           8 :    62.9736877266463
           9 :   -59.8301314396098
          10 :    58.5272475629091
          11 :   -55.3910495162555
          12 :    49.1270849531516
          13 :   -40.6788892526450
          14 :    32.2212446064831
          15 :   -25.8673642040690
          16 :    22.6671352637425
          17 :   -22.2550600305553
          18 :    23.1901797068161
          19 :   -23.7416868365810
          20 :    22.7100883930158
          21 :   -19.9050921194323
          22 :    16.0981836022441
          23 :   -12.5320703830417
          24 :    10.2646404756994
          25 :   -9.67297883475197
          26 :    10.3342770918293
          27 :   -11.3046811013400
          28 :    11.6247015016360
          29 :   -10.7840718248701
          30 :    8.92268080083807
          31 :   -29.5472360797467
          32 :   -22.4190263674777

     Forces acting on atoms (Ry/au):

     negative rho (up, down):  9.182E-01 0.000E+00
     atom    1 type  1   force =    -0.00001479    0.00000353    0.02670106
     atom    2 type  1   force =     0.00001202    0.00130414    0.03339087
     atom    3 type  1   force =     0.00111834   -0.00064864    0.03340172
     atom    4 type  1   force =    -0.00113344   -0.00067108    0.03338790
     atom    5 type  1   force =    -0.00170312    0.00099880   -0.02535040
     atom    6 type  1   force =     0.00170995    0.00094311   -0.02528784
     atom    7 type  1   force =    -0.00004669    0.00001327   -0.04934831
     atom    8 type  1   force =     0.00004832   -0.00195637   -0.02530959
     atom    9 type  1   force =     0.00022033    0.00014422   -0.00042183
     atom   10 type  1   force =    -0.00021250    0.00013063   -0.00040690
     atom   11 type  1   force =    -0.00000828   -0.00027755   -0.00039584
     atom   12 type  1   force =     0.00001038   -0.00000476    0.00028837
     atom   13 type  2   force =    -0.00000052    0.00002070   -0.00064920

     Total force =     0.091838     Total SCF correction =     0.003575

     entering subroutine stress ...

     negative rho (up, down):  9.182E-01 0.000E+00
          total   stress  (Ry/bohr**3)                   (kbar)     P=  -19.59
  -0.00013252  -0.00000001  -0.00000000        -19.50     -0.00     -0.00
  -0.00000001  -0.00013252  -0.00000001         -0.00    -19.49     -0.00
  -0.00000000  -0.00000001  -0.00013441         -0.00     -0.00    -19.77

 !ASE

     Writing output data file calc.save

     General routines

     Parallel routines

   This run was terminated on:   3: 1:57  18Jan2018

   JOB DONE.
Job  /afs/slac/g/suncat/bin/suncat-tsmpirun -x LD_LIBRARY_PATH -wdir /scratch/qe842477_k6XMN pw.x -in pw.inp

TID   HOST_NAME   COMMAND_LINE            STATUS            TERMINATION_TIME
00000 suncat0153 pw.x -in pw.inp   Done                     01/18/2018 03:01:57
00001 suncat0153 pw.x -in pw.inp   Done                     01/18/2018 03:01:57
00002 suncat0153 pw.x -in pw.inp   Done                     01/18/2018 03:01:57
00003 suncat0153 pw.x -in pw.inp   Done                     01/18/2018 03:01:57
00004 suncat0153 pw.x -in pw.inp   Done                     01/18/2018 03:01:57
00005 suncat0153 pw.x -in pw.inp   Done                     01/18/2018 03:01:57
00006 suncat0153 pw.x -in pw.inp   Done                     01/18/2018 03:01:57
00007 suncat0153 pw.x -in pw.inp   Done                     01/18/2018 03:01:57
00008 suncat0146 pw.x -in pw.inp   Done                     01/18/2018 03:01:57
00009 suncat0146 pw.x -in pw.inp   Done                     01/18/2018 03:01:57
00010 suncat0146 pw.x -in pw.inp   Done                     01/18/2018 03:01:57
00011 suncat0146 pw.x -in pw.inp   Done                     01/18/2018 03:01:57
00012 suncat0146 pw.x -in pw.inp   Done                     01/18/2018 03:01:57
00013 suncat0146 pw.x -in pw.inp   Done                     01/18/2018 03:01:57
00014 suncat0146 pw.x -in pw.inp   Done                     01/18/2018 03:01:57
00015 suncat0146 pw.x -in pw.inp   Done                     01/18/2018 03:01:57
00016 suncat0115 pw.x -in pw.inp   Done                     01/18/2018 03:01:57
00017 suncat0115 pw.x -in pw.inp   Done                     01/18/2018 03:01:57
00018 suncat0115 pw.x -in pw.inp   Done                     01/18/2018 03:01:57
00019 suncat0115 pw.x -in pw.inp   Done                     01/18/2018 03:01:57
00020 suncat0115 pw.x -in pw.inp   Done                     01/18/2018 03:01:57
00021 suncat0115 pw.x -in pw.inp   Done                     01/18/2018 03:01:57
00022 suncat0115 pw.x -in pw.inp   Done                     01/18/2018 03:01:57
00023 suncat0115 pw.x -in pw.inp   Done                     01/18/2018 03:01:57
00024 suncat0114 pw.x -in pw.inp   Done                     01/18/2018 03:01:57
00025 suncat0114 pw.x -in pw.inp   Done                     01/18/2018 03:01:57
00026 suncat0114 pw.x -in pw.inp   Done                     01/18/2018 03:01:57
00027 suncat0114 pw.x -in pw.inp   Done                     01/18/2018 03:01:57
00028 suncat0114 pw.x -in pw.inp   Done                     01/18/2018 03:01:57
00029 suncat0114 pw.x -in pw.inp   Done                     01/18/2018 03:01:57
00030 suncat0114 pw.x -in pw.inp   Done                     01/18/2018 03:01:57
00031 suncat0114 pw.x -in pw.inp   Done                     01/18/2018 03:01:57