     Program PWSCF v.5.1rc2 (svn rev. 11289) starts on  4May2018 at 11:34: 0

     Current dimensions of program PWSCF are:
     Max number of different atomic species (ntypx) = 10
     Max number of k-points (npk) =  40000
     Max angular momentum in pseudopotentials (lmaxx) =  3
     Presently stress not available with electric field

     IMPORTANT: XC functional enforced from input :
     Exchange-correlation      = BEEF-VDW ( 1  4 27 13 2)
     Any further DFT definition will be discarded
     Please, verify this is what you really want

     Subspace diagonalization in iterative solution of the eigenvalue problem:
     a serial algorithm will be used

     bravais-lattice index     =            0
     lattice parameter (alat)  =       1.8897  a.u.
     unit-cell volume          =    5174.6160 (a.u.)^3
     number of atoms/cell      =           13
     number of atomic types    =            2
     number of electrons       =       234.00
     number of Kohn-Sham states=          127
     kinetic-energy cutoff     =      36.7493  Ry
     charge density cutoff     =     367.4932  Ry
     convergence threshold     =      1.0E-05
     mixing beta               =       0.3000
     number of iterations used =           10  plain     mixing
     Exchange-correlation      = BEEF-VDW ( 1  4 27 13 2)
     nstep                     =           50

     celldm(1)=   1.889726  celldm(2)=   0.000000  celldm(3)=   0.000000
     celldm(4)=   0.000000  celldm(5)=   0.000000  celldm(6)=   0.000000

     crystal axes: (cart. coord. in units of alat)
               a(1) = (   5.966546   0.000000   0.000000 )
               a(2) = (   2.983273   5.167181   0.000000 )
               a(3) = (   0.000000   0.000000  24.871665 )

     reciprocal axes: (cart. coord. in units 2 pi/alat)
               b(1) = (  0.167601 -0.096765  0.000000 )
               b(2) = (  0.000000  0.193529  0.000000 )
               b(3) = (  0.000000  0.000000  0.040206 )

     PseudoPot. # 1 for Ag read from file:
     /u/if/mamunm/psp/gbrv1.5pbe/Ag.UPF
     MD5 check sum: d66d668201baa78d5eb5b04ef7011058
     Pseudo is Ultrasoft + core correction, Zval = 19.0
     Generated by new atomic code, or converted to UPF format
     Using radial grid of  887 points,  6 beta functions with:
                l(1) =   0
                l(2) =   0
                l(3) =   1
                l(4) =   1
                l(5) =   2
                l(6) =   2
     Q(r) pseudized with  6 coefficients,  rinner =    1.300   1.300   1.300
                                                       1.300   1.300

     PseudoPot. # 2 for S  read from file:
     /u/if/mamunm/psp/gbrv1.5pbe/S.UPF
     MD5 check sum: 88d86576ff6df21479756cfb9bdac1df
     Pseudo is Ultrasoft + core correction, Zval =  6.0
     Generated by new atomic code, or converted to UPF format
     Using radial grid of  907 points,  6 beta functions with:
                l(1) =   0
                l(2) =   0
                l(3) =   1
                l(4) =   1
                l(5) =   2
                l(6) =   2
     Q(r) pseudized with  8 coefficients,  rinner =    1.300   1.300   1.300
                                                       1.300   1.300

     vdW kernel table read from file vdW_kernel_table
     MD5 check sum: 095c7af220d748ca6e76c0b4c6cfb241

     atomic species   valence    mass     pseudopotential
        Ag1           19.00   107.86820     Ag( 1.00)
        S1             6.00    32.06000     S ( 1.00)

     No symmetry found

   Cartesian axes

     site n.     atom                  positions (alat units)
         1           Ag1 tau(   1) = (   1.4916366   0.8611968  10.0000000  )
         2           Ag1 tau(   2) = (   4.4749098   0.8611968  10.0000000  )
         3           Ag1 tau(   3) = (   2.9832732   3.4447871  10.0000000  )
         4           Ag1 tau(   4) = (   5.9665464   3.4447871  10.0000000  )
         5           Ag1 tau(   5) = (   5.9665464   1.7223936  12.4358324  )
         6           Ag1 tau(   6) = (   2.9832732   1.7223936  12.4358324  )
         7           Ag1 tau(   7) = (   7.4581830   4.3059839  12.4358324  )
         8           Ag1 tau(   8) = (   4.4749098   4.3059839  12.4358324  )
         9           Ag1 tau(   9) = (   0.0000000   0.0000000  14.8716647  )
        10           Ag1 tau(  10) = (   2.9832732   0.0000000  14.8716647  )
        11           Ag1 tau(  11) = (   1.4916366   2.5835904  14.8716647  )
        12           Ag1 tau(  12) = (   4.4749098   2.5835904  14.8716647  )
        13           S1  tau(  13) = (   2.9832732   1.7223936  16.4966647  )

     number of k points=    20  Fermi-Dirac smearing, width (Ry)=  0.0110
                       cart. coord. in units 2pi/alat
        k(    1) = (   0.0000000   0.0000000   0.0000000), wk =   0.0555556
        k(    2) = (   0.0000000   0.0322549   0.0000000), wk =   0.1111111
        k(    3) = (   0.0000000   0.0645097   0.0000000), wk =   0.1111111
        k(    4) = (   0.0000000  -0.0967646   0.0000000), wk =   0.0555556
        k(    5) = (   0.0279335  -0.0161274   0.0000000), wk =   0.1111111
        k(    6) = (   0.0279335   0.0161274   0.0000000), wk =   0.1111111
        k(    7) = (   0.0279335   0.0483823   0.0000000), wk =   0.1111111
        k(    8) = (   0.0279335  -0.1128920   0.0000000), wk =   0.1111111
        k(    9) = (   0.0279335  -0.0806371   0.0000000), wk =   0.1111111
        k(   10) = (   0.0279335  -0.0483823   0.0000000), wk =   0.1111111
        k(   11) = (   0.0558670  -0.0322549   0.0000000), wk =   0.1111111
        k(   12) = (   0.0558670   0.0000000   0.0000000), wk =   0.1111111
        k(   13) = (   0.0558670   0.0322549   0.0000000), wk =   0.1111111
        k(   14) = (   0.0558670  -0.1290194   0.0000000), wk =   0.1111111
        k(   15) = (   0.0558670  -0.0967646   0.0000000), wk =   0.1111111
        k(   16) = (   0.0558670  -0.0645097   0.0000000), wk =   0.1111111
        k(   17) = (  -0.0838006   0.0483823   0.0000000), wk =   0.0555556
        k(   18) = (  -0.0838006   0.0806371   0.0000000), wk =   0.1111111
        k(   19) = (  -0.0838006   0.1128920   0.0000000), wk =   0.1111111
        k(   20) = (  -0.0838006  -0.0483823   0.0000000), wk =   0.0555556

     Largest allocated arrays     est. size (Mb)     dimensions
     Largest temporary arrays     est. size (Mb)     dimensions

     Initial potential from superposition of free atoms
     Check: negative starting charge=   -0.002111

     starting charge  227.99940, renormalised to  234.00000

     negative rho (up, down):  2.167E-03 0.000E+00

     *
     * You are using vdW-DF for exchange-correlation in this calculation.
     * Please cite the following three references that made this development
     * possible:
     *
     *   M. Dion, H. Rydberg, E. Schroder, D. C. Langreth, and
     *   B. I. Lundqvist, Phys. Rev. Lett. 92, 246401 (2004).
     *
     *   T. Thonhauser, V. R. Cooper, S. Li, A. Puzder, P. Hyldgaard, and
     *   D. C. Langreth, Phys. Rev. B 76, 125112 (2007).
     *
     *   G. Roman-Perez and J. M. Soler, Phys. Rev. Lett. 103, 096102 (2009).
     *
     *
     * If you are using vdW-DF2, please also cite:
     *
     *   K. Lee, E. D. Murray, L. Kong, B. I. Lundqvist, and
     *   D. C. Langreth, Phys. Rev. B 82, 081101(R) (2010).
     *
     *
     * If you are calculating the stress with vdW-DF, please also cite:
     *
     *   R. Sabatini, E. Kucukbenli, B. Kolb, T. Thonhauser, and
     *   S. de Gironcoli, J. Phys.: Condens. Matter 24, 424209 (2012).
     *

     Carrying out vdW-DF run using the following parameters:

     Nqs =      20    Nr_points =    1024   r_max =   100.000
     q_mesh =
               0.00001000     0.04494208     0.09755937     0.15916263
               0.23128650     0.31572767     0.41458969     0.53033537
               0.66584808     0.82450364     1.01025438     1.22772762
               1.48234092     1.78043706     2.12944203     2.53805004
               3.01644009     3.57652955     4.23227104     5.00000000

     Gradients computed in reciprocal space

     Adding external electric field

     Computed dipole along edir(3) :
        Dipole               -1.2115 Ry au,         -3.0793 Debye
        Dipole field         -0.0029 Ry au

        Potential amp.        0.2696 Ry
        Total length         45.8256 bohr

     Starting wfc are  160 randomized atomic wfcs

     Self-consistent Calculation

     iteration #  1     ecut=    36.75 Ry     beta=0.30
     Davidson diagonalization with overlap
     ethr =  1.00E-02,  avg # of iterations =  5.4

[...]

     total energy              =   -3572.33977600 Ry
     Harris-Foulkes estimate   =   -3587.38703765 Ry
     estimated scf accuracy    <      32.42735993 Ry

[...]

     End of self-consistent calculation

          k = 0.0000 0.0000 0.0000 ( 19435 PWs)   bands (ev):

   -90.9722 -90.9681 -90.9658 -90.9658 -90.9636 -90.9636 -90.9314 -90.7749
   -90.7670 -90.7632 -90.7632 -90.7586 -54.5381 -54.5049 -54.5049 -54.5023
   -54.4968 -54.4968 -54.4748 -54.4623 -54.4623 -54.4551 -54.4551 -54.4516
   -54.4437 -54.4370 -54.4319 -54.4319 -54.4148 -54.4148 -54.4146 -54.4048
   -54.4048 -54.3151 -54.3151 -54.3126 -54.2686 -54.2686 -54.2560 -54.2560
   -54.2523 -54.2503 -54.2411 -54.2378 -54.2378 -54.2377 -54.2334 -54.2333
   -11.5082  -5.3790  -4.8924  -4.7278  -4.7278  -4.7202  -4.7193  -4.7193
    -4.6400  -4.5684  -4.5533  -4.5533  -4.4907  -4.3937  -4.3612  -4.3611
    -3.9921  -3.9920  -3.8432  -3.6778  -3.6778  -3.6576  -3.5938  -3.5938
    -3.5604  -3.4978  -3.4978  -3.4081  -3.4081  -3.3645  -3.3053  -3.3053
    -3.1338  -3.1338  -2.8147  -2.8147  -2.8001  -2.7551  -2.7115  -2.7115
    -2.6968  -2.5257  -2.5257  -2.5086  -2.4801  -2.4801  -2.3116  -2.3116
    -2.2466  -2.1996  -2.1996  -2.1828  -2.1828  -2.1324  -2.0777  -2.0629
    -2.0629  -2.0195  -1.9816  -1.9816  -1.8665  -1.8665  -1.8653  -0.5463
    -0.1779  -0.1779   0.3586   1.6099   1.6099   1.6967   2.0009   2.3742
     2.3742   2.5639   2.7357   2.7357   4.3487   4.7175   4.8941

[...]

          k =-0.0838 0.0484 0.0000 ( 19500 PWs)   bands (ev):

[...]

     the Fermi energy is     1.0822 ev

!    total energy              =   -3584.25175917 Ry
     Harris-Foulkes estimate   =   -3584.25176194 Ry
     estimated scf accuracy    <       0.00000109 Ry

     The total energy is the sum of the following terms:

     one-electron contribution =  -26224.30136998 Ry
     hartree contribution      =   13103.60643352 Ry
     xc contribution           =    -369.82277121 Ry
     ewald contribution        =    9906.29027111 Ry
     electric field correction =       0.00028481 Ry
     smearing contrib. (-TS)   =      -0.02460743 Ry

     convergence has been achieved in  15 iterations

 BEEF-vdW xc energy contributions
           1 :   -320.331135551840
           2 :    289.880282198184
           3 :   -239.045709903409
           4 :    183.108932120130
           5 :   -135.989033319799
           6 :    105.253549785150
           7 :   -90.6879028847034
           8 :    86.4470510781692
           9 :   -85.1540683900827
          10 :    81.6235480910568
          11 :   -74.5058142183627
          12 :    65.5277478122005
          13 :   -57.3544928066341
          14 :    51.6180612979012
          15 :   -48.1992113236580
          16 :    45.8310617932746
          17 :   -43.2785669882010
          18 :    40.1644647951882
          19 :   -36.9698835266382
          20 :    34.3984987949319
          21 :   -32.7026682679906
          22 :    31.4813375455343
          23 :   -30.0363993652842
          24 :    27.9490197187048
          25 :   -25.4174174237069
          26 :    23.1134690982889
          27 :   -21.6895626358748
          28 :    21.3095331890981
          29 :   -21.5402888442763
          30 :    21.6627507214992
          31 :   -32.0926391704161
          32 :   -23.3217310006310

     Forces acting on atoms (Ry/au):

     negative rho (up, down):  2.084E-03 0.000E+00
     atom    1 type  1   force =    -0.00090205   -0.00052122    0.00070296
     atom    2 type  1   force =     0.00090207   -0.00052174    0.00070419
     atom    3 type  1   force =    -0.00000004    0.00104308    0.00069172
     atom    4 type  1   force =    -0.00000026    0.00000079   -0.00296085
     atom    5 type  1   force =     0.00000078    0.00194518    0.00366148
     atom    6 type  1   force =    -0.00000063    0.00000250   -0.00820217
     atom    7 type  1   force =    -0.00168269   -0.00097401    0.00366048
     atom    8 type  1   force =     0.00168276   -0.00097327    0.00366103
     atom    9 type  1   force =     0.00000025   -0.00000022   -0.00468453
     atom   10 type  1   force =     0.00000008   -0.03560278   -0.01843215
     atom   11 type  1   force =    -0.03083227    0.01780088   -0.01843240
     atom   12 type  1   force =     0.03083230    0.01780068   -0.01843226
     atom   13 type  2   force =    -0.00000031    0.00000013    0.05806249

     Total force =     0.090637     Total SCF correction =     0.003534

     entering subroutine stress ...

     negative rho (up, down):  2.084E-03 0.000E+00
          total   stress  (Ry/bohr**3)                   (kbar)     P=   -0.91
  -0.00001897   0.00000000   0.00000000         -2.79      0.00      0.00
   0.00000000  -0.00001897   0.00000000          0.00     -2.79      0.00
   0.00000000   0.00000000   0.00001939          0.00      0.00      2.85

     BFGS Geometry Optimization

     number of scf cycles    =   1
     number of bfgs steps    =   0

     energy   new            =   -3584.2517591679 Ry

     new trust radius        =       0.0580624871 bohr
     new conv_thr            =       0.0000099958 Ry

ATOMIC_POSITIONS (crystal)
Ag1      0.166666667   0.166666667   0.402063960    0   0   0
Ag1      0.666666667   0.166666667   0.402063960    0   0   0
Ag1      0.166666667   0.666666667   0.402063960    0   0   0
Ag1      0.666666667   0.666666667   0.402063960    0   0   0
Ag1      0.833333333   0.333333333   0.500000000    0   0   0
Ag1      0.333333333   0.333333333   0.500000000    0   0   0
Ag1      0.833333333   0.833333333   0.500000000    0   0   0
Ag1      0.333333333   0.833333333   0.500000000    0   0   0
Ag1      0.000000033  -0.000000023   0.597836371
Ag1      0.501823069  -0.003646124   0.597543872
Ag1     -0.003646040   0.501823010   0.597543867
Ag1      0.501823044   0.501822989   0.597543870
S1       0.333333299   0.333333346   0.664506789

     Writing output data file calc.save
     Check: negative starting charge=   -0.002111
     NEW-OLD atomic charge density approx. for the potential
     Check: negative starting charge=   -0.002107

[...]

     Total force =     0.052763     Total SCF correction =     0.006576
     SCF correction compared to forces is large: reduce conv_thr to get better values

[...]

     energy   old            =   -3584.2517591679 Ry
     energy   new            =   -3584.2581634195 Ry

     CASE: energy  _new < energy  _old

[...]

     Threshold (ethr) on eigenvalues was too large:
     Diagonalizing with lowered threshold

     Davidson diagonalization with overlap
     ethr =  8.35E-09,  avg # of iterations =  2.5

[...]

     Total force =     0.004233     Total SCF correction =     0.000348

[...]

     Threshold (ethr) on eigenvalues was too large:
     Diagonalizing with lowered threshold

     Davidson diagonalization with overlap
     ethr =  6.91E-08,  avg # of iterations =  1.0

[...]

     number of scf cycles    =   7
     number of bfgs steps    =   6

     energy   old            =   -3584.2619593828 Ry
     energy   new            =   -3584.2619919014 Ry

     CASE: energy  _new < energy  _old

     new trust radius        =       0.0097677392 bohr
     new conv_thr            =       0.0000001000 Ry

ATOMIC_POSITIONS (crystal)
Ag1      0.166666667   0.166666667   0.402063960    0   0   0
Ag1      0.666666667   0.166666667   0.402063960    0   0   0
Ag1      0.166666667   0.666666667   0.402063960    0   0   0
Ag1      0.666666667   0.666666667   0.402063960    0   0   0
Ag1      0.833333333   0.333333333   0.500000000    0   0   0
Ag1      0.333333333   0.333333333   0.500000000    0   0   0
Ag1      0.833333333   0.833333333   0.500000000    0   0   0
Ag1      0.333333333   0.833333333   0.500000000    0   0   0
Ag1      0.000000023  -0.000000003   0.597250448
Ag1      0.505581875  -0.011163716   0.597462248
Ag1     -0.011163627   0.505581811   0.597462242
Ag1      0.505581829   0.505581837   0.597462247
S1       0.333333342   0.333333292   0.666698102

     Writing output data file calc.save
     Check: negative starting charge=   -0.002114
     NEW-OLD atomic charge density approx. for the potential
     Check: negative starting charge=   -0.002115

[...]

     Self-consistent Calculation

[...]

     total energy              =   -3584.26203495 Ry
     Harris-Foulkes estimate   =   -3584.26203488 Ry
     estimated scf accuracy    <       0.00000034 Ry

     iteration #  6     ecut=    36.75 Ry     beta=0.30
     Davidson diagonalization with overlap
     ethr =  1.45E-10,  avg # of iterations =  2.1

[...]

     negative rho (up, down):  2.088E-03 0.000E+00

     Adding external electric field

     Computed dipole along edir(3) :
        Dipole               -0.4042 Ry au,         -1.0274 Debye
        Dipole field         -0.0010 Ry au

        Potential amp.        0.0900 Ry
        Total length         45.8256 bohr

     End of self-consistent calculation

[...]

          k = 0.0559-0.0645 0.0000 ( 19479 PWs)   bands (ev):

[...]

          k =-0.0838-0.0484 0.0000 ( 19500 PWs)   bands (ev):

   -91.0539 -91.0522 -91.0503 -90.9947 -90.9130 -90.9098 -90.9084 -90.8534
   -90.8459 -90.8439 -90.8425 -90.8054 -54.5752 -54.5635 -54.5546 -54.5514
   -54.5502 -54.5485 -54.5464 -54.5432 -54.5165 -54.4952 -54.4948 -54.4828
   -54.4463 -54.4263 -54.4253 -54.4090 -54.4074 -54.3919 -54.3807 -54.3803
   -54.3770 -54.3733 -54.3680 -54.3578 -54.3514 -54.3493 -54.3471 -54.3296
   -54.3251 -54.3226 -54.3205 -54.3201 -54.3182 -54.3163 -54.3129 -54.2858
   -11.0318  -4.6378  -4.5195  -4.4469  -4.4022  -4.3749  -4.3322  -4.2708
    -4.2495  -4.1569  -4.1333  -4.1259  -4.0973  -4.0742  -4.0235  -3.9449
    -3.9324  -3.8322  -3.7999  -3.7057  -3.6874  -3.6801  -3.6582  -3.5772
    -3.5609  -3.4438  -3.4178  -3.3958  -3.3510  -3.3058  -3.2941  -3.2784
    -3.2441  -3.2018  -3.1564  -3.1000  -3.0953  -3.0426  -3.0346  -3.0119
    -2.9732  -2.9570  -2.9338  -2.8218  -2.8178  -2.7962  -2.7835  -2.7549
    -2.7547  -2.7241  -2.7050  -2.6852  -2.6779  -2.5774  -2.5182  -2.4868
    -2.4716  -2.2610  -2.2455  -2.2144  -2.2038  -2.0877  -2.0674  -1.5880
    -1.3374  -0.3106  -0.2300   0.2897   0.8873   0.8877   1.7261   2.0325
     2.4508   3.0321   4.0671   4.4711   4.7925   5.6047   6.1163

     the Fermi energy is     1.0033 ev

!    total energy              =   -3584.26203496 Ry
     Harris-Foulkes estimate   =   -3584.26203499 Ry
     estimated scf accuracy    <       0.00000003 Ry

     The total energy is the sum of the following terms:

     one-electron contribution =  -26233.08153311 Ry
     hartree contribution      =   13107.72865043 Ry
     xc contribution           =    -369.77060041 Ry
     ewald contribution        =    9910.88586726 Ry
     electric field correction =       0.00039680 Ry
     smearing contrib. (-TS)   =      -0.02481594 Ry

     convergence has been achieved in   6 iterations

 BEEF-vdW xc energy contributions
           1 :   -320.273013040367
           2 :    289.785278645690
           3 :   -238.904543903092
           4 :    182.944993442577
           5 :   -135.841514710354
           6 :    105.153223491053
           7 :   -90.6409254168605
           8 :    86.4357260197938
           9 :   -85.1517902031413
          10 :    81.6133357926228
          11 :   -74.4910454648747
          12 :    65.5287006506067
          13 :   -57.3936460953254
          14 :    51.7036922489248
          15 :   -48.3175716051397
          16 :    45.9511315978934
          17 :   -43.3658445321390
          18 :    40.1965628774733
          19 :   -36.9457652900630
          20 :    34.3372481977367
          21 :   -32.6332976756827
          22 :    31.4289979299211
          23 :   -30.0116376751030
          24 :    27.9450387182390
          25 :   -25.4165757703532
          26 :    23.0997411101724
          27 :   -21.6604180561310
          28 :    21.2806303734362
          29 :   -21.5393741855864
          30 :    21.7151355940799
          31 :   -32.0882900838106
          32 :   -23.3083820087712

     Forces acting on atoms (Ry/au):

     negative rho (up, down):  2.088E-03 0.000E+00
     atom    1 type  1   force =    -0.00081501   -0.00047055    0.00030407
     atom    2 type  1   force =     0.00081501   -0.00047055    0.00030407
     atom    3 type  1   force =    -0.00000000    0.00094109    0.00030406
     atom    4 type  1   force =     0.00000000   -0.00000000   -0.00328737
     atom    5 type  1   force =    -0.00000001    0.00101600    0.00136001
     atom    6 type  1   force =     0.00000000   -0.00000001   -0.00494678
     atom    7 type  1   force =    -0.00087988   -0.00050801    0.00136001
     atom    8 type  1   force =     0.00087989   -0.00050799    0.00136001
     atom    9 type  1   force =    -0.00000001   -0.00000000   -0.00084533
     atom   10 type  1   force =     0.00000001    0.00112740    0.00158064
     atom   11 type  1   force =     0.00097630   -0.00056368    0.00158068
     atom   12 type  1   force =    -0.00097632   -0.00056370    0.00158068
     atom   13 type  2   force =     0.00000002   -0.00000000   -0.00065475

     Total force =     0.003529     Total SCF correction =     0.000644
     SCF correction compared to forces is large: reduce conv_thr to get better values

     entering subroutine stress ...

     negative rho (up, down):  2.088E-03 0.000E+00
          total   stress  (Ry/bohr**3)                   (kbar)     P=   -4.47
  -0.00003742  -0.00000000   0.00000000         -5.50     -0.00      0.00
  -0.00000000  -0.00003742   0.00000000         -0.00     -5.50      0.00
   0.00000000   0.00000000  -0.00001627          0.00      0.00     -2.39

     bfgs converged in   8 scf cycles and   7 bfgs steps
     (criteria: energy <  1.0E+00, force <  1.9E-03)

     End of BFGS Geometry Optimization

     Final energy   =   -3584.2620349630 Ry
Begin final coordinates

ATOMIC_POSITIONS (crystal)
Ag1      0.166666667   0.166666667   0.402063960    0   0   0
Ag1      0.666666667   0.166666667   0.402063960    0   0   0
Ag1      0.166666667   0.666666667   0.402063960    0   0   0
Ag1      0.666666667   0.666666667   0.402063960    0   0   0
Ag1      0.833333333   0.333333333   0.500000000    0   0   0
Ag1      0.333333333   0.333333333   0.500000000    0   0   0
Ag1      0.833333333   0.833333333   0.500000000    0   0   0
Ag1      0.333333333   0.833333333   0.500000000    0   0   0
Ag1      0.000000023  -0.000000003   0.597250448
Ag1      0.505581875  -0.011163716   0.597462248
Ag1     -0.011163627   0.505581811   0.597462242
Ag1      0.505581829   0.505581837   0.597462247
S1       0.333333342   0.333333292   0.666698102
End final coordinates

     Writing output data file calc.save

     General routines

     Parallel routines

   This run was terminated on:  12: 7:18   4May2018

   JOB DONE.
Job  /afs/slac/g/suncat/bin/suncat-tsmpirun -x LD_LIBRARY_PATH -wdir /scratch/qe31702_JySMB pw.x -npool 3 -in pw.inp

TID   HOST_NAME   COMMAND_LINE            STATUS            TERMINATION_TIME
00000 suncat2007 pw.x -npool 3 -i  Done                     05/04/2018 12:07:18
00001 suncat2007 pw.x -npool 3 -i  Done                     05/04/2018 12:07:18
00002 suncat2007 pw.x -npool 3 -i  Done                     05/04/2018 12:07:18
00003 suncat2007 pw.x -npool 3 -i  Done                     05/04/2018 12:07:18
00004 suncat2071 pw.x -npool 3 -i  Done                     05/04/2018 12:07:18
00005 suncat2071 pw.x -npool 3 -i  Done                     05/04/2018 12:07:18
00006 suncat2071 pw.x -npool 3 -i  Done                     05/04/2018 12:07:18
00007 suncat2071 pw.x -npool 3 -i  Done                     05/04/2018 12:07:18
00008 suncat2071 pw.x -npool 3 -i  Done                     05/04/2018 12:07:18
00009 suncat2071 pw.x -npool 3 -i  Done                     05/04/2018 12:07:18
00010 suncat2071 pw.x -npool 3 -i  Done                     05/04/2018 12:07:18
00011 suncat2071 pw.x -npool 3 -i  Done                     05/04/2018 12:07:18
00012 suncat2071 pw.x -npool 3 -i  Done                     05/04/2018 12:07:18
00013 suncat2071 pw.x -npool 3 -i  Done                     05/04/2018 12:07:18
00014 suncat2071 pw.x -npool 3 -i  Done                     05/04/2018 12:07:18
00015 suncat2071 pw.x -npool 3 -i  Done                     05/04/2018 12:07:18
00016 suncat2071 pw.x -npool 3 -i  Done                     05/04/2018 12:07:18
00017 suncat2071 pw.x -npool 3 -i  Done                     05/04/2018 12:07:18
00018 suncat2071 pw.x -npool 3 -i  Done                     05/04/2018 12:07:18
00019 suncat2071 pw.x -npool 3 -i  Done                     05/04/2018 12:07:18
00020 suncat2061 pw.x -npool 3 -i  Done                     05/04/2018 12:07:18
00021 suncat2061 pw.x -npool 3 -i  Done                     05/04/2018 12:07:18
00022 suncat2061 pw.x -npool 3 -i  Done                     05/04/2018 12:07:18
00023 suncat2061 pw.x -npool 3 -i  Done                     05/04/2018 12:07:18
00024 suncat2061 pw.x -npool 3 -i  Done                     05/04/2018 12:07:18
00025 suncat2061 pw.x -npool 3 -i  Done                     05/04/2018 12:07:18
00026 suncat2061 pw.x -npool 3 -i  Done                     05/04/2018 12:07:18
00027 suncat2061 pw.x -npool 3 -i  Done                     05/04/2018 12:07:18
00028 suncat2061 pw.x -npool 3 -i  Done                     05/04/2018 12:07:18
00029 suncat2061 pw.x -npool 3 -i  Done                     05/04/2018 12:07:18
00030 suncat2061 pw.x -npool 3 -i  Done                     05/04/2018 12:07:18
00031 suncat2061 pw.x -npool 3 -i  Done                     05/04/2018 12:07:18
00032 suncat2061 pw.x -npool 3 -i  Done                     05/04/2018 12:07:18
00033 suncat2061 pw.x -npool 3 -i  Done                     05/04/2018 12:07:18
00034 suncat2061 pw.x -npool 3 -i  Done                     05/04/2018 12:07:18
00035 suncat2061 pw.x -npool 3 -i  Done                     05/04/2018 12:07:18