     Program PWSCF v.5.1rc2 (svn rev. 11289) starts on  2May2018 at 13:27: 9

     Current dimensions of program PWSCF are:
     Max number of different atomic species (ntypx) = 10
     Max number of k-points (npk) =  40000
     Max angular momentum in pseudopotentials (lmaxx) =  3
     Presently stress not available with electric field

     IMPORTANT: XC functional enforced from input :
     Exchange-correlation      = BEEF-VDW ( 1  4 27 13 2)
     Any further DFT definition will be discarded
     Please, verify this is what you really want

     Subspace diagonalization in iterative solution of the eigenvalue problem:
     a serial algorithm will be used

     bravais-lattice index     =            0
     lattice parameter (alat)  =       1.8897  a.u.
     unit-cell volume          =    3724.3394 (a.u.)^3
     number of atoms/cell      =           13
     number of atomic types    =            2
     number of electrons       =       169.00
     number of Kohn-Sham states=           94
     kinetic-energy cutoff     =      36.7493  Ry
     charge density cutoff     =     367.4932  Ry
     convergence threshold     =      1.0E-05
     mixing beta               =       0.3000
     number of iterations used =           10  plain     mixing
     Exchange-correlation      = BEEF-VDW ( 1  4 27 13 2)
     nstep                     =           50

     celldm(1)=   1.889726  celldm(2)=   0.000000  celldm(3)=   0.000000
     celldm(4)=   0.000000  celldm(5)=   0.000000  celldm(6)=   0.000000

     crystal axes: (cart. coord. in units of alat)
               a(1) = (   5.132588   0.000000   0.000000 )
               a(2) = (   2.566294   4.444952   0.000000 )
               a(3) = (   0.000000   0.000000  24.190741 )

     reciprocal axes: (cart. coord. in units 2 pi/alat)
               b(1) = (  0.194833 -0.112487  0.000000 )
               b(2) = (  0.000000  0.224974  0.000000 )
               b(3) = (  0.000000  0.000000  0.041338 )

     PseudoPot. # 1 for Cr read from file:
     /u/if/mamunm/psp/gbrv1.5pbe/Cr.UPF
     MD5 check sum: 0d52af634a40206e4dee301ad30da4bf
     Pseudo is Ultrasoft + core correction, Zval = 14.0
     Generated by new atomic code, or converted to UPF format
     Using radial grid of  857 points,  6 beta functions with:
                l(1) =   0
                l(2) =   0
                l(3) =   1
                l(4) =   1
                l(5) =   2
                l(6) =   2
     Q(r) pseudized with  8 coefficients,  rinner =    0.950   0.950   0.950
                                                       0.950   0.950

     PseudoPot. # 2 for H  read from file:
     /u/if/mamunm/psp/gbrv1.5pbe/H.UPF
     MD5 check sum: 761ae9a214b05c3daf00ab9f6b793d6f
     Pseudo is Ultrasoft, Zval =  1.0
     Generated by new atomic code, or converted to UPF format
     Using radial grid of  615 points,  2 beta functions with:
                l(1) =   0
                l(2) =   0
     Q(r) pseudized with  8 coefficients,  rinner =    0.700

     vdW kernel table read from file vdW_kernel_table
     MD5 check sum: 095c7af220d748ca6e76c0b4c6cfb241

     atomic species   valence    mass     pseudopotential
        Cr1           14.00    51.99610     Cr( 1.00)
        H1             1.00     1.00800     H ( 1.00)

     No symmetry found

   Cartesian axes

     site n.     atom                  positions (alat units)
         1           Cr1 tau(   1) = (   1.2831471   0.7408253  10.0000000  )
         2           Cr1 tau(   2) = (   3.8494412   0.7408253  10.0000000  )
         3           Cr1 tau(   3) = (   2.5662941   2.9633012  10.0000000  )
         4           Cr1 tau(   4) = (   5.1325882   2.9633012  10.0000000  )
         5           Cr1 tau(   5) = (   5.1325882   1.4816506  12.0953704  )
         6           Cr1 tau(   6) = (   2.5662941   1.4816506  12.0953704  )
         7           Cr1 tau(   7) = (   6.4157353   3.7041265  12.0953704  )
         8           Cr1 tau(   8) = (   3.8494412   3.7041265  12.0953704  )
         9           Cr1 tau(   9) = (   0.0000000   0.0000000  14.1907408  )
        10           Cr1 tau(  10) = (   2.5662941   0.0000000  14.1907408  )
        11           Cr1 tau(  11) = (   1.2831471   2.2224759  14.1907408  )
        12           Cr1 tau(  12) = (   3.8494412   2.2224759  14.1907408  )
        13           H1  tau(  13) = (   2.5662941   1.4816506  15.2957408  )

     number of k points=    20  Fermi-Dirac smearing, width (Ry)=  0.0110
                       cart. coord. in units 2pi/alat
        k(    1) = (   0.0000000   0.0000000   0.0000000), wk =   0.0555556
        k(    2) = (   0.0000000   0.0374957   0.0000000), wk =   0.1111111
        k(    3) = (   0.0000000   0.0749914   0.0000000), wk =   0.1111111
        k(    4) = (   0.0000000  -0.1124872   0.0000000), wk =   0.0555556
        k(    5) = (   0.0324722  -0.0187479   0.0000000), wk =   0.1111111
        k(    6) = (   0.0324722   0.0187479   0.0000000), wk =   0.1111111
        k(    7) = (   0.0324722   0.0562436   0.0000000), wk =   0.1111111
        k(    8) = (   0.0324722  -0.1312350   0.0000000), wk =   0.1111111
        k(    9) = (   0.0324722  -0.0937393   0.0000000), wk =   0.1111111
        k(   10) = (   0.0324722  -0.0562436   0.0000000), wk =   0.1111111
        k(   11) = (   0.0649445  -0.0374957   0.0000000), wk =   0.1111111
        k(   12) = (   0.0649445   0.0000000   0.0000000), wk =   0.1111111
        k(   13) = (   0.0649445   0.0374957   0.0000000), wk =   0.1111111
        k(   14) = (   0.0649445  -0.1499829   0.0000000), wk =   0.1111111
        k(   15) = (   0.0649445  -0.1124872   0.0000000), wk =   0.1111111
        k(   16) = (   0.0649445  -0.0749914   0.0000000), wk =   0.1111111
        k(   17) = (  -0.0974167   0.0562436   0.0000000), wk =   0.0555556
        k(   18) = (  -0.0974167   0.0937393   0.0000000), wk =   0.1111111
        k(   19) = (  -0.0974167   0.1312350   0.0000000), wk =   0.1111111
        k(   20) = (  -0.0974167  -0.0562436   0.0000000), wk =   0.0555556

     Largest allocated arrays     est. size (Mb)     dimensions
     Largest temporary arrays     est. size (Mb)     dimensions

     Check: negative/imaginary core charge=   -0.000004    0.000000

     Initial potential from superposition of free atoms
     Check: negative starting charge=   -0.015039

     starting charge  156.99981, renormalised to  169.00000

     negative rho (up, down):  1.619E-02 0.000E+00

     *
     * You are using vdW-DF for exchange-correlation in this calculation.
     * Please cite the following three references that made this development
     * possible:
     *
     *   M. Dion, H. Rydberg, E. Schroder, D. C. Langreth, and
     *   B. I. Lundqvist, Phys. Rev. Lett. 92, 246401 (2004).
     *
     *   T. Thonhauser, V. R. Cooper, S. Li, A. Puzder, P. Hyldgaard, and
     *   D. C. Langreth, Phys. Rev. B 76, 125112 (2007).
     *
     *   G. Roman-Perez and J. M. Soler, Phys. Rev. Lett. 103, 096102 (2009).
     *
     *
     * If you are using vdW-DF2, please also cite:
     *
     *   K. Lee, E. D. Murray, L. Kong, B. I. Lundqvist, and
     *   D. C. Langreth, Phys. Rev. B 82, 081101(R) (2010).
     *
     *
     * If you are calculating the stress with vdW-DF, please also cite:
     *
     *   R. Sabatini, E. Kucukbenli, B. Kolb, T. Thonhauser, and
     *   S. de Gironcoli, J. Phys.: Condens. Matter 24, 424209 (2012).
     *

     Carrying out vdW-DF run using the following parameters:

     Nqs =      20    Nr_points =    1024   r_max =   100.000
     q_mesh =
               0.00001000     0.04494208     0.09755937     0.15916263
               0.23128650     0.31572767     0.41458969     0.53033537
               0.66584808     0.82450364     1.01025438     1.22772762
               1.48234092     1.78043706     2.12944203     2.53805004
               3.01644009     3.57652955     4.23227104     5.00000000

     Gradients computed in reciprocal space

     Adding external electric field

     Computed dipole along edir(3) :
        Dipole               -0.4622 Ry au,         -1.1748 Debye
        Dipole field         -0.0016 Ry au

        Potential amp.        0.1390 Ry
        Total length         44.5710 bohr

     Starting wfc are  121 randomized atomic wfcs

     Self-consistent Calculation

     iteration #  1     ecut=    36.75 Ry     beta=0.30
     Davidson diagonalization with overlap
     ethr =  1.00E-02,  avg # of iterations =  5.5

[...]

     total energy              =   -2104.89581613 Ry
     Harris-Foulkes estimate   =   -2123.39331702 Ry
     estimated scf accuracy    <      40.67814066 Ry

[...]

     End of self-consistent calculation

          k = 0.0000 0.0000 0.0000 ( 14081 PWs)   bands (ev):

   -70.6104 -70.5048 -70.4747 -70.4739 -70.4705 -70.4462 -70.4124 -70.4120
   -70.3868 -70.3508 -70.3500 -70.3498 -42.2046 -42.2012 -42.2008 -42.1507
   -42.1186 -42.0860 -42.0857 -42.0160 -41.9973 -41.9972 -41.8555 -41.7812
   -41.7811 -41.7808 -41.7446 -41.7444 -41.7442 -41.6898 -41.6896 -41.6894
   -41.6241 -41.6237 -41.6177 -41.5702 -41.5640 -41.5638 -41.5330 -41.5276
   -41.5275 -41.4965 -41.4964 -41.4943 -41.4083 -41.4082 -41.3629 -41.3629
    -5.8065  -4.6572  -3.2555  -2.6524  -2.5224  -2.5223  -2.3331  -2.2205
    -2.2204  -2.0229  -1.7785  -1.7704  -1.7703  -1.6746  -1.6746  -1.3146
    -0.7941  -0.7940  -0.4803   0.0922   0.1984   0.1984   0.3871   0.4234
     0.6953   0.6953   0.8927   0.8928   0.9242   0.9243   0.9412   0.9573
     0.9574   0.9611   1.0581   1.0581   1.2190   1.7179   1.7304   1.7307
     2.0169   2.0170   2.0479   2.3178   2.3178   2.5876

[...]

          k =-0.0974 0.0562 0.0000 ( 14010 PWs)   bands (ev):

[...]

     the Fermi energy is     1.1208 ev

!    total energy              =   -2116.12068493 Ry
     Harris-Foulkes estimate   =   -2116.12069058 Ry
     estimated scf accuracy    <       0.00000585 Ry

     The total energy is the sum of the following terms:

     one-electron contribution =  -19526.98872065 Ry
     hartree contribution      =    9754.31857186 Ry
     xc contribution           =    -279.83477857 Ry
     ewald contribution        =    7936.51689924 Ry
     electric field correction =       0.00000003 Ry
     smearing contrib. (-TS)   =      -0.13265685 Ry

     convergence has been achieved in  54 iterations

 BEEF-vdW xc energy contributions
           1 :   -242.293817901639
           2 :    218.166566455142
           3 :   -177.856772488591
           4 :    133.499071872509
           5 :   -96.1603465275516
           6 :    71.7667498812128
           7 :   -59.9660096646433
           8 :    55.9793298826158
           9 :   -54.0154763466800
          10 :    50.2709019721751
          11 :   -44.1315334315421
          12 :    37.3916431244538
          13 :   -32.3809877916790
          14 :    30.2703743959621
          15 :   -30.4655709593090
          16 :    31.2132126229382
          17 :   -30.8375976488337
          18 :    28.7563811895057
          19 :   -25.6835401903541
          20 :    22.9928840535720
          21 :   -21.7374804260069
          22 :    21.9829237790032
          23 :   -22.8511138342947
          24 :    23.1755668971690
          25 :   -22.2846724588725
          26 :    20.3904024431337
          27 :   -18.3687375131812
          28 :    17.1301317117645
          29 :   -17.0237969665903
          30 :    17.6540245002099
          31 :   -23.9316886932880
          32 :   -17.2030609527852

     Forces acting on atoms (Ry/au):

     negative rho (up, down):  1.463E-02 0.000E+00
     atom    1 type  1   force =    -0.00044564   -0.00027465   -0.00054245
     atom    2 type  1   force =     0.00044363   -0.00024476   -0.00059109
     atom    3 type  1   force =     0.00002752    0.00051711   -0.00049064
     atom    4 type  1   force =    -0.00002313    0.00000364    0.00037437
     atom    5 type  1   force =    -0.00002022   -0.00080278    0.00097621
     atom    6 type  1   force =     0.00002394   -0.00001374    0.00311962
     atom    7 type  1   force =     0.00068058    0.00042715    0.00098514
     atom    8 type  1   force =    -0.00068382    0.00039581    0.00102226
     atom    9 type  1   force =     0.00002639   -0.00001076   -0.00467789
     atom   10 type  1   force =    -0.00002965   -0.01291004    0.00117890
     atom   11 type  1   force =    -0.01116881    0.00643487    0.00120346
     atom   12 type  1   force =     0.01114667    0.00645633    0.00123385
     atom   13 type  2   force =     0.00002254    0.00002182   -0.00379174

     Total force =     0.023224     Total SCF correction =     0.003532
     SCF correction compared to forces is large: reduce conv_thr to get better values

     entering subroutine stress ...

     negative rho (up, down):  1.463E-02 0.000E+00
          total   stress  (Ry/bohr**3)                   (kbar)     P=  -26.02
  -0.00025786  -0.00000003   0.00000005        -37.93     -0.00      0.01
  -0.00000003  -0.00025777   0.00000005         -0.00    -37.92      0.01
   0.00000005   0.00000005  -0.00001494          0.01      0.01     -2.20

     BFGS Geometry Optimization

     number of scf cycles    =   1
     number of bfgs steps    =   0

     energy   new            =   -2116.1206849315 Ry

     new trust radius        =       0.0129637857 bohr
     new conv_thr            =       0.0000099958 Ry

ATOMIC_POSITIONS (crystal)
Cr1      0.166666667   0.166666667   0.413381306    0   0   0
Cr1      0.666666667   0.166666667   0.413381306    0   0   0
Cr1      0.166666667   0.666666667   0.413381306    0   0   0
Cr1      0.666666667   0.666666667   0.413381306    0   0   0
Cr1      0.833333333   0.333333333   0.500000000    0   0   0
Cr1      0.333333333   0.333333333   0.500000000    0   0   0
Cr1      0.833333333   0.833333333   0.500000000    0   0   0
Cr1      0.333333333   0.833333333   0.500000000    0   0   0
Cr1      0.000003362  -0.000001281   0.586516365
Cr1      0.500765421  -0.001536956   0.586644483
Cr1     -0.001534560   0.500766080   0.586645020
Cr1      0.500764920   0.500768634   0.586645685
H1       0.333334358   0.333335931   0.632214384

     Writing output data file calc.save
     Check: negative starting charge=   -0.015039
     NEW-OLD atomic charge density approx. for the potential

     Check: negative/imaginary core charge=   -0.000004    0.000000
     Check: negative starting charge=   -0.014992

[...]

     energy   old            =   -2116.1206849315 Ry
     energy   new            =   -2116.1211561192 Ry

     CASE: energy  _new < energy  _old

[...]

     Total force =     0.011992     Total SCF correction =     0.000401

[...]

     Total force =     0.006140     Total SCF correction =     0.000861
     SCF correction compared to forces is large: reduce conv_thr to get better values

[...]

     number of scf cycles    =   6
     number of bfgs steps    =   5

     energy   old            =   -2116.1219483913 Ry
     energy   new            =   -2116.1220042580 Ry

     CASE: energy  _new < energy  _old

     new trust radius        =       0.0189849014 bohr
     new conv_thr            =       0.0000001000 Ry

ATOMIC_POSITIONS (crystal)
Cr1      0.166666667   0.166666667   0.413381306    0   0   0
Cr1      0.666666667   0.166666667   0.413381306    0   0   0
Cr1      0.166666667   0.666666667   0.413381306    0   0   0
Cr1      0.666666667   0.666666667   0.413381306    0   0   0
Cr1      0.833333333   0.333333333   0.500000000    0   0   0
Cr1      0.333333333   0.333333333   0.500000000    0   0   0
Cr1      0.833333333   0.833333333   0.500000000    0   0   0
Cr1      0.333333333   0.833333333   0.500000000    0   0   0
Cr1      0.000001064  -0.000004197   0.585350737
Cr1      0.503596059  -0.007192577   0.586974908
Cr1     -0.007190433   0.503593879   0.586975270
Cr1      0.503598879   0.503597561   0.586974447
H1       0.333335403   0.333335314   0.630790235

     Writing output data file calc.save
     Check: negative starting charge=   -0.014457
     NEW-OLD atomic charge density approx. for the potential

     Check: negative/imaginary core charge=   -0.000004    0.000000
     Check: negative starting charge=   -0.014528

[...]

     Self-consistent Calculation

[...]

     total energy              =   -2116.12206260 Ry
     Harris-Foulkes estimate   =   -2116.12206261 Ry
     estimated scf accuracy    <       0.00000012 Ry

     iteration # 18     ecut=    36.75 Ry     beta=0.30
     Davidson diagonalization with overlap
     ethr =  7.09E-11,  avg # of iterations =  4.3

[...]

     negative rho (up, down):  1.415E-02 0.000E+00

     Adding external electric field

     Computed dipole along edir(3) :
        Dipole                0.0074 Ry au,          0.0189 Debye
        Dipole field          0.0000 Ry au

        Potential amp.       -0.0022 Ry
        Total length         44.5710 bohr

     End of self-consistent calculation

[...]

          k = 0.0649-0.0750 0.0000 ( 13990 PWs)   bands (ev):

[...]

          k =-0.0974-0.0562 0.0000 ( 14010 PWs)   bands (ev):

   -70.5446 -70.5412 -70.4757 -70.4702 -70.4583 -70.4414 -70.4059 -70.3981
   -70.3978 -70.3861 -70.3494 -70.3492 -42.0837 -42.0833 -42.0583 -42.0443
   -42.0110 -42.0002 -41.9351 -41.9307 -41.9106 -41.8853 -41.8765 -41.8754
   -41.7846 -41.7471 -41.7290 -41.7232 -41.7116 -41.6999 -41.6984 -41.6959
   -41.6890 -41.6823 -41.6690 -41.6675 -41.6390 -41.6357 -41.6136 -41.6039
   -41.5725 -41.5675 -41.5485 -41.5430 -41.4928 -41.4550 -41.4297 -41.4268
    -4.5420  -3.7277  -3.4600  -2.3628  -2.0697  -1.7555  -1.7416  -1.7175
    -1.7019  -1.5063  -1.3152  -1.0312  -1.0297  -0.8711  -0.8444  -0.7641
    -0.6932  -0.4001  -0.3498  -0.2840  -0.2819  -0.2635  -0.2196   0.0957
     0.1363   0.2705   0.3264   0.3651   0.3743   0.4730   0.5147   0.5898
     0.6443   0.7451   0.8126   0.8177   0.8600   0.8719   1.2615   1.2966
     1.5742   1.6286   1.7605   1.7880   1.7980   1.8108

     the Fermi energy is     1.1215 ev

!    total energy              =   -2116.12206256 Ry
     Harris-Foulkes estimate   =   -2116.12206263 Ry
     estimated scf accuracy    <       0.00000004 Ry

     The total energy is the sum of the following terms:

     one-electron contribution =  -19532.58351509 Ry
     hartree contribution      =    9757.12736446 Ry
     xc contribution           =    -279.84282884 Ry
     ewald contribution        =    7939.30923200 Ry
     electric field correction =       0.00000019 Ry
     smearing contrib. (-TS)   =      -0.13231528 Ry

     convergence has been achieved in  18 iterations

 BEEF-vdW xc energy contributions
           1 :   -242.302188414483
           2 :    218.176454241691
           3 :   -177.866823801468
           4 :    133.504934183961
           5 :   -96.1569142399254
           6 :    71.7511055047174
           7 :   -59.9395749017267
           8 :    55.9479881980014
           9 :   -53.9872734134532
          10 :    50.2521262975490
          11 :   -44.1232210057543
          12 :    37.3887716966034
          13 :   -32.3752259990936
          14 :    30.2551619492326
          15 :   -30.4402666407656
          16 :    31.1833420577166
          17 :   -30.8109796432519
          18 :    28.7379733830094
          19 :   -25.6726540061088
          20 :    22.9843080242254
          21 :   -21.7251913073354
          22 :    21.9637872891391
          23 :   -22.8264928361937
          24 :    23.1500941245673
          25 :   -22.2632838692069
          26 :    20.3751321204136
          27 :   -18.3567143847432
          28 :    17.1143478019673
          29 :   -16.9969689212583
          30 :    17.6137671524415
          31 :   -23.9322823015700
          32 :   -17.2035362025663

     Forces acting on atoms (Ry/au):

     negative rho (up, down):  1.415E-02 0.000E+00
     atom    1 type  1   force =    -0.00049244   -0.00028410   -0.00060409
     atom    2 type  1   force =     0.00049241   -0.00028419   -0.00060544
     atom    3 type  1   force =    -0.00000030    0.00056858   -0.00060432
     atom    4 type  1   force =    -0.00000038    0.00000056    0.00123090
     atom    5 type  1   force =     0.00000021    0.00069495   -0.00192561
     atom    6 type  1   force =    -0.00000104    0.00000100    0.01086189
     atom    7 type  1   force =    -0.00059950   -0.00034740   -0.00192633
     atom    8 type  1   force =     0.00059948   -0.00034625   -0.00192933
     atom    9 type  1   force =    -0.00000060    0.00000017   -0.00109964
     atom   10 type  1   force =     0.00000179    0.00150150   -0.00081612
     atom   11 type  1   force =     0.00130090   -0.00075252   -0.00081441
     atom   12 type  1   force =    -0.00129948   -0.00075263   -0.00080996
     atom   13 type  2   force =    -0.00000105    0.00000032   -0.00095757

     Total force =     0.003298     Total SCF correction =     0.000298

     entering subroutine stress ...

     negative rho (up, down):  1.415E-02 0.000E+00
          total   stress  (Ry/bohr**3)                   (kbar)     P=  -25.57
  -0.00025405   0.00000000  -0.00000000        -37.37      0.00     -0.00
   0.00000000  -0.00025404   0.00000000          0.00    -37.37      0.00
  -0.00000000   0.00000000  -0.00001341         -0.00      0.00     -1.97

     bfgs converged in   7 scf cycles and   6 bfgs steps
     (criteria: energy <  1.0E+00, force <  1.9E-03)

     End of BFGS Geometry Optimization

     Final energy   =   -2116.1220625650 Ry
Begin final coordinates

ATOMIC_POSITIONS (crystal)
Cr1      0.166666667   0.166666667   0.413381306    0   0   0
Cr1      0.666666667   0.166666667   0.413381306    0   0   0
Cr1      0.166666667   0.666666667   0.413381306    0   0   0
Cr1      0.666666667   0.666666667   0.413381306    0   0   0
Cr1      0.833333333   0.333333333   0.500000000    0   0   0
Cr1      0.333333333   0.333333333   0.500000000    0   0   0
Cr1      0.833333333   0.833333333   0.500000000    0   0   0
Cr1      0.333333333   0.833333333   0.500000000    0   0   0
Cr1      0.000001064  -0.000004197   0.585350737
Cr1      0.503596059  -0.007192577   0.586974908
Cr1     -0.007190433   0.503593879   0.586975270
Cr1      0.503598879   0.503597561   0.586974447
H1       0.333335403   0.333335314   0.630790235
End final coordinates

     Writing output data file calc.save

     General routines

     Parallel routines

   This run was terminated on:  14:16:39   2May2018

   JOB DONE.
Job  /afs/slac/g/suncat/bin/suncat-tsmpirun -x LD_LIBRARY_PATH -wdir /scratch/qe657238_FSD16 pw.x -npool 4 -in pw.inp

TID   HOST_NAME   COMMAND_LINE            STATUS            TERMINATION_TIME
00000 suncat0169 pw.x -npool 4 -i  Done                     05/02/2018 14:16:39
00001 suncat0169 pw.x -npool 4 -i  Done                     05/02/2018 14:16:39
00002 suncat0169 pw.x -npool 4 -i  Done                     05/02/2018 14:16:39
00003 suncat0169 pw.x -npool 4 -i  Done                     05/02/2018 14:16:39
00004 suncat0169 pw.x -npool 4 -i  Done                     05/02/2018 14:16:39
00005 suncat0169 pw.x -npool 4 -i  Done                     05/02/2018 14:16:39
00006 suncat0169 pw.x -npool 4 -i  Done                     05/02/2018 14:16:39
00007 suncat0169 pw.x -npool 4 -i  Done                     05/02/2018 14:16:39
00008 suncat0167 pw.x -npool 4 -i  Done                     05/02/2018 14:16:39
00009 suncat0167 pw.x -npool 4 -i  Done                     05/02/2018 14:16:39
00010 suncat0167 pw.x -npool 4 -i  Done                     05/02/2018 14:16:39
00011 suncat0167 pw.x -npool 4 -i  Done                     05/02/2018 14:16:39
00012 suncat0167 pw.x -npool 4 -i  Done                     05/02/2018 14:16:39
00013 suncat0167 pw.x -npool 4 -i  Done                     05/02/2018 14:16:39
00014 suncat0167 pw.x -npool 4 -i  Done                     05/02/2018 14:16:39
00015 suncat0167 pw.x -npool 4 -i  Done                     05/02/2018 14:16:39
00016 suncat0124 pw.x -npool 4 -i  Done                     05/02/2018 14:16:39
00017 suncat0124 pw.x -npool 4 -i  Done                     05/02/2018 14:16:39
00018 suncat0124 pw.x -npool 4 -i  Done                     05/02/2018 14:16:39
00019 suncat0124 pw.x -npool 4 -i  Done                     05/02/2018 14:16:39
00020 suncat0124 pw.x -npool 4 -i  Done                     05/02/2018 14:16:39
00021 suncat0124 pw.x -npool 4 -i  Done                     05/02/2018 14:16:39
00022 suncat0124 pw.x -npool 4 -i  Done                     05/02/2018 14:16:39
00023 suncat0124 pw.x -npool 4 -i  Done                     05/02/2018 14:16:39
00024 suncat0123 pw.x -npool 4 -i  Done                     05/02/2018 14:16:39
00025 suncat0123 pw.x -npool 4 -i  Done                     05/02/2018 14:16:39
00026 suncat0123 pw.x -npool 4 -i  Done                     05/02/2018 14:16:39
00027 suncat0123 pw.x -npool 4 -i  Done                     05/02/2018 14:16:39
00028 suncat0123 pw.x -npool 4 -i  Done                     05/02/2018 14:16:39
00029 suncat0123 pw.x -npool 4 -i  Done                     05/02/2018 14:16:39
00030 suncat0123 pw.x -npool 4 -i  Done                     05/02/2018 14:16:39
00031 suncat0123 pw.x -npool 4 -i  Done                     05/02/2018 14:16:39