     Program PWSCF v.5.1rc2 (svn rev. 11289) starts on 23Apr2018 at  7:53:59

     Current dimensions of program PWSCF are:
     Max number of different atomic species (ntypx) = 10
     Max number of k-points (npk) =  40000
     Max angular momentum in pseudopotentials (lmaxx) =  3
     Presently stress not available with electric field

     IMPORTANT: XC functional enforced from input :
     Exchange-correlation      = BEEF-VDW ( 1  4 27 13 2)
     Any further DFT definition will be discarded
     Please, verify this is what you really want

     Subspace diagonalization in iterative solution of the eigenvalue problem:
     a serial algorithm will be used

     bravais-lattice index     =            0
     lattice parameter (alat)  =       1.8897  a.u.
     unit-cell volume          =    5185.0501 (a.u.)^3
     number of atoms/cell      =           14
     number of atomic types    =            3
     number of electrons       =       163.00
     number of Kohn-Sham states=           91
     kinetic-energy cutoff     =      36.7493  Ry
     charge density cutoff     =     367.4932  Ry
     convergence threshold     =      1.0E-05
     mixing beta               =       0.3000
     number of iterations used =           10  plain     mixing
     Exchange-correlation      = BEEF-VDW ( 1  4 27 13 2)
     nstep                     =           50

     celldm(1)=   1.889726  celldm(2)=   0.000000  celldm(3)=   0.000000
     celldm(4)=   0.000000  celldm(5)=   0.000000  celldm(6)=   0.000000

     crystal axes: (cart. coord. in units of alat)
               a(1) = (   5.972022   0.000000   0.000000 )
               a(2) = (   2.986011   5.171923   0.000000 )
               a(3) = (   0.000000   0.000000  24.876136 )

     reciprocal axes: (cart. coord. in units 2 pi/alat)
               b(1) = (  0.167447 -0.096676  0.000000 )
               b(2) = (  0.000000  0.193352  0.000000 )
               b(3) = (  0.000000  0.000000  0.040199 )

     PseudoPot. # 1 for Ta read from file:
     /u/if/mamunm/psp/gbrv1.5pbe/Ta.UPF
     MD5 check sum: f8bbe9446314a3b8ea5d9f3e3836c939
     Pseudo is Ultrasoft + core correction, Zval = 13.0
     Generated by new atomic code, or converted to UPF format
     Using radial grid of  921 points,  7 beta functions with:
                l(1) =   0
                l(2) =   0
                l(3) =   1
                l(4) =   1
                l(5) =   2
                l(6) =   2
                l(7) =   3
     Q(r) pseudized with  6 coefficients,  rinner =    1.300   1.300   1.300
                                                       1.300   1.300   1.300
                                                       1.300

     PseudoPot. # 2 for O  read from file:
     /u/if/mamunm/psp/gbrv1.5pbe/O.UPF
     MD5 check sum: 734c27235a0248c51dbae37a1fbe46ec
     Pseudo is Ultrasoft + core correction, Zval =  6.0
     Generated by new atomic code, or converted to UPF format
     Using radial grid of  737 points,  5 beta functions with:
                l(1) =   0
                l(2) =   0
                l(3) =   1
                l(4) =   1
                l(5) =   2
     Q(r) pseudized with  8 coefficients,  rinner =    0.900   0.900   0.900
                                                       0.900   0.900

     PseudoPot. # 3 for H  read from file:
     /u/if/mamunm/psp/gbrv1.5pbe/H.UPF
     MD5 check sum: 761ae9a214b05c3daf00ab9f6b793d6f
     Pseudo is Ultrasoft, Zval =  1.0
     Generated by new atomic code, or converted to UPF format
     Using radial grid of  615 points,  2 beta functions with:
                l(1) =   0
                l(2) =   0
     Q(r) pseudized with  8 coefficients,  rinner =    0.700

     vdW kernel table read from file vdW_kernel_table
     MD5 check sum: 095c7af220d748ca6e76c0b4c6cfb241

     atomic species   valence    mass     pseudopotential
        Ta1           13.00   180.94788     Ta( 1.00)
        O1             6.00    15.99900     O ( 1.00)
        H1             1.00     1.00800     H ( 1.00)

     No symmetry found

   Cartesian axes

     site n.     atom                  positions (alat units)
         1           Ta1 tau(   1) = (   1.4930055   0.8619871  10.0000000  )
         2           Ta1 tau(   2) = (   4.4790165   0.8619871  10.0000000  )
         3           Ta1 tau(   3) = (   2.9860110   3.4479485  10.0000000  )
         4           Ta1 tau(   4) = (   5.9720221   3.4479485  10.0000000  )
         5           Ta1 tau(   5) = (   5.9720221   1.7239743  12.4380678  )
         6           Ta1 tau(   6) = (   2.9860110   1.7239743  12.4380678  )
         7           Ta1 tau(   7) = (   7.4650276   4.3099357  12.4380678  )
         8           Ta1 tau(   8) = (   4.4790165   4.3099357  12.4380678  )
         9           Ta1 tau(   9) = (   0.0000000   0.0000000  14.8761356  )
        10           Ta1 tau(  10) = (   2.9860110   0.0000000  14.8761356  )
        11           Ta1 tau(  11) = (   1.4930055   2.5859614  14.8761356  )
        12           Ta1 tau(  12) = (   4.4790165   2.5859614  14.8761356  )
        13           O1  tau(  13) = (   2.9860110   1.7239743  16.4101356  )
        14           H1  tau(  14) = (   2.9860110   1.7239743  17.3601356  )

     number of k points=    20  Fermi-Dirac smearing, width (Ry)=  0.0110
                       cart. coord. in units 2pi/alat
        k(    1) = (   0.0000000   0.0000000   0.0000000), wk =   0.0555556
        k(    2) = (   0.0000000   0.0322253   0.0000000), wk =   0.1111111
        k(    3) = (   0.0000000   0.0644506   0.0000000), wk =   0.1111111
        k(    4) = (   0.0000000  -0.0966758   0.0000000), wk =   0.0555556
        k(    5) = (   0.0279079  -0.0161126   0.0000000), wk =   0.1111111
        k(    6) = (   0.0279079   0.0161126   0.0000000), wk =   0.1111111
        k(    7) = (   0.0279079   0.0483379   0.0000000), wk =   0.1111111
        k(    8) = (   0.0279079  -0.1127885   0.0000000), wk =   0.1111111
        k(    9) = (   0.0279079  -0.0805632   0.0000000), wk =   0.1111111
        k(   10) = (   0.0279079  -0.0483379   0.0000000), wk =   0.1111111
        k(   11) = (   0.0558158  -0.0322253   0.0000000), wk =   0.1111111
        k(   12) = (   0.0558158   0.0000000   0.0000000), wk =   0.1111111
        k(   13) = (   0.0558158   0.0322253   0.0000000), wk =   0.1111111
        k(   14) = (   0.0558158  -0.1289011   0.0000000), wk =   0.1111111
        k(   15) = (   0.0558158  -0.0966758   0.0000000), wk =   0.1111111
        k(   16) = (   0.0558158  -0.0644506   0.0000000), wk =   0.1111111
        k(   17) = (  -0.0837237   0.0483379   0.0000000), wk =   0.0555556
        k(   18) = (  -0.0837237   0.0805632   0.0000000), wk =   0.1111111
        k(   19) = (  -0.0837237   0.1127885   0.0000000), wk =   0.1111111
        k(   20) = (  -0.0837237  -0.0483379   0.0000000), wk =   0.0555556

     Largest allocated arrays     est. size (Mb)     dimensions
     Largest temporary arrays     est. size (Mb)     dimensions

     Initial potential from superposition of free atoms
     Check: negative starting charge=   -1.121742

     starting charge  162.98664, renormalised to  163.00000

     negative rho (up, down):  1.122E+00 0.000E+00

     *
     * You are using vdW-DF for exchange-correlation in this calculation.
     * Please cite the following three references that made this development
     * possible:
     *
     *   M. Dion, H. Rydberg, E. Schroder, D. C. Langreth, and
     *   B. I. Lundqvist, Phys. Rev. Lett. 92, 246401 (2004).
     *
     *   T. Thonhauser, V. R. Cooper, S. Li, A. Puzder, P. Hyldgaard, and
     *   D. C. Langreth, Phys. Rev. B 76, 125112 (2007).
     *
     *   G. Roman-Perez and J. M. Soler, Phys. Rev. Lett. 103, 096102 (2009).
     *
     *
     * If you are using vdW-DF2, please also cite:
     *
     *   K. Lee, E. D. Murray, L. Kong, B. I. Lundqvist, and
     *   D. C. Langreth, Phys. Rev. B 82, 081101(R) (2010).
     *
     *
     * If you are calculating the stress with vdW-DF, please also cite:
     *
     *   R. Sabatini, E. Kucukbenli, B. Kolb, T. Thonhauser, and
     *   S. de Gironcoli, J. Phys.: Condens. Matter 24, 424209 (2012).
     *

     Carrying out vdW-DF run using the following parameters:

     Nqs =      20    Nr_points =    1024   r_max =   100.000
     q_mesh =
               0.00001000     0.04494208     0.09755937     0.15916263
               0.23128650     0.31572767     0.41458969     0.53033537
               0.66584808     0.82450364     1.01025438     1.22772762
               1.48234092     1.78043706     2.12944203     2.53805004
               3.01644009     3.57652955     4.23227104     5.00000000

     Gradients computed in reciprocal space

     Adding external electric field

     Computed dipole along edir(3) :
        Dipole               -0.0044 Ry au,         -0.0111 Debye
        Dipole field         -0.0000 Ry au

        Potential amp.        0.0010 Ry
        Total length         45.8339 bohr

     Starting wfc are  161 randomized atomic wfcs

     Self-consistent Calculation

     iteration #  1     ecut=    36.75 Ry     beta=0.30
     Davidson diagonalization with overlap
     ethr =  1.00E-02,  avg # of iterations =  2.0

[...]

     total energy              =   -1750.24156093 Ry
     Harris-Foulkes estimate   =   -1752.70651279 Ry
     estimated scf accuracy    <       5.32635497 Ry

[...]

     iteration # 11     ecut=    36.75 Ry     beta=0.30
     Davidson diagonalization with overlap
     c_bands:  2 eigenvalues not converged
     ethr =  1.85E-07,  avg # of iterations =  3.3

[...]

     End of self-consistent calculation

          k = 0.0000 0.0000 0.0000 ( 19447 PWs)   bands (ev):

   -65.8813 -65.8355 -65.8353 -65.7378 -65.6785 -65.6783 -65.6777 -65.6737
   -65.6538 -65.6124 -65.5965 -65.5963 -32.6465 -32.5053 -32.5052 -32.4770
   -32.4707 -32.4706 -32.4407 -32.3852 -32.3840 -32.3839 -32.2310 -32.1736
   -32.1735 -32.0640 -32.0262 -32.0261 -32.0183 -31.9615 -31.9614 -31.9548
   -31.8474 -31.8474 -31.8429 -31.8141 -31.7992 -31.7991 -31.7552 -31.7498
   -31.7497 -31.7355 -31.7226 -31.7225 -31.6544 -31.6544 -31.5910 -31.5910
   -18.8719  -7.1429  -4.7894  -3.1793  -3.1793  -3.1207  -2.1631  -1.5251
    -1.4538  -1.4538  -1.2348  -1.2347  -1.1699  -0.5388  -0.5387  -0.4859
    -0.3713  -0.3713  -0.3629   0.8701   0.8702   0.9753   1.8427   2.1227
     2.1228   2.2008   2.4650   2.4880   2.6938   2.6938   2.7084   2.9415
     2.9415   3.0266   3.1970   3.1970   3.2917   3.3231   3.3231   3.3943
     3.3943   3.6161   3.6162

[...]

          k =-0.0837 0.0483 0.0000 ( 19532 PWs)   bands (ev):

[...]

     the Fermi energy is     2.5811 ev

!    total energy              =   -1752.18798663 Ry
     Harris-Foulkes estimate   =   -1752.18796276 Ry
     estimated scf accuracy    <       0.00000984 Ry

     The total energy is the sum of the following terms:

     one-electron contribution =  -11849.11658393 Ry
     hartree contribution      =    5912.35850051 Ry
     xc contribution           =    -531.16088488 Ry
     ewald contribution        =    4715.83601790 Ry
     electric field correction =       0.00045605 Ry
     smearing contrib. (-TS)   =      -0.10549228 Ry

     convergence has been achieved in  13 iterations

 BEEF-vdW xc energy contributions
           1 :   -467.450730674077
           2 :    431.213291724119
           3 :   -368.026245138624
           4 :    292.592217463200
           5 :   -219.593445044917
           6 :    159.186879644852
           7 :   -115.004054573779
           8 :    84.9947811946739
           9 :   -64.2081262145587
          10 :    47.8810547390347
          11 :   -33.3903637205578
          12 :    20.4780886098315
          13 :   -10.1523917768420
          14 :    3.24071272210767
          15 :   0.490597650931988
          16 :   -2.28295419698333
          17 :    3.64820852705975
          18 :   -5.53235837976524
          19 :    7.90511506428857
          20 :   -9.97344584933342
          21 :    10.8273599939653
          22 :   -10.0944954311824
          23 :    8.21326598766450
          24 :   -6.19114894090114
          25 :    5.02628027598200
          26 :   -5.15914537655129
          27 :    6.27540503965668
          28 :   -7.54889435389589
          29 :    8.15045827586192
          30 :   -7.70987779527070
          31 :   -41.8826585827836
          32 :   -31.0278212285822

     Forces acting on atoms (Ry/au):

     negative rho (up, down):  1.177E+00 0.000E+00
     atom    1 type  1   force =    -0.00054097   -0.00032251    0.00519070
     atom    2 type  1   force =     0.00054328   -0.00031336    0.00517990
     atom    3 type  1   force =     0.00000727    0.00062271    0.00517770
     atom    4 type  1   force =    -0.00000953    0.00000680    0.00393249
     atom    5 type  1   force =    -0.00000179    0.00075281   -0.00471167
     atom    6 type  1   force =     0.00000877   -0.00001061    0.00425362
     atom    7 type  1   force =    -0.00066229   -0.00037627   -0.00471145
     atom    8 type  1   force =     0.00066480   -0.00037243   -0.00471367
     atom    9 type  1   force =    -0.00000057   -0.00000206   -0.04196861
     atom   10 type  1   force =    -0.00000673   -0.02629748    0.02963626
     atom   11 type  1   force =    -0.02275729    0.01314540    0.02966076
     atom   12 type  1   force =     0.02276857    0.01315696    0.02963981
     atom   13 type  2   force =    -0.00001264    0.00000910   -0.10310845
     atom   14 type  3   force =    -0.00000088    0.00000094    0.04654262

     Total force =     0.138814     Total SCF correction =     0.005550

     entering subroutine stress ...

     negative rho (up, down):  1.177E+00 0.000E+00
          total   stress  (Ry/bohr**3)                   (kbar)     P=  -32.22
  -0.00028309   0.00000000   0.00000000        -41.64      0.00      0.00
   0.00000000  -0.00028309  -0.00000001          0.00    -41.64     -0.00
   0.00000000  -0.00000001  -0.00009086          0.00     -0.00    -13.37

     BFGS Geometry Optimization

     number of scf cycles    =   1
     number of bfgs steps    =   0

     energy   new            =   -1752.1879866295 Ry

     new trust radius        =       0.1031084525 bohr
     new conv_thr            =       0.0000099958 Ry

ATOMIC_POSITIONS (crystal)
Ta1      0.166666667   0.166666667   0.401991699    0   0   0
Ta1      0.666666667   0.166666667   0.401991699    0   0   0
Ta1      0.166666667   0.666666667   0.401991699    0   0   0
Ta1      0.666666667   0.666666667   0.401991699    0   0   0
Ta1      0.833333333   0.333333333   0.500000000    0   0   0
Ta1      0.333333333   0.333333333   0.500000000    0   0   0
Ta1      0.833333333   0.833333333   0.500000000    0   0   0
Ta1      0.333333333   0.833333333   0.500000000    0   0   0
Ta1      0.000000055  -0.000000211   0.597115525
Ta1      0.501344747  -0.002690687   0.598638738
Ta1     -0.002689010   0.501345002   0.598639260
Ta1      0.501344417   0.501346185   0.598638814
O1       0.333331748   0.333334264   0.657480455
H1       0.333333208   0.333333429   0.698853116

     Writing output data file calc.save
     Check: negative starting charge=   -1.121742
     NEW-OLD atomic charge density approx. for the potential
     Check: negative starting charge=   -1.122534

[...]

     energy   old            =   -1752.1879866295 Ry
     energy   new            =   -1752.1944164802 Ry

     CASE: energy  _new < energy  _old

[...]

     Total force =     0.006916     Total SCF correction =     0.000152

[...]

     Threshold (ethr) on eigenvalues was too large:
     Diagonalizing with lowered threshold

     Davidson diagonalization with overlap
     ethr =  4.91E-08,  avg # of iterations =  2.5

[...]

     Total force =     0.004888     Total SCF correction =     0.000805
     SCF correction compared to forces is large: reduce conv_thr to get better values

[...]

     number of scf cycles    =  12
     number of bfgs steps    =  11

     energy   old            =   -1752.2194354952 Ry
     energy   new            =   -1752.2194526901 Ry

     CASE: energy  _new < energy  _old

     new trust radius        =       0.0081221074 bohr
     new conv_thr            =       0.0000001000 Ry

ATOMIC_POSITIONS (crystal)
Ta1      0.166666667   0.166666667   0.401991699    0   0   0
Ta1      0.666666667   0.166666667   0.401991699    0   0   0
Ta1      0.166666667   0.666666667   0.401991699    0   0   0
Ta1      0.666666667   0.666666667   0.401991699    0   0   0
Ta1      0.833333333   0.333333333   0.500000000    0   0   0
Ta1      0.333333333   0.333333333   0.500000000    0   0   0
Ta1      0.833333333   0.833333333   0.500000000    0   0   0
Ta1      0.333333333   0.833333333   0.500000000    0   0   0
Ta1     -0.000000615   0.000000646   0.587153918
Ta1      0.505905118  -0.011810834   0.600463792
Ta1     -0.011811724   0.505906407   0.600463728
Ta1      0.505905158   0.505906722   0.600463796
O1       0.333332598   0.333334120   0.654506096
H1       0.333332511   0.333333909   0.693707975

     Writing output data file calc.save
     Check: negative starting charge=   -1.125660
     NEW-OLD atomic charge density approx. for the potential
     Check: negative starting charge=   -1.125603

[...]

     Self-consistent Calculation

[...]

     Threshold (ethr) on eigenvalues was too large:
     Diagonalizing with lowered threshold

     Davidson diagonalization with overlap
     ethr =  1.85E-08,  avg # of iterations =  3.5

[...]

     total energy              =   -1752.21947085 Ry
     Harris-Foulkes estimate   =   -1752.21947093 Ry
     estimated scf accuracy    <       0.00000016 Ry

     iteration #  8     ecut=    36.75 Ry     beta=0.30
     Davidson diagonalization with overlap
     ethr =  9.65E-11,  avg # of iterations =  4.0

[...]

     negative rho (up, down):  1.181E+00 0.000E+00

     Adding external electric field

     Computed dipole along edir(3) :
        Dipole                0.4577 Ry au,          1.1634 Debye
        Dipole field          0.0011 Ry au

        Potential amp.       -0.1017 Ry
        Total length         45.8339 bohr

     End of self-consistent calculation

[...]

          k = 0.0558-0.0645 0.0000 ( 19521 PWs)   bands (ev):

[...]

          k =-0.0837-0.0483 0.0000 ( 19532 PWs)   bands (ev):

   -65.8204 -65.7975 -65.7853 -65.6577 -65.6441 -65.6326 -65.6194 -65.6090
   -65.5293 -65.5103 -65.4962 -65.4151 -32.4543 -32.3379 -32.3287 -32.3093
   -32.2988 -32.2865 -32.2143 -32.2058 -32.1843 -32.1825 -32.1697 -32.1598
   -32.1158 -32.0641 -32.0425 -31.9873 -31.9852 -31.9702 -31.9167 -31.9065
   -31.8916 -31.8904 -31.8406 -31.8369 -31.8225 -31.8197 -31.7893 -31.7448
   -31.7443 -31.6989 -31.6876 -31.6248 -31.6077 -31.5806 -31.5128 -31.4791
   -19.2995  -7.3675  -3.9931  -3.7209  -2.9703  -2.8316  -1.5142  -1.3263
    -0.7052  -0.6907  -0.5244  -0.3500  -0.3119  -0.3079   0.4209   0.5035
     0.6703   0.7156   0.8618   0.9198   1.1181   1.2540   1.2631   1.3503
     1.4817   1.5216   1.7808   1.7894   1.8986   2.0069   2.0538   2.1226
     2.1838   2.2584   2.4172   2.5324   2.8818   2.8973   2.9338   3.1954
     3.2145   3.6577   3.9235

     the Fermi energy is     2.6373 ev

!    total energy              =   -1752.21947077 Ry
     Harris-Foulkes estimate   =   -1752.21947109 Ry
     estimated scf accuracy    <       0.00000004 Ry

     The total energy is the sum of the following terms:

     one-electron contribution =  -11915.80480454 Ry
     hartree contribution      =    5945.92671613 Ry
     xc contribution           =    -531.27163192 Ry
     ewald contribution        =    4749.02744052 Ry
     electric field correction =       0.00050774 Ry
     smearing contrib. (-TS)   =      -0.09769870 Ry

     convergence has been achieved in   8 iterations

 BEEF-vdW xc energy contributions
           1 :   -467.567960142700
           2 :    431.371941438704
           3 :   -368.222167707528
           4 :    292.774501745431
           5 :   -219.696917919155
           6 :    159.169664338703
           7 :   -114.871149149091
           8 :    84.7967349784413
           9 :   -64.0166829831926
          10 :    47.7550237562682
          11 :   -33.3482744613696
          12 :    20.4917269900490
          13 :   -10.1649468693821
          14 :    3.19907603228182
          15 :   0.608192201682357
          16 :   -2.45773510816139
          17 :    3.83216065008190
          18 :   -5.67441155481384
          19 :    7.97956146303068
          20 :   -9.99399854131093
          21 :    10.8381945418124
          22 :   -10.1434932237386
          23 :    8.32298192714654
          24 :   -6.34505905558586
          25 :    5.17908262953074
          26 :   -5.26400552587654
          27 :    6.31138728650950
          28 :   -7.53336564172423
          29 :    8.12934517997496
          30 :   -7.73139265643749
          31 :   -41.8900334560460
          32 :   -31.0414475388126

     Forces acting on atoms (Ry/au):

     negative rho (up, down):  1.181E+00 0.000E+00
     atom    1 type  1   force =     0.00192640    0.00111212    0.00578811
     atom    2 type  1   force =    -0.00192637    0.00111217    0.00578839
     atom    3 type  1   force =     0.00000006   -0.00222441    0.00578809
     atom    4 type  1   force =    -0.00000000   -0.00000004    0.00255974
     atom    5 type  1   force =    -0.00000037    0.02037274   -0.01706804
     atom    6 type  1   force =     0.00000056   -0.00000047    0.03258527
     atom    7 type  1   force =    -0.01764354   -0.01018608   -0.01706804
     atom    8 type  1   force =     0.01764348   -0.01018648   -0.01706752
     atom    9 type  1   force =    -0.00000001    0.00000012    0.00086440
     atom   10 type  1   force =     0.00000029    0.00119626    0.00033563
     atom   11 type  1   force =     0.00103502   -0.00059759    0.00033597
     atom   12 type  1   force =    -0.00103568   -0.00059825    0.00033559
     atom   13 type  2   force =     0.00000019   -0.00000017   -0.00183572
     atom   14 type  3   force =    -0.00000002    0.00000009   -0.00134188

     Total force =     0.003247     Total SCF correction =     0.000417
     SCF correction compared to forces is large: reduce conv_thr to get better values

     entering subroutine stress ...

     negative rho (up, down):  1.181E+00 0.000E+00
          total   stress  (Ry/bohr**3)                   (kbar)     P=  -28.07
  -0.00025158   0.00000000   0.00000000        -37.01      0.00      0.00
   0.00000000  -0.00025158   0.00000000          0.00    -37.01      0.00
   0.00000000   0.00000000  -0.00006936          0.00      0.00    -10.20

     bfgs converged in  13 scf cycles and  12 bfgs steps
     (criteria: energy <  1.0E+00, force <  1.9E-03)

     End of BFGS Geometry Optimization

     Final energy   =   -1752.2194707653 Ry
Begin final coordinates

ATOMIC_POSITIONS (crystal)
Ta1      0.166666667   0.166666667   0.401991699    0   0   0
Ta1      0.666666667   0.166666667   0.401991699    0   0   0
Ta1      0.166666667   0.666666667   0.401991699    0   0   0
Ta1      0.666666667   0.666666667   0.401991699    0   0   0
Ta1      0.833333333   0.333333333   0.500000000    0   0   0
Ta1      0.333333333   0.333333333   0.500000000    0   0   0
Ta1      0.833333333   0.833333333   0.500000000    0   0   0
Ta1      0.333333333   0.833333333   0.500000000    0   0   0
Ta1     -0.000000615   0.000000646   0.587153918
Ta1      0.505905118  -0.011810834   0.600463792
Ta1     -0.011811724   0.505906407   0.600463728
Ta1      0.505905158   0.505906722   0.600463796
O1       0.333332598   0.333334120   0.654506096
H1       0.333332511   0.333333909   0.693707975
End final coordinates

     Writing output data file calc.save

     General routines

     Parallel routines

   This run was terminated on:   9:49:10  23Apr2018

   JOB DONE.
Job  /afs/slac/g/suncat/bin/suncat-tsmpirun -x LD_LIBRARY_PATH -wdir /scratch/qe461233_Y2cd8 pw.x -npool 4 -in pw.inp

TID   HOST_NAME   COMMAND_LINE            STATUS            TERMINATION_TIME
00000 suncat0065 pw.x -npool 4 -i  Done                     04/23/2018 09:49:10
00001 suncat0065 pw.x -npool 4 -i  Done                     04/23/2018 09:49:10
00002 suncat0065 pw.x -npool 4 -i  Done                     04/23/2018 09:49:10
00003 suncat0065 pw.x -npool 4 -i  Done                     04/23/2018 09:49:10
00004 suncat0065 pw.x -npool 4 -i  Done                     04/23/2018 09:49:10
00005 suncat0065 pw.x -npool 4 -i  Done                     04/23/2018 09:49:10
00006 suncat0065 pw.x -npool 4 -i  Done                     04/23/2018 09:49:10
00007 suncat0065 pw.x -npool 4 -i  Done                     04/23/2018 09:49:10
00008 suncat0031 pw.x -npool 4 -i  Done                     04/23/2018 09:49:10
00009 suncat0031 pw.x -npool 4 -i  Done                     04/23/2018 09:49:10
00010 suncat0031 pw.x -npool 4 -i  Done                     04/23/2018 09:49:10
00011 suncat0031 pw.x -npool 4 -i  Done                     04/23/2018 09:49:10
00012 suncat0031 pw.x -npool 4 -i  Done                     04/23/2018 09:49:10
00013 suncat0031 pw.x -npool 4 -i  Done                     04/23/2018 09:49:10
00014 suncat0031 pw.x -npool 4 -i  Done                     04/23/2018 09:49:10
00015 suncat0031 pw.x -npool 4 -i  Done                     04/23/2018 09:49:10
00016 suncat0012 pw.x -npool 4 -i  Done                     04/23/2018 09:49:10
00017 suncat0012 pw.x -npool 4 -i  Done                     04/23/2018 09:49:10
00018 suncat0012 pw.x -npool 4 -i  Done                     04/23/2018 09:49:10
00019 suncat0012 pw.x -npool 4 -i  Done                     04/23/2018 09:49:10
00020 suncat0012 pw.x -npool 4 -i  Done                     04/23/2018 09:49:10
00021 suncat0012 pw.x -npool 4 -i  Done                     04/23/2018 09:49:10
00022 suncat0012 pw.x -npool 4 -i  Done                     04/23/2018 09:49:10
00023 suncat0012 pw.x -npool 4 -i  Done                     04/23/2018 09:49:10
00024 suncat0172 pw.x -npool 4 -i  Done                     04/23/2018 09:49:10
00025 suncat0172 pw.x -npool 4 -i  Done                     04/23/2018 09:49:10
00026 suncat0172 pw.x -npool 4 -i  Done                     04/23/2018 09:49:10
00027 suncat0172 pw.x -npool 4 -i  Done                     04/23/2018 09:49:10
00028 suncat0172 pw.x -npool 4 -i  Done                     04/23/2018 09:49:10
00029 suncat0172 pw.x -npool 4 -i  Done                     04/23/2018 09:49:10
00030 suncat0172 pw.x -npool 4 -i  Done                     04/23/2018 09:49:10
00031 suncat0172 pw.x -npool 4 -i  Done                     04/23/2018 09:49:10