     Program PWSCF v.5.1rc2 (svn rev. 11289) starts on 19Apr2018 at  8:43:53

     Current dimensions of program PWSCF are:
     Max number of different atomic species (ntypx) = 10
     Max number of k-points (npk) =  40000
     Max angular momentum in pseudopotentials (lmaxx) =  3
     Presently stress not available with electric field

     IMPORTANT: XC functional enforced from input :
     Exchange-correlation      = BEEF-VDW ( 1  4 27 13 2)
     Any further DFT definition will be discarded
     Please, verify this is what you really want

     Subspace diagonalization in iterative solution of the eigenvalue problem:
     a serial algorithm will be used

     bravais-lattice index     =            0
     lattice parameter (alat)  =       1.8897  a.u.
     unit-cell volume          =    5182.3421 (a.u.)^3
     number of atoms/cell      =           14
     number of atomic types    =            3
     number of electrons       =       163.00
     number of Kohn-Sham states=           91
     kinetic-energy cutoff     =      36.7493  Ry
     charge density cutoff     =     367.4932  Ry
     convergence threshold     =      1.0E-05
     mixing beta               =       0.3000
     number of iterations used =           10  plain     mixing
     Exchange-correlation      = BEEF-VDW ( 1  4 27 13 2)
     nstep                     =           50

     celldm(1)=   1.889726  celldm(2)=   0.000000  celldm(3)=   0.000000
     celldm(4)=   0.000000  celldm(5)=   0.000000  celldm(6)=   0.000000

     crystal axes: (cart. coord. in units of alat)
               a(1) = (   5.970602   0.000000   0.000000 )
               a(2) = (   2.985301   5.170693   0.000000 )
               a(3) = (   0.000000   0.000000  24.874976 )

     reciprocal axes: (cart. coord. in units 2 pi/alat)
               b(1) = (  0.167487 -0.096699  0.000000 )
               b(2) = (  0.000000  0.193398  0.000000 )
               b(3) = (  0.000000  0.000000  0.040201 )

     PseudoPot. # 1 for Nb read from file:
     /u/if/mamunm/psp/gbrv1.5pbe/Nb.UPF
     MD5 check sum: 573aab8a2fa660278ed4a62cd769473f
     Pseudo is Ultrasoft + core correction, Zval = 13.0
     Generated by new atomic code, or converted to UPF format
     Using radial grid of  887 points,  6 beta functions with:
                l(1) =   0
                l(2) =   0
                l(3) =   1
                l(4) =   1
                l(5) =   2
                l(6) =   2
     Q(r) pseudized with  6 coefficients,  rinner =    1.000   1.000   1.000
                                                       1.000   1.000

     PseudoPot. # 2 for O  read from file:
     /u/if/mamunm/psp/gbrv1.5pbe/O.UPF
     MD5 check sum: 734c27235a0248c51dbae37a1fbe46ec
     Pseudo is Ultrasoft + core correction, Zval =  6.0
     Generated by new atomic code, or converted to UPF format
     Using radial grid of  737 points,  5 beta functions with:
                l(1) =   0
                l(2) =   0
                l(3) =   1
                l(4) =   1
                l(5) =   2
     Q(r) pseudized with  8 coefficients,  rinner =    0.900   0.900   0.900
                                                       0.900   0.900

     PseudoPot. # 3 for H  read from file:
     /u/if/mamunm/psp/gbrv1.5pbe/H.UPF
     MD5 check sum: 761ae9a214b05c3daf00ab9f6b793d6f
     Pseudo is Ultrasoft, Zval =  1.0
     Generated by new atomic code, or converted to UPF format
     Using radial grid of  615 points,  2 beta functions with:
                l(1) =   0
                l(2) =   0
     Q(r) pseudized with  8 coefficients,  rinner =    0.700

     vdW kernel table read from file vdW_kernel_table
     MD5 check sum: 095c7af220d748ca6e76c0b4c6cfb241

     atomic species   valence    mass     pseudopotential
        Nb1           13.00    92.90637     Nb( 1.00)
        O1             6.00    15.99900     O ( 1.00)
        H1             1.00     1.00800     H ( 1.00)

     No symmetry found

   Cartesian axes

     site n.     atom                  positions (alat units)
         1           Nb1 tau(   1) = (   1.4926504   0.8617821  10.0000000  )
         2           Nb1 tau(   2) = (   4.4779512   0.8617821  10.0000000  )
         3           Nb1 tau(   3) = (   2.9853008   3.4471284  10.0000000  )
         4           Nb1 tau(   4) = (   5.9706016   3.4471284  10.0000000  )
         5           Nb1 tau(   5) = (   5.9706016   1.7235642  12.4374879  )
         6           Nb1 tau(   6) = (   2.9853008   1.7235642  12.4374879  )
         7           Nb1 tau(   7) = (   7.4632520   4.3089105  12.4374879  )
         8           Nb1 tau(   8) = (   4.4779512   4.3089105  12.4374879  )
         9           Nb1 tau(   9) = (   0.0000000   0.0000000  14.8749758  )
        10           Nb1 tau(  10) = (   2.9853008   0.0000000  14.8749758  )
        11           Nb1 tau(  11) = (   1.4926504   2.5853463  14.8749758  )
        12           Nb1 tau(  12) = (   4.4779512   2.5853463  14.8749758  )
        13           O1  tau(  13) = (   0.0000000   0.0000000  16.8299758  )
        14           H1  tau(  14) = (   0.0000000   0.0000000  17.7799758  )

     number of k points=    20  Fermi-Dirac smearing, width (Ry)=  0.0110
                       cart. coord. in units 2pi/alat
        k(    1) = (   0.0000000   0.0000000   0.0000000), wk =   0.0555556
        k(    2) = (   0.0000000   0.0322329   0.0000000), wk =   0.1111111
        k(    3) = (   0.0000000   0.0644659   0.0000000), wk =   0.1111111
        k(    4) = (   0.0000000  -0.0966988   0.0000000), wk =   0.0555556
        k(    5) = (   0.0279146  -0.0161165   0.0000000), wk =   0.1111111
        k(    6) = (   0.0279146   0.0161165   0.0000000), wk =   0.1111111
        k(    7) = (   0.0279146   0.0483494   0.0000000), wk =   0.1111111
        k(    8) = (   0.0279146  -0.1128153   0.0000000), wk =   0.1111111
        k(    9) = (   0.0279146  -0.0805824   0.0000000), wk =   0.1111111
        k(   10) = (   0.0279146  -0.0483494   0.0000000), wk =   0.1111111
        k(   11) = (   0.0558291  -0.0322329   0.0000000), wk =   0.1111111
        k(   12) = (   0.0558291   0.0000000   0.0000000), wk =   0.1111111
        k(   13) = (   0.0558291   0.0322329   0.0000000), wk =   0.1111111
        k(   14) = (   0.0558291  -0.1289318   0.0000000), wk =   0.1111111
        k(   15) = (   0.0558291  -0.0966988   0.0000000), wk =   0.1111111
        k(   16) = (   0.0558291  -0.0644659   0.0000000), wk =   0.1111111
        k(   17) = (  -0.0837437   0.0483494   0.0000000), wk =   0.0555556
        k(   18) = (  -0.0837437   0.0805824   0.0000000), wk =   0.1111111
        k(   19) = (  -0.0837437   0.1128153   0.0000000), wk =   0.1111111
        k(   20) = (  -0.0837437  -0.0483494   0.0000000), wk =   0.0555556

     Largest allocated arrays     est. size (Mb)     dimensions
     Largest temporary arrays     est. size (Mb)     dimensions

     Initial potential from superposition of free atoms
     Check: negative starting charge=   -0.004845

     starting charge  162.96719, renormalised to  163.00000

     negative rho (up, down):  4.846E-03 0.000E+00

     *
     * You are using vdW-DF for exchange-correlation in this calculation.
     * Please cite the following three references that made this development
     * possible:
     *
     *   M. Dion, H. Rydberg, E. Schroder, D. C. Langreth, and
     *   B. I. Lundqvist, Phys. Rev. Lett. 92, 246401 (2004).
     *
     *   T. Thonhauser, V. R. Cooper, S. Li, A. Puzder, P. Hyldgaard, and
     *   D. C. Langreth, Phys. Rev. B 76, 125112 (2007).
     *
     *   G. Roman-Perez and J. M. Soler, Phys. Rev. Lett. 103, 096102 (2009).
     *
     *
     * If you are using vdW-DF2, please also cite:
     *
     *   K. Lee, E. D. Murray, L. Kong, B. I. Lundqvist, and
     *   D. C. Langreth, Phys. Rev. B 82, 081101(R) (2010).
     *
     *
     * If you are calculating the stress with vdW-DF, please also cite:
     *
     *   R. Sabatini, E. Kucukbenli, B. Kolb, T. Thonhauser, and
     *   S. de Gironcoli, J. Phys.: Condens. Matter 24, 424209 (2012).
     *

     Carrying out vdW-DF run using the following parameters:

     Nqs =      20    Nr_points =    1024   r_max =   100.000
     q_mesh =
               0.00001000     0.04494208     0.09755937     0.15916263
               0.23128650     0.31572767     0.41458969     0.53033537
               0.66584808     0.82450364     1.01025438     1.22772762
               1.48234092     1.78043706     2.12944203     2.53805004
               3.01644009     3.57652955     4.23227104     5.00000000

     Gradients computed in reciprocal space

     Adding external electric field

     Computed dipole along edir(3) :
        Dipole               -0.0119 Ry au,         -0.0303 Debye
        Dipole field         -0.0000 Ry au

        Potential amp.        0.0027 Ry
        Total length         45.8317 bohr

     Starting wfc are  161 randomized atomic wfcs

     Self-consistent Calculation

     iteration #  1     ecut=    36.75 Ry     beta=0.30
     Davidson diagonalization with overlap
     ethr =  1.00E-02,  avg # of iterations =  2.0

[...]

     total energy              =   -1453.89579681 Ry
     Harris-Foulkes estimate   =   -1456.64182480 Ry
     estimated scf accuracy    <       6.07541961 Ry

[...]

     End of self-consistent calculation

          k = 0.0000 0.0000 0.0000 ( 19435 PWs)   bands (ev):

   -52.9281 -52.6687 -52.6376 -52.5607 -52.5595 -52.5369 -52.5161 -52.5155
   -52.5084 -52.4561 -52.4152 -52.4148 -29.3299 -29.2203 -29.2199 -29.1078
   -29.0787 -29.0785 -29.0612 -29.0167 -29.0165 -29.0054 -28.8995 -28.7159
   -28.6229 -28.6220 -28.5555 -28.5553 -28.5537 -28.5050 -28.5050 -28.4483
   -28.3754 -28.3752 -28.3625 -28.3564 -28.3049 -28.3047 -28.2632 -28.2571
   -28.2571 -28.2261 -28.2111 -28.2107 -28.1498 -28.1498 -28.0647 -28.0647
   -17.8945  -6.1481  -3.0042  -1.9775  -1.9774  -1.7793  -1.2793  -1.0728
    -1.0310  -1.0309  -0.7708  -0.7708  -0.7556  -0.3798  -0.3773  -0.3772
    -0.3082  -0.3068  -0.3067   0.7826   1.0122   1.0124   1.8132   1.8842
     1.9497   1.9498   2.2057   2.4628   2.5518   2.5519   2.7807   2.7807
     2.8259   2.8263   2.9062   2.9062   2.9074   2.9277   2.9277   3.1267
     3.4184   3.6797   3.8973

[...]

          k =-0.0837 0.0483 0.0000 ( 19524 PWs)   bands (ev):

[...]

     the Fermi energy is     2.4710 ev

!    total energy              =   -1455.96062465 Ry
     Harris-Foulkes estimate   =   -1455.96066278 Ry
     estimated scf accuracy    <       0.00000848 Ry

     The total energy is the sum of the following terms:

     one-electron contribution =  -11749.42558929 Ry
     hartree contribution      =    5872.50042813 Ry
     xc contribution           =    -236.61467843 Ry
     ewald contribution        =    4657.69809831 Ry
     electric field correction =       0.00032084 Ry
     smearing contrib. (-TS)   =      -0.11920420 Ry

     convergence has been achieved in  14 iterations

 BEEF-vdW xc energy contributions
           1 :   -202.814628038488
           2 :    184.113496404635
           3 :   -152.372395683059
           4 :    116.214506878429
           5 :   -83.7727669005509
           6 :    60.0307930589364
           7 :   -45.8581365436951
           8 :    38.7504115955855
           9 :   -34.6919734887213
          10 :    30.1532969544414
          11 :   -23.4030156710649
          12 :    14.7322288907218
          13 :   -5.74741927174551
          14 :   -1.77187031838679
          15 :    6.83027201170268
          16 :   -9.58783183790399
          17 :    11.0704188495722
          18 :   -12.4782554302841
          19 :    14.4964676829860
          20 :   -16.9805460634270
          21 :    19.1379502580016
          22 :   -20.0536376636626
          23 :    19.2289492118030
          24 :   -16.8465334636032
          25 :    13.6506861268800
          26 :   -10.5588732345549
          27 :    8.23185653468488
          28 :   -6.82455821451435
          29 :    6.01849685302614
          30 :   -5.29018605235859
          31 :   -23.3856139054546
          32 :   -17.5889688172798

     Forces acting on atoms (Ry/au):

     negative rho (up, down):  4.566E-03 0.000E+00
     atom    1 type  1   force =     0.00009646    0.00007650   -0.00542528
     atom    2 type  1   force =    -0.00009318    0.00006833   -0.00542946
     atom    3 type  1   force =    -0.00000168   -0.00012532   -0.00543151
     atom    4 type  1   force =     0.00000272   -0.00001738   -0.00333360
     atom    5 type  1   force =     0.00004568    0.00416011   -0.00411163
     atom    6 type  1   force =    -0.00004297    0.00002856    0.00750056
     atom    7 type  1   force =    -0.00357451   -0.00212196   -0.00411897
     atom    8 type  1   force =     0.00357628   -0.00207060   -0.00416892
     atom    9 type  1   force =     0.00000216    0.00001551    0.07634719
     atom   10 type  1   force =    -0.00000489    0.00242781   -0.01738610
     atom   11 type  1   force =     0.00208272   -0.00122208   -0.01742641
     atom   12 type  1   force =    -0.00209081   -0.00121455   -0.01741964
     atom   13 type  2   force =     0.00000237   -0.00000447   -0.03811605
     atom   14 type  3   force =    -0.00000036   -0.00000046    0.03851983

     Total force =     0.098450     Total SCF correction =     0.003881

     entering subroutine stress ...

     negative rho (up, down):  4.566E-03 0.000E+00
          total   stress  (Ry/bohr**3)                   (kbar)     P=  -18.15
  -0.00021213  -0.00000001  -0.00000001        -31.20     -0.00     -0.00
  -0.00000001  -0.00021216   0.00000001         -0.00    -31.21      0.00
  -0.00000001   0.00000001   0.00005410         -0.00      0.00      7.96

     BFGS Geometry Optimization

     number of scf cycles    =   1
     number of bfgs steps    =   0

     energy   new            =   -1455.9606246518 Ry

     new trust radius        =       0.0763471932 bohr
     new conv_thr            =       0.0000099958 Ry

ATOMIC_POSITIONS (crystal)
Nb1      0.166666667   0.166666667   0.402010442    0   0   0
Nb1      0.666666667   0.166666667   0.402010442    0   0   0
Nb1      0.166666667   0.666666667   0.402010442    0   0   0
Nb1      0.666666667   0.666666667   0.402010442    0   0   0
Nb1      0.833333333   0.333333333   0.500000000    0   0   0
Nb1      0.333333333   0.333333333   0.500000000    0   0   0
Nb1      0.833333333   0.833333333   0.500000000    0   0   0
Nb1      0.333333333   0.833333333   0.500000000    0   0   0
Nb1     -0.000000602   0.000001587   0.599613728
Nb1      0.499875334   0.000248466   0.597619695
Nb1      0.000247127   0.499874931   0.597618838
Nb1      0.499876840   0.499875701   0.597618982
O1       0.000000439  -0.000000457   0.675771739
H1      -0.000000008  -0.000000047   0.715593042

     Writing output data file calc.save
     Check: negative starting charge=   -0.004845
     NEW-OLD atomic charge density approx. for the potential
     Check: negative starting charge=   -0.004836

[...]

     energy   old            =   -1455.9606246518 Ry
     energy   new            =   -1455.9648944566 Ry

     CASE: energy  _new < energy  _old

[...]

     Total force =     0.008052     Total SCF correction =     0.000959
     SCF correction compared to forces is large: reduce conv_thr to get better values

[...]

     Threshold (ethr) on eigenvalues was too large:
     Diagonalizing with lowered threshold

     Davidson diagonalization with overlap
     ethr =  8.51E-08,  avg # of iterations =  2.5

[...]

     Total force =     0.003757     Total SCF correction =     0.000282

[...]

     number of scf cycles    =  16
     number of bfgs steps    =  15

     energy   old            =   -1456.0077059299 Ry
     energy   new            =   -1456.0077367714 Ry

     CASE: energy  _new < energy  _old

     new trust radius        =       0.0036530856 bohr
     new conv_thr            =       0.0000001000 Ry

ATOMIC_POSITIONS (crystal)
Nb1      0.166666667   0.166666667   0.402010442    0   0   0
Nb1      0.666666667   0.166666667   0.402010442    0   0   0
Nb1      0.166666667   0.666666667   0.402010442    0   0   0
Nb1      0.666666667   0.666666667   0.402010442    0   0   0
Nb1      0.833333333   0.333333333   0.500000000    0   0   0
Nb1      0.333333333   0.333333333   0.500000000    0   0   0
Nb1      0.833333333   0.833333333   0.500000000    0   0   0
Nb1      0.333333333   0.833333333   0.500000000    0   0   0
Nb1     -0.000001961  -0.000006731   0.617218400
Nb1      0.500828145  -0.001654864   0.592408155
Nb1     -0.001662181   0.500831857   0.592410008
Nb1      0.500820266   0.500830736   0.592408948
O1       0.000002229  -0.000011440   0.693522557
H1      -0.000002289   0.000005548   0.732311952

     Writing output data file calc.save
     Check: negative starting charge=   -0.004722
     NEW-OLD atomic charge density approx. for the potential
     Check: negative starting charge=   -0.004723

[...]

     Self-consistent Calculation

[...]

     Threshold (ethr) on eigenvalues was too large:
     Diagonalizing with lowered threshold

     Davidson diagonalization with overlap
     ethr =  7.12E-09,  avg # of iterations =  5.7

[...]

     total energy              =   -1456.00774424 Ry
     Harris-Foulkes estimate   =   -1456.00774419 Ry
     estimated scf accuracy    <       0.00000020 Ry

     iteration #  9     ecut=    36.75 Ry     beta=0.30
     Davidson diagonalization with overlap
     ethr =  1.23E-10,  avg # of iterations =  3.0

[...]

     negative rho (up, down):  4.799E-03 0.000E+00

     Adding external electric field

     Computed dipole along edir(3) :
        Dipole                0.3761 Ry au,          0.9560 Debye
        Dipole field          0.0009 Ry au

        Potential amp.       -0.0836 Ry
        Total length         45.8317 bohr

     End of self-consistent calculation

[...]

          k = 0.0558-0.0645 0.0000 ( 19505 PWs)   bands (ev):

[...]

          k =-0.0837-0.0483 0.0000 ( 19524 PWs)   bands (ev):

   -53.0476 -52.6383 -52.6250 -52.6002 -52.5802 -52.5536 -52.5389 -52.5369
   -52.5008 -52.4980 -52.4693 -52.4601 -29.4697 -29.0391 -29.0348 -29.0216
   -29.0110 -28.9876 -28.9203 -28.9160 -28.9065 -28.8650 -28.8173 -28.8080
   -28.7860 -28.6676 -28.6257 -28.6089 -28.5958 -28.5936 -28.5779 -28.5517
   -28.5390 -28.5043 -28.4452 -28.4440 -28.4292 -28.4110 -28.3730 -28.3533
   -28.3074 -28.2993 -28.2698 -28.2481 -28.2371 -28.2190 -28.1787 -28.1573
   -17.8780  -6.2484  -1.9532  -1.9248  -1.5104  -1.4485  -0.6143  -0.4840
    -0.2347  -0.1492  -0.1264  -0.0566   0.0677   0.0914   0.4833   0.4896
     0.5864   0.6485   0.7573   0.9077   1.1093   1.1272   1.2522   1.3108
     1.3921   1.3973   1.5944   1.8598   1.8794   1.9397   2.0581   2.0734
     2.1165   2.1875   2.2484   2.3360   2.4145   2.5832   2.5973   2.7013
     2.9313   3.1412   3.5228

     the Fermi energy is     2.4298 ev

!    total energy              =   -1456.00774424 Ry
     Harris-Foulkes estimate   =   -1456.00774399 Ry
     estimated scf accuracy    <       0.00000002 Ry

     The total energy is the sum of the following terms:

     one-electron contribution =  -11597.25096157 Ry
     hartree contribution      =    5796.18814677 Ry
     xc contribution           =    -236.59271965 Ry
     ewald contribution        =    4581.76378974 Ry
     electric field correction =       0.00034305 Ry
     smearing contrib. (-TS)   =      -0.11634259 Ry

     convergence has been achieved in   9 iterations

 BEEF-vdW xc energy contributions
           1 :   -202.794762878841
           2 :    184.075791150284
           3 :   -152.329624765206
           4 :    116.183030416687
           5 :   -83.7486415969281
           6 :    59.9968329465105
           7 :   -45.7939875252139
           8 :    38.6389323945199
           9 :   -34.5252890746509
          10 :    29.9396669809251
          11 :   -23.1697245292224
          12 :    14.5147607431561
          13 :   -5.56234877475916
          14 :   -1.94745290817824
          15 :    7.04898332824527
          16 :   -9.89581247232158
          17 :    11.4709360292151
          18 :   -12.9198196747456
          19 :    14.8972986407223
          20 :   -17.2765493351114
          21 :    19.3235212825738
          22 :   -20.1863844815230
          23 :    19.3936699292301
          24 :   -17.1014924111042
          25 :    13.9925896762864
          26 :   -10.9274571318391
          27 :    8.54704022785441
          28 :   -7.03201859908492
          29 :    6.11933139253267
          30 :   -5.33755667083574
          31 :   -23.3831978934479
          32 :   -17.5821886389764

     Forces acting on atoms (Ry/au):

     negative rho (up, down):  4.799E-03 0.000E+00
     atom    1 type  1   force =    -0.00269869   -0.00155601   -0.00076672
     atom    2 type  1   force =     0.00269995   -0.00155418   -0.00076703
     atom    3 type  1   force =     0.00000134    0.00311392   -0.00076831
     atom    4 type  1   force =    -0.00000172   -0.00000349   -0.00171477
     atom    5 type  1   force =     0.00000535   -0.01953128    0.00719649
     atom    6 type  1   force =    -0.00000259    0.00000335   -0.01769003
     atom    7 type  1   force =     0.01691751    0.00976189    0.00719100
     atom    8 type  1   force =    -0.01691429    0.00976587    0.00718737
     atom    9 type  1   force =     0.00000317    0.00000712   -0.00023891
     atom   10 type  1   force =    -0.00000712   -0.00012336    0.00004373
     atom   11 type  1   force =    -0.00011540    0.00005487    0.00003827
     atom   12 type  1   force =     0.00011278    0.00006011    0.00004319
     atom   13 type  2   force =    -0.00000024    0.00000060   -0.00029770
     atom   14 type  3   force =    -0.00000006    0.00000058    0.00054342

     Total force =     0.000703     Total SCF correction =     0.000291
     SCF correction compared to forces is large: reduce conv_thr to get better values

     entering subroutine stress ...

     negative rho (up, down):  4.799E-03 0.000E+00
          total   stress  (Ry/bohr**3)                   (kbar)     P=  -18.42
  -0.00018915   0.00000000  -0.00000001        -27.83      0.00     -0.00
   0.00000000  -0.00018915  -0.00000000          0.00    -27.83     -0.00
  -0.00000001  -0.00000000   0.00000255         -0.00     -0.00      0.38

     bfgs converged in  17 scf cycles and  16 bfgs steps
     (criteria: energy <  1.0E+00, force <  1.9E-03)

     End of BFGS Geometry Optimization

     Final energy   =   -1456.0077442405 Ry
Begin final coordinates

ATOMIC_POSITIONS (crystal)
Nb1      0.166666667   0.166666667   0.402010442    0   0   0
Nb1      0.666666667   0.166666667   0.402010442    0   0   0
Nb1      0.166666667   0.666666667   0.402010442    0   0   0
Nb1      0.666666667   0.666666667   0.402010442    0   0   0
Nb1      0.833333333   0.333333333   0.500000000    0   0   0
Nb1      0.333333333   0.333333333   0.500000000    0   0   0
Nb1      0.833333333   0.833333333   0.500000000    0   0   0
Nb1      0.333333333   0.833333333   0.500000000    0   0   0
Nb1     -0.000001961  -0.000006731   0.617218400
Nb1      0.500828145  -0.001654864   0.592408155
Nb1     -0.001662181   0.500831857   0.592410008
Nb1      0.500820266   0.500830736   0.592408948
O1       0.000002229  -0.000011440   0.693522557
H1      -0.000002289   0.000005548   0.732311952
End final coordinates

     Writing output data file calc.save

     General routines

     Parallel routines

   This run was terminated on:  10:49:51  19Apr2018

   JOB DONE.
Job  /afs/slac/g/suncat/bin/suncat-tsmpirun -x LD_LIBRARY_PATH -wdir /scratch/qe584019_eY3Pa pw.x -npool 4 -in pw.inp

TID   HOST_NAME   COMMAND_LINE            STATUS            TERMINATION_TIME
00000 suncat0199 pw.x -npool 4 -i  Done                     04/19/2018 10:49:51
00001 suncat0199 pw.x -npool 4 -i  Done                     04/19/2018 10:49:51
00002 suncat0199 pw.x -npool 4 -i  Done                     04/19/2018 10:49:51
00003 suncat0199 pw.x -npool 4 -i  Done                     04/19/2018 10:49:51
00004 suncat0199 pw.x -npool 4 -i  Done                     04/19/2018 10:49:51
00005 suncat0199 pw.x -npool 4 -i  Done                     04/19/2018 10:49:51
00006 suncat0199 pw.x -npool 4 -i  Done                     04/19/2018 10:49:51
00007 suncat0199 pw.x -npool 4 -i  Done                     04/19/2018 10:49:51
00008 suncat0151 pw.x -npool 4 -i  Done                     04/19/2018 10:49:51
00009 suncat0151 pw.x -npool 4 -i  Done                     04/19/2018 10:49:51
00010 suncat0151 pw.x -npool 4 -i  Done                     04/19/2018 10:49:51
00011 suncat0151 pw.x -npool 4 -i  Done                     04/19/2018 10:49:51
00012 suncat0151 pw.x -npool 4 -i  Done                     04/19/2018 10:49:51
00013 suncat0151 pw.x -npool 4 -i  Done                     04/19/2018 10:49:51
00014 suncat0151 pw.x -npool 4 -i  Done                     04/19/2018 10:49:51
00015 suncat0151 pw.x -npool 4 -i  Done                     04/19/2018 10:49:51
00016 suncat0149 pw.x -npool 4 -i  Done                     04/19/2018 10:49:51
00017 suncat0149 pw.x -npool 4 -i  Done                     04/19/2018 10:49:51
00018 suncat0149 pw.x -npool 4 -i  Done                     04/19/2018 10:49:51
00019 suncat0149 pw.x -npool 4 -i  Done                     04/19/2018 10:49:51
00020 suncat0149 pw.x -npool 4 -i  Done                     04/19/2018 10:49:51
00021 suncat0149 pw.x -npool 4 -i  Done                     04/19/2018 10:49:51
00022 suncat0149 pw.x -npool 4 -i  Done                     04/19/2018 10:49:51
00023 suncat0149 pw.x -npool 4 -i  Done                     04/19/2018 10:49:51
00024 suncat0143 pw.x -npool 4 -i  Done                     04/19/2018 10:49:51
00025 suncat0143 pw.x -npool 4 -i  Done                     04/19/2018 10:49:51
00026 suncat0143 pw.x -npool 4 -i  Done                     04/19/2018 10:49:51
00027 suncat0143 pw.x -npool 4 -i  Done                     04/19/2018 10:49:51
00028 suncat0143 pw.x -npool 4 -i  Done                     04/19/2018 10:49:51
00029 suncat0143 pw.x -npool 4 -i  Done                     04/19/2018 10:49:51
00030 suncat0143 pw.x -npool 4 -i  Done                     04/19/2018 10:49:51
00031 suncat0143 pw.x -npool 4 -i  Done                     04/19/2018 10:49:51