     Program PWSCF v.5.1rc2 (svn rev. 11289) starts on  2May2018 at 12:49:59

     Current dimensions of program PWSCF are:
     Max number of different atomic species (ntypx) = 10
     Max number of k-points (npk) =  40000
     Max angular momentum in pseudopotentials (lmaxx) =  3
     Presently stress not available with electric field

     IMPORTANT: XC functional enforced from input :
     Exchange-correlation      = BEEF-VDW ( 1  4 27 13 2)
     Any further DFT definition will be discarded
     Please, verify this is what you really want

     Subspace diagonalization in iterative solution of the eigenvalue problem:
     a serial algorithm will be used

     bravais-lattice index     =            0
     lattice parameter (alat)  =       1.8897  a.u.
     unit-cell volume          =    3724.3394 (a.u.)^3
     number of atoms/cell      =           13
     number of atomic types    =            2
     number of electrons       =       172.00
     number of Kohn-Sham states=           96
     kinetic-energy cutoff     =      36.7493  Ry
     charge density cutoff     =     367.4932  Ry
     convergence threshold     =      1.0E-05
     mixing beta               =       0.3000
     number of iterations used =           10  plain     mixing
     Exchange-correlation      = BEEF-VDW ( 1  4 27 13 2)
     nstep                     =           50

     celldm(1)=   1.889726  celldm(2)=   0.000000  celldm(3)=   0.000000
     celldm(4)=   0.000000  celldm(5)=   0.000000  celldm(6)=   0.000000

     crystal axes: (cart. coord. in units of alat)
               a(1) = (   5.132588   0.000000   0.000000 )
               a(2) = (   2.566294   4.444952   0.000000 )
               a(3) = (   0.000000   0.000000  24.190741 )

     reciprocal axes: (cart. coord. in units 2 pi/alat)
               b(1) = (  0.194833 -0.112487  0.000000 )
               b(2) = (  0.000000  0.224974  0.000000 )
               b(3) = (  0.000000  0.000000  0.041338 )

     PseudoPot. # 1 for Cr read from file:
     /u/if/mamunm/psp/gbrv1.5pbe/Cr.UPF
     MD5 check sum: 0d52af634a40206e4dee301ad30da4bf
     Pseudo is Ultrasoft + core correction, Zval = 14.0
     Generated by new atomic code, or converted to UPF format
     Using radial grid of  857 points,  6 beta functions with:
                l(1) =   0
                l(2) =   0
                l(3) =   1
                l(4) =   1
                l(5) =   2
                l(6) =   2
     Q(r) pseudized with  8 coefficients,  rinner =    0.950   0.950   0.950
                                                       0.950   0.950

     PseudoPot. # 2 for C  read from file:
     /u/if/mamunm/psp/gbrv1.5pbe/C.UPF
     MD5 check sum: d1aef80898a10debaa0f26306b886e00
     Pseudo is Ultrasoft + core correction, Zval =  4.0
     Generated by new atomic code, or converted to UPF format
     Using radial grid of  721 points,  4 beta functions with:
                l(1) =   0
                l(2) =   0
                l(3) =   1
                l(4) =   1
     Q(r) pseudized with  8 coefficients,  rinner =    1.100   1.100   1.100

     vdW kernel table read from file vdW_kernel_table
     MD5 check sum: 095c7af220d748ca6e76c0b4c6cfb241

     atomic species   valence    mass     pseudopotential
        Cr1           14.00    51.99610     Cr( 1.00)
        C1             4.00    12.01100     C ( 1.00)

     No symmetry found

   Cartesian axes

     site n.     atom                  positions (alat units)
         1           Cr1 tau(   1) = (   1.2831471   0.7408253  10.0000000  )
         2           Cr1 tau(   2) = (   3.8494412   0.7408253  10.0000000  )
         3           Cr1 tau(   3) = (   2.5662941   2.9633012  10.0000000  )
         4           Cr1 tau(   4) = (   5.1325882   2.9633012  10.0000000  )
         5           Cr1 tau(   5) = (   5.1325882   1.4816506  12.0953704  )
         6           Cr1 tau(   6) = (   2.5662941   1.4816506  12.0953704  )
         7           Cr1 tau(   7) = (   6.4157353   3.7041265  12.0953704  )
         8           Cr1 tau(   8) = (   3.8494412   3.7041265  12.0953704  )
         9           Cr1 tau(   9) = (   0.0000000   0.0000000  14.1907408  )
        10           Cr1 tau(  10) = (   2.5662941   0.0000000  14.1907408  )
        11           Cr1 tau(  11) = (   1.2831471   2.2224759  14.1907408  )
        12           Cr1 tau(  12) = (   3.8494412   2.2224759  14.1907408  )
        13           C1  tau(  13) = (   0.0000000   0.0000000  16.0182408  )

     number of k points=    20  Fermi-Dirac smearing, width (Ry)=  0.0110
                       cart. coord. in units 2pi/alat
        k(    1) = (   0.0000000   0.0000000   0.0000000), wk =   0.0555556
        k(    2) = (   0.0000000   0.0374957   0.0000000), wk =   0.1111111
        k(    3) = (   0.0000000   0.0749914   0.0000000), wk =   0.1111111
        k(    4) = (   0.0000000  -0.1124872   0.0000000), wk =   0.0555556
        k(    5) = (   0.0324722  -0.0187479   0.0000000), wk =   0.1111111
        k(    6) = (   0.0324722   0.0187479   0.0000000), wk =   0.1111111
        k(    7) = (   0.0324722   0.0562436   0.0000000), wk =   0.1111111
        k(    8) = (   0.0324722  -0.1312350   0.0000000), wk =   0.1111111
        k(    9) = (   0.0324722  -0.0937393   0.0000000), wk =   0.1111111
        k(   10) = (   0.0324722  -0.0562436   0.0000000), wk =   0.1111111
        k(   11) = (   0.0649445  -0.0374957   0.0000000), wk =   0.1111111
        k(   12) = (   0.0649445   0.0000000   0.0000000), wk =   0.1111111
        k(   13) = (   0.0649445   0.0374957   0.0000000), wk =   0.1111111
        k(   14) = (   0.0649445  -0.1499829   0.0000000), wk =   0.1111111
        k(   15) = (   0.0649445  -0.1124872   0.0000000), wk =   0.1111111
        k(   16) = (   0.0649445  -0.0749914   0.0000000), wk =   0.1111111
        k(   17) = (  -0.0974167   0.0562436   0.0000000), wk =   0.0555556
        k(   18) = (  -0.0974167   0.0937393   0.0000000), wk =   0.1111111
        k(   19) = (  -0.0974167   0.1312350   0.0000000), wk =   0.1111111
        k(   20) = (  -0.0974167  -0.0562436   0.0000000), wk =   0.0555556

     Largest allocated arrays     est. size (Mb)     dimensions
     Largest temporary arrays     est. size (Mb)     dimensions

     Check: negative/imaginary core charge=   -0.000004    0.000000

     Initial potential from superposition of free atoms
     Check: negative starting charge=   -0.014875

     starting charge  159.99977, renormalised to  172.00000

     negative rho (up, down):  1.599E-02 0.000E+00

     *
     * You are using vdW-DF for exchange-correlation in this calculation.
     * Please cite the following three references that made this development
     * possible:
     *
     *   M. Dion, H. Rydberg, E. Schroder, D. C. Langreth, and
     *   B. I. Lundqvist, Phys. Rev. Lett. 92, 246401 (2004).
     *
     *   T. Thonhauser, V. R. Cooper, S. Li, A. Puzder, P. Hyldgaard, and
     *   D. C. Langreth, Phys. Rev. B 76, 125112 (2007).
     *
     *   G. Roman-Perez and J. M. Soler, Phys. Rev. Lett. 103, 096102 (2009).
     *
     *
     * If you are using vdW-DF2, please also cite:
     *
     *   K. Lee, E. D. Murray, L. Kong, B. I. Lundqvist, and
     *   D. C. Langreth, Phys. Rev. B 82, 081101(R) (2010).
     *
     *
     * If you are calculating the stress with vdW-DF, please also cite:
     *
     *   R. Sabatini, E. Kucukbenli, B. Kolb, T. Thonhauser, and
     *   S. de Gironcoli, J. Phys.: Condens. Matter 24, 424209 (2012).
     *

     Carrying out vdW-DF run using the following parameters:

     Nqs =      20    Nr_points =    1024   r_max =   100.000
     q_mesh =
               0.00001000     0.04494208     0.09755937     0.15916263
               0.23128650     0.31572767     0.41458969     0.53033537
               0.66584808     0.82450364     1.01025438     1.22772762
               1.48234092     1.78043706     2.12944203     2.53805004
               3.01644009     3.57652955     4.23227104     5.00000000

     Gradients computed in reciprocal space

     Adding external electric field

     Computed dipole along edir(3) :
        Dipole               -2.2237 Ry au,         -5.6520 Debye
        Dipole field         -0.0075 Ry au

        Potential amp.        0.6688 Ry
        Total length         44.5710 bohr

     Starting wfc are  124 randomized atomic wfcs

     Self-consistent Calculation

     iteration #  1     ecut=    36.75 Ry     beta=0.30
     Davidson diagonalization with overlap
     ethr =  1.00E-02,  avg # of iterations =  6.1

[...]

     total energy              =   -2006.64621397 Ry
     Harris-Foulkes estimate   =   -2130.65160074 Ry
     estimated scf accuracy    <     258.31170043 Ry

[...]

     End of self-consistent calculation

          k = 0.0000 0.0000 0.0000 ( 14081 PWs)   bands (ev):

   -70.9459 -70.8659 -70.8137 -70.8072 -70.8065 -70.7810 -70.7766 -70.7762
   -70.6877 -70.6854 -70.6845 -70.5765 -42.5377 -42.5373 -42.5303 -42.4893
   -42.4334 -42.4310 -42.4304 -42.3424 -42.3419 -42.3391 -42.2207 -42.1757
   -42.1747 -42.0879 -42.0760 -42.0757 -42.0279 -42.0225 -42.0222 -42.0219
   -41.9501 -41.9497 -41.9449 -41.9414 -41.8663 -41.8658 -41.8486 -41.8482
   -41.8437 -41.8328 -41.8268 -41.8264 -41.7225 -41.7223 -41.6964 -41.6964
    -7.8204  -5.8006  -4.0111  -3.1109  -2.8973  -2.8972  -2.8615  -2.5501
    -2.5462  -2.5462  -2.1336  -2.1335  -2.1290  -2.0028  -2.0025  -1.9999
    -1.3892  -1.3889  -1.1416  -0.4212  -0.3241  -0.3240  -0.1598   0.0008
     0.1663   0.3399   0.3399   0.3998   0.4000   0.5638   0.5639   0.6103
     0.6106   0.6178   0.7319   0.7319   0.7671   0.8095   0.8096   1.3204
     1.5847   1.6524   1.6526   1.6730   1.9503   1.9504   2.1295   2.1297

[...]

          k =-0.0974 0.0562 0.0000 ( 14010 PWs)   bands (ev):

[...]

     the Fermi energy is     0.7870 ev

!    total energy              =   -2126.25323051 Ry
     Harris-Foulkes estimate   =   -2126.25325835 Ry
     estimated scf accuracy    <       0.00000853 Ry

     The total energy is the sum of the following terms:

     one-electron contribution =  -19753.08890083 Ry
     hartree contribution      =    9866.89322785 Ry
     xc contribution           =    -282.49632828 Ry
     ewald contribution        =    8042.57254045 Ry
     electric field correction =       0.00025747 Ry
     smearing contrib. (-TS)   =      -0.13402716 Ry

     convergence has been achieved in  35 iterations

 BEEF-vdW xc energy contributions
           1 :   -244.506151447189
           2 :    220.111973993044
           3 :   -179.410435626958
           4 :    134.660611901926
           5 :   -96.9588337898951
           6 :    72.2201999515135
           7 :   -60.1096523428435
           8 :    55.9038939634352
           9 :   -53.8553435208493
          10 :    50.1414141660729
          11 :   -44.0736078260459
          12 :    37.3741983912781
          13 :   -32.3518568042908
          14 :    30.2060589700942
          15 :   -30.3832190526758
          16 :    31.1465890207000
          17 :   -30.8061822456424
          18 :    28.7560882780079
          19 :   -25.6987611218229
          20 :    23.0092296141349
          21 :   -21.7445222300060
          22 :    21.9733179765765
          23 :   -22.8234692570184
          24 :    23.1376612404461
          25 :   -22.2494419765790
          26 :    20.3660928117164
          27 :   -18.3530637479616
          28 :    17.1140743230917
          29 :   -17.0001985916372
          30 :    17.6222815487696
          31 :   -24.2615299342873
          32 :   -17.4463324825181

     Forces acting on atoms (Ry/au):

     negative rho (up, down):  1.461E-02 0.000E+00
     atom    1 type  1   force =     0.00068900    0.00040920   -0.00068330
     atom    2 type  1   force =    -0.00068877    0.00039922   -0.00071057
     atom    3 type  1   force =    -0.00001838   -0.00080064   -0.00066823
     atom    4 type  1   force =     0.00001420   -0.00000098   -0.00022322
     atom    5 type  1   force =    -0.00000303    0.00714880   -0.00260279
     atom    6 type  1   force =    -0.00000005   -0.00002283    0.01677245
     atom    7 type  1   force =    -0.00620806   -0.00355872   -0.00257837
     atom    8 type  1   force =     0.00621656   -0.00357368   -0.00258107
     atom    9 type  1   force =    -0.00001057    0.00000104    0.09095440
     atom   10 type  1   force =     0.00000849    0.00245943    0.00401234
     atom   11 type  1   force =     0.00213298   -0.00122530    0.00397297
     atom   12 type  1   force =    -0.00213300   -0.00123502    0.00396070
     atom   13 type  2   force =     0.00000062   -0.00000051   -0.10962531

     Total force =     0.142675     Total SCF correction =     0.002803

     entering subroutine stress ...

     negative rho (up, down):  1.461E-02 0.000E+00
          total   stress  (Ry/bohr**3)                   (kbar)     P=  -28.87
  -0.00023744   0.00000005   0.00000000        -34.93      0.01      0.00
   0.00000005  -0.00023743   0.00000001          0.01    -34.93      0.00
   0.00000000   0.00000001  -0.00011391          0.00      0.00    -16.76

     BFGS Geometry Optimization

     number of scf cycles    =   1
     number of bfgs steps    =   0

     energy   new            =   -2126.2532305128 Ry

     new trust radius        =       0.1096253087 bohr
     new conv_thr            =       0.0000099958 Ry

ATOMIC_POSITIONS (crystal)
Cr1      0.166666667   0.166666667   0.413381306    0   0   0
Cr1      0.666666667   0.166666667   0.413381306    0   0   0
Cr1      0.166666667   0.666666667   0.413381306    0   0   0
Cr1      0.666666667   0.666666667   0.413381306    0   0   0
Cr1      0.833333333   0.333333333   0.500000000    0   0   0
Cr1      0.333333333   0.333333333   0.500000000    0   0   0
Cr1      0.833333333   0.833333333   0.500000000    0   0   0
Cr1      0.333333333   0.833333333   0.500000000    0   0   0
Cr1     -0.000001151   0.000000124   0.588608340
Cr1      0.499854477   0.000292798   0.586706465
Cr1      0.000292850   0.499854127   0.586705604
Cr1      0.499853600   0.499852969   0.586705335
C1       0.000000094  -0.000000060   0.659766053

     Writing output data file calc.save
     Check: negative starting charge=   -0.014875
     NEW-OLD atomic charge density approx. for the potential

     Check: negative/imaginary core charge=   -0.000004    0.000000
     Check: negative starting charge=   -0.014974

[...]

     Total force =     0.047882     Total SCF correction =     0.004890
     SCF correction compared to forces is large: reduce conv_thr to get better values

[...]

     energy   old            =   -2126.2532305128 Ry
     energy   new            =   -2126.2672746405 Ry

     CASE: energy  _new < energy  _old

[...]

     iteration #  6     ecut=    36.75 Ry     beta=0.30
     Davidson diagonalization with overlap
     c_bands:  1 eigenvalues not converged
     ethr =  2.96E-05,  avg # of iterations =  9.3

[...]

     number of scf cycles    =   9
     number of bfgs steps    =   8

     energy   old            =   -2126.2720850638 Ry
     energy   new            =   -2126.2721897760 Ry

     CASE: energy  _new < energy  _old

     new trust radius        =       0.0038380040 bohr
     new conv_thr            =       0.0000001000 Ry

ATOMIC_POSITIONS (crystal)
Cr1      0.166666667   0.166666667   0.413381306    0   0   0
Cr1      0.666666667   0.166666667   0.413381306    0   0   0
Cr1      0.166666667   0.666666667   0.413381306    0   0   0
Cr1      0.666666667   0.666666667   0.413381306    0   0   0
Cr1      0.833333333   0.333333333   0.500000000    0   0   0
Cr1      0.333333333   0.333333333   0.500000000    0   0   0
Cr1      0.833333333   0.833333333   0.500000000    0   0   0
Cr1      0.333333333   0.833333333   0.500000000    0   0   0
Cr1      0.000000635   0.000002527   0.583836377
Cr1      0.498499498   0.003000514   0.586992122
Cr1      0.003001470   0.498499854   0.586991391
Cr1      0.498501402   0.498500400   0.586990523
C1       0.000000477  -0.000002410   0.653221071

     Writing output data file calc.save
     Check: negative starting charge=   -0.014701
     NEW-OLD atomic charge density approx. for the potential

     Check: negative/imaginary core charge=   -0.000004    0.000000
     Check: negative starting charge=   -0.014716

[...]

     Self-consistent Calculation

[...]

     total energy              =   -2126.27220056 Ry
     Harris-Foulkes estimate   =   -2126.27220067 Ry
     estimated scf accuracy    <       0.00000038 Ry

     iteration # 17     ecut=    36.75 Ry     beta=0.30
     Davidson diagonalization with overlap
     ethr =  1.34E-10,  avg # of iterations =  3.5

[...]

     negative rho (up, down):  1.445E-02 0.000E+00

     Adding external electric field

     Computed dipole along edir(3) :
        Dipole               -0.2087 Ry au,         -0.5306 Debye
        Dipole field         -0.0007 Ry au

        Potential amp.        0.0628 Ry
        Total length         44.5710 bohr

     End of self-consistent calculation

[...]

          k = 0.0649-0.0750 0.0000 ( 13990 PWs)   bands (ev):

[...]

          k =-0.0974-0.0562 0.0000 ( 14010 PWs)   bands (ev):

   -70.7825 -70.7484 -70.7213 -70.7003 -70.6919 -70.6791 -70.6563 -70.6179
   -70.6169 -70.5709 -70.5682 -70.4213 -42.3119 -42.3036 -42.2932 -42.2657
   -42.2393 -42.2134 -42.1717 -42.1574 -42.1271 -42.1266 -42.0987 -42.0972
   -42.0264 -41.9910 -41.9850 -41.9751 -41.9652 -41.9372 -41.9234 -41.9108
   -41.8986 -41.8954 -41.8787 -41.8679 -41.8552 -41.8276 -41.8118 -41.8114
   -41.7964 -41.7858 -41.7252 -41.7216 -41.6902 -41.6511 -41.6459 -41.6035
    -7.7870  -3.9688  -3.8870  -2.6944  -2.4776  -2.1005  -2.0193  -1.9541
    -1.9501  -1.8874  -1.7560  -1.4711  -1.4669  -1.3297  -1.1888  -1.0944
    -1.0833  -0.9887  -0.8766  -0.6621  -0.5668  -0.5324  -0.4740  -0.4530
    -0.3436  -0.0792  -0.0269   0.0750   0.1070   0.1472   0.2580   0.3032
     0.3686   0.4464   0.5148   0.5150   0.6142   0.6549   0.7711   0.9104
     1.0127   1.0482   1.3511   1.4692   1.4970   1.5367   1.5713   1.6614

     the Fermi energy is     0.9032 ev

!    total energy              =   -2126.27220055 Ry
     Harris-Foulkes estimate   =   -2126.27219957 Ry
     estimated scf accuracy    <       0.00000003 Ry

     The total energy is the sum of the following terms:

     one-electron contribution =  -19837.19011211 Ry
     hartree contribution      =    9909.61259195 Ry
     xc contribution           =    -282.67621442 Ry
     ewald contribution        =    8084.11564680 Ry
     electric field correction =       0.00014703 Ry
     smearing contrib. (-TS)   =      -0.13425981 Ry

     convergence has been achieved in  17 iterations

 BEEF-vdW xc energy contributions
           1 :   -244.682551971463
           2 :    220.321599215705
           3 :   -179.655329976167
           4 :    134.909574882656
           5 :   -97.1648232885635
           6 :    72.3429585095382
           7 :   -60.1378222688197
           8 :    55.8653906263381
           9 :   -53.8060401796664
          10 :    50.1357769586191
          11 :   -44.1348335768936
          12 :    37.4840404881961
          13 :   -32.4670623498245
          14 :    30.2877749344348
          15 :   -30.4175389738042
          16 :    31.1456996956257
          17 :   -30.7938729444348
          18 :    28.7487574528673
          19 :   -25.6953157581129
          20 :    22.9962624532459
          21 :   -21.7110479179652
          22 :    21.9231183732537
          23 :   -22.7754594962382
          24 :    23.1138158160060
          25 :   -22.2593578775929
          26 :    20.3996165216158
          27 :   -18.3862955576168
          28 :    17.1247974341942
          29 :   -16.9818877976924
          30 :    17.5865627338138
          31 :   -24.2724727883881
          32 :   -17.4638753140998

     Forces acting on atoms (Ry/au):

     negative rho (up, down):  1.445E-02 0.000E+00
     atom    1 type  1   force =     0.00069783    0.00040326   -0.00083422
     atom    2 type  1   force =    -0.00069773    0.00040415   -0.00084371
     atom    3 type  1   force =     0.00000105   -0.00080608   -0.00084351
     atom    4 type  1   force =    -0.00000078   -0.00000060   -0.00021985
     atom    5 type  1   force =     0.00000123    0.01545068   -0.00655812
     atom    6 type  1   force =    -0.00000273   -0.00000285    0.01981236
     atom    7 type  1   force =    -0.01338207   -0.00772538   -0.00655220
     atom    8 type  1   force =     0.01338155   -0.00772441   -0.00655472
     atom    9 type  1   force =     0.00000055   -0.00000073    0.00086086
     atom   10 type  1   force =     0.00000126   -0.00094411    0.00080802
     atom   11 type  1   force =    -0.00081593    0.00047399    0.00080757
     atom   12 type  1   force =     0.00081716    0.00047369    0.00080154
     atom   13 type  2   force =    -0.00000138   -0.00000160   -0.00068402

     Total force =     0.002415     Total SCF correction =     0.000089

     entering subroutine stress ...

     negative rho (up, down):  1.445E-02 0.000E+00
          total   stress  (Ry/bohr**3)                   (kbar)     P=  -22.13
  -0.00022368  -0.00000000  -0.00000000        -32.90     -0.00     -0.00
  -0.00000000  -0.00022368   0.00000000         -0.00    -32.90      0.00
  -0.00000000   0.00000000  -0.00000397         -0.00      0.00     -0.58

     bfgs converged in  10 scf cycles and   9 bfgs steps
     (criteria: energy <  1.0E+00, force <  1.9E-03)

     End of BFGS Geometry Optimization

     Final energy   =   -2126.2722005532 Ry
Begin final coordinates

ATOMIC_POSITIONS (crystal)
Cr1      0.166666667   0.166666667   0.413381306    0   0   0
Cr1      0.666666667   0.166666667   0.413381306    0   0   0
Cr1      0.166666667   0.666666667   0.413381306    0   0   0
Cr1      0.666666667   0.666666667   0.413381306    0   0   0
Cr1      0.833333333   0.333333333   0.500000000    0   0   0
Cr1      0.333333333   0.333333333   0.500000000    0   0   0
Cr1      0.833333333   0.833333333   0.500000000    0   0   0
Cr1      0.333333333   0.833333333   0.500000000    0   0   0
Cr1      0.000000635   0.000002527   0.583836377
Cr1      0.498499498   0.003000514   0.586992122
Cr1      0.003001470   0.498499854   0.586991391
Cr1      0.498501402   0.498500400   0.586990523
C1       0.000000477  -0.000002410   0.653221071
End final coordinates

     Writing output data file calc.save

     General routines

     Parallel routines

   This run was terminated on:  14: 7:50   2May2018

   JOB DONE.
Job  /afs/slac/g/suncat/bin/suncat-tsmpirun -x LD_LIBRARY_PATH -wdir /scratch/qe633852_K16lu pw.x -npool 4 -in pw.inp

TID   HOST_NAME   COMMAND_LINE            STATUS            TERMINATION_TIME
00000 suncat0042 pw.x -npool 4 -i  Done                     05/02/2018 14:07:50
00001 suncat0042 pw.x -npool 4 -i  Done                     05/02/2018 14:07:50
00002 suncat0042 pw.x -npool 4 -i  Done                     05/02/2018 14:07:50
00003 suncat0042 pw.x -npool 4 -i  Done                     05/02/2018 14:07:50
00004 suncat0042 pw.x -npool 4 -i  Done                     05/02/2018 14:07:50
00005 suncat0042 pw.x -npool 4 -i  Done                     05/02/2018 14:07:50
00006 suncat0042 pw.x -npool 4 -i  Done                     05/02/2018 14:07:50
00007 suncat0042 pw.x -npool 4 -i  Done                     05/02/2018 14:07:50
00008 suncat0033 pw.x -npool 4 -i  Done                     05/02/2018 14:07:50
00009 suncat0033 pw.x -npool 4 -i  Done                     05/02/2018 14:07:50
00010 suncat0033 pw.x -npool 4 -i  Done                     05/02/2018 14:07:50
00011 suncat0033 pw.x -npool 4 -i  Done                     05/02/2018 14:07:50
00012 suncat0033 pw.x -npool 4 -i  Done                     05/02/2018 14:07:50
00013 suncat0033 pw.x -npool 4 -i  Done                     05/02/2018 14:07:50
00014 suncat0033 pw.x -npool 4 -i  Done                     05/02/2018 14:07:50
00015 suncat0033 pw.x -npool 4 -i  Done                     05/02/2018 14:07:50
00016 suncat0012 pw.x -npool 4 -i  Done                     05/02/2018 14:07:50
00017 suncat0012 pw.x -npool 4 -i  Done                     05/02/2018 14:07:50
00018 suncat0012 pw.x -npool 4 -i  Done                     05/02/2018 14:07:50
00019 suncat0012 pw.x -npool 4 -i  Done                     05/02/2018 14:07:50
00020 suncat0012 pw.x -npool 4 -i  Done                     05/02/2018 14:07:50
00021 suncat0012 pw.x -npool 4 -i  Done                     05/02/2018 14:07:50
00022 suncat0012 pw.x -npool 4 -i  Done                     05/02/2018 14:07:50
00023 suncat0012 pw.x -npool 4 -i  Done                     05/02/2018 14:07:50
00024 suncat0010 pw.x -npool 4 -i  Done                     05/02/2018 14:07:50
00025 suncat0010 pw.x -npool 4 -i  Done                     05/02/2018 14:07:50
00026 suncat0010 pw.x -npool 4 -i  Done                     05/02/2018 14:07:50
00027 suncat0010 pw.x -npool 4 -i  Done                     05/02/2018 14:07:50
00028 suncat0010 pw.x -npool 4 -i  Done                     05/02/2018 14:07:50
00029 suncat0010 pw.x -npool 4 -i  Done                     05/02/2018 14:07:50
00030 suncat0010 pw.x -npool 4 -i  Done                     05/02/2018 14:07:50
00031 suncat0010 pw.x -npool 4 -i  Done                     05/02/2018 14:07:50