     Program PWSCF v.5.1rc2 (svn rev. 11289) starts on 20Jan2018 at 19:11:38

     Current dimensions of program PWSCF are:
     Max number of different atomic species (ntypx) = 10
     Max number of k-points (npk) =  40000
     Max angular momentum in pseudopotentials (lmaxx) =  3
     Presently stress not available with electric field

     IMPORTANT: XC functional enforced from input :
     Exchange-correlation      = BEEF-VDW ( 1  4 27 13 2)
     Any further DFT definition will be discarded
     Please, verify this is what you really want

     Subspace diagonalization in iterative solution of the eigenvalue problem:
     a serial algorithm will be used

     bravais-lattice index     =            0
     lattice parameter (alat)  =       1.8897  a.u.
     unit-cell volume          =    4198.3539 (a.u.)^3
     number of atoms/cell      =           13
     number of atomic types    =            2
     number of electrons       =       196.00
     number of Kohn-Sham states=          108
     kinetic-energy cutoff     =      36.7493  Ry
     charge density cutoff     =     367.4932  Ry
     convergence threshold     =      1.0E-05
     mixing beta               =       0.3000
     number of iterations used =           10  plain     mixing
     Exchange-correlation      = BEEF-VDW ( 1  4 27 13 2)
     nstep                     =           50

     celldm(1)=   1.889726  celldm(2)=   0.000000  celldm(3)=   0.000000
     celldm(4)=   0.000000  celldm(5)=   0.000000  celldm(6)=   0.000000

     crystal axes: (cart. coord. in units of alat)
               a(1) = (   5.422927   0.000000   0.000000 )
               a(2) = (   2.711463   4.696392   0.000000 )
               a(3) = (   0.000000   0.000000  24.427801 )

     reciprocal axes: (cart. coord. in units 2 pi/alat)
               b(1) = (  0.184402 -0.106465  0.000000 )
               b(2) = (  0.000000  0.212929  0.000000 )
               b(3) = (  0.000000  0.000000  0.040937 )

     PseudoPot. # 1 for Ru read from file:
     /afs/slac.stanford.edu/u/if/mamunm/psp/gbrv1.5pbe/Ru.UPF
     MD5 check sum: 7158a806dd851261a58e6920c40ebe78
     Pseudo is Ultrasoft + core correction, Zval = 16.0
     Generated by new atomic code, or converted to UPF format
     Using radial grid of  967 points,  6 beta functions with:
                l(1) =   0
                l(2) =   0
                l(3) =   1
                l(4) =   1
                l(5) =   2
                l(6) =   2
     Q(r) pseudized with  8 coefficients,  rinner =    1.300   1.300   1.300
                                                       1.300   1.300

     PseudoPot. # 2 for C  read from file:
     /afs/slac.stanford.edu/u/if/mamunm/psp/gbrv1.5pbe/C.UPF
     MD5 check sum: d1aef80898a10debaa0f26306b886e00
     Pseudo is Ultrasoft + core correction, Zval =  4.0
     Generated by new atomic code, or converted to UPF format
     Using radial grid of  721 points,  4 beta functions with:
                l(1) =   0
                l(2) =   0
                l(3) =   1
                l(4) =   1
     Q(r) pseudized with  8 coefficients,  rinner =    1.100   1.100   1.100

     vdW kernel table read from file vdW_kernel_table
     MD5 check sum: 095c7af220d748ca6e76c0b4c6cfb241

     atomic species   valence    mass     pseudopotential
        Ru1           16.00   101.07000     Ru( 1.00)
        C1             4.00    12.01100     C ( 1.00)

     No symmetry found

   Cartesian axes

     site n.     atom                  positions (alat units)
         1           Ru1 tau(   1) = (   1.3557316   0.7827320  10.0000000  )
         2           Ru1 tau(   2) = (   4.0671949   0.7827320  10.0000000  )
         3           Ru1 tau(   3) = (   2.7114633   3.1309281  10.0000000  )
         4           Ru1 tau(   4) = (   5.4229265   3.1309281  10.0000000  )
         5           Ru1 tau(   5) = (   5.4229265   1.5654640  12.2139005  )
         6           Ru1 tau(   6) = (   2.7114633   1.5654640  12.2139005  )
         7           Ru1 tau(   7) = (   6.7786581   3.9136601  12.2139005  )
         8           Ru1 tau(   8) = (   4.0671949   3.9136601  12.2139005  )
         9           Ru1 tau(   9) = (   0.0000000   0.0000000  14.4278010  )
        10           Ru1 tau(  10) = (   2.7114633   0.0000000  14.4278010  )
        11           Ru1 tau(  11) = (   1.3557316   2.3481961  14.4278010  )
        12           Ru1 tau(  12) = (   4.0671949   2.3481961  14.4278010  )
        13           C1  tau(  13) = (   1.3557316   0.7827320  16.6478010  )

     number of k points=    20  Fermi-Dirac smearing, width (Ry)=  0.0110
                       cart. coord. in units 2pi/alat
        k(    1) = (   0.0000000   0.0000000   0.0000000), wk =   0.0555556
        k(    2) = (   0.0000000   0.0354882   0.0000000), wk =   0.1111111
        k(    3) = (   0.0000000   0.0709765   0.0000000), wk =   0.1111111
        k(    4) = (   0.0000000  -0.1064647   0.0000000), wk =   0.0555556
        k(    5) = (   0.0307337  -0.0177441   0.0000000), wk =   0.1111111
        k(    6) = (   0.0307337   0.0177441   0.0000000), wk =   0.1111111
        k(    7) = (   0.0307337   0.0532324   0.0000000), wk =   0.1111111
        k(    8) = (   0.0307337  -0.1242088   0.0000000), wk =   0.1111111
        k(    9) = (   0.0307337  -0.0887206   0.0000000), wk =   0.1111111
        k(   10) = (   0.0307337  -0.0532324   0.0000000), wk =   0.1111111
        k(   11) = (   0.0614674  -0.0354882   0.0000000), wk =   0.1111111
        k(   12) = (   0.0614674   0.0000000   0.0000000), wk =   0.1111111
        k(   13) = (   0.0614674   0.0354882   0.0000000), wk =   0.1111111
        k(   14) = (   0.0614674  -0.1419529   0.0000000), wk =   0.1111111
        k(   15) = (   0.0614674  -0.1064647   0.0000000), wk =   0.1111111
        k(   16) = (   0.0614674  -0.0709765   0.0000000), wk =   0.1111111
        k(   17) = (  -0.0922011   0.0532324   0.0000000), wk =   0.0555556
        k(   18) = (  -0.0922011   0.0887206   0.0000000), wk =   0.1111111
        k(   19) = (  -0.0922011   0.1242088   0.0000000), wk =   0.1111111
        k(   20) = (  -0.0922011  -0.0532324   0.0000000), wk =   0.0555556

     Largest allocated arrays     est. size (Mb)     dimensions
     Largest temporary arrays     est. size (Mb)     dimensions

     Initial potential from superposition of free atoms
     Check: negative starting charge=   -0.873621

     starting charge  183.99977, renormalised to  196.00000

     negative rho (up, down):  9.306E-01 0.000E+00

     *
     * You are using vdW-DF for exchange-correlation in this calculation.
     * Please cite the following three references that made this development
     * possible:
     *
     *   M. Dion, H. Rydberg, E. Schroder, D. C. Langreth, and
     *   B. I. Lundqvist, Phys. Rev. Lett. 92, 246401 (2004).
     *
     *   T. Thonhauser, V. R. Cooper, S. Li, A. Puzder, P. Hyldgaard, and
     *   D. C. Langreth, Phys. Rev. B 76, 125112 (2007).
     *
     *   G. Roman-Perez and J. M. Soler, Phys. Rev. Lett. 103, 096102 (2009).
     *
     *
     * If you are using vdW-DF2, please also cite:
     *
     *   K. Lee, E. D. Murray, L. Kong, B. I. Lundqvist, and
     *   D. C. Langreth, Phys. Rev. B 82, 081101(R) (2010).
     *
     *
     * If you are calculating the stress with vdW-DF, please also cite:
     *
     *   R. Sabatini, E. Kucukbenli, B. Kolb, T. Thonhauser, and
     *   S. de Gironcoli, J. Phys.: Condens. Matter 24, 424209 (2012).
     *

     Carrying out vdW-DF run using the following parameters:

     Nqs =      20    Nr_points =    1024   r_max =   100.000
     q_mesh =
               0.00001000     0.04494208     0.09755937     0.15916263
               0.23128650     0.31572767     0.41458969     0.53033537
               0.66584808     0.82450364     1.01025438     1.22772762
               1.48234092     1.78043706     2.12944203     2.53805004
               3.01644009     3.57652955     4.23227104     5.00000000

     Gradients computed in reciprocal space

     Adding external electric field

     Computed dipole along edir(3) :
        Dipole               -2.1855 Ry au,         -5.5549 Debye
        Dipole field         -0.0065 Ry au

        Potential amp.        0.5888 Ry
        Total length         45.0078 bohr

     Starting wfc are  160 randomized atomic wfcs

     Self-consistent Calculation

     iteration #  1     ecut=    36.75 Ry     beta=0.30
     Davidson diagonalization with overlap
     ethr =  1.00E-02,  avg # of iterations =  5.2

[...]

     total energy              =   -2262.12423401 Ry
     Harris-Foulkes estimate   =   -2355.32021290 Ry
     estimated scf accuracy    <     195.17251350 Ry

[...]

     End of self-consistent calculation

          k = 0.0000 0.0000 0.0000 ( 15761 PWs)   bands (ev):

   -71.2240 -71.1274 -71.1270 -71.0875 -70.8147 -70.7556 -70.7279 -70.7270
   -70.6802 -70.6613 -70.6574 -70.6568 -41.5140 -41.4805 -41.4803 -41.3358
   -41.2443 -41.2440 -41.2373 -41.0520 -41.0396 -41.0393 -40.9370 -40.9367
   -40.9309 -40.8849 -40.8847 -40.8722 -40.7552 -40.7552 -40.7139 -40.6221
   -40.6214 -40.6126 -40.5525 -40.5520 -40.5496 -40.5444 -40.5379 -40.5291
   -40.5285 -40.4767 -40.4753 -40.4750 -40.3688 -40.3687 -40.3133 -40.3133
    -6.4709  -4.6304  -3.4538  -3.4527  -3.4526  -3.3412  -3.1703  -3.0877
    -3.0843  -3.0841  -2.8296  -2.8295  -2.8253  -2.4807  -2.4779  -2.4777
    -1.3350  -1.3348  -1.3220  -0.7166  -0.7165  -0.7117  -0.4788  -0.3280
    -0.3280  -0.0650   0.0529   0.0529   0.0986   0.0987   0.1103   0.3166
     0.3166   0.7225   0.7229   0.7907   1.4473   1.5572   1.5573   1.7248
     1.7651   1.7652   1.8715   1.8716   1.9902   2.3593   2.3594   2.4844
     2.4845   2.6895   3.1022   3.1023   3.1070   3.1200   3.2659   3.2659
     3.4411   3.4413   3.6204   3.6356

[...]

          k =-0.0922 0.0532 0.0000 ( 15808 PWs)   bands (ev):

[...]

     the Fermi energy is     2.0586 ev

!    total energy              =   -2352.44521899 Ry
     Harris-Foulkes estimate   =   -2352.44523915 Ry
     estimated scf accuracy    <       0.00000540 Ry

     The total energy is the sum of the following terms:

     one-electron contribution =  -22043.95760114 Ry
     hartree contribution      =   11021.30591873 Ry
     xc contribution           =    -324.89297803 Ry
     ewald contribution        =    8995.19876392 Ry
     electric field correction =       0.00022355 Ry
     smearing contrib. (-TS)   =      -0.09954602 Ry

     convergence has been achieved in  23 iterations

 BEEF-vdW xc energy contributions
           1 :   -281.668969108609
           2 :    258.452051076922
           3 :   -218.302487397968
           4 :    171.199179351991
           5 :   -127.252810789235
           6 :    93.6531536423875
           7 :   -73.0270131251057
           8 :    63.5819948233536
           9 :   -60.7343865361845
          10 :    59.4025531390131
          11 :   -55.9956842133649
          12 :    49.3863930752843
          13 :   -40.6860372938065
          14 :    32.1628770881371
          15 :   -25.9181219408508
          16 :    22.9026305066227
          17 :   -22.6225433962387
          18 :    23.5497946255209
[...]

[...]

     Program PWSCF v.5.1rc2 (svn rev. 11289) starts on 20Jan2018 at 20: 2:36

[...]

     Total force =     0.193311     Total SCF correction =     0.019421
     SCF correction compared to forces is large: reduce conv_thr to get better values

[...]

     Total force =     0.118994     Total SCF correction =     0.020958
     SCF correction compared to forces is large: reduce conv_thr to get better values

[...]

   This run was terminated on:  21:30: 6  20Jan2018

[...]

     Program PWSCF v.5.1rc2 (svn rev. 11289) starts on 20Jan2018 at 21:48:35

[...]

   This run was terminated on:  22: 5:36  20Jan2018

[...]

     Program PWSCF v.5.1rc2 (svn rev. 11289) starts on 20Jan2018 at 22: 5:42

     Current dimensions of program PWSCF are:
     Max number of different atomic species (ntypx) = 10
     Max number of k-points (npk) =  40000
     Max angular momentum in pseudopotentials (lmaxx) =  3
     Presently stress not available with electric field

     IMPORTANT: XC functional enforced from input :
     Exchange-correlation      = BEEF-VDW ( 1  4 27 13 2)
     Any further DFT definition will be discarded
     Please, verify this is what you really want

     Subspace diagonalization in iterative solution of the eigenvalue problem:
     a serial algorithm will be used

     bravais-lattice index     =            0
     lattice parameter (alat)  =       1.8897  a.u.
     unit-cell volume          =    4198.3539 (a.u.)^3
     number of atoms/cell      =           13
     number of atomic types    =            2
     number of electrons       =       196.00
     number of Kohn-Sham states=          108
     kinetic-energy cutoff     =      36.7493  Ry
     charge density cutoff     =     367.4932  Ry
     convergence threshold     =      1.0E-05
     mixing beta               =       0.3000
     number of iterations used =           10  plain     mixing
     Exchange-correlation      = BEEF-VDW ( 1  4 27 13 2)
     nstep                     =           50

     celldm(1)=   1.889726  celldm(2)=   0.000000  celldm(3)=   0.000000
     celldm(4)=   0.000000  celldm(5)=   0.000000  celldm(6)=   0.000000

     crystal axes: (cart. coord. in units of alat)
               a(1) = (   5.422927   0.000000   0.000000 )
               a(2) = (   2.711463   4.696392   0.000000 )
               a(3) = (   0.000000   0.000000  24.427801 )

     reciprocal axes: (cart. coord. in units 2 pi/alat)
               b(1) = (  0.184402 -0.106465  0.000000 )
               b(2) = (  0.000000  0.212929  0.000000 )
               b(3) = (  0.000000  0.000000  0.040937 )

     PseudoPot. # 1 for Ru read from file:
     /afs/slac.stanford.edu/u/if/mamunm/psp/gbrv1.5pbe/Ru.UPF
     MD5 check sum: 7158a806dd851261a58e6920c40ebe78
     Pseudo is Ultrasoft + core correction, Zval = 16.0
     Generated by new atomic code, or converted to UPF format
     Using radial grid of  967 points,  6 beta functions with:
                l(1) =   0
                l(2) =   0
                l(3) =   1
                l(4) =   1
                l(5) =   2
                l(6) =   2
     Q(r) pseudized with  8 coefficients,  rinner =    1.300   1.300   1.300
                                                       1.300   1.300

     PseudoPot. # 2 for C  read from file:
     /afs/slac.stanford.edu/u/if/mamunm/psp/gbrv1.5pbe/C.UPF
     MD5 check sum: d1aef80898a10debaa0f26306b886e00
     Pseudo is Ultrasoft + core correction, Zval =  4.0
     Generated by new atomic code, or converted to UPF format
     Using radial grid of  721 points,  4 beta functions with:
                l(1) =   0
                l(2) =   0
                l(3) =   1
                l(4) =   1
     Q(r) pseudized with  8 coefficients,  rinner =    1.100   1.100   1.100

     vdW kernel table read from file vdW_kernel_table
     MD5 check sum: 095c7af220d748ca6e76c0b4c6cfb241

     atomic species   valence    mass     pseudopotential
        Ru1           16.00   101.07000     Ru( 1.00)
        C1             4.00    12.01100     C ( 1.00)

     No symmetry found

   Cartesian axes

     site n.     atom                  positions (alat units)
         1           Ru1 tau(   1) = (   1.3557316   0.7827320  10.0000000  )
         2           Ru1 tau(   2) = (   4.0671949   0.7827320  10.0000000  )
         3           Ru1 tau(   3) = (   2.7114633   3.1309281  10.0000000  )
         4           Ru1 tau(   4) = (   5.4229265   3.1309281  10.0000000  )
         5           Ru1 tau(   5) = (   5.4229265   1.5654640  12.2139005  )
         6           Ru1 tau(   6) = (   2.7114633   1.5654640  12.2139005  )
         7           Ru1 tau(   7) = (   6.7786581   3.9136601  12.2139005  )
         8           Ru1 tau(   8) = (   4.0671949   3.9136601  12.2139005  )
         9           Ru1 tau(   9) = (   8.0918113   4.6717637  14.4208594  )
        10           Ru1 tau(  10) = (   5.4654590   4.6717354  14.4209260  )
        11           Ru1 tau(  11) = (   6.7786528   2.3973489  14.4209499  )
        12           Ru1 tau(  12) = (   4.0672404   2.3482900  14.3002401  )
        13           C1  tau(  13) = (   1.3557378   0.7827472  15.4813396  )

     number of k points=    20  Fermi-Dirac smearing, width (Ry)=  0.0110
                       cart. coord. in units 2pi/alat
        k(    1) = (   0.0000000   0.0000000   0.0000000), wk =   0.0555556
        k(    2) = (   0.0000000   0.0354882   0.0000000), wk =   0.1111111
        k(    3) = (   0.0000000   0.0709765   0.0000000), wk =   0.1111111
        k(    4) = (   0.0000000  -0.1064647   0.0000000), wk =   0.0555556
        k(    5) = (   0.0307337  -0.0177441   0.0000000), wk =   0.1111111
        k(    6) = (   0.0307337   0.0177441   0.0000000), wk =   0.1111111
        k(    7) = (   0.0307337   0.0532324   0.0000000), wk =   0.1111111
        k(    8) = (   0.0307337  -0.1242088   0.0000000), wk =   0.1111111
        k(    9) = (   0.0307337  -0.0887206   0.0000000), wk =   0.1111111
        k(   10) = (   0.0307337  -0.0532324   0.0000000), wk =   0.1111111
        k(   11) = (   0.0614674  -0.0354882   0.0000000), wk =   0.1111111
        k(   12) = (   0.0614674   0.0000000   0.0000000), wk =   0.1111111
        k(   13) = (   0.0614674   0.0354882   0.0000000), wk =   0.1111111
        k(   14) = (   0.0614674  -0.1419529   0.0000000), wk =   0.1111111
        k(   15) = (   0.0614674  -0.1064647   0.0000000), wk =   0.1111111
        k(   16) = (   0.0614674  -0.0709765   0.0000000), wk =   0.1111111
        k(   17) = (  -0.0922011   0.0532324   0.0000000), wk =   0.0555556
        k(   18) = (  -0.0922011   0.0887206   0.0000000), wk =   0.1111111
        k(   19) = (  -0.0922011   0.1242088   0.0000000), wk =   0.1111111
        k(   20) = (  -0.0922011  -0.0532324   0.0000000), wk =   0.0555556

     Largest allocated arrays     est. size (Mb)     dimensions
     Largest temporary arrays     est. size (Mb)     dimensions

     Initial potential from superposition of free atoms
     Check: negative starting charge=   -0.880736

     starting charge  183.99977, renormalised to  196.00000

[...]

     *
     * You are using vdW-DF for exchange-correlation in this calculation.
     * Please cite the following three references that made this development
     * possible:
     *
     *   M. Dion, H. Rydberg, E. Schroder, D. C. Langreth, and
     *   B. I. Lundqvist, Phys. Rev. Lett. 92, 246401 (2004).
     *
     *   T. Thonhauser, V. R. Cooper, S. Li, A. Puzder, P. Hyldgaard, and
     *   D. C. Langreth, Phys. Rev. B 76, 125112 (2007).
     *
     *   G. Roman-Perez and J. M. Soler, Phys. Rev. Lett. 103, 096102 (2009).
     *
     *
     * If you are using vdW-DF2, please also cite:
     *
     *   K. Lee, E. D. Murray, L. Kong, B. I. Lundqvist, and
     *   D. C. Langreth, Phys. Rev. B 82, 081101(R) (2010).
     *
     *
     * If you are calculating the stress with vdW-DF, please also cite:
     *
     *   R. Sabatini, E. Kucukbenli, B. Kolb, T. Thonhauser, and
     *   S. de Gironcoli, J. Phys.: Condens. Matter 24, 424209 (2012).
     *

     Carrying out vdW-DF run using the following parameters:

     Nqs =      20    Nr_points =    1024   r_max =   100.000
     q_mesh =
               0.00001000     0.04494208     0.09755937     0.15916263
               0.23128650     0.31572767     0.41458969     0.53033537
               0.66584808     0.82450364     1.01025438     1.22772762
               1.48234092     1.78043706     2.12944203     2.53805004
               3.01644009     3.57652955     4.23227104     5.00000000

     Gradients computed in reciprocal space

[...]

     Starting wfc are  160 randomized atomic wfcs

     Self-consistent Calculation

[...]

     total energy              =   -2352.74933191 Ry
     Harris-Foulkes estimate   =   -2352.74933434 Ry
     estimated scf accuracy    <       0.00002588 Ry

     iteration # 23     ecut=    36.75 Ry     beta=0.30
     Davidson diagonalization with overlap
     ethr =  1.32E-08,  avg # of iterations =  4.0

[...]

     negative rho (up, down):  9.185E-01 0.000E+00

     Adding external electric field

     Computed dipole along edir(3) :
        Dipole               -0.1332 Ry au,         -0.3386 Debye
        Dipole field         -0.0004 Ry au

        Potential amp.        0.0359 Ry
        Total length         45.0078 bohr

     End of self-consistent calculation

[...]

          k = 0.0615-0.0710 0.0000 ( 15803 PWs)   bands (ev):

[...]

          k =-0.0922-0.0532 0.0000 ( 15808 PWs)   bands (ev):

   -70.9676 -70.9460 -70.9133 -70.8024 -70.7162 -70.6854 -70.6619 -70.4783
   -70.4753 -70.4709 -70.4276 -70.4211 -41.1849 -41.1673 -41.1174 -41.0705
   -41.0513 -41.0086 -40.9474 -40.9402 -40.9312 -40.8913 -40.8019 -40.7571
   -40.7515 -40.6976 -40.6444 -40.6294 -40.5913 -40.5839 -40.5673 -40.5279
   -40.4834 -40.4832 -40.4293 -40.4249 -40.4174 -40.3984 -40.3976 -40.3697
   -40.3589 -40.3323 -40.3254 -40.3178 -40.3080 -40.2429 -40.1624 -40.1559
    -8.4884  -3.3278  -2.9818  -2.7659  -2.4781  -2.4216  -2.3630  -2.2280
    -2.1021  -2.0368  -1.9941  -1.9100  -1.8049  -1.6272  -1.5965  -1.5495
    -1.4481  -1.3270  -1.1322  -0.9425  -0.9231  -0.8077  -0.7667  -0.6762
    -0.6137  -0.4107  -0.1932  -0.1137   0.0643   0.0940   0.3545   0.3553
     0.3817   0.4934   0.5257   0.6105   0.6210   0.6474   0.6701   0.7117
     0.8818   1.2220   1.2992   1.3354   1.4161   1.5117   1.6105   1.8027
     1.8162   1.9345   1.9752   2.1522   2.1932   2.3990   2.4633   2.5462
     2.5789   2.7140   3.0565   3.2466

     the Fermi energy is     2.3193 ev

!    total energy              =   -2352.74933160 Ry
     Harris-Foulkes estimate   =   -2352.74932955 Ry
     estimated scf accuracy    <       0.00000151 Ry

     The total energy is the sum of the following terms:

     one-electron contribution =  -22466.40104155 Ry
     hartree contribution      =   11233.47757152 Ry
     xc contribution           =    -325.65542473 Ry
     ewald contribution        =    9205.91624563 Ry
     electric field correction =       0.00005312 Ry
     smearing contrib. (-TS)   =      -0.08673558 Ry

     convergence has been achieved in  23 iterations

 BEEF-vdW xc energy contributions
           1 :   -282.443328764970
           2 :    259.476918408311
           3 :   -219.634313119637
           4 :    172.668239352903
           5 :   -128.562925684162
           6 :    94.5223664305965
           7 :   -73.3124970592910
           8 :    63.3415938673172
           9 :   -60.1975692108854
          10 :    58.8628911958245
          11 :   -55.6772241832267
          12 :    49.3531213369307
          13 :   -40.8393736536054
          14 :    32.3183422024723
          15 :   -25.9127435456215
          16 :    22.6809983131911
          17 :   -22.2623940681647
          18 :    23.2167595992114
          19 :   -23.8093665458820
          20 :    22.8317952349070
          21 :   -20.0811511595637
          22 :    16.3164396184434
          23 :   -12.7718581016117
          24 :    10.5025780011781
          25 :   -9.88755081238691
          26 :    10.5090198029797
          27 :   -11.4297600487893
          28 :    11.6967712919161
          29 :   -10.8056957549173
          30 :    8.90279182665631
          31 :   -29.3897458490118
          32 :   -22.3385003180128

     Forces acting on atoms (Ry/au):

     negative rho (up, down):  9.185E-01 0.000E+00
     atom    1 type  1   force =     0.00000241    0.00002814    0.02669970
     atom    2 type  1   force =     0.00001463    0.00049604    0.03286504
     atom    3 type  1   force =     0.00040117   -0.00025391    0.03281087
     atom    4 type  1   force =    -0.00039761   -0.00026797    0.03280311
     atom    5 type  1   force =     0.00104968   -0.00060079   -0.02115476
     atom    6 type  1   force =    -0.00104677   -0.00059459   -0.02118594
     atom    7 type  1   force =     0.00001663   -0.00000985   -0.06168904
     atom    8 type  1   force =     0.00000152    0.00120170   -0.02118799
     atom    9 type  1   force =     0.00000547    0.00003791   -0.00004499
     atom   10 type  1   force =    -0.00007286    0.00005925    0.00000216
     atom   11 type  1   force =    -0.00000968   -0.00004742   -0.00006551
     atom   12 type  1   force =     0.00000063   -0.00004937    0.00058788
     atom   13 type  2   force =     0.00003480    0.00000086   -0.00044052

     Total force =     0.095405     Total SCF correction =     0.006490

     entering subroutine stress ...

     negative rho (up, down):  9.185E-01 0.000E+00
          total   stress  (Ry/bohr**3)                   (kbar)     P=  -17.62
  -0.00011535  -0.00000001  -0.00000001        -16.97     -0.00     -0.00
  -0.00000001  -0.00011536   0.00000001         -0.00    -16.97      0.00
  -0.00000001   0.00000001  -0.00012864         -0.00      0.00    -18.92

 !ASE

     Writing output data file calc.save

     General routines

     Parallel routines

   This run was terminated on:  22:22:34  20Jan2018

   JOB DONE.
Job  /afs/slac/g/suncat/bin/suncat-tsmpirun -x LD_LIBRARY_PATH -wdir /scratch/qe869931_CTwSv pw.x -in pw.inp

TID   HOST_NAME   COMMAND_LINE            STATUS            TERMINATION_TIME
00000 suncat0096 pw.x -in pw.inp   Done                     01/20/2018 22:22:34
00001 suncat0096 pw.x -in pw.inp   Done                     01/20/2018 22:22:34
00002 suncat0096 pw.x -in pw.inp   Done                     01/20/2018 22:22:34
00003 suncat0096 pw.x -in pw.inp   Done                     01/20/2018 22:22:34
00004 suncat0096 pw.x -in pw.inp   Done                     01/20/2018 22:22:34
00005 suncat0096 pw.x -in pw.inp   Done                     01/20/2018 22:22:34
00006 suncat0096 pw.x -in pw.inp   Done                     01/20/2018 22:22:34
00007 suncat0096 pw.x -in pw.inp   Done                     01/20/2018 22:22:34
00008 suncat0283 pw.x -in pw.inp   Done                     01/20/2018 22:22:34
00009 suncat0283 pw.x -in pw.inp   Done                     01/20/2018 22:22:34
00010 suncat0283 pw.x -in pw.inp   Done                     01/20/2018 22:22:34
00011 suncat0283 pw.x -in pw.inp   Done                     01/20/2018 22:22:34
00012 suncat0283 pw.x -in pw.inp   Done                     01/20/2018 22:22:34
00013 suncat0283 pw.x -in pw.inp   Done                     01/20/2018 22:22:34
00014 suncat0283 pw.x -in pw.inp   Done                     01/20/2018 22:22:34
00015 suncat0283 pw.x -in pw.inp   Done                     01/20/2018 22:22:34
00016 suncat0282 pw.x -in pw.inp   Done                     01/20/2018 22:22:34
00017 suncat0282 pw.x -in pw.inp   Done                     01/20/2018 22:22:34
00018 suncat0282 pw.x -in pw.inp   Done                     01/20/2018 22:22:34
00019 suncat0282 pw.x -in pw.inp   Done                     01/20/2018 22:22:34
00020 suncat0282 pw.x -in pw.inp   Done                     01/20/2018 22:22:34
00021 suncat0282 pw.x -in pw.inp   Done                     01/20/2018 22:22:34
00022 suncat0282 pw.x -in pw.inp   Done                     01/20/2018 22:22:34
00023 suncat0282 pw.x -in pw.inp   Done                     01/20/2018 22:22:34
00024 suncat0272 pw.x -in pw.inp   Done                     01/20/2018 22:22:34
00025 suncat0272 pw.x -in pw.inp   Done                     01/20/2018 22:22:34
00026 suncat0272 pw.x -in pw.inp   Done                     01/20/2018 22:22:34
00027 suncat0272 pw.x -in pw.inp   Done                     01/20/2018 22:22:34
00028 suncat0272 pw.x -in pw.inp   Done                     01/20/2018 22:22:34
00029 suncat0272 pw.x -in pw.inp   Done                     01/20/2018 22:22:34
00030 suncat0272 pw.x -in pw.inp   Done                     01/20/2018 22:22:34
00031 suncat0272 pw.x -in pw.inp   Done                     01/20/2018 22:22:34