     Program PWSCF v.5.1rc2 (svn rev. ) starts on 18Apr2018 at  9: 9: 2

     Current dimensions of program PWSCF are:
     Max number of different atomic species (ntypx) = 10
     Max number of k-points (npk) =  40000
     Max angular momentum in pseudopotentials (lmaxx) =  3
     Presently stress not available with electric field

     IMPORTANT: XC functional enforced from input :
     Exchange-correlation      = BEEF-VDW ( 1  4 27 13 2)
     Any further DFT definition will be discarded
     Please, verify this is what you really want

     Subspace diagonalization in iterative solution of the eigenvalue problem:
     a serial algorithm will be used

     bravais-lattice index     =            0
     lattice parameter (alat)  =       1.8897  a.u.
     unit-cell volume          =    6501.5726 (a.u.)^3
     number of atoms/cell      =           14
     number of atomic types    =            3
     number of electrons       =       163.00
     number of Kohn-Sham states=           91
     kinetic-energy cutoff     =      36.7493  Ry
     charge density cutoff     =     367.4932  Ry
     convergence threshold     =      1.0E-05
     mixing beta               =       0.3000
     number of iterations used =           10  plain     mixing
     Exchange-correlation      = BEEF-VDW ( 1  4 27 13 2)
     nstep                     =           50

     celldm(1)=   1.889726  celldm(2)=   0.000000  celldm(3)=   0.000000
     celldm(4)=   0.000000  celldm(5)=   0.000000  celldm(6)=   0.000000

     crystal axes: (cart. coord. in units of alat)
               a(1) = (   6.617606   0.000000   0.000000 )
               a(2) = (   3.308803   5.731015   0.000000 )
               a(3) = (   0.000000   0.000000  25.403253 )

     reciprocal axes: (cart. coord. in units 2 pi/alat)
               b(1) = (  0.151112 -0.087245  0.000000 )
               b(2) = (  0.000000  0.174489  0.000000 )
               b(3) = (  0.000000  0.000000  0.039365 )

     PseudoPot. # 1 for In read from file:
     /home/mamunm/src/pseudo/gbrv1.5pbe/In.UPF
     MD5 check sum: 90777abd96fbb83f2e67db2a40c566b9
     Pseudo is Ultrasoft + core correction, Zval = 13.0
     Generated by new atomic code, or converted to UPF format
     Using radial grid of  889 points,  6 beta functions with:
                l(1) =   0
                l(2) =   0
                l(3) =   1
                l(4) =   1
                l(5) =   2
                l(6) =   2
     Q(r) pseudized with  6 coefficients,  rinner =    1.400   1.400   1.400
                                                       1.400   1.400

     PseudoPot. # 2 for S  read from file:
     /home/mamunm/src/pseudo/gbrv1.5pbe/S.UPF
     MD5 check sum: 88d86576ff6df21479756cfb9bdac1df
     Pseudo is Ultrasoft + core correction, Zval =  6.0
     Generated by new atomic code, or converted to UPF format
     Using radial grid of  907 points,  6 beta functions with:
                l(1) =   0
                l(2) =   0
                l(3) =   1
                l(4) =   1
                l(5) =   2
                l(6) =   2
     Q(r) pseudized with  8 coefficients,  rinner =    1.300   1.300   1.300
                                                       1.300   1.300

     PseudoPot. # 3 for H  read from file:
     /home/mamunm/src/pseudo/gbrv1.5pbe/H.UPF
     MD5 check sum: 761ae9a214b05c3daf00ab9f6b793d6f
     Pseudo is Ultrasoft, Zval =  1.0
     Generated by new atomic code, or converted to UPF format
     Using radial grid of  615 points,  2 beta functions with:
                l(1) =   0
                l(2) =   0
     Q(r) pseudized with  8 coefficients,  rinner =    0.700

     vdW kernel table read from file vdW_kernel_table
     MD5 check sum: 095c7af220d748ca6e76c0b4c6cfb241

     atomic species   valence    mass     pseudopotential
        In1           13.00   114.81800     In( 1.00)
        S1             6.00    32.06000     S ( 1.00)
        H1             1.00     1.00800     H ( 1.00)

     No symmetry found

   Cartesian axes

     site n.     atom                  positions (alat units)
         1           In1 tau(   1) = (   1.6544016   0.9551692  10.0000000  )
         2           In1 tau(   2) = (   4.9632047   0.9551692  10.0000000  )
         3           In1 tau(   3) = (   3.3088031   3.8206768  10.0000000  )
         4           In1 tau(   4) = (   6.6176063   3.8206768  10.0000000  )
         5           In1 tau(   5) = (   6.6176063   1.9103384  12.7016265  )
         6           In1 tau(   6) = (   3.3088031   1.9103384  12.7016265  )
         7           In1 tau(   7) = (   8.2720078   4.7758460  12.7016265  )
         8           In1 tau(   8) = (   4.9632047   4.7758460  12.7016265  )
         9           In1 tau(   9) = (   0.0000000   0.0000000  15.4032529  )
        10           In1 tau(  10) = (   3.3088031   0.0000000  15.4032529  )
        11           In1 tau(  11) = (   1.6544016   2.8655076  15.4032529  )
        12           In1 tau(  12) = (   4.9632047   2.8655076  15.4032529  )
        13           S1  tau(  13) = (   3.3088031   1.9103384  17.0087529  )
        14           H1  tau(  14) = (   3.3088031   1.9103384  18.2587529  )

     number of k points=    20  Fermi-Dirac smearing, width (Ry)=  0.0110
                       cart. coord. in units 2pi/alat
        k(    1) = (   0.0000000   0.0000000   0.0000000), wk =   0.0555556
        k(    2) = (   0.0000000   0.0290815   0.0000000), wk =   0.1111111
        k(    3) = (   0.0000000   0.0581631   0.0000000), wk =   0.1111111
        k(    4) = (   0.0000000  -0.0872446   0.0000000), wk =   0.0555556
        k(    5) = (   0.0251853  -0.0145408   0.0000000), wk =   0.1111111
        k(    6) = (   0.0251853   0.0145408   0.0000000), wk =   0.1111111
        k(    7) = (   0.0251853   0.0436223   0.0000000), wk =   0.1111111
        k(    8) = (   0.0251853  -0.1017853   0.0000000), wk =   0.1111111
        k(    9) = (   0.0251853  -0.0727038   0.0000000), wk =   0.1111111
        k(   10) = (   0.0251853  -0.0436223   0.0000000), wk =   0.1111111
        k(   11) = (   0.0503707  -0.0290815   0.0000000), wk =   0.1111111
        k(   12) = (   0.0503707   0.0000000   0.0000000), wk =   0.1111111
        k(   13) = (   0.0503707   0.0290815   0.0000000), wk =   0.1111111
        k(   14) = (   0.0503707  -0.1163261   0.0000000), wk =   0.1111111
        k(   15) = (   0.0503707  -0.0872446   0.0000000), wk =   0.1111111
        k(   16) = (   0.0503707  -0.0581631   0.0000000), wk =   0.1111111
        k(   17) = (  -0.0755560   0.0436223   0.0000000), wk =   0.0555556
        k(   18) = (  -0.0755560   0.0727038   0.0000000), wk =   0.1111111
        k(   19) = (  -0.0755560   0.1017853   0.0000000), wk =   0.1111111
        k(   20) = (  -0.0755560  -0.0436223   0.0000000), wk =   0.0555556

     Largest allocated arrays     est. size (Mb)     dimensions
     Largest temporary arrays     est. size (Mb)     dimensions

     Initial potential from superposition of free atoms
     Check: negative starting charge=   -0.000155

     starting charge  144.99995, renormalised to  163.00000

     negative rho (up, down):  1.740E-04 0.000E+00

     *
     * You are using vdW-DF for exchange-correlation in this calculation.
     * Please cite the following three references that made this development
     * possible:
     *
     *   M. Dion, H. Rydberg, E. Schroder, D. C. Langreth, and
     *   B. I. Lundqvist, Phys. Rev. Lett. 92, 246401 (2004).
     *
     *   T. Thonhauser, V. R. Cooper, S. Li, A. Puzder, P. Hyldgaard, and
     *   D. C. Langreth, Phys. Rev. B 76, 125112 (2007).
     *
     *   G. Roman-Perez and J. M. Soler, Phys. Rev. Lett. 103, 096102 (2009).
     *
     *
     * If you are using vdW-DF2, please also cite:
     *
     *   K. Lee, E. D. Murray, L. Kong, B. I. Lundqvist, and
     *   D. C. Langreth, Phys. Rev. B 82, 081101(R) (2010).
     *
     *
     * If you are calculating the stress with vdW-DF, please also cite:
     *
     *   R. Sabatini, E. Kucukbenli, B. Kolb, T. Thonhauser, and
     *   S. de Gironcoli, J. Phys.: Condens. Matter 24, 424209 (2012).
     *

     Carrying out vdW-DF run using the following parameters:

     Nqs =      20    Nr_points =    1024   r_max =   100.000
     q_mesh =
               0.00001000     0.04494208     0.09755937     0.15916263
               0.23128650     0.31572767     0.41458969     0.53033537
               0.66584808     0.82450364     1.01025438     1.22772762
               1.48234092     1.78043706     2.12944203     2.53805004
               3.01644009     3.57652955     4.23227104     5.00000000

     Gradients computed in reciprocal space

     Adding external electric field

     Computed dipole along edir(3) :
        Dipole               -7.3656 Ry au,        -18.7214 Debye
        Dipole field         -0.0142 Ry au

        Potential amp.        1.3327 Ry
        Total length         46.8051 bohr

     Starting wfc are  113 randomized atomic wfcs

     Self-consistent Calculation

     iteration #  1     ecut=    36.75 Ry     beta=0.30
     Davidson diagonalization with overlap
     ethr =  1.00E-02,  avg # of iterations =  8.4

[...]

     total energy              =    -832.85782572 Ry
     Harris-Foulkes estimate   =   -1614.65868276 Ry
     estimated scf accuracy    <    1667.64974719 Ry

[...]

     End of self-consistent calculation

          k = 0.0000 0.0000 0.0000 ( 24345 PWs)   bands (ev):

   -15.1637 -14.2064 -14.1813 -14.1813 -14.0850 -14.0850 -14.0762 -14.0742
   -14.0742 -14.0544 -14.0236 -14.0236 -13.9854 -13.9854 -13.9831 -13.9744
   -13.9723 -13.9723 -13.9670 -13.9533 -13.9533 -13.9458 -13.9345 -13.9210
   -13.9210 -13.8955 -13.8931 -13.8930 -13.8666 -13.8666 -13.8351 -13.8351
   -13.8086 -13.8086 -13.7971 -13.7478 -13.7478 -13.7463 -13.7309 -13.7309
   -13.7188 -13.6935 -13.6658 -13.6658 -13.6502 -13.6478 -13.6478 -13.6336
   -13.6336 -13.6231 -13.6231 -13.6118 -13.6017 -13.6016 -13.5900 -13.5900
   -13.5877 -13.5610 -13.5610 -13.5471 -13.3971  -8.3680  -7.5761  -6.1042
    -4.4261  -4.4261  -4.2587  -3.2673  -3.2673  -3.1510  -2.9276  -2.7123
    -2.7123  -1.7592  -1.5563  -1.5563  -1.4100  -1.1084  -1.1084  -0.6821
     0.1134   0.2618   0.2618   0.8757   0.8757   1.0026   2.0665   3.3859
     3.6103   3.6103   3.6983

[...]

          k =-0.0756 0.0436 0.0000 ( 24448 PWs)   bands (ev):

[...]

     the Fermi energy is     1.1071 ev

!    total energy              =   -1642.84370816 Ry
     Harris-Foulkes estimate   =   -1642.84372321 Ry
     estimated scf accuracy    <       0.00000137 Ry

     The total energy is the sum of the following terms:

     one-electron contribution =   -9500.14007724 Ry
     hartree contribution      =    4833.71980716 Ry
     xc contribution           =    -479.37996102 Ry
     ewald contribution        =    3502.99371053 Ry
     electric field correction =       0.00010146 Ry
     smearing contrib. (-TS)   =      -0.03728904 Ry

     convergence has been achieved in  20 iterations

 BEEF-vdW xc energy contributions
           1 :   -419.703449450945
           2 :    383.408056533988
           3 :   -322.085107550487
           4 :    252.907039310017
           5 :   -191.607690585808
           6 :    146.838729567631
           7 :   -118.510310012221
           8 :    100.298095041161
           9 :   -84.4853408193623
          10 :    66.3323999695832
          11 :   -45.8167305725850
          12 :    26.3296532296241
          13 :   -11.6862204757937
          14 :    3.51880382876089
          15 :  -0.521657980066777
          16 :  -0.369442280227588
          17 :    1.94983689127747
          18 :   -5.26874523861642
          19 :    9.49430539652985
          20 :   -12.9399981605933
          21 :    14.3839985773592
          22 :   -13.8026323029615
          23 :    12.1781846222526
          24 :   -10.7039197309213
          25 :    10.0313257306312
          26 :   -10.0432333561876
          27 :    10.1770038218766
          28 :   -9.94542845647908
          29 :    9.24729148734508
          30 :   -8.30791167987582
          31 :   -38.3414121814446
          32 :   -27.8213571070368

     Forces acting on atoms (Ry/au):

     negative rho (up, down):  1.044E-03 0.000E+00
     atom    1 type  1   force =    -0.00172816   -0.00098895   -0.01071253
     atom    2 type  1   force =     0.00172804   -0.00099634   -0.01072138
     atom    3 type  1   force =    -0.00000077    0.00198909   -0.01066995
     atom    4 type  1   force =     0.00000406   -0.00000658   -0.00924921
     atom    5 type  1   force =     0.00000499   -0.00379218   -0.00227351
     atom    6 type  1   force =    -0.00000352   -0.00001067    0.00563731
     atom    7 type  1   force =     0.00327353    0.00189380   -0.00225072
     atom    8 type  1   force =    -0.00327181    0.00190528   -0.00225572
     atom    9 type  1   force =    -0.00000215   -0.00000128    0.00343948
     atom   10 type  1   force =     0.00000298   -0.06774565   -0.03731200
     atom   11 type  1   force =    -0.05867277    0.03388096   -0.03730826
     atom   12 type  1   force =     0.05866556    0.03387269   -0.03730681
     atom   13 type  2   force =     0.00000031   -0.00000035    0.00452615
     atom   14 type  3   force =    -0.00000028    0.00000018    0.14645715

     Total force =     0.198562     Total SCF correction =     0.003634

     entering subroutine stress ...

     negative rho (up, down):  1.044E-03 0.000E+00
          total   stress  (Ry/bohr**3)                   (kbar)     P=   19.51
   0.00010778  -0.00000000   0.00000000         15.85     -0.00      0.00
  -0.00000000   0.00010777   0.00000000         -0.00     15.85      0.00
   0.00000000   0.00000000   0.00018232          0.00      0.00     26.82

     BFGS Geometry Optimization

     number of scf cycles    =   1
     number of bfgs steps    =   0

     energy   new            =   -1642.8437081565 Ry

     new trust radius        =       0.1464571452 bohr
     new conv_thr            =       0.0000099958 Ry

ATOMIC_POSITIONS (crystal)
In1      0.166666667   0.166666667   0.393650374    0   0   0
In1      0.666666667   0.166666667   0.393650374    0   0   0
In1      0.166666667   0.666666667   0.393650374    0   0   0
In1      0.666666667   0.666666667   0.393650374    0   0   0
In1      0.833333333   0.333333333   0.500000000    0   0   0
In1      0.333333333   0.333333333   0.500000000    0   0   0
In1      0.833333333   0.833333333   0.500000000    0   0   0
In1      0.333333333   0.833333333   0.500000000    0   0   0
In1     -0.000000113  -0.000000118   0.606421274
In1      0.503127908  -0.006255341   0.605572377
In1     -0.006255982   0.503128421   0.605572455
In1      0.503127365   0.503127658   0.605572485
S1       0.333333374   0.333333301   0.669644478
H1       0.333333303   0.333333350   0.721807351

     Writing output data file calc.save
     Check: negative starting charge=   -0.000155
     NEW-OLD atomic charge density approx. for the potential
     Check: negative starting charge=   -0.000150

[...]

     energy   old            =   -1642.8437081565 Ry
     energy   new            =   -1642.8735199695 Ry

     CASE: energy  _new < energy  _old

[...]

     Total force =     0.005983     Total SCF correction =     0.000756
     SCF correction compared to forces is large: reduce conv_thr to get better values

[...]

     Total force =     0.004813     Total SCF correction =     0.000277

[...]

     number of scf cycles    =  24
     number of bfgs steps    =  23

     energy   old            =   -1642.9532704829 Ry
     energy   new            =   -1642.9535165553 Ry

     CASE: energy  _new < energy  _old

     new trust radius        =       0.0253307077 bohr
     new conv_thr            =       0.0000001000 Ry

ATOMIC_POSITIONS (crystal)
In1      0.166666667   0.166666667   0.393650374    0   0   0
In1      0.666666667   0.166666667   0.393650374    0   0   0
In1      0.166666667   0.666666667   0.393650374    0   0   0
In1      0.666666667   0.666666667   0.393650374    0   0   0
In1      0.833333333   0.333333333   0.500000000    0   0   0
In1      0.333333333   0.333333333   0.500000000    0   0   0
In1      0.833333333   0.833333333   0.500000000    0   0   0
In1      0.333333333   0.833333333   0.500000000    0   0   0
In1      0.000001165   0.000003054   0.609651024
In1      0.502233302  -0.004473931   0.621466256
In1     -0.004476385   0.502234672   0.621465664
In1      0.502238359   0.502238801   0.621466137
S1       0.333331859   0.333333587   0.709684768
H1       0.333334567   0.333332612   0.763178582

     Writing output data file calc.save
     Check: negative starting charge=   -0.000140
     NEW-OLD atomic charge density approx. for the potential
     Check: negative starting charge=   -0.000141

[...]

     Self-consistent Calculation

[...]

     total energy              =   -1642.95360511 Ry
     Harris-Foulkes estimate   =   -1642.95360415 Ry
     estimated scf accuracy    <       0.00000057 Ry

     iteration #  7     ecut=    36.75 Ry     beta=0.30
     Davidson diagonalization with overlap
     ethr =  3.49E-10,  avg # of iterations =  2.0

[...]

     negative rho (up, down):  1.005E-03 0.000E+00

     Adding external electric field

     Computed dipole along edir(3) :
        Dipole               -0.2279 Ry au,         -0.5792 Debye
        Dipole field         -0.0004 Ry au

        Potential amp.        0.0412 Ry
        Total length         46.8051 bohr

     End of self-consistent calculation

[...]

          k = 0.0504-0.0582 0.0000 ( 24479 PWs)   bands (ev):

[...]

          k =-0.0756-0.0436 0.0000 ( 24448 PWs)   bands (ev):

   -14.5087 -14.5062 -14.4579 -14.4528 -14.4505 -14.4464 -14.4420 -14.4418
   -14.4292 -14.4136 -14.4087 -14.4075 -14.3910 -14.3892 -14.3798 -14.3732
   -14.3704 -14.3686 -14.3579 -14.3481 -14.3440 -14.3341 -14.3321 -14.3244
   -14.3180 -14.3123 -14.3110 -14.3047 -14.2967 -14.2924 -14.2829 -14.2817
   -14.2685 -14.2598 -14.2575 -14.2533 -14.2500 -14.2477 -14.2462 -14.2268
   -14.2263 -14.2250 -14.2193 -14.2144 -14.2123 -14.2095 -14.2081 -14.2053
   -14.2041 -14.1960 -14.1912 -14.1879 -14.1564 -14.1490 -14.1467 -14.1387
   -14.1197 -14.1167 -14.0943 -14.0923 -12.2759  -7.1898  -7.1399  -6.2272
    -5.9343  -5.0319  -4.6416  -4.6049  -4.2637  -3.8313  -3.5791  -3.0716
    -2.2076  -1.8906  -1.5090  -0.9245  -0.1182  -0.0614   0.2769   0.2887
     0.7165   0.7753   1.5672   1.5907   1.6554   1.8964   2.4144   2.5323
     2.6599   2.8040   3.0478

     the Fermi energy is     0.5713 ev

!    total energy              =   -1642.95360519 Ry
     Harris-Foulkes estimate   =   -1642.95360476 Ry
     estimated scf accuracy    <       0.00000004 Ry

     The total energy is the sum of the following terms:

     one-electron contribution =   -8899.42428478 Ry
     hartree contribution      =    4531.41304300 Ry
     xc contribution           =    -478.92031433 Ry
     ewald contribution        =    3204.01525652 Ry
     electric field correction =       0.00010038 Ry
     smearing contrib. (-TS)   =      -0.03740597 Ry

     convergence has been achieved in   7 iterations

 BEEF-vdW xc energy contributions
           1 :   -419.217799440676
           2 :    382.656278444865
           3 :   -321.041904632256
           4 :    251.811387244127
           5 :   -190.795220841895
           6 :    146.520889236602
           7 :   -118.641971559642
           8 :    100.619489175032
           9 :   -84.6986684660920
          10 :    66.2869378842088
          11 :   -45.5784287811745
          12 :    26.0976746479867
          13 :   -11.6294509629503
          14 :    3.65645606259875
          15 :  -0.728945311460166
          16 :  -0.247714311142545
          17 :    1.97468843146811
          18 :   -5.36839242166457
          19 :    9.53422505370247
          20 :   -12.8387666737592
          21 :    14.1815689697926
          22 :   -13.6286689159037
          23 :    12.1476263191602
          24 :   -10.8237052694116
          25 :    10.1929282151542
          26 :   -10.1072867445223
          27 :    10.0833190031170
          28 :   -9.76201047647328
          29 :    9.12041169583949
          30 :   -8.35205702212659
          31 :   -38.3009805179770
          32 :   -27.7147863259874

     Forces acting on atoms (Ry/au):

     negative rho (up, down):  1.005E-03 0.000E+00
     atom    1 type  1   force =    -0.00122447   -0.00070691   -0.01281693
     atom    2 type  1   force =     0.00122450   -0.00070689   -0.01281686
     atom    3 type  1   force =     0.00000003    0.00141390   -0.01281688
     atom    4 type  1   force =    -0.00000004   -0.00000009   -0.01147986
     atom    5 type  1   force =    -0.00000008    0.00129602    0.01125234
     atom    6 type  1   force =     0.00000010   -0.00000004    0.01571849
     atom    7 type  1   force =    -0.00112232   -0.00064797    0.01125346
     atom    8 type  1   force =     0.00112233   -0.00064807    0.01125269
     atom    9 type  1   force =    -0.00000391   -0.00000283    0.00025184
     atom   10 type  1   force =     0.00000393   -0.00002933    0.00064492
     atom   11 type  1   force =    -0.00002276    0.00001843    0.00064489
     atom   12 type  1   force =     0.00002222    0.00001354    0.00064537
     atom   13 type  2   force =     0.00000053    0.00000058   -0.00050873
     atom   14 type  3   force =    -0.00000005   -0.00000033   -0.00122474

     Total force =     0.001753     Total SCF correction =     0.000378
     SCF correction compared to forces is large: reduce conv_thr to get better values

     entering subroutine stress ...

     negative rho (up, down):  1.005E-03 0.000E+00
          total   stress  (Ry/bohr**3)                   (kbar)     P=    4.36
   0.00002884  -0.00000000   0.00000000          4.24     -0.00      0.00
  -0.00000000   0.00002884   0.00000000         -0.00      4.24      0.00
   0.00000000   0.00000000   0.00003119          0.00      0.00      4.59

     bfgs converged in  25 scf cycles and  24 bfgs steps
     (criteria: energy <  1.0E+00, force <  1.9E-03)

     End of BFGS Geometry Optimization

     Final energy   =   -1642.9536051874 Ry
Begin final coordinates

ATOMIC_POSITIONS (crystal)
In1      0.166666667   0.166666667   0.393650374    0   0   0
In1      0.666666667   0.166666667   0.393650374    0   0   0
In1      0.166666667   0.666666667   0.393650374    0   0   0
In1      0.666666667   0.666666667   0.393650374    0   0   0
In1      0.833333333   0.333333333   0.500000000    0   0   0
In1      0.333333333   0.333333333   0.500000000    0   0   0
In1      0.833333333   0.833333333   0.500000000    0   0   0
In1      0.333333333   0.833333333   0.500000000    0   0   0
In1      0.000001165   0.000003054   0.609651024
In1      0.502233302  -0.004473931   0.621466256
In1     -0.004476385   0.502234672   0.621465664
In1      0.502238359   0.502238801   0.621466137
S1       0.333331859   0.333333587   0.709684768
H1       0.333334567   0.333332612   0.763178582
End final coordinates

     Writing output data file calc.save

     General routines

     Parallel routines

   This run was terminated on:  11: 4:28  18Apr2018

   JOB DONE.