     Program PWSCF v.5.1rc2 (svn rev. 11289) starts on 16Apr2018 at 11:43: 8

     Current dimensions of program PWSCF are:
     Max number of different atomic species (ntypx) = 10
     Max number of k-points (npk) =  40000
     Max angular momentum in pseudopotentials (lmaxx) =  3
     Presently stress not available with electric field

     IMPORTANT: XC functional enforced from input :
     Exchange-correlation      = BEEF-VDW ( 1  4 27 13 2)
     Any further DFT definition will be discarded
     Please, verify this is what you really want

     Subspace diagonalization in iterative solution of the eigenvalue problem:
     a serial algorithm will be used

     bravais-lattice index     =            0
     lattice parameter (alat)  =       1.8897  a.u.
     unit-cell volume          =    5144.9564 (a.u.)^3
     number of atoms/cell      =           14
     number of atomic types    =            3
     number of electrons       =       137.00
     number of Kohn-Sham states=           78
     kinetic-energy cutoff     =      36.7493  Ry
     charge density cutoff     =     367.4932  Ry
     convergence threshold     =      1.0E-05
     mixing beta               =       0.3000
     number of iterations used =           10  plain     mixing
     Exchange-correlation      = BEEF-VDW ( 1  4 27 13 2)
     nstep                     =           50

     celldm(1)=   1.889726  celldm(2)=   0.000000  celldm(3)=   0.000000
     celldm(4)=   0.000000  celldm(5)=   0.000000  celldm(6)=   0.000000

     crystal axes: (cart. coord. in units of alat)
               a(1) = (   5.950946   0.000000   0.000000 )
               a(2) = (   2.975473   5.153671   0.000000 )
               a(3) = (   0.000000   0.000000  24.858927 )

     reciprocal axes: (cart. coord. in units 2 pi/alat)
               b(1) = (  0.168040 -0.097018  0.000000 )
               b(2) = (  0.000000  0.194036  0.000000 )
               b(3) = (  0.000000  0.000000  0.040227 )

     PseudoPot. # 1 for Au read from file:
     /u/if/mamunm/psp/gbrv1.5pbe/Au.UPF
     MD5 check sum: 9d7f43293ad2c663164586bc4b293ffc
     Pseudo is Ultrasoft + core correction, Zval = 11.0
     Generated by new atomic code, or converted to UPF format
     Using radial grid of  985 points,  7 beta functions with:
                l(1) =   0
                l(2) =   0
                l(3) =   1
                l(4) =   1
                l(5) =   2
                l(6) =   2
                l(7) =   3
     Q(r) pseudized with  6 coefficients,  rinner =    1.900   1.900   1.900
                                                       1.900   1.900   1.900
                                                       1.900

     PseudoPot. # 2 for C  read from file:
     /u/if/mamunm/psp/gbrv1.5pbe/C.UPF
     MD5 check sum: d1aef80898a10debaa0f26306b886e00
     Pseudo is Ultrasoft + core correction, Zval =  4.0
     Generated by new atomic code, or converted to UPF format
     Using radial grid of  721 points,  4 beta functions with:
                l(1) =   0
                l(2) =   0
                l(3) =   1
                l(4) =   1
     Q(r) pseudized with  8 coefficients,  rinner =    1.100   1.100   1.100

     PseudoPot. # 3 for H  read from file:
     /u/if/mamunm/psp/gbrv1.5pbe/H.UPF
     MD5 check sum: 761ae9a214b05c3daf00ab9f6b793d6f
     Pseudo is Ultrasoft, Zval =  1.0
     Generated by new atomic code, or converted to UPF format
     Using radial grid of  615 points,  2 beta functions with:
                l(1) =   0
                l(2) =   0
     Q(r) pseudized with  8 coefficients,  rinner =    0.700

     vdW kernel table read from file vdW_kernel_table
     MD5 check sum: 095c7af220d748ca6e76c0b4c6cfb241

     atomic species   valence    mass     pseudopotential
        Au1           11.00   196.96657     Au( 1.00)
        C1             4.00    12.01100     C ( 1.00)
        H1             1.00     1.00800     H ( 1.00)

     No symmetry found

   Cartesian axes

     site n.     atom                  positions (alat units)
         1           Au1 tau(   1) = (   1.4877366   0.8589451  10.0000000  )
         2           Au1 tau(   2) = (   4.4632098   0.8589451  10.0000000  )
         3           Au1 tau(   3) = (   2.9754732   3.4357805  10.0000000  )
         4           Au1 tau(   4) = (   5.9509464   3.4357805  10.0000000  )
         5           Au1 tau(   5) = (   5.9509464   1.7178903  12.4294637  )
         6           Au1 tau(   6) = (   2.9754732   1.7178903  12.4294637  )
         7           Au1 tau(   7) = (   7.4386830   4.2947256  12.4294637  )
         8           Au1 tau(   8) = (   4.4632098   4.2947256  12.4294637  )
         9           Au1 tau(   9) = (   0.0000000   0.0000000  14.8589274  )
        10           Au1 tau(  10) = (   2.9754732   0.0000000  14.8589274  )
        11           Au1 tau(  11) = (   1.4877366   2.5768354  14.8589274  )
        12           Au1 tau(  12) = (   4.4632098   2.5768354  14.8589274  )
        13           C1  tau(  13) = (   0.0000000   0.0000000  16.6609274  )
        14           H1  tau(  14) = (   0.0000000   0.0000000  17.7609274  )

     number of k points=    20  Fermi-Dirac smearing, width (Ry)=  0.0110
                       cart. coord. in units 2pi/alat
        k(    1) = (   0.0000000   0.0000000   0.0000000), wk =   0.0555556
        k(    2) = (   0.0000000   0.0323394   0.0000000), wk =   0.1111111
        k(    3) = (   0.0000000   0.0646788   0.0000000), wk =   0.1111111
        k(    4) = (   0.0000000  -0.0970182   0.0000000), wk =   0.0555556
        k(    5) = (   0.0280067  -0.0161697   0.0000000), wk =   0.1111111
        k(    6) = (   0.0280067   0.0161697   0.0000000), wk =   0.1111111
        k(    7) = (   0.0280067   0.0485091   0.0000000), wk =   0.1111111
        k(    8) = (   0.0280067  -0.1131879   0.0000000), wk =   0.1111111
        k(    9) = (   0.0280067  -0.0808485   0.0000000), wk =   0.1111111
        k(   10) = (   0.0280067  -0.0485091   0.0000000), wk =   0.1111111
        k(   11) = (   0.0560135  -0.0323394   0.0000000), wk =   0.1111111
        k(   12) = (   0.0560135   0.0000000   0.0000000), wk =   0.1111111
        k(   13) = (   0.0560135   0.0323394   0.0000000), wk =   0.1111111
        k(   14) = (   0.0560135  -0.1293576   0.0000000), wk =   0.1111111
        k(   15) = (   0.0560135  -0.0970182   0.0000000), wk =   0.1111111
        k(   16) = (   0.0560135  -0.0646788   0.0000000), wk =   0.1111111
        k(   17) = (  -0.0840202   0.0485091   0.0000000), wk =   0.0555556
        k(   18) = (  -0.0840202   0.0808485   0.0000000), wk =   0.1111111
        k(   19) = (  -0.0840202   0.1131879   0.0000000), wk =   0.1111111
        k(   20) = (  -0.0840202  -0.0485091   0.0000000), wk =   0.0555556

     Largest allocated arrays     est. size (Mb)     dimensions
     Largest temporary arrays     est. size (Mb)     dimensions

     Check: negative/imaginary core charge=   -0.000002    0.000000

     Initial potential from superposition of free atoms
     Check: negative starting charge=   -0.000103

     starting charge  136.99848, renormalised to  137.00000

     negative rho (up, down):  1.027E-04 0.000E+00

     *
     * You are using vdW-DF for exchange-correlation in this calculation.
     * Please cite the following three references that made this development
     * possible:
     *
     *   M. Dion, H. Rydberg, E. Schroder, D. C. Langreth, and
     *   B. I. Lundqvist, Phys. Rev. Lett. 92, 246401 (2004).
     *
     *   T. Thonhauser, V. R. Cooper, S. Li, A. Puzder, P. Hyldgaard, and
     *   D. C. Langreth, Phys. Rev. B 76, 125112 (2007).
     *
     *   G. Roman-Perez and J. M. Soler, Phys. Rev. Lett. 103, 096102 (2009).
     *
     *
     * If you are using vdW-DF2, please also cite:
     *
     *   K. Lee, E. D. Murray, L. Kong, B. I. Lundqvist, and
     *   D. C. Langreth, Phys. Rev. B 82, 081101(R) (2010).
     *
     *
     * If you are calculating the stress with vdW-DF, please also cite:
     *
     *   R. Sabatini, E. Kucukbenli, B. Kolb, T. Thonhauser, and
     *   S. de Gironcoli, J. Phys.: Condens. Matter 24, 424209 (2012).
     *

     Carrying out vdW-DF run using the following parameters:

     Nqs =      20    Nr_points =    1024   r_max =   100.000
     q_mesh =
               0.00001000     0.04494208     0.09755937     0.15916263
               0.23128650     0.31572767     0.41458969     0.53033537
               0.66584808     0.82450364     1.01025438     1.22772762
               1.48234092     1.78043706     2.12944203     2.53805004
               3.01644009     3.57652955     4.23227104     5.00000000

     Gradients computed in reciprocal space

     Adding external electric field

     Computed dipole along edir(3) :
        Dipole               -0.0001 Ry au,         -0.0001 Debye
        Dipole field         -0.0000 Ry au

        Potential amp.        0.0000 Ry
        Total length         45.8022 bohr

     Starting wfc are  113 randomized atomic wfcs

     Self-consistent Calculation

     iteration #  1     ecut=    36.75 Ry     beta=0.30
     Davidson diagonalization with overlap
     ethr =  1.00E-02,  avg # of iterations =  2.1

[...]

     total energy              =   -1411.59581756 Ry
     Harris-Foulkes estimate   =   -1413.16097745 Ry
     estimated scf accuracy    <       3.44165130 Ry

[...]

     End of self-consistent calculation

          k = 0.0000 0.0000 0.0000 ( 19315 PWs)   bands (ev):

   -11.4262  -7.6164  -7.1892  -6.1293  -5.6869  -5.6715  -5.6715  -5.4269
    -5.4269  -5.3502  -5.2296  -5.2296  -5.2118  -4.9099  -4.9099  -4.8797
    -4.8037  -4.5779  -4.5778  -3.7966  -3.7371  -3.7371  -3.6415  -3.5555
    -3.5555  -3.5494  -3.4922  -3.4922  -3.3373  -3.3373  -3.2316  -3.1965
    -3.1965  -3.0149  -2.8226  -2.8226  -2.6303  -2.6303  -2.3108  -2.3108
    -2.2328  -2.2088  -2.1388  -2.1388  -1.9336  -1.9303  -1.9303  -1.6344
    -1.6344  -1.5427  -1.5258  -1.5257  -1.4565  -1.4565  -1.3729  -1.3729
    -1.3154  -1.2769  -1.2768  -1.2311  -1.0459  -1.0349  -1.0349  -1.0127
     0.0328   0.0328   0.2712   1.1025   1.4025   1.4025   1.7593   1.8854
     2.0674   2.0674   2.1621   2.7456   2.7456   3.8131

[...]

          k =-0.0840 0.0485 0.0000 ( 19380 PWs)   bands (ev):

[...]

     the Fermi energy is     0.6541 ev

!    total energy              =   -1412.94536189 Ry
     Harris-Foulkes estimate   =   -1412.94534198 Ry
     estimated scf accuracy    <       0.00000547 Ry

     The total energy is the sum of the following terms:

     one-electron contribution =   -8188.69813026 Ry
     hartree contribution      =    4193.32892603 Ry
     xc contribution           =    -772.35440395 Ry
     ewald contribution        =    3354.80998320 Ry
     electric field correction =       0.00022170 Ry
     smearing contrib. (-TS)   =      -0.03195861 Ry

     convergence has been achieved in  12 iterations

 BEEF-vdW xc energy contributions
           1 :   -690.254942975114
           2 :    641.557716103204
           3 :   -554.512999091879
           4 :    446.024799576595
           5 :   -334.307069221943
           6 :    234.205216645485
           7 :   -154.405710936181
           8 :    96.9897490704468
           9 :   -59.0355045648325
          10 :    35.2641544926894
          11 :   -20.5417778576624
          12 :    11.3198955405567
          13 :   -5.78358009175327
          14 :    3.09582590622142
          15 :   -2.46555808829692
          16 :    2.64056506495012
          17 :   -2.05827844303667
          18 :  -0.541497892351572
          19 :    5.46846513923526
          20 :   -11.8305049872736
          21 :    17.8637138071647
          22 :   -21.7097515514940
          23 :    22.2479628928093
          24 :   -19.5735300612613
          25 :    14.8995817947944
          26 :   -9.96390318181227
          27 :    6.25487716572854
          28 :   -4.44557013495353
          29 :    4.28080856816428
          30 :   -4.91929998855494
          31 :   -54.6907860742185
          32 :   -39.8526264216903

     Forces acting on atoms (Ry/au):

     negative rho (up, down):  2.412E-04 0.000E+00
     atom    1 type  1   force =    -0.00046333   -0.00026620   -0.00570269
     atom    2 type  1   force =     0.00046607   -0.00026519   -0.00569517
     atom    3 type  1   force =    -0.00000130    0.00053867   -0.00568844
     atom    4 type  1   force =    -0.00000151    0.00000011    0.00026428
     atom    5 type  1   force =     0.00000097   -0.00364748    0.00328660
     atom    6 type  1   force =     0.00000309    0.00000282    0.00080582
     atom    7 type  1   force =     0.00315829    0.00182501    0.00327913
     atom    8 type  1   force =    -0.00315756    0.00182289    0.00327873
     atom    9 type  1   force =    -0.00000571   -0.00000064   -0.09351967
     atom   10 type  1   force =    -0.00000449    0.00027644    0.00136757
     atom   11 type  1   force =     0.00024673   -0.00014351    0.00139841
     atom   12 type  1   force =    -0.00024432   -0.00014122    0.00139334
     atom   13 type  2   force =     0.00000221   -0.00000083    0.10801819
     atom   14 type  3   force =     0.00000084   -0.00000088   -0.01248611

     Total force =     0.143443     Total SCF correction =     0.004875

     entering subroutine stress ...

     negative rho (up, down):  2.412E-04 0.000E+00
          total   stress  (Ry/bohr**3)                   (kbar)     P=   -4.08
  -0.00008228   0.00000000   0.00000000        -12.10      0.00      0.00
   0.00000000  -0.00008227   0.00000000          0.00    -12.10      0.00
   0.00000000   0.00000000   0.00008132          0.00      0.00     11.96

     BFGS Geometry Optimization

     number of scf cycles    =   1
     number of bfgs steps    =   0

     energy   new            =   -1412.9453618868 Ry

     new trust radius        =       0.1080181867 bohr
     new conv_thr            =       0.0000099958 Ry

ATOMIC_POSITIONS (crystal)
Au1      0.166666667   0.166666667   0.402269971    0   0   0
Au1      0.666666667   0.166666667   0.402269971    0   0   0
Au1      0.166666667   0.666666667   0.402269971    0   0   0
Au1      0.666666667   0.666666667   0.402269971    0   0   0
Au1      0.833333333   0.333333333   0.500000000    0   0   0
Au1      0.333333333   0.333333333   0.500000000    0   0   0
Au1      0.833333333   0.833333333   0.500000000    0   0   0
Au1      0.333333333   0.833333333   0.500000000    0   0   0
Au1     -0.000000475  -0.000000065   0.595739256
Au1      0.499985408   0.000028385   0.597759141
Au1      0.000029308   0.499985264   0.597759797
Au1      0.499985525   0.499985500   0.597759689
C1       0.000000239  -0.000000085   0.672518484
H1       0.000000120  -0.000000090   0.714202980

     Writing output data file calc.save
     Check: negative starting charge=   -0.000103
     NEW-OLD atomic charge density approx. for the potential

     Check: negative/imaginary core charge=   -0.000002    0.000000
     Check: negative starting charge=   -0.000101

[...]

     Total force =     0.125247     Total SCF correction =     0.017300
     SCF correction compared to forces is large: reduce conv_thr to get better values

[...]

     energy   old            =   -1412.9453618868 Ry
     energy   new            =   -1412.9494731077 Ry

     CASE: energy  _new < energy  _old

[...]

     Threshold (ethr) on eigenvalues was too large:
     Diagonalizing with lowered threshold

     Davidson diagonalization with overlap
     ethr =  7.96E-08,  avg # of iterations =  2.0

[...]

     Total force =     0.004120     Total SCF correction =     0.000134

[...]

     number of scf cycles    =   9
     number of bfgs steps    =   8

     energy   old            =   -1412.9538080977 Ry
     energy   new            =   -1412.9538483763 Ry

     CASE: energy  _new < energy  _old

     new trust radius        =       0.0140622303 bohr
     new conv_thr            =       0.0000001000 Ry

ATOMIC_POSITIONS (crystal)
Au1      0.166666667   0.166666667   0.402269971    0   0   0
Au1      0.666666667   0.166666667   0.402269971    0   0   0
Au1      0.166666667   0.666666667   0.402269971    0   0   0
Au1      0.666666667   0.666666667   0.402269971    0   0   0
Au1      0.833333333   0.333333333   0.500000000    0   0   0
Au1      0.333333333   0.333333333   0.500000000    0   0   0
Au1      0.833333333   0.833333333   0.500000000    0   0   0
Au1      0.333333333   0.833333333   0.500000000    0   0   0
Au1     -0.000001002  -0.000000197   0.596225623
Au1      0.499686396   0.000626722   0.598535525
Au1      0.000626216   0.499686492   0.598535215
Au1      0.499686417   0.499686459   0.598535237
C1       0.000002068  -0.000000297   0.672872278
H1      -0.000000277  -0.000000112   0.716811221

     Writing output data file calc.save
     Check: negative starting charge=   -0.000101
     NEW-OLD atomic charge density approx. for the potential

     Check: negative/imaginary core charge=   -0.000002    0.000000
     Check: negative starting charge=   -0.000101

[...]

     Self-consistent Calculation

[...]

     Threshold (ethr) on eigenvalues was too large:
     Diagonalizing with lowered threshold

     Davidson diagonalization with overlap
     ethr =  2.99E-08,  avg # of iterations =  1.0

[...]

     total energy              =   -1412.95385694 Ry
     Harris-Foulkes estimate   =   -1412.95385671 Ry
     estimated scf accuracy    <       0.00000018 Ry

     iteration #  7     ecut=    36.75 Ry     beta=0.30
     Davidson diagonalization with overlap
     ethr =  1.31E-10,  avg # of iterations =  3.0

[...]

     negative rho (up, down):  2.326E-04 0.000E+00

     Adding external electric field

     Computed dipole along edir(3) :
        Dipole                0.2550 Ry au,          0.6481 Debye
        Dipole field          0.0006 Ry au

        Potential amp.       -0.0571 Ry
        Total length         45.8022 bohr

     End of self-consistent calculation

[...]

          k = 0.0560-0.0647 0.0000 ( 19376 PWs)   bands (ev):

[...]

          k =-0.0840-0.0485 0.0000 ( 19380 PWs)   bands (ev):

   -11.0892  -6.9388  -6.0273  -5.9407  -5.1659  -5.1619  -4.9706  -4.8971
    -4.7755  -4.7520  -4.7285  -4.7068  -4.5322  -4.4861  -4.3713  -4.2897
    -4.2434  -4.1563  -4.1412  -4.0208  -3.9105  -3.8682  -3.8418  -3.7245
    -3.7111  -3.6369  -3.5660  -3.4867  -3.4694  -3.2955  -3.1999  -3.1660
    -3.1300  -3.1113  -3.0650  -3.0420  -3.0091  -2.9481  -2.9471  -2.9376
    -2.9047  -2.8523  -2.7267  -2.6721  -2.5975  -2.4967  -2.4741  -2.4460
    -2.3891  -2.3364  -2.3038  -2.2368  -2.2109  -2.1923  -2.0766  -1.9444
    -1.9306  -1.8494  -1.6103  -1.5591  -1.5583  -1.4979  -1.4569  -1.3251
    -1.2771  -0.4856   0.1706   0.3310   0.4559   0.8541   1.1743   1.2472
     1.9900   2.1719   3.6061   3.6310   4.0206   4.8079

     the Fermi energy is     0.6005 ev

!    total energy              =   -1412.95385697 Ry
     Harris-Foulkes estimate   =   -1412.95385647 Ry
     estimated scf accuracy    <       0.00000005 Ry

     The total energy is the sum of the following terms:

     one-electron contribution =   -8169.50418889 Ry
     hartree contribution      =    4183.72890195 Ry
     xc contribution           =    -772.30480081 Ry
     ewald contribution        =    3345.15924629 Ry
     electric field correction =       0.00015882 Ry
     smearing contrib. (-TS)   =      -0.03317434 Ry

     convergence has been achieved in   7 iterations

 BEEF-vdW xc energy contributions
           1 :   -690.199986259204
           2 :    641.470693704574
           3 :   -554.384499297189
           4 :    445.874834305877
           5 :   -334.173173716424
           6 :    234.121214569015
           7 :   -154.383718292866
           8 :    97.0147149798452
           9 :   -59.0736968430880
          10 :    35.2804998499572
          11 :   -20.5166652989734
          12 :    11.2572710841550
          13 :   -5.70690318251116
          14 :    3.03491118528757
          15 :   -2.44168522901998
          16 :    2.65782781202381
          17 :   -2.10463471536241
          18 :  -0.485490716470281
          19 :    5.41875621000338
          20 :   -11.7925472532237
          21 :    17.8330120136021
          22 :   -21.6787908615757
          23 :    22.2144222585654
          24 :   -19.5444630916887
          25 :    14.8882299784112
          26 :   -9.98079488437077
          27 :    6.29923601214045
          28 :   -4.50194972012548
          29 :    4.32419036999215
          30 :   -4.92688873548013
          31 :   -54.6868770462023
          32 :   -39.8409175163872

     Forces acting on atoms (Ry/au):

     negative rho (up, down):  2.326E-04 0.000E+00
     atom    1 type  1   force =    -0.00036969   -0.00021346   -0.00540222
     atom    2 type  1   force =     0.00036971   -0.00021344   -0.00540220
     atom    3 type  1   force =     0.00000003    0.00042688   -0.00540233
     atom    4 type  1   force =     0.00000000    0.00000000    0.00113786
     atom    5 type  1   force =    -0.00000005   -0.00179710    0.00446663
     atom    6 type  1   force =    -0.00000010   -0.00000018    0.00323581
     atom    7 type  1   force =     0.00155612    0.00089864    0.00446673
     atom    8 type  1   force =    -0.00155615    0.00089861    0.00446698
     atom    9 type  1   force =    -0.00000041    0.00000005    0.00113470
     atom   10 type  1   force =    -0.00000021   -0.00048868   -0.00078055
     atom   11 type  1   force =    -0.00042308    0.00024431   -0.00077991
     atom   12 type  1   force =     0.00042304    0.00024442   -0.00077992
     atom   13 type  2   force =     0.00000132   -0.00000007   -0.00033618
     atom   14 type  3   force =    -0.00000054    0.00000004   -0.00002540

     Total force =     0.001986     Total SCF correction =     0.000522
     SCF correction compared to forces is large: reduce conv_thr to get better values

     entering subroutine stress ...

     negative rho (up, down):  2.326E-04 0.000E+00
          total   stress  (Ry/bohr**3)                   (kbar)     P=   -8.71
  -0.00009400  -0.00000000   0.00000000        -13.83     -0.00      0.00
  -0.00000000  -0.00009400   0.00000000         -0.00    -13.83      0.00
   0.00000000   0.00000000   0.00001035          0.00      0.00      1.52

     bfgs converged in  10 scf cycles and   9 bfgs steps
     (criteria: energy <  1.0E+00, force <  1.9E-03)

     End of BFGS Geometry Optimization

     Final energy   =   -1412.9538569677 Ry
Begin final coordinates

ATOMIC_POSITIONS (crystal)
Au1      0.166666667   0.166666667   0.402269971    0   0   0
Au1      0.666666667   0.166666667   0.402269971    0   0   0
Au1      0.166666667   0.666666667   0.402269971    0   0   0
Au1      0.666666667   0.666666667   0.402269971    0   0   0
Au1      0.833333333   0.333333333   0.500000000    0   0   0
Au1      0.333333333   0.333333333   0.500000000    0   0   0
Au1      0.833333333   0.833333333   0.500000000    0   0   0
Au1      0.333333333   0.833333333   0.500000000    0   0   0
Au1     -0.000001002  -0.000000197   0.596225623
Au1      0.499686396   0.000626722   0.598535525
Au1      0.000626216   0.499686492   0.598535215
Au1      0.499686417   0.499686459   0.598535237
C1       0.000002068  -0.000000297   0.672872278
H1      -0.000000277  -0.000000112   0.716811221
End final coordinates

     Writing output data file calc.save

     General routines

     Parallel routines

   This run was terminated on:  12:53:41  16Apr2018

   JOB DONE.
Job  /afs/slac/g/suncat/bin/suncat-tsmpirun -x LD_LIBRARY_PATH -wdir /scratch/qe118633_pZPhm pw.x -npool 4 -in pw.inp

TID   HOST_NAME   COMMAND_LINE            STATUS            TERMINATION_TIME
00000 suncat0030 pw.x -npool 4 -i  Done                     04/16/2018 12:53:41
00001 suncat0030 pw.x -npool 4 -i  Done                     04/16/2018 12:53:41
00002 suncat0030 pw.x -npool 4 -i  Done                     04/16/2018 12:53:41
00003 suncat0030 pw.x -npool 4 -i  Done                     04/16/2018 12:53:41
00004 suncat0030 pw.x -npool 4 -i  Done                     04/16/2018 12:53:41
00005 suncat0030 pw.x -npool 4 -i  Done                     04/16/2018 12:53:41
00006 suncat0030 pw.x -npool 4 -i  Done                     04/16/2018 12:53:41
00007 suncat0030 pw.x -npool 4 -i  Done                     04/16/2018 12:53:41
00008 suncat0172 pw.x -npool 4 -i  Done                     04/16/2018 12:53:41
00009 suncat0172 pw.x -npool 4 -i  Done                     04/16/2018 12:53:41
00010 suncat0172 pw.x -npool 4 -i  Done                     04/16/2018 12:53:41
00011 suncat0172 pw.x -npool 4 -i  Done                     04/16/2018 12:53:41
00012 suncat0172 pw.x -npool 4 -i  Done                     04/16/2018 12:53:41
00013 suncat0172 pw.x -npool 4 -i  Done                     04/16/2018 12:53:41
00014 suncat0172 pw.x -npool 4 -i  Done                     04/16/2018 12:53:41
00015 suncat0172 pw.x -npool 4 -i  Done                     04/16/2018 12:53:41
00016 suncat0120 pw.x -npool 4 -i  Done                     04/16/2018 12:53:41
00017 suncat0120 pw.x -npool 4 -i  Done                     04/16/2018 12:53:41
00018 suncat0120 pw.x -npool 4 -i  Done                     04/16/2018 12:53:41
00019 suncat0120 pw.x -npool 4 -i  Done                     04/16/2018 12:53:41
00020 suncat0120 pw.x -npool 4 -i  Done                     04/16/2018 12:53:41
00021 suncat0120 pw.x -npool 4 -i  Done                     04/16/2018 12:53:41
00022 suncat0120 pw.x -npool 4 -i  Done                     04/16/2018 12:53:41
00023 suncat0120 pw.x -npool 4 -i  Done                     04/16/2018 12:53:41
00024 suncat0105 pw.x -npool 4 -i  Done                     04/16/2018 12:53:41
00025 suncat0105 pw.x -npool 4 -i  Done                     04/16/2018 12:53:41
00026 suncat0105 pw.x -npool 4 -i  Done                     04/16/2018 12:53:41
00027 suncat0105 pw.x -npool 4 -i  Done                     04/16/2018 12:53:41
00028 suncat0105 pw.x -npool 4 -i  Done                     04/16/2018 12:53:41
00029 suncat0105 pw.x -npool 4 -i  Done                     04/16/2018 12:53:41
00030 suncat0105 pw.x -npool 4 -i  Done                     04/16/2018 12:53:41
00031 suncat0105 pw.x -npool 4 -i  Done                     04/16/2018 12:53:41