     Program PWSCF v.5.1rc2 (svn rev. 11289) starts on  1May2018 at 13:38:39

     Current dimensions of program PWSCF are:
     Max number of different atomic species (ntypx) = 10
     Max number of k-points (npk) =  40000
     Max angular momentum in pseudopotentials (lmaxx) =  3
     Presently stress not available with electric field

     IMPORTANT: XC functional enforced from input :
     Exchange-correlation      = BEEF-VDW ( 1  4 27 13 2)
     Any further DFT definition will be discarded
     Please, verify this is what you really want

     Subspace diagonalization in iterative solution of the eigenvalue problem:
     a serial algorithm will be used

     bravais-lattice index     =            0
     lattice parameter (alat)  =       1.8897  a.u.
     unit-cell volume          =    3807.2308 (a.u.)^3
     number of atoms/cell      =           13
     number of atomic types    =            2
     number of electrons       =       232.00
     number of Kohn-Sham states=          126
     kinetic-energy cutoff     =      36.7493  Ry
     charge density cutoff     =     367.4932  Ry
     convergence threshold     =      1.0E-05
     mixing beta               =       0.3000
     number of iterations used =           10  plain     mixing
     Exchange-correlation      = BEEF-VDW ( 1  4 27 13 2)
     nstep                     =           50

     celldm(1)=   1.889726  celldm(2)=   0.000000  celldm(3)=   0.000000
     celldm(4)=   0.000000  celldm(5)=   0.000000  celldm(6)=   0.000000

     crystal axes: (cart. coord. in units of alat)
               a(1) = (   5.184823   0.000000   0.000000 )
               a(2) = (   2.592411   4.490188   0.000000 )
               a(3) = (   0.000000   0.000000  24.233390 )

     reciprocal axes: (cart. coord. in units 2 pi/alat)
               b(1) = (  0.192871 -0.111354  0.000000 )
               b(2) = (  0.000000  0.222708  0.000000 )
               b(3) = (  0.000000  0.000000  0.041265 )

     PseudoPot. # 1 for Cu read from file:
     /u/if/mamunm/psp/gbrv1.5pbe/Cu.UPF
     MD5 check sum: 6e991ff952a84172a2a52a1c1e996048
     Pseudo is Ultrasoft + core correction, Zval = 19.0
     Generated by new atomic code, or converted to UPF format
     Using radial grid of  867 points,  6 beta functions with:
                l(1) =   0
                l(2) =   0
                l(3) =   1
                l(4) =   1
                l(5) =   2
                l(6) =   2
     Q(r) pseudized with  8 coefficients,  rinner =    1.150   1.150   1.150
                                                       1.150   1.150

     PseudoPot. # 2 for C  read from file:
     /u/if/mamunm/psp/gbrv1.5pbe/C.UPF
     MD5 check sum: d1aef80898a10debaa0f26306b886e00
     Pseudo is Ultrasoft + core correction, Zval =  4.0
     Generated by new atomic code, or converted to UPF format
     Using radial grid of  721 points,  4 beta functions with:
                l(1) =   0
                l(2) =   0
                l(3) =   1
                l(4) =   1
     Q(r) pseudized with  8 coefficients,  rinner =    1.100   1.100   1.100

     vdW kernel table read from file vdW_kernel_table
     MD5 check sum: 095c7af220d748ca6e76c0b4c6cfb241

     atomic species   valence    mass     pseudopotential
        Cu1           19.00    63.54600     Cu( 1.00)
        C1             4.00    12.01100     C ( 1.00)

     No symmetry found

   Cartesian axes

     site n.     atom                  positions (alat units)
         1           Cu1 tau(   1) = (   1.2962057   0.7483647  10.0000000  )
         2           Cu1 tau(   2) = (   3.8886170   0.7483647  10.0000000  )
         3           Cu1 tau(   3) = (   2.5924113   2.9934587  10.0000000  )
         4           Cu1 tau(   4) = (   5.1848226   2.9934587  10.0000000  )
         5           Cu1 tau(   5) = (   5.1848226   1.4967294  12.1166950  )
         6           Cu1 tau(   6) = (   2.5924113   1.4967294  12.1166950  )
         7           Cu1 tau(   7) = (   6.4810283   3.7418234  12.1166950  )
         8           Cu1 tau(   8) = (   3.8886170   3.7418234  12.1166950  )
         9           Cu1 tau(   9) = (   0.0000000   0.0000000  14.2333899  )
        10           Cu1 tau(  10) = (   2.5924113   0.0000000  14.2333899  )
        11           Cu1 tau(  11) = (   1.2962057   2.2450940  14.2333899  )
        12           Cu1 tau(  12) = (   3.8886170   2.2450940  14.2333899  )
        13           C1  tau(  13) = (   1.2962057   0.7483647  15.5853899  )

     number of k points=    20  Fermi-Dirac smearing, width (Ry)=  0.0110
                       cart. coord. in units 2pi/alat
        k(    1) = (   0.0000000   0.0000000   0.0000000), wk =   0.0555556
        k(    2) = (   0.0000000   0.0371180   0.0000000), wk =   0.1111111
        k(    3) = (   0.0000000   0.0742359   0.0000000), wk =   0.1111111
        k(    4) = (   0.0000000  -0.1113539   0.0000000), wk =   0.0555556
        k(    5) = (   0.0321451  -0.0185590   0.0000000), wk =   0.1111111
        k(    6) = (   0.0321451   0.0185590   0.0000000), wk =   0.1111111
        k(    7) = (   0.0321451   0.0556770   0.0000000), wk =   0.1111111
        k(    8) = (   0.0321451  -0.1299129   0.0000000), wk =   0.1111111
        k(    9) = (   0.0321451  -0.0927949   0.0000000), wk =   0.1111111
        k(   10) = (   0.0321451  -0.0556770   0.0000000), wk =   0.1111111
        k(   11) = (   0.0642902  -0.0371180   0.0000000), wk =   0.1111111
        k(   12) = (   0.0642902  -0.0000000   0.0000000), wk =   0.1111111
        k(   13) = (   0.0642902   0.0371180   0.0000000), wk =   0.1111111
        k(   14) = (   0.0642902  -0.1484719   0.0000000), wk =   0.1111111
        k(   15) = (   0.0642902  -0.1113539   0.0000000), wk =   0.1111111
        k(   16) = (   0.0642902  -0.0742359   0.0000000), wk =   0.1111111
        k(   17) = (  -0.0964353   0.0556770   0.0000000), wk =   0.0555556
        k(   18) = (  -0.0964353   0.0927949   0.0000000), wk =   0.1111111
        k(   19) = (  -0.0964353   0.1299129   0.0000000), wk =   0.1111111
        k(   20) = (  -0.0964353  -0.0556770   0.0000000), wk =   0.0555556

     Largest allocated arrays     est. size (Mb)     dimensions
     Largest temporary arrays     est. size (Mb)     dimensions

     Initial potential from superposition of free atoms
     Check: negative starting charge=   -0.000145

     starting charge  219.99994, renormalised to  232.00000

     negative rho (up, down):  1.525E-04 0.000E+00

     *
     * You are using vdW-DF for exchange-correlation in this calculation.
     * Please cite the following three references that made this development
     * possible:
     *
     *   M. Dion, H. Rydberg, E. Schroder, D. C. Langreth, and
     *   B. I. Lundqvist, Phys. Rev. Lett. 92, 246401 (2004).
     *
     *   T. Thonhauser, V. R. Cooper, S. Li, A. Puzder, P. Hyldgaard, and
     *   D. C. Langreth, Phys. Rev. B 76, 125112 (2007).
     *
     *   G. Roman-Perez and J. M. Soler, Phys. Rev. Lett. 103, 096102 (2009).
     *
     *
     * If you are using vdW-DF2, please also cite:
     *
     *   K. Lee, E. D. Murray, L. Kong, B. I. Lundqvist, and
     *   D. C. Langreth, Phys. Rev. B 82, 081101(R) (2010).
     *
     *
     * If you are calculating the stress with vdW-DF, please also cite:
     *
     *   R. Sabatini, E. Kucukbenli, B. Kolb, T. Thonhauser, and
     *   S. de Gironcoli, J. Phys.: Condens. Matter 24, 424209 (2012).
     *

     Carrying out vdW-DF run using the following parameters:

     Nqs =      20    Nr_points =    1024   r_max =   100.000
     q_mesh =
               0.00001000     0.04494208     0.09755937     0.15916263
               0.23128650     0.31572767     0.41458969     0.53033537
               0.66584808     0.82450364     1.01025438     1.22772762
               1.48234092     1.78043706     2.12944203     2.53805004
               3.01644009     3.57652955     4.23227104     5.00000000

     Gradients computed in reciprocal space

     Adding external electric field

     Computed dipole along edir(3) :
        Dipole               -1.4299 Ry au,         -3.6344 Debye
        Dipole field         -0.0047 Ry au

        Potential amp.        0.4215 Ry
        Total length         44.6496 bohr

     Starting wfc are  160 randomized atomic wfcs

     Self-consistent Calculation

     iteration #  1     ecut=    36.75 Ry     beta=0.30
     Davidson diagonalization with overlap
     ethr =  1.00E-02,  avg # of iterations =  7.7

[...]

     total energy              =   -4711.77653931 Ry
     Harris-Foulkes estimate   =   -4877.93486619 Ry
     estimated scf accuracy    <     348.52933110 Ry

     iteration #  2     ecut=    36.75 Ry     beta=0.30
     Davidson diagonalization with overlap
     c_bands:  1 eigenvalues not converged
     c_bands:  3 eigenvalues not converged
     ethr =  1.00E-02,  avg # of iterations = 19.3

[...]

     End of self-consistent calculation

          k = 0.0000 0.0000 0.0000 ( 14321 PWs)   bands (ev):

  -112.9095-112.9045-112.9024-112.6209-112.6114-112.6072-112.6068-112.3685
  -112.3612-112.3575-112.3575-112.2078 -70.4513 -70.4192 -70.4173 -70.2433
   -70.2418 -70.2248 -70.2164 -70.1938 -70.1922 -70.0527 -70.0435 -70.0433
   -70.0222 -70.0035 -70.0017 -70.0014 -69.9952 -69.9949 -69.9882 -69.9761
   -69.9760 -69.8217 -69.8217 -69.8136 -69.7701 -69.7681 -69.7681 -69.7496
   -69.7496 -69.7223 -69.7122 -69.7078 -69.7077 -69.6343 -69.6342 -69.5667
   -10.2941  -8.0957  -6.0456  -4.9179  -4.6207  -4.6205  -4.5708  -4.5706
    -4.5616  -4.5144  -4.1963  -4.1356  -4.1354  -4.0705  -4.0705  -4.0183
    -3.6108  -3.6107  -3.4812  -3.1708  -3.1706  -3.1447  -3.1146  -3.1142
    -3.0462  -2.9535  -2.9533  -2.8806  -2.8577  -2.8379  -2.8376  -2.7592
    -2.7587  -2.6792  -2.6792  -2.4683  -2.4597  -2.4594  -2.3347  -2.2603
    -2.2600  -2.2337  -2.1204  -2.1204  -1.9868  -1.9866  -1.8855  -1.8524
    -1.8522  -1.7772  -1.7700  -1.7700  -1.7074  -1.7073  -1.6748  -1.6487
    -1.6486  -1.6378  -1.6019  -1.6017  -1.4293  -1.4293  -1.4261  -1.0116
    -0.5882  -0.4480  -0.4480   0.4720   0.4721   0.5212   0.9391   1.3338
     1.3338   1.4452   1.9441   1.9442   3.3074   4.0642

[...]

          k =-0.0964 0.0557 0.0000 ( 14294 PWs)   bands (ev):

[...]

     the Fermi energy is    -0.0259 ev

!    total energy              =   -4870.57073602 Ry
     Harris-Foulkes estimate   =   -4870.57075199 Ry
     estimated scf accuracy    <       0.00000520 Ry

     The total energy is the sum of the following terms:

     one-electron contribution =  -37642.06573956 Ry
     hartree contribution      =   18832.53805510 Ry
     xc contribution           =    -483.38319846 Ry
     ewald contribution        =   14422.36468716 Ry
     electric field correction =       0.00028822 Ry
     smearing contrib. (-TS)   =      -0.02482848 Ry

     convergence has been achieved in  28 iterations

 BEEF-vdW xc energy contributions
           1 :   -428.351675891918
           2 :    388.414889730843
           3 :   -320.722345992491
           4 :    243.858216789827
           5 :   -174.782593069961
           6 :    122.746813365582
           7 :   -87.8129085488458
           8 :    63.9573118287391
           9 :   -44.3321370393261
          10 :    25.4353120301935
          11 :   -8.09611947211329
          12 :   -4.60688718801202
          13 :    10.5366857147222
          14 :   -10.4822912989358
          15 :    7.77276416083123
          16 :   -6.10656497067271
          17 :    7.29648981389403
          18 :   -10.4780996813728
          19 :    13.1646845632023
          20 :   -13.2536730829364
          21 :    10.5362196487848
          22 :   -6.73464618161972
          23 :    4.17838952639636
          24 :   -4.15226219464734
          25 :    6.08694928269722
          26 :   -8.09215403927607
          27 :    8.36987030616626
          28 :   -6.47082670642044
          29 :    3.52999798283952
          30 :   -1.37888947381754
          31 :   -34.2346394495141
          32 :   -23.4197844554226

     Forces acting on atoms (Ry/au):

     negative rho (up, down):  1.073E-03 0.000E+00
     atom    1 type  1   force =    -0.00000185    0.00002472    0.00225431
     atom    2 type  1   force =     0.00001485   -0.00086151    0.00384109
     atom    3 type  1   force =    -0.00075621    0.00040017    0.00386241
     atom    4 type  1   force =     0.00076965    0.00039458    0.00388963
     atom    5 type  1   force =    -0.00141617    0.00098531   -0.00043203
     atom    6 type  1   force =     0.00142770    0.00096459   -0.00047059
     atom    7 type  1   force =    -0.00000456   -0.00019164    0.00320162
     atom    8 type  1   force =     0.00002267   -0.00181475   -0.00058244
     atom    9 type  1   force =     0.01005425    0.00579790    0.02553992
     atom   10 type  1   force =    -0.01012753    0.00583452    0.02575581
     atom   11 type  1   force =    -0.00000982   -0.01152366    0.02531744
     atom   12 type  1   force =     0.00002709   -0.00004259    0.00051826
     atom   13 type  2   force =    -0.00000009    0.00003237   -0.09269543

     Total force =     0.104659     Total SCF correction =     0.002199

     entering subroutine stress ...

     negative rho (up, down):  1.073E-03 0.000E+00
          total   stress  (Ry/bohr**3)                   (kbar)     P=  -23.07
  -0.00015984   0.00000000   0.00000002        -23.51      0.00      0.00
   0.00000000  -0.00015977  -0.00000009          0.00    -23.50     -0.01
   0.00000002  -0.00000009  -0.00015078          0.00     -0.01    -22.18

     BFGS Geometry Optimization

     number of scf cycles    =   1
     number of bfgs steps    =   0

     energy   new            =   -4870.5707360200 Ry

     new trust radius        =       0.0926954365 bohr
     new conv_thr            =       0.0000099958 Ry

ATOMIC_POSITIONS (crystal)
Cu1      0.166666667   0.166666667   0.412653782    0   0   0
Cu1      0.666666667   0.166666667   0.412653782    0   0   0
Cu1      0.166666667   0.666666667   0.412653782    0   0   0
Cu1      0.666666667   0.666666667   0.412653782    0   0   0
Cu1      0.833333333   0.333333333   0.500000000    0   0   0
Cu1      0.333333333   0.333333333   0.500000000    0   0   0
Cu1      0.833333333   0.833333333   0.500000000    0   0   0
Cu1      0.333333333   0.833333333   0.500000000    0   0   0
Cu1      0.000684518   0.000683293   0.587903926
Cu1      0.498622552   0.000687609   0.587908640
Cu1      0.000678041   0.498641914   0.587899068
Cu1      0.500005274   0.499994981   0.587357535
C1       0.166664750   0.166670482   0.641112847

     Writing output data file calc.save
     Check: negative starting charge=   -0.000145
     NEW-OLD atomic charge density approx. for the potential
     Check: negative starting charge=   -0.000141

[...]

     Total force =     0.076158     Total SCF correction =     0.017646
     SCF correction compared to forces is large: reduce conv_thr to get better values

[...]

     energy   old            =   -4870.5707360200 Ry
     energy   new            =   -4870.5804860846 Ry

     CASE: energy  _new < energy  _old

[...]

     Total force =     0.007729     Total SCF correction =     0.000448

[...]

     number of scf cycles    =  12
     number of bfgs steps    =  11

     energy   old            =   -4870.5980467334 Ry
     energy   new            =   -4870.5982337865 Ry

     CASE: energy  _new < energy  _old

     new trust radius        =       0.0283440285 bohr
     new conv_thr            =       0.0000001000 Ry

ATOMIC_POSITIONS (crystal)
Cu1      0.166666667   0.166666667   0.412653782    0   0   0
Cu1      0.666666667   0.166666667   0.412653782    0   0   0
Cu1      0.166666667   0.666666667   0.412653782    0   0   0
Cu1      0.666666667   0.666666667   0.412653782    0   0   0
Cu1      0.833333333   0.333333333   0.500000000    0   0   0
Cu1      0.333333333   0.333333333   0.500000000    0   0   0
Cu1      0.833333333   0.833333333   0.500000000    0   0   0
Cu1      0.333333333   0.833333333   0.500000000    0   0   0
Cu1     -0.005275782  -0.005281337   0.587202003
Cu1      0.510553941  -0.005276723   0.587204142
Cu1     -0.005279434   0.510564836   0.587195564
Cu1      0.500002279   0.499997821   0.587665241
C1       0.166637292   0.166699696   0.629887007

     Writing output data file calc.save
     Check: negative starting charge=   -0.000151
     NEW-OLD atomic charge density approx. for the potential
     Check: negative starting charge=   -0.000153

[...]

     Self-consistent Calculation

[...]

     total energy              =   -4870.59827440 Ry
     Harris-Foulkes estimate   =   -4870.59827439 Ry
     estimated scf accuracy    <       0.00000012 Ry

     iteration # 11     ecut=    36.75 Ry     beta=0.30
     Davidson diagonalization with overlap
     ethr =  5.35E-11,  avg # of iterations =  2.0

[...]

     negative rho (up, down):  1.133E-03 0.000E+00

     Adding external electric field

     Computed dipole along edir(3) :
        Dipole               -0.2149 Ry au,         -0.5461 Debye
        Dipole field         -0.0007 Ry au

        Potential amp.        0.0633 Ry
        Total length         44.6496 bohr

     End of self-consistent calculation

[...]

          k = 0.0643-0.0742 0.0000 ( 14299 PWs)   bands (ev):

[...]

          k =-0.0964-0.0557 0.0000 ( 14294 PWs)   bands (ev):

  -113.0573-113.0541-113.0525-112.5383-112.4956-112.4937-112.4919-112.2678
  -112.2664-112.2641-112.2585-112.1285 -70.6541 -70.6349 -70.6225 -70.3561
   -70.3500 -70.3384 -70.3289 -70.3186 -70.3113 -69.9461 -69.9376 -69.9294
   -69.9266 -69.9082 -69.8956 -69.8923 -69.8830 -69.8806 -69.8785 -69.8761
   -69.8741 -69.7099 -69.7096 -69.6908 -69.6875 -69.6855 -69.6800 -69.6625
   -69.6618 -69.6170 -69.6160 -69.6133 -69.6118 -69.5587 -69.5580 -69.4881
   -10.7352  -6.5683  -6.2924  -5.2200  -4.6886  -4.5488  -4.5042  -4.2277
    -4.1543  -4.0965  -4.0060  -3.9611  -3.8192  -3.7453  -3.6729  -3.6679
    -3.5573  -3.5429  -3.5396  -3.4949  -3.3149  -3.2782  -3.2644  -3.2264
    -3.2082  -3.1688  -3.1225  -3.0287  -2.9580  -2.8992  -2.8585  -2.7944
    -2.7228  -2.6900  -2.6434  -2.6153  -2.6053  -2.5812  -2.5517  -2.5183
    -2.4768  -2.4536  -2.4106  -2.3564  -2.3127  -2.3042  -2.2605  -2.2431
    -2.1859  -2.0932  -2.0583  -2.0131  -1.9884  -1.9227  -1.9061  -1.8790
    -1.8784  -1.8349  -1.7614  -1.6519  -1.6036  -1.5929  -1.5344  -1.5248
    -1.2441  -0.6040  -0.5524  -0.0997   0.3110   0.7100   0.8286   1.7964
     2.1195   2.9046   3.4425   3.9306   4.7949   5.7242

     the Fermi energy is     0.0882 ev

!    total energy              =   -4870.59827439 Ry
     Harris-Foulkes estimate   =   -4870.59827605 Ry
     estimated scf accuracy    <       0.00000004 Ry

     The total energy is the sum of the following terms:

     one-electron contribution =  -37759.18372422 Ry
     hartree contribution      =   18891.30988271 Ry
     xc contribution           =    -483.51317781 Ry
     ewald contribution        =   14480.81278837 Ry
     electric field correction =       0.00015238 Ry
     smearing contrib. (-TS)   =      -0.02419581 Ry

     convergence has been achieved in  11 iterations

 BEEF-vdW xc energy contributions
           1 :   -428.493136599370
           2 :    388.626790629859
           3 :   -321.004878636547
           4 :    244.136691278651
           5 :   -174.960328314419
           6 :    122.769983404448
           7 :   -87.7068968911054
           8 :    63.8112076068036
           9 :   -44.2420162203946
          10 :    25.4444919946502
          11 :   -8.17216153776343
          12 :   -4.54316424946938
          13 :    10.5507866691337
          14 :   -10.5782018614405
          15 :    7.89138714983432
          16 :   -6.16890629491570
          17 :    7.25966597294990
          18 :   -10.3651739774269
          19 :    13.0480834645742
          20 :   -13.2049779777128
          21 :    10.5781697558827
          22 :   -6.82865893418278
          23 :    4.25431627872644
          24 :   -4.15759158973106
          25 :    6.02101517812116
          26 :   -8.00315776478732
          27 :    8.31877799585823
          28 :   -6.48803956873235
          29 :    3.59473423827035
          30 :   -1.43534231836577
          31 :   -34.2456720552158
          32 :   -23.4444559941201

     Forces acting on atoms (Ry/au):

     negative rho (up, down):  1.133E-03 0.000E+00
     atom    1 type  1   force =    -0.00000095    0.00000379    0.00027918
     atom    2 type  1   force =    -0.00000026   -0.00132052    0.00279728
     atom    3 type  1   force =    -0.00114721    0.00066115    0.00280256
     atom    4 type  1   force =     0.00114617    0.00066099    0.00280136
     atom    5 type  1   force =    -0.00129420    0.00076222   -0.00261016
     atom    6 type  1   force =     0.00129344    0.00076774   -0.00261272
     atom    7 type  1   force =     0.00000455   -0.00001611   -0.00228324
     atom    8 type  1   force =    -0.00000523   -0.00150924   -0.00261649
     atom    9 type  1   force =     0.00039467    0.00022882    0.00080372
     atom   10 type  1   force =    -0.00040192    0.00022939    0.00078823
     atom   11 type  1   force =    -0.00000316   -0.00045975    0.00086224
     atom   12 type  1   force =     0.00000186   -0.00000009    0.00027209
     atom   13 type  2   force =     0.00001223   -0.00000839   -0.00128407

     Total force =     0.002090     Total SCF correction =     0.001210
     SCF correction compared to forces is large: reduce conv_thr to get better values

     entering subroutine stress ...

     negative rho (up, down):  1.133E-03 0.000E+00
          total   stress  (Ry/bohr**3)                   (kbar)     P=  -17.51
  -0.00013175   0.00000001   0.00000001        -19.38      0.00      0.00
   0.00000001  -0.00013171  -0.00000002          0.00    -19.38     -0.00
   0.00000001  -0.00000002  -0.00009359          0.00     -0.00    -13.77

     bfgs converged in  13 scf cycles and  12 bfgs steps
     (criteria: energy <  1.0E+00, force <  1.9E-03)

     End of BFGS Geometry Optimization

     Final energy   =   -4870.5982743873 Ry
Begin final coordinates

ATOMIC_POSITIONS (crystal)
Cu1      0.166666667   0.166666667   0.412653782    0   0   0
Cu1      0.666666667   0.166666667   0.412653782    0   0   0
Cu1      0.166666667   0.666666667   0.412653782    0   0   0
Cu1      0.666666667   0.666666667   0.412653782    0   0   0
Cu1      0.833333333   0.333333333   0.500000000    0   0   0
Cu1      0.333333333   0.333333333   0.500000000    0   0   0
Cu1      0.833333333   0.833333333   0.500000000    0   0   0
Cu1      0.333333333   0.833333333   0.500000000    0   0   0
Cu1     -0.005275782  -0.005281337   0.587202003
Cu1      0.510553941  -0.005276723   0.587204142
Cu1     -0.005279434   0.510564836   0.587195564
Cu1      0.500002279   0.499997821   0.587665241
C1       0.166637292   0.166699696   0.629887007
End final coordinates

     Writing output data file calc.save

     General routines

     Parallel routines

   This run was terminated on:  14:43:55   1May2018

   JOB DONE.
Job  /afs/slac/g/suncat/bin/suncat-tsmpirun -x LD_LIBRARY_PATH -wdir /scratch/qe569271_TFncr pw.x -npool 4 -in pw.inp

TID   HOST_NAME   COMMAND_LINE            STATUS            TERMINATION_TIME
00000 suncat0057 pw.x -npool 4 -i  Done                     05/01/2018 14:43:55
00001 suncat0057 pw.x -npool 4 -i  Done                     05/01/2018 14:43:55
00002 suncat0057 pw.x -npool 4 -i  Done                     05/01/2018 14:43:55
00003 suncat0057 pw.x -npool 4 -i  Done                     05/01/2018 14:43:55
00004 suncat0057 pw.x -npool 4 -i  Done                     05/01/2018 14:43:55
00005 suncat0057 pw.x -npool 4 -i  Done                     05/01/2018 14:43:55
00006 suncat0057 pw.x -npool 4 -i  Done                     05/01/2018 14:43:55
00007 suncat0057 pw.x -npool 4 -i  Done                     05/01/2018 14:43:55
00008 suncat0036 pw.x -npool 4 -i  Done                     05/01/2018 14:43:55
00009 suncat0036 pw.x -npool 4 -i  Done                     05/01/2018 14:43:55
00010 suncat0036 pw.x -npool 4 -i  Done                     05/01/2018 14:43:55
00011 suncat0036 pw.x -npool 4 -i  Done                     05/01/2018 14:43:55
00012 suncat0036 pw.x -npool 4 -i  Done                     05/01/2018 14:43:55
00013 suncat0036 pw.x -npool 4 -i  Done                     05/01/2018 14:43:55
00014 suncat0036 pw.x -npool 4 -i  Done                     05/01/2018 14:43:55
00015 suncat0036 pw.x -npool 4 -i  Done                     05/01/2018 14:43:55
00016 suncat0156 pw.x -npool 4 -i  Done                     05/01/2018 14:43:55
00017 suncat0156 pw.x -npool 4 -i  Done                     05/01/2018 14:43:55
00018 suncat0156 pw.x -npool 4 -i  Done                     05/01/2018 14:43:55
00019 suncat0156 pw.x -npool 4 -i  Done                     05/01/2018 14:43:55
00020 suncat0156 pw.x -npool 4 -i  Done                     05/01/2018 14:43:55
00021 suncat0156 pw.x -npool 4 -i  Done                     05/01/2018 14:43:55
00022 suncat0156 pw.x -npool 4 -i  Done                     05/01/2018 14:43:55
00023 suncat0156 pw.x -npool 4 -i  Done                     05/01/2018 14:43:55
00024 suncat0280 pw.x -npool 4 -i  Done                     05/01/2018 14:43:55
00025 suncat0280 pw.x -npool 4 -i  Done                     05/01/2018 14:43:55
00026 suncat0280 pw.x -npool 4 -i  Done                     05/01/2018 14:43:55
00027 suncat0280 pw.x -npool 4 -i  Done                     05/01/2018 14:43:55
00028 suncat0280 pw.x -npool 4 -i  Done                     05/01/2018 14:43:55
00029 suncat0280 pw.x -npool 4 -i  Done                     05/01/2018 14:43:55
00030 suncat0280 pw.x -npool 4 -i  Done                     05/01/2018 14:43:55
00031 suncat0280 pw.x -npool 4 -i  Done                     05/01/2018 14:43:55