     Program PWSCF v.5.1rc2 (svn rev. 11289) starts on 23Apr2018 at  6:53:38

     Current dimensions of program PWSCF are:
     Max number of different atomic species (ntypx) = 10
     Max number of k-points (npk) =  40000
     Max angular momentum in pseudopotentials (lmaxx) =  3
     Presently stress not available with electric field

     IMPORTANT: XC functional enforced from input :
     Exchange-correlation      = BEEF-VDW ( 1  4 27 13 2)
     Any further DFT definition will be discarded
     Please, verify this is what you really want

     Subspace diagonalization in iterative solution of the eigenvalue problem:
     a serial algorithm will be used

     bravais-lattice index     =            0
     lattice parameter (alat)  =       1.8897  a.u.
     unit-cell volume          =    5185.0501 (a.u.)^3
     number of atoms/cell      =           14
     number of atomic types    =            3
     number of electrons       =       161.00
     number of Kohn-Sham states=           90
     kinetic-energy cutoff     =      36.7493  Ry
     charge density cutoff     =     367.4932  Ry
     convergence threshold     =      1.0E-05
     mixing beta               =       0.3000
     number of iterations used =           10  plain     mixing
     Exchange-correlation      = BEEF-VDW ( 1  4 27 13 2)
     nstep                     =           50

     celldm(1)=   1.889726  celldm(2)=   0.000000  celldm(3)=   0.000000
     celldm(4)=   0.000000  celldm(5)=   0.000000  celldm(6)=   0.000000

     crystal axes: (cart. coord. in units of alat)
               a(1) = (   5.972022   0.000000   0.000000 )
               a(2) = (   2.986011   5.171923   0.000000 )
               a(3) = (   0.000000   0.000000  24.876136 )

     reciprocal axes: (cart. coord. in units 2 pi/alat)
               b(1) = (  0.167447 -0.096676  0.000000 )
               b(2) = (  0.000000  0.193352  0.000000 )
               b(3) = (  0.000000  0.000000  0.040199 )

     PseudoPot. # 1 for Ta read from file:
     /u/if/mamunm/psp/gbrv1.5pbe/Ta.UPF
     MD5 check sum: f8bbe9446314a3b8ea5d9f3e3836c939
     Pseudo is Ultrasoft + core correction, Zval = 13.0
     Generated by new atomic code, or converted to UPF format
     Using radial grid of  921 points,  7 beta functions with:
                l(1) =   0
                l(2) =   0
                l(3) =   1
                l(4) =   1
                l(5) =   2
                l(6) =   2
                l(7) =   3
     Q(r) pseudized with  6 coefficients,  rinner =    1.300   1.300   1.300
                                                       1.300   1.300   1.300
                                                       1.300

     PseudoPot. # 2 for C  read from file:
     /u/if/mamunm/psp/gbrv1.5pbe/C.UPF
     MD5 check sum: d1aef80898a10debaa0f26306b886e00
     Pseudo is Ultrasoft + core correction, Zval =  4.0
     Generated by new atomic code, or converted to UPF format
     Using radial grid of  721 points,  4 beta functions with:
                l(1) =   0
                l(2) =   0
                l(3) =   1
                l(4) =   1
     Q(r) pseudized with  8 coefficients,  rinner =    1.100   1.100   1.100

     PseudoPot. # 3 for H  read from file:
     /u/if/mamunm/psp/gbrv1.5pbe/H.UPF
     MD5 check sum: 761ae9a214b05c3daf00ab9f6b793d6f
     Pseudo is Ultrasoft, Zval =  1.0
     Generated by new atomic code, or converted to UPF format
     Using radial grid of  615 points,  2 beta functions with:
                l(1) =   0
                l(2) =   0
     Q(r) pseudized with  8 coefficients,  rinner =    0.700

     vdW kernel table read from file vdW_kernel_table
     MD5 check sum: 095c7af220d748ca6e76c0b4c6cfb241

     atomic species   valence    mass     pseudopotential
        Ta1           13.00   180.94788     Ta( 1.00)
        C1             4.00    12.01100     C ( 1.00)
        H1             1.00     1.00800     H ( 1.00)

     No symmetry found

   Cartesian axes

     site n.     atom                  positions (alat units)
         1           Ta1 tau(   1) = (   1.4930055   0.8619871  10.0000000  )
         2           Ta1 tau(   2) = (   4.4790165   0.8619871  10.0000000  )
         3           Ta1 tau(   3) = (   2.9860110   3.4479485  10.0000000  )
         4           Ta1 tau(   4) = (   5.9720221   3.4479485  10.0000000  )
         5           Ta1 tau(   5) = (   5.9720221   1.7239743  12.4380678  )
         6           Ta1 tau(   6) = (   2.9860110   1.7239743  12.4380678  )
         7           Ta1 tau(   7) = (   7.4650276   4.3099357  12.4380678  )
         8           Ta1 tau(   8) = (   4.4790165   4.3099357  12.4380678  )
         9           Ta1 tau(   9) = (   0.0000000   0.0000000  14.8761356  )
        10           Ta1 tau(  10) = (   2.9860110   0.0000000  14.8761356  )
        11           Ta1 tau(  11) = (   1.4930055   2.5859614  14.8761356  )
        12           Ta1 tau(  12) = (   4.4790165   2.5859614  14.8761356  )
        13           C1  tau(  13) = (   2.9860110   1.7239743  16.4751356  )
        14           H1  tau(  14) = (   2.9860110   1.7239743  17.5751356  )

     number of k points=    20  Fermi-Dirac smearing, width (Ry)=  0.0110
                       cart. coord. in units 2pi/alat
        k(    1) = (   0.0000000   0.0000000   0.0000000), wk =   0.0555556
        k(    2) = (   0.0000000   0.0322253   0.0000000), wk =   0.1111111
        k(    3) = (   0.0000000   0.0644506   0.0000000), wk =   0.1111111
        k(    4) = (   0.0000000  -0.0966758   0.0000000), wk =   0.0555556
        k(    5) = (   0.0279079  -0.0161126   0.0000000), wk =   0.1111111
        k(    6) = (   0.0279079   0.0161126   0.0000000), wk =   0.1111111
        k(    7) = (   0.0279079   0.0483379   0.0000000), wk =   0.1111111
        k(    8) = (   0.0279079  -0.1127885   0.0000000), wk =   0.1111111
        k(    9) = (   0.0279079  -0.0805632   0.0000000), wk =   0.1111111
        k(   10) = (   0.0279079  -0.0483379   0.0000000), wk =   0.1111111
        k(   11) = (   0.0558158  -0.0322253   0.0000000), wk =   0.1111111
        k(   12) = (   0.0558158   0.0000000   0.0000000), wk =   0.1111111
        k(   13) = (   0.0558158   0.0322253   0.0000000), wk =   0.1111111
        k(   14) = (   0.0558158  -0.1289011   0.0000000), wk =   0.1111111
        k(   15) = (   0.0558158  -0.0966758   0.0000000), wk =   0.1111111
        k(   16) = (   0.0558158  -0.0644506   0.0000000), wk =   0.1111111
        k(   17) = (  -0.0837237   0.0483379   0.0000000), wk =   0.0555556
        k(   18) = (  -0.0837237   0.0805632   0.0000000), wk =   0.1111111
        k(   19) = (  -0.0837237   0.1127885   0.0000000), wk =   0.1111111
        k(   20) = (  -0.0837237  -0.0483379   0.0000000), wk =   0.0555556

     Largest allocated arrays     est. size (Mb)     dimensions
     Largest temporary arrays     est. size (Mb)     dimensions

     Initial potential from superposition of free atoms
     Check: negative starting charge=   -1.121491

     starting charge  160.98661, renormalised to  161.00000

     negative rho (up, down):  1.122E+00 0.000E+00

     *
     * You are using vdW-DF for exchange-correlation in this calculation.
     * Please cite the following three references that made this development
     * possible:
     *
     *   M. Dion, H. Rydberg, E. Schroder, D. C. Langreth, and
     *   B. I. Lundqvist, Phys. Rev. Lett. 92, 246401 (2004).
     *
     *   T. Thonhauser, V. R. Cooper, S. Li, A. Puzder, P. Hyldgaard, and
     *   D. C. Langreth, Phys. Rev. B 76, 125112 (2007).
     *
     *   G. Roman-Perez and J. M. Soler, Phys. Rev. Lett. 103, 096102 (2009).
     *
     *
     * If you are using vdW-DF2, please also cite:
     *
     *   K. Lee, E. D. Murray, L. Kong, B. I. Lundqvist, and
     *   D. C. Langreth, Phys. Rev. B 82, 081101(R) (2010).
     *
     *
     * If you are calculating the stress with vdW-DF, please also cite:
     *
     *   R. Sabatini, E. Kucukbenli, B. Kolb, T. Thonhauser, and
     *   S. de Gironcoli, J. Phys.: Condens. Matter 24, 424209 (2012).
     *

     Carrying out vdW-DF run using the following parameters:

     Nqs =      20    Nr_points =    1024   r_max =   100.000
     q_mesh =
               0.00001000     0.04494208     0.09755937     0.15916263
               0.23128650     0.31572767     0.41458969     0.53033537
               0.66584808     0.82450364     1.01025438     1.22772762
               1.48234092     1.78043706     2.12944203     2.53805004
               3.01644009     3.57652955     4.23227104     5.00000000

     Gradients computed in reciprocal space

     Adding external electric field

     Computed dipole along edir(3) :
        Dipole               -0.0029 Ry au,         -0.0075 Debye
        Dipole field         -0.0000 Ry au

        Potential amp.        0.0007 Ry
        Total length         45.8339 bohr

     Starting wfc are  161 randomized atomic wfcs

     Self-consistent Calculation

     iteration #  1     ecut=    36.75 Ry     beta=0.30
     Davidson diagonalization with overlap
     ethr =  1.00E-02,  avg # of iterations =  2.0

[...]

     total energy              =   -1728.89545940 Ry
     Harris-Foulkes estimate   =   -1731.54156562 Ry
     estimated scf accuracy    <       5.78607342 Ry

[...]

     End of self-consistent calculation

          k = 0.0000 0.0000 0.0000 ( 19447 PWs)   bands (ev):

   -66.2235 -66.1700 -66.1395 -66.1129 -66.1128 -66.1050 -66.1029 -66.1029
   -66.0756 -66.0290 -66.0289 -66.0280 -32.9182 -32.9182 -32.9034 -32.8715
   -32.8593 -32.8593 -32.8505 -32.8103 -32.8102 -32.7969 -32.6215 -32.5241
   -32.4876 -32.4876 -32.4414 -32.4238 -32.4237 -32.3238 -32.3218 -32.3218
   -32.2553 -32.2553 -32.2541 -32.2277 -32.2180 -32.2180 -32.1712 -32.1652
   -32.1596 -32.1596 -32.1121 -32.1121 -32.0762 -32.0762 -32.0165 -32.0165
    -8.5790  -5.3141  -3.9493  -2.9908  -2.3624  -2.0258  -2.0258  -1.9480
    -1.8105  -1.8105  -1.4379  -1.1833  -1.1832  -0.8308  -0.8308  -0.8109
    -0.4575   0.1509   0.1509   0.7164   0.9888   0.9888   1.4863   1.7435
     1.7435   1.8932   2.0648   2.1555   2.3768   2.4051   2.4051   2.5632
     2.5632   2.7952   2.7952   2.8216   2.8753   2.9108   2.9108   3.0000
     3.0001   3.4748

[...]

          k =-0.0837 0.0483 0.0000 ( 19532 PWs)   bands (ev):

[...]

     the Fermi energy is     2.1515 ev

!    total energy              =   -1731.07591137 Ry
     Harris-Foulkes estimate   =   -1731.07590623 Ry
     estimated scf accuracy    <       0.00000648 Ry

     The total energy is the sum of the following terms:

     one-electron contribution =  -11651.04880692 Ry
     hartree contribution      =    5810.31826918 Ry
     xc contribution           =    -527.09698809 Ry
     ewald contribution        =    4636.85690183 Ry
     electric field correction =       0.00001254 Ry
     smearing contrib. (-TS)   =      -0.10529991 Ry

     convergence has been achieved in  15 iterations

 BEEF-vdW xc energy contributions
           1 :   -463.950098418637
           2 :    428.234135541529
           3 :   -365.901175939119
           4 :    291.372842370388
           5 :   -219.096371187442
           6 :    159.118476009499
           7 :   -115.082519872506
           8 :    85.0355874362534
           9 :   -64.1485281270732
          10 :    47.7511030173758
          11 :   -33.2575999532684
          12 :    20.4004368201076
          13 :   -10.1634259985859
          14 :    3.36248002756901
          15 :   0.238809792204620
          16 :   -1.89733570976563
          17 :    3.16050662018478
          18 :   -5.01196235715389
          19 :    7.43419909923927
          20 :   -9.60879604718588
          21 :    10.5761103609873
          22 :   -9.92138755384639
          23 :    8.07386928594781
          24 :   -6.06472068896454
          25 :    4.92473425362169
          26 :   -5.10742006962761
          27 :    6.28019860467577
          28 :   -7.58227199806726
          29 :    8.16291730603899
          30 :   -7.66261048976861
          31 :   -41.5662650925787
          32 :   -30.8578402402358

     Forces acting on atoms (Ry/au):

     negative rho (up, down):  1.177E+00 0.000E+00
     atom    1 type  1   force =     0.00081041    0.00046658    0.00315323
     atom    2 type  1   force =    -0.00080923    0.00047120    0.00314832
     atom    3 type  1   force =    -0.00000038   -0.00093608    0.00315088
     atom    4 type  1   force =     0.00000247   -0.00000403    0.00153242
     atom    5 type  1   force =    -0.00000072   -0.00181455   -0.00267358
     atom    6 type  1   force =     0.00000229   -0.00000750    0.00228561
     atom    7 type  1   force =     0.00157015    0.00090956   -0.00267037
     atom    8 type  1   force =    -0.00157328    0.00090937   -0.00267237
     atom    9 type  1   force =    -0.00000065    0.00000056   -0.02905888
     atom   10 type  1   force =    -0.00000039    0.01765676    0.05367658
     atom   11 type  1   force =     0.01528882   -0.00882429    0.05367565
     atom   12 type  1   force =    -0.01528827   -0.00882652    0.05367187
     atom   13 type  2   force =    -0.00000081   -0.00000021   -0.12608702
     atom   14 type  3   force =    -0.00000042   -0.00000084   -0.01113234

     Total force =     0.162617     Total SCF correction =     0.008580

     entering subroutine stress ...

     negative rho (up, down):  1.177E+00 0.000E+00
          total   stress  (Ry/bohr**3)                   (kbar)     P=  -36.06
  -0.00029380  -0.00000000  -0.00000001        -43.22     -0.00     -0.00
  -0.00000000  -0.00029380   0.00000000         -0.00    -43.22      0.00
  -0.00000001   0.00000000  -0.00014782         -0.00      0.00    -21.74

     BFGS Geometry Optimization

     number of scf cycles    =   1
     number of bfgs steps    =   0

     energy   new            =   -1731.0759113678 Ry

     new trust radius        =       0.1260870150 bohr
     new conv_thr            =       0.0000099958 Ry

ATOMIC_POSITIONS (crystal)
Ta1      0.166666667   0.166666667   0.401991699    0   0   0
Ta1      0.666666667   0.166666667   0.401991699    0   0   0
Ta1      0.166666667   0.666666667   0.401991699    0   0   0
Ta1      0.666666667   0.666666667   0.401991699    0   0   0
Ta1      0.833333333   0.333333333   0.500000000    0   0   0
Ta1      0.333333333   0.333333333   0.500000000    0   0   0
Ta1      0.833333333   0.833333333   0.500000000    0   0   0
Ta1      0.333333333   0.833333333   0.500000000    0   0   0
Ta1     -0.000000086   0.000000058   0.597390147
Ta1      0.499096669   0.001806592   0.599150136
Ta1      0.001806172   0.499097122   0.599150116
Ta1      0.499096868   0.499096895   0.599150035
C1       0.333333272   0.333333311   0.659604590
H1       0.333333339   0.333333248   0.706269048

     Writing output data file calc.save
     Check: negative starting charge=   -1.121491
     NEW-OLD atomic charge density approx. for the potential
     Check: negative starting charge=   -1.121182

[...]

     energy   old            =   -1731.0759113678 Ry
     energy   new            =   -1731.0956926209 Ry

     CASE: energy  _new < energy  _old

[...]

     iteration #  1     ecut=    36.75 Ry     beta=0.30
     Davidson diagonalization with overlap
     c_bands:  1 eigenvalues not converged
     ethr =  1.00E-06,  avg # of iterations = 12.2

[...]

     iteration #  2     ecut=    36.75 Ry     beta=0.30
     Davidson diagonalization with overlap
     c_bands:  1 eigenvalues not converged
     ethr =  2.20E-06,  avg # of iterations =  8.0

[...]

     Threshold (ethr) on eigenvalues was too large:
     Diagonalizing with lowered threshold

     Davidson diagonalization with overlap
     ethr =  6.15E-08,  avg # of iterations =  1.6

[...]

     Total force =     0.004046     Total SCF correction =     0.000337

[...]

     number of scf cycles    =  15
     number of bfgs steps    =  14

     energy   old            =   -1731.1411123762 Ry
     energy   new            =   -1731.1411708923 Ry

     CASE: energy  _new < energy  _old

     new trust radius        =       0.0040127234 bohr
     new conv_thr            =       0.0000001000 Ry

ATOMIC_POSITIONS (crystal)
Ta1      0.166666667   0.166666667   0.401991699    0   0   0
Ta1      0.666666667   0.166666667   0.401991699    0   0   0
Ta1      0.166666667   0.666666667   0.401991699    0   0   0
Ta1      0.666666667   0.666666667   0.401991699    0   0   0
Ta1      0.833333333   0.333333333   0.500000000    0   0   0
Ta1      0.333333333   0.333333333   0.500000000    0   0   0
Ta1      0.833333333   0.833333333   0.500000000    0   0   0
Ta1      0.333333333   0.833333333   0.500000000    0   0   0
Ta1     -0.000000399   0.000000711   0.586337766
Ta1      0.500957835  -0.001915622   0.600659664
Ta1     -0.001916725   0.500959014   0.600659663
Ta1      0.500957701   0.500959055   0.600659679
C1       0.333333040   0.333333926   0.650458644
H1       0.333333257   0.333333357   0.694713632

     Writing output data file calc.save
     Check: negative starting charge=   -1.122236
     NEW-OLD atomic charge density approx. for the potential
     Check: negative starting charge=   -1.122372

[...]

     Self-consistent Calculation

[...]

     Threshold (ethr) on eigenvalues was too large:
     Diagonalizing with lowered threshold

     Davidson diagonalization with overlap
     ethr =  5.46E-09,  avg # of iterations =  3.7

[...]

     total energy              =   -1731.14117715 Ry
     Harris-Foulkes estimate   =   -1731.14117717 Ry
     estimated scf accuracy    <       0.00000030 Ry

     iteration #  7     ecut=    36.75 Ry     beta=0.30
     Davidson diagonalization with overlap
     ethr =  1.85E-10,  avg # of iterations =  2.2

[...]

     negative rho (up, down):  1.178E+00 0.000E+00

     Adding external electric field

     Computed dipole along edir(3) :
        Dipole                0.1458 Ry au,          0.3705 Debye
        Dipole field          0.0004 Ry au

        Potential amp.       -0.0324 Ry
        Total length         45.8339 bohr

     End of self-consistent calculation

[...]

          k = 0.0558-0.0645 0.0000 ( 19521 PWs)   bands (ev):

[...]

          k =-0.0837-0.0483 0.0000 ( 19532 PWs)   bands (ev):

   -66.0433 -66.0375 -66.0132 -66.0060 -65.9904 -65.9772 -65.9667 -65.9555
   -65.9019 -65.8846 -65.8716 -65.7243 -32.6906 -32.6439 -32.6404 -32.6264
   -32.6231 -32.6157 -32.5522 -32.5213 -32.5086 -32.5049 -32.4771 -32.4393
   -32.3669 -32.3533 -32.3329 -32.3091 -32.2980 -32.2956 -32.2889 -32.2831
   -32.2583 -32.2443 -32.1981 -32.1797 -32.1620 -32.1459 -32.0988 -32.0929
   -32.0868 -32.0745 -32.0230 -31.9977 -31.9637 -31.9100 -31.8366 -31.8286
    -8.8595  -3.6687  -3.4594  -3.0356  -2.1309  -1.6689  -1.2654  -1.1395
    -0.9657  -0.9075  -0.7896  -0.5317  -0.4782  -0.1097   0.1634   0.1961
     0.3679   0.4155   0.4992   0.6433   0.7965   1.0000   1.0173   1.0176
     1.1931   1.2423   1.4500   1.5918   1.6621   1.6746   1.7340   1.7965
     1.8682   1.9208   2.1219   2.4798   2.5187   2.5198   2.6792   3.0703
     3.1947   3.3531

     the Fermi energy is     2.2401 ev

!    total energy              =   -1731.14117714 Ry
     Harris-Foulkes estimate   =   -1731.14117726 Ry
     estimated scf accuracy    <       0.00000006 Ry

     The total energy is the sum of the following terms:

     one-electron contribution =  -11748.32741984 Ry
     hartree contribution      =    5859.64516782 Ry
     xc contribution           =    -527.44730500 Ry
     ewald contribution        =    4685.08587967 Ry
     electric field correction =       0.00005149 Ry
     smearing contrib. (-TS)   =      -0.09755129 Ry

     convergence has been achieved in   7 iterations

 BEEF-vdW xc energy contributions
           1 :   -464.293796267911
           2 :    428.638708724323
           3 :   -366.372724142364
           4 :    291.852332010945
           5 :   -219.484903906651
           6 :    159.321768098522
           7 :   -115.059742458454
           8 :    84.8263598582327
           9 :   -63.8581654018074
          10 :    47.4961463992391
          11 :   -33.1012749531895
          12 :    20.3188758871074
          13 :   -10.0662045307000
          14 :    3.15682614178604
          15 :   0.581714299446560
          16 :   -2.31915618086896
          17 :    3.54840765309422
          18 :   -5.26237427486279
          19 :    7.50782361852822
          20 :   -9.54520166269009
          21 :    10.4644509749222
          22 :   -9.85049916205861
          23 :    8.09108519992316
          24 :   -6.16169967107135
          25 :    5.05119305508987
          26 :   -5.20209442356526
          27 :    6.30472509078214
          28 :   -7.54339555088575
          29 :    8.11126489864637
          30 :   -7.66568605663156
          31 :   -41.5883670904399
          32 :   -30.8907622931602

     Forces acting on atoms (Ry/au):

     negative rho (up, down):  1.178E+00 0.000E+00
     atom    1 type  1   force =     0.00229280    0.00132374    0.00339778
     atom    2 type  1   force =    -0.00229280    0.00132373    0.00339778
     atom    3 type  1   force =    -0.00000000   -0.00264752    0.00339772
     atom    4 type  1   force =     0.00000001   -0.00000005    0.00116201
     atom    5 type  1   force =    -0.00000002    0.02540073   -0.01288019
     atom    6 type  1   force =     0.00000003   -0.00000018    0.02754646
     atom    7 type  1   force =    -0.02199769   -0.01270035   -0.01288007
     atom    8 type  1   force =     0.02199767   -0.01270036   -0.01287998
     atom    9 type  1   force =     0.00000005    0.00000000   -0.00018829
     atom   10 type  1   force =    -0.00000003    0.00000533   -0.00003165
     atom   11 type  1   force =     0.00000459   -0.00000257   -0.00003161
     atom   12 type  1   force =    -0.00000460   -0.00000260   -0.00003169
     atom   13 type  2   force =    -0.00000001   -0.00000002   -0.00079360
     atom   14 type  3   force =     0.00000000    0.00000010    0.00081533

     Total force =     0.001155     Total SCF correction =     0.000939
     SCF correction compared to forces is large: reduce conv_thr to get better values

     entering subroutine stress ...

     negative rho (up, down):  1.178E+00 0.000E+00
          total   stress  (Ry/bohr**3)                   (kbar)     P=  -23.39
  -0.00020965   0.00000000  -0.00000000        -30.84      0.00     -0.00
   0.00000000  -0.00020965   0.00000000          0.00    -30.84      0.00
  -0.00000000   0.00000000  -0.00005776         -0.00      0.00     -8.50

     bfgs converged in  16 scf cycles and  15 bfgs steps
     (criteria: energy <  1.0E+00, force <  1.9E-03)

     End of BFGS Geometry Optimization

     Final energy   =   -1731.1411771426 Ry
Begin final coordinates

ATOMIC_POSITIONS (crystal)
Ta1      0.166666667   0.166666667   0.401991699    0   0   0
Ta1      0.666666667   0.166666667   0.401991699    0   0   0
Ta1      0.166666667   0.666666667   0.401991699    0   0   0
Ta1      0.666666667   0.666666667   0.401991699    0   0   0
Ta1      0.833333333   0.333333333   0.500000000    0   0   0
Ta1      0.333333333   0.333333333   0.500000000    0   0   0
Ta1      0.833333333   0.833333333   0.500000000    0   0   0
Ta1      0.333333333   0.833333333   0.500000000    0   0   0
Ta1     -0.000000399   0.000000711   0.586337766
Ta1      0.500957835  -0.001915622   0.600659664
Ta1     -0.001916725   0.500959014   0.600659663
Ta1      0.500957701   0.500959055   0.600659679
C1       0.333333040   0.333333926   0.650458644
H1       0.333333257   0.333333357   0.694713632
End final coordinates

     Writing output data file calc.save

     General routines

     Parallel routines

   This run was terminated on:   9:17:34  23Apr2018

   JOB DONE.
Job  /afs/slac/g/suncat/bin/suncat-tsmpirun -x LD_LIBRARY_PATH -wdir /scratch/qe440689_VZhru pw.x -npool 4 -in pw.inp

TID   HOST_NAME   COMMAND_LINE            STATUS            TERMINATION_TIME
00000 suncat0186 pw.x -npool 4 -i  Done                     04/23/2018 09:17:34
00001 suncat0186 pw.x -npool 4 -i  Done                     04/23/2018 09:17:34
00002 suncat0186 pw.x -npool 4 -i  Done                     04/23/2018 09:17:34
00003 suncat0186 pw.x -npool 4 -i  Done                     04/23/2018 09:17:34
00004 suncat0186 pw.x -npool 4 -i  Done                     04/23/2018 09:17:34
00005 suncat0186 pw.x -npool 4 -i  Done                     04/23/2018 09:17:34
00006 suncat0186 pw.x -npool 4 -i  Done                     04/23/2018 09:17:34
00007 suncat0186 pw.x -npool 4 -i  Done                     04/23/2018 09:17:34
00008 suncat0182 pw.x -npool 4 -i  Done                     04/23/2018 09:17:34
00009 suncat0182 pw.x -npool 4 -i  Done                     04/23/2018 09:17:34
00010 suncat0182 pw.x -npool 4 -i  Done                     04/23/2018 09:17:34
00011 suncat0182 pw.x -npool 4 -i  Done                     04/23/2018 09:17:34
00012 suncat0182 pw.x -npool 4 -i  Done                     04/23/2018 09:17:34
00013 suncat0182 pw.x -npool 4 -i  Done                     04/23/2018 09:17:34
00014 suncat0182 pw.x -npool 4 -i  Done                     04/23/2018 09:17:34
00015 suncat0182 pw.x -npool 4 -i  Done                     04/23/2018 09:17:34
00016 suncat0201 pw.x -npool 4 -i  Done                     04/23/2018 09:17:34
00017 suncat0201 pw.x -npool 4 -i  Done                     04/23/2018 09:17:34
00018 suncat0201 pw.x -npool 4 -i  Done                     04/23/2018 09:17:34
00019 suncat0201 pw.x -npool 4 -i  Done                     04/23/2018 09:17:34
00020 suncat0201 pw.x -npool 4 -i  Done                     04/23/2018 09:17:34
00021 suncat0201 pw.x -npool 4 -i  Done                     04/23/2018 09:17:34
00022 suncat0201 pw.x -npool 4 -i  Done                     04/23/2018 09:17:34
00023 suncat0201 pw.x -npool 4 -i  Done                     04/23/2018 09:17:34
00024 suncat0099 pw.x -npool 4 -i  Done                     04/23/2018 09:17:34
00025 suncat0099 pw.x -npool 4 -i  Done                     04/23/2018 09:17:34
00026 suncat0099 pw.x -npool 4 -i  Done                     04/23/2018 09:17:34
00027 suncat0099 pw.x -npool 4 -i  Done                     04/23/2018 09:17:34
00028 suncat0099 pw.x -npool 4 -i  Done                     04/23/2018 09:17:34
00029 suncat0099 pw.x -npool 4 -i  Done                     04/23/2018 09:17:34
00030 suncat0099 pw.x -npool 4 -i  Done                     04/23/2018 09:17:34
00031 suncat0099 pw.x -npool 4 -i  Done                     04/23/2018 09:17:34