     Program PWSCF v.5.1rc2 (svn rev. 11289) starts on  2May2018 at 18: 3:35

     Current dimensions of program PWSCF are:
     Max number of different atomic species (ntypx) = 10
     Max number of k-points (npk) =  40000
     Max angular momentum in pseudopotentials (lmaxx) =  3
     Presently stress not available with electric field

     IMPORTANT: XC functional enforced from input :
     Exchange-correlation      = BEEF-VDW ( 1  4 27 13 2)
     Any further DFT definition will be discarded
     Please, verify this is what you really want

     Subspace diagonalization in iterative solution of the eigenvalue problem:
     a serial algorithm will be used

     bravais-lattice index     =            0
     lattice parameter (alat)  =       1.8897  a.u.
     unit-cell volume          =    6082.7792 (a.u.)^3
     number of atoms/cell      =           13
     number of atomic types    =            2
     number of electrons       =       148.00
     number of Kohn-Sham states=           84
     kinetic-energy cutoff     =      36.7493  Ry
     charge density cutoff     =     367.4932  Ry
     convergence threshold     =      1.0E-05
     mixing beta               =       0.3000
     number of iterations used =           10  plain     mixing
     Exchange-correlation      = BEEF-VDW ( 1  4 27 13 2)
     nstep                     =           50

     celldm(1)=   1.889726  celldm(2)=   0.000000  celldm(3)=   0.000000
     celldm(4)=   0.000000  celldm(5)=   0.000000  celldm(6)=   0.000000

     crystal axes: (cart. coord. in units of alat)
               a(1) = (   6.421223   0.000000   0.000000 )
               a(2) = (   3.210611   5.560942   0.000000 )
               a(3) = (   0.000000   0.000000  25.242906 )

     reciprocal axes: (cart. coord. in units 2 pi/alat)
               b(1) = (  0.155734 -0.089913  0.000000 )
               b(2) = (  0.000000  0.179826  0.000000 )
               b(3) = (  0.000000  0.000000  0.039615 )

     PseudoPot. # 1 for Zr read from file:
     /u/if/mamunm/psp/gbrv1.5pbe/Zr.UPF
     MD5 check sum: 5db81b1e868ab7776c4564c113de050b
     Pseudo is Ultrasoft + core correction, Zval = 12.0
     Generated by new atomic code, or converted to UPF format
     Using radial grid of  887 points,  6 beta functions with:
                l(1) =   0
                l(2) =   0
                l(3) =   1
                l(4) =   1
                l(5) =   2
                l(6) =   2
     Q(r) pseudized with  6 coefficients,  rinner =    1.200   1.200   1.200
                                                       1.200   1.200

     PseudoPot. # 2 for C  read from file:
     /u/if/mamunm/psp/gbrv1.5pbe/C.UPF
     MD5 check sum: d1aef80898a10debaa0f26306b886e00
     Pseudo is Ultrasoft + core correction, Zval =  4.0
     Generated by new atomic code, or converted to UPF format
     Using radial grid of  721 points,  4 beta functions with:
                l(1) =   0
                l(2) =   0
                l(3) =   1
                l(4) =   1
     Q(r) pseudized with  8 coefficients,  rinner =    1.100   1.100   1.100

     vdW kernel table read from file vdW_kernel_table
     MD5 check sum: 095c7af220d748ca6e76c0b4c6cfb241

     atomic species   valence    mass     pseudopotential
        Zr1           12.00    91.22400     Zr( 1.00)
        C1             4.00    12.01100     C ( 1.00)

     No symmetry found

   Cartesian axes

     site n.     atom                  positions (alat units)
         1           Zr1 tau(   1) = (   1.6053057   0.9268237  10.0000000  )
         2           Zr1 tau(   2) = (   4.8159170   0.9268237  10.0000000  )
         3           Zr1 tau(   3) = (   3.2106113   3.7072946  10.0000000  )
         4           Zr1 tau(   4) = (   6.4212227   3.7072946  10.0000000  )
         5           Zr1 tau(   5) = (   6.4212227   1.8536473  12.6214532  )
         6           Zr1 tau(   6) = (   3.2106113   1.8536473  12.6214532  )
         7           Zr1 tau(   7) = (   8.0265283   4.6341183  12.6214532  )
         8           Zr1 tau(   8) = (   4.8159170   4.6341183  12.6214532  )
         9           Zr1 tau(   9) = (   0.0000000   0.0000000  15.2429064  )
        10           Zr1 tau(  10) = (   3.2106113   0.0000000  15.2429064  )
        11           Zr1 tau(  11) = (   1.6053057   2.7804710  15.2429064  )
        12           Zr1 tau(  12) = (   4.8159170   2.7804710  15.2429064  )
        13           C1  tau(  13) = (   1.6053057   0.0000000  17.1254064  )

     number of k points=    20  Fermi-Dirac smearing, width (Ry)=  0.0110
                       cart. coord. in units 2pi/alat
        k(    1) = (   0.0000000   0.0000000   0.0000000), wk =   0.0555556
        k(    2) = (   0.0000000   0.0299709   0.0000000), wk =   0.1111111
        k(    3) = (   0.0000000   0.0599419   0.0000000), wk =   0.1111111
        k(    4) = (   0.0000000  -0.0899128   0.0000000), wk =   0.0555556
        k(    5) = (   0.0259556  -0.0149855   0.0000000), wk =   0.1111111
        k(    6) = (   0.0259556   0.0149855   0.0000000), wk =   0.1111111
        k(    7) = (   0.0259556   0.0449564   0.0000000), wk =   0.1111111
        k(    8) = (   0.0259556  -0.1048983   0.0000000), wk =   0.1111111
        k(    9) = (   0.0259556  -0.0749274   0.0000000), wk =   0.1111111
        k(   10) = (   0.0259556  -0.0449564   0.0000000), wk =   0.1111111
        k(   11) = (   0.0519112  -0.0299709   0.0000000), wk =   0.1111111
        k(   12) = (   0.0519112   0.0000000   0.0000000), wk =   0.1111111
        k(   13) = (   0.0519112   0.0299709   0.0000000), wk =   0.1111111
        k(   14) = (   0.0519112  -0.1198838   0.0000000), wk =   0.1111111
        k(   15) = (   0.0519112  -0.0899128   0.0000000), wk =   0.1111111
        k(   16) = (   0.0519112  -0.0599419   0.0000000), wk =   0.1111111
        k(   17) = (  -0.0778668   0.0449564   0.0000000), wk =   0.0555556
        k(   18) = (  -0.0778668   0.0749274   0.0000000), wk =   0.1111111
        k(   19) = (  -0.0778668   0.1048983   0.0000000), wk =   0.1111111
        k(   20) = (  -0.0778668  -0.0449564   0.0000000), wk =   0.0555556

     Largest allocated arrays     est. size (Mb)     dimensions
     Largest temporary arrays     est. size (Mb)     dimensions

     Initial potential from superposition of free atoms
     Check: negative starting charge=   -0.729116

     starting charge  147.97417, renormalised to  148.00000

     negative rho (up, down):  7.292E-01 0.000E+00

     *
     * You are using vdW-DF for exchange-correlation in this calculation.
     * Please cite the following three references that made this development
     * possible:
     *
     *   M. Dion, H. Rydberg, E. Schroder, D. C. Langreth, and
     *   B. I. Lundqvist, Phys. Rev. Lett. 92, 246401 (2004).
     *
     *   T. Thonhauser, V. R. Cooper, S. Li, A. Puzder, P. Hyldgaard, and
     *   D. C. Langreth, Phys. Rev. B 76, 125112 (2007).
     *
     *   G. Roman-Perez and J. M. Soler, Phys. Rev. Lett. 103, 096102 (2009).
     *
     *
     * If you are using vdW-DF2, please also cite:
     *
     *   K. Lee, E. D. Murray, L. Kong, B. I. Lundqvist, and
     *   D. C. Langreth, Phys. Rev. B 82, 081101(R) (2010).
     *
     *
     * If you are calculating the stress with vdW-DF, please also cite:
     *
     *   R. Sabatini, E. Kucukbenli, B. Kolb, T. Thonhauser, and
     *   S. de Gironcoli, J. Phys.: Condens. Matter 24, 424209 (2012).
     *

     Carrying out vdW-DF run using the following parameters:

     Nqs =      20    Nr_points =    1024   r_max =   100.000
     q_mesh =
               0.00001000     0.04494208     0.09755937     0.15916263
               0.23128650     0.31572767     0.41458969     0.53033537
               0.66584808     0.82450364     1.01025438     1.22772762
               1.48234092     1.78043706     2.12944203     2.53805004
               3.01644009     3.57652955     4.23227104     5.00000000

     Gradients computed in reciprocal space

     Adding external electric field

     Computed dipole along edir(3) :
        Dipole               -0.0056 Ry au,         -0.0142 Debye
        Dipole field         -0.0000 Ry au

        Potential amp.        0.0011 Ry
        Total length         46.5096 bohr

     Starting wfc are  160 randomized atomic wfcs

     Self-consistent Calculation

     iteration #  1     ecut=    36.75 Ry     beta=0.30
     Davidson diagonalization with overlap
     ethr =  1.00E-02,  avg # of iterations =  2.0

[...]

     total energy              =   -1204.89222794 Ry
     Harris-Foulkes estimate   =   -1208.69911626 Ry
     estimated scf accuracy    <       8.13044202 Ry

[...]

     iteration # 12     ecut=    36.75 Ry     beta=0.30
     Davidson diagonalization with overlap
     c_bands:  1 eigenvalues not converged
     c_bands:  1 eigenvalues not converged
     ethr =  3.51E-06,  avg # of iterations =  7.8

[...]

     End of self-consistent calculation

          k = 0.0000 0.0000 0.0000 ( 22923 PWs)   bands (ev):

   -48.3111 -48.2546 -48.2534 -48.1657 -48.1644 -48.1624 -47.9822 -47.9348
   -47.9340 -47.8627 -47.8603 -47.8579 -26.5680 -26.5388 -26.5324 -26.5139
   -26.4845 -26.4786 -26.4139 -26.4088 -26.3692 -26.3494 -26.2799 -26.2232
   -26.0979 -26.0975 -26.0462 -26.0048 -25.9927 -25.9899 -25.9864 -25.9834
   -25.9208 -25.9093 -25.8581 -25.8243 -25.8224 -25.7908 -25.7707 -25.7611
   -25.7407 -25.7044 -25.6901 -25.6781 -25.6710 -25.6081 -25.5279 -25.5237
    -7.1209  -3.8711  -2.6937  -1.9422  -1.5455  -1.5395  -1.5306  -1.4516
    -1.4272  -1.4098  -1.0431  -1.0003  -0.9912  -0.8076  -0.8042  -0.7752
    -0.0832   0.0423   0.0689   0.5829   0.8076   0.9389   1.0666   1.2286
     1.4216   1.4764   1.6074   1.6382   1.8181   1.8794   1.9356   1.9755
     1.9988   2.1877   2.2144   2.2163

[...]

          k =-0.0779 0.0450 0.0000 ( 22880 PWs)   bands (ev):

[...]

     the Fermi energy is     1.0240 ev

!    total energy              =   -1208.24053381 Ry
     Harris-Foulkes estimate   =   -1208.24054476 Ry
     estimated scf accuracy    <       0.00000679 Ry

     The total energy is the sum of the following terms:

     one-electron contribution =   -8341.28939326 Ry
     hartree contribution      =    4161.02067658 Ry
     xc contribution           =    -223.82616889 Ry
     ewald contribution        =    3195.97739503 Ry
     electric field correction =       0.00050475 Ry
     smearing contrib. (-TS)   =      -0.12354802 Ry

     convergence has been achieved in  17 iterations

 BEEF-vdW xc energy contributions
           1 :   -191.664029517161
           2 :    173.437708798785
           3 :   -142.737137370504
           4 :    108.223436342679
           5 :   -77.6996145305514
           6 :    55.3838890408904
           7 :   -41.2625957513925
           8 :    32.4235103588175
           9 :   -25.3303989811048
          10 :    17.7514535764651
          11 :   -9.49402308790306
          12 :    1.86576083044150
          13 :    3.55995378084779
          14 :   -6.05642252773967
          15 :    6.13733855909678
          16 :   -5.13955542468273
          17 :    4.37992379568476
          18 :   -4.45376740311829
          19 :    5.07162763810743
          20 :   -5.45512022305655
          21 :    4.97066666187592
          22 :   -3.57500042858871
          23 :    1.81689976205809
          24 :  -0.448823942793155
          25 :  -5.700390658057586E-002
          26 :  -0.233137298672005
          27 :   0.821649239061628
          28 :   -1.14384409880253
          29 :   0.930288214136255
          30 :  -0.337992022943155
          31 :   -22.2652786632424
          32 :   -16.5940666414251

     Forces acting on atoms (Ry/au):

     negative rho (up, down):  7.490E-01 0.000E+00
     atom    1 type  1   force =    -0.00000014    0.00041347    0.01426584
     atom    2 type  1   force =    -0.00000076    0.00038059    0.01658625
     atom    3 type  1   force =     0.00039124   -0.00075186    0.01539242
     atom    4 type  1   force =    -0.00039022   -0.00075527    0.01538977
     atom    5 type  1   force =    -0.00146054    0.00396854   -0.00393030
     atom    6 type  1   force =     0.00146119    0.00397204   -0.00393392
     atom    7 type  1   force =     0.00000275    0.00008489   -0.01048197
     atom    8 type  1   force =    -0.00000229   -0.00509897   -0.01154137
     atom    9 type  1   force =     0.04755776   -0.00391985    0.05528291
     atom   10 type  1   force =    -0.04755764   -0.00391624    0.05527894
     atom   11 type  1   force =     0.00000080   -0.02528306    0.00282024
     atom   12 type  1   force =    -0.00000202    0.02963541    0.00399517
     atom   13 type  2   force =    -0.00000013    0.00127033   -0.14912397

     Total force =     0.185599     Total SCF correction =     0.006167

     entering subroutine stress ...

     negative rho (up, down):  7.490E-01 0.000E+00
          total   stress  (Ry/bohr**3)                   (kbar)     P=  -16.72
  -0.00009893   0.00000000   0.00000000        -14.55      0.00      0.00
   0.00000000  -0.00008103  -0.00000052          0.00    -11.92     -0.08
   0.00000000  -0.00000052  -0.00016111          0.00     -0.08    -23.70

     BFGS Geometry Optimization

     number of scf cycles    =   1
     number of bfgs steps    =   0

     energy   new            =   -1208.2405338128 Ry

     new trust radius        =       0.1491293828 bohr
     new conv_thr            =       0.0000099958 Ry

ATOMIC_POSITIONS (crystal)
Zr1      0.166666667   0.166666667   0.396150897    0   0   0
Zr1      0.666666667   0.166666667   0.396150897    0   0   0
Zr1      0.166666667   0.666666667   0.396150897    0   0   0
Zr1      0.666666667   0.666666667   0.396150897    0   0   0
Zr1      0.833333333   0.333333333   0.500000000    0   0   0
Zr1      0.333333333   0.333333333   0.500000000    0   0   0
Zr1      0.833333333   0.833333333   0.500000000    0   0   0
Zr1      0.333333333   0.833333333   0.500000000    0   0   0
Zr1      0.004105772  -0.000373012   0.605008021
Zr1      0.496267077  -0.000372668   0.605007938
Zr1      0.001203029   0.497594073   0.603908225
Zr1      0.498589786   0.502820094   0.603932855
C1       0.249939547   0.000120884   0.675298363

     Writing output data file calc.save
     Check: negative starting charge=   -0.729116
     NEW-OLD atomic charge density approx. for the potential
     Check: negative starting charge=   -0.728708

[...]

     energy   old            =   -1208.2405338128 Ry
     energy   new            =   -1208.2743677685 Ry

     CASE: energy  _new < energy  _old

     WARNING: bfgs curvature condition failed, Theta= 0.840
     new trust radius        =       0.2236940742 bohr
     new conv_thr            =       0.0000001000 Ry

[...]

     WARNING: bfgs curvature condition failed, Theta= 0.870
     new trust radius        =       0.0572693763 bohr
     new conv_thr            =       0.0000001000 Ry

[...]

     iteration #  1     ecut=    36.75 Ry     beta=0.30
     Davidson diagonalization with overlap
     c_bands:  1 eigenvalues not converged
     ethr =  1.00E-06,  avg # of iterations = 12.6

[...]

     Threshold (ethr) on eigenvalues was too large:
     Diagonalizing with lowered threshold

     Davidson diagonalization with overlap
     ethr =  8.96E-08,  avg # of iterations =  2.0

[...]

     Total force =     0.006727     Total SCF correction =     0.000463

[...]

     Total force =     0.003932     Total SCF correction =     0.000397
     SCF correction compared to forces is large: reduce conv_thr to get better values

[...]

     number of scf cycles    =  39
     number of bfgs steps    =  38

     energy   old            =   -1208.4439657077 Ry
     energy   new            =   -1208.4440528164 Ry

     CASE: energy  _new < energy  _old

     new trust radius        =       0.0100325087 bohr
     new conv_thr            =       0.0000001000 Ry

ATOMIC_POSITIONS (crystal)
Zr1      0.166666667   0.166666667   0.396150897    0   0   0
Zr1      0.666666667   0.166666667   0.396150897    0   0   0
Zr1      0.166666667   0.666666667   0.396150897    0   0   0
Zr1      0.666666667   0.666666667   0.396150897    0   0   0
Zr1      0.833333333   0.333333333   0.500000000    0   0   0
Zr1      0.333333333   0.333333333   0.500000000    0   0   0
Zr1      0.833333333   0.833333333   0.500000000    0   0   0
Zr1      0.333333333   0.833333333   0.500000000    0   0   0
Zr1      0.001297079   0.000522432   0.603664009
Zr1      0.498179086   0.000521121   0.603664165
Zr1      0.001596284   0.496804959   0.603568852
Zr1      0.500040091   0.499923198   0.598292236
C1       0.167129423   0.165740688   0.642627328

     Writing output data file calc.save
     Check: negative starting charge=   -0.729625
     NEW-OLD atomic charge density approx. for the potential
     Check: negative starting charge=   -0.729312

[...]

     Self-consistent Calculation

[...]

     Threshold (ethr) on eigenvalues was too large:
     Diagonalizing with lowered threshold

     Davidson diagonalization with overlap
     ethr =  4.10E-08,  avg # of iterations =  5.3

[...]

     total energy              =   -1208.44407464 Ry
     Harris-Foulkes estimate   =   -1208.44407463 Ry
     estimated scf accuracy    <       0.00000021 Ry

     iteration #  9     ecut=    36.75 Ry     beta=0.30
     Davidson diagonalization with overlap
     ethr =  1.43E-10,  avg # of iterations =  3.0

[...]

     negative rho (up, down):  7.497E-01 0.000E+00

     Adding external electric field

     Computed dipole along edir(3) :
        Dipole               -0.1846 Ry au,         -0.4693 Debye
        Dipole field         -0.0004 Ry au

        Potential amp.        0.0355 Ry
        Total length         46.5096 bohr

     End of self-consistent calculation

[...]

          k = 0.0519-0.0599 0.0000 ( 22856 PWs)   bands (ev):

[...]

          k =-0.0779-0.0450 0.0000 ( 22880 PWs)   bands (ev):

   -47.9531 -47.9484 -47.9081 -47.9022 -47.8653 -47.6152 -47.5796 -47.5480
   -47.5354 -47.5128 -47.4925 -47.4718 -26.1437 -26.1388 -26.0853 -26.0587
   -26.0177 -25.9952 -25.9887 -25.9714 -25.9298 -25.9236 -25.8813 -25.8779
   -25.8526 -25.8251 -25.7698 -25.7599 -25.7285 -25.6496 -25.6427 -25.6270
   -25.6114 -25.6033 -25.5459 -25.5124 -25.4897 -25.4830 -25.4771 -25.4563
   -25.4133 -25.3947 -25.3812 -25.3613 -25.3276 -25.3239 -25.2675 -25.2123
    -7.4177  -2.3135  -2.1557  -1.5421  -1.1332  -0.8756  -0.8161  -0.7250
    -0.5448  -0.5034  -0.3936  -0.3752  -0.0878   0.1632   0.2674   0.3060
     0.3871   0.4032   0.4967   0.5402   0.7783   0.8371   0.8515   0.9203
     0.9533   1.0551   1.1261   1.2610   1.3053   1.3426   1.4839   1.5135
     1.5799   1.7688   1.8579   2.0016

     the Fermi energy is     1.2847 ev

!    total energy              =   -1208.44407463 Ry
     Harris-Foulkes estimate   =   -1208.44407439 Ry
     estimated scf accuracy    <       0.00000009 Ry

     The total energy is the sum of the following terms:

     one-electron contribution =   -8512.82862914 Ry
     hartree contribution      =    4248.48424928 Ry
     xc contribution           =    -224.39099046 Ry
     ewald contribution        =    3280.40149648 Ry
     electric field correction =       0.00007043 Ry
     smearing contrib. (-TS)   =      -0.11027124 Ry

     convergence has been achieved in   9 iterations

 BEEF-vdW xc energy contributions
           1 :   -192.222040563194
           2 :    174.123550553542
           3 :   -143.554493012229
           4 :    109.046562605932
           5 :   -78.3542183956972
           6 :    55.7341403776568
           7 :   -41.2649343413625
           8 :    32.1375389522266
           9 :   -24.8915947320515
          10 :    17.3149577135243
          11 :   -9.16977459589356
          12 :    1.67793269463101
          13 :    3.66316943593097
          14 :   -6.14888501796975
          15 :    6.25791704352784
          16 :   -5.27236047350590
          17 :    4.47583539073906
          18 :   -4.46796500975768
          19 :    4.99100952462945
          20 :   -5.30379390601365
          21 :    4.79697444323085
          22 :   -3.42979892019935
          23 :    1.73172412919851
          24 :  -0.423569237572906
          25 :  -4.855470390913297E-002
          26 :  -0.243778579226500
          27 :   0.818531013122424
          28 :   -1.13169190382666
          29 :   0.922086753822441
          30 :  -0.338605188944200
          31 :   -22.3044333856126
          32 :   -16.6604189992051

     Forces acting on atoms (Ry/au):

     negative rho (up, down):  7.497E-01 0.000E+00
     atom    1 type  1   force =    -0.00000055   -0.00001827    0.01253379
     atom    2 type  1   force =    -0.00000041    0.00023107    0.01573679
     atom    3 type  1   force =     0.00019643   -0.00011120    0.01572445
     atom    4 type  1   force =    -0.00019648   -0.00011044    0.01572315
     atom    5 type  1   force =    -0.00570760    0.00305991   -0.01203552
     atom    6 type  1   force =     0.00570879    0.00305939   -0.01203310
     atom    7 type  1   force =    -0.00000131   -0.00005148   -0.02674583
     atom    8 type  1   force =     0.00000042   -0.00640444   -0.01204054
     atom    9 type  1   force =     0.00003678    0.00009796    0.00063937
     atom   10 type  1   force =    -0.00003376    0.00009950    0.00063883
     atom   11 type  1   force =     0.00000162    0.00036653    0.00097646
     atom   12 type  1   force =    -0.00000315   -0.00035314    0.00132194
     atom   13 type  2   force =    -0.00000078    0.00013461   -0.00043978

     Total force =     0.002003     Total SCF correction =     0.000392
     SCF correction compared to forces is large: reduce conv_thr to get better values

     entering subroutine stress ...

     negative rho (up, down):  7.497E-01 0.000E+00
          total   stress  (Ry/bohr**3)                   (kbar)     P=   -3.96
  -0.00001672   0.00000000  -0.00000000         -2.46      0.00     -0.00
   0.00000000  -0.00001714   0.00000029          0.00     -2.52      0.04
  -0.00000000   0.00000029  -0.00004688         -0.00      0.04     -6.90

     bfgs converged in  40 scf cycles and  39 bfgs steps
     (criteria: energy <  1.0E+00, force <  1.9E-03)

     End of BFGS Geometry Optimization

     Final energy   =   -1208.4440746344 Ry
Begin final coordinates

ATOMIC_POSITIONS (crystal)
Zr1      0.166666667   0.166666667   0.396150897    0   0   0
Zr1      0.666666667   0.166666667   0.396150897    0   0   0
Zr1      0.166666667   0.666666667   0.396150897    0   0   0
Zr1      0.666666667   0.666666667   0.396150897    0   0   0
Zr1      0.833333333   0.333333333   0.500000000    0   0   0
Zr1      0.333333333   0.333333333   0.500000000    0   0   0
Zr1      0.833333333   0.833333333   0.500000000    0   0   0
Zr1      0.333333333   0.833333333   0.500000000    0   0   0
Zr1      0.001297079   0.000522432   0.603664009
Zr1      0.498179086   0.000521121   0.603664165
Zr1      0.001596284   0.496804959   0.603568852
Zr1      0.500040091   0.499923198   0.598292236
C1       0.167129423   0.165740688   0.642627328
End final coordinates

     Writing output data file calc.save

     General routines

     Parallel routines

   This run was terminated on:  23:44:17   2May2018

   JOB DONE.
Job  /afs/slac/g/suncat/bin/suncat-tsmpirun -x LD_LIBRARY_PATH -wdir /scratch/qe830257_pG1Gx pw.x -npool 4 -in pw.inp

TID   HOST_NAME   COMMAND_LINE            STATUS            TERMINATION_TIME
00000 suncat0183 pw.x -npool 4 -i  Done                     05/02/2018 23:44:17
00001 suncat0183 pw.x -npool 4 -i  Done                     05/02/2018 23:44:17
00002 suncat0183 pw.x -npool 4 -i  Done                     05/02/2018 23:44:17
00003 suncat0183 pw.x -npool 4 -i  Done                     05/02/2018 23:44:17
00004 suncat0183 pw.x -npool 4 -i  Done                     05/02/2018 23:44:17
00005 suncat0183 pw.x -npool 4 -i  Done                     05/02/2018 23:44:17
00006 suncat0183 pw.x -npool 4 -i  Done                     05/02/2018 23:44:17
00007 suncat0183 pw.x -npool 4 -i  Done                     05/02/2018 23:44:17
00008 suncat0229 pw.x -npool 4 -i  Done                     05/02/2018 23:44:17
00009 suncat0229 pw.x -npool 4 -i  Done                     05/02/2018 23:44:17
00010 suncat0229 pw.x -npool 4 -i  Done                     05/02/2018 23:44:17
00011 suncat0229 pw.x -npool 4 -i  Done                     05/02/2018 23:44:17
00012 suncat0229 pw.x -npool 4 -i  Done                     05/02/2018 23:44:17
00013 suncat0229 pw.x -npool 4 -i  Done                     05/02/2018 23:44:17
00014 suncat0229 pw.x -npool 4 -i  Done                     05/02/2018 23:44:17
00015 suncat0229 pw.x -npool 4 -i  Done                     05/02/2018 23:44:17
00016 suncat0224 pw.x -npool 4 -i  Done                     05/02/2018 23:44:17
00017 suncat0224 pw.x -npool 4 -i  Done                     05/02/2018 23:44:17
00018 suncat0224 pw.x -npool 4 -i  Done                     05/02/2018 23:44:17
00019 suncat0224 pw.x -npool 4 -i  Done                     05/02/2018 23:44:17
00020 suncat0224 pw.x -npool 4 -i  Done                     05/02/2018 23:44:17
00021 suncat0224 pw.x -npool 4 -i  Done                     05/02/2018 23:44:17
00022 suncat0224 pw.x -npool 4 -i  Done                     05/02/2018 23:44:17
00023 suncat0224 pw.x -npool 4 -i  Done                     05/02/2018 23:44:17
00024 suncat0222 pw.x -npool 4 -i  Done                     05/02/2018 23:44:17
00025 suncat0222 pw.x -npool 4 -i  Done                     05/02/2018 23:44:17
00026 suncat0222 pw.x -npool 4 -i  Done                     05/02/2018 23:44:17
00027 suncat0222 pw.x -npool 4 -i  Done                     05/02/2018 23:44:17
00028 suncat0222 pw.x -npool 4 -i  Done                     05/02/2018 23:44:17
00029 suncat0222 pw.x -npool 4 -i  Done                     05/02/2018 23:44:17
00030 suncat0222 pw.x -npool 4 -i  Done                     05/02/2018 23:44:17
00031 suncat0222 pw.x -npool 4 -i  Done                     05/02/2018 23:44:17