     Program PWSCF v.5.1rc2 (svn rev. 11289) starts on 21Apr2018 at 21: 9:29

     Current dimensions of program PWSCF are:
     Max number of different atomic species (ntypx) = 10
     Max number of k-points (npk) =  40000
     Max angular momentum in pseudopotentials (lmaxx) =  3
     Presently stress not available with electric field

     IMPORTANT: XC functional enforced from input :
     Exchange-correlation      = BEEF-VDW ( 1  4 27 13 2)
     Any further DFT definition will be discarded
     Please, verify this is what you really want

     Subspace diagonalization in iterative solution of the eigenvalue problem:
     a serial algorithm will be used

     bravais-lattice index     =            0
     lattice parameter (alat)  =       1.8897  a.u.
     unit-cell volume          =    4569.9960 (a.u.)^3
     number of atoms/cell      =           14
     number of atomic types    =            3
     number of electrons       =       199.00
     number of Kohn-Sham states=          109
     kinetic-energy cutoff     =      36.7493  Ry
     charge density cutoff     =     367.4932  Ry
     convergence threshold     =      1.0E-05
     mixing beta               =       0.3000
     number of iterations used =           10  plain     mixing
     Exchange-correlation      = BEEF-VDW ( 1  4 27 13 2)
     nstep                     =           50

     celldm(1)=   1.889726  celldm(2)=   0.000000  celldm(3)=   0.000000
     celldm(4)=   0.000000  celldm(5)=   0.000000  celldm(6)=   0.000000

     crystal axes: (cart. coord. in units of alat)
               a(1) = (   5.637663   0.000000   0.000000 )
               a(2) = (   2.818831   4.882359   0.000000 )
               a(3) = (   0.000000   0.000000  24.603132 )

     reciprocal axes: (cart. coord. in units 2 pi/alat)
               b(1) = (  0.177378 -0.102410  0.000000 )
               b(2) = (  0.000000  0.204819  0.000000 )
               b(3) = (  0.000000  0.000000  0.040645 )

     PseudoPot. # 1 for Pd read from file:
     /u/if/mamunm/psp/gbrv1.5pbe/Pd.UPF
     MD5 check sum: 2d733d2bc2cbfd217af676df1668a4bc
     Pseudo is Ultrasoft + core correction, Zval = 16.0
     Generated by new atomic code, or converted to UPF format
     Using radial grid of  887 points,  6 beta functions with:
                l(1) =   0
                l(2) =   0
                l(3) =   1
                l(4) =   1
                l(5) =   2
                l(6) =   2
     Q(r) pseudized with  8 coefficients,  rinner =    1.130   1.130   1.130
                                                       1.130   1.130

     PseudoPot. # 2 for O  read from file:
     /u/if/mamunm/psp/gbrv1.5pbe/O.UPF
     MD5 check sum: 734c27235a0248c51dbae37a1fbe46ec
     Pseudo is Ultrasoft + core correction, Zval =  6.0
     Generated by new atomic code, or converted to UPF format
     Using radial grid of  737 points,  5 beta functions with:
                l(1) =   0
                l(2) =   0
                l(3) =   1
                l(4) =   1
                l(5) =   2
     Q(r) pseudized with  8 coefficients,  rinner =    0.900   0.900   0.900
                                                       0.900   0.900

     PseudoPot. # 3 for H  read from file:
     /u/if/mamunm/psp/gbrv1.5pbe/H.UPF
     MD5 check sum: 761ae9a214b05c3daf00ab9f6b793d6f
     Pseudo is Ultrasoft, Zval =  1.0
     Generated by new atomic code, or converted to UPF format
     Using radial grid of  615 points,  2 beta functions with:
                l(1) =   0
                l(2) =   0
     Q(r) pseudized with  8 coefficients,  rinner =    0.700

     vdW kernel table read from file vdW_kernel_table
     MD5 check sum: 095c7af220d748ca6e76c0b4c6cfb241

     atomic species   valence    mass     pseudopotential
        Pd1           16.00   106.42000     Pd( 1.00)
        O1             6.00    15.99900     O ( 1.00)
        H1             1.00     1.00800     H ( 1.00)

     No symmetry found

   Cartesian axes

     site n.     atom                  positions (alat units)
         1           Pd1 tau(   1) = (   1.4094157   0.8137265  10.0000000  )
         2           Pd1 tau(   2) = (   4.2282471   0.8137265  10.0000000  )
         3           Pd1 tau(   3) = (   2.8188314   3.2549061  10.0000000  )
         4           Pd1 tau(   4) = (   5.6376627   3.2549061  10.0000000  )
         5           Pd1 tau(   5) = (   5.6376627   1.6274531  12.3015662  )
         6           Pd1 tau(   6) = (   2.8188314   1.6274531  12.3015662  )
         7           Pd1 tau(   7) = (   7.0470784   4.0686326  12.3015662  )
         8           Pd1 tau(   8) = (   4.2282471   4.0686326  12.3015662  )
         9           Pd1 tau(   9) = (   0.0000000   0.0000000  14.6031324  )
        10           Pd1 tau(  10) = (   2.8188314   0.0000000  14.6031324  )
        11           Pd1 tau(  11) = (   1.4094157   2.4411796  14.6031324  )
        12           Pd1 tau(  12) = (   4.2282471   2.4411796  14.6031324  )
        13           O1  tau(  13) = (   1.4094157   0.0000000  16.1406324  )
        14           H1  tau(  14) = (   1.4094157   0.0000000  17.0906324  )

     number of k points=    20  Fermi-Dirac smearing, width (Ry)=  0.0110
                       cart. coord. in units 2pi/alat
        k(    1) = (   0.0000000   0.0000000   0.0000000), wk =   0.0555556
        k(    2) = (   0.0000000   0.0341365   0.0000000), wk =   0.1111111
        k(    3) = (   0.0000000   0.0682730   0.0000000), wk =   0.1111111
        k(    4) = (   0.0000000  -0.1024095   0.0000000), wk =   0.0555556
        k(    5) = (   0.0295631  -0.0170683   0.0000000), wk =   0.1111111
        k(    6) = (   0.0295631   0.0170683   0.0000000), wk =   0.1111111
        k(    7) = (   0.0295631   0.0512048   0.0000000), wk =   0.1111111
        k(    8) = (   0.0295631  -0.1194778   0.0000000), wk =   0.1111111
        k(    9) = (   0.0295631  -0.0853413   0.0000000), wk =   0.1111111
        k(   10) = (   0.0295631  -0.0512048   0.0000000), wk =   0.1111111
        k(   11) = (   0.0591262  -0.0341365   0.0000000), wk =   0.1111111
        k(   12) = (   0.0591262  -0.0000000   0.0000000), wk =   0.1111111
        k(   13) = (   0.0591262   0.0341365   0.0000000), wk =   0.1111111
        k(   14) = (   0.0591262  -0.1365460   0.0000000), wk =   0.1111111
        k(   15) = (   0.0591262  -0.1024095   0.0000000), wk =   0.1111111
        k(   16) = (   0.0591262  -0.0682730   0.0000000), wk =   0.1111111
        k(   17) = (  -0.0886892   0.0512048   0.0000000), wk =   0.0555556
        k(   18) = (  -0.0886892   0.0853413   0.0000000), wk =   0.1111111
        k(   19) = (  -0.0886892   0.1194778   0.0000000), wk =   0.1111111
        k(   20) = (  -0.0886892  -0.0512048   0.0000000), wk =   0.0555556

     Largest allocated arrays     est. size (Mb)     dimensions
     Largest temporary arrays     est. size (Mb)     dimensions

     Initial potential from superposition of free atoms
     Check: negative starting charge=   -0.904177

     starting charge  192.99991, renormalised to  199.00000

     negative rho (up, down):  9.323E-01 0.000E+00

     *
     * You are using vdW-DF for exchange-correlation in this calculation.
     * Please cite the following three references that made this development
     * possible:
     *
     *   M. Dion, H. Rydberg, E. Schroder, D. C. Langreth, and
     *   B. I. Lundqvist, Phys. Rev. Lett. 92, 246401 (2004).
     *
     *   T. Thonhauser, V. R. Cooper, S. Li, A. Puzder, P. Hyldgaard, and
     *   D. C. Langreth, Phys. Rev. B 76, 125112 (2007).
     *
     *   G. Roman-Perez and J. M. Soler, Phys. Rev. Lett. 103, 096102 (2009).
     *
     *
     * If you are using vdW-DF2, please also cite:
     *
     *   K. Lee, E. D. Murray, L. Kong, B. I. Lundqvist, and
     *   D. C. Langreth, Phys. Rev. B 82, 081101(R) (2010).
     *
     *
     * If you are calculating the stress with vdW-DF, please also cite:
     *
     *   R. Sabatini, E. Kucukbenli, B. Kolb, T. Thonhauser, and
     *   S. de Gironcoli, J. Phys.: Condens. Matter 24, 424209 (2012).
     *

     Carrying out vdW-DF run using the following parameters:

     Nqs =      20    Nr_points =    1024   r_max =   100.000
     q_mesh =
               0.00001000     0.04494208     0.09755937     0.15916263
               0.23128650     0.31572767     0.41458969     0.53033537
               0.66584808     0.82450364     1.01025438     1.22772762
               1.48234092     1.78043706     2.12944203     2.53805004
               3.01644009     3.57652955     4.23227104     5.00000000

     Gradients computed in reciprocal space

     Adding external electric field

     Computed dipole along edir(3) :
        Dipole               -1.6345 Ry au,         -4.1545 Debye
        Dipole field         -0.0045 Ry au

        Potential amp.        0.4075 Ry
        Total length         45.3309 bohr

     Starting wfc are  149 randomized atomic wfcs

     Self-consistent Calculation

     iteration #  1     ecut=    36.75 Ry     beta=0.30
     Davidson diagonalization with overlap
     ethr =  1.00E-02,  avg # of iterations =  4.5

[...]

     total energy              =   -2368.92079414 Ry
     Harris-Foulkes estimate   =   -2433.37376076 Ry
     estimated scf accuracy    <     135.77664493 Ry

[...]

     End of self-consistent calculation

          k = 0.0000 0.0000 0.0000 ( 17231 PWs)   bands (ev):

   -48.7204 -48.6245 -48.5645 -48.5452 -48.5280 -48.5140 -48.4936 -48.4859
   -48.4626 -48.3960 -48.3956 -48.3800 -48.3699 -48.3504 -48.3497 -48.3279
   -48.2854 -48.2833 -48.2727 -48.2670 -48.2552 -48.1726 -48.1084 -48.1044
   -48.0931 -48.0799 -48.0654 -48.0448 -48.0410 -48.0332 -47.9773 -47.9554
   -47.9374 -47.9336 -47.9304 -47.9209 -18.3749  -6.8026  -4.2797  -3.3476
    -3.3171  -3.1129  -3.0552  -3.0248  -3.0204  -2.9419  -2.7969  -2.7332
    -2.7201  -2.6847  -2.6148  -2.5542  -2.4804  -2.3805  -1.9768  -1.5705
    -1.3912  -1.3248  -1.2480  -1.2279  -1.1462  -1.0502  -1.0449  -0.9235
    -0.8877  -0.8208  -0.7801  -0.7388  -0.7354  -0.7270  -0.7223  -0.5300
    -0.1183  -0.0684  -0.0325   0.1780   0.2832   0.3095   0.3108   0.4056
     0.5339   0.6588   0.6738   0.7120   0.7516   1.0403   1.0517   1.0870
     1.1341   1.1625   1.1667   1.2260   1.2946   1.3424   1.3542   1.4014
     1.4740   1.5321   1.5850   1.5927   1.5942   1.6404   1.8835   3.0831
     3.6675   3.7991   3.9645   4.7981   4.9029

[...]

          k =-0.0887 0.0512 0.0000 ( 17240 PWs)   bands (ev):

[...]

     the Fermi energy is     1.3715 ev

!    total energy              =   -2431.13343976 Ry
     Harris-Foulkes estimate   =   -2431.13343422 Ry
     estimated scf accuracy    <       0.00000133 Ry

     The total energy is the sum of the following terms:

     one-electron contribution =  -20773.53133228 Ry
     hartree contribution      =   10441.69743581 Ry
     xc contribution           =    -398.54153328 Ry
     ewald contribution        =    8299.36415231 Ry
     electric field correction =       0.00022192 Ry
     smearing contrib. (-TS)   =      -0.12238426 Ry

     convergence has been achieved in  22 iterations

 BEEF-vdW xc energy contributions
           1 :   -346.826019065972
           2 :    316.588477689993
           3 :   -265.130993683334
           4 :    206.412469407883
           5 :   -153.813777188848
           6 :    115.751652695498
           7 :   -93.9240978436355
           8 :    84.4150354277502
           9 :   -80.7353165125887
          10 :    77.1751363065779
          11 :   -70.9679414303779
          12 :    62.5461106462047
          13 :   -54.2043709575682
          14 :    48.1908835325476
          15 :   -45.3356339456734
          16 :    44.8054312057382
          17 :   -44.8572657397781
          18 :    43.9589246179034
          19 :   -41.5833476691527
          20 :    38.2863084987940
          21 :   -35.1541483018172
          22 :    33.0483352420891
          23 :   -32.1186210861194
          24 :    31.8205306715058
          25 :   -31.3493718053418
          26 :    30.1690279424084
          27 :   -28.3041872610889
          28 :    26.2496344241914
          29 :   -24.5991367758137
          30 :    23.6512078055753
          31 :   -33.8852431746739
          32 :   -24.9607000300792

     Forces acting on atoms (Ry/au):

     negative rho (up, down):  9.417E-01 0.000E+00
     atom    1 type  1   force =    -0.00000760    0.00021109    0.00110730
     atom    2 type  1   force =     0.00000954   -0.00028599    0.00152624
     atom    3 type  1   force =    -0.00032013   -0.00004728   -0.00052208
     atom    4 type  1   force =     0.00032141   -0.00005994   -0.00052015
     atom    5 type  1   force =    -0.00202052   -0.00010042   -0.00182528
     atom    6 type  1   force =     0.00202160   -0.00009715   -0.00182991
     atom    7 type  1   force =     0.00000133    0.00524675    0.01582642
     atom    8 type  1   force =     0.00000107   -0.00097941   -0.01003567
     atom    9 type  1   force =    -0.03158421   -0.00508265   -0.01364315
     atom   10 type  1   force =     0.03158583   -0.00509670   -0.01363286
     atom   11 type  1   force =    -0.00000855    0.00820471   -0.00509771
     atom   12 type  1   force =     0.00001153   -0.00469019   -0.00476631
     atom   13 type  2   force =    -0.00001168    0.00150755   -0.01584114
     atom   14 type  3   force =     0.00000037    0.00126964    0.04925430

     Total force =     0.072373     Total SCF correction =     0.001881

     entering subroutine stress ...

     negative rho (up, down):  9.417E-01 0.000E+00
          total   stress  (Ry/bohr**3)                   (kbar)     P=   -5.10
  -0.00004965   0.00000000   0.00000001         -7.30      0.00      0.00
   0.00000000  -0.00007283  -0.00000125          0.00    -10.71     -0.18
   0.00000001  -0.00000125   0.00001851          0.00     -0.18      2.72

     BFGS Geometry Optimization

     number of scf cycles    =   1
     number of bfgs steps    =   0

     energy   new            =   -2431.1334397571 Ry

     new trust radius        =       0.0492706589 bohr
     new conv_thr            =       0.0000099958 Ry

ATOMIC_POSITIONS (crystal)
Pd1      0.166666667   0.166666667   0.406452311    0   0   0
Pd1      0.666666667   0.166666667   0.406452311    0   0   0
Pd1      0.166666667   0.666666667   0.406452311    0   0   0
Pd1      0.666666667   0.666666667   0.406452311    0   0   0
Pd1      0.833333333   0.333333333   0.500000000    0   0   0
Pd1      0.333333333   0.333333333   0.500000000    0   0   0
Pd1      0.833333333   0.833333333   0.500000000    0   0   0
Pd1      0.333333333   0.833333333   0.500000000    0   0   0
Pd1     -0.002689197  -0.000550886   0.593254245
Pd1      0.503240997  -0.000552409   0.593254466
Pd1     -0.000445438   0.500889272   0.593438045
Pd1      0.500255256   0.499491651   0.593445173
O1       0.249917205   0.000163397   0.655699012
H1       0.249931229   0.000137610   0.695712089

     Writing output data file calc.save
     Check: negative starting charge=   -0.904177
     NEW-OLD atomic charge density approx. for the potential
     Check: negative starting charge=   -0.904090

[...]

     energy   old            =   -2431.1334397571 Ry
     energy   new            =   -2431.1359350175 Ry

     CASE: energy  _new < energy  _old

[...]

     Threshold (ethr) on eigenvalues was too large:
     Diagonalizing with lowered threshold

     Davidson diagonalization with overlap
     ethr =  4.64E-08,  avg # of iterations =  1.0

[...]

     Total force =     0.009089     Total SCF correction =     0.001645
     SCF correction compared to forces is large: reduce conv_thr to get better values

[...]

     iteration #  1     ecut=    36.75 Ry     beta=0.30
     Davidson diagonalization with overlap
     c_bands:  1 eigenvalues not converged
     ethr =  1.00E-06,  avg # of iterations =  5.3

[...]

     iteration #  1     ecut=    36.75 Ry     beta=0.30
     Davidson diagonalization with overlap
     c_bands:  1 eigenvalues not converged
     ethr =  1.00E-06,  avg # of iterations =  5.2

[...]

     Total force =     0.004095     Total SCF correction =     0.000408

[...]

     number of scf cycles    =  37
     number of bfgs steps    =  36

     energy   old            =   -2431.1536901866 Ry
     energy   new            =   -2431.1537135720 Ry

     CASE: energy  _new < energy  _old

     new trust radius        =       0.0054864482 bohr
     new conv_thr            =       0.0000001000 Ry

ATOMIC_POSITIONS (crystal)
Pd1      0.166666667   0.166666667   0.406452311    0   0   0
Pd1      0.666666667   0.166666667   0.406452311    0   0   0
Pd1      0.166666667   0.666666667   0.406452311    0   0   0
Pd1      0.666666667   0.666666667   0.406452311    0   0   0
Pd1      0.833333333   0.333333333   0.500000000    0   0   0
Pd1      0.333333333   0.333333333   0.500000000    0   0   0
Pd1      0.833333333   0.833333333   0.500000000    0   0   0
Pd1      0.333333333   0.833333333   0.500000000    0   0   0
Pd1     -0.001761355  -0.004028777   0.594257866
Pd1      0.505788398  -0.004028887   0.594258125
Pd1     -0.003231962   0.506462101   0.592132162
Pd1      0.501246653   0.497505659   0.592240794
O1       0.200976000   0.098042125   0.658900376
H1       0.268692705  -0.037393557   0.688104565

     Writing output data file calc.save
     Check: negative starting charge=   -0.906880
     NEW-OLD atomic charge density approx. for the potential
     Check: negative starting charge=   -0.907012

[...]

     Self-consistent Calculation

[...]

     Threshold (ethr) on eigenvalues was too large:
     Diagonalizing with lowered threshold

     Davidson diagonalization with overlap
     ethr =  5.63E-08,  avg # of iterations =  1.0

[...]

     total energy              =   -2431.15372644 Ry
     Harris-Foulkes estimate   =   -2431.15372667 Ry
     estimated scf accuracy    <       0.00000092 Ry

     iteration #  8     ecut=    36.75 Ry     beta=0.30
     Davidson diagonalization with overlap
     ethr =  4.60E-10,  avg # of iterations =  1.0

[...]

     negative rho (up, down):  9.447E-01 0.000E+00

     Adding external electric field

     Computed dipole along edir(3) :
        Dipole                0.1221 Ry au,          0.3103 Debye
        Dipole field          0.0003 Ry au

        Potential amp.       -0.0304 Ry
        Total length         45.3309 bohr

     End of self-consistent calculation

[...]

          k = 0.0591-0.0683 0.0000 ( 17183 PWs)   bands (ev):

[...]

          k =-0.0887-0.0512 0.0000 ( 17240 PWs)   bands (ev):

   -48.8181 -48.7755 -48.7537 -48.7202 -48.7026 -48.6759 -48.6578 -48.6520
   -48.6236 -48.6134 -48.6039 -48.5948 -48.5845 -48.5776 -48.5564 -48.5120
   -48.5030 -48.4923 -48.4418 -48.4292 -48.3963 -48.3756 -48.3672 -48.3580
   -48.3517 -48.3492 -48.3151 -48.2898 -48.2838 -48.2747 -48.2424 -48.1756
   -48.1660 -48.1405 -48.1399 -48.1335 -18.1745  -6.0090  -3.3953  -3.1797
    -2.9164  -2.8409  -2.6875  -2.6213  -2.5986  -2.5315  -2.4205  -2.4121
    -2.3410  -2.2271  -2.2044  -2.1437  -2.0868  -2.0507  -1.9590  -1.9103
    -1.6503  -1.6374  -1.5741  -1.5637  -1.5495  -1.4994  -1.2725  -1.2540
    -1.0556  -0.9873  -0.9047  -0.8680  -0.8518  -0.8351  -0.7711  -0.7395
    -0.7087  -0.6672  -0.6443  -0.5998  -0.5743  -0.5219  -0.4414  -0.3289
    -0.2873  -0.2542  -0.1853  -0.1197  -0.0616   0.0065   0.0691   0.0757
     0.1326   0.1603   0.2065   0.3438   0.4428   0.5000   0.5650   0.6737
     0.9296   0.9569   1.0063   1.0661   1.1489   1.2078   1.3883   1.8505
     3.5919   3.6863   3.7584   3.9126   4.8406

     the Fermi energy is     1.1648 ev

!    total energy              =   -2431.15372650 Ry
     Harris-Foulkes estimate   =   -2431.15372639 Ry
     estimated scf accuracy    <       0.00000005 Ry

     The total energy is the sum of the following terms:

     one-electron contribution =  -20773.80798436 Ry
     hartree contribution      =   10440.65749415 Ry
     xc contribution           =    -398.47827250 Ry
     ewald contribution        =    8300.59851181 Ry
     electric field correction =       0.00004098 Ry
     smearing contrib. (-TS)   =      -0.12351657 Ry

     convergence has been achieved in   8 iterations

 BEEF-vdW xc energy contributions
           1 :   -346.763443376846
           2 :    316.515849782432
           3 :   -265.053600469806
           4 :    206.346678606373
           5 :   -153.773313823834
           6 :    115.739629449019
           7 :   -93.9330084723204
           8 :    84.4326747703888
           9 :   -80.7519216444434
          10 :    77.1879497473108
          11 :   -70.9808439091033
          12 :    62.5640172446931
          13 :   -54.2258160244499
          14 :    48.2080366821054
          15 :   -45.3432982638839
          16 :    44.8074046428620
          17 :   -44.8634695324208
          18 :    43.9786274147012
          19 :   -41.6194135287392
          20 :    38.3322738454435
          21 :   -35.1959516713582
          22 :    33.0708718710796
          23 :   -32.1142132517763
          24 :    31.7947585797881
          25 :   -31.3181374792754
          26 :    30.1479432554476
          27 :   -28.3002657913573
          28 :    26.2593611174620
          29 :   -24.6105584293066
          30 :    23.6501868874338
          31 :   -33.8821697254652
          32 :   -24.9561046162110

     Forces acting on atoms (Ry/au):

     negative rho (up, down):  9.447E-01 0.000E+00
     atom    1 type  1   force =    -0.00000001   -0.00017185    0.00102145
     atom    2 type  1   force =    -0.00000004   -0.00049380    0.00081408
     atom    3 type  1   force =     0.00019791    0.00025238   -0.00119552
     atom    4 type  1   force =    -0.00019797    0.00025239   -0.00119535
     atom    5 type  1   force =    -0.00058733   -0.00145805   -0.00594355
     atom    6 type  1   force =     0.00058721   -0.00145813   -0.00594327
     atom    7 type  1   force =    -0.00000007    0.00563863    0.01654770
     atom    8 type  1   force =    -0.00000021    0.00142021   -0.00434365
     atom    9 type  1   force =     0.00022641   -0.00016927    0.00072438
     atom   10 type  1   force =    -0.00022676   -0.00016803    0.00072472
     atom   11 type  1   force =     0.00000056   -0.00062326    0.00034829
     atom   12 type  1   force =    -0.00000041   -0.00067180   -0.00004723
     atom   13 type  2   force =     0.00000062   -0.00120978   -0.00027701
     atom   14 type  3   force =     0.00000007   -0.00113966   -0.00123504

     Total force =     0.002557     Total SCF correction =     0.000708
     SCF correction compared to forces is large: reduce conv_thr to get better values

     entering subroutine stress ...

     negative rho (up, down):  9.447E-01 0.000E+00
          total   stress  (Ry/bohr**3)                   (kbar)     P=   -7.53
  -0.00007426   0.00000000   0.00000000        -10.92      0.00      0.00
   0.00000000  -0.00006158  -0.00000582          0.00     -9.06     -0.86
   0.00000000  -0.00000582  -0.00001767          0.00     -0.86     -2.60

     bfgs converged in  38 scf cycles and  37 bfgs steps
     (criteria: energy <  1.0E+00, force <  1.9E-03)

     End of BFGS Geometry Optimization

     Final energy   =   -2431.1537264969 Ry
Begin final coordinates

ATOMIC_POSITIONS (crystal)
Pd1      0.166666667   0.166666667   0.406452311    0   0   0
Pd1      0.666666667   0.166666667   0.406452311    0   0   0
Pd1      0.166666667   0.666666667   0.406452311    0   0   0
Pd1      0.666666667   0.666666667   0.406452311    0   0   0
Pd1      0.833333333   0.333333333   0.500000000    0   0   0
Pd1      0.333333333   0.333333333   0.500000000    0   0   0
Pd1      0.833333333   0.833333333   0.500000000    0   0   0
Pd1      0.333333333   0.833333333   0.500000000    0   0   0
Pd1     -0.001761355  -0.004028777   0.594257866
Pd1      0.505788398  -0.004028887   0.594258125
Pd1     -0.003231962   0.506462101   0.592132162
Pd1      0.501246653   0.497505659   0.592240794
O1       0.200976000   0.098042125   0.658900376
H1       0.268692705  -0.037393557   0.688104565
End final coordinates

     Writing output data file calc.save

     General routines

     Parallel routines

   This run was terminated on:   1:21:18  22Apr2018

   JOB DONE.
Job  /afs/slac/g/suncat/bin/suncat-tsmpirun -x LD_LIBRARY_PATH -wdir /scratch/qe394316_gqfRP pw.x -npool 4 -in pw.inp

TID   HOST_NAME   COMMAND_LINE            STATUS            TERMINATION_TIME
00000 suncat0036 pw.x -npool 4 -i  Done                     04/22/2018 01:21:18
00001 suncat0036 pw.x -npool 4 -i  Done                     04/22/2018 01:21:18
00002 suncat0036 pw.x -npool 4 -i  Done                     04/22/2018 01:21:18
00003 suncat0036 pw.x -npool 4 -i  Done                     04/22/2018 01:21:18
00004 suncat0036 pw.x -npool 4 -i  Done                     04/22/2018 01:21:18
00005 suncat0036 pw.x -npool 4 -i  Done                     04/22/2018 01:21:18
00006 suncat0036 pw.x -npool 4 -i  Done                     04/22/2018 01:21:18
00007 suncat0036 pw.x -npool 4 -i  Done                     04/22/2018 01:21:18
00008 suncat0130 pw.x -npool 4 -i  Done                     04/22/2018 01:21:18
00009 suncat0130 pw.x -npool 4 -i  Done                     04/22/2018 01:21:18
00010 suncat0130 pw.x -npool 4 -i  Done                     04/22/2018 01:21:18
00011 suncat0130 pw.x -npool 4 -i  Done                     04/22/2018 01:21:18
00012 suncat0130 pw.x -npool 4 -i  Done                     04/22/2018 01:21:18
00013 suncat0130 pw.x -npool 4 -i  Done                     04/22/2018 01:21:18
00014 suncat0130 pw.x -npool 4 -i  Done                     04/22/2018 01:21:18
00015 suncat0130 pw.x -npool 4 -i  Done                     04/22/2018 01:21:18
00016 suncat0100 pw.x -npool 4 -i  Done                     04/22/2018 01:21:18
00017 suncat0100 pw.x -npool 4 -i  Done                     04/22/2018 01:21:18
00018 suncat0100 pw.x -npool 4 -i  Done                     04/22/2018 01:21:18
00019 suncat0100 pw.x -npool 4 -i  Done                     04/22/2018 01:21:18
00020 suncat0100 pw.x -npool 4 -i  Done                     04/22/2018 01:21:18
00021 suncat0100 pw.x -npool 4 -i  Done                     04/22/2018 01:21:18
00022 suncat0100 pw.x -npool 4 -i  Done                     04/22/2018 01:21:18
00023 suncat0100 pw.x -npool 4 -i  Done                     04/22/2018 01:21:18
00024 suncat0277 pw.x -npool 4 -i  Done                     04/22/2018 01:21:18
00025 suncat0277 pw.x -npool 4 -i  Done                     04/22/2018 01:21:18
00026 suncat0277 pw.x -npool 4 -i  Done                     04/22/2018 01:21:18
00027 suncat0277 pw.x -npool 4 -i  Done                     04/22/2018 01:21:18
00028 suncat0277 pw.x -npool 4 -i  Done                     04/22/2018 01:21:18
00029 suncat0277 pw.x -npool 4 -i  Done                     04/22/2018 01:21:18
00030 suncat0277 pw.x -npool 4 -i  Done                     04/22/2018 01:21:18
00031 suncat0277 pw.x -npool 4 -i  Done                     04/22/2018 01:21:18