     Program PWSCF v.5.1rc2 (svn rev. ) starts on 16Apr2018 at 11:10:21

     Current dimensions of program PWSCF are:
     Max number of different atomic species (ntypx) = 10
     Max number of k-points (npk) =  40000
     Max angular momentum in pseudopotentials (lmaxx) =  3
     Presently stress not available with electric field

     IMPORTANT: XC functional enforced from input :
     Exchange-correlation      = BEEF-VDW ( 1  4 27 13 2)
     Any further DFT definition will be discarded
     Please, verify this is what you really want

     Subspace diagonalization in iterative solution of the eigenvalue problem:
     a serial algorithm will be used

     bravais-lattice index     =            0
     lattice parameter (alat)  =       1.8897  a.u.
     unit-cell volume          =    4650.5773 (a.u.)^3
     number of atoms/cell      =           14
     number of atomic types    =            3
     number of electrons       =        41.00
     number of Kohn-Sham states=           30
     kinetic-energy cutoff     =      36.7493  Ry
     charge density cutoff     =     367.4932  Ry
     convergence threshold     =      1.0E-05
     mixing beta               =       0.3000
     number of iterations used =           10  plain     mixing
     Exchange-correlation      = BEEF-VDW ( 1  4 27 13 2)
     nstep                     =           50

     celldm(1)=   1.889726  celldm(2)=   0.000000  celldm(3)=   0.000000
     celldm(4)=   0.000000  celldm(5)=   0.000000  celldm(6)=   0.000000

     crystal axes: (cart. coord. in units of alat)
               a(1) = (   5.682886   0.000000   0.000000 )
               a(2) = (   2.841443   4.921524   0.000000 )
               a(3) = (   0.000000   0.000000  24.640057 )

     reciprocal axes: (cart. coord. in units 2 pi/alat)
               b(1) = (  0.175967 -0.101595  0.000000 )
               b(2) = (  0.000000  0.203189  0.000000 )
               b(3) = (  0.000000  0.000000  0.040584 )

     PseudoPot. # 1 for Al read from file:
     /home/mamunm/src/pseudo/gbrv1.5pbe/Al.UPF
     MD5 check sum: 0a6289f5291fc8f409219462bc851e1f
     Pseudo is Ultrasoft + core correction, Zval =  3.0
     Generated by new atomic code, or converted to UPF format
     Using radial grid of  893 points,  3 beta functions with:
                l(1) =   0
                l(2) =   1
                l(3) =   2
     Q(r) pseudized with  8 coefficients,  rinner =    0.900   0.900   0.900
                                                       0.900   0.900

     PseudoPot. # 2 for C  read from file:
     /home/mamunm/src/pseudo/gbrv1.5pbe/C.UPF
     MD5 check sum: d1aef80898a10debaa0f26306b886e00
     Pseudo is Ultrasoft + core correction, Zval =  4.0
     Generated by new atomic code, or converted to UPF format
     Using radial grid of  721 points,  4 beta functions with:
                l(1) =   0
                l(2) =   0
                l(3) =   1
                l(4) =   1
     Q(r) pseudized with  8 coefficients,  rinner =    1.100   1.100   1.100

     PseudoPot. # 3 for H  read from file:
     /home/mamunm/src/pseudo/gbrv1.5pbe/H.UPF
     MD5 check sum: 761ae9a214b05c3daf00ab9f6b793d6f
     Pseudo is Ultrasoft, Zval =  1.0
     Generated by new atomic code, or converted to UPF format
     Using radial grid of  615 points,  2 beta functions with:
                l(1) =   0
                l(2) =   0
     Q(r) pseudized with  8 coefficients,  rinner =    0.700

     vdW kernel table read from file vdW_kernel_table
     MD5 check sum: 095c7af220d748ca6e76c0b4c6cfb241

     atomic species   valence    mass     pseudopotential
        Al1            3.00    26.98154     Al( 1.00)
        C1             4.00    12.01100     C ( 1.00)
        H1             1.00     1.00800     H ( 1.00)

     No symmetry found

   Cartesian axes

     site n.     atom                  positions (alat units)
         1           Al1 tau(   1) = (   1.4207216   0.8202540  10.0000000  )
         2           Al1 tau(   2) = (   4.2621647   0.8202540  10.0000000  )
         3           Al1 tau(   3) = (   2.8414431   3.2810159  10.0000000  )
         4           Al1 tau(   4) = (   5.6828862   3.2810159  10.0000000  )
         5           Al1 tau(   5) = (   5.6828862   1.6405079  12.3200286  )
         6           Al1 tau(   6) = (   2.8414431   1.6405079  12.3200286  )
         7           Al1 tau(   7) = (   7.1036078   4.1012699  12.3200286  )
         8           Al1 tau(   8) = (   4.2621647   4.1012699  12.3200286  )
         9           Al1 tau(   9) = (   0.0000000   0.0000000  14.6400572  )
        10           Al1 tau(  10) = (   2.8414431   0.0000000  14.6400572  )
        11           Al1 tau(  11) = (   1.4207216   2.4607619  14.6400572  )
        12           Al1 tau(  12) = (   4.2621647   2.4607619  14.6400572  )
        13           C1  tau(  13) = (   1.4207216   0.8202540  15.9205572  )
        14           H1  tau(  14) = (   1.4207216   0.8202540  17.0205572  )

     number of k points=    20  Fermi-Dirac smearing, width (Ry)=  0.0110
                       cart. coord. in units 2pi/alat
        k(    1) = (   0.0000000   0.0000000   0.0000000), wk =   0.0555556
        k(    2) = (   0.0000000   0.0338648   0.0000000), wk =   0.1111111
        k(    3) = (   0.0000000   0.0677297   0.0000000), wk =   0.1111111
        k(    4) = (   0.0000000  -0.1015945   0.0000000), wk =   0.0555556
        k(    5) = (   0.0293278  -0.0169324   0.0000000), wk =   0.1111111
        k(    6) = (   0.0293278   0.0169324   0.0000000), wk =   0.1111111
        k(    7) = (   0.0293278   0.0507973   0.0000000), wk =   0.1111111
        k(    8) = (   0.0293278  -0.1185270   0.0000000), wk =   0.1111111
        k(    9) = (   0.0293278  -0.0846621   0.0000000), wk =   0.1111111
        k(   10) = (   0.0293278  -0.0507973   0.0000000), wk =   0.1111111
        k(   11) = (   0.0586556  -0.0338648   0.0000000), wk =   0.1111111
        k(   12) = (   0.0586556   0.0000000   0.0000000), wk =   0.1111111
        k(   13) = (   0.0586556   0.0338648   0.0000000), wk =   0.1111111
        k(   14) = (   0.0586556  -0.1354594   0.0000000), wk =   0.1111111
        k(   15) = (   0.0586556  -0.1015945   0.0000000), wk =   0.1111111
        k(   16) = (   0.0586556  -0.0677297   0.0000000), wk =   0.1111111
        k(   17) = (  -0.0879835   0.0507973   0.0000000), wk =   0.0555556
        k(   18) = (  -0.0879835   0.0846621   0.0000000), wk =   0.1111111
        k(   19) = (  -0.0879835   0.1185270   0.0000000), wk =   0.1111111
        k(   20) = (  -0.0879835  -0.0507973   0.0000000), wk =   0.0555556

     Largest allocated arrays     est. size (Mb)     dimensions
     Largest temporary arrays     est. size (Mb)     dimensions

     Initial potential from superposition of free atoms
     Check: negative starting charge=   -0.000168

     starting charge   40.97037, renormalised to   41.00000

     negative rho (up, down):  1.686E-04 0.000E+00

     *
     * You are using vdW-DF for exchange-correlation in this calculation.
     * Please cite the following three references that made this development
     * possible:
     *
     *   M. Dion, H. Rydberg, E. Schroder, D. C. Langreth, and
     *   B. I. Lundqvist, Phys. Rev. Lett. 92, 246401 (2004).
     *
     *   T. Thonhauser, V. R. Cooper, S. Li, A. Puzder, P. Hyldgaard, and
     *   D. C. Langreth, Phys. Rev. B 76, 125112 (2007).
     *
     *   G. Roman-Perez and J. M. Soler, Phys. Rev. Lett. 103, 096102 (2009).
     *
     *
     * If you are using vdW-DF2, please also cite:
     *
     *   K. Lee, E. D. Murray, L. Kong, B. I. Lundqvist, and
     *   D. C. Langreth, Phys. Rev. B 82, 081101(R) (2010).
     *
     *
     * If you are calculating the stress with vdW-DF, please also cite:
     *
     *   R. Sabatini, E. Kucukbenli, B. Kolb, T. Thonhauser, and
     *   S. de Gironcoli, J. Phys.: Condens. Matter 24, 424209 (2012).
     *

     Carrying out vdW-DF run using the following parameters:

     Nqs =      20    Nr_points =    1024   r_max =   100.000
     q_mesh =
               0.00001000     0.04494208     0.09755937     0.15916263
               0.23128650     0.31572767     0.41458969     0.53033537
               0.66584808     0.82450364     1.01025438     1.22772762
               1.48234092     1.78043706     2.12944203     2.53805004
               3.01644009     3.57652955     4.23227104     5.00000000

     Gradients computed in reciprocal space

     Adding external electric field

     Computed dipole along edir(3) :
        Dipole               -0.0258 Ry au,         -0.0655 Debye
        Dipole field         -0.0001 Ry au

        Potential amp.        0.0063 Ry
        Total length         45.3989 bohr

     Starting wfc are   53 randomized atomic wfcs

     Self-consistent Calculation

     iteration #  1     ecut=    36.75 Ry     beta=0.30
     Davidson diagonalization with overlap
     ethr =  1.00E-02,  avg # of iterations =  3.0

[...]

     total energy              =     -94.56238741 Ry
     Harris-Foulkes estimate   =     -95.48745393 Ry
     estimated scf accuracy    <       2.13149228 Ry

[...]

     End of self-consistent calculation

          k = 0.0000 0.0000 0.0000 ( 17579 PWs)   bands (ev):

   -12.3141 -11.1109  -9.3388  -6.9794  -5.9845  -5.4852  -5.4852  -5.3651
    -5.3651  -5.3438  -4.8913  -4.3630  -4.3630  -3.8815  -3.6129  -3.4797
    -3.4797  -2.4750  -2.4750  -2.1220  -1.0037  -1.0037  -0.8679  -0.1280
     0.5428   0.5428   0.7832   1.9628   1.9629   1.9848

[...]

          k =-0.0880 0.0508 0.0000 ( 17464 PWs)   bands (ev):

[...]

     the Fermi energy is    -0.6583 ev

!    total energy              =     -95.14872568 Ry
     Harris-Foulkes estimate   =     -95.14872528 Ry
     estimated scf accuracy    <       0.00000618 Ry

     The total energy is the sum of the following terms:

     one-electron contribution =    -741.41747821 Ry
     hartree contribution      =     379.18476400 Ry
     xc contribution           =     -57.61738854 Ry
     ewald contribution        =     324.73244292 Ry
     electric field correction =       0.00002003 Ry
     smearing contrib. (-TS)   =      -0.03108587 Ry

     convergence has been achieved in  10 iterations

 BEEF-vdW xc energy contributions
           1 :   -47.3254061126438
           2 :    40.6678645532274
           3 :   -30.4682148925095
           4 :    20.7549183369224
           5 :   -14.0853101256429
           6 :    10.6055419054561
           7 :   -8.82402824989940
           8 :    7.20526061963111
           9 :   -5.28045480544457
          10 :    3.57732187478884
          11 :   -2.73642251851501
          12 :    2.75644538084949
          13 :   -3.01059652623859
          14 :    2.86731197605605
          15 :   -2.23136806626028
          16 :    1.51221312969061
          17 :   -1.13717003673315
          18 :    1.13193552169511
          19 :   -1.15645552465477
          20 :   0.892828959449545
          21 :  -0.360062340446994
          22 :  -0.139379647435995
          23 :   0.341479887878990
          24 :  -0.268385007808554
          25 :   0.171850732977980
          26 :  -0.262131534316573
          27 :   0.507624423700413
          28 :  -0.692615008364761
          29 :   0.650147496873792
          30 :  -0.427439842414451
          31 :   -7.07916662193895
          32 :   -5.17269708897035

     Forces acting on atoms (Ry/au):

     negative rho (up, down):  4.385E-04 0.000E+00
     atom    1 type  1   force =    -0.00000022    0.00000014   -0.00017753
     atom    2 type  1   force =     0.00000007   -0.00022372    0.00047907
     atom    3 type  1   force =    -0.00019361    0.00011153    0.00047956
     atom    4 type  1   force =     0.00019374    0.00011136    0.00047925
     atom    5 type  1   force =    -0.00036008    0.00020777    0.00540606
     atom    6 type  1   force =     0.00036033    0.00020772    0.00540560
     atom    7 type  1   force =     0.00000012    0.00000001   -0.00352081
     atom    8 type  1   force =    -0.00000009   -0.00041573    0.00540594
     atom    9 type  1   force =     0.00229135    0.00132276    0.03318288
     atom   10 type  1   force =    -0.00229116    0.00132284    0.03318263
     atom   11 type  1   force =    -0.00000010   -0.00264574    0.03318408
     atom   12 type  1   force =     0.00000013    0.00000008   -0.01555982
     atom   13 type  2   force =    -0.00000051    0.00000099   -0.08414581
     atom   14 type  3   force =     0.00000001   -0.00000001   -0.01380110

     Total force =     0.104103     Total SCF correction =     0.001940

     entering subroutine stress ...

     negative rho (up, down):  4.385E-04 0.000E+00
          total   stress  (Ry/bohr**3)                   (kbar)     P=   -8.17
  -0.00004745  -0.00000000   0.00000000         -6.98     -0.00      0.00
  -0.00000000  -0.00004745   0.00000000         -0.00     -6.98      0.00
   0.00000000   0.00000000  -0.00007180          0.00      0.00    -10.56

     BFGS Geometry Optimization

     number of scf cycles    =   1
     number of bfgs steps    =   0

     energy   new            =     -95.1487256752 Ry

     new trust radius        =       0.0841458087 bohr
     new conv_thr            =       0.0000099958 Ry

ATOMIC_POSITIONS (crystal)
Al1      0.166666667   0.166666667   0.405843214    0   0   0
Al1      0.666666667   0.166666667   0.405843214    0   0   0
Al1      0.166666667   0.666666667   0.405843214    0   0   0
Al1      0.666666667   0.666666667   0.405843214    0   0   0
Al1      0.833333333   0.333333333   0.500000000    0   0   0
Al1      0.333333333   0.333333333   0.500000000    0   0   0
Al1      0.833333333   0.833333333   0.500000000    0   0   0
Al1      0.333333333   0.833333333   0.500000000    0   0   0
Al1      0.000142252   0.000142227   0.594869431
Al1      0.499715535   0.000142236   0.594869426
Al1      0.000142230   0.499715522   0.594869457
Al1      0.500000008   0.500000008   0.593822619
C1       0.166666566   0.166666773   0.644317869
H1       0.166666669   0.166666665   0.690471366

     Writing output data file calc.save
     Check: negative starting charge=   -0.000168
     NEW-OLD atomic charge density approx. for the potential
     Check: negative starting charge=   -0.000168

[...]

     energy   old            =     -95.1487256752 Ry
     energy   new            =     -95.1566278482 Ry

     CASE: energy  _new < energy  _old

[...]

     Threshold (ethr) on eigenvalues was too large:
     Diagonalizing with lowered threshold

     Davidson diagonalization with overlap
     ethr =  7.91E-08,  avg # of iterations =  1.2

[...]

     number of scf cycles    =  17
     number of bfgs steps    =  16

     energy   old            =     -95.1784445828 Ry
     energy   new            =     -95.1784696938 Ry

     CASE: energy  _new < energy  _old

     new trust radius        =       0.0090944027 bohr
     new conv_thr            =       0.0000001000 Ry

ATOMIC_POSITIONS (crystal)
Al1      0.166666667   0.166666667   0.405843214    0   0   0
Al1      0.666666667   0.166666667   0.405843214    0   0   0
Al1      0.166666667   0.666666667   0.405843214    0   0   0
Al1      0.666666667   0.666666667   0.405843214    0   0   0
Al1      0.833333333   0.333333333   0.500000000    0   0   0
Al1      0.333333333   0.333333333   0.500000000    0   0   0
Al1      0.833333333   0.833333333   0.500000000    0   0   0
Al1      0.333333333   0.833333333   0.500000000    0   0   0
Al1     -0.006533326  -0.006533243   0.596629887
Al1      0.513066519  -0.006533243   0.596629890
Al1     -0.006533329   0.513066627   0.596629886
Al1      0.499999909   0.500000118   0.588931147
C1       0.166666644   0.166666687   0.636356414
H1       0.166666634   0.166666678   0.680716327

     Writing output data file calc.save
     Check: negative starting charge=   -0.000163
     NEW-OLD atomic charge density approx. for the potential
     Check: negative starting charge=   -0.000163

[...]

     Self-consistent Calculation

[...]

     Threshold (ethr) on eigenvalues was too large:
     Diagonalizing with lowered threshold

     Davidson diagonalization with overlap
     ethr =  5.50E-08,  avg # of iterations =  2.0

[...]

     total energy              =     -95.17848846 Ry
     Harris-Foulkes estimate   =     -95.17848839 Ry
     estimated scf accuracy    <       0.00000034 Ry

     iteration #  6     ecut=    36.75 Ry     beta=0.30
     Davidson diagonalization with overlap
     ethr =  8.25E-10,  avg # of iterations =  2.0

[...]

     negative rho (up, down):  4.684E-04 0.000E+00

     Adding external electric field

     Computed dipole along edir(3) :
        Dipole               -0.0186 Ry au,         -0.0474 Debye
        Dipole field         -0.0001 Ry au

        Potential amp.        0.0046 Ry
        Total length         45.3989 bohr

     End of self-consistent calculation

[...]

          k = 0.0587-0.0677 0.0000 ( 17495 PWs)   bands (ev):

[...]

          k =-0.0880-0.0508 0.0000 ( 17464 PWs)   bands (ev):

   -12.4266  -9.7745  -9.5603  -8.1712  -7.8400  -6.8618  -6.7868  -5.8984
    -5.6678  -5.4338  -5.2053  -3.4427  -3.4327  -3.1074  -2.4163  -1.5536
    -1.3825  -1.2801  -0.9418  -0.7330  -0.6277   0.0061   0.3871   0.6737
     0.9653   1.1396   1.3439   1.3646   2.2259   2.3305

     the Fermi energy is    -0.5916 ev

!    total energy              =     -95.17848850 Ry
     Harris-Foulkes estimate   =     -95.17848851 Ry
     estimated scf accuracy    <       0.00000007 Ry

     The total energy is the sum of the following terms:

     one-electron contribution =    -753.58732142 Ry
     hartree contribution      =     385.40571269 Ry
     xc contribution           =     -57.76813407 Ry
     ewald contribution        =     330.80072736 Ry
     electric field correction =       0.00000094 Ry
     smearing contrib. (-TS)   =      -0.02947399 Ry

     convergence has been achieved in   6 iterations

 BEEF-vdW xc energy contributions
           1 :   -47.4684504948142
           2 :    40.8124819720987
           3 :   -30.5916680553352
           4 :    20.8172243040185
           5 :   -14.0541594367699
           6 :    10.4761745489237
           7 :   -8.62383674998929
           8 :    6.98049663880762
           9 :   -5.07225953224605
          10 :    3.40235734977646
          11 :   -2.58533438244346
          12 :    2.61019506194145
          13 :   -2.85925734668893
          14 :    2.71538519788353
          15 :   -2.08802628571334
          16 :    1.37800145515637
          17 :   -1.00226852240330
          18 :   0.988787947717654
          19 :   -1.01206657720047
          20 :   0.766372618969307
          21 :  -0.267824410517278
          22 :  -0.195807154685333
          23 :   0.372203096077193
          24 :  -0.282210519894484
          25 :   0.168335627870619
          26 :  -0.237373035029876
          27 :   0.466621075967666
          28 :  -0.652722974511136
          29 :   0.629516962329859
          30 :  -0.429428945625546
          31 :   -7.08897899046484
          32 :   -5.17890548016411

     Forces acting on atoms (Ry/au):

     negative rho (up, down):  4.684E-04 0.000E+00
     atom    1 type  1   force =     0.00000000   -0.00000002   -0.00063214
     atom    2 type  1   force =    -0.00000000   -0.00082614    0.00092862
     atom    3 type  1   force =    -0.00071544    0.00041306    0.00092864
     atom    4 type  1   force =     0.00071545    0.00041306    0.00092863
     atom    5 type  1   force =     0.00470501   -0.00271643    0.00022227
     atom    6 type  1   force =    -0.00470502   -0.00271644    0.00022226
     atom    7 type  1   force =    -0.00000001    0.00000001   -0.00252602
     atom    8 type  1   force =     0.00000000    0.00543291    0.00022225
     atom    9 type  1   force =    -0.00017713   -0.00010221   -0.00016640
     atom   10 type  1   force =     0.00017717   -0.00010225   -0.00016645
     atom   11 type  1   force =    -0.00000001    0.00020444   -0.00016638
     atom   12 type  1   force =     0.00000001   -0.00000009   -0.00013187
     atom   13 type  2   force =    -0.00000004    0.00000009   -0.00123834
     atom   14 type  3   force =     0.00000000    0.00000001    0.00157492

     Total force =     0.002059     Total SCF correction =     0.000120

     entering subroutine stress ...

     negative rho (up, down):  4.684E-04 0.000E+00
          total   stress  (Ry/bohr**3)                   (kbar)     P=   -2.26
  -0.00002217  -0.00000000  -0.00000000         -3.26     -0.00     -0.00
  -0.00000000  -0.00002217   0.00000000         -0.00     -3.26      0.00
  -0.00000000   0.00000000  -0.00000175         -0.00      0.00     -0.26

     bfgs converged in  18 scf cycles and  17 bfgs steps
     (criteria: energy <  1.0E+00, force <  1.9E-03)

     End of BFGS Geometry Optimization

     Final energy   =     -95.1784884952 Ry
Begin final coordinates

ATOMIC_POSITIONS (crystal)
Al1      0.166666667   0.166666667   0.405843214    0   0   0
Al1      0.666666667   0.166666667   0.405843214    0   0   0
Al1      0.166666667   0.666666667   0.405843214    0   0   0
Al1      0.666666667   0.666666667   0.405843214    0   0   0
Al1      0.833333333   0.333333333   0.500000000    0   0   0
Al1      0.333333333   0.333333333   0.500000000    0   0   0
Al1      0.833333333   0.833333333   0.500000000    0   0   0
Al1      0.333333333   0.833333333   0.500000000    0   0   0
Al1     -0.006533326  -0.006533243   0.596629887
Al1      0.513066519  -0.006533243   0.596629890
Al1     -0.006533329   0.513066627   0.596629886
Al1      0.499999909   0.500000118   0.588931147
C1       0.166666644   0.166666687   0.636356414
H1       0.166666634   0.166666678   0.680716327
End final coordinates

     Writing output data file calc.save

     General routines

     Parallel routines

   This run was terminated on:  11:28:34  16Apr2018

   JOB DONE.