     Program PWSCF v.5.1rc2 (svn rev. 11289) starts on  2May2018 at 12:49:56

     Current dimensions of program PWSCF are:
     Max number of different atomic species (ntypx) = 10
     Max number of k-points (npk) =  40000
     Max angular momentum in pseudopotentials (lmaxx) =  3
     Presently stress not available with electric field

     IMPORTANT: XC functional enforced from input :
     Exchange-correlation      = BEEF-VDW ( 1  4 27 13 2)
     Any further DFT definition will be discarded
     Please, verify this is what you really want

     Subspace diagonalization in iterative solution of the eigenvalue problem:
     a serial algorithm will be used

     bravais-lattice index     =            0
     lattice parameter (alat)  =       1.8897  a.u.
     unit-cell volume          =    3807.2308 (a.u.)^3
     number of atoms/cell      =           13
     number of atomic types    =            2
     number of electrons       =       234.00
     number of Kohn-Sham states=          127
     kinetic-energy cutoff     =      36.7493  Ry
     charge density cutoff     =     367.4932  Ry
     convergence threshold     =      1.0E-05
     mixing beta               =       0.3000
     number of iterations used =           10  plain     mixing
     Exchange-correlation      = BEEF-VDW ( 1  4 27 13 2)
     nstep                     =           50

     celldm(1)=   1.889726  celldm(2)=   0.000000  celldm(3)=   0.000000
     celldm(4)=   0.000000  celldm(5)=   0.000000  celldm(6)=   0.000000

     crystal axes: (cart. coord. in units of alat)
               a(1) = (   5.184823   0.000000   0.000000 )
               a(2) = (   2.592411   4.490188   0.000000 )
               a(3) = (   0.000000   0.000000  24.233390 )

     reciprocal axes: (cart. coord. in units 2 pi/alat)
               b(1) = (  0.192871 -0.111354  0.000000 )
               b(2) = (  0.000000  0.222708  0.000000 )
               b(3) = (  0.000000  0.000000  0.041265 )

     PseudoPot. # 1 for Cu read from file:
     /u/if/mamunm/psp/gbrv1.5pbe/Cu.UPF
     MD5 check sum: 6e991ff952a84172a2a52a1c1e996048
     Pseudo is Ultrasoft + core correction, Zval = 19.0
     Generated by new atomic code, or converted to UPF format
     Using radial grid of  867 points,  6 beta functions with:
                l(1) =   0
                l(2) =   0
                l(3) =   1
                l(4) =   1
                l(5) =   2
                l(6) =   2
     Q(r) pseudized with  8 coefficients,  rinner =    1.150   1.150   1.150
                                                       1.150   1.150

     PseudoPot. # 2 for S  read from file:
     /u/if/mamunm/psp/gbrv1.5pbe/S.UPF
     MD5 check sum: 88d86576ff6df21479756cfb9bdac1df
     Pseudo is Ultrasoft + core correction, Zval =  6.0
     Generated by new atomic code, or converted to UPF format
     Using radial grid of  907 points,  6 beta functions with:
                l(1) =   0
                l(2) =   0
                l(3) =   1
                l(4) =   1
                l(5) =   2
                l(6) =   2
     Q(r) pseudized with  8 coefficients,  rinner =    1.300   1.300   1.300
                                                       1.300   1.300

     vdW kernel table read from file vdW_kernel_table
     MD5 check sum: 095c7af220d748ca6e76c0b4c6cfb241

     atomic species   valence    mass     pseudopotential
        Cu1           19.00    63.54600     Cu( 1.00)
        S1             6.00    32.06000     S ( 1.00)

     No symmetry found

   Cartesian axes

     site n.     atom                  positions (alat units)
         1           Cu1 tau(   1) = (   1.2962057   0.7483647  10.0000000  )
         2           Cu1 tau(   2) = (   3.8886170   0.7483647  10.0000000  )
         3           Cu1 tau(   3) = (   2.5924113   2.9934587  10.0000000  )
         4           Cu1 tau(   4) = (   5.1848226   2.9934587  10.0000000  )
         5           Cu1 tau(   5) = (   5.1848226   1.4967294  12.1166950  )
         6           Cu1 tau(   6) = (   2.5924113   1.4967294  12.1166950  )
         7           Cu1 tau(   7) = (   6.4810283   3.7418234  12.1166950  )
         8           Cu1 tau(   8) = (   3.8886170   3.7418234  12.1166950  )
         9           Cu1 tau(   9) = (   0.0000000   0.0000000  14.2333899  )
        10           Cu1 tau(  10) = (   2.5924113   0.0000000  14.2333899  )
        11           Cu1 tau(  11) = (   1.2962057   2.2450940  14.2333899  )
        12           Cu1 tau(  12) = (   3.8886170   2.2450940  14.2333899  )
        13           S1  tau(  13) = (   2.5924113   1.4967294  15.7738899  )

     number of k points=    20  Fermi-Dirac smearing, width (Ry)=  0.0110
                       cart. coord. in units 2pi/alat
        k(    1) = (   0.0000000   0.0000000   0.0000000), wk =   0.0555556
        k(    2) = (   0.0000000   0.0371180   0.0000000), wk =   0.1111111
        k(    3) = (   0.0000000   0.0742359   0.0000000), wk =   0.1111111
        k(    4) = (   0.0000000  -0.1113539   0.0000000), wk =   0.0555556
        k(    5) = (   0.0321451  -0.0185590   0.0000000), wk =   0.1111111
        k(    6) = (   0.0321451   0.0185590   0.0000000), wk =   0.1111111
        k(    7) = (   0.0321451   0.0556770   0.0000000), wk =   0.1111111
        k(    8) = (   0.0321451  -0.1299129   0.0000000), wk =   0.1111111
        k(    9) = (   0.0321451  -0.0927949   0.0000000), wk =   0.1111111
        k(   10) = (   0.0321451  -0.0556770   0.0000000), wk =   0.1111111
        k(   11) = (   0.0642902  -0.0371180   0.0000000), wk =   0.1111111
        k(   12) = (   0.0642902  -0.0000000   0.0000000), wk =   0.1111111
        k(   13) = (   0.0642902   0.0371180   0.0000000), wk =   0.1111111
        k(   14) = (   0.0642902  -0.1484719   0.0000000), wk =   0.1111111
        k(   15) = (   0.0642902  -0.1113539   0.0000000), wk =   0.1111111
        k(   16) = (   0.0642902  -0.0742359   0.0000000), wk =   0.1111111
        k(   17) = (  -0.0964353   0.0556770   0.0000000), wk =   0.0555556
        k(   18) = (  -0.0964353   0.0927949   0.0000000), wk =   0.1111111
        k(   19) = (  -0.0964353   0.1299129   0.0000000), wk =   0.1111111
        k(   20) = (  -0.0964353  -0.0556770   0.0000000), wk =   0.0555556

     Largest allocated arrays     est. size (Mb)     dimensions
     Largest temporary arrays     est. size (Mb)     dimensions

     Initial potential from superposition of free atoms
     Check: negative starting charge=   -0.000109

     starting charge  221.99994, renormalised to  234.00000

     negative rho (up, down):  1.144E-04 0.000E+00

     *
     * You are using vdW-DF for exchange-correlation in this calculation.
     * Please cite the following three references that made this development
     * possible:
     *
     *   M. Dion, H. Rydberg, E. Schroder, D. C. Langreth, and
     *   B. I. Lundqvist, Phys. Rev. Lett. 92, 246401 (2004).
     *
     *   T. Thonhauser, V. R. Cooper, S. Li, A. Puzder, P. Hyldgaard, and
     *   D. C. Langreth, Phys. Rev. B 76, 125112 (2007).
     *
     *   G. Roman-Perez and J. M. Soler, Phys. Rev. Lett. 103, 096102 (2009).
     *
     *
     * If you are using vdW-DF2, please also cite:
     *
     *   K. Lee, E. D. Murray, L. Kong, B. I. Lundqvist, and
     *   D. C. Langreth, Phys. Rev. B 82, 081101(R) (2010).
     *
     *
     * If you are calculating the stress with vdW-DF, please also cite:
     *
     *   R. Sabatini, E. Kucukbenli, B. Kolb, T. Thonhauser, and
     *   S. de Gironcoli, J. Phys.: Condens. Matter 24, 424209 (2012).
     *

     Carrying out vdW-DF run using the following parameters:

     Nqs =      20    Nr_points =    1024   r_max =   100.000
     q_mesh =
               0.00001000     0.04494208     0.09755937     0.15916263
               0.23128650     0.31572767     0.41458969     0.53033537
               0.66584808     0.82450364     1.01025438     1.22772762
               1.48234092     1.78043706     2.12944203     2.53805004
               3.01644009     3.57652955     4.23227104     5.00000000

     Gradients computed in reciprocal space

     Adding external electric field

     Computed dipole along edir(3) :
        Dipole               -2.2412 Ry au,         -5.6965 Debye
        Dipole field         -0.0074 Ry au

        Potential amp.        0.6606 Ry
        Total length         44.6496 bohr

     Starting wfc are  160 randomized atomic wfcs

     Self-consistent Calculation

     iteration #  1     ecut=    36.75 Ry     beta=0.30
     Davidson diagonalization with overlap
     ethr =  1.00E-02,  avg # of iterations =  8.3

[...]

     total energy              =   -4559.87749896 Ry
     Harris-Foulkes estimate   =   -4881.77832196 Ry
     estimated scf accuracy    <     678.24110548 Ry

[...]

     End of self-consistent calculation

          k = 0.0000 0.0000 0.0000 ( 14321 PWs)   bands (ev):

  -112.3761-112.3705-112.3704-112.1981-112.1924-112.1924-112.1121-111.9243
  -111.9172-111.9140-111.9123-111.8205 -69.8719 -69.8376 -69.8375 -69.7581
   -69.7580 -69.7332 -69.7245 -69.6947 -69.6945 -69.6185 -69.6183 -69.6183
   -69.5920 -69.5854 -69.5854 -69.5835 -69.5585 -69.5584 -69.5115 -69.5023
   -69.5023 -69.3765 -69.3758 -69.3724 -69.3256 -69.3250 -69.3211 -69.3059
   -69.3057 -69.2743 -69.2682 -69.2671 -69.2656 -69.2513 -69.2513 -69.1842
   -12.8204  -7.8016  -5.9098  -4.7346  -4.5675  -4.5675  -4.3759  -4.1716
    -4.0717  -4.0717  -3.8139  -3.8138  -3.7780  -3.6147  -3.5901  -3.5899
    -3.3761  -3.3760  -3.2490  -2.9373  -2.9371  -2.7668  -2.6444  -2.6444
    -2.6301  -2.4869  -2.4868  -2.4765  -2.4765  -2.4638  -2.4249  -2.3267
    -2.3266  -2.2386  -2.2386  -2.1026  -2.0177  -2.0175  -2.0173  -1.8840
    -1.8312  -1.8311  -1.7031  -1.7028  -1.5723  -1.5723  -1.4959  -1.4953
    -1.3944  -1.3625  -1.3332  -1.3327  -1.2929  -1.2674  -1.2673  -1.2301
    -1.2301  -1.2121  -1.1656  -1.1598  -1.1598  -0.9851  -0.9843  -0.9823
    -0.5921  -0.5920  -0.5592   0.5536   0.5536   0.6396   1.0887   1.6432
     1.6432   1.8639   1.9858   1.9858   3.8965   4.4142   4.6812

[...]

          k =-0.0964 0.0557 0.0000 ( 14294 PWs)   bands (ev):

[...]

     the Fermi energy is     0.4283 ev

!    total energy              =   -4883.71229782 Ry
     Harris-Foulkes estimate   =   -4883.71228966 Ry
     estimated scf accuracy    <       0.00000204 Ry

     The total energy is the sum of the following terms:

     one-electron contribution =  -37877.88311293 Ry
     hartree contribution      =   18954.64656817 Ry
     xc contribution           =    -488.95375108 Ry
     ewald contribution        =   14528.50586371 Ry
     electric field correction =       0.00009903 Ry
     smearing contrib. (-TS)   =      -0.02796471 Ry

     convergence has been achieved in  35 iterations

 BEEF-vdW xc energy contributions
           1 :   -433.105519987765
           2 :    392.569128661933
           3 :   -323.839926618507
           4 :    245.749810284487
           5 :   -175.518423808581
           6 :    122.613201447028
           7 :   -87.2112815906070
           8 :    63.2672123201335
           9 :   -43.7900402518709
          10 :    25.0837382881552
          11 :   -7.82504609422108
          12 :   -4.95418514925410
          13 :    11.0540219960476
          14 :   -11.1444743177581
          15 :    8.45752835516379
          16 :   -6.67156144486910
          17 :    7.65651333771586
          18 :   -10.6365044353698
          19 :    13.1905660567390
          20 :   -13.2303779552254
          21 :    10.5173489737577
          22 :   -6.73053934232166
          23 :    4.17212446142105
          24 :   -4.12627505269023
          25 :    6.03943202253828
          26 :   -8.03481626723385
          27 :    8.31455591578685
          28 :   -6.41998272626722
          29 :    3.48036894684333
          30 :   -1.33369358015193
          31 :   -34.7619558699487
          32 :   -23.7691649973706

     Forces acting on atoms (Ry/au):

     negative rho (up, down):  1.012E-03 0.000E+00
     atom    1 type  1   force =    -0.00010789   -0.00010787    0.00094367
     atom    2 type  1   force =     0.00008662   -0.00009277    0.00151178
     atom    3 type  1   force =    -0.00000473    0.00016024    0.00145380
     atom    4 type  1   force =     0.00001988    0.00002690   -0.00203694
     atom    5 type  1   force =    -0.00012930    0.00296308    0.00295824
     atom    6 type  1   force =     0.00013981   -0.00026278   -0.01208794
     atom    7 type  1   force =    -0.00278971   -0.00129070    0.00320960
     atom    8 type  1   force =     0.00277449   -0.00138812    0.00320474
     atom    9 type  1   force =    -0.00002556   -0.00001919   -0.00698225
     atom   10 type  1   force =     0.00001793   -0.03537204   -0.01954122
     atom   11 type  1   force =    -0.03062689    0.01769305   -0.01951674
     atom   12 type  1   force =     0.03065064    0.01769472   -0.01965047
     atom   13 type  2   force =    -0.00000531   -0.00000453    0.06653373

     Total force =     0.096846     Total SCF correction =     0.002015

     entering subroutine stress ...

     negative rho (up, down):  1.012E-03 0.000E+00
          total   stress  (Ry/bohr**3)                   (kbar)     P=  -12.10
  -0.00010294   0.00000001  -0.00000001        -15.14      0.00     -0.00
   0.00000001  -0.00010293  -0.00000000          0.00    -15.14     -0.00
  -0.00000001  -0.00000000  -0.00004080         -0.00     -0.00     -6.00

     BFGS Geometry Optimization

     number of scf cycles    =   1
     number of bfgs steps    =   0

     energy   new            =   -4883.7122978197 Ry

     new trust radius        =       0.0665337350 bohr
     new conv_thr            =       0.0000099958 Ry

ATOMIC_POSITIONS (crystal)
Cu1      0.166666667   0.166666667   0.412653782    0   0   0
Cu1      0.666666667   0.166666667   0.412653782    0   0   0
Cu1      0.166666667   0.666666667   0.412653782    0   0   0
Cu1      0.666666667   0.666666667   0.412653782    0   0   0
Cu1      0.833333333   0.333333333   0.500000000    0   0   0
Cu1      0.333333333   0.333333333   0.500000000    0   0   0
Cu1      0.833333333   0.833333333   0.500000000    0   0   0
Cu1      0.333333333   0.833333333   0.500000000    0   0   0
Cu1     -0.000001478  -0.000002262   0.587193749
Cu1      0.502086161  -0.004168662   0.586919502
Cu1     -0.004168444   0.502085160   0.586920037
Cu1      0.502085611   0.502085356   0.586917117
S1       0.333333059   0.333332800   0.652368410

     Writing output data file calc.save
     Check: negative starting charge=   -0.000109
     NEW-OLD atomic charge density approx. for the potential
     Check: negative starting charge=   -0.000107

[...]

     Total force =     0.042139     Total SCF correction =     0.009409
     SCF correction compared to forces is large: reduce conv_thr to get better values

[...]

     energy   old            =   -4883.7122978197 Ry
     energy   new            =   -4883.7190161810 Ry

     CASE: energy  _new < energy  _old

[...]

     Total force =     0.005692     Total SCF correction =     0.000213

[...]

     Threshold (ethr) on eigenvalues was too large:
     Diagonalizing with lowered threshold

     Davidson diagonalization with overlap
     ethr =  4.25E-08,  avg # of iterations =  1.0

[...]

     WARNING: bfgs curvature condition failed, Theta= 0.842
     new trust radius        =       0.0097129938 bohr
     new conv_thr            =       0.0000001000 Ry

[...]

     number of scf cycles    =   7
     number of bfgs steps    =   6

     energy   old            =   -4883.7211205622 Ry
     energy   new            =   -4883.7211776907 Ry

     CASE: energy  _new < energy  _old

     new trust radius        =       0.0145694907 bohr
     new conv_thr            =       0.0000001000 Ry

ATOMIC_POSITIONS (crystal)
Cu1      0.166666667   0.166666667   0.412653782    0   0   0
Cu1      0.666666667   0.166666667   0.412653782    0   0   0
Cu1      0.166666667   0.666666667   0.412653782    0   0   0
Cu1      0.666666667   0.666666667   0.412653782    0   0   0
Cu1      0.833333333   0.333333333   0.500000000    0   0   0
Cu1      0.333333333   0.333333333   0.500000000    0   0   0
Cu1      0.833333333   0.833333333   0.500000000    0   0   0
Cu1      0.333333333   0.833333333   0.500000000    0   0   0
Cu1      0.000000361   0.000001165   0.585850539
Cu1      0.504257163  -0.008517894   0.587149475
Cu1     -0.008515387   0.504255152   0.587148776
Cu1      0.504260581   0.504259671   0.587149549
S1       0.333336782   0.333332330   0.654260226

     Writing output data file calc.save
     Check: negative starting charge=   -0.000107
     NEW-OLD atomic charge density approx. for the potential
     Check: negative starting charge=   -0.000108

[...]

     Self-consistent Calculation

[...]

     total energy              =   -4883.72123389 Ry
     Harris-Foulkes estimate   =   -4883.72123374 Ry
     estimated scf accuracy    <       0.00000029 Ry

     iteration #  9     ecut=    36.75 Ry     beta=0.30
     Davidson diagonalization with overlap
     ethr =  1.24E-10,  avg # of iterations =  2.0

[...]

     negative rho (up, down):  1.016E-03 0.000E+00

     Adding external electric field

     Computed dipole along edir(3) :
        Dipole               -0.2096 Ry au,         -0.5328 Debye
        Dipole field         -0.0007 Ry au

        Potential amp.        0.0618 Ry
        Total length         44.6496 bohr

     End of self-consistent calculation

[...]

          k = 0.0643-0.0742 0.0000 ( 14299 PWs)   bands (ev):

[...]

          k =-0.0964-0.0557 0.0000 ( 14294 PWs)   bands (ev):

  -112.3156-112.3127-112.3111-112.2750-112.2732-112.2714-112.1684-111.9971
  -111.9910-111.9887-111.9873-111.8818 -69.7781 -69.7610 -69.7512 -69.7116
   -69.7064 -69.6955 -69.6914 -69.6801 -69.6787 -69.6736 -69.6718 -69.6687
   -69.6647 -69.6624 -69.6563 -69.6557 -69.6466 -69.6391 -69.5684 -69.5634
   -69.5634 -69.4384 -69.4334 -69.4197 -69.4118 -69.4098 -69.4078 -69.3904
   -69.3866 -69.3466 -69.3443 -69.3418 -69.3409 -69.3122 -69.3108 -69.2473
   -12.3362  -6.2501  -6.1220  -4.8324  -4.6364  -4.0714  -4.0544  -3.8915
    -3.7973  -3.7392  -3.7075  -3.5778  -3.4983  -3.3970  -3.3580  -3.3192
    -3.1965  -3.1939  -3.1197  -3.0833  -2.9694  -2.9527  -2.9157  -2.8833
    -2.8422  -2.8300  -2.6938  -2.6397  -2.5639  -2.5346  -2.5265  -2.4618
    -2.4345  -2.3993  -2.3388  -2.3259  -2.3200  -2.3116  -2.2718  -2.2541
    -2.2358  -2.2083  -2.0595  -2.0475  -2.0009  -1.9646  -1.9258  -1.9140
    -1.8782  -1.8227  -1.8074  -1.7442  -1.6893  -1.6662  -1.6645  -1.6216
    -1.5963  -1.5574  -1.4368  -1.4231  -1.3357  -1.3256  -1.3113  -1.2484
    -1.2029  -0.7004  -0.6402  -0.1609   0.3618   0.3759   1.1062   1.5121
     1.8246   2.4681   3.5278   4.1646   4.4718   5.6366   5.9713

     the Fermi energy is     0.3555 ev

!    total energy              =   -4883.72123392 Ry
     Harris-Foulkes estimate   =   -4883.72123335 Ry
     estimated scf accuracy    <       0.00000006 Ry

     The total energy is the sum of the following terms:

     one-electron contribution =  -37891.54231333 Ry
     hartree contribution      =   18961.20605361 Ry
     xc contribution           =    -488.89560588 Ry
     ewald contribution        =   14535.53880342 Ry
     electric field correction =       0.00014505 Ry
     smearing contrib. (-TS)   =      -0.02831680 Ry

     convergence has been achieved in   9 iterations

 BEEF-vdW xc energy contributions
           1 :   -433.043658935855
           2 :    392.477030469148
           3 :   -323.711354656714
           4 :    245.606155144628
           5 :   -175.392909914685
           6 :    122.529306959750
           7 :   -87.1690131777852
           8 :    63.2455211550486
           9 :   -43.7630619403962
          10 :    25.0395721726314
          11 :   -7.77441275812828
          12 :   -4.98483190721731
          13 :    11.0400628012028
          14 :   -11.0796100099618
          15 :    8.35837146397785
          16 :   -6.56806008471563
          17 :    7.57537440010731
          18 :   -10.5880892866754
          19 :    13.1667669859364
          20 :   -13.2138743771019
          21 :    10.4952470138201
          22 :   -6.70317691528828
          23 :    4.15175156488692
          24 :   -4.12747444653274
          25 :    6.06824395394233
          26 :   -8.08389752907311
          27 :    8.36688248374656
          28 :   -6.45819892582756
          29 :    3.49619203620955
          30 :   -1.33191933557885
          31 :   -34.7575908661292
          32 :   -23.7577988226933

     Forces acting on atoms (Ry/au):

     negative rho (up, down):  1.016E-03 0.000E+00
     atom    1 type  1   force =     0.00004100    0.00002362    0.00314085
     atom    2 type  1   force =    -0.00004105    0.00002360    0.00314125
     atom    3 type  1   force =    -0.00000001   -0.00004730    0.00314102
     atom    4 type  1   force =     0.00000001    0.00000003   -0.00057107
     atom    5 type  1   force =    -0.00000109    0.00336812   -0.00036336
     atom    6 type  1   force =     0.00000141   -0.00000013   -0.00863226
     atom    7 type  1   force =    -0.00291696   -0.00168346   -0.00036143
     atom    8 type  1   force =     0.00291680   -0.00168463   -0.00036220
     atom    9 type  1   force =    -0.00000380   -0.00000324   -0.00105644
     atom   10 type  1   force =     0.00000472    0.00090282    0.00047504
     atom   11 type  1   force =     0.00078615   -0.00044763    0.00048031
     atom   12 type  1   force =    -0.00078593   -0.00045319    0.00047508
     atom   13 type  2   force =    -0.00000125    0.00000138    0.00049321

     Total force =     0.002121     Total SCF correction =     0.000877
     SCF correction compared to forces is large: reduce conv_thr to get better values

     entering subroutine stress ...

     negative rho (up, down):  1.016E-03 0.000E+00
          total   stress  (Ry/bohr**3)                   (kbar)     P=  -17.76
  -0.00013327   0.00000000  -0.00000000        -19.60      0.00     -0.00
   0.00000000  -0.00013327   0.00000000          0.00    -19.60      0.00
  -0.00000000   0.00000000  -0.00009573         -0.00      0.00    -14.08

     bfgs converged in   8 scf cycles and   7 bfgs steps
     (criteria: energy <  1.0E+00, force <  1.9E-03)

     End of BFGS Geometry Optimization

     Final energy   =   -4883.7212339225 Ry
Begin final coordinates

ATOMIC_POSITIONS (crystal)
Cu1      0.166666667   0.166666667   0.412653782    0   0   0
Cu1      0.666666667   0.166666667   0.412653782    0   0   0
Cu1      0.166666667   0.666666667   0.412653782    0   0   0
Cu1      0.666666667   0.666666667   0.412653782    0   0   0
Cu1      0.833333333   0.333333333   0.500000000    0   0   0
Cu1      0.333333333   0.333333333   0.500000000    0   0   0
Cu1      0.833333333   0.833333333   0.500000000    0   0   0
Cu1      0.333333333   0.833333333   0.500000000    0   0   0
Cu1      0.000000361   0.000001165   0.585850539
Cu1      0.504257163  -0.008517894   0.587149475
Cu1     -0.008515387   0.504255152   0.587148776
Cu1      0.504260581   0.504259671   0.587149549
S1       0.333336782   0.333332330   0.654260226
End final coordinates

     Writing output data file calc.save

     General routines

     Parallel routines

   This run was terminated on:  13:33: 6   2May2018

   JOB DONE.
Job  /afs/slac/g/suncat/bin/suncat-tsmpirun -x LD_LIBRARY_PATH -wdir /scratch/qe633032_0hgTd pw.x -npool 4 -in pw.inp

TID   HOST_NAME   COMMAND_LINE            STATUS            TERMINATION_TIME
00000 suncat0055 pw.x -npool 4 -i  Done                     05/02/2018 13:33:06
00001 suncat0055 pw.x -npool 4 -i  Done                     05/02/2018 13:33:06
00002 suncat0055 pw.x -npool 4 -i  Done                     05/02/2018 13:33:06
00003 suncat0055 pw.x -npool 4 -i  Done                     05/02/2018 13:33:06
00004 suncat0055 pw.x -npool 4 -i  Done                     05/02/2018 13:33:06
00005 suncat0055 pw.x -npool 4 -i  Done                     05/02/2018 13:33:06
00006 suncat0055 pw.x -npool 4 -i  Done                     05/02/2018 13:33:06
00007 suncat0055 pw.x -npool 4 -i  Done                     05/02/2018 13:33:06
00008 suncat0049 pw.x -npool 4 -i  Done                     05/02/2018 13:33:06
00009 suncat0049 pw.x -npool 4 -i  Done                     05/02/2018 13:33:06
00010 suncat0049 pw.x -npool 4 -i  Done                     05/02/2018 13:33:06
00011 suncat0049 pw.x -npool 4 -i  Done                     05/02/2018 13:33:06
00012 suncat0049 pw.x -npool 4 -i  Done                     05/02/2018 13:33:06
00013 suncat0049 pw.x -npool 4 -i  Done                     05/02/2018 13:33:06
00014 suncat0049 pw.x -npool 4 -i  Done                     05/02/2018 13:33:06
00015 suncat0049 pw.x -npool 4 -i  Done                     05/02/2018 13:33:06
00016 suncat0194 pw.x -npool 4 -i  Done                     05/02/2018 13:33:06
00017 suncat0194 pw.x -npool 4 -i  Done                     05/02/2018 13:33:06
00018 suncat0194 pw.x -npool 4 -i  Done                     05/02/2018 13:33:06
00019 suncat0194 pw.x -npool 4 -i  Done                     05/02/2018 13:33:06
00020 suncat0194 pw.x -npool 4 -i  Done                     05/02/2018 13:33:06
00021 suncat0194 pw.x -npool 4 -i  Done                     05/02/2018 13:33:06
00022 suncat0194 pw.x -npool 4 -i  Done                     05/02/2018 13:33:06
00023 suncat0194 pw.x -npool 4 -i  Done                     05/02/2018 13:33:06
00024 suncat0188 pw.x -npool 4 -i  Done                     05/02/2018 13:33:06
00025 suncat0188 pw.x -npool 4 -i  Done                     05/02/2018 13:33:06
00026 suncat0188 pw.x -npool 4 -i  Done                     05/02/2018 13:33:06
00027 suncat0188 pw.x -npool 4 -i  Done                     05/02/2018 13:33:06
00028 suncat0188 pw.x -npool 4 -i  Done                     05/02/2018 13:33:06
00029 suncat0188 pw.x -npool 4 -i  Done                     05/02/2018 13:33:06
00030 suncat0188 pw.x -npool 4 -i  Done                     05/02/2018 13:33:06
00031 suncat0188 pw.x -npool 4 -i  Done                     05/02/2018 13:33:06