     Program PWSCF v.5.1rc2 (svn rev. 11289) starts on 24Apr2018 at  5:21: 6

     Current dimensions of program PWSCF are:
     Max number of different atomic species (ntypx) = 10
     Max number of k-points (npk) =  40000
     Max angular momentum in pseudopotentials (lmaxx) =  3
     Presently stress not available with electric field

     IMPORTANT: XC functional enforced from input :
     Exchange-correlation      = BEEF-VDW ( 1  4 27 13 2)
     Any further DFT definition will be discarded
     Please, verify this is what you really want

     Subspace diagonalization in iterative solution of the eigenvalue problem:
     a serial algorithm will be used

     bravais-lattice index     =            0
     lattice parameter (alat)  =       1.8897  a.u.
     unit-cell volume          =    6655.4371 (a.u.)^3
     number of atoms/cell      =           14
     number of atomic types    =            3
     number of electrons       =       163.00
     number of Kohn-Sham states=           91
     kinetic-energy cutoff     =      36.7493  Ry
     charge density cutoff     =     367.4932  Ry
     convergence threshold     =      1.0E-05
     mixing beta               =       0.3000
     number of iterations used =           10  plain     mixing
     Exchange-correlation      = BEEF-VDW ( 1  4 27 13 2)
     nstep                     =           50

     celldm(1)=   1.889726  celldm(2)=   0.000000  celldm(3)=   0.000000
     celldm(4)=   0.000000  celldm(5)=   0.000000  celldm(6)=   0.000000

     crystal axes: (cart. coord. in units of alat)
               a(1) = (   6.687903   0.000000   0.000000 )
               a(2) = (   3.343951   5.791894   0.000000 )
               a(3) = (   0.000000   0.000000  25.460650 )

     reciprocal axes: (cart. coord. in units 2 pi/alat)
               b(1) = (  0.149524 -0.086328  0.000000 )
               b(2) = (  0.000000  0.172655  0.000000 )
               b(3) = (  0.000000  0.000000  0.039276 )

     PseudoPot. # 1 for Tl read from file:
     /u/if/mamunm/psp/gbrv1.5pbe/Tl.UPF
     MD5 check sum: b76cf1f7e72655a2b2c53cf6385d7059
     Pseudo is Ultrasoft + core correction, Zval = 13.0
     Generated by new atomic code, or converted to UPF format
     Using radial grid of  899 points,  6 beta functions with:
                l(1) =   0
                l(2) =   0
                l(3) =   1
                l(4) =   1
                l(5) =   2
                l(6) =   2
     Q(r) pseudized with  6 coefficients,  rinner =    1.100   1.100   1.100
                                                       1.100   1.100

     PseudoPot. # 2 for O  read from file:
     /u/if/mamunm/psp/gbrv1.5pbe/O.UPF
     MD5 check sum: 734c27235a0248c51dbae37a1fbe46ec
     Pseudo is Ultrasoft + core correction, Zval =  6.0
     Generated by new atomic code, or converted to UPF format
     Using radial grid of  737 points,  5 beta functions with:
                l(1) =   0
                l(2) =   0
                l(3) =   1
                l(4) =   1
                l(5) =   2
     Q(r) pseudized with  8 coefficients,  rinner =    0.900   0.900   0.900
                                                       0.900   0.900

     PseudoPot. # 3 for H  read from file:
     /u/if/mamunm/psp/gbrv1.5pbe/H.UPF
     MD5 check sum: 761ae9a214b05c3daf00ab9f6b793d6f
     Pseudo is Ultrasoft, Zval =  1.0
     Generated by new atomic code, or converted to UPF format
     Using radial grid of  615 points,  2 beta functions with:
                l(1) =   0
                l(2) =   0
     Q(r) pseudized with  8 coefficients,  rinner =    0.700

     vdW kernel table read from file vdW_kernel_table
     MD5 check sum: 095c7af220d748ca6e76c0b4c6cfb241

     atomic species   valence    mass     pseudopotential
        Tl1           13.00   204.38000     Tl( 1.00)
        O1             6.00    15.99900     O ( 1.00)
        H1             1.00     1.00800     H ( 1.00)

     No symmetry found

   Cartesian axes

     site n.     atom                  positions (alat units)
         1           Tl1 tau(   1) = (   1.6719756   0.9653156  10.0000000  )
         2           Tl1 tau(   2) = (   5.0159269   0.9653156  10.0000000  )
         3           Tl1 tau(   3) = (   3.3439513   3.8612623  10.0000000  )
         4           Tl1 tau(   4) = (   6.6879026   3.8612623  10.0000000  )
         5           Tl1 tau(   5) = (   6.6879026   1.9306312  12.7303248  )
         6           Tl1 tau(   6) = (   3.3439513   1.9306312  12.7303248  )
         7           Tl1 tau(   7) = (   8.3598782   4.8265779  12.7303248  )
         8           Tl1 tau(   8) = (   5.0159269   4.8265779  12.7303248  )
         9           Tl1 tau(   9) = (   0.0000000   0.0000000  15.4606496  )
        10           Tl1 tau(  10) = (   3.3439513   0.0000000  15.4606496  )
        11           Tl1 tau(  11) = (   1.6719756   2.8959468  15.4606496  )
        12           Tl1 tau(  12) = (   5.0159269   2.8959468  15.4606496  )
        13           O1  tau(  13) = (   0.0000000   0.0000000  17.2541496  )
        14           H1  tau(  14) = (   0.0000000   0.0000000  18.2041496  )

     number of k points=    20  Fermi-Dirac smearing, width (Ry)=  0.0110
                       cart. coord. in units 2pi/alat
        k(    1) = (   0.0000000   0.0000000   0.0000000), wk =   0.0555556
        k(    2) = (   0.0000000   0.0287759   0.0000000), wk =   0.1111111
        k(    3) = (   0.0000000   0.0575517   0.0000000), wk =   0.1111111
        k(    4) = (   0.0000000  -0.0863276   0.0000000), wk =   0.0555556
        k(    5) = (   0.0249206  -0.0143879   0.0000000), wk =   0.1111111
        k(    6) = (   0.0249206   0.0143879   0.0000000), wk =   0.1111111
        k(    7) = (   0.0249206   0.0431638   0.0000000), wk =   0.1111111
        k(    8) = (   0.0249206  -0.1007155   0.0000000), wk =   0.1111111
        k(    9) = (   0.0249206  -0.0719396   0.0000000), wk =   0.1111111
        k(   10) = (   0.0249206  -0.0431638   0.0000000), wk =   0.1111111
        k(   11) = (   0.0498412  -0.0287759   0.0000000), wk =   0.1111111
        k(   12) = (   0.0498412  -0.0000000   0.0000000), wk =   0.1111111
        k(   13) = (   0.0498412   0.0287759   0.0000000), wk =   0.1111111
        k(   14) = (   0.0498412  -0.1151034   0.0000000), wk =   0.1111111
        k(   15) = (   0.0498412  -0.0863276   0.0000000), wk =   0.1111111
        k(   16) = (   0.0498412  -0.0575517   0.0000000), wk =   0.1111111
        k(   17) = (  -0.0747619   0.0431638   0.0000000), wk =   0.0555556
        k(   18) = (  -0.0747619   0.0719396   0.0000000), wk =   0.1111111
        k(   19) = (  -0.0747619   0.1007155   0.0000000), wk =   0.1111111
        k(   20) = (  -0.0747619  -0.0431638   0.0000000), wk =   0.0555556

     Largest allocated arrays     est. size (Mb)     dimensions
     Largest temporary arrays     est. size (Mb)     dimensions

     Check: negative/imaginary core charge=   -0.000001    0.000000

     Initial potential from superposition of free atoms
     Check: negative starting charge=   -0.604262

     starting charge  162.94160, renormalised to  163.00000

     negative rho (up, down):  6.045E-01 0.000E+00

     *
     * You are using vdW-DF for exchange-correlation in this calculation.
     * Please cite the following three references that made this development
     * possible:
     *
     *   M. Dion, H. Rydberg, E. Schroder, D. C. Langreth, and
     *   B. I. Lundqvist, Phys. Rev. Lett. 92, 246401 (2004).
     *
     *   T. Thonhauser, V. R. Cooper, S. Li, A. Puzder, P. Hyldgaard, and
     *   D. C. Langreth, Phys. Rev. B 76, 125112 (2007).
     *
     *   G. Roman-Perez and J. M. Soler, Phys. Rev. Lett. 103, 096102 (2009).
     *
     *
     * If you are using vdW-DF2, please also cite:
     *
     *   K. Lee, E. D. Murray, L. Kong, B. I. Lundqvist, and
     *   D. C. Langreth, Phys. Rev. B 82, 081101(R) (2010).
     *
     *
     * If you are calculating the stress with vdW-DF, please also cite:
     *
     *   R. Sabatini, E. Kucukbenli, B. Kolb, T. Thonhauser, and
     *   S. de Gironcoli, J. Phys.: Condens. Matter 24, 424209 (2012).
     *

     Carrying out vdW-DF run using the following parameters:

     Nqs =      20    Nr_points =    1024   r_max =   100.000
     q_mesh =
               0.00001000     0.04494208     0.09755937     0.15916263
               0.23128650     0.31572767     0.41458969     0.53033537
               0.66584808     0.82450364     1.01025438     1.22772762
               1.48234092     1.78043706     2.12944203     2.53805004
               3.01644009     3.57652955     4.23227104     5.00000000

     Gradients computed in reciprocal space

     Adding external electric field

     Computed dipole along edir(3) :
        Dipole               -0.0220 Ry au,         -0.0559 Debye
        Dipole field         -0.0000 Ry au

        Potential amp.        0.0039 Ry
        Total length         46.9108 bohr

     Starting wfc are  113 randomized atomic wfcs

     Self-consistent Calculation

     iteration #  1     ecut=    36.75 Ry     beta=0.30
     Davidson diagonalization with overlap
     ethr =  1.00E-02,  avg # of iterations =  2.0

     Threshold (ethr) on eigenvalues was too large:
     Diagonalizing with lowered threshold

     Davidson diagonalization with overlap
     ethr =  5.56E-04,  avg # of iterations =  3.0

[...]

     total energy              =   -1794.99347482 Ry
     Harris-Foulkes estimate   =   -1795.40971054 Ry
     estimated scf accuracy    <       0.95203615 Ry

[...]

     End of self-consistent calculation

          k = 0.0000 0.0000 0.0000 ( 24957 PWs)   bands (ev):

   -19.1626 -11.5397 -11.1062 -11.1062 -11.0810 -10.9888 -10.9772 -10.9772
   -10.9767 -10.9767 -10.9751 -10.9472 -10.9403 -10.9369 -10.9369 -10.8329
   -10.7698 -10.7698 -10.7670 -10.7407 -10.7407 -10.7349 -10.7256 -10.7256
   -10.7186 -10.7186 -10.6844 -10.6844 -10.6817 -10.6658 -10.6658 -10.6331
   -10.4629 -10.4560 -10.4560 -10.4487 -10.4487 -10.3889 -10.3888 -10.3791
   -10.3791 -10.2955 -10.2811 -10.2811 -10.2563 -10.2474 -10.2474 -10.2238
   -10.2238 -10.1950 -10.1850 -10.1850 -10.1623 -10.1462 -10.1432 -10.1432
   -10.1303 -10.1303 -10.1220 -10.1042 -10.1042  -8.8548  -7.6930  -6.2931
    -4.9315  -4.0480  -4.0480  -3.9477  -3.6781  -3.6781  -3.2702  -2.7551
    -2.7551  -2.1493  -2.1493  -1.8036  -1.1120  -0.9148  -0.9148  -0.5036
     0.2095   0.2095   0.3257   0.6772   0.6772   1.0012   2.2273   3.8807
     4.2621   4.3178   4.3181

[...]

          k =-0.0748 0.0432 0.0000 ( 25090 PWs)   bands (ev):

[...]

     the Fermi energy is     1.3070 ev

!    total energy              =   -1795.16181907 Ry
     Harris-Foulkes estimate   =   -1795.16181956 Ry
     estimated scf accuracy    <       0.00000929 Ry

     The total energy is the sum of the following terms:

     one-electron contribution =   -8979.50135686 Ry
     hartree contribution      =    4576.54203761 Ry
     xc contribution           =    -777.13425493 Ry
     ewald contribution        =    3384.97394413 Ry
     electric field correction =       0.00000001 Ry
     smearing contrib. (-TS)   =      -0.04218903 Ry

     convergence has been achieved in   9 iterations

 BEEF-vdW xc energy contributions
           1 :   -692.201673078878
           2 :    642.468302835537
           3 :   -555.084467272979
           4 :    449.232833910592
           5 :   -344.366699009242
           6 :    254.481380574320
           7 :   -185.386014293023
           8 :    135.378323983635
           9 :   -98.4852166950384
          10 :    68.4693170424175
          11 :   -41.7607703901592
          12 :    18.2060075229706
          13 :   0.216383969036997
          14 :   -11.6006797271245
          15 :    15.8326839134302
          16 :   -14.9604199624030
          17 :    12.2344109928198
          18 :   -10.5530847890032
          19 :    11.2250509652833
          20 :   -13.6881055376457
          21 :    16.2319375484695
          22 :   -17.2254558151217
          23 :    16.1074537592756
          24 :   -13.6171873551363
          25 :    11.2153787249342
          26 :   -10.1234138868755
          27 :    10.5855620195642
          28 :   -11.7806547148977
          29 :    12.3859908431079
          30 :   -11.4237766999498
          31 :   -55.7740450671581
          32 :   -40.7806542925280

     Forces acting on atoms (Ry/au):

     negative rho (up, down):  6.329E-01 0.000E+00
     atom    1 type  1   force =     0.00163126    0.00094761   -0.02026348
     atom    2 type  1   force =    -0.00163589    0.00093832   -0.02026304
     atom    3 type  1   force =    -0.00000208   -0.00188418   -0.02027599
     atom    4 type  1   force =     0.00001438   -0.00000248   -0.02498781
     atom    5 type  1   force =     0.00001116    0.00283956   -0.00019319
     atom    6 type  1   force =    -0.00002726   -0.00000873   -0.00141853
     atom    7 type  1   force =    -0.00248073   -0.00143168   -0.00016635
     atom    8 type  1   force =     0.00246695   -0.00141362   -0.00020460
     atom    9 type  1   force =     0.00001002    0.00000321   -0.35900209
     atom   10 type  1   force =    -0.00000055    0.00071384    0.01971043
     atom   11 type  1   force =     0.00063067   -0.00035212    0.01971055
     atom   12 type  1   force =    -0.00062618   -0.00034871    0.01969279
     atom   13 type  2   force =     0.00000548   -0.00000057    0.34223653
     atom   14 type  3   force =     0.00000276   -0.00000045    0.04542479

     Total force =     0.499238     Total SCF correction =     0.007975

     entering subroutine stress ...

     negative rho (up, down):  6.329E-01 0.000E+00
          total   stress  (Ry/bohr**3)                   (kbar)     P=   19.78
   0.00007211  -0.00000000   0.00000000         10.61     -0.00      0.00
  -0.00000000   0.00007210  -0.00000000         -0.00     10.61     -0.00
   0.00000000  -0.00000000   0.00025925          0.00     -0.00     38.14

     BFGS Geometry Optimization

     number of scf cycles    =   1
     number of bfgs steps    =   0

     energy   new            =   -1795.1618190650 Ry

     new trust radius        =       0.3590020929 bohr
     new conv_thr            =       0.0000099958 Ry

ATOMIC_POSITIONS (crystal)
Tl1      0.166666667   0.166666667   0.392762956    0   0   0
Tl1      0.666666667   0.166666667   0.392762956    0   0   0
Tl1      0.166666667   0.666666667   0.392762956    0   0   0
Tl1      0.666666667   0.666666667   0.392762956    0   0   0
Tl1      0.833333333   0.333333333   0.500000000    0   0   0
Tl1      0.333333333   0.333333333   0.500000000    0   0   0
Tl1      0.833333333   0.833333333   0.500000000    0   0   0
Tl1      0.333333333   0.833333333   0.500000000    0   0   0
Tl1      0.000000646   0.000000293   0.599775501
Tl1      0.499967347   0.000065220   0.607646708
Tl1      0.000065988   0.499967828   0.607646710
Tl1      0.499966384   0.499968140   0.607646341
O1       0.000000460  -0.000000052   0.684792165
H1       0.000000239  -0.000000041   0.715935675

     Writing output data file calc.save
     Check: negative starting charge=   -0.604262
     NEW-OLD atomic charge density approx. for the potential

     Check: negative/imaginary core charge=   -0.000001    0.000000
     Check: negative starting charge=   -0.604707

[...]

     energy   old            =   -1795.1618190650 Ry
     energy   new            =   -1795.1612161408 Ry

     CASE: energy  _new > energy  _old

[...]

     CASE: energy  _new < energy  _old

[...]

     Total force =     0.008960     Total SCF correction =     0.001175
     SCF correction compared to forces is large: reduce conv_thr to get better values

[...]

     CASE: energy  _new > energy  _old

[...]

     Threshold (ethr) on eigenvalues was too large:
     Diagonalizing with lowered threshold

     Davidson diagonalization with overlap
     ethr =  4.31E-08,  avg # of iterations =  1.7

[...]

     Total force =     0.009045     Total SCF correction =     0.000824

[...]

     number of scf cycles    =  32
     number of bfgs steps    =  28

     energy   old            =   -1795.3069838336 Ry
     energy   new            =   -1795.3070200432 Ry

     CASE: energy  _new < energy  _old

     new trust radius        =       0.1660173355 bohr
     new conv_thr            =       0.0000001000 Ry

ATOMIC_POSITIONS (crystal)
Tl1      0.166666667   0.166666667   0.392762956    0   0   0
Tl1      0.666666667   0.166666667   0.392762956    0   0   0
Tl1      0.166666667   0.666666667   0.392762956    0   0   0
Tl1      0.666666667   0.666666667   0.392762956    0   0   0
Tl1      0.833333333   0.333333333   0.500000000    0   0   0
Tl1      0.333333333   0.333333333   0.500000000    0   0   0
Tl1      0.833333333   0.833333333   0.500000000    0   0   0
Tl1      0.333333333   0.833333333   0.500000000    0   0   0
Tl1     -0.000081829   0.000073837   0.623605415
Tl1      0.500103744  -0.000284731   0.626208909
Tl1     -0.000301283   0.500173931   0.626206210
Tl1      0.500081727   0.500208132   0.626210664
O1       0.000387042  -0.000355057   0.711089195
H1      -0.000181329   0.000165365   0.749173654

     Writing output data file calc.save
     Check: negative starting charge=   -0.604757
     NEW-OLD atomic charge density approx. for the potential

     Check: negative/imaginary core charge=   -0.000001    0.000000
     Check: negative starting charge=   -0.603862

[...]

     Self-consistent Calculation

[...]

     total energy              =   -1795.30684355 Ry
     Harris-Foulkes estimate   =   -1795.30685102 Ry
     estimated scf accuracy    <       0.00000057 Ry

     iteration #  9     ecut=    36.75 Ry     beta=0.30
     Davidson diagonalization with overlap
     ethr =  3.49E-10,  avg # of iterations =  3.0

[...]

     negative rho (up, down):  6.310E-01 0.000E+00

     Adding external electric field

     Computed dipole along edir(3) :
        Dipole               -0.3470 Ry au,         -0.8820 Debye
        Dipole field         -0.0007 Ry au

        Potential amp.        0.0615 Ry
        Total length         46.9108 bohr

     End of self-consistent calculation

[...]

          k = 0.0498-0.0576 0.0000 ( 25036 PWs)   bands (ev):

[...]

          k =-0.0748-0.0432 0.0000 ( 25090 PWs)   bands (ev):

   -16.9092 -11.2775 -11.2739 -11.2455 -11.1782 -11.1704 -11.1701 -11.1610
   -11.1583 -11.1434 -11.1162 -11.1092 -11.1025 -11.0856 -11.0501 -11.0497
   -11.0477 -11.0280 -11.0211 -11.0135 -10.9875 -10.9801 -10.9752 -10.9680
   -10.9636 -10.9468 -10.9446 -10.9403 -10.9347 -10.9098 -10.9060 -10.9032
   -10.8866 -10.8479 -10.8345 -10.8226 -10.8224 -10.8198 -10.8112 -10.7909
   -10.7822 -10.7602 -10.7484 -10.7274 -10.7249 -10.7224 -10.7154 -10.7071
   -10.6997 -10.6590 -10.6130 -10.6078 -10.6070 -10.5933 -10.5658 -10.5541
   -10.5153 -10.5125 -10.4303 -10.4110 -10.3996  -7.5849  -7.5756  -6.5808
    -6.4063  -5.3039  -5.0534  -5.0381  -4.9680  -4.5969  -4.0924  -3.4084
    -3.0768  -2.5861  -0.4893  -0.4822   0.3129   0.4742   0.7376   0.7966
     1.0909   1.1941   1.7511   1.8551   2.3112   2.3758   2.4250   2.8128
     3.5719   3.5726   3.6201

     the Fermi energy is     0.9671 ev

!    total energy              =   -1795.30683599 Ry
     Harris-Foulkes estimate   =   -1795.30684328 Ry
     estimated scf accuracy    <       0.00000008 Ry

     The total energy is the sum of the following terms:

     one-electron contribution =   -8257.85042303 Ry
     hartree contribution      =    4214.42186707 Ry
     xc contribution           =    -776.67609721 Ry
     ewald contribution        =    3024.83984239 Ry
     electric field correction =       0.00022733 Ry
     smearing contrib. (-TS)   =      -0.04225254 Ry

     convergence has been achieved in   9 iterations

 BEEF-vdW xc energy contributions
           1 :   -691.703050825567
           2 :    641.662521915672
           3 :   -553.941529264012
           4 :    448.049905518485
           5 :   -343.570090400506
           6 :    254.334727456790
           7 :   -185.804182794468
           8 :    135.970518529166
           9 :   -98.7934952490268
          10 :    68.2474951562317
          11 :   -41.1150699953444
          12 :    17.5108985455133
          13 :   0.564650434730197
          14 :   -11.4297369576076
          15 :    15.2895742573069
          16 :   -14.4072353578755
          17 :    12.0143942113634
          18 :   -10.7753027678764
          19 :    11.7044480253539
          20 :   -14.0750943932924
          21 :    16.2419717220458
          22 :   -16.8193399846488
          23 :    15.5104242729045
          24 :   -13.1699382738493
          25 :    11.1579115578074
          26 :   -10.4511206516672
          27 :    11.0647092782892
          28 :   -12.1052853287192
          29 :    12.3697932439665
          30 :   -11.1044548770791
          31 :   -55.7353751136920
          32 :   -40.6678372699714

     Forces acting on atoms (Ry/au):

     negative rho (up, down):  6.310E-01 0.000E+00
     atom    1 type  1   force =     0.00113761    0.00065656   -0.02238693
     atom    2 type  1   force =    -0.00113941    0.00065806   -0.02238445
     atom    3 type  1   force =    -0.00000029   -0.00131145   -0.02238822
     atom    4 type  1   force =     0.00000047   -0.00000001   -0.02259328
     atom    5 type  1   force =     0.00000086    0.00348196    0.02094740
     atom    6 type  1   force =    -0.00000314    0.00000470    0.02381636
     atom    7 type  1   force =    -0.00301356   -0.00174051    0.02094702
     atom    8 type  1   force =     0.00301067   -0.00173900    0.02095038
     atom    9 type  1   force =    -0.00004334    0.00005900    0.00023247
     atom   10 type  1   force =    -0.00000702    0.00059844    0.00068283
     atom   11 type  1   force =     0.00050837   -0.00028523    0.00068055
     atom   12 type  1   force =    -0.00051980   -0.00028188    0.00068227
     atom   13 type  2   force =     0.00015671   -0.00022916    0.00031004
     atom   14 type  3   force =    -0.00008814    0.00012852    0.00050355

     Total force =     0.001718     Total SCF correction =     0.001140
     SCF correction compared to forces is large: reduce conv_thr to get better values

     entering subroutine stress ...

     negative rho (up, down):  6.310E-01 0.000E+00
          total   stress  (Ry/bohr**3)                   (kbar)     P=    8.25
   0.00007247  -0.00000000   0.00000002         10.66     -0.00      0.00
  -0.00000000   0.00007247  -0.00000003         -0.00     10.66     -0.00
   0.00000002  -0.00000003   0.00002321          0.00     -0.00      3.41

     bfgs converged in  33 scf cycles and  29 bfgs steps
     (criteria: energy <  1.0E+00, force <  1.9E-03)

     End of BFGS Geometry Optimization

     Final energy   =   -1795.3068359874 Ry
Begin final coordinates

ATOMIC_POSITIONS (crystal)
Tl1      0.166666667   0.166666667   0.392762956    0   0   0
Tl1      0.666666667   0.166666667   0.392762956    0   0   0
Tl1      0.166666667   0.666666667   0.392762956    0   0   0
Tl1      0.666666667   0.666666667   0.392762956    0   0   0
Tl1      0.833333333   0.333333333   0.500000000    0   0   0
Tl1      0.333333333   0.333333333   0.500000000    0   0   0
Tl1      0.833333333   0.833333333   0.500000000    0   0   0
Tl1      0.333333333   0.833333333   0.500000000    0   0   0
Tl1     -0.000081829   0.000073837   0.623605415
Tl1      0.500103744  -0.000284731   0.626208909
Tl1     -0.000301283   0.500173931   0.626206210
Tl1      0.500081727   0.500208132   0.626210664
O1       0.000387042  -0.000355057   0.711089195
H1      -0.000181329   0.000165365   0.749173654
End final coordinates

     Writing output data file calc.save

     General routines

     Parallel routines

   This run was terminated on:   9:40:46  24Apr2018

   JOB DONE.
Job  /afs/slac/g/suncat/bin/suncat-tsmpirun -x LD_LIBRARY_PATH -wdir /scratch/qe620631_b1NsV pw.x -npool 4 -in pw.inp

TID   HOST_NAME   COMMAND_LINE            STATUS            TERMINATION_TIME
00000 suncat0073 pw.x -npool 4 -i  Done                     04/24/2018 09:40:46
00001 suncat0073 pw.x -npool 4 -i  Done                     04/24/2018 09:40:46
00002 suncat0073 pw.x -npool 4 -i  Done                     04/24/2018 09:40:46
00003 suncat0073 pw.x -npool 4 -i  Done                     04/24/2018 09:40:46
00004 suncat0073 pw.x -npool 4 -i  Done                     04/24/2018 09:40:46
00005 suncat0073 pw.x -npool 4 -i  Done                     04/24/2018 09:40:46
00006 suncat0073 pw.x -npool 4 -i  Done                     04/24/2018 09:40:46
00007 suncat0073 pw.x -npool 4 -i  Done                     04/24/2018 09:40:46
00008 suncat0054 pw.x -npool 4 -i  Done                     04/24/2018 09:40:46
00009 suncat0054 pw.x -npool 4 -i  Done                     04/24/2018 09:40:46
00010 suncat0054 pw.x -npool 4 -i  Done                     04/24/2018 09:40:46
00011 suncat0054 pw.x -npool 4 -i  Done                     04/24/2018 09:40:46
00012 suncat0054 pw.x -npool 4 -i  Done                     04/24/2018 09:40:46
00013 suncat0054 pw.x -npool 4 -i  Done                     04/24/2018 09:40:46
00014 suncat0054 pw.x -npool 4 -i  Done                     04/24/2018 09:40:46
00015 suncat0054 pw.x -npool 4 -i  Done                     04/24/2018 09:40:46
00016 suncat0199 pw.x -npool 4 -i  Done                     04/24/2018 09:40:46
00017 suncat0199 pw.x -npool 4 -i  Done                     04/24/2018 09:40:46
00018 suncat0199 pw.x -npool 4 -i  Done                     04/24/2018 09:40:46
00019 suncat0199 pw.x -npool 4 -i  Done                     04/24/2018 09:40:46
00020 suncat0199 pw.x -npool 4 -i  Done                     04/24/2018 09:40:46
00021 suncat0199 pw.x -npool 4 -i  Done                     04/24/2018 09:40:46
00022 suncat0199 pw.x -npool 4 -i  Done                     04/24/2018 09:40:46
00023 suncat0199 pw.x -npool 4 -i  Done                     04/24/2018 09:40:46
00024 suncat0260 pw.x -npool 4 -i  Done                     04/24/2018 09:40:46
00025 suncat0260 pw.x -npool 4 -i  Done                     04/24/2018 09:40:46
00026 suncat0260 pw.x -npool 4 -i  Done                     04/24/2018 09:40:46
00027 suncat0260 pw.x -npool 4 -i  Done                     04/24/2018 09:40:46
00028 suncat0260 pw.x -npool 4 -i  Done                     04/24/2018 09:40:46
00029 suncat0260 pw.x -npool 4 -i  Done                     04/24/2018 09:40:46
00030 suncat0260 pw.x -npool 4 -i  Done                     04/24/2018 09:40:46
00031 suncat0260 pw.x -npool 4 -i  Done                     04/24/2018 09:40:46