     Program PWSCF v.5.1rc2 (svn rev. 11289) starts on 25Apr2018 at  1:48:18

     Current dimensions of program PWSCF are:
     Max number of different atomic species (ntypx) = 10
     Max number of k-points (npk) =  40000
     Max angular momentum in pseudopotentials (lmaxx) =  3
     Presently stress not available with electric field

     IMPORTANT: XC functional enforced from input :
     Exchange-correlation      = BEEF-VDW ( 1  4 27 13 2)
     Any further DFT definition will be discarded
     Please, verify this is what you really want

     Subspace diagonalization in iterative solution of the eigenvalue problem:
     a serial algorithm will be used

     bravais-lattice index     =            0
     lattice parameter (alat)  =       1.8897  a.u.
     unit-cell volume          =    7725.1200 (a.u.)^3
     number of atoms/cell      =           15
     number of atomic types    =            3
     number of electrons       =       138.00
     number of Kohn-Sham states=           79
     kinetic-energy cutoff     =      36.7493  Ry
     charge density cutoff     =     367.4932  Ry
     convergence threshold     =      1.0E-05
     mixing beta               =       0.3000
     number of iterations used =           10  plain     mixing
     Exchange-correlation      = BEEF-VDW ( 1  4 27 13 2)
     nstep                     =           50

     celldm(1)=   1.889726  celldm(2)=   0.000000  celldm(3)=   0.000000
     celldm(4)=   0.000000  celldm(5)=   0.000000  celldm(6)=   0.000000

     crystal axes: (cart. coord. in units of alat)
               a(1) = (   7.152277   0.000000   0.000000 )
               a(2) = (   3.576139   6.194054   0.000000 )
               a(3) = (   0.000000   0.000000  25.839810 )

     reciprocal axes: (cart. coord. in units 2 pi/alat)
               b(1) = (  0.139816 -0.080723  0.000000 )
               b(2) = (  0.000000  0.161445  0.000000 )
               b(3) = (  0.000000  0.000000  0.038700 )

     PseudoPot. # 1 for Y  read from file:
     /u/if/mamunm/psp/gbrv1.5pbe/Y.UPF
     MD5 check sum: d034151ed7554c50b6e82763ed42c788
     Pseudo is Ultrasoft + core correction, Zval = 11.0
     Generated by new atomic code, or converted to UPF format
     Using radial grid of  885 points,  6 beta functions with:
                l(1) =   0
                l(2) =   0
                l(3) =   1
                l(4) =   1
                l(5) =   2
                l(6) =   2
     Q(r) pseudized with  8 coefficients,  rinner =    1.200   1.200   1.200
                                                       1.200   1.200

     PseudoPot. # 2 for C  read from file:
     /u/if/mamunm/psp/gbrv1.5pbe/C.UPF
     MD5 check sum: d1aef80898a10debaa0f26306b886e00
     Pseudo is Ultrasoft + core correction, Zval =  4.0
     Generated by new atomic code, or converted to UPF format
     Using radial grid of  721 points,  4 beta functions with:
                l(1) =   0
                l(2) =   0
                l(3) =   1
                l(4) =   1
     Q(r) pseudized with  8 coefficients,  rinner =    1.100   1.100   1.100

     PseudoPot. # 3 for H  read from file:
     /u/if/mamunm/psp/gbrv1.5pbe/H.UPF
     MD5 check sum: 761ae9a214b05c3daf00ab9f6b793d6f
     Pseudo is Ultrasoft, Zval =  1.0
     Generated by new atomic code, or converted to UPF format
     Using radial grid of  615 points,  2 beta functions with:
                l(1) =   0
                l(2) =   0
     Q(r) pseudized with  8 coefficients,  rinner =    0.700

     vdW kernel table read from file vdW_kernel_table
     MD5 check sum: 095c7af220d748ca6e76c0b4c6cfb241

     atomic species   valence    mass     pseudopotential
        Y1            11.00    88.90584     Y ( 1.00)
        C1             4.00    12.01100     C ( 1.00)
        H1             1.00     1.00800     H ( 1.00)

     No symmetry found

   Cartesian axes

     site n.     atom                  positions (alat units)
         1           Y1  tau(   1) = (   1.7880693   1.0323423  10.0000000  )
         2           Y1  tau(   2) = (   5.3642080   1.0323423  10.0000000  )
         3           Y1  tau(   3) = (   3.5761386   4.1293692  10.0000000  )
         4           Y1  tau(   4) = (   7.1522773   4.1293692  10.0000000  )
         5           Y1  tau(   5) = (   7.1522773   2.0646846  12.9199050  )
         6           Y1  tau(   6) = (   3.5761386   2.0646846  12.9199050  )
         7           Y1  tau(   7) = (   8.9403466   5.1617115  12.9199050  )
         8           Y1  tau(   8) = (   5.3642080   5.1617115  12.9199050  )
         9           Y1  tau(   9) = (   0.0000000   0.0000000  15.8398100  )
        10           Y1  tau(  10) = (   3.5761386   0.0000000  15.8398100  )
        11           Y1  tau(  11) = (   1.7880693   3.0970269  15.8398100  )
        12           Y1  tau(  12) = (   5.3642080   3.0970269  15.8398100  )
        13           C1  tau(  13) = (   3.5761386   2.0646846  17.5688100  )
        14           H1  tau(  14) = (   4.2061386   2.6946846  18.1988100  )
        15           H1  tau(  15) = (   2.9461386   1.4346846  18.1988100  )

     number of k points=    20  Fermi-Dirac smearing, width (Ry)=  0.0110
                       cart. coord. in units 2pi/alat
        k(    1) = (   0.0000000   0.0000000   0.0000000), wk =   0.0555556
        k(    2) = (   0.0000000   0.0269075   0.0000000), wk =   0.1111111
        k(    3) = (   0.0000000   0.0538151   0.0000000), wk =   0.1111111
        k(    4) = (   0.0000000  -0.0807226   0.0000000), wk =   0.0555556
        k(    5) = (   0.0233026  -0.0134538   0.0000000), wk =   0.1111111
        k(    6) = (   0.0233026   0.0134538   0.0000000), wk =   0.1111111
        k(    7) = (   0.0233026   0.0403613   0.0000000), wk =   0.1111111
        k(    8) = (   0.0233026  -0.0941763   0.0000000), wk =   0.1111111
        k(    9) = (   0.0233026  -0.0672688   0.0000000), wk =   0.1111111
        k(   10) = (   0.0233026  -0.0403613   0.0000000), wk =   0.1111111
        k(   11) = (   0.0466052  -0.0269075   0.0000000), wk =   0.1111111
        k(   12) = (   0.0466052   0.0000000   0.0000000), wk =   0.1111111
        k(   13) = (   0.0466052   0.0269075   0.0000000), wk =   0.1111111
        k(   14) = (   0.0466052  -0.1076301   0.0000000), wk =   0.1111111
        k(   15) = (   0.0466052  -0.0807226   0.0000000), wk =   0.1111111
        k(   16) = (   0.0466052  -0.0538151   0.0000000), wk =   0.1111111
        k(   17) = (  -0.0699078   0.0403613   0.0000000), wk =   0.0555556
        k(   18) = (  -0.0699078   0.0672688   0.0000000), wk =   0.1111111
        k(   19) = (  -0.0699078   0.0941763   0.0000000), wk =   0.1111111
        k(   20) = (  -0.0699078  -0.0403613   0.0000000), wk =   0.0555556

     Largest allocated arrays     est. size (Mb)     dimensions
     Largest temporary arrays     est. size (Mb)     dimensions

     Initial potential from superposition of free atoms
     Check: negative starting charge=   -0.000530

     starting charge  137.94631, renormalised to  138.00000

     negative rho (up, down):  5.299E-04 0.000E+00

     *
     * You are using vdW-DF for exchange-correlation in this calculation.
     * Please cite the following three references that made this development
     * possible:
     *
     *   M. Dion, H. Rydberg, E. Schroder, D. C. Langreth, and
     *   B. I. Lundqvist, Phys. Rev. Lett. 92, 246401 (2004).
     *
     *   T. Thonhauser, V. R. Cooper, S. Li, A. Puzder, P. Hyldgaard, and
     *   D. C. Langreth, Phys. Rev. B 76, 125112 (2007).
     *
     *   G. Roman-Perez and J. M. Soler, Phys. Rev. Lett. 103, 096102 (2009).
     *
     *
     * If you are using vdW-DF2, please also cite:
     *
     *   K. Lee, E. D. Murray, L. Kong, B. I. Lundqvist, and
     *   D. C. Langreth, Phys. Rev. B 82, 081101(R) (2010).
     *
     *
     * If you are calculating the stress with vdW-DF, please also cite:
     *
     *   R. Sabatini, E. Kucukbenli, B. Kolb, T. Thonhauser, and
     *   S. de Gironcoli, J. Phys.: Condens. Matter 24, 424209 (2012).
     *

     Carrying out vdW-DF run using the following parameters:

     Nqs =      20    Nr_points =    1024   r_max =   100.000
     q_mesh =
               0.00001000     0.04494208     0.09755937     0.15916263
               0.23128650     0.31572767     0.41458969     0.53033537
               0.66584808     0.82450364     1.01025438     1.22772762
               1.48234092     1.78043706     2.12944203     2.53805004
               3.01644009     3.57652955     4.23227104     5.00000000

     Gradients computed in reciprocal space

     Adding external electric field

     Computed dipole along edir(3) :
        Dipole               -0.0209 Ry au,         -0.0531 Debye
        Dipole field         -0.0000 Ry au

        Potential amp.        0.0032 Ry
        Total length         47.6094 bohr

     Starting wfc are  162 randomized atomic wfcs

     Self-consistent Calculation

     iteration #  1     ecut=    36.75 Ry     beta=0.30
     Davidson diagonalization with overlap
     ethr =  1.00E-02,  avg # of iterations =  2.0

[...]

     total energy              =   -1136.39149500 Ry
     Harris-Foulkes estimate   =   -1138.93709314 Ry
     estimated scf accuracy    <       5.57648898 Ry

[...]

     End of self-consistent calculation

          k = 0.0000 0.0000 0.0000 ( 28997 PWs)   bands (ev):

   -42.4195 -42.3295 -42.2894 -42.2860 -42.2842 -42.2224 -42.1810 -42.1372
   -41.7798 -41.7407 -41.7397 -41.7291 -22.4827 -22.4452 -22.4417 -22.4331
   -22.4300 -22.4269 -22.3642 -22.3199 -22.2941 -22.2916 -22.2886 -22.2328
   -22.1861 -22.1426 -22.1105 -22.1103 -22.1093 -22.0853 -22.0685 -22.0148
   -22.0110 -22.0108 -21.9129 -21.9013 -21.8946 -21.8846 -21.8710 -21.6890
   -21.6668 -21.6660 -21.6563 -21.6031 -21.5936 -21.5927 -21.5000 -21.4989
   -10.8279  -5.1743  -3.3024  -2.5551  -1.8027  -1.1612  -0.8257  -0.5816
    -0.5579  -0.4945  -0.4843  -0.3832  -0.3594  -0.1536   0.2092   0.2300
     0.3395   0.3714   0.3919   0.7914   0.8632   0.9097   1.2030   1.5773
     1.6527   1.6965   1.7038   1.7575   1.9074   2.0408   2.2463

[...]

          k =-0.0699 0.0404 0.0000 ( 29048 PWs)   bands (ev):

[...]

     the Fermi energy is     1.0159 ev

!    total energy              =   -1138.29529543 Ry
     Harris-Foulkes estimate   =   -1138.29531153 Ry
     estimated scf accuracy    <       0.00000978 Ry

     The total energy is the sum of the following terms:

     one-electron contribution =   -5541.61654640 Ry
     hartree contribution      =    2764.88605755 Ry
     xc contribution           =    -344.07249760 Ry
     ewald contribution        =    1982.63086127 Ry
     electric field correction =       0.00000847 Ry
     smearing contrib. (-TS)   =      -0.12317873 Ry

     convergence has been achieved in  15 iterations

 BEEF-vdW xc energy contributions
           1 :   -299.956468600141
           2 :    269.276528306558
           3 :   -216.517147461314
           4 :    154.692427465706
           5 :   -95.8488318455978
           6 :    47.5123462520124
           7 :   -12.1970459596743
           8 :   -10.8046150682052
           9 :    23.1618850347926
          10 :   -26.2774308153024
          11 :    21.4369012223511
          12 :   -10.6502072188252
          13 :   -2.85086954531175
          14 :    15.0795262036971
          15 :   -22.5601295034932
          16 :    23.6054419569817
          17 :   -18.7930587126062
          18 :    10.3799102915448
          19 :   -1.10291209406080
          20 :   -6.87067235113500
          21 :    12.3436477130165
          22 :   -14.9012494026069
          23 :    14.5609544087835
          24 :   -11.6274693692053
          25 :    6.78287642989039
          26 :   -1.16687465271161
          27 :   -3.80418363553480
          28 :    6.89458138801967
          29 :   -7.53978549955383
          30 :    6.05223035113568
          31 :   -28.8604845033351
          32 :   -19.7452714082639

     Forces acting on atoms (Ry/au):

     negative rho (up, down):  1.575E-04 0.000E+00
     atom    1 type  1   force =     0.00020397   -0.00008450    0.00582059
     atom    2 type  1   force =    -0.00032143    0.00029275    0.00556474
     atom    3 type  1   force =     0.00025562   -0.00026338    0.00573553
     atom    4 type  1   force =    -0.00055419    0.00004163    0.00505033
     atom    5 type  1   force =    -0.00002873   -0.00259318   -0.00007843
     atom    6 type  1   force =     0.00059631    0.00005194   -0.01505425
     atom    7 type  1   force =     0.00253299    0.00145306    0.00051647
     atom    8 type  1   force =    -0.00190538    0.00106360   -0.00066724
     atom    9 type  1   force =    -0.00811505    0.00002329   -0.01192315
     atom   10 type  1   force =     0.00305890    0.03523013    0.02291604
     atom   11 type  1   force =     0.02313632   -0.01161529    0.01620773
     atom   12 type  1   force =    -0.03826185   -0.02376129    0.02871625
     atom   13 type  2   force =     0.01786125    0.00110549   -0.09354148
     atom   14 type  3   force =     0.00667338    0.00535837    0.01535628
     atom   15 type  3   force =    -0.00513210   -0.00630262    0.01538061

     Total force =     0.124305     Total SCF correction =     0.008425

     entering subroutine stress ...

     negative rho (up, down):  1.575E-04 0.000E+00
          total   stress  (Ry/bohr**3)                   (kbar)     P=   -4.41
  -0.00002293  -0.00000246   0.00000813         -3.37     -0.36      1.20
  -0.00000246  -0.00002320  -0.00000005         -0.36     -3.41     -0.01
   0.00000813  -0.00000005  -0.00004373          1.20     -0.01     -6.43

     BFGS Geometry Optimization

     number of scf cycles    =   1
     number of bfgs steps    =   0

     energy   new            =   -1138.2952954344 Ry

     new trust radius        =       0.0952378856 bohr
     new conv_thr            =       0.0000099958 Ry

ATOMIC_POSITIONS (crystal)
Y1       0.166666667   0.166666667   0.386999750    0   0   0
Y1       0.666666667   0.166666667   0.386999750    0   0   0
Y1       0.166666667   0.666666667   0.386999750    0   0   0
Y1       0.666666667   0.666666667   0.386999750    0   0   0
Y1       0.833333333   0.333333333   0.500000000    0   0   0
Y1       0.333333333   0.333333333   0.500000000    0   0   0
Y1       0.833333333   0.833333333   0.500000000    0   0   0
Y1       0.333333333   0.833333333   0.500000000    0   0   0
Y1      -0.000601405   0.000001990   0.612756074
Y1       0.498721410   0.003009819   0.613469551
Y1       0.002207957   0.499007670   0.613332170
Y1       0.498184112   0.497970000   0.613588334
C1       0.334607615   0.333427779   0.677996857
H1       0.370826796   0.435501565   0.704607974
H1       0.295994241   0.231084431   0.704608472

     Writing output data file calc.save
     Check: negative starting charge=   -0.000530
     NEW-OLD atomic charge density approx. for the potential
     Check: negative starting charge=   -0.000532

[...]

     energy   old            =   -1138.2952954344 Ry
     energy   new            =   -1138.3066542037 Ry

     CASE: energy  _new < energy  _old

[...]

     iteration #  9     ecut=    36.75 Ry     beta=0.30
     Davidson diagonalization with overlap
     c_bands:  1 eigenvalues not converged
     ethr =  1.58E-10,  avg # of iterations =  5.8

[...]

     Threshold (ethr) on eigenvalues was too large:
     Diagonalizing with lowered threshold

     Davidson diagonalization with overlap
     ethr =  9.13E-08,  avg # of iterations =  4.7

[...]

     iteration # 11     ecut=    36.75 Ry     beta=0.30
     Davidson diagonalization with overlap
     c_bands:  1 eigenvalues not converged
     ethr =  8.32E-11,  avg # of iterations =  5.8

[...]

     Total force =     0.008488     Total SCF correction =     0.000604

[...]

     Total force =     0.003835     Total SCF correction =     0.000418
     SCF correction compared to forces is large: reduce conv_thr to get better values

[...]

     number of scf cycles    =  24
     number of bfgs steps    =  23

     energy   old            =   -1138.3348708692 Ry
     energy   new            =   -1138.3349213020 Ry

     CASE: energy  _new < energy  _old

     new trust radius        =       0.0129871274 bohr
     new conv_thr            =       0.0000001000 Ry

ATOMIC_POSITIONS (crystal)
Y1       0.166666667   0.166666667   0.386999750    0   0   0
Y1       0.666666667   0.166666667   0.386999750    0   0   0
Y1       0.166666667   0.666666667   0.386999750    0   0   0
Y1       0.666666667   0.666666667   0.386999750    0   0   0
Y1       0.833333333   0.333333333   0.500000000    0   0   0
Y1       0.333333333   0.333333333   0.500000000    0   0   0
Y1       0.833333333   0.833333333   0.500000000    0   0   0
Y1       0.333333333   0.833333333   0.500000000    0   0   0
Y1      -0.007799886   0.003716143   0.607133535
Y1       0.494242492   0.012313984   0.614596758
Y1       0.003353144   0.499723386   0.613940668
Y1       0.491839918   0.493868847   0.614315210
C1       0.362013928   0.322701345   0.668788055
H1       0.369327599   0.437237457   0.696647048
H1       0.322864579   0.220881990   0.693968174

     Writing output data file calc.save
     Check: negative starting charge=   -0.000548
     NEW-OLD atomic charge density approx. for the potential
     Check: negative starting charge=   -0.000547

[...]

     Self-consistent Calculation

[...]

     Threshold (ethr) on eigenvalues was too large:
     Diagonalizing with lowered threshold

     Davidson diagonalization with overlap
     ethr =  2.67E-08,  avg # of iterations =  8.8

[...]

     total energy              =   -1138.33493901 Ry
     Harris-Foulkes estimate   =   -1138.33493904 Ry
     estimated scf accuracy    <       0.00000019 Ry

     iteration #  9     ecut=    36.75 Ry     beta=0.30
     Davidson diagonalization with overlap
     ethr =  1.38E-10,  avg # of iterations =  2.6

[...]

     negative rho (up, down):  1.525E-04 0.000E+00

     Adding external electric field

     Computed dipole along edir(3) :
        Dipole                0.0287 Ry au,          0.0731 Debye
        Dipole field          0.0000 Ry au

        Potential amp.       -0.0045 Ry
        Total length         47.6094 bohr

     End of self-consistent calculation

[...]

          k = 0.0466-0.0538 0.0000 ( 29098 PWs)   bands (ev):

[...]

          k =-0.0699-0.0404 0.0000 ( 29048 PWs)   bands (ev):

   -42.2107 -42.2013 -42.1845 -42.1798 -42.1774 -42.1274 -42.0133 -41.9660
   -41.6615 -41.6419 -41.6284 -41.6194 -22.2621 -22.2560 -22.2495 -22.2286
   -22.2171 -22.1887 -22.1832 -22.1796 -22.1756 -22.1495 -22.1265 -22.1199
   -22.0925 -22.0890 -22.0790 -22.0627 -22.0479 -22.0174 -21.9602 -21.9561
   -21.9538 -21.8758 -21.8486 -21.8050 -21.7120 -21.7098 -21.6072 -21.5896
   -21.5812 -21.5706 -21.5588 -21.5517 -21.5509 -21.5429 -21.4396 -21.4353
   -11.3634  -5.5864  -2.8657  -1.9466  -1.8721  -1.2253  -1.0095  -0.8311
    -0.2702  -0.2469  -0.0813   0.0539   0.1767   0.1821   0.8239   0.8350
     0.8814   0.9241   0.9641   1.0176   1.1150   1.1636   1.2107   1.2559
     1.3016   1.3765   1.5122   1.5737   1.6470   1.6520   1.6639

     the Fermi energy is     1.1212 ev

!    total energy              =   -1138.33493900 Ry
     Harris-Foulkes estimate   =   -1138.33493895 Ry
     estimated scf accuracy    <       0.00000005 Ry

     The total energy is the sum of the following terms:

     one-electron contribution =   -5593.49736536 Ry
     hartree contribution      =    2791.20859479 Ry
     xc contribution           =    -344.20930995 Ry
     ewald contribution        =    2008.28731623 Ry
     electric field correction =       0.00000134 Ry
     smearing contrib. (-TS)   =      -0.12417605 Ry

     convergence has been achieved in   9 iterations

 BEEF-vdW xc energy contributions
           1 :   -300.100193046913
           2 :    269.481827076111
           3 :   -216.776974517716
           4 :    154.938329921404
           5 :   -96.0094908139604
           6 :    47.5596522580809
           7 :   -12.1500087814617
           8 :   -10.9049216182088
           9 :    23.2762515805275
          10 :   -26.3794663878488
          11 :    21.5172155074870
          12 :   -10.7159312251399
          13 :   -2.78657618586089
          14 :    15.0147869649628
          15 :   -22.5120365421698
          16 :    23.5968530776993
          17 :   -18.8292730143157
          18 :    10.4389879418521
          19 :   -1.15005417372993
          20 :   -6.85868398596165
          21 :    12.3651967932269
          22 :   -14.9355319162210
          23 :    14.5842701020727
          24 :   -11.6278732975000
          25 :    6.76581308866423
          26 :   -1.14999236769842
          27 :   -3.80374671663867
          28 :    6.87125195104471
          29 :   -7.49931427939987
          30 :    6.00054459192091
          31 :   -28.8711798464517
          32 :   -19.7688588306626

     Forces acting on atoms (Ry/au):

     negative rho (up, down):  1.525E-04 0.000E+00
     atom    1 type  1   force =     0.00077749   -0.00004718    0.00553572
     atom    2 type  1   force =    -0.00079267    0.00058206    0.00486083
     atom    3 type  1   force =     0.00053174   -0.00075291    0.00532563
     atom    4 type  1   force =    -0.00069032    0.00020648    0.00586473
     atom    5 type  1   force =     0.00046395   -0.00093361   -0.00285856
     atom    6 type  1   force =    -0.00152252    0.00066081   -0.01531672
     atom    7 type  1   force =     0.00107837    0.00032537   -0.00228635
     atom    8 type  1   force =    -0.00218700    0.00156045   -0.00348783
     atom    9 type  1   force =    -0.00042301    0.00018458    0.00013809
     atom   10 type  1   force =    -0.00018771    0.00018372    0.00065739
     atom   11 type  1   force =     0.00130308   -0.00091567    0.00019479
     atom   12 type  1   force =     0.00103019    0.00031273    0.00069030
     atom   13 type  2   force =     0.00009460   -0.00045323   -0.00017456
     atom   14 type  3   force =     0.00023670    0.00077217   -0.00008079
     atom   15 type  3   force =     0.00028711   -0.00168578    0.00093733

     Total force =     0.003106     Total SCF correction =     0.000544
     SCF correction compared to forces is large: reduce conv_thr to get better values

     entering subroutine stress ...

     negative rho (up, down):  1.525E-04 0.000E+00
          total   stress  (Ry/bohr**3)                   (kbar)     P=   -1.42
  -0.00000759  -0.00000089   0.00000213         -1.12     -0.13      0.31
  -0.00000089  -0.00000654  -0.00000177         -0.13     -0.96     -0.26
   0.00000213  -0.00000177  -0.00001475          0.31     -0.26     -2.17

     bfgs converged in  25 scf cycles and  24 bfgs steps
     (criteria: energy <  1.0E+00, force <  1.9E-03)

     End of BFGS Geometry Optimization

     Final energy   =   -1138.3349389962 Ry
Begin final coordinates

ATOMIC_POSITIONS (crystal)
Y1       0.166666667   0.166666667   0.386999750    0   0   0
Y1       0.666666667   0.166666667   0.386999750    0   0   0
Y1       0.166666667   0.666666667   0.386999750    0   0   0
Y1       0.666666667   0.666666667   0.386999750    0   0   0
Y1       0.833333333   0.333333333   0.500000000    0   0   0
Y1       0.333333333   0.333333333   0.500000000    0   0   0
Y1       0.833333333   0.833333333   0.500000000    0   0   0
Y1       0.333333333   0.833333333   0.500000000    0   0   0
Y1      -0.007799886   0.003716143   0.607133535
Y1       0.494242492   0.012313984   0.614596758
Y1       0.003353144   0.499723386   0.613940668
Y1       0.491839918   0.493868847   0.614315210
C1       0.362013928   0.322701345   0.668788055
H1       0.369327599   0.437237457   0.696647048
H1       0.322864579   0.220881990   0.693968174
End final coordinates

     Writing output data file calc.save

     General routines

     Parallel routines

   This run was terminated on:   5:56:37  25Apr2018

   JOB DONE.
Job  /afs/slac/g/suncat/bin/suncat-tsmpirun -x LD_LIBRARY_PATH -wdir /scratch/qe261354_2aOct pw.x -npool 4 -in pw.inp

TID   HOST_NAME   COMMAND_LINE            STATUS            TERMINATION_TIME
00000 suncat0054 pw.x -npool 4 -i  Done                     04/25/2018 05:56:37
00001 suncat0054 pw.x -npool 4 -i  Done                     04/25/2018 05:56:37
00002 suncat0054 pw.x -npool 4 -i  Done                     04/25/2018 05:56:37
00003 suncat0054 pw.x -npool 4 -i  Done                     04/25/2018 05:56:37
00004 suncat0054 pw.x -npool 4 -i  Done                     04/25/2018 05:56:37
00005 suncat0054 pw.x -npool 4 -i  Done                     04/25/2018 05:56:37
00006 suncat0054 pw.x -npool 4 -i  Done                     04/25/2018 05:56:37
00007 suncat0054 pw.x -npool 4 -i  Done                     04/25/2018 05:56:37
00008 suncat0013 pw.x -npool 4 -i  Done                     04/25/2018 05:56:37
00009 suncat0013 pw.x -npool 4 -i  Done                     04/25/2018 05:56:37
00010 suncat0013 pw.x -npool 4 -i  Done                     04/25/2018 05:56:37
00011 suncat0013 pw.x -npool 4 -i  Done                     04/25/2018 05:56:37
00012 suncat0013 pw.x -npool 4 -i  Done                     04/25/2018 05:56:37
00013 suncat0013 pw.x -npool 4 -i  Done                     04/25/2018 05:56:37
00014 suncat0013 pw.x -npool 4 -i  Done                     04/25/2018 05:56:37
00015 suncat0013 pw.x -npool 4 -i  Done                     04/25/2018 05:56:37
00016 suncat0186 pw.x -npool 4 -i  Done                     04/25/2018 05:56:37
00017 suncat0186 pw.x -npool 4 -i  Done                     04/25/2018 05:56:37
00018 suncat0186 pw.x -npool 4 -i  Done                     04/25/2018 05:56:37
00019 suncat0186 pw.x -npool 4 -i  Done                     04/25/2018 05:56:37
00020 suncat0186 pw.x -npool 4 -i  Done                     04/25/2018 05:56:37
00021 suncat0186 pw.x -npool 4 -i  Done                     04/25/2018 05:56:37
00022 suncat0186 pw.x -npool 4 -i  Done                     04/25/2018 05:56:37
00023 suncat0186 pw.x -npool 4 -i  Done                     04/25/2018 05:56:37
00024 suncat0283 pw.x -npool 4 -i  Done                     04/25/2018 05:56:37
00025 suncat0283 pw.x -npool 4 -i  Done                     04/25/2018 05:56:37
00026 suncat0283 pw.x -npool 4 -i  Done                     04/25/2018 05:56:37
00027 suncat0283 pw.x -npool 4 -i  Done                     04/25/2018 05:56:37
00028 suncat0283 pw.x -npool 4 -i  Done                     04/25/2018 05:56:37
00029 suncat0283 pw.x -npool 4 -i  Done                     04/25/2018 05:56:37
00030 suncat0283 pw.x -npool 4 -i  Done                     04/25/2018 05:56:37
00031 suncat0283 pw.x -npool 4 -i  Done                     04/25/2018 05:56:37