     Program PWSCF v.5.1rc2 (svn rev. 11289) starts on 20Jan2018 at 15:27:38

     Current dimensions of program PWSCF are:
     Max number of different atomic species (ntypx) = 10
     Max number of k-points (npk) =  40000
     Max angular momentum in pseudopotentials (lmaxx) =  3
     Presently stress not available with electric field

     IMPORTANT: XC functional enforced from input :
     Exchange-correlation      = BEEF-VDW ( 1  4 27 13 2)
     Any further DFT definition will be discarded
     Please, verify this is what you really want

     Subspace diagonalization in iterative solution of the eigenvalue problem:
     a serial algorithm will be used

     bravais-lattice index     =            0
     lattice parameter (alat)  =       1.8897  a.u.
     unit-cell volume          =    7171.5276 (a.u.)^3
     number of atoms/cell      =           13
     number of atomic types    =            2
     number of electrons       =       173.00
     number of Kohn-Sham states=           96
     kinetic-energy cutoff     =      36.7493  Ry
     charge density cutoff     =     367.4932  Ry
     convergence threshold     =      1.0E-05
     mixing beta               =       0.3000
     number of iterations used =           10  plain     mixing
     Exchange-correlation      = BEEF-VDW ( 1  4 27 13 2)
     nstep                     =           50

     celldm(1)=   1.889726  celldm(2)=   0.000000  celldm(3)=   0.000000
     celldm(4)=   0.000000  celldm(5)=   0.000000  celldm(6)=   0.000000

     crystal axes: (cart. coord. in units of alat)
               a(1) = (   6.917003   0.000000   0.000000 )
               a(2) = (   3.458501   5.990300   0.000000 )
               a(3) = (   0.000000   0.000000  25.647709 )

     reciprocal axes: (cart. coord. in units 2 pi/alat)
               b(1) = (  0.144571 -0.083468  0.000000 )
               b(2) = (  0.000000  0.166937  0.000000 )
               b(3) = (  0.000000  0.000000  0.038990 )

     PseudoPot. # 1 for Pb read from file:
     /afs/slac.stanford.edu/u/if/mamunm/psp/gbrv1.5pbe/Pb.UPF
     MD5 check sum: 3d1c1779aa92214d1e8f3a7db79003e2
     Pseudo is Ultrasoft + core correction, Zval = 14.0
     Generated by new atomic code, or converted to UPF format
     Using radial grid of  899 points,  6 beta functions with:
                l(1) =   0
                l(2) =   0
                l(3) =   1
                l(4) =   1
                l(5) =   2
                l(6) =   2
     Q(r) pseudized with  6 coefficients,  rinner =    1.000   1.000   1.000
                                                       1.000   1.000

     PseudoPot. # 2 for N  read from file:
     /afs/slac.stanford.edu/u/if/mamunm/psp/gbrv1.5pbe/N.UPF
     MD5 check sum: 95339753478d7afb44899504a8723017
     Pseudo is Ultrasoft + core correction, Zval =  5.0
     Generated by new atomic code, or converted to UPF format
     Using radial grid of  729 points,  4 beta functions with:
                l(1) =   0
                l(2) =   0
                l(3) =   1
                l(4) =   1
     Q(r) pseudized with  8 coefficients,  rinner =    0.900   0.900   0.900

     vdW kernel table read from file vdW_kernel_table
     MD5 check sum: 095c7af220d748ca6e76c0b4c6cfb241

     atomic species   valence    mass     pseudopotential
        Pb1           14.00   207.20000     Pb( 1.00)
        N1             5.00    14.00700     N ( 1.00)

     No symmetry found

   Cartesian axes

     site n.     atom                  positions (alat units)
         1           Pb1 tau(   1) = (   1.7292506   0.9983833  10.0000000  )
         2           Pb1 tau(   2) = (   5.1877519   0.9983833  10.0000000  )
         3           Pb1 tau(   3) = (   3.4585013   3.9935333  10.0000000  )
         4           Pb1 tau(   4) = (   6.9170025   3.9935333  10.0000000  )
         5           Pb1 tau(   5) = (   6.9170025   1.9967666  12.8238544  )
         6           Pb1 tau(   6) = (   3.4585013   1.9967666  12.8238544  )
         7           Pb1 tau(   7) = (   8.6462531   4.9919166  12.8238544  )
         8           Pb1 tau(   8) = (   5.1877519   4.9919166  12.8238544  )
         9           Pb1 tau(   9) = (   0.0000000   0.0000000  15.6477089  )
        10           Pb1 tau(  10) = (   3.4585013   0.0000000  15.6477089  )
        11           Pb1 tau(  11) = (   1.7292506   2.9951499  15.6477089  )
        12           Pb1 tau(  12) = (   5.1877519   2.9951499  15.6477089  )
        13           N1  tau(  13) = (   1.7292506   0.9983833  17.8177089  )

     number of k points=    20  Fermi-Dirac smearing, width (Ry)=  0.0110
                       cart. coord. in units 2pi/alat
        k(    1) = (   0.0000000   0.0000000   0.0000000), wk =   0.0555556
        k(    2) = (   0.0000000   0.0278228   0.0000000), wk =   0.1111111
        k(    3) = (   0.0000000   0.0556455   0.0000000), wk =   0.1111111
        k(    4) = (   0.0000000  -0.0834683   0.0000000), wk =   0.0555556
        k(    5) = (   0.0240952  -0.0139114   0.0000000), wk =   0.1111111
        k(    6) = (   0.0240952   0.0139114   0.0000000), wk =   0.1111111
        k(    7) = (   0.0240952   0.0417341   0.0000000), wk =   0.1111111
        k(    8) = (   0.0240952  -0.0973797   0.0000000), wk =   0.1111111
        k(    9) = (   0.0240952  -0.0695569   0.0000000), wk =   0.1111111
        k(   10) = (   0.0240952  -0.0417341   0.0000000), wk =   0.1111111
        k(   11) = (   0.0481904  -0.0278228   0.0000000), wk =   0.1111111
        k(   12) = (   0.0481904   0.0000000   0.0000000), wk =   0.1111111
        k(   13) = (   0.0481904   0.0278228   0.0000000), wk =   0.1111111
        k(   14) = (   0.0481904  -0.1112910   0.0000000), wk =   0.1111111
        k(   15) = (   0.0481904  -0.0834683   0.0000000), wk =   0.1111111
        k(   16) = (   0.0481904  -0.0556455   0.0000000), wk =   0.1111111
        k(   17) = (  -0.0722856   0.0417341   0.0000000), wk =   0.0555556
        k(   18) = (  -0.0722856   0.0695569   0.0000000), wk =   0.1111111
        k(   19) = (  -0.0722856   0.0973797   0.0000000), wk =   0.1111111
        k(   20) = (  -0.0722856  -0.0417341   0.0000000), wk =   0.0555556

     Largest allocated arrays     est. size (Mb)     dimensions
     Largest temporary arrays     est. size (Mb)     dimensions

     Check: negative/imaginary core charge=   -0.000001    0.000000

     Initial potential from superposition of free atoms
     Check: negative starting charge=   -0.198137

     starting charge  172.97177, renormalised to  173.00000

     negative rho (up, down):  1.982E-01 0.000E+00

     *
     * You are using vdW-DF for exchange-correlation in this calculation.
     * Please cite the following three references that made this development
     * possible:
     *
     *   M. Dion, H. Rydberg, E. Schroder, D. C. Langreth, and
     *   B. I. Lundqvist, Phys. Rev. Lett. 92, 246401 (2004).
     *
     *   T. Thonhauser, V. R. Cooper, S. Li, A. Puzder, P. Hyldgaard, and
     *   D. C. Langreth, Phys. Rev. B 76, 125112 (2007).
     *
     *   G. Roman-Perez and J. M. Soler, Phys. Rev. Lett. 103, 096102 (2009).
     *
     *
     * If you are using vdW-DF2, please also cite:
     *
     *   K. Lee, E. D. Murray, L. Kong, B. I. Lundqvist, and
     *   D. C. Langreth, Phys. Rev. B 82, 081101(R) (2010).
     *
     *
     * If you are calculating the stress with vdW-DF, please also cite:
     *
     *   R. Sabatini, E. Kucukbenli, B. Kolb, T. Thonhauser, and
     *   S. de Gironcoli, J. Phys.: Condens. Matter 24, 424209 (2012).
     *

     Carrying out vdW-DF run using the following parameters:

     Nqs =      20    Nr_points =    1024   r_max =   100.000
     q_mesh =
               0.00001000     0.04494208     0.09755937     0.15916263
               0.23128650     0.31572767     0.41458969     0.53033537
               0.66584808     0.82450364     1.01025438     1.22772762
               1.48234092     1.78043706     2.12944203     2.53805004
               3.01644009     3.57652955     4.23227104     5.00000000

     Gradients computed in reciprocal space

     Adding external electric field

     Computed dipole along edir(3) :
        Dipole               -0.0076 Ry au,         -0.0193 Debye
        Dipole field         -0.0000 Ry au

        Potential amp.        0.0013 Ry
        Total length         47.2555 bohr

     Starting wfc are  112 randomized atomic wfcs

     Self-consistent Calculation

     iteration #  1     ecut=    36.75 Ry     beta=0.30
     Davidson diagonalization with overlap
     ethr =  1.00E-02,  avg # of iterations =  2.0

[...]

     total energy              =   -2009.98301192 Ry
     Harris-Foulkes estimate   =   -2012.50419226 Ry
     estimated scf accuracy    <       5.37273243 Ry

[...]

     End of self-consistent calculation

          k = 0.0000 0.0000 0.0000 ( 27033 PWs)   bands (ev):

   -17.0451 -17.0440 -17.0440 -16.9878 -16.9878 -16.9871 -16.9612 -16.9612
   -16.9587 -16.9380 -16.9380 -16.9370 -16.9227 -16.9053 -16.9053 -16.8981
   -16.8981 -16.8929 -16.8907 -16.8907 -16.8806 -16.8670 -16.8670 -16.8521
   -16.8486 -16.8486 -16.8360 -16.8360 -16.8356 -16.8044 -16.7675 -16.7675
   -16.7442 -16.7442 -16.7277 -16.7264 -16.7032 -16.7032 -16.6996 -16.6996
   -16.6588 -16.6510 -16.6510 -16.6404 -16.6404 -16.6343 -16.6184 -16.6184
   -16.6156 -16.6156 -16.6125 -16.6097 -16.5914 -16.5914 -16.5832 -16.5832
   -16.5715 -16.5590 -16.5590 -16.5486 -11.1989 -10.8503  -9.7502  -8.2784
    -7.4774  -7.4390  -7.4390  -7.0090  -6.9703  -6.9703  -6.3711  -6.3446
    -6.3446  -3.1649  -3.1649  -3.1475  -2.5524  -2.1067  -2.1067  -2.1015
    -1.9751  -1.9736  -1.9736   0.0501   0.1881   0.1881   0.8553   1.7546
     1.7546   1.7951   2.0810   2.3924   2.3924   3.0257   3.1602   3.1773

[...]

          k =-0.0723 0.0417 0.0000 ( 26962 PWs)   bands (ev):

[...]

     the Fermi energy is     0.5865 ev

!    total energy              =   -2012.21735686 Ry
     Harris-Foulkes estimate   =   -2012.21733150 Ry
     estimated scf accuracy    <       0.00000067 Ry

     The total energy is the sum of the following terms:

     one-electron contribution =   -9538.05529021 Ry
     hartree contribution      =    4837.86584603 Ry
     xc contribution           =    -789.00235389 Ry
     ewald contribution        =    3477.02419788 Ry
     electric field correction =       0.00126972 Ry
     smearing contrib. (-TS)   =      -0.05102640 Ry

     convergence has been achieved in  14 iterations

 BEEF-vdW xc energy contributions
           1 :   -703.149949693987
           2 :    652.918467936201
           3 :   -564.582883976152
           4 :    457.591254057479
           5 :   -351.884552009097
           6 :    261.964561564495
           7 :   -193.812407855895
           8 :    145.346571815353
           9 :   -109.724063726421
          10 :    79.6989731868987
          11 :   -51.0245046816773
          12 :    23.5768831980311
          13 :  -0.138195601429743
          14 :   -16.0988222467524
          15 :    23.7879991935970
          16 :   -24.3196303402729
          17 :    21.0908069445702
          18 :   -17.7694223257176
          19 :    16.5963897396464
[...]
00031 suncat1040 pw.x -in pw.inp   Done                     01/20/2018 15:44:29

[...]

     Total force =     0.073464     Total SCF correction =     0.010952
     SCF correction compared to forces is large: reduce conv_thr to get better values

[...]

     Total force =     0.315830     Total SCF correction =     0.004459

[...]

     Program PWSCF v.5.1rc2 (svn rev. 11289) starts on 20Jan2018 at 17:59: 0

[...]

     Program PWSCF v.5.1rc2 (svn rev. 11289) starts on 20Jan2018 at 18:13:45

[...]

   This run was terminated on:  18:44: 3  20Jan2018

[...]

     Program PWSCF v.5.1rc2 (svn rev. 11289) starts on 20Jan2018 at 18:44: 9

     Current dimensions of program PWSCF are:
     Max number of different atomic species (ntypx) = 10
     Max number of k-points (npk) =  40000
     Max angular momentum in pseudopotentials (lmaxx) =  3
     Presently stress not available with electric field

     IMPORTANT: XC functional enforced from input :
     Exchange-correlation      = BEEF-VDW ( 1  4 27 13 2)
     Any further DFT definition will be discarded
     Please, verify this is what you really want

     Subspace diagonalization in iterative solution of the eigenvalue problem:
     a serial algorithm will be used

     bravais-lattice index     =            0
     lattice parameter (alat)  =       1.8897  a.u.
     unit-cell volume          =    7171.5276 (a.u.)^3
     number of atoms/cell      =           13
     number of atomic types    =            2
     number of electrons       =       173.00
     number of Kohn-Sham states=           96
     kinetic-energy cutoff     =      36.7493  Ry
     charge density cutoff     =     367.4932  Ry
     convergence threshold     =      1.0E-05
     mixing beta               =       0.3000
     number of iterations used =           10  plain     mixing
     Exchange-correlation      = BEEF-VDW ( 1  4 27 13 2)
     nstep                     =           50

     celldm(1)=   1.889726  celldm(2)=   0.000000  celldm(3)=   0.000000
     celldm(4)=   0.000000  celldm(5)=   0.000000  celldm(6)=   0.000000

     crystal axes: (cart. coord. in units of alat)
               a(1) = (   6.917003   0.000000   0.000000 )
               a(2) = (   3.458501   5.990300   0.000000 )
               a(3) = (   0.000000   0.000000  25.647709 )

     reciprocal axes: (cart. coord. in units 2 pi/alat)
               b(1) = (  0.144571 -0.083468  0.000000 )
               b(2) = (  0.000000  0.166937  0.000000 )
               b(3) = (  0.000000  0.000000  0.038990 )

     PseudoPot. # 1 for Pb read from file:
     /afs/slac.stanford.edu/u/if/mamunm/psp/gbrv1.5pbe/Pb.UPF
     MD5 check sum: 3d1c1779aa92214d1e8f3a7db79003e2
     Pseudo is Ultrasoft + core correction, Zval = 14.0
     Generated by new atomic code, or converted to UPF format
     Using radial grid of  899 points,  6 beta functions with:
                l(1) =   0
                l(2) =   0
                l(3) =   1
                l(4) =   1
                l(5) =   2
                l(6) =   2
     Q(r) pseudized with  6 coefficients,  rinner =    1.000   1.000   1.000
                                                       1.000   1.000

     PseudoPot. # 2 for N  read from file:
     /afs/slac.stanford.edu/u/if/mamunm/psp/gbrv1.5pbe/N.UPF
     MD5 check sum: 95339753478d7afb44899504a8723017
     Pseudo is Ultrasoft + core correction, Zval =  5.0
     Generated by new atomic code, or converted to UPF format
     Using radial grid of  729 points,  4 beta functions with:
                l(1) =   0
                l(2) =   0
                l(3) =   1
                l(4) =   1
     Q(r) pseudized with  8 coefficients,  rinner =    0.900   0.900   0.900

     vdW kernel table read from file vdW_kernel_table
     MD5 check sum: 095c7af220d748ca6e76c0b4c6cfb241

     atomic species   valence    mass     pseudopotential
        Pb1           14.00   207.20000     Pb( 1.00)
        N1             5.00    14.00700     N ( 1.00)

     No symmetry found

   Cartesian axes

     site n.     atom                  positions (alat units)
         1           Pb1 tau(   1) = (   1.7292506   0.9983833  10.0000000  )
         2           Pb1 tau(   2) = (   5.1877519   0.9983833  10.0000000  )
         3           Pb1 tau(   3) = (   3.4585013   3.9935333  10.0000000  )
         4           Pb1 tau(   4) = (   6.9170025   3.9935333  10.0000000  )
         5           Pb1 tau(   5) = (   6.9170025   1.9967666  12.8238544  )
         6           Pb1 tau(   6) = (   3.4585013   1.9967666  12.8238544  )
         7           Pb1 tau(   7) = (   8.6462531   4.9919166  12.8238544  )
         8           Pb1 tau(   8) = (   5.1877519   4.9919166  12.8238544  )
         9           Pb1 tau(   9) = (  10.3563840   5.9793334  16.1266157  )
        10           Pb1 tau(  10) = (   6.9362345   5.9790752  16.1261995  )
        11           Pb1 tau(  11) = (   8.6464307   3.0170991  16.1264971  )
        12           Pb1 tau(  12) = (   5.1877290   2.9951198  15.6275468  )
        13           N1  tau(  13) = (   1.7292935   0.9983102  17.0355791  )

     number of k points=    20  Fermi-Dirac smearing, width (Ry)=  0.0110
                       cart. coord. in units 2pi/alat
        k(    1) = (   0.0000000   0.0000000   0.0000000), wk =   0.0555556
        k(    2) = (   0.0000000   0.0278228   0.0000000), wk =   0.1111111
        k(    3) = (   0.0000000   0.0556455   0.0000000), wk =   0.1111111
        k(    4) = (   0.0000000  -0.0834683   0.0000000), wk =   0.0555556
        k(    5) = (   0.0240952  -0.0139114   0.0000000), wk =   0.1111111
        k(    6) = (   0.0240952   0.0139114   0.0000000), wk =   0.1111111
        k(    7) = (   0.0240952   0.0417341   0.0000000), wk =   0.1111111
        k(    8) = (   0.0240952  -0.0973797   0.0000000), wk =   0.1111111
        k(    9) = (   0.0240952  -0.0695569   0.0000000), wk =   0.1111111
        k(   10) = (   0.0240952  -0.0417341   0.0000000), wk =   0.1111111
        k(   11) = (   0.0481904  -0.0278228   0.0000000), wk =   0.1111111
        k(   12) = (   0.0481904   0.0000000   0.0000000), wk =   0.1111111
        k(   13) = (   0.0481904   0.0278228   0.0000000), wk =   0.1111111
        k(   14) = (   0.0481904  -0.1112910   0.0000000), wk =   0.1111111
        k(   15) = (   0.0481904  -0.0834683   0.0000000), wk =   0.1111111
        k(   16) = (   0.0481904  -0.0556455   0.0000000), wk =   0.1111111
        k(   17) = (  -0.0722856   0.0417341   0.0000000), wk =   0.0555556
        k(   18) = (  -0.0722856   0.0695569   0.0000000), wk =   0.1111111
        k(   19) = (  -0.0722856   0.0973797   0.0000000), wk =   0.1111111
        k(   20) = (  -0.0722856  -0.0417341   0.0000000), wk =   0.0555556

     Largest allocated arrays     est. size (Mb)     dimensions
     Largest temporary arrays     est. size (Mb)     dimensions

     Check: negative/imaginary core charge=   -0.000001    0.000000

     Initial potential from superposition of free atoms
     Check: negative starting charge=   -0.195984

     starting charge  172.97177, renormalised to  173.00000

[...]

     *
     * You are using vdW-DF for exchange-correlation in this calculation.
     * Please cite the following three references that made this development
     * possible:
     *
     *   M. Dion, H. Rydberg, E. Schroder, D. C. Langreth, and
     *   B. I. Lundqvist, Phys. Rev. Lett. 92, 246401 (2004).
     *
     *   T. Thonhauser, V. R. Cooper, S. Li, A. Puzder, P. Hyldgaard, and
     *   D. C. Langreth, Phys. Rev. B 76, 125112 (2007).
     *
     *   G. Roman-Perez and J. M. Soler, Phys. Rev. Lett. 103, 096102 (2009).
     *
     *
     * If you are using vdW-DF2, please also cite:
     *
     *   K. Lee, E. D. Murray, L. Kong, B. I. Lundqvist, and
     *   D. C. Langreth, Phys. Rev. B 82, 081101(R) (2010).
     *
     *
     * If you are calculating the stress with vdW-DF, please also cite:
     *
     *   R. Sabatini, E. Kucukbenli, B. Kolb, T. Thonhauser, and
     *   S. de Gironcoli, J. Phys.: Condens. Matter 24, 424209 (2012).
     *

     Carrying out vdW-DF run using the following parameters:

     Nqs =      20    Nr_points =    1024   r_max =   100.000
     q_mesh =
               0.00001000     0.04494208     0.09755937     0.15916263
               0.23128650     0.31572767     0.41458969     0.53033537
               0.66584808     0.82450364     1.01025438     1.22772762
               1.48234092     1.78043706     2.12944203     2.53805004
               3.01644009     3.57652955     4.23227104     5.00000000

     Gradients computed in reciprocal space

[...]

     Starting wfc are  112 randomized atomic wfcs

     Self-consistent Calculation

[...]

     total energy              =   -2012.40488908 Ry
     Harris-Foulkes estimate   =   -2012.40489755 Ry
     estimated scf accuracy    <       0.00002878 Ry

     iteration # 12     ecut=    36.75 Ry     beta=0.30
     Davidson diagonalization with overlap
     ethr =  1.66E-08,  avg # of iterations =  5.3

[...]

     negative rho (up, down):  2.124E-01 0.000E+00

     Adding external electric field

     Computed dipole along edir(3) :
        Dipole               -0.2045 Ry au,         -0.5199 Debye
        Dipole field         -0.0004 Ry au

        Potential amp.        0.0339 Ry
        Total length         47.2555 bohr

     End of self-consistent calculation

[...]

          k = 0.0482-0.0556 0.0000 ( 26956 PWs)   bands (ev):

[...]

          k =-0.0723-0.0417 0.0000 ( 26962 PWs)   bands (ev):

   -16.6429 -16.4519 -16.4366 -16.3915 -16.3831 -16.3816 -16.3723 -16.3717
   -16.3657 -16.3510 -16.3494 -16.3364 -16.3267 -16.3191 -16.3157 -16.3121
   -16.3086 -16.2999 -16.2951 -16.2914 -16.2895 -16.2834 -16.2755 -16.2635
   -16.2596 -16.2522 -16.2497 -16.2492 -16.2387 -16.2344 -16.2300 -16.2296
   -16.2219 -16.2171 -16.1934 -16.1930 -16.1856 -16.1739 -16.1732 -16.1715
   -16.1708 -16.1682 -16.1602 -16.1578 -16.1516 -16.1490 -16.1361 -16.1351
   -16.1316 -16.1216 -16.1209 -16.1039 -16.0901 -16.0793 -16.0705 -16.0627
   -16.0610 -16.0387 -16.0271 -16.0011 -12.4267  -9.2095  -9.0922  -8.2835
    -7.6776  -7.2495  -7.2313  -7.1593  -6.7949  -6.7055  -6.0102  -5.9137
    -5.4555  -2.1314  -1.1754  -1.1155  -0.8540  -0.7456  -0.6915  -0.5346
    -0.4388  -0.4273   0.0057   0.6477   0.7648   0.9282   1.1620   1.3831
     1.7365   2.0036   2.0717   2.1511   2.3328   2.4939   2.5348   2.6419

     the Fermi energy is     1.1296 ev

!    total energy              =   -2012.40489123 Ry
     Harris-Foulkes estimate   =   -2012.40490091 Ry
     estimated scf accuracy    <       0.00000121 Ry

     The total energy is the sum of the following terms:

     one-electron contribution =   -9225.94332364 Ry
     hartree contribution      =    4684.72679026 Ry
     xc contribution           =    -789.29895804 Ry
     ewald contribution        =    3318.15559726 Ry
     electric field correction =       0.00007331 Ry
     smearing contrib. (-TS)   =      -0.04507037 Ry

     convergence has been achieved in  12 iterations

 BEEF-vdW xc energy contributions
           1 :   -703.445095811666
           2 :    653.225863270629
           3 :   -564.858527641874
           4 :    457.783435682020
           5 :   -351.988713198467
           6 :    262.002128354770
           7 :   -193.780743800340
           8 :    145.206461697624
           9 :   -109.440298118501
          10 :    79.2987668504419
          11 :   -50.6194301815312
          12 :    23.3212218166871
          13 :  -0.145872493437992
          14 :   -15.8273968288543
          15 :    23.3840301096611
          16 :   -23.9904332833833
          17 :    21.0104050319947
          18 :   -17.9767903887691
          19 :    16.9690869595429
          20 :   -17.9523077182062
          21 :    19.3127226129798
          22 :   -19.1594525928192
          23 :    16.5894265508057
          24 :   -12.2211930991591
          25 :    7.77753017301143
          26 :   -5.05018910034414
          27 :    4.88902365042873
          28 :   -6.78528747406415
          29 :    9.23697542670266
          30 :   -10.6358399319111
          31 :   -56.3918463544488
          32 :   -41.3060525727786

     Forces acting on atoms (Ry/au):

     negative rho (up, down):  2.124E-01 0.000E+00
     atom    1 type  1   force =    -0.00000324    0.00000587   -0.00833985
     atom    2 type  1   force =    -0.00000984   -0.00049374   -0.00598693
     atom    3 type  1   force =    -0.00041715    0.00025522   -0.00596436
     atom    4 type  1   force =     0.00040930    0.00024447   -0.00597737
     atom    5 type  1   force =     0.00099507   -0.00056898    0.00735822
     atom    6 type  1   force =    -0.00099431   -0.00057788    0.00735299
     atom    7 type  1   force =    -0.00000062   -0.00000812    0.00100930
     atom    8 type  1   force =     0.00001085    0.00113341    0.00735716
     atom    9 type  1   force =     0.00001374    0.00000888    0.00022683
     atom   10 type  1   force =    -0.00006368    0.00002478    0.00021159
     atom   11 type  1   force =     0.00000621   -0.00000829    0.00020708
     atom   12 type  1   force =     0.00000326    0.00001141    0.00113663
     atom   13 type  2   force =     0.00005039   -0.00002702    0.00140871

     Total force =     0.018658     Total SCF correction =     0.004877
     SCF correction compared to forces is large: reduce conv_thr to get better values

     entering subroutine stress ...

     negative rho (up, down):  2.124E-01 0.000E+00
          total   stress  (Ry/bohr**3)                   (kbar)     P=    9.76
   0.00008637   0.00000002   0.00000001         12.71      0.00      0.00
   0.00000002   0.00008638  -0.00000000          0.00     12.71     -0.00
   0.00000001  -0.00000000   0.00002619          0.00     -0.00      3.85

 !ASE

     Writing output data file calc.save

     General routines

     Parallel routines

   This run was terminated on:  18:58:49  20Jan2018

   JOB DONE.
Job  /afs/slac/g/suncat/bin/suncat-tsmpirun -x LD_LIBRARY_PATH -wdir /scratch/qe864359_1wtMb pw.x -in pw.inp

TID   HOST_NAME   COMMAND_LINE            STATUS            TERMINATION_TIME
00000 suncat1043 pw.x -in pw.inp   Done                     01/20/2018 18:58:49
00001 suncat1043 pw.x -in pw.inp   Done                     01/20/2018 18:58:49
00002 suncat1043 pw.x -in pw.inp   Done                     01/20/2018 18:58:49
00003 suncat1043 pw.x -in pw.inp   Done                     01/20/2018 18:58:49
00004 suncat1043 pw.x -in pw.inp   Done                     01/20/2018 18:58:49
00005 suncat1043 pw.x -in pw.inp   Done                     01/20/2018 18:58:49
00006 suncat1043 pw.x -in pw.inp   Done                     01/20/2018 18:58:49
00007 suncat1043 pw.x -in pw.inp   Done                     01/20/2018 18:58:49
00008 suncat1041 pw.x -in pw.inp   Done                     01/20/2018 18:58:49
00009 suncat1041 pw.x -in pw.inp   Done                     01/20/2018 18:58:49
00010 suncat1041 pw.x -in pw.inp   Done                     01/20/2018 18:58:49
00011 suncat1041 pw.x -in pw.inp   Done                     01/20/2018 18:58:49
00012 suncat1041 pw.x -in pw.inp   Done                     01/20/2018 18:58:49
00013 suncat1041 pw.x -in pw.inp   Done                     01/20/2018 18:58:49
00014 suncat1041 pw.x -in pw.inp   Done                     01/20/2018 18:58:49
00015 suncat1041 pw.x -in pw.inp   Done                     01/20/2018 18:58:49
00016 suncat1041 pw.x -in pw.inp   Done                     01/20/2018 18:58:49
00017 suncat1041 pw.x -in pw.inp   Done                     01/20/2018 18:58:49
00018 suncat1041 pw.x -in pw.inp   Done                     01/20/2018 18:58:49
00019 suncat1041 pw.x -in pw.inp   Done                     01/20/2018 18:58:49
00020 suncat1040 pw.x -in pw.inp   Done                     01/20/2018 18:58:49
00021 suncat1040 pw.x -in pw.inp   Done                     01/20/2018 18:58:49
00022 suncat1040 pw.x -in pw.inp   Done                     01/20/2018 18:58:49
00023 suncat1040 pw.x -in pw.inp   Done                     01/20/2018 18:58:49
00024 suncat1040 pw.x -in pw.inp   Done                     01/20/2018 18:58:49
00025 suncat1040 pw.x -in pw.inp   Done                     01/20/2018 18:58:49
00026 suncat1040 pw.x -in pw.inp   Done                     01/20/2018 18:58:49
00027 suncat1040 pw.x -in pw.inp   Done                     01/20/2018 18:58:49
00028 suncat1040 pw.x -in pw.inp   Done                     01/20/2018 18:58:49
00029 suncat1040 pw.x -in pw.inp   Done                     01/20/2018 18:58:49
00030 suncat1040 pw.x -in pw.inp   Done                     01/20/2018 18:58:49
00031 suncat1040 pw.x -in pw.inp   Done                     01/20/2018 18:58:49