     Program PWSCF v.5.1rc2 (svn rev. 11289) starts on 17Jan2018 at 21:45: 1

     Current dimensions of program PWSCF are:
     Max number of different atomic species (ntypx) = 10
     Max number of k-points (npk) =  40000
     Max angular momentum in pseudopotentials (lmaxx) =  3
     Presently stress not available with electric field

     IMPORTANT: XC functional enforced from input :
     Exchange-correlation      = BEEF-VDW ( 1  4 27 13 2)
     Any further DFT definition will be discarded
     Please, verify this is what you really want

     Subspace diagonalization in iterative solution of the eigenvalue problem:
     a serial algorithm will be used

     bravais-lattice index     =            0
     lattice parameter (alat)  =       1.8897  a.u.
     unit-cell volume          =    4204.8134 (a.u.)^3
     number of atoms/cell      =           13
     number of atomic types    =            2
     number of electrons       =       185.00
     number of Kohn-Sham states=          102
     kinetic-energy cutoff     =      36.7493  Ry
     charge density cutoff     =     367.4932  Ry
     convergence threshold     =      1.0E-05
     mixing beta               =       0.3000
     number of iterations used =           10  plain     mixing
     Exchange-correlation      = BEEF-VDW ( 1  4 27 13 2)
     nstep                     =           50

     celldm(1)=   1.889726  celldm(2)=   0.000000  celldm(3)=   0.000000
     celldm(4)=   0.000000  celldm(5)=   0.000000  celldm(6)=   0.000000

     crystal axes: (cart. coord. in units of alat)
               a(1) = (   5.426750   0.000000   0.000000 )
               a(2) = (   2.713375   4.699703   0.000000 )
               a(3) = (   0.000000   0.000000  24.430923 )

     reciprocal axes: (cart. coord. in units 2 pi/alat)
               b(1) = (  0.184272 -0.106390  0.000000 )
               b(2) = (  0.000000  0.212779  0.000000 )
               b(3) = (  0.000000  0.000000  0.040932 )

     PseudoPot. # 1 for Rh read from file:
     /afs/slac.stanford.edu/u/if/mamunm/psp/gbrv1.5pbe/Rh.UPF
     MD5 check sum: 761627e959a2e3a1f56b0b5fe687810e
     Pseudo is Ultrasoft + core correction, Zval = 15.0
     Generated by new atomic code, or converted to UPF format
     Using radial grid of  969 points,  7 beta functions with:
                l(1) =   0
                l(2) =   0
                l(3) =   1
                l(4) =   1
                l(5) =   2
                l(6) =   2
                l(7) =   2
     Q(r) pseudized with  8 coefficients,  rinner =    1.200   1.200   1.200
                                                       1.200   1.200

     PseudoPot. # 2 for N  read from file:
     /afs/slac.stanford.edu/u/if/mamunm/psp/gbrv1.5pbe/N.UPF
     MD5 check sum: 95339753478d7afb44899504a8723017
     Pseudo is Ultrasoft + core correction, Zval =  5.0
     Generated by new atomic code, or converted to UPF format
     Using radial grid of  729 points,  4 beta functions with:
                l(1) =   0
                l(2) =   0
                l(3) =   1
                l(4) =   1
     Q(r) pseudized with  8 coefficients,  rinner =    0.900   0.900   0.900

     vdW kernel table read from file vdW_kernel_table
     MD5 check sum: 095c7af220d748ca6e76c0b4c6cfb241

     atomic species   valence    mass     pseudopotential
        Rh1           15.00   102.90550     Rh( 1.00)
        N1             5.00    14.00700     N ( 1.00)

     No symmetry found

   Cartesian axes

     site n.     atom                  positions (alat units)
         1           Rh1 tau(   1) = (   1.3566875   0.7832839  10.0000000  )
         2           Rh1 tau(   2) = (   4.0700625   0.7832839  10.0000000  )
         3           Rh1 tau(   3) = (   2.7133750   3.1331356  10.0000000  )
         4           Rh1 tau(   4) = (   5.4267500   3.1331356  10.0000000  )
         5           Rh1 tau(   5) = (   5.4267500   1.5665678  12.2154614  )
         6           Rh1 tau(   6) = (   2.7133750   1.5665678  12.2154614  )
         7           Rh1 tau(   7) = (   6.7834375   3.9164194  12.2154614  )
         8           Rh1 tau(   8) = (   4.0700625   3.9164194  12.2154614  )
         9           Rh1 tau(   9) = (   0.0000000   0.0000000  14.4309228  )
        10           Rh1 tau(  10) = (   2.7133750   0.0000000  14.4309228  )
        11           Rh1 tau(  11) = (   1.3566875   2.3498517  14.4309228  )
        12           Rh1 tau(  12) = (   4.0700625   2.3498517  14.4309228  )
        13           N1  tau(  13) = (   1.3566875   0.7832839  16.5609228  )

     number of k points=    20  Fermi-Dirac smearing, width (Ry)=  0.0110
                       cart. coord. in units 2pi/alat
        k(    1) = (   0.0000000   0.0000000   0.0000000), wk =   0.0555556
        k(    2) = (   0.0000000   0.0354632   0.0000000), wk =   0.1111111
        k(    3) = (   0.0000000   0.0709265   0.0000000), wk =   0.1111111
        k(    4) = (   0.0000000  -0.1063897   0.0000000), wk =   0.0555556
        k(    5) = (   0.0307121  -0.0177316   0.0000000), wk =   0.1111111
        k(    6) = (   0.0307121   0.0177316   0.0000000), wk =   0.1111111
        k(    7) = (   0.0307121   0.0531948   0.0000000), wk =   0.1111111
        k(    8) = (   0.0307121  -0.1241213   0.0000000), wk =   0.1111111
        k(    9) = (   0.0307121  -0.0886581   0.0000000), wk =   0.1111111
        k(   10) = (   0.0307121  -0.0531948   0.0000000), wk =   0.1111111
        k(   11) = (   0.0614241  -0.0354632   0.0000000), wk =   0.1111111
        k(   12) = (   0.0614241   0.0000000   0.0000000), wk =   0.1111111
        k(   13) = (   0.0614241   0.0354632   0.0000000), wk =   0.1111111
        k(   14) = (   0.0614241  -0.1418529   0.0000000), wk =   0.1111111
        k(   15) = (   0.0614241  -0.1063897   0.0000000), wk =   0.1111111
        k(   16) = (   0.0614241  -0.0709265   0.0000000), wk =   0.1111111
        k(   17) = (  -0.0921362   0.0531948   0.0000000), wk =   0.0555556
        k(   18) = (  -0.0921362   0.0886581   0.0000000), wk =   0.1111111
        k(   19) = (  -0.0921362   0.1241213   0.0000000), wk =   0.1111111
        k(   20) = (  -0.0921362  -0.0531948   0.0000000), wk =   0.0555556

     Largest allocated arrays     est. size (Mb)     dimensions
     Largest temporary arrays     est. size (Mb)     dimensions

     Initial potential from superposition of free atoms
     Check: negative starting charge=   -0.652805

     starting charge  178.99881, renormalised to  185.00000

     negative rho (up, down):  6.747E-01 0.000E+00

     *
     * You are using vdW-DF for exchange-correlation in this calculation.
     * Please cite the following three references that made this development
     * possible:
     *
     *   M. Dion, H. Rydberg, E. Schroder, D. C. Langreth, and
     *   B. I. Lundqvist, Phys. Rev. Lett. 92, 246401 (2004).
     *
     *   T. Thonhauser, V. R. Cooper, S. Li, A. Puzder, P. Hyldgaard, and
     *   D. C. Langreth, Phys. Rev. B 76, 125112 (2007).
     *
     *   G. Roman-Perez and J. M. Soler, Phys. Rev. Lett. 103, 096102 (2009).
     *
     *
     * If you are using vdW-DF2, please also cite:
     *
     *   K. Lee, E. D. Murray, L. Kong, B. I. Lundqvist, and
     *   D. C. Langreth, Phys. Rev. B 82, 081101(R) (2010).
     *
     *
     * If you are calculating the stress with vdW-DF, please also cite:
     *
     *   R. Sabatini, E. Kucukbenli, B. Kolb, T. Thonhauser, and
     *   S. de Gironcoli, J. Phys.: Condens. Matter 24, 424209 (2012).
     *

     Carrying out vdW-DF run using the following parameters:

     Nqs =      20    Nr_points =    1024   r_max =   100.000
     q_mesh =
               0.00001000     0.04494208     0.09755937     0.15916263
               0.23128650     0.31572767     0.41458969     0.53033537
               0.66584808     0.82450364     1.01025438     1.22772762
               1.48234092     1.78043706     2.12944203     2.53805004
               3.01644009     3.57652955     4.23227104     5.00000000

     Gradients computed in reciprocal space

     Adding external electric field

     Computed dipole along edir(3) :
        Dipole               -1.3765 Ry au,         -3.4987 Debye
        Dipole field         -0.0041 Ry au

        Potential amp.        0.3703 Ry
        Total length         45.0136 bohr

     Starting wfc are  148 randomized atomic wfcs

     Self-consistent Calculation

     iteration #  1     ecut=    36.75 Ry     beta=0.30
     Davidson diagonalization with overlap
     ethr =  1.00E-02,  avg # of iterations =  2.0

[...]

     total energy              =   -2050.45741858 Ry
     Harris-Foulkes estimate   =   -2087.67490671 Ry
     estimated scf accuracy    <      76.73891937 Ry

[...]

     End of self-consistent calculation

          k = 0.0000 0.0000 0.0000 ( 15785 PWs)   bands (ev):

   -45.9269 -45.9086 -45.9083 -45.7971 -45.7415 -45.7409 -45.7199 -45.5603
   -45.5533 -45.5441 -45.5434 -45.5074 -45.5070 -45.4408 -45.4405 -45.4112
   -45.3875 -45.3874 -45.2613 -45.2599 -45.2377 -45.2282 -45.1752 -45.1737
   -45.1078 -45.1060 -45.1057 -45.0605 -45.0548 -45.0543 -45.0217 -45.0109
   -45.0057 -45.0051 -44.9871 -44.9870 -10.6903  -5.5509  -4.3234  -4.3082
    -4.3082  -4.2608  -4.1272  -4.0240  -4.0213  -4.0211  -3.8166  -3.7901
    -3.7898  -3.4981  -3.4827  -3.4825  -2.4021  -2.3631  -2.3628  -1.9109
    -1.9109  -1.9050  -1.7111  -1.6161  -1.6161  -1.3165  -1.3165  -1.2288
    -1.2131  -1.2131  -1.1890  -1.0808  -1.0807  -0.5533  -0.5527  -0.4576
     0.0641   0.1116   0.1119   0.2270   0.2776   0.2777   0.3397   0.3397
     0.8003   0.8006   0.8054   0.9225   0.9226   1.3505   1.3576   1.3762
     1.3764   1.4973   1.4974   1.7284   1.7386   1.7387   1.7854   1.7856
     1.7981   2.0250   2.0696   2.0702   2.1462   2.1502

[...]

          k =-0.0921 0.0532 0.0000 ( 15852 PWs)   bands (ev):

[...]

     the Fermi energy is     1.1394 ev

!    total energy              =   -2086.41592409 Ry
     Harris-Foulkes estimate   =   -2086.41593932 Ry
     estimated scf accuracy    <       0.00000631 Ry

     The total energy is the sum of the following terms:

     one-electron contribution =  -19377.43731445 Ry
     hartree contribution      =    9728.83893909 Ry
     xc contribution           =    -377.12435941 Ry
     ewald contribution        =    7939.43159187 Ry
     electric field correction =       0.00065107 Ry
     smearing contrib. (-TS)   =      -0.12543225 Ry

     convergence has been achieved in  20 iterations

 BEEF-vdW xc energy contributions
           1 :   -328.310872936524
           2 :    301.275351113344
           3 :   -254.629324300510
           4 :    200.065074953540
           5 :   -149.250573020057
           6 :    110.251341513672
           7 :   -85.7403687962175
           8 :    73.3612852411149
           9 :   -67.8003477119601
          10 :    63.5122884056126
          11 :   -56.9277831780097
          12 :    47.3413663895276
          13 :   -36.3750618347742
          14 :    26.5565485832248
          15 :   -19.8257935341396
          16 :    16.6399373907361
          17 :   -15.9641964839363
          18 :    15.9918640366677
[...]
     SCF correction compared to forces is large: reduce conv_thr to get better values

[...]

   This run was terminated on:  23: 1: 7  17Jan2018

[...]

     Program PWSCF v.5.1rc2 (svn rev. 11289) starts on 17Jan2018 at 23: 1:16

[...]

     Total force =     0.096709     Total SCF correction =     0.003140

[...]

   This run was terminated on:   0: 3:24  18Jan2018

[...]

     Program PWSCF v.5.1rc2 (svn rev. 11289) starts on 18Jan2018 at  0: 3:30

[...]

   This run was terminated on:   0:34:31  18Jan2018

[...]

     Program PWSCF v.5.1rc2 (svn rev. 11289) starts on 18Jan2018 at  0:34:37

     Current dimensions of program PWSCF are:
     Max number of different atomic species (ntypx) = 10
     Max number of k-points (npk) =  40000
     Max angular momentum in pseudopotentials (lmaxx) =  3
     Presently stress not available with electric field

     IMPORTANT: XC functional enforced from input :
     Exchange-correlation      = BEEF-VDW ( 1  4 27 13 2)
     Any further DFT definition will be discarded
     Please, verify this is what you really want

     Subspace diagonalization in iterative solution of the eigenvalue problem:
     a serial algorithm will be used

     bravais-lattice index     =            0
     lattice parameter (alat)  =       1.8897  a.u.
     unit-cell volume          =    4204.8134 (a.u.)^3
     number of atoms/cell      =           13
     number of atomic types    =            2
     number of electrons       =       185.00
     number of Kohn-Sham states=          102
     kinetic-energy cutoff     =      36.7493  Ry
     charge density cutoff     =     367.4932  Ry
     convergence threshold     =      1.0E-05
     mixing beta               =       0.3000
     number of iterations used =           10  plain     mixing
     Exchange-correlation      = BEEF-VDW ( 1  4 27 13 2)
     nstep                     =           50

     celldm(1)=   1.889726  celldm(2)=   0.000000  celldm(3)=   0.000000
     celldm(4)=   0.000000  celldm(5)=   0.000000  celldm(6)=   0.000000

     crystal axes: (cart. coord. in units of alat)
               a(1) = (   5.426750   0.000000   0.000000 )
               a(2) = (   2.713375   4.699703   0.000000 )
               a(3) = (   0.000000   0.000000  24.430923 )

     reciprocal axes: (cart. coord. in units 2 pi/alat)
               b(1) = (  0.184272 -0.106390  0.000000 )
               b(2) = (  0.000000  0.212779  0.000000 )
               b(3) = (  0.000000  0.000000  0.040932 )

     PseudoPot. # 1 for Rh read from file:
     /afs/slac.stanford.edu/u/if/mamunm/psp/gbrv1.5pbe/Rh.UPF
     MD5 check sum: 761627e959a2e3a1f56b0b5fe687810e
     Pseudo is Ultrasoft + core correction, Zval = 15.0
     Generated by new atomic code, or converted to UPF format
     Using radial grid of  969 points,  7 beta functions with:
                l(1) =   0
                l(2) =   0
                l(3) =   1
                l(4) =   1
                l(5) =   2
                l(6) =   2
                l(7) =   2
     Q(r) pseudized with  8 coefficients,  rinner =    1.200   1.200   1.200
                                                       1.200   1.200

     PseudoPot. # 2 for N  read from file:
     /afs/slac.stanford.edu/u/if/mamunm/psp/gbrv1.5pbe/N.UPF
     MD5 check sum: 95339753478d7afb44899504a8723017
     Pseudo is Ultrasoft + core correction, Zval =  5.0
     Generated by new atomic code, or converted to UPF format
     Using radial grid of  729 points,  4 beta functions with:
                l(1) =   0
                l(2) =   0
                l(3) =   1
                l(4) =   1
     Q(r) pseudized with  8 coefficients,  rinner =    0.900   0.900   0.900

     vdW kernel table read from file vdW_kernel_table
     MD5 check sum: 095c7af220d748ca6e76c0b4c6cfb241

     atomic species   valence    mass     pseudopotential
        Rh1           15.00   102.90550     Rh( 1.00)
        N1             5.00    14.00700     N ( 1.00)

     No symmetry found

   Cartesian axes

     site n.     atom                  positions (alat units)
         1           Rh1 tau(   1) = (   1.3566875   0.7832839  10.0000000  )
         2           Rh1 tau(   2) = (   4.0700625   0.7832839  10.0000000  )
         3           Rh1 tau(   3) = (   2.7133750   3.1331356  10.0000000  )
         4           Rh1 tau(   4) = (   5.4267500   3.1331356  10.0000000  )
         5           Rh1 tau(   5) = (   5.4267500   1.5665678  12.2154614  )
         6           Rh1 tau(   6) = (   2.7133750   1.5665678  12.2154614  )
         7           Rh1 tau(   7) = (   6.7834375   3.9164194  12.2154614  )
         8           Rh1 tau(   8) = (   4.0700625   3.9164194  12.2154614  )
         9           Rh1 tau(   9) = (   8.1169157   4.6862708  14.5231200  )
        10           Rh1 tau(  10) = (   5.4495465   4.6864818  14.5232735  )
        11           Rh1 tau(  11) = (   6.7834068   2.3763949  14.5233582  )
        12           Rh1 tau(  12) = (   4.0701186   2.3498873  14.3854611  )
        13           N1  tau(  13) = (   1.3566445   0.7832472  15.5956277  )

     number of k points=    20  Fermi-Dirac smearing, width (Ry)=  0.0110
                       cart. coord. in units 2pi/alat
        k(    1) = (   0.0000000   0.0000000   0.0000000), wk =   0.0555556
        k(    2) = (   0.0000000   0.0354632   0.0000000), wk =   0.1111111
        k(    3) = (   0.0000000   0.0709265   0.0000000), wk =   0.1111111
        k(    4) = (   0.0000000  -0.1063897   0.0000000), wk =   0.0555556
        k(    5) = (   0.0307121  -0.0177316   0.0000000), wk =   0.1111111
        k(    6) = (   0.0307121   0.0177316   0.0000000), wk =   0.1111111
        k(    7) = (   0.0307121   0.0531948   0.0000000), wk =   0.1111111
        k(    8) = (   0.0307121  -0.1241213   0.0000000), wk =   0.1111111
        k(    9) = (   0.0307121  -0.0886581   0.0000000), wk =   0.1111111
        k(   10) = (   0.0307121  -0.0531948   0.0000000), wk =   0.1111111
        k(   11) = (   0.0614241  -0.0354632   0.0000000), wk =   0.1111111
        k(   12) = (   0.0614241   0.0000000   0.0000000), wk =   0.1111111
        k(   13) = (   0.0614241   0.0354632   0.0000000), wk =   0.1111111
        k(   14) = (   0.0614241  -0.1418529   0.0000000), wk =   0.1111111
        k(   15) = (   0.0614241  -0.1063897   0.0000000), wk =   0.1111111
        k(   16) = (   0.0614241  -0.0709265   0.0000000), wk =   0.1111111
        k(   17) = (  -0.0921362   0.0531948   0.0000000), wk =   0.0555556
        k(   18) = (  -0.0921362   0.0886581   0.0000000), wk =   0.1111111
        k(   19) = (  -0.0921362   0.1241213   0.0000000), wk =   0.1111111
        k(   20) = (  -0.0921362  -0.0531948   0.0000000), wk =   0.0555556

     Largest allocated arrays     est. size (Mb)     dimensions
     Largest temporary arrays     est. size (Mb)     dimensions

     Initial potential from superposition of free atoms
     Check: negative starting charge=   -0.659029

     starting charge  178.99881, renormalised to  185.00000

[...]

     *
     * You are using vdW-DF for exchange-correlation in this calculation.
     * Please cite the following three references that made this development
     * possible:
     *
     *   M. Dion, H. Rydberg, E. Schroder, D. C. Langreth, and
     *   B. I. Lundqvist, Phys. Rev. Lett. 92, 246401 (2004).
     *
     *   T. Thonhauser, V. R. Cooper, S. Li, A. Puzder, P. Hyldgaard, and
     *   D. C. Langreth, Phys. Rev. B 76, 125112 (2007).
     *
     *   G. Roman-Perez and J. M. Soler, Phys. Rev. Lett. 103, 096102 (2009).
     *
     *
     * If you are using vdW-DF2, please also cite:
     *
     *   K. Lee, E. D. Murray, L. Kong, B. I. Lundqvist, and
     *   D. C. Langreth, Phys. Rev. B 82, 081101(R) (2010).
     *
     *
     * If you are calculating the stress with vdW-DF, please also cite:
     *
     *   R. Sabatini, E. Kucukbenli, B. Kolb, T. Thonhauser, and
     *   S. de Gironcoli, J. Phys.: Condens. Matter 24, 424209 (2012).
     *

     Carrying out vdW-DF run using the following parameters:

     Nqs =      20    Nr_points =    1024   r_max =   100.000
     q_mesh =
               0.00001000     0.04494208     0.09755937     0.15916263
               0.23128650     0.31572767     0.41458969     0.53033537
               0.66584808     0.82450364     1.01025438     1.22772762
               1.48234092     1.78043706     2.12944203     2.53805004
               3.01644009     3.57652955     4.23227104     5.00000000

     Gradients computed in reciprocal space

[...]

     Starting wfc are  148 randomized atomic wfcs

     Self-consistent Calculation

[...]

     total energy              =   -2086.68731526 Ry
     Harris-Foulkes estimate   =   -2086.68733377 Ry
     estimated scf accuracy    <       0.00012580 Ry

     iteration # 20     ecut=    36.75 Ry     beta=0.30
     Davidson diagonalization with overlap
     ethr =  6.80E-08,  avg # of iterations =  1.4

[...]

     negative rho (up, down):  6.944E-01 0.000E+00

     Adding external electric field

     Computed dipole along edir(3) :
        Dipole               -0.1589 Ry au,         -0.4039 Debye
        Dipole field         -0.0005 Ry au

        Potential amp.        0.0427 Ry
        Total length         45.0136 bohr

     End of self-consistent calculation

[...]

          k = 0.0614-0.0709 0.0000 ( 15838 PWs)   bands (ev):

[...]

          k =-0.0921-0.0532 0.0000 ( 15852 PWs)   bands (ev):

   -45.5344 -45.3942 -45.2974 -45.2892 -45.1940 -45.1759 -45.1720 -45.1574
   -45.1265 -45.1164 -45.0819 -45.0274 -45.0186 -44.9815 -44.9585 -44.9326
   -44.9174 -44.8740 -44.8559 -44.8343 -44.8276 -44.8161 -44.7840 -44.7463
   -44.7392 -44.7188 -44.7072 -44.6406 -44.5725 -44.5667 -44.5644 -44.5629
   -44.5459 -44.5384 -44.5338 -44.5255 -13.3094  -4.3941  -3.6464  -3.5908
    -3.4392  -3.3493  -2.9937  -2.8824  -2.8590  -2.7630  -2.6592  -2.6180
    -2.5128  -2.3857  -2.3603  -2.3390  -2.2374  -2.0981  -1.9357  -1.8643
    -1.6915  -1.5908  -1.5347  -1.5331  -1.4975  -1.3593  -1.1707  -1.0963
    -0.8893  -0.8672  -0.6461  -0.6317  -0.6077  -0.5140  -0.5032  -0.3891
    -0.3353  -0.3315  -0.2938  -0.2764  -0.1918   0.0017   0.2077   0.2379
     0.2411   0.3120   0.3937   0.5268   0.5288   0.7150   0.7248   0.7884
     0.8677   1.0947   1.1090   1.1638   1.2098   1.3416   1.6287   1.8280
     1.8563   1.9359   2.0213   2.0288   2.2446   2.7563

     the Fermi energy is     1.6278 ev

!    total energy              =   -2086.68731705 Ry
     Harris-Foulkes estimate   =   -2086.68731630 Ry
     estimated scf accuracy    <       0.00000601 Ry

     The total energy is the sum of the following terms:

     one-electron contribution =  -19533.29934859 Ry
     hartree contribution      =    9809.12715132 Ry
     xc contribution           =    -377.64075816 Ry
     ewald contribution        =    8015.24962399 Ry
     electric field correction =       0.00007545 Ry
     smearing contrib. (-TS)   =      -0.12406107 Ry

     convergence has been achieved in  20 iterations

 BEEF-vdW xc energy contributions
           1 :   -328.850819657916
           2 :    302.008969571003
           3 :   -255.570473935445
           4 :    201.043903141200
           5 :   -150.031415211495
           6 :    110.654758754626
           7 :   -85.7161318986474
           8 :    72.9962802272739
           9 :   -67.2700409202464
          10 :    63.0032598506015
          11 :   -56.5670173180058
          12 :    47.1661192057178
          13 :   -36.3527406156401
          14 :    26.6277054794961
          15 :   -19.9380489991245
          16 :    16.7639429665314
          17 :   -16.0924767236417
          18 :    16.1250364822170
          19 :   -15.2614952190125
          20 :    12.8381828498109
          21 :   -9.28548286510085
          22 :    5.70924136697607
          23 :   -3.19691781858342
          24 :    2.23928990245020
          25 :   -2.54066573740249
          26 :    3.26012825380622
          27 :   -3.50985402342258
          28 :    2.82379503036918
          29 :   -1.35398163003083
          30 :  -0.282489442055180
          31 :   -32.6004108140571
          32 :   -24.4568517301031

     Forces acting on atoms (Ry/au):

     negative rho (up, down):  6.944E-01 0.000E+00
     atom    1 type  1   force =    -0.00010824    0.00002328    0.00838379
     atom    2 type  1   force =     0.00007403    0.00215769    0.00822021
     atom    3 type  1   force =     0.00187249   -0.00103817    0.00819420
     atom    4 type  1   force =    -0.00184643   -0.00115958    0.00835965
     atom    5 type  1   force =    -0.00067218    0.00034291   -0.00984877
     atom    6 type  1   force =     0.00068823    0.00040680   -0.00985381
     atom    7 type  1   force =     0.00007858    0.00002201   -0.00250792
     atom    8 type  1   force =    -0.00004599   -0.00077087   -0.00983062
     atom    9 type  1   force =     0.00029011    0.00024379   -0.00022942
     atom   10 type  1   force =    -0.00022164    0.00009881   -0.00037312
     atom   11 type  1   force =    -0.00009615   -0.00034914   -0.00037449
     atom   12 type  1   force =     0.00006064   -0.00004637   -0.00034468
     atom   13 type  2   force =    -0.00007345    0.00006885    0.00020498

     Total force =     0.024261     Total SCF correction =     0.011139
     SCF correction compared to forces is large: reduce conv_thr to get better values

     entering subroutine stress ...

     negative rho (up, down):  6.944E-01 0.000E+00
          total   stress  (Ry/bohr**3)                   (kbar)     P=  -28.26
  -0.00019070  -0.00000005  -0.00000005        -28.05     -0.01     -0.01
  -0.00000005  -0.00019054  -0.00000004         -0.01    -28.03     -0.01
  -0.00000005  -0.00000004  -0.00019500         -0.01     -0.01    -28.68

 !ASE

     Writing output data file calc.save

     General routines

     Parallel routines

   This run was terminated on:   0:49: 5  18Jan2018

   JOB DONE.
Job  /afs/slac/g/suncat/bin/suncat-tsmpirun -x LD_LIBRARY_PATH -wdir /scratch/qe842475_CbXrO pw.x -in pw.inp

TID   HOST_NAME   COMMAND_LINE            STATUS            TERMINATION_TIME
00000 suncat0273 pw.x -in pw.inp   Done                     01/18/2018 00:49:05
00001 suncat0273 pw.x -in pw.inp   Done                     01/18/2018 00:49:05
00002 suncat0273 pw.x -in pw.inp   Done                     01/18/2018 00:49:05
00003 suncat0273 pw.x -in pw.inp   Done                     01/18/2018 00:49:05
00004 suncat0273 pw.x -in pw.inp   Done                     01/18/2018 00:49:05
00005 suncat0273 pw.x -in pw.inp   Done                     01/18/2018 00:49:05
00006 suncat0273 pw.x -in pw.inp   Done                     01/18/2018 00:49:05
00007 suncat0273 pw.x -in pw.inp   Done                     01/18/2018 00:49:05
00008 suncat0268 pw.x -in pw.inp   Done                     01/18/2018 00:49:05
00009 suncat0268 pw.x -in pw.inp   Done                     01/18/2018 00:49:05
00010 suncat0268 pw.x -in pw.inp   Done                     01/18/2018 00:49:05
00011 suncat0268 pw.x -in pw.inp   Done                     01/18/2018 00:49:05
00012 suncat0268 pw.x -in pw.inp   Done                     01/18/2018 00:49:05
00013 suncat0268 pw.x -in pw.inp   Done                     01/18/2018 00:49:05
00014 suncat0268 pw.x -in pw.inp   Done                     01/18/2018 00:49:05
00015 suncat0268 pw.x -in pw.inp   Done                     01/18/2018 00:49:05
00016 suncat0266 pw.x -in pw.inp   Done                     01/18/2018 00:49:05
00017 suncat0266 pw.x -in pw.inp   Done                     01/18/2018 00:49:05
00018 suncat0266 pw.x -in pw.inp   Done                     01/18/2018 00:49:05
00019 suncat0266 pw.x -in pw.inp   Done                     01/18/2018 00:49:05
00020 suncat0266 pw.x -in pw.inp   Done                     01/18/2018 00:49:05
00021 suncat0266 pw.x -in pw.inp   Done                     01/18/2018 00:49:05
00022 suncat0266 pw.x -in pw.inp   Done                     01/18/2018 00:49:05
00023 suncat0266 pw.x -in pw.inp   Done                     01/18/2018 00:49:05
00024 suncat0233 pw.x -in pw.inp   Done                     01/18/2018 00:49:05
00025 suncat0233 pw.x -in pw.inp   Done                     01/18/2018 00:49:05
00026 suncat0233 pw.x -in pw.inp   Done                     01/18/2018 00:49:05
00027 suncat0233 pw.x -in pw.inp   Done                     01/18/2018 00:49:05
00028 suncat0233 pw.x -in pw.inp   Done                     01/18/2018 00:49:05
00029 suncat0233 pw.x -in pw.inp   Done                     01/18/2018 00:49:05
00030 suncat0233 pw.x -in pw.inp   Done                     01/18/2018 00:49:05
00031 suncat0233 pw.x -in pw.inp   Done                     01/18/2018 00:49:05