     Program PWSCF v.5.1rc2 (svn rev. 11289) starts on 14Jan2018 at 22:44:18

     Current dimensions of program PWSCF are:
     Max number of different atomic species (ntypx) = 10
     Max number of k-points (npk) =  40000
     Max angular momentum in pseudopotentials (lmaxx) =  3
     Presently stress not available with electric field

     IMPORTANT: XC functional enforced from input :
     Exchange-correlation      = BEEF-VDW ( 1  4 27 13 2)
     Any further DFT definition will be discarded
     Please, verify this is what you really want

     Subspace diagonalization in iterative solution of the eigenvalue problem:
     a serial algorithm will be used

     bravais-lattice index     =            0
     lattice parameter (alat)  =       1.8897  a.u.
     unit-cell volume          =    4552.2840 (a.u.)^3
     number of atoms/cell      =           13
     number of atomic types    =            2
     number of electrons       =       173.00
     number of Kohn-Sham states=           96
     kinetic-energy cutoff     =      36.7493  Ry
     charge density cutoff     =     367.4932  Ry
     convergence threshold     =      1.0E-05
     mixing beta               =       0.3000
     number of iterations used =           10  plain     mixing
     Exchange-correlation      = BEEF-VDW ( 1  4 27 13 2)
     nstep                     =           50

     celldm(1)=   1.889726  celldm(2)=   0.000000  celldm(3)=   0.000000
     celldm(4)=   0.000000  celldm(5)=   0.000000  celldm(6)=   0.000000

     crystal axes: (cart. coord. in units of alat)
               a(1) = (   5.627661   0.000000   0.000000 )
               a(2) = (   2.813831   4.873698   0.000000 )
               a(3) = (   0.000000   0.000000  24.594966 )

     reciprocal axes: (cart. coord. in units 2 pi/alat)
               b(1) = (  0.177694 -0.102592  0.000000 )
               b(2) = (  0.000000  0.205183  0.000000 )
               b(3) = (  0.000000  0.000000  0.040659 )

     PseudoPot. # 1 for Mo read from file:
     /afs/slac.stanford.edu/u/if/mamunm/psp/gbrv1.5pbe/Mo.UPF
     MD5 check sum: 30c4dcd161f5d35cd49bb5239c51a633
     Pseudo is Ultrasoft + core correction, Zval = 14.0
     Generated by new atomic code, or converted to UPF format
     Using radial grid of  889 points,  6 beta functions with:
                l(1) =   0
                l(2) =   0
                l(3) =   1
                l(4) =   1
                l(5) =   2
                l(6) =   2
     Q(r) pseudized with  6 coefficients,  rinner =    1.000   1.000   1.000
                                                       1.000   1.000

     PseudoPot. # 2 for N  read from file:
     /afs/slac.stanford.edu/u/if/mamunm/psp/gbrv1.5pbe/N.UPF
     MD5 check sum: 95339753478d7afb44899504a8723017
     Pseudo is Ultrasoft + core correction, Zval =  5.0
     Generated by new atomic code, or converted to UPF format
     Using radial grid of  729 points,  4 beta functions with:
                l(1) =   0
                l(2) =   0
                l(3) =   1
                l(4) =   1
     Q(r) pseudized with  8 coefficients,  rinner =    0.900   0.900   0.900

     vdW kernel table read from file vdW_kernel_table
     MD5 check sum: 095c7af220d748ca6e76c0b4c6cfb241

     atomic species   valence    mass     pseudopotential
        Mo1           14.00    95.95000     Mo( 1.00)
        N1             5.00    14.00700     N ( 1.00)

     No symmetry found

   Cartesian axes

     site n.     atom                  positions (alat units)
         1           Mo1 tau(   1) = (   1.4069153   0.8122829  10.0000000  )
         2           Mo1 tau(   2) = (   4.2207459   0.8122829  10.0000000  )
         3           Mo1 tau(   3) = (   2.8138306   3.2491317  10.0000000  )
         4           Mo1 tau(   4) = (   5.6276612   3.2491317  10.0000000  )
         5           Mo1 tau(   5) = (   5.6276612   1.6245658  12.2974831  )
         6           Mo1 tau(   6) = (   2.8138306   1.6245658  12.2974831  )
         7           Mo1 tau(   7) = (   7.0345765   4.0614146  12.2974831  )
         8           Mo1 tau(   8) = (   4.2207459   4.0614146  12.2974831  )
         9           Mo1 tau(   9) = (   0.0000000   0.0000000  14.5949661  )
        10           Mo1 tau(  10) = (   2.8138306   0.0000000  14.5949661  )
        11           Mo1 tau(  11) = (   1.4069153   2.4368488  14.5949661  )
        12           Mo1 tau(  12) = (   4.2207459   2.4368488  14.5949661  )
        13           N1  tau(  13) = (   1.4069153   0.0000000  16.8449661  )

     number of k points=    20  Fermi-Dirac smearing, width (Ry)=  0.0110
                       cart. coord. in units 2pi/alat
        k(    1) = (   0.0000000   0.0000000   0.0000000), wk =   0.0555556
        k(    2) = (   0.0000000   0.0341972   0.0000000), wk =   0.1111111
        k(    3) = (   0.0000000   0.0683943   0.0000000), wk =   0.1111111
        k(    4) = (   0.0000000  -0.1025915   0.0000000), wk =   0.0555556
        k(    5) = (   0.0296156  -0.0170986   0.0000000), wk =   0.1111111
        k(    6) = (   0.0296156   0.0170986   0.0000000), wk =   0.1111111
        k(    7) = (   0.0296156   0.0512958   0.0000000), wk =   0.1111111
        k(    8) = (   0.0296156  -0.1196901   0.0000000), wk =   0.1111111
        k(    9) = (   0.0296156  -0.0854929   0.0000000), wk =   0.1111111
        k(   10) = (   0.0296156  -0.0512958   0.0000000), wk =   0.1111111
        k(   11) = (   0.0592312  -0.0341972   0.0000000), wk =   0.1111111
        k(   12) = (   0.0592312   0.0000000   0.0000000), wk =   0.1111111
        k(   13) = (   0.0592312   0.0341972   0.0000000), wk =   0.1111111
        k(   14) = (   0.0592312  -0.1367887   0.0000000), wk =   0.1111111
        k(   15) = (   0.0592312  -0.1025915   0.0000000), wk =   0.1111111
        k(   16) = (   0.0592312  -0.0683943   0.0000000), wk =   0.1111111
        k(   17) = (  -0.0888469   0.0512958   0.0000000), wk =   0.0555556
        k(   18) = (  -0.0888469   0.0854929   0.0000000), wk =   0.1111111
        k(   19) = (  -0.0888469   0.1196901   0.0000000), wk =   0.1111111
        k(   20) = (  -0.0888469  -0.0512958   0.0000000), wk =   0.0555556

     Largest allocated arrays     est. size (Mb)     dimensions
     Largest temporary arrays     est. size (Mb)     dimensions

     Initial potential from superposition of free atoms
     Check: negative starting charge=   -0.004868

     starting charge  172.98723, renormalised to  173.00000

     negative rho (up, down):  4.869E-03 0.000E+00

     *
     * You are using vdW-DF for exchange-correlation in this calculation.
     * Please cite the following three references that made this development
     * possible:
     *
     *   M. Dion, H. Rydberg, E. Schroder, D. C. Langreth, and
     *   B. I. Lundqvist, Phys. Rev. Lett. 92, 246401 (2004).
     *
     *   T. Thonhauser, V. R. Cooper, S. Li, A. Puzder, P. Hyldgaard, and
     *   D. C. Langreth, Phys. Rev. B 76, 125112 (2007).
     *
     *   G. Roman-Perez and J. M. Soler, Phys. Rev. Lett. 103, 096102 (2009).
     *
     *
     * If you are using vdW-DF2, please also cite:
     *
     *   K. Lee, E. D. Murray, L. Kong, B. I. Lundqvist, and
     *   D. C. Langreth, Phys. Rev. B 82, 081101(R) (2010).
     *
     *
     * If you are calculating the stress with vdW-DF, please also cite:
     *
     *   R. Sabatini, E. Kucukbenli, B. Kolb, T. Thonhauser, and
     *   S. de Gironcoli, J. Phys.: Condens. Matter 24, 424209 (2012).
     *

     Carrying out vdW-DF run using the following parameters:

     Nqs =      20    Nr_points =    1024   r_max =   100.000
     q_mesh =
               0.00001000     0.04494208     0.09755937     0.15916263
               0.23128650     0.31572767     0.41458969     0.53033537
               0.66584808     0.82450364     1.01025438     1.22772762
               1.48234092     1.78043706     2.12944203     2.53805004
               3.01644009     3.57652955     4.23227104     5.00000000

     Gradients computed in reciprocal space

     Adding external electric field

     Computed dipole along edir(3) :
        Dipole               -0.0031 Ry au,         -0.0079 Debye
        Dipole field         -0.0000 Ry au

        Potential amp.        0.0008 Ry
        Total length         45.3158 bohr

     Starting wfc are  160 randomized atomic wfcs

     Self-consistent Calculation

     iteration #  1     ecut=    36.75 Ry     beta=0.30
     Davidson diagonalization with overlap
     ethr =  1.00E-02,  avg # of iterations =  2.0

[...]

     total energy              =   -1695.77707562 Ry
     Harris-Foulkes estimate   =   -1699.86832079 Ry
     estimated scf accuracy    <       8.42726780 Ry

[...]

     iteration # 14     ecut=    36.75 Ry     beta=0.30
     Davidson diagonalization with overlap
     c_bands:  1 eigenvalues not converged
     ethr =  4.28E-06,  avg # of iterations =  6.8

[...]

     End of self-consistent calculation

          k = 0.0000 0.0000 0.0000 ( 17111 PWs)   bands (ev):

   -59.3920 -59.2818 -59.2340 -59.2157 -59.1850 -59.1709 -59.1081 -59.1038
   -59.0982 -59.0700 -59.0657 -59.0600 -33.9008 -33.8905 -33.8829 -33.8138
   -33.8110 -33.8071 -33.8022 -33.7105 -33.7039 -33.7013 -33.3914 -33.2707
   -33.2639 -33.2544 -33.1812 -33.1795 -33.1721 -33.0878 -33.0804 -33.0795
   -32.9650 -32.9631 -32.9616 -32.9463 -32.9430 -32.9391 -32.8601 -32.8406
   -32.8375 -32.8360 -32.8156 -32.8035 -32.7221 -32.7212 -32.6396 -32.6377
    -9.9370  -4.2570  -2.9249  -2.7965  -2.7949  -2.7896  -2.7577  -2.3531
    -2.3464  -2.3416  -2.1382  -2.1340  -2.1330  -1.9061  -1.8984  -1.8917
    -0.7588  -0.7409  -0.6813   0.2180   0.2779   0.2931   0.4549   0.6285
     0.8876   0.9741   0.9909   1.1082   1.2445   1.2615   1.3502   1.3632
     1.3819   1.3992   1.4380   1.4588   1.6835   1.7823   2.0801   2.1560
     2.8084   2.9100   2.9680   2.9924   2.9979   3.0173   3.5122   3.5180

[...]

          k =-0.0888 0.0513 0.0000 ( 17160 PWs)   bands (ev):

[...]

     the Fermi energy is     1.7010 ev

!    total energy              =   -1699.30858024 Ry
     Harris-Foulkes estimate   =   -1699.30852215 Ry
     estimated scf accuracy    <       0.00000623 Ry

     The total energy is the sum of the following terms:

     one-electron contribution =  -15414.77981637 Ry
     hartree contribution      =    7700.84480356 Ry
     xc contribution           =    -245.19961775 Ry
     ewald contribution        =    6259.93136476 Ry
     electric field correction =       0.00091981 Ry
     smearing contrib. (-TS)   =      -0.10623425 Ry

     convergence has been achieved in  19 iterations

 BEEF-vdW xc energy contributions
           1 :   -210.484926604142
           2 :    192.040605832711
           3 :   -160.570019378255
           4 :    124.493848007366
           5 :   -92.0942587599471
           6 :    68.9254249072153
           7 :   -56.6012438025410
           8 :    53.1218720754363
           9 :   -54.3923520143460
          10 :    56.1500102413784
          11 :   -55.5273632813650
          12 :    51.7241605098213
          13 :   -45.7303531429155
          14 :    39.4044401660040
          15 :   -34.4191419871059
[...]

[...]

     Total force =     0.063606     Total SCF correction =     0.012891
     SCF correction compared to forces is large: reduce conv_thr to get better values

[...]

     Program PWSCF v.5.1rc2 (svn rev. 11289) starts on 15Jan2018 at  1:22: 0

[...]

     Total force =     0.154043     Total SCF correction =     0.006029

[...]

   This run was terminated on:   2:19: 1  15Jan2018

[...]

     Program PWSCF v.5.1rc2 (svn rev. 11289) starts on 15Jan2018 at  2:19: 7

[...]

   This run was terminated on:   3: 0:29  15Jan2018

[...]

     Program PWSCF v.5.1rc2 (svn rev. 11289) starts on 15Jan2018 at  3: 0:34

[...]

     Program PWSCF v.5.1rc2 (svn rev. 11289) starts on 15Jan2018 at  3:14:30

     Current dimensions of program PWSCF are:
     Max number of different atomic species (ntypx) = 10
     Max number of k-points (npk) =  40000
     Max angular momentum in pseudopotentials (lmaxx) =  3
     Presently stress not available with electric field

     IMPORTANT: XC functional enforced from input :
     Exchange-correlation      = BEEF-VDW ( 1  4 27 13 2)
     Any further DFT definition will be discarded
     Please, verify this is what you really want

     Subspace diagonalization in iterative solution of the eigenvalue problem:
     a serial algorithm will be used

     bravais-lattice index     =            0
     lattice parameter (alat)  =       1.8897  a.u.
     unit-cell volume          =    4552.2840 (a.u.)^3
     number of atoms/cell      =           13
     number of atomic types    =            2
     number of electrons       =       173.00
     number of Kohn-Sham states=           96
     kinetic-energy cutoff     =      36.7493  Ry
     charge density cutoff     =     367.4932  Ry
     convergence threshold     =      1.0E-05
     mixing beta               =       0.3000
     number of iterations used =           10  plain     mixing
     Exchange-correlation      = BEEF-VDW ( 1  4 27 13 2)
     nstep                     =           50

     celldm(1)=   1.889726  celldm(2)=   0.000000  celldm(3)=   0.000000
     celldm(4)=   0.000000  celldm(5)=   0.000000  celldm(6)=   0.000000

     crystal axes: (cart. coord. in units of alat)
               a(1) = (   5.627661   0.000000   0.000000 )
               a(2) = (   2.813831   4.873698   0.000000 )
               a(3) = (   0.000000   0.000000  24.594966 )

     reciprocal axes: (cart. coord. in units 2 pi/alat)
               b(1) = (  0.177694 -0.102592  0.000000 )
               b(2) = (  0.000000  0.205183  0.000000 )
               b(3) = (  0.000000  0.000000  0.040659 )

     PseudoPot. # 1 for Mo read from file:
     /afs/slac.stanford.edu/u/if/mamunm/psp/gbrv1.5pbe/Mo.UPF
     MD5 check sum: 30c4dcd161f5d35cd49bb5239c51a633
     Pseudo is Ultrasoft + core correction, Zval = 14.0
     Generated by new atomic code, or converted to UPF format
     Using radial grid of  889 points,  6 beta functions with:
                l(1) =   0
                l(2) =   0
                l(3) =   1
                l(4) =   1
                l(5) =   2
                l(6) =   2
     Q(r) pseudized with  6 coefficients,  rinner =    1.000   1.000   1.000
                                                       1.000   1.000

     PseudoPot. # 2 for N  read from file:
     /afs/slac.stanford.edu/u/if/mamunm/psp/gbrv1.5pbe/N.UPF
     MD5 check sum: 95339753478d7afb44899504a8723017
     Pseudo is Ultrasoft + core correction, Zval =  5.0
     Generated by new atomic code, or converted to UPF format
     Using radial grid of  729 points,  4 beta functions with:
                l(1) =   0
                l(2) =   0
                l(3) =   1
                l(4) =   1
     Q(r) pseudized with  8 coefficients,  rinner =    0.900   0.900   0.900

     vdW kernel table read from file vdW_kernel_table
     MD5 check sum: 095c7af220d748ca6e76c0b4c6cfb241

     atomic species   valence    mass     pseudopotential
        Mo1           14.00    95.95000     Mo( 1.00)
        N1             5.00    14.00700     N ( 1.00)

     No symmetry found

   Cartesian axes

     site n.     atom                  positions (alat units)
         1           Mo1 tau(   1) = (   1.4069153   0.8122829  10.0000000  )
         2           Mo1 tau(   2) = (   4.2207459   0.8122829  10.0000000  )
         3           Mo1 tau(   3) = (   2.8138306   3.2491317  10.0000000  )
         4           Mo1 tau(   4) = (   5.6276612   3.2491317  10.0000000  )
         5           Mo1 tau(   5) = (   5.6276612   1.6245658  12.2974831  )
         6           Mo1 tau(   6) = (   2.8138306   1.6245658  12.2974831  )
         7           Mo1 tau(   7) = (   7.0345765   4.0614146  12.2974831  )
         8           Mo1 tau(   8) = (   4.2207459   4.0614146  12.2974831  )
         9           Mo1 tau(   9) = (   5.6119001   0.2346287  14.6584222  )
        10           Mo1 tau(  10) = (   2.8295407   0.2346204  14.6584235  )
        11           Mo1 tau(  11) = (   7.0345459   2.6991993  14.3445252  )
        12           Mo1 tau(  12) = (   4.2207198   2.6490314  14.6996752  )
        13           N1  tau(  13) = (   4.2207177   4.3128649  15.7476237  )

     number of k points=    20  Fermi-Dirac smearing, width (Ry)=  0.0110
                       cart. coord. in units 2pi/alat
        k(    1) = (   0.0000000   0.0000000   0.0000000), wk =   0.0555556
        k(    2) = (   0.0000000   0.0341972   0.0000000), wk =   0.1111111
        k(    3) = (   0.0000000   0.0683943   0.0000000), wk =   0.1111111
        k(    4) = (   0.0000000  -0.1025915   0.0000000), wk =   0.0555556
        k(    5) = (   0.0296156  -0.0170986   0.0000000), wk =   0.1111111
        k(    6) = (   0.0296156   0.0170986   0.0000000), wk =   0.1111111
        k(    7) = (   0.0296156   0.0512958   0.0000000), wk =   0.1111111
        k(    8) = (   0.0296156  -0.1196901   0.0000000), wk =   0.1111111
        k(    9) = (   0.0296156  -0.0854929   0.0000000), wk =   0.1111111
        k(   10) = (   0.0296156  -0.0512958   0.0000000), wk =   0.1111111
        k(   11) = (   0.0592312  -0.0341972   0.0000000), wk =   0.1111111
        k(   12) = (   0.0592312   0.0000000   0.0000000), wk =   0.1111111
        k(   13) = (   0.0592312   0.0341972   0.0000000), wk =   0.1111111
        k(   14) = (   0.0592312  -0.1367887   0.0000000), wk =   0.1111111
        k(   15) = (   0.0592312  -0.1025915   0.0000000), wk =   0.1111111
        k(   16) = (   0.0592312  -0.0683943   0.0000000), wk =   0.1111111
        k(   17) = (  -0.0888469   0.0512958   0.0000000), wk =   0.0555556
        k(   18) = (  -0.0888469   0.0854929   0.0000000), wk =   0.1111111
        k(   19) = (  -0.0888469   0.1196901   0.0000000), wk =   0.1111111
        k(   20) = (  -0.0888469  -0.0512958   0.0000000), wk =   0.0555556

     Largest allocated arrays     est. size (Mb)     dimensions
     Largest temporary arrays     est. size (Mb)     dimensions

     Initial potential from superposition of free atoms
     Check: negative starting charge=   -0.005058

     starting charge  172.98723, renormalised to  173.00000

[...]

     *
     * You are using vdW-DF for exchange-correlation in this calculation.
     * Please cite the following three references that made this development
     * possible:
     *
     *   M. Dion, H. Rydberg, E. Schroder, D. C. Langreth, and
     *   B. I. Lundqvist, Phys. Rev. Lett. 92, 246401 (2004).
     *
     *   T. Thonhauser, V. R. Cooper, S. Li, A. Puzder, P. Hyldgaard, and
     *   D. C. Langreth, Phys. Rev. B 76, 125112 (2007).
     *
     *   G. Roman-Perez and J. M. Soler, Phys. Rev. Lett. 103, 096102 (2009).
     *
     *
     * If you are using vdW-DF2, please also cite:
     *
     *   K. Lee, E. D. Murray, L. Kong, B. I. Lundqvist, and
     *   D. C. Langreth, Phys. Rev. B 82, 081101(R) (2010).
     *
     *
     * If you are calculating the stress with vdW-DF, please also cite:
     *
     *   R. Sabatini, E. Kucukbenli, B. Kolb, T. Thonhauser, and
     *   S. de Gironcoli, J. Phys.: Condens. Matter 24, 424209 (2012).
     *

     Carrying out vdW-DF run using the following parameters:

     Nqs =      20    Nr_points =    1024   r_max =   100.000
     q_mesh =
               0.00001000     0.04494208     0.09755937     0.15916263
               0.23128650     0.31572767     0.41458969     0.53033537
               0.66584808     0.82450364     1.01025438     1.22772762
               1.48234092     1.78043706     2.12944203     2.53805004
               3.01644009     3.57652955     4.23227104     5.00000000

     Gradients computed in reciprocal space

[...]

     Starting wfc are  160 randomized atomic wfcs

     Self-consistent Calculation

[...]

     total energy              =   -1699.69715735 Ry
     Harris-Foulkes estimate   =   -1699.69716197 Ry
     estimated scf accuracy    <       0.00011551 Ry

     iteration # 17     ecut=    36.75 Ry     beta=0.30
     Davidson diagonalization with overlap
     ethr =  3.71E-08,  avg # of iterations =  1.7

[...]

     negative rho (up, down):  5.179E-03 0.000E+00

     Adding external electric field

     Computed dipole along edir(3) :
        Dipole               -0.0675 Ry au,         -0.1716 Debye
        Dipole field         -0.0002 Ry au

        Potential amp.        0.0169 Ry
        Total length         45.3158 bohr

     End of self-consistent calculation

[...]

          k = 0.0592-0.0684 0.0000 ( 17122 PWs)   bands (ev):

[...]

          k =-0.0888-0.0513 0.0000 ( 17160 PWs)   bands (ev):

   -58.7662 -58.7440 -58.6764 -58.6533 -58.6473 -58.5742 -58.5498 -58.5184
   -58.5135 -58.4780 -58.4684 -58.4430 -33.3308 -33.2644 -33.1625 -33.1054
   -33.1036 -33.0873 -32.9682 -32.9124 -32.9056 -32.8819 -32.8465 -32.8307
   -32.8209 -32.7646 -32.6821 -32.6580 -32.6436 -32.6243 -32.6212 -32.5699
   -32.5188 -32.4995 -32.4935 -32.4786 -32.4620 -32.4303 -32.4091 -32.3921
   -32.3370 -32.2995 -32.2886 -32.2657 -32.2427 -32.1493 -32.1487 -32.0193
   -11.9640  -2.8927  -2.1215  -2.0825  -1.9601  -1.8978  -1.4338  -1.1666
    -1.1437  -1.0383  -0.9511  -0.9215  -0.6825  -0.5732  -0.4441  -0.4069
    -0.2782  -0.2227  -0.1399   0.1959   0.3445   0.4646   0.5127   0.5282
     0.8127   0.8592   0.9825   1.0825   1.2065   1.2403   1.4184   1.4992
     1.5161   1.6207   1.6709   1.7197   1.8371   1.9060   1.9887   2.2394
     2.3088   2.6219   2.8365   2.8604   3.1067   3.1580   3.3135   3.4189

     the Fermi energy is     2.3392 ev

!    total energy              =   -1699.69715462 Ry
     Harris-Foulkes estimate   =   -1699.69716491 Ry
     estimated scf accuracy    <       0.00000673 Ry

     The total energy is the sum of the following terms:

     one-electron contribution =  -15720.28636775 Ry
     hartree contribution      =    7856.36750944 Ry
     xc contribution           =    -245.87315394 Ry
     ewald contribution        =    6410.18558943 Ry
     electric field correction =       0.00001258 Ry
     smearing contrib. (-TS)   =      -0.09074438 Ry

     convergence has been achieved in  17 iterations

 BEEF-vdW xc energy contributions
           1 :   -211.173688494520
           2 :    192.952048789221
           3 :   -161.726011452687
           4 :    125.709578594180
           5 :   -93.1050428569988
           6 :    69.5131863295920
           7 :   -56.6735652502173
           8 :    52.7342753747147
           9 :   -53.7176395706684
          10 :    55.4123287631383
          11 :   -54.9255029948522
          12 :    51.3717055755673
          13 :   -45.6378414349429
          14 :    39.5032193551741
          15 :   -34.6040566475144
          16 :    31.6823995424139
          17 :   -30.3864472234728
          18 :    29.6115617421435
          19 :   -28.1567988418406
          20 :    25.3430754885845
          21 :   -21.3027835140427
          22 :    16.8301969993094
          23 :   -12.9186747148939
          24 :    10.2441960671436
          25 :   -8.86067734568567
          26 :    8.23022229566692
          27 :   -7.54007033082127
          28 :    6.12033913857204
          29 :   -3.75398609620598
          30 :   0.738991008764515
          31 :   -24.1167340003738
          32 :   -18.4991301224857

     Forces acting on atoms (Ry/au):

     negative rho (up, down):  5.179E-03 0.000E+00
     atom    1 type  1   force =     0.00000131    0.00187865   -0.00525757
     atom    2 type  1   force =    -0.00000145    0.00085319   -0.00083997
     atom    3 type  1   force =    -0.00043464   -0.00541114   -0.00577864
     atom    4 type  1   force =     0.00043433   -0.00541358   -0.00578059
     atom    5 type  1   force =    -0.01490632   -0.00149376   -0.00762203
     atom    6 type  1   force =     0.01490680   -0.00149384   -0.00762330
     atom    7 type  1   force =    -0.00000146    0.01657713   -0.02102782
     atom    8 type  1   force =     0.00000132   -0.00572022    0.05353943
     atom    9 type  1   force =     0.00059628    0.00030277    0.00025205
     atom   10 type  1   force =    -0.00059516    0.00030598    0.00025046
     atom   11 type  1   force =     0.00000035   -0.00010202    0.00056286
     atom   12 type  1   force =    -0.00000037   -0.00013848   -0.00027807
     atom   13 type  2   force =    -0.00000099   -0.00014470   -0.00039683

     Total force =     0.065888     Total SCF correction =     0.014916
     SCF correction compared to forces is large: reduce conv_thr to get better values

     entering subroutine stress ...

     negative rho (up, down):  5.179E-03 0.000E+00
          total   stress  (Ry/bohr**3)                   (kbar)     P=   -6.25
  -0.00008098   0.00000001  -0.00000000        -11.91      0.00     -0.00
   0.00000001  -0.00006723   0.00000771          0.00     -9.89      1.13
  -0.00000000   0.00000771   0.00002079         -0.00      1.13      3.06

 !ASE

     Writing output data file calc.save

     General routines

     Parallel routines

   This run was terminated on:   3:28:25  15Jan2018

   JOB DONE.
Job  /afs/slac/g/suncat/bin/suncat-tsmpirun -x LD_LIBRARY_PATH -wdir /scratch/qe842458_NEkVA pw.x -in pw.inp

TID   HOST_NAME   COMMAND_LINE            STATUS            TERMINATION_TIME
00000 suncat1058 pw.x -in pw.inp   Done                     01/15/2018 03:28:25
00001 suncat1058 pw.x -in pw.inp   Done                     01/15/2018 03:28:25
00002 suncat1058 pw.x -in pw.inp   Done                     01/15/2018 03:28:25
00003 suncat1058 pw.x -in pw.inp   Done                     01/15/2018 03:28:25
00004 suncat1058 pw.x -in pw.inp   Done                     01/15/2018 03:28:25
00005 suncat1058 pw.x -in pw.inp   Done                     01/15/2018 03:28:25
00006 suncat1058 pw.x -in pw.inp   Done                     01/15/2018 03:28:25
00007 suncat1058 pw.x -in pw.inp   Done                     01/15/2018 03:28:25
00008 suncat1037 pw.x -in pw.inp   Done                     01/15/2018 03:28:25
00009 suncat1037 pw.x -in pw.inp   Done                     01/15/2018 03:28:25
00010 suncat1037 pw.x -in pw.inp   Done                     01/15/2018 03:28:25
00011 suncat1037 pw.x -in pw.inp   Done                     01/15/2018 03:28:25
00012 suncat1037 pw.x -in pw.inp   Done                     01/15/2018 03:28:25
00013 suncat1037 pw.x -in pw.inp   Done                     01/15/2018 03:28:25
00014 suncat1037 pw.x -in pw.inp   Done                     01/15/2018 03:28:25
00015 suncat1037 pw.x -in pw.inp   Done                     01/15/2018 03:28:25
00016 suncat1037 pw.x -in pw.inp   Done                     01/15/2018 03:28:25
00017 suncat1037 pw.x -in pw.inp   Done                     01/15/2018 03:28:25
00018 suncat1037 pw.x -in pw.inp   Done                     01/15/2018 03:28:25
00019 suncat1037 pw.x -in pw.inp   Done                     01/15/2018 03:28:25
00020 suncat1036 pw.x -in pw.inp   Done                     01/15/2018 03:28:25
00021 suncat1036 pw.x -in pw.inp   Done                     01/15/2018 03:28:25
00022 suncat1036 pw.x -in pw.inp   Done                     01/15/2018 03:28:25
00023 suncat1036 pw.x -in pw.inp   Done                     01/15/2018 03:28:25
00024 suncat1036 pw.x -in pw.inp   Done                     01/15/2018 03:28:25
00025 suncat1036 pw.x -in pw.inp   Done                     01/15/2018 03:28:25
00026 suncat1036 pw.x -in pw.inp   Done                     01/15/2018 03:28:25
00027 suncat1036 pw.x -in pw.inp   Done                     01/15/2018 03:28:25
00028 suncat1036 pw.x -in pw.inp   Done                     01/15/2018 03:28:25
00029 suncat1036 pw.x -in pw.inp   Done                     01/15/2018 03:28:25
00030 suncat1036 pw.x -in pw.inp   Done                     01/15/2018 03:28:25
00031 suncat1036 pw.x -in pw.inp   Done                     01/15/2018 03:28:25