     Program PWSCF v.5.1rc2 (svn rev. 11289) starts on 23Apr2018 at 12:14:26

     Current dimensions of program PWSCF are:
     Max number of different atomic species (ntypx) = 10
     Max number of k-points (npk) =  40000
     Max angular momentum in pseudopotentials (lmaxx) =  3
     Presently stress not available with electric field

     IMPORTANT: XC functional enforced from input :
     Exchange-correlation      = BEEF-VDW ( 1  4 27 13 2)
     Any further DFT definition will be discarded
     Please, verify this is what you really want

     Subspace diagonalization in iterative solution of the eigenvalue problem:
     a serial algorithm will be used

     bravais-lattice index     =            0
     lattice parameter (alat)  =       1.8897  a.u.
     unit-cell volume          =    4301.6107 (a.u.)^3
     number of atoms/cell      =           14
     number of atomic types    =            3
     number of electrons       =       185.00
     number of Kohn-Sham states=          102
     kinetic-energy cutoff     =      36.7493  Ry
     charge density cutoff     =     367.4932  Ry
     convergence threshold     =      1.0E-05
     mixing beta               =       0.3000
     number of iterations used =           10  plain     mixing
     Exchange-correlation      = BEEF-VDW ( 1  4 27 13 2)
     nstep                     =           50

     celldm(1)=   1.889726  celldm(2)=   0.000000  celldm(3)=   0.000000
     celldm(4)=   0.000000  celldm(5)=   0.000000  celldm(6)=   0.000000

     crystal axes: (cart. coord. in units of alat)
               a(1) = (   5.483647   0.000000   0.000000 )
               a(2) = (   2.741823   4.748977   0.000000 )
               a(3) = (   0.000000   0.000000  24.477379 )

     reciprocal axes: (cart. coord. in units 2 pi/alat)
               b(1) = (  0.182360 -0.105286  0.000000 )
               b(2) = (  0.000000  0.210572  0.000000 )
               b(3) = (  0.000000  0.000000  0.040854 )

     PseudoPot. # 1 for Tc read from file:
     /u/if/mamunm/psp/gbrv1.5pbe/Tc.UPF
     MD5 check sum: 9eb49e5b028550b2339a02317eb7b844
     Pseudo is Ultrasoft + core correction, Zval = 15.0
     Generated by new atomic code, or converted to UPF format
     Using radial grid of  965 points,  6 beta functions with:
                l(1) =   0
                l(2) =   0
                l(3) =   1
                l(4) =   1
                l(5) =   2
                l(6) =   2
     Q(r) pseudized with  8 coefficients,  rinner =    1.300   1.300   1.300
                                                       1.300   1.300

     PseudoPot. # 2 for C  read from file:
     /u/if/mamunm/psp/gbrv1.5pbe/C.UPF
     MD5 check sum: d1aef80898a10debaa0f26306b886e00
     Pseudo is Ultrasoft + core correction, Zval =  4.0
     Generated by new atomic code, or converted to UPF format
     Using radial grid of  721 points,  4 beta functions with:
                l(1) =   0
                l(2) =   0
                l(3) =   1
                l(4) =   1
     Q(r) pseudized with  8 coefficients,  rinner =    1.100   1.100   1.100

     PseudoPot. # 3 for H  read from file:
     /u/if/mamunm/psp/gbrv1.5pbe/H.UPF
     MD5 check sum: 761ae9a214b05c3daf00ab9f6b793d6f
     Pseudo is Ultrasoft, Zval =  1.0
     Generated by new atomic code, or converted to UPF format
     Using radial grid of  615 points,  2 beta functions with:
                l(1) =   0
                l(2) =   0
     Q(r) pseudized with  8 coefficients,  rinner =    0.700

     vdW kernel table read from file vdW_kernel_table
     MD5 check sum: 095c7af220d748ca6e76c0b4c6cfb241

     atomic species   valence    mass     pseudopotential
        Tc1           15.00    97.90721     Tc( 1.00)
        C1             4.00    12.01100     C ( 1.00)
        H1             1.00     1.00800     H ( 1.00)

     No symmetry found

   Cartesian axes

     site n.     atom                  positions (alat units)
         1           Tc1 tau(   1) = (   1.3709117   0.7914962  10.0000000  )
         2           Tc1 tau(   2) = (   4.1127351   0.7914962  10.0000000  )
         3           Tc1 tau(   3) = (   2.7418234   3.1659850  10.0000000  )
         4           Tc1 tau(   4) = (   5.4836469   3.1659850  10.0000000  )
         5           Tc1 tau(   5) = (   5.4836469   1.5829925  12.2386895  )
         6           Tc1 tau(   6) = (   2.7418234   1.5829925  12.2386895  )
         7           Tc1 tau(   7) = (   6.8545586   3.9574812  12.2386895  )
         8           Tc1 tau(   8) = (   4.1127351   3.9574812  12.2386895  )
         9           Tc1 tau(   9) = (   0.0000000   0.0000000  14.4773789  )
        10           Tc1 tau(  10) = (   2.7418234   0.0000000  14.4773789  )
        11           Tc1 tau(  11) = (   1.3709117   2.3744887  14.4773789  )
        12           Tc1 tau(  12) = (   4.1127351   2.3744887  14.4773789  )
        13           C1  tau(  13) = (   1.3709117   0.7914962  15.9268789  )
        14           H1  tau(  14) = (   1.3709117   0.7914962  17.0268789  )

     number of k points=    20  Fermi-Dirac smearing, width (Ry)=  0.0110
                       cart. coord. in units 2pi/alat
        k(    1) = (   0.0000000   0.0000000   0.0000000), wk =   0.0555556
        k(    2) = (   0.0000000   0.0350953   0.0000000), wk =   0.1111111
        k(    3) = (   0.0000000   0.0701905   0.0000000), wk =   0.1111111
        k(    4) = (   0.0000000  -0.1052858   0.0000000), wk =   0.0555556
        k(    5) = (   0.0303934  -0.0175476   0.0000000), wk =   0.1111111
        k(    6) = (   0.0303934   0.0175476   0.0000000), wk =   0.1111111
        k(    7) = (   0.0303934   0.0526429   0.0000000), wk =   0.1111111
        k(    8) = (   0.0303934  -0.1228335   0.0000000), wk =   0.1111111
        k(    9) = (   0.0303934  -0.0877382   0.0000000), wk =   0.1111111
        k(   10) = (   0.0303934  -0.0526429   0.0000000), wk =   0.1111111
        k(   11) = (   0.0607868  -0.0350953   0.0000000), wk =   0.1111111
        k(   12) = (   0.0607868   0.0000000   0.0000000), wk =   0.1111111
        k(   13) = (   0.0607868   0.0350953   0.0000000), wk =   0.1111111
        k(   14) = (   0.0607868  -0.1403811   0.0000000), wk =   0.1111111
        k(   15) = (   0.0607868  -0.1052858   0.0000000), wk =   0.1111111
        k(   16) = (   0.0607868  -0.0701905   0.0000000), wk =   0.1111111
        k(   17) = (  -0.0911802   0.0526429   0.0000000), wk =   0.0555556
        k(   18) = (  -0.0911802   0.0877382   0.0000000), wk =   0.1111111
        k(   19) = (  -0.0911802   0.1228335   0.0000000), wk =   0.1111111
        k(   20) = (  -0.0911802  -0.0526429   0.0000000), wk =   0.0555556

     Largest allocated arrays     est. size (Mb)     dimensions
     Largest temporary arrays     est. size (Mb)     dimensions

     Check: negative/imaginary core charge=   -0.000022    0.000000

     Initial potential from superposition of free atoms
     Check: negative starting charge=   -1.504727

     starting charge  172.99962, renormalised to  185.00000

     negative rho (up, down):  1.609E+00 0.000E+00

     *
     * You are using vdW-DF for exchange-correlation in this calculation.
     * Please cite the following three references that made this development
     * possible:
     *
     *   M. Dion, H. Rydberg, E. Schroder, D. C. Langreth, and
     *   B. I. Lundqvist, Phys. Rev. Lett. 92, 246401 (2004).
     *
     *   T. Thonhauser, V. R. Cooper, S. Li, A. Puzder, P. Hyldgaard, and
     *   D. C. Langreth, Phys. Rev. B 76, 125112 (2007).
     *
     *   G. Roman-Perez and J. M. Soler, Phys. Rev. Lett. 103, 096102 (2009).
     *
     *
     * If you are using vdW-DF2, please also cite:
     *
     *   K. Lee, E. D. Murray, L. Kong, B. I. Lundqvist, and
     *   D. C. Langreth, Phys. Rev. B 82, 081101(R) (2010).
     *
     *
     * If you are calculating the stress with vdW-DF, please also cite:
     *
     *   R. Sabatini, E. Kucukbenli, B. Kolb, T. Thonhauser, and
     *   S. de Gironcoli, J. Phys.: Condens. Matter 24, 424209 (2012).
     *

     Carrying out vdW-DF run using the following parameters:

     Nqs =      20    Nr_points =    1024   r_max =   100.000
     q_mesh =
               0.00001000     0.04494208     0.09755937     0.15916263
               0.23128650     0.31572767     0.41458969     0.53033537
               0.66584808     0.82450364     1.01025438     1.22772762
               1.48234092     1.78043706     2.12944203     2.53805004
               3.01644009     3.57652955     4.23227104     5.00000000

     Gradients computed in reciprocal space

     Adding external electric field

     Computed dipole along edir(3) :
        Dipole               -2.5611 Ry au,         -6.5097 Debye
        Dipole field         -0.0075 Ry au

        Potential amp.        0.6748 Ry
        Total length         45.0992 bohr

     Starting wfc are  161 randomized atomic wfcs

     Self-consistent Calculation

     iteration #  1     ecut=    36.75 Ry     beta=0.30
     Davidson diagonalization with overlap
     ethr =  1.00E-02,  avg # of iterations =  5.5

[...]

     total energy              =   -1993.22789388 Ry
     Harris-Foulkes estimate   =   -2117.83849252 Ry
     estimated scf accuracy    <     260.44146807 Ry

[...]

     iteration #  3     ecut=    36.75 Ry     beta=0.30
     Davidson diagonalization with overlap
     c_bands:  4 eigenvalues not converged
     ethr =  1.00E-02,  avg # of iterations = 17.0

[...]

     End of self-consistent calculation

          k = 0.0000 0.0000 0.0000 ( 16073 PWs)   bands (ev):

   -64.6064 -64.4559 -64.4483 -64.4458 -64.4453 -64.3498 -64.3443 -64.3438
   -64.3064 -64.2351 -64.2228 -64.2226 -37.0470 -37.0343 -37.0341 -36.9701
   -36.9171 -36.9017 -36.9014 -36.7601 -36.7599 -36.7591 -36.4353 -36.3999
   -36.3998 -36.3898 -36.3237 -36.3236 -36.3114 -36.3059 -36.3018 -36.3017
   -36.1641 -36.1602 -36.1601 -36.1454 -36.1274 -36.1272 -36.0826 -36.0766
   -36.0766 -36.0194 -36.0179 -36.0179 -35.9412 -35.9411 -35.8217 -35.8217
    -8.4143  -3.9843  -3.4679  -2.6071  -2.6071  -2.5399  -2.4269  -2.3197
    -2.1712  -2.1711  -2.0644  -1.9283  -1.9282  -1.6818  -1.6654  -1.6653
    -0.8950  -0.6370  -0.6369   0.2964   0.2964   0.3812   0.6582   0.6865
     0.6866   0.7471   0.9924   0.9924   1.1106   1.3175   1.3177   1.3889
     1.4846   1.4846   1.6467   1.6468   1.9802   2.2660   2.2661   2.7371
     3.0125   3.0242   3.0242   3.3682   3.3682   3.5810   3.5811   3.6083
     3.9081   3.9082   4.1681   4.5959   4.5961   4.7108

[...]

          k =-0.0912 0.0526 0.0000 ( 16164 PWs)   bands (ev):

[...]

     the Fermi energy is     2.6566 ev

!    total energy              =   -2116.14098067 Ry
     Harris-Foulkes estimate   =   -2116.14099804 Ry
     estimated scf accuracy    <       0.00000970 Ry

     The total energy is the sum of the following terms:

     one-electron contribution =  -19020.04871575 Ry
     hartree contribution      =    9511.88753906 Ry
     xc contribution           =    -401.36711947 Ry
     ewald contribution        =    7793.47490788 Ry
     electric field correction =       0.00001111 Ry
     smearing contrib. (-TS)   =      -0.08760349 Ry

     convergence has been achieved in  24 iterations

 BEEF-vdW xc energy contributions
           1 :   -351.573710694981
           2 :    323.242309624478
           3 :   -272.875824492942
           4 :    210.586316795039
           5 :   -147.144277105070
           6 :    91.0311124733021
           7 :   -46.7879875099520
           8 :    14.8859559054631
           9 :    7.02651589420867
          10 :   -22.2702386955524
          11 :    33.4442145474928
          12 :   -41.5535467995949
          13 :    46.0827247328601
          14 :   -45.8177521271995
          15 :    39.9074730137939
          16 :   -28.6828295640619
          17 :    13.8831121958775
          18 :    1.74438301286563
          19 :   -15.2719447279146
          20 :    24.4629917744596
          21 :   -28.3421903418457
          22 :    27.2582196382513
          23 :   -22.4898088290482
          24 :    15.6178376983694
          25 :   -7.97061799636754
          26 :   0.358019724952158
          27 :    6.85334569949498
          28 :   -13.4514920129210
          29 :    19.0832451049035
          30 :   -23.1352885340359
          31 :   -33.5713556133194
          32 :   -24.6553799908136

     Forces acting on atoms (Ry/au):

     negative rho (up, down):  1.591E+00 0.000E+00
     atom    1 type  1   force =     0.00002718    0.00004068    0.02945502
     atom    2 type  1   force =    -0.00002342   -0.00486064    0.03400283
     atom    3 type  1   force =    -0.00423903    0.00239895    0.03406433
     atom    4 type  1   force =     0.00424705    0.00242659    0.03397989
     atom    5 type  1   force =    -0.00007364    0.00007729   -0.00359264
     atom    6 type  1   force =     0.00005619    0.00005203   -0.00355285
     atom    7 type  1   force =    -0.00001703   -0.00000509   -0.07739598
     atom    8 type  1   force =     0.00000339   -0.00009475   -0.00356802
     atom    9 type  1   force =     0.01122077    0.00648397    0.02926949
     atom   10 type  1   force =    -0.01121093    0.00650474    0.02923780
     atom   11 type  1   force =     0.00002618   -0.01299738    0.02927457
     atom   12 type  1   force =    -0.00001999   -0.00002407   -0.04766140
     atom   13 type  2   force =     0.00000239    0.00000024   -0.07309113
     atom   14 type  3   force =     0.00000089   -0.00000255   -0.01042190

     Total force =     0.103904     Total SCF correction =     0.003333

     entering subroutine stress ...

     negative rho (up, down):  1.591E+00 0.000E+00
          total   stress  (Ry/bohr**3)                   (kbar)     P=  -33.96
  -0.00022754   0.00000002  -0.00000001        -33.47      0.00     -0.00
   0.00000002  -0.00022753   0.00000001          0.00    -33.47      0.00
  -0.00000001   0.00000001  -0.00023751         -0.00      0.00    -34.94

     BFGS Geometry Optimization

     number of scf cycles    =   1
     number of bfgs steps    =   0

     energy   new            =   -2116.1409806721 Ry

     new trust radius        =       0.0730911339 bohr
     new conv_thr            =       0.0000099958 Ry

ATOMIC_POSITIONS (crystal)
Tc1      0.166666667   0.166666667   0.408540475    0   0   0
Tc1      0.666666667   0.166666667   0.408540475    0   0   0
Tc1      0.166666667   0.666666667   0.408540475    0   0   0
Tc1      0.666666667   0.666666667   0.408540475    0   0   0
Tc1      0.833333333   0.333333333   0.500000000    0   0   0
Tc1      0.333333333   0.333333333   0.500000000    0   0   0
Tc1      0.833333333   0.833333333   0.500000000    0   0   0
Tc1      0.333333333   0.833333333   0.500000000    0   0   0
Tc1      0.000721561   0.000722507   0.592092303
Tc1      0.498555724   0.000724822   0.592091618
Tc1      0.000726674   0.498551706   0.592092413
Tc1      0.499999412   0.499997318   0.590429132
C1       0.166666884   0.166666693   0.649097308
H1       0.166666894   0.166666382   0.695391608

     Writing output data file calc.save
     Check: negative starting charge=   -1.504727
     NEW-OLD atomic charge density approx. for the potential

     Check: negative/imaginary core charge=   -0.000022    0.000000
     Check: negative starting charge=   -1.508757

[...]

     energy   old            =   -2116.1409806721 Ry
     energy   new            =   -2116.1488272358 Ry

     CASE: energy  _new < energy  _old

[...]

     Total force =     0.005365     Total SCF correction =     0.000659
     SCF correction compared to forces is large: reduce conv_thr to get better values

[...]

     Total force =     0.003763     Total SCF correction =     0.000279

[...]

     number of scf cycles    =  11
     number of bfgs steps    =  10

     energy   old            =   -2116.1627202150 Ry
     energy   new            =   -2116.1627640886 Ry

     CASE: energy  _new < energy  _old

     new trust radius        =       0.0088440831 bohr
     new conv_thr            =       0.0000001000 Ry

ATOMIC_POSITIONS (crystal)
Tc1      0.166666667   0.166666667   0.408540475    0   0   0
Tc1      0.666666667   0.166666667   0.408540475    0   0   0
Tc1      0.166666667   0.666666667   0.408540475    0   0   0
Tc1      0.666666667   0.666666667   0.408540475    0   0   0
Tc1      0.833333333   0.333333333   0.500000000    0   0   0
Tc1      0.333333333   0.333333333   0.500000000    0   0   0
Tc1      0.833333333   0.833333333   0.500000000    0   0   0
Tc1      0.333333333   0.833333333   0.500000000    0   0   0
Tc1     -0.000715617  -0.000729072   0.592895517
Tc1      0.501446072  -0.000729931   0.592896035
Tc1     -0.000722544   0.501445319   0.592897105
Tc1      0.499998599   0.500007246   0.583799110
C1       0.166667434   0.166664776   0.645947304
H1       0.166668766   0.166664487   0.690775508

     Writing output data file calc.save
     Check: negative starting charge=   -1.507625
     NEW-OLD atomic charge density approx. for the potential

     Check: negative/imaginary core charge=   -0.000022    0.000000
     Check: negative starting charge=   -1.507329

[...]

     Self-consistent Calculation

[...]

     total energy              =   -2116.16278142 Ry
     Harris-Foulkes estimate   =   -2116.16278145 Ry
     estimated scf accuracy    <       0.00000020 Ry

     iteration # 13     ecut=    36.75 Ry     beta=0.30
     Davidson diagonalization with overlap
     ethr =  1.06E-10,  avg # of iterations =  3.4

[...]

     negative rho (up, down):  1.593E+00 0.000E+00

     Adding external electric field

     Computed dipole along edir(3) :
        Dipole                0.1065 Ry au,          0.2707 Debye
        Dipole field          0.0003 Ry au

        Potential amp.       -0.0281 Ry
        Total length         45.0992 bohr

     End of self-consistent calculation

[...]

          k = 0.0608-0.0702 0.0000 ( 16203 PWs)   bands (ev):

[...]

          k =-0.0912-0.0526 0.0000 ( 16164 PWs)   bands (ev):

   -64.5252 -64.5154 -64.4431 -64.4296 -64.3607 -64.3551 -64.3036 -64.2972
   -64.2631 -64.2367 -64.1889 -64.1743 -36.9389 -36.8487 -36.8203 -36.7975
   -36.7857 -36.7756 -36.6518 -36.6234 -36.5836 -36.5597 -36.5525 -36.5172
   -36.4076 -36.3807 -36.3392 -36.3334 -36.2999 -36.2991 -36.2672 -36.2613
   -36.2264 -36.2215 -36.1999 -36.1957 -36.1816 -36.1790 -36.1560 -36.1540
   -36.0884 -36.0811 -36.0516 -36.0221 -36.0088 -36.0006 -35.8926 -35.8694
    -8.6038  -3.4253  -2.3345  -2.2335  -1.7389  -1.5877  -1.5827  -1.4724
    -1.3961  -1.2737  -1.1288  -1.0678  -1.0435  -0.8759  -0.6795  -0.6279
    -0.6104  -0.4188  -0.3707  -0.1521  -0.0028   0.0346   0.2081   0.2232
     0.2788   0.4136   0.6298   0.8470   0.9567   1.0014   1.2556   1.2809
     1.3024   1.3552   1.4127   1.4673   1.5345   1.5383   1.6230   1.7507
     1.7945   2.3615   2.3722   2.4626   2.5047   2.5898   2.6529   2.6965
     3.0876   3.1361   3.1853   3.2685   3.3686   3.4028

     the Fermi energy is     2.6908 ev

!    total energy              =   -2116.16278141 Ry
     Harris-Foulkes estimate   =   -2116.16278156 Ry
     estimated scf accuracy    <       0.00000003 Ry

     The total energy is the sum of the following terms:

     one-electron contribution =  -19105.26998180 Ry
     hartree contribution      =    9554.53485973 Ry
     xc contribution           =    -401.54370440 Ry
     ewald contribution        =    7836.20319180 Ry
     electric field correction =       0.00003315 Ry
     smearing contrib. (-TS)   =      -0.08717988 Ry

     convergence has been achieved in  13 iterations

 BEEF-vdW xc energy contributions
           1 :   -351.749733161286
           2 :    323.461592812160
           3 :   -273.150991910371
           4 :    210.891339521717
           5 :   -147.425782948232
           6 :    91.2313222057491
           7 :   -46.8679555393959
           8 :    14.8422752486225
           9 :    7.15771900015289
          10 :   -22.4256861146857
          11 :    33.5592884524459
          12 :   -41.5893588551835
          13 :    46.0430256495196
          14 :   -45.7464692760659
          15 :    39.8667227100979
          16 :   -28.7217880264461
          17 :    14.0120425642846
          18 :    1.56116283899092
          19 :   -15.1017073643214
          20 :    24.3749600960831
          21 :   -28.3760153809629
          22 :    27.4067219556243
          23 :   -22.7032747046519
          24 :    15.8262241374129
          25 :   -8.11388260678450
          26 :   0.409847111602176
          27 :    6.87900674181753
          28 :   -13.5110209912424
          29 :    19.1243550263695
          30 :   -23.1207380738147
          31 :   -33.5824306547101
          32 :   -24.6760051735466

     Forces acting on atoms (Ry/au):

     negative rho (up, down):  1.593E+00 0.000E+00
     atom    1 type  1   force =     0.00000030   -0.00000093    0.02677631
     atom    2 type  1   force =    -0.00000014   -0.00519876    0.02976400
     atom    3 type  1   force =    -0.00450009    0.00259859    0.02977198
     atom    4 type  1   force =     0.00450023    0.00259881    0.02977184
     atom    5 type  1   force =     0.00571188   -0.00329841   -0.01353874
     atom    6 type  1   force =    -0.00571134   -0.00329900   -0.01353760
     atom    7 type  1   force =    -0.00000060    0.00000145   -0.07637791
     atom    8 type  1   force =     0.00000075    0.00659910   -0.01353788
     atom    9 type  1   force =    -0.00070982   -0.00040170    0.00050391
     atom   10 type  1   force =     0.00070992   -0.00040006    0.00049879
     atom   11 type  1   force =     0.00000149    0.00080792    0.00049100
     atom   12 type  1   force =    -0.00000306   -0.00001108    0.00133764
     atom   13 type  2   force =     0.00000105    0.00000483   -0.00017924
     atom   14 type  3   force =    -0.00000059   -0.00000075   -0.00174411

     Total force =     0.002755     Total SCF correction =     0.000282
     SCF correction compared to forces is large: reduce conv_thr to get better values

     entering subroutine stress ...

     negative rho (up, down):  1.593E+00 0.000E+00
          total   stress  (Ry/bohr**3)                   (kbar)     P=  -25.47
  -0.00019348  -0.00000000  -0.00000000        -28.46     -0.00     -0.00
  -0.00000000  -0.00019348   0.00000000         -0.00    -28.46      0.00
  -0.00000000   0.00000000  -0.00013247         -0.00      0.00    -19.49

     bfgs converged in  12 scf cycles and  11 bfgs steps
     (criteria: energy <  1.0E+00, force <  1.9E-03)

     End of BFGS Geometry Optimization

     Final energy   =   -2116.1627814068 Ry
Begin final coordinates

ATOMIC_POSITIONS (crystal)
Tc1      0.166666667   0.166666667   0.408540475    0   0   0
Tc1      0.666666667   0.166666667   0.408540475    0   0   0
Tc1      0.166666667   0.666666667   0.408540475    0   0   0
Tc1      0.666666667   0.666666667   0.408540475    0   0   0
Tc1      0.833333333   0.333333333   0.500000000    0   0   0
Tc1      0.333333333   0.333333333   0.500000000    0   0   0
Tc1      0.833333333   0.833333333   0.500000000    0   0   0
Tc1      0.333333333   0.833333333   0.500000000    0   0   0
Tc1     -0.000715617  -0.000729072   0.592895517
Tc1      0.501446072  -0.000729931   0.592896035
Tc1     -0.000722544   0.501445319   0.592897105
Tc1      0.499998599   0.500007246   0.583799110
C1       0.166667434   0.166664776   0.645947304
H1       0.166668766   0.166664487   0.690775508
End final coordinates

     Writing output data file calc.save

     General routines

     Parallel routines

   This run was terminated on:  13:21: 1  23Apr2018

   JOB DONE.
Job  /afs/slac/g/suncat/bin/suncat-tsmpirun -x LD_LIBRARY_PATH -wdir /scratch/qe165941_zpbXE pw.x -npool 3 -in pw.inp

TID   HOST_NAME   COMMAND_LINE            STATUS            TERMINATION_TIME
00000 suncat1059 pw.x -npool 3 -i  Done                     04/23/2018 13:21:01
00001 suncat1059 pw.x -npool 3 -i  Done                     04/23/2018 13:21:01
00002 suncat1059 pw.x -npool 3 -i  Done                     04/23/2018 13:21:01
00003 suncat1059 pw.x -npool 3 -i  Done                     04/23/2018 13:21:01
00004 suncat1059 pw.x -npool 3 -i  Done                     04/23/2018 13:21:01
00005 suncat1059 pw.x -npool 3 -i  Done                     04/23/2018 13:21:01
00006 suncat1059 pw.x -npool 3 -i  Done                     04/23/2018 13:21:01
00007 suncat1059 pw.x -npool 3 -i  Done                     04/23/2018 13:21:01
00008 suncat1059 pw.x -npool 3 -i  Done                     04/23/2018 13:21:01
00009 suncat1059 pw.x -npool 3 -i  Done                     04/23/2018 13:21:01
00010 suncat1059 pw.x -npool 3 -i  Done                     04/23/2018 13:21:01
00011 suncat1059 pw.x -npool 3 -i  Done                     04/23/2018 13:21:01
00012 suncat1057 pw.x -npool 3 -i  Done                     04/23/2018 13:21:01
00013 suncat1057 pw.x -npool 3 -i  Done                     04/23/2018 13:21:01
00014 suncat1057 pw.x -npool 3 -i  Done                     04/23/2018 13:21:01
00015 suncat1057 pw.x -npool 3 -i  Done                     04/23/2018 13:21:01
00016 suncat1057 pw.x -npool 3 -i  Done                     04/23/2018 13:21:01
00017 suncat1057 pw.x -npool 3 -i  Done                     04/23/2018 13:21:01
00018 suncat1057 pw.x -npool 3 -i  Done                     04/23/2018 13:21:01
00019 suncat1057 pw.x -npool 3 -i  Done                     04/23/2018 13:21:01
00020 suncat1057 pw.x -npool 3 -i  Done                     04/23/2018 13:21:01
00021 suncat1057 pw.x -npool 3 -i  Done                     04/23/2018 13:21:01
00022 suncat1057 pw.x -npool 3 -i  Done                     04/23/2018 13:21:01
00023 suncat1057 pw.x -npool 3 -i  Done                     04/23/2018 13:21:01
00024 suncat1056 pw.x -npool 3 -i  Done                     04/23/2018 13:21:01
00025 suncat1056 pw.x -npool 3 -i  Done                     04/23/2018 13:21:01
00026 suncat1056 pw.x -npool 3 -i  Done                     04/23/2018 13:21:01
00027 suncat1056 pw.x -npool 3 -i  Done                     04/23/2018 13:21:01
00028 suncat1056 pw.x -npool 3 -i  Done                     04/23/2018 13:21:01
00029 suncat1056 pw.x -npool 3 -i  Done                     04/23/2018 13:21:01
00030 suncat1056 pw.x -npool 3 -i  Done                     04/23/2018 13:21:01
00031 suncat1056 pw.x -npool 3 -i  Done                     04/23/2018 13:21:01
00032 suncat1056 pw.x -npool 3 -i  Done                     04/23/2018 13:21:01
00033 suncat1056 pw.x -npool 3 -i  Done                     04/23/2018 13:21:01
00034 suncat1056 pw.x -npool 3 -i  Done                     04/23/2018 13:21:01
00035 suncat1056 pw.x -npool 3 -i  Done                     04/23/2018 13:21:01