     Program PWSCF v.5.1rc2 (svn rev. 11289) starts on  2May2018 at 18:31:19

     Current dimensions of program PWSCF are:
     Max number of different atomic species (ntypx) = 10
     Max number of k-points (npk) =  40000
     Max angular momentum in pseudopotentials (lmaxx) =  3
     Presently stress not available with electric field

     IMPORTANT: XC functional enforced from input :
     Exchange-correlation      = BEEF-VDW ( 1  4 27 13 2)
     Any further DFT definition will be discarded
     Please, verify this is what you really want

     Subspace diagonalization in iterative solution of the eigenvalue problem:
     a serial algorithm will be used

     bravais-lattice index     =            0
     lattice parameter (alat)  =       1.8897  a.u.
     unit-cell volume          =    6082.7792 (a.u.)^3
     number of atoms/cell      =           13
     number of atomic types    =            2
     number of electrons       =       149.00
     number of Kohn-Sham states=           84
     kinetic-energy cutoff     =      36.7493  Ry
     charge density cutoff     =     367.4932  Ry
     convergence threshold     =      1.0E-05
     mixing beta               =       0.3000
     number of iterations used =           10  plain     mixing
     Exchange-correlation      = BEEF-VDW ( 1  4 27 13 2)
     nstep                     =           50

     celldm(1)=   1.889726  celldm(2)=   0.000000  celldm(3)=   0.000000
     celldm(4)=   0.000000  celldm(5)=   0.000000  celldm(6)=   0.000000

     crystal axes: (cart. coord. in units of alat)
               a(1) = (   6.421223   0.000000   0.000000 )
               a(2) = (   3.210611   5.560942   0.000000 )
               a(3) = (   0.000000   0.000000  25.242906 )

     reciprocal axes: (cart. coord. in units 2 pi/alat)
               b(1) = (  0.155734 -0.089913  0.000000 )
               b(2) = (  0.000000  0.179826  0.000000 )
               b(3) = (  0.000000  0.000000  0.039615 )

     PseudoPot. # 1 for Zr read from file:
     /u/if/mamunm/psp/gbrv1.5pbe/Zr.UPF
     MD5 check sum: 5db81b1e868ab7776c4564c113de050b
     Pseudo is Ultrasoft + core correction, Zval = 12.0
     Generated by new atomic code, or converted to UPF format
     Using radial grid of  887 points,  6 beta functions with:
                l(1) =   0
                l(2) =   0
                l(3) =   1
                l(4) =   1
                l(5) =   2
                l(6) =   2
     Q(r) pseudized with  6 coefficients,  rinner =    1.200   1.200   1.200
                                                       1.200   1.200

     PseudoPot. # 2 for N  read from file:
     /u/if/mamunm/psp/gbrv1.5pbe/N.UPF
     MD5 check sum: 95339753478d7afb44899504a8723017
     Pseudo is Ultrasoft + core correction, Zval =  5.0
     Generated by new atomic code, or converted to UPF format
     Using radial grid of  729 points,  4 beta functions with:
                l(1) =   0
                l(2) =   0
                l(3) =   1
                l(4) =   1
     Q(r) pseudized with  8 coefficients,  rinner =    0.900   0.900   0.900

     vdW kernel table read from file vdW_kernel_table
     MD5 check sum: 095c7af220d748ca6e76c0b4c6cfb241

     atomic species   valence    mass     pseudopotential
        Zr1           12.00    91.22400     Zr( 1.00)
        N1             5.00    14.00700     N ( 1.00)

     No symmetry found

   Cartesian axes

     site n.     atom                  positions (alat units)
         1           Zr1 tau(   1) = (   1.6053057   0.9268237  10.0000000  )
         2           Zr1 tau(   2) = (   4.8159170   0.9268237  10.0000000  )
         3           Zr1 tau(   3) = (   3.2106113   3.7072946  10.0000000  )
         4           Zr1 tau(   4) = (   6.4212227   3.7072946  10.0000000  )
         5           Zr1 tau(   5) = (   6.4212227   1.8536473  12.6214532  )
         6           Zr1 tau(   6) = (   3.2106113   1.8536473  12.6214532  )
         7           Zr1 tau(   7) = (   8.0265283   4.6341183  12.6214532  )
         8           Zr1 tau(   8) = (   4.8159170   4.6341183  12.6214532  )
         9           Zr1 tau(   9) = (   0.0000000   0.0000000  15.2429064  )
        10           Zr1 tau(  10) = (   3.2106113   0.0000000  15.2429064  )
        11           Zr1 tau(  11) = (   1.6053057   2.7804710  15.2429064  )
        12           Zr1 tau(  12) = (   4.8159170   2.7804710  15.2429064  )
        13           N1  tau(  13) = (   0.0000000   0.0000000  17.3339064  )

     number of k points=    20  Fermi-Dirac smearing, width (Ry)=  0.0110
                       cart. coord. in units 2pi/alat
        k(    1) = (   0.0000000   0.0000000   0.0000000), wk =   0.0555556
        k(    2) = (   0.0000000   0.0299709   0.0000000), wk =   0.1111111
        k(    3) = (   0.0000000   0.0599419   0.0000000), wk =   0.1111111
        k(    4) = (   0.0000000  -0.0899128   0.0000000), wk =   0.0555556
        k(    5) = (   0.0259556  -0.0149855   0.0000000), wk =   0.1111111
        k(    6) = (   0.0259556   0.0149855   0.0000000), wk =   0.1111111
        k(    7) = (   0.0259556   0.0449564   0.0000000), wk =   0.1111111
        k(    8) = (   0.0259556  -0.1048983   0.0000000), wk =   0.1111111
        k(    9) = (   0.0259556  -0.0749274   0.0000000), wk =   0.1111111
        k(   10) = (   0.0259556  -0.0449564   0.0000000), wk =   0.1111111
        k(   11) = (   0.0519112  -0.0299709   0.0000000), wk =   0.1111111
        k(   12) = (   0.0519112   0.0000000   0.0000000), wk =   0.1111111
        k(   13) = (   0.0519112   0.0299709   0.0000000), wk =   0.1111111
        k(   14) = (   0.0519112  -0.1198838   0.0000000), wk =   0.1111111
        k(   15) = (   0.0519112  -0.0899128   0.0000000), wk =   0.1111111
        k(   16) = (   0.0519112  -0.0599419   0.0000000), wk =   0.1111111
        k(   17) = (  -0.0778668   0.0449564   0.0000000), wk =   0.0555556
        k(   18) = (  -0.0778668   0.0749274   0.0000000), wk =   0.1111111
        k(   19) = (  -0.0778668   0.1048983   0.0000000), wk =   0.1111111
        k(   20) = (  -0.0778668  -0.0449564   0.0000000), wk =   0.0555556

     Largest allocated arrays     est. size (Mb)     dimensions
     Largest temporary arrays     est. size (Mb)     dimensions

     Initial potential from superposition of free atoms
     Check: negative starting charge=   -0.729110

     starting charge  148.97420, renormalised to  149.00000

     negative rho (up, down):  7.292E-01 0.000E+00

     *
     * You are using vdW-DF for exchange-correlation in this calculation.
     * Please cite the following three references that made this development
     * possible:
     *
     *   M. Dion, H. Rydberg, E. Schroder, D. C. Langreth, and
     *   B. I. Lundqvist, Phys. Rev. Lett. 92, 246401 (2004).
     *
     *   T. Thonhauser, V. R. Cooper, S. Li, A. Puzder, P. Hyldgaard, and
     *   D. C. Langreth, Phys. Rev. B 76, 125112 (2007).
     *
     *   G. Roman-Perez and J. M. Soler, Phys. Rev. Lett. 103, 096102 (2009).
     *
     *
     * If you are using vdW-DF2, please also cite:
     *
     *   K. Lee, E. D. Murray, L. Kong, B. I. Lundqvist, and
     *   D. C. Langreth, Phys. Rev. B 82, 081101(R) (2010).
     *
     *
     * If you are calculating the stress with vdW-DF, please also cite:
     *
     *   R. Sabatini, E. Kucukbenli, B. Kolb, T. Thonhauser, and
     *   S. de Gironcoli, J. Phys.: Condens. Matter 24, 424209 (2012).
     *

     Carrying out vdW-DF run using the following parameters:

     Nqs =      20    Nr_points =    1024   r_max =   100.000
     q_mesh =
               0.00001000     0.04494208     0.09755937     0.15916263
               0.23128650     0.31572767     0.41458969     0.53033537
               0.66584808     0.82450364     1.01025438     1.22772762
               1.48234092     1.78043706     2.12944203     2.53805004
               3.01644009     3.57652955     4.23227104     5.00000000

     Gradients computed in reciprocal space

     Adding external electric field

     Computed dipole along edir(3) :
        Dipole               -0.0076 Ry au,         -0.0194 Debye
        Dipole field         -0.0000 Ry au

        Potential amp.        0.0015 Ry
        Total length         46.5096 bohr

     Starting wfc are  160 randomized atomic wfcs

     Self-consistent Calculation

     iteration #  1     ecut=    36.75 Ry     beta=0.30
     Davidson diagonalization with overlap
     ethr =  1.00E-02,  avg # of iterations =  2.0

[...]

     total energy              =   -1213.76909046 Ry
     Harris-Foulkes estimate   =   -1217.66790233 Ry
     estimated scf accuracy    <       8.34793106 Ry

[...]

     iteration #  9     ecut=    36.75 Ry     beta=0.30
     Davidson diagonalization with overlap
     c_bands:  3 eigenvalues not converged
     ethr =  3.29E-05,  avg # of iterations =  6.8

[...]

     End of self-consistent calculation

          k = 0.0000 0.0000 0.0000 ( 22923 PWs)   bands (ev):

   -48.4593 -48.3912 -48.3907 -48.3513 -48.2666 -48.2583 -48.2571 -48.0706
   -47.9961 -47.9956 -47.9528 -47.5958 -26.7001 -26.6445 -26.6441 -26.6276
   -26.6137 -26.5953 -26.5948 -26.5397 -26.5393 -26.4839 -26.4078 -26.3434
   -26.3426 -26.2124 -26.1975 -26.1594 -26.1588 -26.0894 -26.0889 -26.0813
   -26.0739 -26.0735 -25.9494 -25.9241 -25.9237 -25.9187 -25.9186 -25.8662
   -25.8056 -25.8053 -25.8009 -25.6484 -25.6483 -25.5727 -25.5726 -25.4787
   -10.5683  -4.0137  -2.8653  -2.0875  -1.6555  -1.6554  -1.6391  -1.5420
    -1.5119  -1.5119  -1.0778  -1.0578  -1.0577  -0.9584  -0.9225  -0.9224
    -0.4048  -0.4046  -0.0755   0.0855   0.5270   0.5272   0.8746   1.1147
     1.3199   1.3375   1.3375   1.4749   1.6704   1.6706   1.8360   1.8360
     1.9535   2.0782   2.0788   2.1008

[...]

          k =-0.0779 0.0450 0.0000 ( 22880 PWs)   bands (ev):

[...]

     the Fermi energy is     0.9330 ev

!    total energy              =   -1217.07211390 Ry
     Harris-Foulkes estimate   =   -1217.07209152 Ry
     estimated scf accuracy    <       0.00000218 Ry

     The total energy is the sum of the following terms:

     one-electron contribution =   -8360.94357814 Ry
     hartree contribution      =    4171.15786231 Ry
     xc contribution           =    -225.78566562 Ry
     ewald contribution        =    3198.61334609 Ry
     electric field correction =       0.00074480 Ry
     smearing contrib. (-TS)   =      -0.11482333 Ry

     convergence has been achieved in  16 iterations

 BEEF-vdW xc energy contributions
           1 :   -193.334921813487
           2 :    174.820053863527
           3 :   -143.699397882384
           4 :    108.794240035581
           5 :   -77.9702399702193
           6 :    55.4325321835799
           7 :   -41.1500025291944
           8 :    32.2153165490940
           9 :   -25.0967263208371
          10 :    17.5381422917484
          11 :   -9.30311262747111
          12 :    1.66938359220870
          13 :    3.78851944396934
          14 :   -6.32609934519803
          15 :    6.44302555431670
          16 :   -5.46971647878513
          17 :    4.71667644561626
          18 :   -4.77219926973913
          19 :    5.34492155898678
          20 :   -5.66402242452023
          21 :    5.11123280244070
          22 :   -3.65992476148747
          23 :    1.86849975162357
          24 :  -0.487879386215582
          25 :  -2.089136072186193E-002
          26 :  -0.263409058398167
          27 :   0.840181131376170
          28 :   -1.15347190976718
          29 :   0.943326629987155
          30 :  -0.366298212756220
          31 :   -22.4289358702942
          32 :   -16.6776574817568

     Forces acting on atoms (Ry/au):

     negative rho (up, down):  7.489E-01 0.000E+00
     atom    1 type  1   force =     0.00080644    0.00043913    0.01610626
     atom    2 type  1   force =    -0.00080568    0.00041188    0.01615298
     atom    3 type  1   force =    -0.00002779   -0.00088729    0.01620401
     atom    4 type  1   force =     0.00002607    0.00004062    0.01477293
     atom    5 type  1   force =    -0.00002206    0.01245335   -0.01053417
     atom    6 type  1   force =     0.00002250    0.00005644    0.00285575
     atom    7 type  1   force =    -0.01072523   -0.00624028   -0.01061455
     atom    8 type  1   force =     0.01072537   -0.00626850   -0.01058746
     atom    9 type  1   force =    -0.00002258   -0.00003765    0.11078029
     atom   10 type  1   force =     0.00002243   -0.00017537    0.00275915
     atom   11 type  1   force =    -0.00011633    0.00011791    0.00278501
     atom   12 type  1   force =     0.00011735    0.00009203    0.00283192
     atom   13 type  2   force =    -0.00000049   -0.00000226   -0.15351213

     Total force =     0.189372     Total SCF correction =     0.004301

     entering subroutine stress ...

     negative rho (up, down):  7.489E-01 0.000E+00
          total   stress  (Ry/bohr**3)                   (kbar)     P=  -15.54
  -0.00006791  -0.00000000   0.00000000         -9.99     -0.00      0.00
  -0.00000000  -0.00006790   0.00000000         -0.00     -9.99      0.00
   0.00000000   0.00000000  -0.00018108          0.00      0.00    -26.64

     BFGS Geometry Optimization

     number of scf cycles    =   1
     number of bfgs steps    =   0

     energy   new            =   -1217.0721138958 Ry

     new trust radius        =       0.1535121283 bohr
     new conv_thr            =       0.0000099958 Ry

ATOMIC_POSITIONS (crystal)
Zr1      0.166666667   0.166666667   0.396150897    0   0   0
Zr1      0.666666667   0.166666667   0.396150897    0   0   0
Zr1      0.166666667   0.666666667   0.396150897    0   0   0
Zr1      0.666666667   0.666666667   0.396150897    0   0   0
Zr1      0.833333333   0.333333333   0.500000000    0   0   0
Zr1      0.333333333   0.333333333   0.500000000    0   0   0
Zr1      0.833333333   0.833333333   0.500000000    0   0   0
Zr1      0.333333333   0.833333333   0.500000000    0   0   0
Zr1     -0.000000070  -0.000003583   0.606171435
Zr1      0.500010193  -0.000016689   0.603906944
Zr1     -0.000015196   0.500011220   0.603907486
Zr1      0.500005292   0.500008758   0.603908469
N1       0.000000067  -0.000000215   0.683466119

     Writing output data file calc.save
     Check: negative starting charge=   -0.729110
     NEW-OLD atomic charge density approx. for the potential
     Check: negative starting charge=   -0.729082

[...]

     energy   old            =   -1217.0721138958 Ry
     energy   new            =   -1217.1020159504 Ry

     CASE: energy  _new < energy  _old

[...]

     WARNING: bfgs curvature condition failed, Theta= 0.974
     new trust radius        =       0.0544228647 bohr
     new conv_thr            =       0.0000001000 Ry

[...]

     iteration #  1     ecut=    36.75 Ry     beta=0.30
     Davidson diagonalization with overlap
     c_bands:  1 eigenvalues not converged
     ethr =  1.00E-06,  avg # of iterations = 13.1

[...]

     Threshold (ethr) on eigenvalues was too large:
     Diagonalizing with lowered threshold

     Davidson diagonalization with overlap
     ethr =  4.07E-08,  avg # of iterations =  6.2

[...]

     number of scf cycles    =  11
     number of bfgs steps    =  10

     energy   old            =   -1217.1257894860 Ry
     energy   new            =   -1217.1258666312 Ry

     CASE: energy  _new < energy  _old

     new trust radius        =       0.0075174581 bohr
     new conv_thr            =       0.0000001000 Ry

ATOMIC_POSITIONS (crystal)
Zr1      0.166666667   0.166666667   0.396150897    0   0   0
Zr1      0.666666667   0.166666667   0.396150897    0   0   0
Zr1      0.166666667   0.666666667   0.396150897    0   0   0
Zr1      0.666666667   0.666666667   0.396150897    0   0   0
Zr1      0.833333333   0.333333333   0.500000000    0   0   0
Zr1      0.333333333   0.333333333   0.500000000    0   0   0
Zr1      0.833333333   0.833333333   0.500000000    0   0   0
Zr1      0.333333333   0.833333333   0.500000000    0   0   0
Zr1      0.000003325   0.000007501   0.597159821
Zr1      0.500034877  -0.000072441   0.603039215
Zr1     -0.000071419   0.500032695   0.603039610
Zr1      0.500038014   0.500035595   0.603039706
N1      -0.000002088  -0.000005417   0.669670149

     Writing output data file calc.save
     Check: negative starting charge=   -0.728897
     NEW-OLD atomic charge density approx. for the potential
     Check: negative starting charge=   -0.728911

[...]

     Self-consistent Calculation

[...]

     Threshold (ethr) on eigenvalues was too large:
     Diagonalizing with lowered threshold

     Davidson diagonalization with overlap
     ethr =  3.64E-08,  avg # of iterations =  5.1

[...]

     total energy              =   -1217.12591221 Ry
     Harris-Foulkes estimate   =   -1217.12591206 Ry
     estimated scf accuracy    <       0.00000024 Ry

     iteration #  8     ecut=    36.75 Ry     beta=0.30
     Davidson diagonalization with overlap
     ethr =  1.61E-10,  avg # of iterations =  4.8

[...]

     negative rho (up, down):  7.482E-01 0.000E+00

     Adding external electric field

     Computed dipole along edir(3) :
        Dipole               -0.3048 Ry au,         -0.7747 Debye
        Dipole field         -0.0006 Ry au

        Potential amp.        0.0586 Ry
        Total length         46.5096 bohr

     End of self-consistent calculation

[...]

          k = 0.0519-0.0599 0.0000 ( 22856 PWs)   bands (ev):

[...]

          k =-0.0779-0.0450 0.0000 ( 22880 PWs)   bands (ev):

   -48.1797 -48.1579 -48.1352 -48.0382 -48.0313 -47.9914 -47.9861 -47.7391
   -47.7281 -47.6960 -47.6777 -46.9172 -26.3311 -26.3111 -26.2814 -26.2528
   -26.2316 -26.2181 -26.1847 -26.1669 -26.1417 -26.1157 -26.1046 -26.0971
   -26.0489 -26.0386 -26.0174 -26.0022 -25.9738 -25.9559 -25.8907 -25.8230
   -25.7992 -25.7521 -25.7327 -25.7271 -25.6777 -25.6755 -25.6292 -25.6254
   -25.6177 -25.5981 -25.5732 -25.4520 -25.4188 -25.2312 -25.0059 -24.9562
   -10.4966  -2.3255  -2.3071  -1.5024  -1.2819  -1.1131  -1.0133  -0.8601
    -0.6616  -0.6136  -0.5518  -0.4978  -0.4324  -0.2081   0.1820   0.2197
     0.2390   0.2463   0.2712   0.4462   0.6628   0.7219   0.7288   0.7547
     0.8605   0.9348   1.0162   1.1422   1.1934   1.2072   1.3582   1.4895
     1.4934   1.6007   1.7607   1.8627

     the Fermi energy is     1.2049 ev

!    total energy              =   -1217.12591223 Ry
     Harris-Foulkes estimate   =   -1217.12591306 Ry
     estimated scf accuracy    <       0.00000005 Ry

     The total energy is the sum of the following terms:

     one-electron contribution =   -8499.48218193 Ry
     hartree contribution      =    4241.86064730 Ry
     xc contribution           =    -226.10968162 Ry
     ewald contribution        =    3266.71580203 Ry
     electric field correction =       0.00019194 Ry
     smearing contrib. (-TS)   =      -0.11068995 Ry

     convergence has been achieved in   8 iterations

 BEEF-vdW xc energy contributions
           1 :   -193.651267961004
           2 :    175.200223694783
           3 :   -144.147238879460
           4 :    109.250155470814
           5 :   -78.3471307877235
           6 :    55.6607212097573
           7 :   -41.2136854291658
           8 :    32.1614036193957
           9 :   -25.0070412601937
          10 :    17.4794799380356
          11 :   -9.28843346749198
          12 :    1.65883104602523
          13 :    3.84726872147382
          14 :   -6.44981269168204
          15 :    6.59560752508565
          16 :   -5.58721702822822
          17 :    4.75105072537880
          18 :   -4.72146112942374
          19 :    5.25295404243889
          20 :   -5.59228575703574
          21 :    5.10003948133013
          22 :   -3.70418079283172
          23 :    1.92390879192584
          24 :  -0.503034832198608
          25 :  -6.862272929043911E-002
          26 :  -0.172660536624790
          27 :   0.750567194996023
          28 :   -1.09982253090226
          29 :   0.928352090017540
          30 :  -0.361659888273806
          31 :   -22.4503298546114
          32 :   -16.7117814608176

     Forces acting on atoms (Ry/au):

     negative rho (up, down):  7.482E-01 0.000E+00
     atom    1 type  1   force =     0.00117850    0.00068130    0.01558350
     atom    2 type  1   force =    -0.00117787    0.00067969    0.01558490
     atom    3 type  1   force =    -0.00000108   -0.00136100    0.01558307
     atom    4 type  1   force =     0.00000110   -0.00000021    0.01312944
     atom    5 type  1   force =     0.00000019    0.02399582   -0.02102522
     atom    6 type  1   force =    -0.00000117    0.00000042    0.00765795
     atom    7 type  1   force =    -0.02077987   -0.01199854   -0.02102123
     atom    8 type  1   force =     0.02077989   -0.01199827   -0.02102363
     atom    9 type  1   force =    -0.00000967   -0.00000936    0.00146421
     atom   10 type  1   force =     0.00000928   -0.00184097   -0.00176456
     atom   11 type  1   force =    -0.00158876    0.00093139   -0.00176803
     atom   12 type  1   force =     0.00159271    0.00092238   -0.00176667
     atom   13 type  2   force =    -0.00000326   -0.00000266   -0.00063372

     Total force =     0.004698     Total SCF correction =     0.000217

     entering subroutine stress ...

     negative rho (up, down):  7.482E-01 0.000E+00
          total   stress  (Ry/bohr**3)                   (kbar)     P=   -7.71
  -0.00005167  -0.00000000  -0.00000000         -7.60     -0.00     -0.00
  -0.00000000  -0.00005167  -0.00000000         -0.00     -7.60     -0.00
  -0.00000000  -0.00000000  -0.00005379         -0.00     -0.00     -7.91

     bfgs converged in  12 scf cycles and  11 bfgs steps
     (criteria: energy <  1.0E+00, force <  1.9E-03)

     End of BFGS Geometry Optimization

     Final energy   =   -1217.1259122344 Ry
Begin final coordinates

ATOMIC_POSITIONS (crystal)
Zr1      0.166666667   0.166666667   0.396150897    0   0   0
Zr1      0.666666667   0.166666667   0.396150897    0   0   0
Zr1      0.166666667   0.666666667   0.396150897    0   0   0
Zr1      0.666666667   0.666666667   0.396150897    0   0   0
Zr1      0.833333333   0.333333333   0.500000000    0   0   0
Zr1      0.333333333   0.333333333   0.500000000    0   0   0
Zr1      0.833333333   0.833333333   0.500000000    0   0   0
Zr1      0.333333333   0.833333333   0.500000000    0   0   0
Zr1      0.000003325   0.000007501   0.597159821
Zr1      0.500034877  -0.000072441   0.603039215
Zr1     -0.000071419   0.500032695   0.603039610
Zr1      0.500038014   0.500035595   0.603039706
N1      -0.000002088  -0.000005417   0.669670149
End final coordinates

     Writing output data file calc.save

     General routines

     Parallel routines

   This run was terminated on:  20: 6:49   2May2018

   JOB DONE.
Job  /afs/slac/g/suncat/bin/suncat-tsmpirun -x LD_LIBRARY_PATH -wdir /scratch/qe863327_K7NzW pw.x -npool 4 -in pw.inp

TID   HOST_NAME   COMMAND_LINE            STATUS            TERMINATION_TIME
00000 suncat0047 pw.x -npool 4 -i  Done                     05/02/2018 20:06:49
00001 suncat0047 pw.x -npool 4 -i  Done                     05/02/2018 20:06:49
00002 suncat0047 pw.x -npool 4 -i  Done                     05/02/2018 20:06:49
00003 suncat0047 pw.x -npool 4 -i  Done                     05/02/2018 20:06:49
00004 suncat0047 pw.x -npool 4 -i  Done                     05/02/2018 20:06:49
00005 suncat0047 pw.x -npool 4 -i  Done                     05/02/2018 20:06:49
00006 suncat0047 pw.x -npool 4 -i  Done                     05/02/2018 20:06:49
00007 suncat0047 pw.x -npool 4 -i  Done                     05/02/2018 20:06:49
00008 suncat0178 pw.x -npool 4 -i  Done                     05/02/2018 20:06:49
00009 suncat0178 pw.x -npool 4 -i  Done                     05/02/2018 20:06:49
00010 suncat0178 pw.x -npool 4 -i  Done                     05/02/2018 20:06:49
00011 suncat0178 pw.x -npool 4 -i  Done                     05/02/2018 20:06:49
00012 suncat0178 pw.x -npool 4 -i  Done                     05/02/2018 20:06:49
00013 suncat0178 pw.x -npool 4 -i  Done                     05/02/2018 20:06:49
00014 suncat0178 pw.x -npool 4 -i  Done                     05/02/2018 20:06:49
00015 suncat0178 pw.x -npool 4 -i  Done                     05/02/2018 20:06:49
00016 suncat0172 pw.x -npool 4 -i  Done                     05/02/2018 20:06:49
00017 suncat0172 pw.x -npool 4 -i  Done                     05/02/2018 20:06:49
00018 suncat0172 pw.x -npool 4 -i  Done                     05/02/2018 20:06:49
00019 suncat0172 pw.x -npool 4 -i  Done                     05/02/2018 20:06:49
00020 suncat0172 pw.x -npool 4 -i  Done                     05/02/2018 20:06:49
00021 suncat0172 pw.x -npool 4 -i  Done                     05/02/2018 20:06:49
00022 suncat0172 pw.x -npool 4 -i  Done                     05/02/2018 20:06:49
00023 suncat0172 pw.x -npool 4 -i  Done                     05/02/2018 20:06:49
00024 suncat0150 pw.x -npool 4 -i  Done                     05/02/2018 20:06:49
00025 suncat0150 pw.x -npool 4 -i  Done                     05/02/2018 20:06:49
00026 suncat0150 pw.x -npool 4 -i  Done                     05/02/2018 20:06:49
00027 suncat0150 pw.x -npool 4 -i  Done                     05/02/2018 20:06:49
00028 suncat0150 pw.x -npool 4 -i  Done                     05/02/2018 20:06:49
00029 suncat0150 pw.x -npool 4 -i  Done                     05/02/2018 20:06:49
00030 suncat0150 pw.x -npool 4 -i  Done                     05/02/2018 20:06:49
00031 suncat0150 pw.x -npool 4 -i  Done                     05/02/2018 20:06:49