     Program PWSCF v.5.1rc2 (svn rev. 11289) starts on 11Jan2019 at 22:59:24

     Current dimensions of program PWSCF are:
     Max number of different atomic species (ntypx) = 10
     Max number of k-points (npk) =  40000
     Max angular momentum in pseudopotentials (lmaxx) =  3

     IMPORTANT: XC functional enforced from input :
     Exchange-correlation      = BEEF-VDW ( 1  4 27 13 2)
     Any further DFT definition will be discarded
     Please, verify this is what you really want

     Subspace diagonalization in iterative solution of the eigenvalue problem:
     a serial algorithm will be used

     bravais-lattice index     =            0
     lattice parameter (alat)  =      12.6383  a.u.
     unit-cell volume          =    6655.4372 (a.u.)^3
     number of atoms/cell      =           13
     number of atomic types    =            2
     number of electrons       =       160.00
     number of Kohn-Sham states=           90
     kinetic-energy cutoff     =      36.7493  Ry
     charge density cutoff     =     367.4933  Ry
     convergence threshold     =      1.0E-04
     mixing beta               =       0.2000
     number of iterations used =            8  plain     mixing
     Exchange-correlation      = BEEF-VDW ( 1  4 27 13 2)
     nstep                     =           50

     celldm(1)=  12.638304  celldm(2)=   0.000000  celldm(3)=   0.000000
     celldm(4)=   0.000000  celldm(5)=   0.000000  celldm(6)=   0.000000

     crystal axes: (cart. coord. in units of alat)
               a(1) = (   1.000000   0.000000   0.000000 )
               a(2) = (   0.500000   0.866025   0.000000 )
               a(3) = (   0.000000   0.000000   3.806971 )

     reciprocal axes: (cart. coord. in units 2 pi/alat)
               b(1) = (  1.000000 -0.577350  0.000000 )
               b(2) = (  0.000000  1.154701  0.000000 )
               b(3) = (  0.000000  0.000000  0.262676 )

     PseudoPot. # 1 for Tl read from file:
     /u/if/jboes/code/decaf-espresso/gbrv15pbe/Tl.UPF
     MD5 check sum: b76cf1f7e72655a2b2c53cf6385d7059
     Pseudo is Ultrasoft + core correction, Zval = 13.0
     Generated by new atomic code, or converted to UPF format
     Using radial grid of  899 points,  6 beta functions with:
                l(1) =   0
                l(2) =   0
                l(3) =   1
                l(4) =   1
                l(5) =   2
                l(6) =   2
     Q(r) pseudized with  6 coefficients,  rinner =    1.100   1.100   1.100
                                                       1.100   1.100

     PseudoPot. # 2 for C  read from file:
     /u/if/jboes/code/decaf-espresso/gbrv15pbe/C.UPF
     MD5 check sum: d1aef80898a10debaa0f26306b886e00
     Pseudo is Ultrasoft + core correction, Zval =  4.0
     Generated by new atomic code, or converted to UPF format
     Using radial grid of  721 points,  4 beta functions with:
                l(1) =   0
                l(2) =   0
                l(3) =   1
                l(4) =   1
     Q(r) pseudized with  8 coefficients,  rinner =    1.100   1.100   1.100

     vdW kernel table read from file vdW_kernel_table
     MD5 check sum: 095c7af220d748ca6e76c0b4c6cfb241

     atomic species   valence    mass     pseudopotential
        Tl            13.00   204.38000     Tl( 1.00)
        C              4.00    12.01100     C ( 1.00)

     No symmetry found

   Cartesian axes

     site n.     atom                  positions (alat units)
         1           Tl  tau(   1) = (   0.2500000   0.1443376   1.4952371  )
         2           Tl  tau(   2) = (   0.7500000   0.1443376   1.4952371  )
         3           Tl  tau(   3) = (   0.5000000   0.5773503   1.4952371  )
         4           Tl  tau(   4) = (   1.0000000   0.5773503   1.4952371  )
         5           Tl  tau(   5) = (   1.0000000   0.2886751   1.9034854  )
         6           Tl  tau(   6) = (   0.5000000   0.2886751   1.9034854  )
         7           Tl  tau(   7) = (   1.2500000   0.7216878   1.9034854  )
         8           Tl  tau(   8) = (   0.7500000   0.7216878   1.9034854  )
         9           Tl  tau(   9) = (   0.0000032  -0.0000004   2.3830283  )
        10           Tl  tau(  10) = (   0.5000001  -0.0146373   2.3641402  )
        11           Tl  tau(  11) = (   0.2373258   0.4403311   2.3641362  )
        12           Tl  tau(  12) = (   0.7626776   0.4403299   2.3641433  )
        13           C   tau(  13) = (   0.5000014   0.2886745   2.5236973  )

     number of k points=    20  Fermi-Dirac smearing, width (Ry)=  0.0110
                       cart. coord. in units 2pi/alat
        k(    1) = (   0.0000000   0.0000000   0.0000000), wk =   0.0555556
        k(    2) = (   0.0000000   0.1924501   0.0000000), wk =   0.1111111
        k(    3) = (   0.0000000   0.3849002   0.0000000), wk =   0.1111111
        k(    4) = (   0.0000000  -0.5773503   0.0000000), wk =   0.0555556
        k(    5) = (   0.1666667  -0.0962250   0.0000000), wk =   0.1111111
        k(    6) = (   0.1666667   0.0962250   0.0000000), wk =   0.1111111
        k(    7) = (   0.1666667   0.2886751   0.0000000), wk =   0.1111111
        k(    8) = (   0.1666667  -0.6735753   0.0000000), wk =   0.1111111
        k(    9) = (   0.1666667  -0.4811252   0.0000000), wk =   0.1111111
        k(   10) = (   0.1666667  -0.2886751   0.0000000), wk =   0.1111111
        k(   11) = (   0.3333333  -0.1924501   0.0000000), wk =   0.1111111
        k(   12) = (   0.3333333  -0.0000000   0.0000000), wk =   0.1111111
        k(   13) = (   0.3333333   0.1924501   0.0000000), wk =   0.1111111
        k(   14) = (   0.3333333  -0.7698004   0.0000000), wk =   0.1111111
        k(   15) = (   0.3333333  -0.5773503   0.0000000), wk =   0.1111111
        k(   16) = (   0.3333333  -0.3849002   0.0000000), wk =   0.1111111
        k(   17) = (  -0.5000000   0.2886751   0.0000000), wk =   0.0555556
        k(   18) = (  -0.5000000   0.4811252   0.0000000), wk =   0.1111111
        k(   19) = (  -0.5000000   0.6735753   0.0000000), wk =   0.1111111
        k(   20) = (  -0.5000000  -0.2886751   0.0000000), wk =   0.0555556

     Largest allocated arrays     est. size (Mb)     dimensions
     Largest temporary arrays     est. size (Mb)     dimensions

     Check: negative/imaginary core charge=   -0.000001    0.000000

     Initial potential from superposition of free atoms
     Check: negative starting charge=   -0.601862

     starting charge  159.94157, renormalised to  160.00000

     negative rho (up, down):  6.021E-01 0.000E+00

     *
     * You are using vdW-DF for exchange-correlation in this calculation.
     * Please cite the following three references that made this development
     * possible:
     *
     *   M. Dion, H. Rydberg, E. Schroder, D. C. Langreth, and
     *   B. I. Lundqvist, Phys. Rev. Lett. 92, 246401 (2004).
     *
     *   T. Thonhauser, V. R. Cooper, S. Li, A. Puzder, P. Hyldgaard, and
     *   D. C. Langreth, Phys. Rev. B 76, 125112 (2007).
     *
     *   G. Roman-Perez and J. M. Soler, Phys. Rev. Lett. 103, 096102 (2009).
     *
     *
     * If you are using vdW-DF2, please also cite:
     *
     *   K. Lee, E. D. Murray, L. Kong, B. I. Lundqvist, and
     *   D. C. Langreth, Phys. Rev. B 82, 081101(R) (2010).
     *
     *
     * If you are calculating the stress with vdW-DF, please also cite:
     *
     *   R. Sabatini, E. Kucukbenli, B. Kolb, T. Thonhauser, and
     *   S. de Gironcoli, J. Phys.: Condens. Matter 24, 424209 (2012).
     *

     Carrying out vdW-DF run using the following parameters:

     Nqs =      20    Nr_points =    1024   r_max =   100.000
     q_mesh =
               0.00001000     0.04494208     0.09755937     0.15916263
               0.23128650     0.31572767     0.41458969     0.53033537
               0.66584808     0.82450364     1.01025438     1.22772762
               1.48234092     1.78043706     2.12944203     2.53805004
               3.01644009     3.57652955     4.23227104     5.00000000

     Gradients computed in reciprocal space

     Adding external electric field

     Computed dipole along edir(3) :
        Dipole               -0.0108 Ry au,         -0.0274 Debye
        Dipole field         -0.0000 Ry au

        Potential amp.        0.0018 Ry
        Total length         43.3023 bohr

     Starting wfc are  112 randomized atomic wfcs

     Self-consistent Calculation

     iteration #  1     ecut=    36.75 Ry     beta=0.20
     Davidson diagonalization with overlap
     ethr =  1.00E-02,  avg # of iterations =  2.0

[...]

     total energy              =   -1771.94149964 Ry
     Harris-Foulkes estimate   =   -1772.95284723 Ry
     estimated scf accuracy    <       3.09747181 Ry

[...]

     End of self-consistent calculation

          k = 0.0000 0.0000 0.0000 ( 24957 PWs)   bands (ev):

   -11.8527 -11.3571 -11.3571 -11.3514 -11.2925 -11.2925 -11.2403 -11.2283
   -11.2151 -11.2151 -11.2066 -11.2066 -11.1932 -11.1810 -11.0842 -11.0597
   -11.0597 -11.0310 -11.0310 -11.0263 -11.0081 -11.0081 -10.9864 -10.9748
   -10.9748 -10.9673 -10.9673 -10.9020 -10.9020 -10.8890 -10.7596 -10.7596
   -10.7250 -10.7250 -10.7171 -10.6554 -10.6245 -10.6245 -10.6119 -10.6084
   -10.6084 -10.5691 -10.5691 -10.5471 -10.5470 -10.5347 -10.5204 -10.5204
   -10.5200 -10.4828 -10.4827 -10.4466 -10.4466 -10.4418 -10.4024 -10.4024
   -10.3774 -10.3728 -10.3728 -10.2722  -9.0690  -8.5481  -6.5977  -5.4208
    -4.2218  -4.2218  -4.1671  -4.0709  -4.0709  -3.6020  -3.2515  -3.2515
    -3.1763  -1.3629  -1.3581  -1.3580  -0.8517  -0.6708  -0.6707  -0.2524
    -0.1121  -0.1121   0.0203   1.9190   2.0211   2.0211   3.1246   3.7192
     3.7317   3.7317

[...]

          k =-0.5000 0.2887 0.0000 ( 25090 PWs)   bands (ev):

[...]

     the Fermi energy is     1.0538 ev

!    total energy              =   -1772.81693665 Ry
     Harris-Foulkes estimate   =   -1772.81702836 Ry
     estimated scf accuracy    <       0.00007486 Ry

     The total energy is the sum of the following terms:

     one-electron contribution =   -8429.56355348 Ry
     hartree contribution      =    4298.64778061 Ry
     xc contribution           =    -771.86163467 Ry
     ewald contribution        =    3129.99555550 Ry
     electric field correction =       0.00012743 Ry
     smearing contrib. (-TS)   =      -0.03521203 Ry

     convergence has been achieved in  10 iterations

     Forces acting on atoms (Ry/au):

     negative rho (up, down):  6.301E-01 0.000E+00
     atom    1 type  1   force =     0.00003790   -0.00000491   -0.03218856
     atom    2 type  1   force =    -0.00000150    0.00001113   -0.03216153
     atom    3 type  1   force =     0.00000421   -0.00004946   -0.03218233
     atom    4 type  1   force =    -0.00000186    0.00003413   -0.02824990
     atom    5 type  1   force =    -0.00000892   -0.00195405    0.02158702
     atom    6 type  1   force =     0.00000761   -0.00000081    0.02473363
     atom    7 type  1   force =     0.00167770    0.00096644    0.02156632
     atom    8 type  1   force =    -0.00165187    0.00096585    0.02156736
     atom    9 type  1   force =     0.00001884   -0.00000508    0.01183979
     atom   10 type  1   force =     0.00001177    0.00257473    0.00905796
     atom   11 type  1   force =     0.00219340   -0.00129175    0.00899169
     atom   12 type  1   force =    -0.00229582   -0.00124530    0.00901175
     atom   13 type  2   force =     0.00000853   -0.00000092   -0.00357319

     Total force =     0.020420     Total SCF correction =     0.039523
     SCF correction compared to forces is large: reduce conv_thr to get better values

     BFGS Geometry Optimization

     number of scf cycles    =   1
     number of bfgs steps    =   0

     energy   new            =   -1772.8169366526 Ry

     new trust radius        =       0.0118398070 bohr
     new conv_thr            =       0.0001000000 Ry

ATOMIC_POSITIONS (angstrom)
Tl       1.671975640   0.965315586  10.000000000    0   0   0
Tl       5.015926920   0.965315586  10.000000000    0   0   0
Tl       3.343951280   3.861262344  10.000000000    0   0   0
Tl       6.687902560   3.861262344  10.000000000    0   0   0
Tl       6.687902560   1.930631172  12.730324787    0   0   0
Tl       3.343951280   1.930631172  12.730324787    0   0   0
Tl       8.359878201   4.826577929  12.730324787    0   0   0
Tl       5.015926920   4.826577929  12.730324787    0   0   0
Tl       0.000031341  -0.000005553  15.943726702
Tl       3.343958049  -0.096530525  15.815932551
Tl       1.588372704   2.944208132  15.815870441
Tl       5.099498329   2.944224749  15.815928518
C        3.343965109   1.930626668  16.876350771

     Writing output data file calc.save
     Check: negative starting charge=   -0.601862
     NEW-OLD atomic charge density approx. for the potential

     Check: negative/imaginary core charge=   -0.000001    0.000000
     Check: negative starting charge=   -0.602861

[...]

     number of scf cycles    =   2
     number of bfgs steps    =   1

     energy   old            =   -1772.8169366526 Ry
     energy   new            =   -1772.8169766624 Ry

     CASE: energy  _new < energy  _old

     new trust radius        =       0.0080813077 bohr
     new conv_thr            =       0.0000010000 Ry

ATOMIC_POSITIONS (angstrom)
Tl       1.671975640   0.965315586  10.000000000    0   0   0
Tl       5.015926920   0.965315586  10.000000000    0   0   0
Tl       3.343951280   3.861262344  10.000000000    0   0   0
Tl       6.687902560   3.861262344  10.000000000    0   0   0
Tl       6.687902560   1.930631172  12.730324787    0   0   0
Tl       3.343951280   1.930631172  12.730324787    0   0   0
Tl       8.359878201   4.826577930  12.730324787    0   0   0
Tl       5.015926920   4.826577930  12.730324787    0   0   0
Tl       0.000010445  -0.000013299  15.946682575
Tl       3.343966950  -0.094089164  15.819421681
Tl       1.590502935   2.942985619  15.819371233
Tl       5.097401204   2.942995208  15.819433234
C        3.343955590   1.930642797  16.877841618

     Writing output data file calc.save
     Check: negative starting charge=   -0.602861
     NEW-OLD atomic charge density approx. for the potential

     Check: negative/imaginary core charge=   -0.000001    0.000000
     Check: negative starting charge=   -0.603324

[...]

     Self-consistent Calculation

[...]

     total energy              =   -1772.81701451 Ry
     Harris-Foulkes estimate   =   -1772.81701543 Ry
     estimated scf accuracy    <       0.00000128 Ry

     iteration #  7     ecut=    36.75 Ry     beta=0.20
     Davidson diagonalization with overlap
     ethr =  8.02E-10,  avg # of iterations =  4.2

     negative rho (up, down):  6.318E-01 0.000E+00

     Adding external electric field

     Computed dipole along edir(3) :
        Dipole               -0.2899 Ry au,         -0.7368 Debye
        Dipole field         -0.0005 Ry au

        Potential amp.        0.0474 Ry
        Total length         43.3023 bohr

     End of self-consistent calculation

[...]

          k = 0.3333-0.3849 0.0000 ( 25036 PWs)   bands (ev):

[...]

          k =-0.5000-0.2887 0.0000 ( 25090 PWs)   bands (ev):

   -11.6643 -11.2375 -11.2284 -11.2110 -11.1304 -11.1254 -11.1213 -11.1091
   -11.1049 -11.0902 -11.0814 -11.0645 -11.0520 -11.0326 -11.0247 -11.0185
   -10.9932 -10.9909 -10.9868 -10.9650 -10.9562 -10.9295 -10.9282 -10.9170
   -10.9080 -10.8964 -10.8597 -10.8453 -10.8306 -10.8220 -10.8165 -10.8113
   -10.8016 -10.7855 -10.7527 -10.7455 -10.7372 -10.7229 -10.7181 -10.7003
   -10.6974 -10.6837 -10.6809 -10.6733 -10.6644 -10.6565 -10.6512 -10.6508
   -10.6408 -10.6249 -10.6161 -10.5756 -10.5743 -10.5474 -10.5384 -10.5198
   -10.4949 -10.4569 -10.4452 -10.3657  -8.5633  -7.5719  -7.4319  -6.5862
    -5.5417  -5.0702  -5.0334  -4.9496  -4.5766  -4.4140  -3.2127  -3.0984
    -2.5796  -0.6765   0.2558   0.5665   0.5710   0.8082   0.9105   1.1315
     1.1972   1.5333   1.8092   2.2969   2.3419   2.8513   2.8698   3.3935
     3.5597   3.6849

     the Fermi energy is     1.0540 ev

!    total energy              =   -1772.81701386 Ry
     Harris-Foulkes estimate   =   -1772.81701285 Ry
     estimated scf accuracy    <       0.00000019 Ry

     The total energy is the sum of the following terms:

     one-electron contribution =   -8419.58793765 Ry
     hartree contribution      =    4293.54445580 Ry
     xc contribution           =    -771.86430202 Ry
     ewald contribution        =    3125.12581157 Ry
     electric field correction =       0.00015864 Ry
     smearing contrib. (-TS)   =      -0.03520019 Ry

     convergence has been achieved in   7 iterations

     Forces acting on atoms (Ry/au):

     negative rho (up, down):  6.318E-01 0.000E+00
     atom    1 type  1   force =    -0.00065190   -0.00037538   -0.02412200
     atom    2 type  1   force =     0.00065231   -0.00037655   -0.02411974
     atom    3 type  1   force =    -0.00000044    0.00075242   -0.02411997
     atom    4 type  1   force =     0.00000085   -0.00000111   -0.02077861
     atom    5 type  1   force =    -0.00000267   -0.00124854    0.02268038
     atom    6 type  1   force =     0.00000138   -0.00000125    0.02328944
     atom    7 type  1   force =     0.00108035    0.00062554    0.02268435
     atom    8 type  1   force =    -0.00107999    0.00062340    0.02268460
     atom    9 type  1   force =    -0.00000170    0.00000184    0.00101917
     atom   10 type  1   force =     0.00000141   -0.00147844    0.00016012
     atom   11 type  1   force =    -0.00128211    0.00073974    0.00016557
     atom   12 type  1   force =     0.00128587    0.00074055    0.00016316
     atom   13 type  2   force =    -0.00000336   -0.00000219    0.00029353

     Total force =     0.002790     Total SCF correction =     0.001742
     SCF correction compared to forces is large: reduce conv_thr to get better values

     bfgs converged in   3 scf cycles and   2 bfgs steps
     (criteria: energy <  1.0E+12, force <  1.9E-03)

     End of BFGS Geometry Optimization

     Final energy   =   -1772.8170138575 Ry
Begin final coordinates

ATOMIC_POSITIONS (angstrom)
Tl       1.671975640   0.965315586  10.000000000    0   0   0
Tl       5.015926920   0.965315586  10.000000000    0   0   0
Tl       3.343951280   3.861262344  10.000000000    0   0   0
Tl       6.687902560   3.861262344  10.000000000    0   0   0
Tl       6.687902560   1.930631172  12.730324787    0   0   0
Tl       3.343951280   1.930631172  12.730324787    0   0   0
Tl       8.359878201   4.826577930  12.730324787    0   0   0
Tl       5.015926920   4.826577930  12.730324787    0   0   0
Tl       0.000010445  -0.000013299  15.946682575
Tl       3.343966950  -0.094089164  15.819421681
Tl       1.590502935   2.942985619  15.819371233
Tl       5.097401204   2.942995208  15.819433234
C        3.343955590   1.930642797  16.877841618
End final coordinates

     Writing output data file calc.save

     General routines

     Parallel routines

   This run was terminated on:  23:10:43  11Jan2019

   JOB DONE.
Job  /afs/slac/g/suncat/bin/suncat-tsmpirun -x LD_LIBRARY_PATH -wdir /tmp/qe_673710lx7yh2nf_scratch pw.x -npool 4 -in pw.pwi

TID   HOST_NAME   COMMAND_LINE            STATUS            TERMINATION_TIME
00000 suncat0001 pw.x -npool 4 -i  Done                     01/11/2019 23:10:43
00001 suncat0001 pw.x -npool 4 -i  Done                     01/11/2019 23:10:43
00002 suncat0001 pw.x -npool 4 -i  Done                     01/11/2019 23:10:43
00003 suncat0001 pw.x -npool 4 -i  Done                     01/11/2019 23:10:43
00004 suncat0001 pw.x -npool 4 -i  Done                     01/11/2019 23:10:43
00005 suncat0001 pw.x -npool 4 -i  Done                     01/11/2019 23:10:43
00006 suncat0001 pw.x -npool 4 -i  Done                     01/11/2019 23:10:43
00007 suncat0001 pw.x -npool 4 -i  Done                     01/11/2019 23:10:43
00008 suncat0242 pw.x -npool 4 -i  Done                     01/11/2019 23:10:43
00009 suncat0242 pw.x -npool 4 -i  Done                     01/11/2019 23:10:43
00010 suncat0242 pw.x -npool 4 -i  Done                     01/11/2019 23:10:43
00011 suncat0242 pw.x -npool 4 -i  Done                     01/11/2019 23:10:43
00012 suncat0242 pw.x -npool 4 -i  Done                     01/11/2019 23:10:43
00013 suncat0242 pw.x -npool 4 -i  Done                     01/11/2019 23:10:43
00014 suncat0242 pw.x -npool 4 -i  Done                     01/11/2019 23:10:43
00015 suncat0242 pw.x -npool 4 -i  Done                     01/11/2019 23:10:43
00016 suncat0241 pw.x -npool 4 -i  Done                     01/11/2019 23:10:43
00017 suncat0241 pw.x -npool 4 -i  Done                     01/11/2019 23:10:43
00018 suncat0241 pw.x -npool 4 -i  Done                     01/11/2019 23:10:43
00019 suncat0241 pw.x -npool 4 -i  Done                     01/11/2019 23:10:43
00020 suncat0241 pw.x -npool 4 -i  Done                     01/11/2019 23:10:43
00021 suncat0241 pw.x -npool 4 -i  Done                     01/11/2019 23:10:43
00022 suncat0241 pw.x -npool 4 -i  Done                     01/11/2019 23:10:43
00023 suncat0241 pw.x -npool 4 -i  Done                     01/11/2019 23:10:43
00024 suncat0238 pw.x -npool 4 -i  Done                     01/11/2019 23:10:43
00025 suncat0238 pw.x -npool 4 -i  Done                     01/11/2019 23:10:43
00026 suncat0238 pw.x -npool 4 -i  Done                     01/11/2019 23:10:43
00027 suncat0238 pw.x -npool 4 -i  Done                     01/11/2019 23:10:43
00028 suncat0238 pw.x -npool 4 -i  Done                     01/11/2019 23:10:43
00029 suncat0238 pw.x -npool 4 -i  Done                     01/11/2019 23:10:43
00030 suncat0238 pw.x -npool 4 -i  Done                     01/11/2019 23:10:43
00031 suncat0238 pw.x -npool 4 -i  Done                     01/11/2019 23:10:43