     Program PWSCF v.5.1rc2 (svn rev. 11289) starts on 20Apr2018 at 22:36:24

     Current dimensions of program PWSCF are:
     Max number of different atomic species (ntypx) = 10
     Max number of k-points (npk) =  40000
     Max angular momentum in pseudopotentials (lmaxx) =  3
     Presently stress not available with electric field

     IMPORTANT: XC functional enforced from input :
     Exchange-correlation      = BEEF-VDW ( 1  4 27 13 2)
     Any further DFT definition will be discarded
     Please, verify this is what you really want

     Subspace diagonalization in iterative solution of the eigenvalue problem:
     a serial algorithm will be used

     bravais-lattice index     =            0
     lattice parameter (alat)  =       1.8897  a.u.
     unit-cell volume          =    7171.5276 (a.u.)^3
     number of atoms/cell      =           14
     number of atomic types    =            3
     number of electrons       =       173.00
     number of Kohn-Sham states=           96
     kinetic-energy cutoff     =      36.7493  Ry
     charge density cutoff     =     367.4932  Ry
     convergence threshold     =      1.0E-05
     mixing beta               =       0.3000
     number of iterations used =           10  plain     mixing
     Exchange-correlation      = BEEF-VDW ( 1  4 27 13 2)
     nstep                     =           50

     celldm(1)=   1.889726  celldm(2)=   0.000000  celldm(3)=   0.000000
     celldm(4)=   0.000000  celldm(5)=   0.000000  celldm(6)=   0.000000

     crystal axes: (cart. coord. in units of alat)
               a(1) = (   6.917003   0.000000   0.000000 )
               a(2) = (   3.458501   5.990300   0.000000 )
               a(3) = (   0.000000   0.000000  25.647709 )

     reciprocal axes: (cart. coord. in units 2 pi/alat)
               b(1) = (  0.144571 -0.083468  0.000000 )
               b(2) = (  0.000000  0.166937  0.000000 )
               b(3) = (  0.000000  0.000000  0.038990 )

     PseudoPot. # 1 for Pb read from file:
     /u/if/mamunm/psp/gbrv1.5pbe/Pb.UPF
     MD5 check sum: 3d1c1779aa92214d1e8f3a7db79003e2
     Pseudo is Ultrasoft + core correction, Zval = 14.0
     Generated by new atomic code, or converted to UPF format
     Using radial grid of  899 points,  6 beta functions with:
                l(1) =   0
                l(2) =   0
                l(3) =   1
                l(4) =   1
                l(5) =   2
                l(6) =   2
     Q(r) pseudized with  6 coefficients,  rinner =    1.000   1.000   1.000
                                                       1.000   1.000

     PseudoPot. # 2 for C  read from file:
     /u/if/mamunm/psp/gbrv1.5pbe/C.UPF
     MD5 check sum: d1aef80898a10debaa0f26306b886e00
     Pseudo is Ultrasoft + core correction, Zval =  4.0
     Generated by new atomic code, or converted to UPF format
     Using radial grid of  721 points,  4 beta functions with:
                l(1) =   0
                l(2) =   0
                l(3) =   1
                l(4) =   1
     Q(r) pseudized with  8 coefficients,  rinner =    1.100   1.100   1.100

     PseudoPot. # 3 for H  read from file:
     /u/if/mamunm/psp/gbrv1.5pbe/H.UPF
     MD5 check sum: 761ae9a214b05c3daf00ab9f6b793d6f
     Pseudo is Ultrasoft, Zval =  1.0
     Generated by new atomic code, or converted to UPF format
     Using radial grid of  615 points,  2 beta functions with:
                l(1) =   0
                l(2) =   0
     Q(r) pseudized with  8 coefficients,  rinner =    0.700

     vdW kernel table read from file vdW_kernel_table
     MD5 check sum: 095c7af220d748ca6e76c0b4c6cfb241

     atomic species   valence    mass     pseudopotential
        Pb1           14.00   207.20000     Pb( 1.00)
        C1             4.00    12.01100     C ( 1.00)
        H1             1.00     1.00800     H ( 1.00)

     No symmetry found

   Cartesian axes

     site n.     atom                  positions (alat units)
         1           Pb1 tau(   1) = (   1.7292506   0.9983833  10.0000000  )
         2           Pb1 tau(   2) = (   5.1877519   0.9983833  10.0000000  )
         3           Pb1 tau(   3) = (   3.4585013   3.9935333  10.0000000  )
         4           Pb1 tau(   4) = (   6.9170025   3.9935333  10.0000000  )
         5           Pb1 tau(   5) = (   6.9170025   1.9967666  12.8238544  )
         6           Pb1 tau(   6) = (   3.4585013   1.9967666  12.8238544  )
         7           Pb1 tau(   7) = (   8.6462531   4.9919166  12.8238544  )
         8           Pb1 tau(   8) = (   5.1877519   4.9919166  12.8238544  )
         9           Pb1 tau(   9) = (   0.0000000   0.0000000  15.6477089  )
        10           Pb1 tau(  10) = (   3.4585013   0.0000000  15.6477089  )
        11           Pb1 tau(  11) = (   1.7292506   2.9951499  15.6477089  )
        12           Pb1 tau(  12) = (   5.1877519   2.9951499  15.6477089  )
        13           C1  tau(  13) = (   3.4585013   1.9967666  17.0907089  )
        14           H1  tau(  14) = (   3.4585013   1.9967666  18.1907089  )

     number of k points=    20  Fermi-Dirac smearing, width (Ry)=  0.0110
                       cart. coord. in units 2pi/alat
        k(    1) = (   0.0000000   0.0000000   0.0000000), wk =   0.0555556
        k(    2) = (   0.0000000   0.0278228   0.0000000), wk =   0.1111111
        k(    3) = (   0.0000000   0.0556455   0.0000000), wk =   0.1111111
        k(    4) = (   0.0000000  -0.0834683   0.0000000), wk =   0.0555556
        k(    5) = (   0.0240952  -0.0139114   0.0000000), wk =   0.1111111
        k(    6) = (   0.0240952   0.0139114   0.0000000), wk =   0.1111111
        k(    7) = (   0.0240952   0.0417341   0.0000000), wk =   0.1111111
        k(    8) = (   0.0240952  -0.0973797   0.0000000), wk =   0.1111111
        k(    9) = (   0.0240952  -0.0695569   0.0000000), wk =   0.1111111
        k(   10) = (   0.0240952  -0.0417341   0.0000000), wk =   0.1111111
        k(   11) = (   0.0481904  -0.0278228   0.0000000), wk =   0.1111111
        k(   12) = (   0.0481904   0.0000000   0.0000000), wk =   0.1111111
        k(   13) = (   0.0481904   0.0278228   0.0000000), wk =   0.1111111
        k(   14) = (   0.0481904  -0.1112910   0.0000000), wk =   0.1111111
        k(   15) = (   0.0481904  -0.0834683   0.0000000), wk =   0.1111111
        k(   16) = (   0.0481904  -0.0556455   0.0000000), wk =   0.1111111
        k(   17) = (  -0.0722856   0.0417341   0.0000000), wk =   0.0555556
        k(   18) = (  -0.0722856   0.0695569   0.0000000), wk =   0.1111111
        k(   19) = (  -0.0722856   0.0973797   0.0000000), wk =   0.1111111
        k(   20) = (  -0.0722856  -0.0417341   0.0000000), wk =   0.0555556

     Largest allocated arrays     est. size (Mb)     dimensions
     Largest temporary arrays     est. size (Mb)     dimensions

     Check: negative/imaginary core charge=   -0.000001    0.000000

     Initial potential from superposition of free atoms
     Check: negative starting charge=   -0.197901

     starting charge  172.97173, renormalised to  173.00000

     negative rho (up, down):  1.979E-01 0.000E+00

     *
     * You are using vdW-DF for exchange-correlation in this calculation.
     * Please cite the following three references that made this development
     * possible:
     *
     *   M. Dion, H. Rydberg, E. Schroder, D. C. Langreth, and
     *   B. I. Lundqvist, Phys. Rev. Lett. 92, 246401 (2004).
     *
     *   T. Thonhauser, V. R. Cooper, S. Li, A. Puzder, P. Hyldgaard, and
     *   D. C. Langreth, Phys. Rev. B 76, 125112 (2007).
     *
     *   G. Roman-Perez and J. M. Soler, Phys. Rev. Lett. 103, 096102 (2009).
     *
     *
     * If you are using vdW-DF2, please also cite:
     *
     *   K. Lee, E. D. Murray, L. Kong, B. I. Lundqvist, and
     *   D. C. Langreth, Phys. Rev. B 82, 081101(R) (2010).
     *
     *
     * If you are calculating the stress with vdW-DF, please also cite:
     *
     *   R. Sabatini, E. Kucukbenli, B. Kolb, T. Thonhauser, and
     *   S. de Gironcoli, J. Phys.: Condens. Matter 24, 424209 (2012).
     *

     Carrying out vdW-DF run using the following parameters:

     Nqs =      20    Nr_points =    1024   r_max =   100.000
     q_mesh =
               0.00001000     0.04494208     0.09755937     0.15916263
               0.23128650     0.31572767     0.41458969     0.53033537
               0.66584808     0.82450364     1.01025438     1.22772762
               1.48234092     1.78043706     2.12944203     2.53805004
               3.01644009     3.57652955     4.23227104     5.00000000

     Gradients computed in reciprocal space

     Adding external electric field

     Computed dipole along edir(3) :
        Dipole               -0.0065 Ry au,         -0.0165 Debye
        Dipole field         -0.0000 Ry au

        Potential amp.        0.0011 Ry
        Total length         47.2555 bohr

     Starting wfc are  113 randomized atomic wfcs

     Self-consistent Calculation

     iteration #  1     ecut=    36.75 Ry     beta=0.30
     Davidson diagonalization with overlap
     ethr =  1.00E-02,  avg # of iterations =  2.0

[...]

     total energy              =   -2003.94791524 Ry
     Harris-Foulkes estimate   =   -2005.08143606 Ry
     estimated scf accuracy    <       2.49732568 Ry

[...]

     End of self-consistent calculation

          k = 0.0000 0.0000 0.0000 ( 27033 PWs)   bands (ev):

   -16.4638 -16.4602 -16.4602 -16.4012 -16.3944 -16.3944 -16.3842 -16.3742
   -16.3742 -16.3607 -16.3607 -16.3546 -16.3414 -16.3314 -16.3172 -16.3172
   -16.3053 -16.3053 -16.3006 -16.3006 -16.2963 -16.2881 -16.2881 -16.2768
   -16.2336 -16.2336 -16.2248 -16.2054 -16.2054 -16.1880 -16.1757 -16.1757
   -16.1395 -16.1388 -16.1388 -16.1086 -16.1086 -16.0906 -16.0904 -16.0904
   -16.0815 -16.0815 -16.0571 -16.0422 -16.0325 -16.0312 -16.0312 -16.0142
   -16.0142 -16.0107 -16.0107 -16.0058 -15.9984 -15.9830 -15.9830 -15.9398
   -15.9398 -15.8998 -15.8998 -15.8796 -10.6529  -9.9858  -8.8128  -7.5663
    -6.8974  -6.8974  -6.8404  -6.4590  -6.4590  -6.4049  -5.8623  -5.8623
    -5.7844  -3.5292  -2.5810  -2.5810  -2.2446  -1.8980  -1.7817  -1.7817
    -1.5258  -1.4143  -1.4143   0.3421   0.7389   0.7389   1.2496   2.3103
     2.3103   2.3636   3.0732   3.0732   3.3813   3.7247   3.7297   3.8416

[...]

          k =-0.0723 0.0417 0.0000 ( 26962 PWs)   bands (ev):

[...]

     the Fermi energy is     1.1769 ev

!    total energy              =   -2004.80222423 Ry
     Harris-Foulkes estimate   =   -2004.80223031 Ry
     estimated scf accuracy    <       0.00000163 Ry

     The total energy is the sum of the following terms:

     one-electron contribution =   -9622.55515458 Ry
     hartree contribution      =    4882.76471074 Ry
     xc contribution           =    -788.25444209 Ry
     ewald contribution        =    3523.28151951 Ry
     electric field correction =       0.00002535 Ry
     smearing contrib. (-TS)   =      -0.03888316 Ry

     convergence has been achieved in  11 iterations

 BEEF-vdW xc energy contributions
           1 :   -702.533339672230
           2 :    652.549825482257
           3 :   -564.542668773047
           4 :    457.767793004755
           5 :   -352.076246476476
           6 :    262.009788748066
           7 :   -193.667457535867
           8 :    145.090050194671
           9 :   -109.499888604524
          10 :    79.6353235738035
          11 :   -51.1698147116826
          12 :    23.8823336080300
          13 :  -0.495024254066493
          14 :   -15.7906737963281
          15 :    23.5676920558271
          16 :   -24.1596495301493
          17 :    20.9290785117871
          18 :   -17.5544812520097
          19 :    16.3225764278875
          20 :   -17.3420431628457
          21 :    18.9929399490431
          22 :   -19.2314802136181
          23 :    16.9452039347592
          24 :   -12.6098748343325
          25 :    7.95410366208102
          26 :   -4.91684829240967
          27 :    4.54645108156660
          28 :   -6.46518937081203
          29 :    9.15758997378839
          30 :   -10.8681007998900
          31 :   -56.3427596963933
          32 :   -41.3231490877221

     Forces acting on atoms (Ry/au):

     negative rho (up, down):  2.148E-01 0.000E+00
     atom    1 type  1   force =     0.00133344    0.00073358   -0.00637575
     atom    2 type  1   force =    -0.00132558    0.00077948   -0.00640009
     atom    3 type  1   force =     0.00002025   -0.00152466   -0.00636471
     atom    4 type  1   force =    -0.00000430    0.00000013   -0.01180886
     atom    5 type  1   force =     0.00000484   -0.00696677   -0.00900417
     atom    6 type  1   force =    -0.00000750    0.00000634   -0.00475238
     atom    7 type  1   force =     0.00601468    0.00347045   -0.00899453
     atom    8 type  1   force =    -0.00603541    0.00348300   -0.00898817
     atom    9 type  1   force =     0.00000376   -0.00001091    0.00452041
     atom   10 type  1   force =     0.00000219    0.01719920    0.03472414
     atom   11 type  1   force =     0.01489299   -0.00859849    0.03469399
     atom   12 type  1   force =    -0.01489268   -0.00857084    0.03470338
     atom   13 type  2   force =    -0.00000405   -0.00000065   -0.04249680
     atom   14 type  3   force =    -0.00000263    0.00000014   -0.00345645

     Total force =     0.079617     Total SCF correction =     0.003510

     entering subroutine stress ...

     negative rho (up, down):  2.148E-01 0.000E+00
          total   stress  (Ry/bohr**3)                   (kbar)     P=   10.18
   0.00008058   0.00000000   0.00000000         11.85      0.00      0.00
   0.00000000   0.00008057  -0.00000000          0.00     11.85     -0.00
   0.00000000  -0.00000000   0.00004651          0.00     -0.00      6.84

     BFGS Geometry Optimization

     number of scf cycles    =   1
     number of bfgs steps    =   0

     energy   new            =   -2004.8022242340 Ry

     new trust radius        =       0.0424967992 bohr
     new conv_thr            =       0.0000099958 Ry

ATOMIC_POSITIONS (crystal)
Pb1      0.166666667   0.166666667   0.389898374    0   0   0
Pb1      0.666666667   0.166666667   0.389898374    0   0   0
Pb1      0.166666667   0.666666667   0.389898374    0   0   0
Pb1      0.666666667   0.666666667   0.389898374    0   0   0
Pb1      0.833333333   0.333333333   0.500000000    0   0   0
Pb1      0.333333333   0.333333333   0.500000000    0   0   0
Pb1      0.833333333   0.833333333   0.500000000    0   0   0
Pb1      0.333333333   0.833333333   0.500000000    0   0   0
Pb1      0.000000769  -0.000000964   0.610194893
Pb1      0.499240487   0.001519360   0.610818073
Pb1      0.001519162   0.499240418   0.610817451
Pb1      0.499239223   0.499242860   0.610817645
C1       0.333333053   0.333333276   0.665487145
H1       0.333333126   0.333333346   0.709181467

     Writing output data file calc.save
     Check: negative starting charge=   -0.197901
     NEW-OLD atomic charge density approx. for the potential

     Check: negative/imaginary core charge=   -0.000001    0.000000
     Check: negative starting charge=   -0.196309

[...]

     Total force =     0.068761     Total SCF correction =     0.008840
     SCF correction compared to forces is large: reduce conv_thr to get better values

[...]

     energy   old            =   -2004.8022242341 Ry
     energy   new            =   -2004.8075611899 Ry

     CASE: energy  _new < energy  _old

[...]

     Total force =     0.018581     Total SCF correction =     0.001566

[...]

     number of scf cycles    =  18
     number of bfgs steps    =  17

     energy   old            =   -2004.8349480424 Ry
     energy   new            =   -2004.8349759142 Ry

     CASE: energy  _new < energy  _old

     new trust radius        =       0.0139027596 bohr
     new conv_thr            =       0.0000001000 Ry

ATOMIC_POSITIONS (crystal)
Pb1      0.166666667   0.166666667   0.389898374    0   0   0
Pb1      0.666666667   0.166666667   0.389898374    0   0   0
Pb1      0.166666667   0.666666667   0.389898374    0   0   0
Pb1      0.666666667   0.666666667   0.389898374    0   0   0
Pb1      0.833333333   0.333333333   0.500000000    0   0   0
Pb1      0.333333333   0.333333333   0.500000000    0   0   0
Pb1      0.833333333   0.833333333   0.500000000    0   0   0
Pb1      0.333333333   0.833333333   0.500000000    0   0   0
Pb1     -0.000007275   0.000015283   0.610657860
Pb1      0.498175047   0.003657032   0.631887390
Pb1      0.003648364   0.498172906   0.631892244
Pb1      0.498188939   0.498159941   0.631888526
C1       0.333329749   0.333329080   0.680236884
H1       0.333325462   0.333345631   0.722861208

     Writing output data file calc.save
     Check: negative starting charge=   -0.195918
     NEW-OLD atomic charge density approx. for the potential

     Check: negative/imaginary core charge=   -0.000001    0.000000
     Check: negative starting charge=   -0.195463

[...]

     Self-consistent Calculation

[...]

     Threshold (ethr) on eigenvalues was too large:
     Diagonalizing with lowered threshold

     Davidson diagonalization with overlap
     ethr =  1.58E-08,  avg # of iterations =  3.5

[...]

     total energy              =   -2004.83499756 Ry
     Harris-Foulkes estimate   =   -2004.83499742 Ry
     estimated scf accuracy    <       0.00000012 Ry

     iteration #  7     ecut=    36.75 Ry     beta=0.30
     Davidson diagonalization with overlap
     ethr =  6.83E-11,  avg # of iterations =  4.7

[...]

     negative rho (up, down):  2.125E-01 0.000E+00

     Adding external electric field

     Computed dipole along edir(3) :
        Dipole               -0.0961 Ry au,         -0.2443 Debye
        Dipole field         -0.0002 Ry au

        Potential amp.        0.0159 Ry
        Total length         47.2555 bohr

     End of self-consistent calculation

[...]

          k = 0.0482-0.0556 0.0000 ( 26956 PWs)   bands (ev):

[...]

          k =-0.0723-0.0417 0.0000 ( 26962 PWs)   bands (ev):

   -16.3722 -16.3562 -16.3175 -16.3111 -16.3072 -16.3053 -16.3015 -16.2883
   -16.2821 -16.2706 -16.2603 -16.2571 -16.2495 -16.2367 -16.2334 -16.2286
   -16.2254 -16.2229 -16.2147 -16.2044 -16.2015 -16.1858 -16.1748 -16.1701
   -16.1680 -16.1591 -16.1550 -16.1484 -16.1446 -16.1391 -16.1320 -16.1303
   -16.1275 -16.1219 -16.1110 -16.1093 -16.1050 -16.1047 -16.0991 -16.0846
   -16.0669 -16.0621 -16.0611 -16.0508 -16.0451 -16.0268 -16.0248 -15.9978
   -15.9977 -15.9677 -15.9606 -15.9590 -15.9309 -15.9084 -15.8915 -15.8853
   -15.8649 -15.8529 -15.8377 -15.7739 -10.4032  -9.1108  -8.9988  -8.0558
    -7.5491  -7.1104  -7.1091  -7.0661  -6.8080  -6.4485  -6.2856  -5.8287
    -5.7116  -2.3797  -1.1948  -0.8307  -0.7911  -0.7491  -0.4976  -0.4078
    -0.2464  -0.1053   0.1334   0.6500   0.8958   1.0832   1.1816   1.6303
     1.8329   2.0436   2.0848   2.2269   2.4778   2.5346   2.5892   2.8838

     the Fermi energy is     1.1943 ev

!    total energy              =   -2004.83499763 Ry
     Harris-Foulkes estimate   =   -2004.83499752 Ry
     estimated scf accuracy    <       0.00000002 Ry

     The total energy is the sum of the following terms:

     one-electron contribution =   -9037.29525150 Ry
     hartree contribution      =    4590.48735849 Ry
     xc contribution           =    -788.13826792 Ry
     ewald contribution        =    3230.14855436 Ry
     electric field correction =       0.00001619 Ry
     smearing contrib. (-TS)   =      -0.03740724 Ry

     convergence has been achieved in   7 iterations

 BEEF-vdW xc energy contributions
           1 :   -702.399672677537
           2 :    652.273828142015
           3 :   -564.099997919091
           4 :    457.290585294086
           5 :   -351.779080435310
           6 :    262.044659037261
           7 :   -194.005239770275
           8 :    145.514631408227
           9 :   -109.727046755645
          10 :    79.4846128352733
          11 :   -50.6812944974411
          12 :    23.3021237000169
          13 :  -0.134274466303395
          14 :   -15.7393203545902
          15 :    23.1451041472531
          16 :   -23.6162484051915
          17 :    20.5751923979612
          18 :   -17.5747658479789
          19 :    16.6667988022054
          20 :   -17.7586532525947
          21 :    19.1842805854883
          22 :   -19.0361500285326
          23 :    16.4373308162353
          24 :   -12.0556949256328
          25 :    7.65271336506464
          26 :   -5.02157669776579
          27 :    4.97406923266931
          28 :   -6.94658605351856
          29 :    9.39843623805427
          30 :   -10.7225359830779
          31 :   -56.3273436848779
          32 :   -41.2702634291439

     Forces acting on atoms (Ry/au):

     negative rho (up, down):  2.125E-01 0.000E+00
     atom    1 type  1   force =     0.00037768    0.00021744   -0.00438218
     atom    2 type  1   force =    -0.00037741    0.00021756   -0.00438334
     atom    3 type  1   force =     0.00000022   -0.00043545   -0.00438054
     atom    4 type  1   force =    -0.00000005    0.00000189   -0.00880580
     atom    5 type  1   force =     0.00000107    0.00021235    0.00428740
     atom    6 type  1   force =    -0.00000028    0.00000071    0.01146638
     atom    7 type  1   force =    -0.00018183   -0.00010647    0.00428929
     atom    8 type  1   force =     0.00018305   -0.00010621    0.00429015
     atom    9 type  1   force =     0.00000181   -0.00001132   -0.00054387
     atom   10 type  1   force =    -0.00000461   -0.00039377   -0.00063942
     atom   11 type  1   force =    -0.00032894    0.00019880   -0.00064320
     atom   12 type  1   force =     0.00031835    0.00020007   -0.00063420
     atom   13 type  2   force =     0.00000920    0.00001009   -0.00091116
     atom   14 type  3   force =     0.00000175   -0.00000569    0.00099050

     Total force =     0.001943     Total SCF correction =     0.000298
     SCF correction compared to forces is large: reduce conv_thr to get better values

     entering subroutine stress ...

     negative rho (up, down):  2.125E-01 0.000E+00
          total   stress  (Ry/bohr**3)                   (kbar)     P=    6.96
   0.00006409  -0.00000000   0.00000000          9.43     -0.00      0.00
  -0.00000000   0.00006410   0.00000000         -0.00      9.43      0.00
   0.00000000   0.00000000   0.00001368          0.00      0.00      2.01

     bfgs converged in  19 scf cycles and  18 bfgs steps
     (criteria: energy <  1.0E+00, force <  1.9E-03)

     End of BFGS Geometry Optimization

     Final energy   =   -2004.8349976253 Ry
Begin final coordinates

ATOMIC_POSITIONS (crystal)
Pb1      0.166666667   0.166666667   0.389898374    0   0   0
Pb1      0.666666667   0.166666667   0.389898374    0   0   0
Pb1      0.166666667   0.666666667   0.389898374    0   0   0
Pb1      0.666666667   0.666666667   0.389898374    0   0   0
Pb1      0.833333333   0.333333333   0.500000000    0   0   0
Pb1      0.333333333   0.333333333   0.500000000    0   0   0
Pb1      0.833333333   0.833333333   0.500000000    0   0   0
Pb1      0.333333333   0.833333333   0.500000000    0   0   0
Pb1     -0.000007275   0.000015283   0.610657860
Pb1      0.498175047   0.003657032   0.631887390
Pb1      0.003648364   0.498172906   0.631892244
Pb1      0.498188939   0.498159941   0.631888526
C1       0.333329749   0.333329080   0.680236884
H1       0.333325462   0.333345631   0.722861208
End final coordinates

     Writing output data file calc.save

     General routines

     Parallel routines

   This run was terminated on:   1:15:36  21Apr2018

   JOB DONE.
Job  /afs/slac/g/suncat/bin/suncat-tsmpirun -x LD_LIBRARY_PATH -wdir /scratch/qe284803_P6Gpr pw.x -npool 4 -in pw.inp

TID   HOST_NAME   COMMAND_LINE            STATUS            TERMINATION_TIME
00000 suncat0081 pw.x -npool 4 -i  Done                     04/21/2018 01:15:36
00001 suncat0081 pw.x -npool 4 -i  Done                     04/21/2018 01:15:36
00002 suncat0081 pw.x -npool 4 -i  Done                     04/21/2018 01:15:36
00003 suncat0081 pw.x -npool 4 -i  Done                     04/21/2018 01:15:36
00004 suncat0081 pw.x -npool 4 -i  Done                     04/21/2018 01:15:36
00005 suncat0081 pw.x -npool 4 -i  Done                     04/21/2018 01:15:36
00006 suncat0081 pw.x -npool 4 -i  Done                     04/21/2018 01:15:36
00007 suncat0081 pw.x -npool 4 -i  Done                     04/21/2018 01:15:36
00008 suncat0080 pw.x -npool 4 -i  Done                     04/21/2018 01:15:36
00009 suncat0080 pw.x -npool 4 -i  Done                     04/21/2018 01:15:36
00010 suncat0080 pw.x -npool 4 -i  Done                     04/21/2018 01:15:36
00011 suncat0080 pw.x -npool 4 -i  Done                     04/21/2018 01:15:36
00012 suncat0080 pw.x -npool 4 -i  Done                     04/21/2018 01:15:36
00013 suncat0080 pw.x -npool 4 -i  Done                     04/21/2018 01:15:36
00014 suncat0080 pw.x -npool 4 -i  Done                     04/21/2018 01:15:36
00015 suncat0080 pw.x -npool 4 -i  Done                     04/21/2018 01:15:36
00016 suncat0106 pw.x -npool 4 -i  Done                     04/21/2018 01:15:36
00017 suncat0106 pw.x -npool 4 -i  Done                     04/21/2018 01:15:36
00018 suncat0106 pw.x -npool 4 -i  Done                     04/21/2018 01:15:36
00019 suncat0106 pw.x -npool 4 -i  Done                     04/21/2018 01:15:36
00020 suncat0106 pw.x -npool 4 -i  Done                     04/21/2018 01:15:36
00021 suncat0106 pw.x -npool 4 -i  Done                     04/21/2018 01:15:36
00022 suncat0106 pw.x -npool 4 -i  Done                     04/21/2018 01:15:36
00023 suncat0106 pw.x -npool 4 -i  Done                     04/21/2018 01:15:36
00024 suncat0251 pw.x -npool 4 -i  Done                     04/21/2018 01:15:36
00025 suncat0251 pw.x -npool 4 -i  Done                     04/21/2018 01:15:36
00026 suncat0251 pw.x -npool 4 -i  Done                     04/21/2018 01:15:36
00027 suncat0251 pw.x -npool 4 -i  Done                     04/21/2018 01:15:36
00028 suncat0251 pw.x -npool 4 -i  Done                     04/21/2018 01:15:36
00029 suncat0251 pw.x -npool 4 -i  Done                     04/21/2018 01:15:36
00030 suncat0251 pw.x -npool 4 -i  Done                     04/21/2018 01:15:36
00031 suncat0251 pw.x -npool 4 -i  Done                     04/21/2018 01:15:36