     Program PWSCF v.5.1rc2 starts on  3Feb2018 at 20:35:11

     Current dimensions of program PWSCF are:
     Max number of different atomic species (ntypx) = 10
     Max number of k-points (npk) =  40000
     Max angular momentum in pseudopotentials (lmaxx) =  3
     Presently stress not available with electric field

     IMPORTANT: XC functional enforced from input :
     Exchange-correlation      = BEEF-VDW ( 1  4 27 13 2)
     Any further DFT definition will be discarded
     Please, verify this is what you really want

     bravais-lattice index     =            0
     lattice parameter (alat)  =       1.8897  a.u.
     unit-cell volume          =    4515.4205 (a.u.)^3
     number of atoms/cell      =           13
     number of atomic types    =            2
     number of electrons       =       245.00
     number of Kohn-Sham states=          132
     kinetic-energy cutoff     =      36.7493  Ry
     charge density cutoff     =     367.4932  Ry
     convergence threshold     =      1.0E-05
     mixing beta               =       0.3000
     number of iterations used =           10  plain     mixing
     Exchange-correlation      = BEEF-VDW ( 1  4 27 13 2)
     nstep                     =           50

     celldm(1)=   1.889726  celldm(2)=   0.000000  celldm(3)=   0.000000
     celldm(4)=   0.000000  celldm(5)=   0.000000  celldm(6)=   0.000000

     crystal axes: (cart. coord. in units of alat)
               a(1) = (   5.606773   0.000000   0.000000 )
               a(2) = (   2.803387   4.855608   0.000000 )
               a(3) = (   0.000000   0.000000  24.577911 )

     reciprocal axes: (cart. coord. in units 2 pi/alat)
               b(1) = (  0.178356 -0.102974  0.000000 )
               b(2) = (  0.000000  0.205947  0.000000 )
               b(3) = (  0.000000  0.000000  0.040687 )

     PseudoPot. # 1 for Zn read from file:
     /home/users/mamunm/src/pseudo/gbrv1.5pbe/Zn.UPF
     MD5 check sum: df62231357ef9e81f77b2b3087fa5675
     Pseudo is Ultrasoft, Zval = 20.0
     Generated by new atomic code, or converted to UPF format
     Using radial grid of  943 points,  6 beta functions with:
                l(1) =   0
                l(2) =   0
                l(3) =   1
                l(4) =   1
                l(5) =   2
                l(6) =   2
     Q(r) pseudized with  8 coefficients,  rinner =    1.100   1.100   1.100
                                                       1.100   1.100

     PseudoPot. # 2 for N  read from file:
     /home/users/mamunm/src/pseudo/gbrv1.5pbe/N.UPF
     MD5 check sum: 95339753478d7afb44899504a8723017
     Pseudo is Ultrasoft + core correction, Zval =  5.0
     Generated by new atomic code, or converted to UPF format
     Using radial grid of  729 points,  4 beta functions with:
                l(1) =   0
                l(2) =   0
                l(3) =   1
                l(4) =   1
     Q(r) pseudized with  8 coefficients,  rinner =    0.900   0.900   0.900

     vdW kernel table read from file vdW_kernel_table
     MD5 check sum: 095c7af220d748ca6e76c0b4c6cfb241

     atomic species   valence    mass     pseudopotential
        Zn1           20.00    65.38000     Zn( 1.00)
        N1             5.00    14.00700     N ( 1.00)

     No symmetry found

   Cartesian axes

     site n.     atom                  positions (alat units)
         1           Zn1 tau(   1) = (   1.4016933   0.8092680  10.0000000  )
         2           Zn1 tau(   2) = (   4.2050800   0.8092680  10.0000000  )
         3           Zn1 tau(   3) = (   2.8033867   3.2370721  10.0000000  )
         4           Zn1 tau(   4) = (   5.6067733   3.2370721  10.0000000  )
         5           Zn1 tau(   5) = (   5.6067733   1.6185360  12.2889556  )
         6           Zn1 tau(   6) = (   2.8033867   1.6185360  12.2889556  )
         7           Zn1 tau(   7) = (   7.0084667   4.0463401  12.2889556  )
         8           Zn1 tau(   8) = (   4.2050800   4.0463401  12.2889556  )
         9           Zn1 tau(   9) = (   0.0000000   0.0000000  14.5779113  )
        10           Zn1 tau(  10) = (   2.8033867   0.0000000  14.5779113  )
        11           Zn1 tau(  11) = (   1.4016933   2.4278041  14.5779113  )
        12           Zn1 tau(  12) = (   4.2050800   2.4278041  14.5779113  )
        13           N1  tau(  13) = (   2.8033867   1.6185360  15.8324113  )

     number of k points=    20  Fermi-Dirac smearing, width (Ry)=  0.0110
                       cart. coord. in units 2pi/alat
        k(    1) = (   0.0000000   0.0000000   0.0000000), wk =   0.0555556
        k(    2) = (   0.0000000   0.0343246   0.0000000), wk =   0.1111111
        k(    3) = (   0.0000000   0.0686491   0.0000000), wk =   0.1111111
        k(    4) = (   0.0000000  -0.1029737   0.0000000), wk =   0.0555556
        k(    5) = (   0.0297260  -0.0171623   0.0000000), wk =   0.1111111
        k(    6) = (   0.0297260   0.0171623   0.0000000), wk =   0.1111111
        k(    7) = (   0.0297260   0.0514869   0.0000000), wk =   0.1111111
        k(    8) = (   0.0297260  -0.1201360   0.0000000), wk =   0.1111111
        k(    9) = (   0.0297260  -0.0858114   0.0000000), wk =   0.1111111
        k(   10) = (   0.0297260  -0.0514869   0.0000000), wk =   0.1111111
        k(   11) = (   0.0594519  -0.0343246   0.0000000), wk =   0.1111111
        k(   12) = (   0.0594519  -0.0000000   0.0000000), wk =   0.1111111
        k(   13) = (   0.0594519   0.0343246   0.0000000), wk =   0.1111111
        k(   14) = (   0.0594519  -0.1372983   0.0000000), wk =   0.1111111
        k(   15) = (   0.0594519  -0.1029737   0.0000000), wk =   0.1111111
        k(   16) = (   0.0594519  -0.0686491   0.0000000), wk =   0.1111111
        k(   17) = (  -0.0891779   0.0514869   0.0000000), wk =   0.0555556
        k(   18) = (  -0.0891779   0.0858114   0.0000000), wk =   0.1111111
        k(   19) = (  -0.0891779   0.1201360   0.0000000), wk =   0.1111111
        k(   20) = (  -0.0891779  -0.0514869   0.0000000), wk =   0.0555556

     Largest allocated arrays     est. size (Mb)     dimensions
     Largest temporary arrays     est. size (Mb)     dimensions

     Initial potential from superposition of free atoms
     Check: negative starting charge=   -0.000852

     starting charge  244.99830, renormalised to  245.00000

     negative rho (up, down):  8.518E-04 0.000E+00

     *
     * You are using vdW-DF for exchange-correlation in this calculation.
     * Please cite the following three references that made this development
     * possible:
     *
     *   M. Dion, H. Rydberg, E. Schroder, D. C. Langreth, and
     *   B. I. Lundqvist, Phys. Rev. Lett. 92, 246401 (2004).
     *
     *   T. Thonhauser, V. R. Cooper, S. Li, A. Puzder, P. Hyldgaard, and
     *   D. C. Langreth, Phys. Rev. B 76, 125112 (2007).
     *
     *   G. Roman-Perez and J. M. Soler, Phys. Rev. Lett. 103, 096102 (2009).
     *
     *
     * If you are using vdW-DF2, please also cite:
     *
     *   K. Lee, E. D. Murray, L. Kong, B. I. Lundqvist, and
     *   D. C. Langreth, Phys. Rev. B 82, 081101(R) (2010).
     *
     *
     * If you are calculating the stress with vdW-DF, please also cite:
     *
     *   R. Sabatini, E. Kucukbenli, B. Kolb, T. Thonhauser, and
     *   S. de Gironcoli, J. Phys.: Condens. Matter 24, 424209 (2012).
     *

     Carrying out vdW-DF run using the following parameters:

     Nqs =      20    Nr_points =    1024   r_max =   100.000
     q_mesh =
               0.00001000     0.04494208     0.09755937     0.15916263
               0.23128650     0.31572767     0.41458969     0.53033537
               0.66584808     0.82450364     1.01025438     1.22772762
               1.48234092     1.78043706     2.12944203     2.53805004
               3.01644009     3.57652955     4.23227104     5.00000000

     Gradients computed in reciprocal space

     Adding external electric field

     Computed dipole along edir(3) :
        Dipole               -0.0002 Ry au,         -0.0004 Debye
        Dipole field         -0.0000 Ry au

        Potential amp.        0.0000 Ry
        Total length         45.2844 bohr

     Starting wfc are  160 randomized atomic wfcs

     Self-consistent Calculation

     iteration #  1     ecut=    36.75 Ry     beta=0.30
     Davidson diagonalization with overlap
     ethr =  1.00E-02,  avg # of iterations =  2.0

[...]

     total energy              =   -5572.30406860 Ry
     Harris-Foulkes estimate   =   -5573.77583272 Ry
     estimated scf accuracy    <       3.17506189 Ry

[...]

     End of self-consistent calculation

          k = 0.0000 0.0000 0.0000 ( 16931 PWs)   bands (ev):

  -126.9018-126.8013-126.8004-126.8004-126.6570-126.6561-126.6561-126.6124
  -126.5523-126.3648-126.3639-126.3638 -81.0941 -81.0698 -81.0698 -80.9809
   -80.9807 -80.9807 -80.9799 -80.9789 -80.9789 -80.9753 -80.9685 -80.9685
   -80.8475 -80.8464 -80.8464 -80.8374 -80.8309 -80.8309 -80.8239 -80.8239
   -80.8229 -80.7935 -80.7866 -80.7866 -80.7397 -80.7287 -80.7287 -80.5806
   -80.5752 -80.5752 -80.5660 -80.5660 -80.5619 -80.4900 -80.4833 -80.4833
   -13.3900  -9.4674  -8.3872  -8.3788  -8.3788  -8.3498  -8.2905  -8.2905
    -8.2511  -8.1906  -8.1664  -8.1664  -8.1442  -7.9991  -7.9991  -7.9659
    -7.8318  -7.8318  -7.7873  -7.7873  -7.7865  -7.7371  -7.7371  -7.7368
    -7.7026  -7.7026  -7.6927  -7.6681  -7.6681  -7.5376  -7.5296  -7.5296
    -7.4048  -7.4048  -7.3598  -7.3598  -7.3493  -7.3446  -7.3446  -7.3311
    -7.2909  -7.2909  -7.2574  -7.2574  -7.2495  -7.2495  -7.2228  -7.2051
    -7.1662  -7.1662  -7.1182  -7.0762  -7.0569  -7.0569  -7.0539  -7.0485
    -7.0485  -7.0240  -7.0240  -6.8642  -6.8642  -6.7969  -6.7111  -3.8284
    -2.8958  -2.8958  -2.6018  -2.4628  -2.2687  -2.2687  -1.8572  -1.8572
    -1.6884  -1.1320  -1.1320  -0.8857  -0.1279   0.4788   0.4788   0.8381
     1.8227   2.2187   2.2187   2.6646

[...]

          k =-0.0892 0.0515 0.0000 ( 17028 PWs)   bands (ev):

[...]

     the Fermi energy is    -0.0402 ev

!    total energy              =   -5573.46269694 Ry
     Harris-Foulkes estimate   =   -5573.46272222 Ry
     estimated scf accuracy    <       0.00000988 Ry

     The total energy is the sum of the following terms:

     one-electron contribution =  -36104.56628849 Ry
     hartree contribution      =   18029.73485870 Ry
     xc contribution           =    -526.29937953 Ry
     ewald contribution        =   13027.69312805 Ry
     electric field correction =       0.00052503 Ry
     smearing contrib. (-TS)   =      -0.02554070 Ry

     convergence has been achieved in  10 iterations

 BEEF-vdW xc energy contributions
           1 :   -467.455443701827
           2 :    423.559419388624
           3 :   -349.976151167730
           4 :    268.067254373118
           5 :   -196.672019163023
           6 :    145.076686511252
           7 :   -111.813816032539
           8 :    88.9593231503053
           9 :   -68.6184175212514
          10 :    47.5298745062461
          11 :   -27.5155700342960
          12 :    12.4364473860986
          13 :   -4.41303764699433
          14 :    2.04811531610949
          15 :   -1.56239651729902
          16 :  -0.432663299044407
          17 :    4.77255856911006
          18 :   -9.68083862191173
          19 :    12.5862554574479
          20 :   -12.2658758345026
          21 :    9.71051219371765
          22 :   -7.22751350193960
          23 :    6.64072408369731
          24 :   -8.02521705429206
          25 :    9.86760025020476
          26 :   -10.3949829067890
          27 :    8.96378966484042
          28 :   -6.45934791014452
          29 :    4.49698720668982
          30 :   -4.13859089024174
          31 :   -36.3233269509388
          32 :   -24.7771090346127

     Forces acting on atoms (Ry/au):

     negative rho (up, down):  1.255E-03 0.000E+00
     atom    1 type  1   force =    -0.00337299   -0.00193391   -0.01375510
     atom    2 type  1   force =     0.00337120   -0.00194898   -0.01375493
     atom    3 type  1   force =    -0.00000458    0.00389544   -0.01375286
     atom    4 type  1   force =     0.00000261   -0.00000733   -0.01119279
     atom    5 type  1   force =    -0.00000321    0.00265957    0.00557664
     atom    6 type  1   force =    -0.00000161    0.00001545   -0.00508670
     atom    7 type  1   force =    -0.00229585   -0.00133438    0.00558528
     atom    8 type  1   force =     0.00229603   -0.00134151    0.00558654
     atom    9 type  1   force =     0.00001174   -0.00000222    0.00329763
     atom   10 type  1   force =    -0.00000023   -0.00226403    0.03908319
     atom   11 type  1   force =    -0.00196121    0.00113311    0.03909203
     atom   12 type  1   force =     0.00195846    0.00112848    0.03908987
     atom   13 type  2   force =    -0.00000035    0.00000030   -0.07976882

     Total force =     0.104752     Total SCF correction =     0.023009
     SCF correction compared to forces is large: reduce conv_thr to get better values

     entering subroutine stress ...

     negative rho (up, down):  1.255E-03 0.000E+00
          total   stress  (Ry/bohr**3)                   (kbar)     P=   -5.42
  -0.00007241   0.00000000  -0.00000000        -10.65      0.00     -0.00
   0.00000000  -0.00007241   0.00000000          0.00    -10.65      0.00
  -0.00000000   0.00000000   0.00003425         -0.00      0.00      5.04

     BFGS Geometry Optimization

     number of scf cycles    =   1
     number of bfgs steps    =   0

     energy   new            =   -5573.4626969370 Ry

     new trust radius        =       0.0797688169 bohr
     new conv_thr            =       0.0000099958 Ry

ATOMIC_POSITIONS (crystal)
Zn1      0.166666667   0.166666667   0.406869400    0   0   0
Zn1      0.666666667   0.166666667   0.406869400    0   0   0
Zn1      0.166666667   0.666666667   0.406869400    0   0   0
Zn1      0.666666667   0.666666667   0.406869400    0   0   0
Zn1      0.833333333   0.333333333   0.500000000    0   0   0
Zn1      0.333333333   0.333333333   0.500000000    0   0   0
Zn1      0.833333333   0.833333333   0.500000000    0   0   0
Zn1      0.333333333   0.833333333   0.500000000    0   0   0
Zn1      0.000001229  -0.000000242   0.593201600
Zn1      0.500123348  -0.000246740   0.593972085
Zn1     -0.000246847   0.500123489   0.593972275
Zn1      0.500123350   0.500122985   0.593972229
N1       0.333333284   0.333333366   0.642454896

     Writing output data file calc.save
     Check: negative starting charge=   -0.000852
     NEW-OLD atomic charge density approx. for the potential
     Check: negative starting charge=   -0.000863

[...]

     Total force =     0.079933     Total SCF correction =     0.003874

[...]

     energy   old            =   -5573.4626969370 Ry
     energy   new            =   -5573.4720751774 Ry

     CASE: energy  _new < energy  _old

[...]

     Threshold (ethr) on eigenvalues was too large:
     Diagonalizing with lowered threshold

     Davidson diagonalization with overlap
     ethr =  4.47E-09,  avg # of iterations =  2.0

[...]

     WARNING: bfgs curvature condition failed, Theta= 0.811
     new trust radius        =       0.0078529786 bohr
     new conv_thr            =       0.0000001000 Ry

[...]

     Total force =     0.004532     Total SCF correction =     0.000437

[...]

     number of scf cycles    =  14
     number of bfgs steps    =  13

     energy   old            =   -5573.5188322234 Ry
     energy   new            =   -5573.5189516126 Ry

     CASE: energy  _new < energy  _old

     new trust radius        =       0.0596335564 bohr
     new conv_thr            =       0.0000001000 Ry

ATOMIC_POSITIONS (crystal)
Zn1      0.166666667   0.166666667   0.406869400    0   0   0
Zn1      0.666666667   0.166666667   0.406869400    0   0   0
Zn1      0.166666667   0.666666667   0.406869400    0   0   0
Zn1      0.666666667   0.666666667   0.406869400    0   0   0
Zn1      0.833333333   0.333333333   0.500000000    0   0   0
Zn1      0.333333333   0.333333333   0.500000000    0   0   0
Zn1      0.833333333   0.833333333   0.500000000    0   0   0
Zn1      0.333333333   0.833333333   0.500000000    0   0   0
Zn1     -0.000000156  -0.000000224   0.588796930
Zn1      0.520660834  -0.041320019   0.605714913
Zn1     -0.041318792   0.520660052   0.605715680
Zn1      0.520661375   0.520659041   0.605715521
N1       0.333334457   0.333332678   0.621493523

     Writing output data file calc.save
     Check: negative starting charge=   -0.000850
     NEW-OLD atomic charge density approx. for the potential
     Check: negative starting charge=   -0.000849

[...]

     Self-consistent Calculation

[...]

     Threshold (ethr) on eigenvalues was too large:
     Diagonalizing with lowered threshold

     Davidson diagonalization with overlap
     ethr =  8.62E-08,  avg # of iterations =  1.0

[...]

     total energy              =   -5573.51896364 Ry
     Harris-Foulkes estimate   =   -5573.51896349 Ry
     estimated scf accuracy    <       0.00000018 Ry

     iteration #  8     ecut=    36.75 Ry     beta=0.30
     Davidson diagonalization with overlap
     ethr =  7.53E-11,  avg # of iterations =  2.4

[...]

     negative rho (up, down):  1.299E-03 0.000E+00

     Adding external electric field

     Computed dipole along edir(3) :
        Dipole               -0.1286 Ry au,         -0.3267 Debye
        Dipole field         -0.0004 Ry au

        Potential amp.        0.0324 Ry
        Total length         45.2844 bohr

     End of self-consistent calculation

[...]

          k = 0.0595-0.0686 0.0000 ( 16986 PWs)   bands (ev):

[...]

          k =-0.0892-0.0515 0.0000 ( 17028 PWs)   bands (ev):

  -126.2774-126.2771-126.2768-126.2610-126.1963-126.1684-126.1680-126.1677
  -126.0346-125.9077-125.9042-125.9042 -80.4606 -80.4601 -80.4596 -80.4547
   -80.4530 -80.4509 -80.4508 -80.4487 -80.4461 -80.4441 -80.4366 -80.4349
   -80.3897 -80.3671 -80.3664 -80.3602 -80.3598 -80.3594 -80.3432 -80.3395
   -80.3392 -80.3388 -80.3378 -80.3332 -80.2232 -80.2085 -80.2085 -80.1104
   -80.1092 -80.1088 -80.1023 -80.1020 -80.0942 -80.0569 -80.0292 -80.0281
   -13.8257  -7.9716  -7.7740  -7.7185  -7.6088  -7.5967  -7.5742  -7.5643
    -7.5251  -7.5162  -7.4779  -7.4715  -7.4640  -7.4414  -7.3742  -7.3365
    -7.3348  -7.3123  -7.2740  -7.2475  -7.2431  -7.2163  -7.2077  -7.1818
    -7.1711  -7.1666  -7.1556  -7.1245  -7.1189  -7.0951  -7.0882  -7.0747
    -7.0547  -7.0244  -7.0145  -7.0066  -7.0013  -6.9933  -6.9619  -6.9390
    -6.9189  -6.9045  -6.8777  -6.8728  -6.8679  -6.8540  -6.8443  -6.8153
    -6.8082  -6.7729  -6.7630  -6.7505  -6.7341  -6.6785  -6.6526  -6.6345
    -6.6017  -6.5926  -6.5896  -6.5802  -6.5221  -6.3960  -6.0726  -5.3888
    -4.3807  -3.8078  -3.3094  -3.0268  -2.8034  -2.4027  -1.2299  -1.0137
    -0.4508   0.0295   0.9228   1.5028   1.6610   2.6061   3.2354   3.2804
     3.4040   3.7312   3.8177   4.2549

     the Fermi energy is     0.4861 ev

!    total energy              =   -5573.51896373 Ry
     Harris-Foulkes estimate   =   -5573.51896363 Ry
     estimated scf accuracy    <       0.00000001 Ry

     The total energy is the sum of the following terms:

     one-electron contribution =  -35419.01971070 Ry
     hartree contribution      =   17690.86033959 Ry
     xc contribution           =    -526.46295325 Ry
     ewald contribution        =   12681.12656320 Ry
     electric field correction =       0.00004599 Ry
     smearing contrib. (-TS)   =      -0.02324856 Ry

     convergence has been achieved in   8 iterations

 BEEF-vdW xc energy contributions
           1 :   -467.626916832899
           2 :    423.742995732502
           3 :   -350.106208711038
           4 :    268.031366106140
           5 :   -196.399106122092
           6 :    144.594171025811
           7 :   -111.245380705459
           8 :    88.4671850222322
           9 :   -68.3202818077097
          10 :    47.4380415274374
          11 :   -27.5352239470331
          12 :    12.4266037003636
          13 :   -4.27609206147469
          14 :    1.79214157932518
          15 :   -1.29261270813964
          16 :  -0.589107380296866
          17 :    4.75346727434606
          18 :   -9.52705325939075
          19 :    12.4095416965134
          20 :   -12.1728309906300
          21 :    9.73553569294137
          22 :   -7.31939849320287
          23 :    6.70897380474827
          24 :   -8.01063499953204
          25 :    9.78528666747297
          26 :   -10.3183568529635
          27 :    8.96288836128207
          28 :   -6.54340293760930
          29 :    4.60813642583884
          30 :   -4.20195063472534
          31 :   -36.3331265530539
          32 :   -24.7745509784913

     Forces acting on atoms (Ry/au):

     negative rho (up, down):  1.299E-03 0.000E+00
     atom    1 type  1   force =     0.00015336    0.00008850   -0.01013312
     atom    2 type  1   force =    -0.00015336    0.00008852   -0.01013313
     atom    3 type  1   force =     0.00000001   -0.00017704   -0.01013310
     atom    4 type  1   force =    -0.00000000    0.00000001   -0.00738363
     atom    5 type  1   force =     0.00000009    0.00420914    0.00781290
     atom    6 type  1   force =     0.00000002    0.00000005    0.01351876
     atom    7 type  1   force =    -0.00364519   -0.00210467    0.00781284
     atom    8 type  1   force =     0.00364526   -0.00210460    0.00781316
     atom    9 type  1   force =     0.00000072   -0.00000006    0.00031209
     atom   10 type  1   force =    -0.00000053   -0.00078905   -0.00046513
     atom   11 type  1   force =    -0.00068354    0.00039435   -0.00046573
     atom   12 type  1   force =     0.00068313    0.00039476   -0.00046560
     atom   13 type  2   force =     0.00000004    0.00000009    0.00190971

     Total force =     0.002502     Total SCF correction =     0.000560
     SCF correction compared to forces is large: reduce conv_thr to get better values

     entering subroutine stress ...

     negative rho (up, down):  1.299E-03 0.000E+00
          total   stress  (Ry/bohr**3)                   (kbar)     P=   -7.73
  -0.00007035  -0.00000000  -0.00000000        -10.35     -0.00     -0.00
  -0.00000000  -0.00007035   0.00000000         -0.00    -10.35      0.00
  -0.00000000   0.00000000  -0.00001684         -0.00      0.00     -2.48

     bfgs converged in  15 scf cycles and  14 bfgs steps
     (criteria: energy <  1.0E+00, force <  1.9E-03)

     End of BFGS Geometry Optimization

     Final energy   =   -5573.5189637300 Ry
Begin final coordinates

ATOMIC_POSITIONS (crystal)
Zn1      0.166666667   0.166666667   0.406869400    0   0   0
Zn1      0.666666667   0.166666667   0.406869400    0   0   0
Zn1      0.166666667   0.666666667   0.406869400    0   0   0
Zn1      0.666666667   0.666666667   0.406869400    0   0   0
Zn1      0.833333333   0.333333333   0.500000000    0   0   0
Zn1      0.333333333   0.333333333   0.500000000    0   0   0
Zn1      0.833333333   0.833333333   0.500000000    0   0   0
Zn1      0.333333333   0.833333333   0.500000000    0   0   0
Zn1     -0.000000156  -0.000000224   0.588796930
Zn1      0.520660834  -0.041320019   0.605714913
Zn1     -0.041318792   0.520660052   0.605715680
Zn1      0.520661375   0.520659041   0.605715521
N1       0.333334457   0.333332678   0.621493523
End final coordinates

     Writing output data file calc.save

     General routines

     Parallel routines

   This run was terminated on:  21:16: 0   3Feb2018

   JOB DONE.