     Program PWSCF v.5.1rc2 (svn rev. 11289) starts on  3May2018 at 11: 2:43

     Current dimensions of program PWSCF are:
     Max number of different atomic species (ntypx) = 10
     Max number of k-points (npk) =  40000
     Max angular momentum in pseudopotentials (lmaxx) =  3
     Presently stress not available with electric field

     IMPORTANT: XC functional enforced from input :
     Exchange-correlation      = BEEF-VDW ( 1  4 27 13 2)
     Any further DFT definition will be discarded
     Please, verify this is what you really want

     Subspace diagonalization in iterative solution of the eigenvalue problem:
     a serial algorithm will be used

     bravais-lattice index     =            0
     lattice parameter (alat)  =       1.8897  a.u.
     unit-cell volume          =    8507.0471 (a.u.)^3
     number of atoms/cell      =           13
     number of atomic types    =            2
     number of electrons       =       137.00
     number of Kohn-Sham states=           78
     kinetic-energy cutoff     =      36.7493  Ry
     charge density cutoff     =     367.4932  Ry
     convergence threshold     =      1.0E-05
     mixing beta               =       0.3000
     number of iterations used =           10  plain     mixing
     Exchange-correlation      = BEEF-VDW ( 1  4 27 13 2)
     nstep                     =           50

     celldm(1)=   1.889726  celldm(2)=   0.000000  celldm(3)=   0.000000
     celldm(4)=   0.000000  celldm(5)=   0.000000  celldm(6)=   0.000000

     crystal axes: (cart. coord. in units of alat)
               a(1) = (   7.468327   0.000000   0.000000 )
               a(2) = (   3.734164   6.467761   0.000000 )
               a(3) = (   0.000000   0.000000  26.097863 )

     reciprocal axes: (cart. coord. in units 2 pi/alat)
               b(1) = (  0.133899 -0.077307  0.000000 )
               b(2) = (  0.000000  0.154613  0.000000 )
               b(3) = (  0.000000  0.000000  0.038317 )

     PseudoPot. # 1 for La read from file:
     /u/if/mamunm/psp/gbrv1.5pbe/La.UPF
     MD5 check sum: 5937b0c7494ba0601a847275249473aa
     Pseudo is Ultrasoft + core correction, Zval = 11.0
     Generated by new atomic code, or converted to UPF format
     Using radial grid of  995 points,  8 beta functions with:
                l(1) =   0
                l(2) =   0
                l(3) =   1
                l(4) =   1
                l(5) =   2
                l(6) =   2
                l(7) =   3
                l(8) =   3
     Q(r) pseudized with  8 coefficients,  rinner =    1.700   1.700   1.700
                                                       1.700   1.700   1.700
                                                       1.700

     PseudoPot. # 2 for N  read from file:
     /u/if/mamunm/psp/gbrv1.5pbe/N.UPF
     MD5 check sum: 95339753478d7afb44899504a8723017
     Pseudo is Ultrasoft + core correction, Zval =  5.0
     Generated by new atomic code, or converted to UPF format
     Using radial grid of  729 points,  4 beta functions with:
                l(1) =   0
                l(2) =   0
                l(3) =   1
                l(4) =   1
     Q(r) pseudized with  8 coefficients,  rinner =    0.900   0.900   0.900

     vdW kernel table read from file vdW_kernel_table
     MD5 check sum: 095c7af220d748ca6e76c0b4c6cfb241

     atomic species   valence    mass     pseudopotential
        La1           11.00   138.90547     La( 1.00)
        N1             5.00    14.00700     N ( 1.00)

     No symmetry found

   Cartesian axes

     site n.     atom                  positions (alat units)
         1           La1 tau(   1) = (   1.8670818   1.0779602  10.0000000  )
         2           La1 tau(   2) = (   5.6012453   1.0779602  10.0000000  )
         3           La1 tau(   3) = (   3.7341635   4.3118406  10.0000000  )
         4           La1 tau(   4) = (   7.4683270   4.3118406  10.0000000  )
         5           La1 tau(   5) = (   7.4683270   2.1559203  13.0489317  )
         6           La1 tau(   6) = (   3.7341635   2.1559203  13.0489317  )
         7           La1 tau(   7) = (   9.3354088   5.3898008  13.0489317  )
         8           La1 tau(   8) = (   5.6012453   5.3898008  13.0489317  )
         9           La1 tau(   9) = (   0.0000000   0.0000000  16.0978635  )
        10           La1 tau(  10) = (   3.7341635   0.0000000  16.0978635  )
        11           La1 tau(  11) = (   1.8670818   3.2338805  16.0978635  )
        12           La1 tau(  12) = (   5.6012453   3.2338805  16.0978635  )
        13           N1  tau(  13) = (   1.8670818   1.0779602  17.9048635  )

     number of k points=    20  Fermi-Dirac smearing, width (Ry)=  0.0110
                       cart. coord. in units 2pi/alat
        k(    1) = (   0.0000000   0.0000000   0.0000000), wk =   0.0555556
        k(    2) = (   0.0000000   0.0257688   0.0000000), wk =   0.1111111
        k(    3) = (   0.0000000   0.0515377   0.0000000), wk =   0.1111111
        k(    4) = (   0.0000000  -0.0773065   0.0000000), wk =   0.0555556
        k(    5) = (   0.0223165  -0.0128844   0.0000000), wk =   0.1111111
        k(    6) = (   0.0223165   0.0128844   0.0000000), wk =   0.1111111
        k(    7) = (   0.0223165   0.0386533   0.0000000), wk =   0.1111111
        k(    8) = (   0.0223165  -0.0901909   0.0000000), wk =   0.1111111
        k(    9) = (   0.0223165  -0.0644221   0.0000000), wk =   0.1111111
        k(   10) = (   0.0223165  -0.0386533   0.0000000), wk =   0.1111111
        k(   11) = (   0.0446329  -0.0257688   0.0000000), wk =   0.1111111
        k(   12) = (   0.0446329   0.0000000   0.0000000), wk =   0.1111111
        k(   13) = (   0.0446329   0.0257688   0.0000000), wk =   0.1111111
        k(   14) = (   0.0446329  -0.1030753   0.0000000), wk =   0.1111111
        k(   15) = (   0.0446329  -0.0773065   0.0000000), wk =   0.1111111
        k(   16) = (   0.0446329  -0.0515377   0.0000000), wk =   0.1111111
        k(   17) = (  -0.0669494   0.0386533   0.0000000), wk =   0.0555556
        k(   18) = (  -0.0669494   0.0644221   0.0000000), wk =   0.1111111
        k(   19) = (  -0.0669494   0.0901909   0.0000000), wk =   0.1111111
        k(   20) = (  -0.0669494  -0.0386533   0.0000000), wk =   0.0555556

     Largest allocated arrays     est. size (Mb)     dimensions
     Largest temporary arrays     est. size (Mb)     dimensions

     Initial potential from superposition of free atoms
     Check: negative starting charge=   -0.831238

     starting charge  136.61517, renormalised to  137.00000

     negative rho (up, down):  8.336E-01 0.000E+00

     *
     * You are using vdW-DF for exchange-correlation in this calculation.
     * Please cite the following three references that made this development
     * possible:
     *
     *   M. Dion, H. Rydberg, E. Schroder, D. C. Langreth, and
     *   B. I. Lundqvist, Phys. Rev. Lett. 92, 246401 (2004).
     *
     *   T. Thonhauser, V. R. Cooper, S. Li, A. Puzder, P. Hyldgaard, and
     *   D. C. Langreth, Phys. Rev. B 76, 125112 (2007).
     *
     *   G. Roman-Perez and J. M. Soler, Phys. Rev. Lett. 103, 096102 (2009).
     *
     *
     * If you are using vdW-DF2, please also cite:
     *
     *   K. Lee, E. D. Murray, L. Kong, B. I. Lundqvist, and
     *   D. C. Langreth, Phys. Rev. B 82, 081101(R) (2010).
     *
     *
     * If you are calculating the stress with vdW-DF, please also cite:
     *
     *   R. Sabatini, E. Kucukbenli, B. Kolb, T. Thonhauser, and
     *   S. de Gironcoli, J. Phys.: Condens. Matter 24, 424209 (2012).
     *

     Carrying out vdW-DF run using the following parameters:

     Nqs =      20    Nr_points =    1024   r_max =   100.000
     q_mesh =
               0.00001000     0.04494208     0.09755937     0.15916263
               0.23128650     0.31572767     0.41458969     0.53033537
               0.66584808     0.82450364     1.01025438     1.22772762
               1.48234092     1.78043706     2.12944203     2.53805004
               3.01644009     3.57652955     4.23227104     5.00000000

     Gradients computed in reciprocal space

     Adding external electric field

     Computed dipole along edir(3) :
        Dipole               -0.1292 Ry au,         -0.3283 Debye
        Dipole field         -0.0002 Ry au

        Potential amp.        0.0183 Ry
        Total length         48.0849 bohr

     Starting wfc are  244 randomized atomic wfcs

     Self-consistent Calculation

     iteration #  1     ecut=    36.75 Ry     beta=0.30
     Davidson diagonalization with overlap
     ethr =  1.00E-02,  avg # of iterations =  2.0

[...]

     total energy              =   -1265.70165922 Ry
     Harris-Foulkes estimate   =   -1269.23988580 Ry
     estimated scf accuracy    <       7.54683240 Ry

[...]

     iteration # 14     ecut=    36.75 Ry     beta=0.30
     Davidson diagonalization with overlap
     c_bands:  2 eigenvalues not converged
     ethr =  4.71E-06,  avg # of iterations = 14.1

[...]

     End of self-consistent calculation

          k = 0.0000 0.0000 0.0000 ( 31997 PWs)   bands (ev):

   -31.9228 -31.8792 -31.7532 -31.7437 -31.7436 -31.6485 -31.5577 -31.5576
   -31.4267 -31.3244 -31.2909 -31.2908 -15.9759 -15.9759 -15.9587 -15.9000
   -15.9000 -15.8301 -15.8013 -15.7319 -15.7115 -15.7114 -15.5366 -15.3595
   -15.3042 -15.3041 -15.2132 -15.1466 -15.1465 -15.1353 -15.1267 -15.1267
   -15.0339 -15.0339 -14.9979 -14.8842 -14.8842 -14.8361 -14.7940 -14.7939
   -14.7559 -14.7415 -14.7415 -14.6872 -14.6858 -14.6858 -14.4718 -14.4718
    -9.7539  -1.2910  -0.5545  -0.2225  -0.2225  -0.2225  -0.1707   0.0236
     0.0997   0.0997   0.2244   0.2244   0.2406   0.4147   0.4147   0.4293
     0.8715   0.8715   1.0364   1.4137   1.4137   1.6735   1.9607   2.0293
     2.1576   2.1576   2.3445   2.4407   2.6365   2.6793

[...]

          k =-0.0669 0.0387 0.0000 ( 31970 PWs)   bands (ev):

[...]

     the Fermi energy is     1.4715 ev

!    total energy              =   -1268.43136682 Ry
     Harris-Foulkes estimate   =   -1268.43134189 Ry
     estimated scf accuracy    <       0.00000297 Ry

     The total energy is the sum of the following terms:

     one-electron contribution =   -4779.92640082 Ry
     hartree contribution      =    2402.27560427 Ry
     xc contribution           =    -613.84700511 Ry
     ewald contribution        =    1723.18845065 Ry
     electric field correction =       0.00066380 Ry
     smearing contrib. (-TS)   =      -0.12267961 Ry

     convergence has been achieved in  23 iterations

 BEEF-vdW xc energy contributions
           1 :   -543.783340839737
           2 :    500.128410116121
           3 :   -422.935928329667
           4 :    328.684348948440
           5 :   -234.868568124510
           6 :    155.336412003442
           7 :   -97.6785129533724
           8 :    62.9167601792925
           9 :   -46.9829501860830
          10 :    43.1101162985948
          11 :   -44.2405253287574
          12 :    44.7659468182893
          13 :   -41.3391546280577
          14 :    32.9059795466768
          15 :   -20.3084675886998
          16 :    5.71691806867091
          17 :    8.03293611525135
          18 :   -18.2059654198866
          19 :    22.9528774714520
          20 :   -21.9055298630877
          21 :    16.3377318618186
          22 :   -8.76596610774061
          23 :    2.07656071858344
          24 :    1.50654315607255
          25 :   -1.19010210000204
          26 :   -2.22160265188279
          27 :    6.82327826833159
          28 :   -10.5192953070662
          29 :    11.9140899153848
          30 :   -10.7931242621590
          31 :   -46.3139160301531
          32 :   -33.2184789735634

     Forces acting on atoms (Ry/au):

     negative rho (up, down):  5.833E-01 0.000E+00
     atom    1 type  1   force =     0.00000672   -0.00000019    0.00351975
     atom    2 type  1   force =    -0.00000325   -0.00253416    0.00404899
     atom    3 type  1   force =    -0.00219672    0.00125923    0.00403828
     atom    4 type  1   force =     0.00219558    0.00127097    0.00404459
     atom    5 type  1   force =    -0.00353868    0.00205067   -0.00417109
     atom    6 type  1   force =     0.00353650    0.00203691   -0.00416356
     atom    7 type  1   force =    -0.00000777    0.00000307   -0.00856157
     atom    8 type  1   force =     0.00001367   -0.00408712   -0.00416213
     atom    9 type  1   force =     0.05181647    0.02991649    0.04963317
     atom   10 type  1   force =    -0.05181879    0.02991891    0.04963705
     atom   11 type  1   force =     0.00000550   -0.05983446    0.04964474
     atom   12 type  1   force =    -0.00000716    0.00000146    0.00219422
     atom   13 type  2   force =    -0.00000206   -0.00000178   -0.14570243

     Total force =     0.198410     Total SCF correction =     0.002857

     entering subroutine stress ...

     negative rho (up, down):  5.833E-01 0.000E+00
          total   stress  (Ry/bohr**3)                   (kbar)     P=   -6.33
  -0.00003155   0.00000000  -0.00000000         -4.64      0.00     -0.00
   0.00000000  -0.00003156  -0.00000000          0.00     -4.64     -0.00
  -0.00000000  -0.00000000  -0.00006601         -0.00     -0.00     -9.71

     BFGS Geometry Optimization

     number of scf cycles    =   1
     number of bfgs steps    =   0

     energy   new            =   -1268.4313668195 Ry

     new trust radius        =       0.1457024324 bohr
     new conv_thr            =       0.0000099958 Ry

ATOMIC_POSITIONS (crystal)
La1      0.166666667   0.166666667   0.383173129    0   0   0
La1      0.666666667   0.166666667   0.383173129    0   0   0
La1      0.166666667   0.666666667   0.383173129    0   0   0
La1      0.666666667   0.666666667   0.383173129    0   0   0
La1      0.833333333   0.333333333   0.500000000    0   0   0
La1      0.333333333   0.333333333   0.500000000    0   0   0
La1      0.833333333   0.833333333   0.500000000    0   0   0
La1      0.333333333   0.833333333   0.500000000    0   0   0
La1      0.002447669   0.002447698   0.617833265
La1      0.495104370   0.002447896   0.617833344
La1      0.002448148   0.495104483   0.617833500
La1      0.499999433   0.500000119   0.616871362
N1       0.166666593   0.166666521   0.683111898

     Writing output data file calc.save
     Check: negative starting charge=   -0.831238
     NEW-OLD atomic charge density approx. for the potential
     Check: negative starting charge=   -0.832803

[...]

     energy   old            =   -1268.4313668195 Ry
     energy   new            =   -1268.4706609754 Ry

     CASE: energy  _new < energy  _old

     WARNING: bfgs curvature condition failed, Theta= 0.807
     new trust radius        =       0.2185536486 bohr
     new conv_thr            =       0.0000001000 Ry

[...]

     WARNING: bfgs curvature condition failed, Theta= 0.916
     new trust radius        =       0.0843243362 bohr
     new conv_thr            =       0.0000001000 Ry

[...]

     iteration #  1     ecut=    36.75 Ry     beta=0.30
     Davidson diagonalization with overlap
     c_bands:  1 eigenvalues not converged
     ethr =  1.00E-06,  avg # of iterations = 16.9

[...]

     Threshold (ethr) on eigenvalues was too large:
     Diagonalizing with lowered threshold

     Davidson diagonalization with overlap
     ethr =  8.65E-08,  avg # of iterations = 11.4

[...]

     number of scf cycles    =  16
     number of bfgs steps    =  15

     energy   old            =   -1268.6468595759 Ry
     energy   new            =   -1268.6470721538 Ry

     CASE: energy  _new < energy  _old

     new trust radius        =       0.0409008988 bohr
     new conv_thr            =       0.0000001000 Ry

ATOMIC_POSITIONS (crystal)
La1      0.166666667   0.166666667   0.383173129    0   0   0
La1      0.666666667   0.166666667   0.383173129    0   0   0
La1      0.166666667   0.666666667   0.383173129    0   0   0
La1      0.666666667   0.666666667   0.383173129    0   0   0
La1      0.833333333   0.333333333   0.500000000    0   0   0
La1      0.333333333   0.333333333   0.500000000    0   0   0
La1      0.833333333   0.833333333   0.500000000    0   0   0
La1      0.333333333   0.833333333   0.500000000    0   0   0
La1      0.004186230   0.004187688   0.627545117
La1      0.491624515   0.004187553   0.627545346
La1      0.004186045   0.491625089   0.627545985
La1      0.500000657   0.499999971   0.609053392
N1       0.166666054   0.166666721   0.653435262

     Writing output data file calc.save
     Check: negative starting charge=   -0.833795
     NEW-OLD atomic charge density approx. for the potential
     Check: negative starting charge=   -0.833880

[...]

     Self-consistent Calculation

[...]

     total energy              =   -1268.64716454 Ry
     Harris-Foulkes estimate   =   -1268.64716462 Ry
     estimated scf accuracy    <       0.00000014 Ry

     iteration # 12     ecut=    36.75 Ry     beta=0.30
     Davidson diagonalization with overlap
     ethr =  9.92E-11,  avg # of iterations =  8.0

[...]

     negative rho (up, down):  5.782E-01 0.000E+00

     Adding external electric field

     Computed dipole along edir(3) :
        Dipole               -0.0819 Ry au,         -0.2081 Debye
        Dipole field         -0.0001 Ry au

        Potential amp.        0.0116 Ry
        Total length         48.0849 bohr

     End of self-consistent calculation

[...]

          k = 0.0446-0.0515 0.0000 ( 31991 PWs)   bands (ev):

[...]

          k =-0.0669-0.0387 0.0000 ( 31970 PWs)   bands (ev):

   -31.4045 -31.4023 -31.3374 -31.3349 -31.2906 -31.1623 -31.1017 -31.0802
   -31.0648 -30.9802 -30.9438 -30.9213 -16.3584 -15.3646 -15.3616 -15.2924
   -15.2381 -15.2111 -15.1878 -15.1683 -15.1187 -15.0943 -15.0484 -15.0327
   -14.9812 -14.9753 -14.9537 -14.8721 -14.8661 -14.8217 -14.8051 -14.7934
   -14.6890 -14.6567 -14.6529 -14.6039 -14.6038 -14.5704 -14.5497 -14.5423
   -14.4825 -14.4825 -14.4486 -14.3699 -14.3692 -14.3191 -14.2579 -14.2017
    -9.4321  -1.2949  -0.9458  -0.7814   0.2905   0.3562   0.7377   0.8736
     1.0499   1.1045   1.1534   1.1997   1.2484   1.3793   1.5332   1.5872
     1.7117   1.7629   1.7679   1.8587   2.0082   2.0305   2.0843   2.0894
     2.1567   2.1676   2.3334   2.3949   2.4380   2.4384

     the Fermi energy is     1.8793 ev

!    total energy              =   -1268.64716464 Ry
     Harris-Foulkes estimate   =   -1268.64716427 Ry
     estimated scf accuracy    <       0.00000002 Ry

     The total energy is the sum of the following terms:

     one-electron contribution =   -4774.63388540 Ry
     hartree contribution      =    2401.27730609 Ry
     xc contribution           =    -614.29263628 Ry
     ewald contribution        =    1719.12450041 Ry
     electric field correction =       0.00000990 Ry
     smearing contrib. (-TS)   =      -0.12245936 Ry

     convergence has been achieved in  12 iterations

 BEEF-vdW xc energy contributions
           1 :   -544.229681238942
           2 :    500.657663206265
           3 :   -423.541513992033
           4 :    329.289343664426
           5 :   -235.382662781017
           6 :    155.668371442320
           7 :   -97.7302266955935
           8 :    62.6149262288720
           9 :   -46.3459103875240
          10 :    42.2885970584172
          11 :   -43.4776388715151
          12 :    44.2844157327628
          13 :   -41.2246605339236
          14 :    33.0638358783514
          15 :   -20.5238050663576
          16 :    5.78061578046845
          17 :    8.21212270227113
          18 :   -18.5700068501316
          19 :    23.3562682905159
          20 :   -22.2239598657808
          21 :    16.5495406004679
          22 :   -8.95269087643419
          23 :    2.34696880998524
          24 :    1.10913826049762
          25 :  -0.727744512343065
          26 :   -2.62209658432300
          27 :    7.05890062433457
          28 :   -10.5815911032539
          29 :    11.8926705922123
          30 :   -10.8135941153436
          31 :   -46.3379235019866
          32 :   -33.2587151711103

     Forces acting on atoms (Ry/au):

     negative rho (up, down):  5.782E-01 0.000E+00
     atom    1 type  1   force =     0.00000008   -0.00000018    0.00198157
     atom    2 type  1   force =    -0.00000028   -0.00213809    0.00583563
     atom    3 type  1   force =    -0.00185174    0.00106914    0.00583550
     atom    4 type  1   force =     0.00185160    0.00106920    0.00583566
     atom    5 type  1   force =    -0.00301689    0.00174165   -0.00347368
     atom    6 type  1   force =     0.00301735    0.00174183   -0.00347305
     atom    7 type  1   force =    -0.00000036    0.00000002   -0.00818009
     atom    8 type  1   force =     0.00000017   -0.00348387   -0.00347386
     atom    9 type  1   force =    -0.00087695   -0.00050658   -0.00081560
     atom   10 type  1   force =     0.00087846   -0.00050699   -0.00081511
     atom   11 type  1   force =     0.00000060    0.00101498   -0.00081615
     atom   12 type  1   force =    -0.00000116   -0.00000029    0.00034970
     atom   13 type  2   force =    -0.00000086   -0.00000083    0.00120949

     Total force =     0.002582     Total SCF correction =     0.000182

     entering subroutine stress ...

     negative rho (up, down):  5.782E-01 0.000E+00
          total   stress  (Ry/bohr**3)                   (kbar)     P=    0.57
   0.00001332   0.00000000   0.00000000          1.96      0.00      0.00
   0.00000000   0.00001332  -0.00000000          0.00      1.96     -0.00
   0.00000000  -0.00000000  -0.00001500          0.00     -0.00     -2.21

     bfgs converged in  17 scf cycles and  16 bfgs steps
     (criteria: energy <  1.0E+00, force <  1.9E-03)

     End of BFGS Geometry Optimization

     Final energy   =   -1268.6471646363 Ry
Begin final coordinates

ATOMIC_POSITIONS (crystal)
La1      0.166666667   0.166666667   0.383173129    0   0   0
La1      0.666666667   0.166666667   0.383173129    0   0   0
La1      0.166666667   0.666666667   0.383173129    0   0   0
La1      0.666666667   0.666666667   0.383173129    0   0   0
La1      0.833333333   0.333333333   0.500000000    0   0   0
La1      0.333333333   0.333333333   0.500000000    0   0   0
La1      0.833333333   0.833333333   0.500000000    0   0   0
La1      0.333333333   0.833333333   0.500000000    0   0   0
La1      0.004186230   0.004187688   0.627545117
La1      0.491624515   0.004187553   0.627545346
La1      0.004186045   0.491625089   0.627545985
La1      0.500000657   0.499999971   0.609053392
N1       0.166666054   0.166666721   0.653435262
End final coordinates

     Writing output data file calc.save

     General routines

     Parallel routines

   This run was terminated on:  18:27:45   3May2018

   JOB DONE.
Job  /afs/slac/g/suncat/bin/suncat-tsmpirun -x LD_LIBRARY_PATH -wdir /scratch/qe746154_Yfy93 pw.x -npool 4 -in pw.inp

TID   HOST_NAME   COMMAND_LINE            STATUS            TERMINATION_TIME
00000 suncat0161 pw.x -npool 4 -i  Done                     05/03/2018 18:27:45
00001 suncat0161 pw.x -npool 4 -i  Done                     05/03/2018 18:27:45
00002 suncat0161 pw.x -npool 4 -i  Done                     05/03/2018 18:27:45
00003 suncat0161 pw.x -npool 4 -i  Done                     05/03/2018 18:27:45
00004 suncat0161 pw.x -npool 4 -i  Done                     05/03/2018 18:27:45
00005 suncat0161 pw.x -npool 4 -i  Done                     05/03/2018 18:27:45
00006 suncat0161 pw.x -npool 4 -i  Done                     05/03/2018 18:27:45
00007 suncat0161 pw.x -npool 4 -i  Done                     05/03/2018 18:27:45
00008 suncat0146 pw.x -npool 4 -i  Done                     05/03/2018 18:27:45
00009 suncat0146 pw.x -npool 4 -i  Done                     05/03/2018 18:27:45
00010 suncat0146 pw.x -npool 4 -i  Done                     05/03/2018 18:27:45
00011 suncat0146 pw.x -npool 4 -i  Done                     05/03/2018 18:27:45
00012 suncat0146 pw.x -npool 4 -i  Done                     05/03/2018 18:27:45
00013 suncat0146 pw.x -npool 4 -i  Done                     05/03/2018 18:27:45
00014 suncat0146 pw.x -npool 4 -i  Done                     05/03/2018 18:27:45
00015 suncat0146 pw.x -npool 4 -i  Done                     05/03/2018 18:27:45
00016 suncat0244 pw.x -npool 4 -i  Done                     05/03/2018 18:27:45
00017 suncat0244 pw.x -npool 4 -i  Done                     05/03/2018 18:27:45
00018 suncat0244 pw.x -npool 4 -i  Done                     05/03/2018 18:27:45
00019 suncat0244 pw.x -npool 4 -i  Done                     05/03/2018 18:27:45
00020 suncat0244 pw.x -npool 4 -i  Done                     05/03/2018 18:27:45
00021 suncat0244 pw.x -npool 4 -i  Done                     05/03/2018 18:27:45
00022 suncat0244 pw.x -npool 4 -i  Done                     05/03/2018 18:27:45
00023 suncat0244 pw.x -npool 4 -i  Done                     05/03/2018 18:27:45
00024 suncat0243 pw.x -npool 4 -i  Done                     05/03/2018 18:27:45
00025 suncat0243 pw.x -npool 4 -i  Done                     05/03/2018 18:27:45
00026 suncat0243 pw.x -npool 4 -i  Done                     05/03/2018 18:27:45
00027 suncat0243 pw.x -npool 4 -i  Done                     05/03/2018 18:27:45
00028 suncat0243 pw.x -npool 4 -i  Done                     05/03/2018 18:27:45
00029 suncat0243 pw.x -npool 4 -i  Done                     05/03/2018 18:27:45
00030 suncat0243 pw.x -npool 4 -i  Done                     05/03/2018 18:27:45
00031 suncat0243 pw.x -npool 4 -i  Done                     05/03/2018 18:27:45