     Program PWSCF v.5.1rc2 (svn rev. 11289) starts on 19Apr2018 at 10:46: 0

     Current dimensions of program PWSCF are:
     Max number of different atomic species (ntypx) = 10
     Max number of k-points (npk) =  40000
     Max angular momentum in pseudopotentials (lmaxx) =  3
     Presently stress not available with electric field

     IMPORTANT: XC functional enforced from input :
     Exchange-correlation      = BEEF-VDW ( 1  4 27 13 2)
     Any further DFT definition will be discarded
     Please, verify this is what you really want

     Subspace diagonalization in iterative solution of the eigenvalue problem:
     a serial algorithm will be used

     bravais-lattice index     =            0
     lattice parameter (alat)  =       1.8897  a.u.
     unit-cell volume          =    5182.3421 (a.u.)^3
     number of atoms/cell      =           14
     number of atomic types    =            3
     number of electrons       =       163.00
     number of Kohn-Sham states=           91
     kinetic-energy cutoff     =      36.7493  Ry
     charge density cutoff     =     367.4932  Ry
     convergence threshold     =      1.0E-05
     mixing beta               =       0.3000
     number of iterations used =           10  plain     mixing
     Exchange-correlation      = BEEF-VDW ( 1  4 27 13 2)
     nstep                     =           50

     celldm(1)=   1.889726  celldm(2)=   0.000000  celldm(3)=   0.000000
     celldm(4)=   0.000000  celldm(5)=   0.000000  celldm(6)=   0.000000

     crystal axes: (cart. coord. in units of alat)
               a(1) = (   5.970602   0.000000   0.000000 )
               a(2) = (   2.985301   5.170693   0.000000 )
               a(3) = (   0.000000   0.000000  24.874976 )

     reciprocal axes: (cart. coord. in units 2 pi/alat)
               b(1) = (  0.167487 -0.096699  0.000000 )
               b(2) = (  0.000000  0.193398  0.000000 )
               b(3) = (  0.000000  0.000000  0.040201 )

     PseudoPot. # 1 for Nb read from file:
     /u/if/mamunm/psp/gbrv1.5pbe/Nb.UPF
     MD5 check sum: 573aab8a2fa660278ed4a62cd769473f
     Pseudo is Ultrasoft + core correction, Zval = 13.0
     Generated by new atomic code, or converted to UPF format
     Using radial grid of  887 points,  6 beta functions with:
                l(1) =   0
                l(2) =   0
                l(3) =   1
                l(4) =   1
                l(5) =   2
                l(6) =   2
     Q(r) pseudized with  6 coefficients,  rinner =    1.000   1.000   1.000
                                                       1.000   1.000

     PseudoPot. # 2 for S  read from file:
     /u/if/mamunm/psp/gbrv1.5pbe/S.UPF
     MD5 check sum: 88d86576ff6df21479756cfb9bdac1df
     Pseudo is Ultrasoft + core correction, Zval =  6.0
     Generated by new atomic code, or converted to UPF format
     Using radial grid of  907 points,  6 beta functions with:
                l(1) =   0
                l(2) =   0
                l(3) =   1
                l(4) =   1
                l(5) =   2
                l(6) =   2
     Q(r) pseudized with  8 coefficients,  rinner =    1.300   1.300   1.300
                                                       1.300   1.300

     PseudoPot. # 3 for H  read from file:
     /u/if/mamunm/psp/gbrv1.5pbe/H.UPF
     MD5 check sum: 761ae9a214b05c3daf00ab9f6b793d6f
     Pseudo is Ultrasoft, Zval =  1.0
     Generated by new atomic code, or converted to UPF format
     Using radial grid of  615 points,  2 beta functions with:
                l(1) =   0
                l(2) =   0
     Q(r) pseudized with  8 coefficients,  rinner =    0.700

     vdW kernel table read from file vdW_kernel_table
     MD5 check sum: 095c7af220d748ca6e76c0b4c6cfb241

     atomic species   valence    mass     pseudopotential
        Nb1           13.00    92.90637     Nb( 1.00)
        S1             6.00    32.06000     S ( 1.00)
        H1             1.00     1.00800     H ( 1.00)

     No symmetry found

   Cartesian axes

     site n.     atom                  positions (alat units)
         1           Nb1 tau(   1) = (   1.4926504   0.8617821  10.0000000  )
         2           Nb1 tau(   2) = (   4.4779512   0.8617821  10.0000000  )
         3           Nb1 tau(   3) = (   2.9853008   3.4471284  10.0000000  )
         4           Nb1 tau(   4) = (   5.9706016   3.4471284  10.0000000  )
         5           Nb1 tau(   5) = (   5.9706016   1.7235642  12.4374879  )
         6           Nb1 tau(   6) = (   2.9853008   1.7235642  12.4374879  )
         7           Nb1 tau(   7) = (   7.4632520   4.3089105  12.4374879  )
         8           Nb1 tau(   8) = (   4.4779512   4.3089105  12.4374879  )
         9           Nb1 tau(   9) = (   0.0000000   0.0000000  14.8749758  )
        10           Nb1 tau(  10) = (   2.9853008   0.0000000  14.8749758  )
        11           Nb1 tau(  11) = (   1.4926504   2.5853463  14.8749758  )
        12           Nb1 tau(  12) = (   4.4779512   2.5853463  14.8749758  )
        13           S1  tau(  13) = (   2.9853008   1.7235642  16.6234758  )
        14           H1  tau(  14) = (   2.9853008   1.7235642  17.8734758  )

     number of k points=    20  Fermi-Dirac smearing, width (Ry)=  0.0110
                       cart. coord. in units 2pi/alat
        k(    1) = (   0.0000000   0.0000000   0.0000000), wk =   0.0555556
        k(    2) = (   0.0000000   0.0322329   0.0000000), wk =   0.1111111
        k(    3) = (   0.0000000   0.0644659   0.0000000), wk =   0.1111111
        k(    4) = (   0.0000000  -0.0966988   0.0000000), wk =   0.0555556
        k(    5) = (   0.0279146  -0.0161165   0.0000000), wk =   0.1111111
        k(    6) = (   0.0279146   0.0161165   0.0000000), wk =   0.1111111
        k(    7) = (   0.0279146   0.0483494   0.0000000), wk =   0.1111111
        k(    8) = (   0.0279146  -0.1128153   0.0000000), wk =   0.1111111
        k(    9) = (   0.0279146  -0.0805824   0.0000000), wk =   0.1111111
        k(   10) = (   0.0279146  -0.0483494   0.0000000), wk =   0.1111111
        k(   11) = (   0.0558291  -0.0322329   0.0000000), wk =   0.1111111
        k(   12) = (   0.0558291   0.0000000   0.0000000), wk =   0.1111111
        k(   13) = (   0.0558291   0.0322329   0.0000000), wk =   0.1111111
        k(   14) = (   0.0558291  -0.1289318   0.0000000), wk =   0.1111111
        k(   15) = (   0.0558291  -0.0966988   0.0000000), wk =   0.1111111
        k(   16) = (   0.0558291  -0.0644659   0.0000000), wk =   0.1111111
        k(   17) = (  -0.0837437   0.0483494   0.0000000), wk =   0.0555556
        k(   18) = (  -0.0837437   0.0805824   0.0000000), wk =   0.1111111
        k(   19) = (  -0.0837437   0.1128153   0.0000000), wk =   0.1111111
        k(   20) = (  -0.0837437  -0.0483494   0.0000000), wk =   0.0555556

     Largest allocated arrays     est. size (Mb)     dimensions
     Largest temporary arrays     est. size (Mb)     dimensions

     Initial potential from superposition of free atoms
     Check: negative starting charge=   -0.004770

     starting charge  162.96716, renormalised to  163.00000

     negative rho (up, down):  4.771E-03 0.000E+00

     *
     * You are using vdW-DF for exchange-correlation in this calculation.
     * Please cite the following three references that made this development
     * possible:
     *
     *   M. Dion, H. Rydberg, E. Schroder, D. C. Langreth, and
     *   B. I. Lundqvist, Phys. Rev. Lett. 92, 246401 (2004).
     *
     *   T. Thonhauser, V. R. Cooper, S. Li, A. Puzder, P. Hyldgaard, and
     *   D. C. Langreth, Phys. Rev. B 76, 125112 (2007).
     *
     *   G. Roman-Perez and J. M. Soler, Phys. Rev. Lett. 103, 096102 (2009).
     *
     *
     * If you are using vdW-DF2, please also cite:
     *
     *   K. Lee, E. D. Murray, L. Kong, B. I. Lundqvist, and
     *   D. C. Langreth, Phys. Rev. B 82, 081101(R) (2010).
     *
     *
     * If you are calculating the stress with vdW-DF, please also cite:
     *
     *   R. Sabatini, E. Kucukbenli, B. Kolb, T. Thonhauser, and
     *   S. de Gironcoli, J. Phys.: Condens. Matter 24, 424209 (2012).
     *

     Carrying out vdW-DF run using the following parameters:

     Nqs =      20    Nr_points =    1024   r_max =   100.000
     q_mesh =
               0.00001000     0.04494208     0.09755937     0.15916263
               0.23128650     0.31572767     0.41458969     0.53033537
               0.66584808     0.82450364     1.01025438     1.22772762
               1.48234092     1.78043706     2.12944203     2.53805004
               3.01644009     3.57652955     4.23227104     5.00000000

     Gradients computed in reciprocal space

     Adding external electric field

     Computed dipole along edir(3) :
        Dipole               -0.0113 Ry au,         -0.0286 Debye
        Dipole field         -0.0000 Ry au

        Potential amp.        0.0025 Ry
        Total length         45.8317 bohr

     Starting wfc are  161 randomized atomic wfcs

     Self-consistent Calculation

     iteration #  1     ecut=    36.75 Ry     beta=0.30
     Davidson diagonalization with overlap
     ethr =  1.00E-02,  avg # of iterations =  2.0

[...]

     total energy              =   -1445.76868672 Ry
     Harris-Foulkes estimate   =   -1448.35657377 Ry
     estimated scf accuracy    <       5.70010713 Ry

[...]

     End of self-consistent calculation

          k = 0.0000 0.0000 0.0000 ( 19435 PWs)   bands (ev):

   -52.5853 -52.5460 -52.4484 -52.4295 -52.4294 -52.4274 -52.4196 -52.4164
   -52.4162 -52.3420 -52.3312 -52.3310 -29.0781 -29.0195 -29.0195 -28.9727
   -28.9543 -28.9543 -28.9460 -28.9169 -28.9087 -28.9086 -28.6412 -28.5217
   -28.5117 -28.5115 -28.4584 -28.4449 -28.4448 -28.3293 -28.3293 -28.3173
   -28.2592 -28.2591 -28.2467 -28.2220 -28.2131 -28.2130 -28.1540 -28.1349
   -28.1348 -28.1307 -28.0896 -28.0896 -28.0488 -28.0488 -27.9669 -27.9669
   -12.6269  -5.7150  -2.8261  -2.1454  -2.1454  -1.5200  -1.1392  -0.9829
    -0.9829  -0.8340  -0.6695  -0.5063  -0.5062  -0.3381  -0.2902  -0.2901
    -0.1031  -0.0768  -0.0768   0.9830   0.9830   1.1181   1.6991   2.0087
     2.0087   2.0839   2.2948   2.6471   2.6471   2.8459   2.8621   2.8621
     2.9105   2.9644   2.9644   2.9999   3.0243   3.0243   3.1991   3.1991
     3.4978   3.7534   3.7534

[...]

          k =-0.0837 0.0483 0.0000 ( 19524 PWs)   bands (ev):

[...]

     the Fermi energy is     2.5662 ev

!    total energy              =   -1447.86307837 Ry
     Harris-Foulkes estimate   =   -1447.86307107 Ry
     estimated scf accuracy    <       0.00000083 Ry

     The total energy is the sum of the following terms:

     one-electron contribution =  -11772.19458024 Ry
     hartree contribution      =    5883.56480776 Ry
     xc contribution           =    -238.00932558 Ry
     ewald contribution        =    4678.89480026 Ry
     electric field correction =       0.00024490 Ry
     smearing contrib. (-TS)   =      -0.11902546 Ry

     convergence has been achieved in  18 iterations

 BEEF-vdW xc energy contributions
           1 :   -203.980248798219
           2 :    185.276518090829
           3 :   -153.406039709972
           4 :    116.893238747225
           5 :   -83.9266671629376
           6 :    59.6792200186547
           7 :   -45.2069493654458
           8 :    38.0689420432658
           9 :   -34.1667590481611
          10 :    29.8157419705983
          11 :   -23.1610672154330
          12 :    14.4641765107501
          13 :   -5.39054237767112
          14 :   -2.18139966147592
          15 :    7.18058165533458
          16 :   -9.75673596569018
          17 :    10.9894830188246
          18 :   -12.1626653895343
          19 :    14.0362461355787
          20 :   -16.5034272649995
          21 :    18.7587292998868
          22 :   -19.8292216036971
          23 :    19.1399766797730
          24 :   -16.8154667252288
          25 :    13.5883785883038
          26 :   -10.4120746754924
          27 :    8.00461627293171
          28 :   -6.56713468399781
          29 :    5.79505093612667
          30 :   -5.14448602694611
          31 :   -23.5938293338855
          32 :   -17.7828049849409

     Forces acting on atoms (Ry/au):

     negative rho (up, down):  4.569E-03 0.000E+00
     atom    1 type  1   force =    -0.00029999   -0.00016747   -0.00448735
     atom    2 type  1   force =     0.00029519   -0.00016781   -0.00449167
     atom    3 type  1   force =    -0.00000061    0.00033904   -0.00449018
     atom    4 type  1   force =    -0.00000047   -0.00000644   -0.00633603
     atom    5 type  1   force =     0.00000442   -0.00140938   -0.00798210
     atom    6 type  1   force =    -0.00000061    0.00000136   -0.00530727
     atom    7 type  1   force =     0.00121721    0.00070201   -0.00798456
     atom    8 type  1   force =    -0.00121670    0.00070845   -0.00798462
     atom    9 type  1   force =     0.00000166    0.00000607   -0.01713818
     atom   10 type  1   force =    -0.00000223   -0.04237689    0.01414651
     atom   11 type  1   force =    -0.03670431    0.02118442    0.01415156
     atom   12 type  1   force =     0.03670373    0.02118643    0.01414844
     atom   13 type  2   force =     0.00000318    0.00000047   -0.11209045
     atom   14 type  3   force =    -0.00000049   -0.00000027    0.13584591

     Total force =     0.193133     Total SCF correction =     0.000838

     entering subroutine stress ...

     negative rho (up, down):  4.569E-03 0.000E+00
          total   stress  (Ry/bohr**3)                   (kbar)     P=  -12.40
  -0.00019456  -0.00000000   0.00000001        -28.62     -0.00      0.00
  -0.00000000  -0.00019455   0.00000000         -0.00    -28.62      0.00
   0.00000001   0.00000000   0.00013614          0.00      0.00     20.03

     BFGS Geometry Optimization

     number of scf cycles    =   1
     number of bfgs steps    =   0

     energy   new            =   -1447.8630783686 Ry

     new trust radius        =       0.1358459051 bohr
     new conv_thr            =       0.0000099958 Ry

ATOMIC_POSITIONS (crystal)
Nb1      0.166666667   0.166666667   0.402010442    0   0   0
Nb1      0.666666667   0.166666667   0.402010442    0   0   0
Nb1      0.166666667   0.666666667   0.402010442    0   0   0
Nb1      0.666666667   0.666666667   0.402010442    0   0   0
Nb1      0.833333333   0.333333333   0.500000000    0   0   0
Nb1      0.333333333   0.333333333   0.500000000    0   0   0
Nb1      0.833333333   0.833333333   0.500000000    0   0   0
Nb1      0.333333333   0.833333333   0.500000000    0   0   0
Nb1     -0.000000164   0.000000622   0.597624969
Nb1      0.502168263  -0.004336921   0.598290504
Nb1     -0.004337144   0.502168049   0.598290611
Nb1      0.502168942   0.502168255   0.598290544
S1       0.333333591   0.333333382   0.665896530
H1       0.333333304   0.333333306   0.721422304

     Writing output data file calc.save
     Check: negative starting charge=   -0.004770
     NEW-OLD atomic charge density approx. for the potential
     Check: negative starting charge=   -0.004753

[...]

     energy   old            =   -1447.8630783686 Ry
     energy   new            =   -1447.8795611623 Ry

     CASE: energy  _new < energy  _old

[...]

     Total force =     0.010520     Total SCF correction =     0.000432

[...]

     Total force =     0.004012     Total SCF correction =     0.000748
     SCF correction compared to forces is large: reduce conv_thr to get better values

[...]

     number of scf cycles    =  14
     number of bfgs steps    =  13

     energy   old            =   -1447.9109690608 Ry
     energy   new            =   -1447.9110882117 Ry

     CASE: energy  _new < energy  _old

     new trust radius        =       0.0045866456 bohr
     new conv_thr            =       0.0000001000 Ry

ATOMIC_POSITIONS (crystal)
Nb1      0.166666667   0.166666667   0.402010442    0   0   0
Nb1      0.666666667   0.166666667   0.402010442    0   0   0
Nb1      0.166666667   0.666666667   0.402010442    0   0   0
Nb1      0.666666667   0.666666667   0.402010442    0   0   0
Nb1      0.833333333   0.333333333   0.500000000    0   0   0
Nb1      0.333333333   0.333333333   0.500000000    0   0   0
Nb1      0.833333333   0.833333333   0.500000000    0   0   0
Nb1      0.333333333   0.833333333   0.500000000    0   0   0
Nb1     -0.000003331   0.000001153   0.582106171
Nb1      0.510171027  -0.020342611   0.604094883
Nb1     -0.020342748   0.510170494   0.604094725
Nb1      0.510171251   0.510169630   0.604094813
S1       0.333333594   0.333332624   0.673298044
H1       0.333334186   0.333333066   0.728382561

     Writing output data file calc.save
     Check: negative starting charge=   -0.004704
     NEW-OLD atomic charge density approx. for the potential
     Check: negative starting charge=   -0.004702

[...]

     Self-consistent Calculation

[...]

     Threshold (ethr) on eigenvalues was too large:
     Diagonalizing with lowered threshold

     Davidson diagonalization with overlap
     ethr =  5.00E-08,  avg # of iterations =  3.7

[...]

     total energy              =   -1447.91110499 Ry
     Harris-Foulkes estimate   =   -1447.91110494 Ry
     estimated scf accuracy    <       0.00000012 Ry

     iteration # 11     ecut=    36.75 Ry     beta=0.30
     Davidson diagonalization with overlap
     ethr =  6.37E-11,  avg # of iterations =  1.0

[...]

     negative rho (up, down):  4.532E-03 0.000E+00

     Adding external electric field

     Computed dipole along edir(3) :
        Dipole                0.2858 Ry au,          0.7265 Debye
        Dipole field          0.0007 Ry au

        Potential amp.       -0.0635 Ry
        Total length         45.8317 bohr

     End of self-consistent calculation

[...]

          k = 0.0558-0.0645 0.0000 ( 19505 PWs)   bands (ev):

[...]

          k =-0.0837-0.0483 0.0000 ( 19524 PWs)   bands (ev):

   -52.6163 -52.5734 -52.5403 -52.5333 -52.5161 -52.5088 -52.4664 -52.4653
   -52.4347 -52.3682 -52.3364 -52.2348 -29.0248 -28.9862 -28.9255 -28.8923
   -28.8786 -28.8633 -28.8409 -28.7795 -28.7547 -28.7372 -28.7175 -28.6827
   -28.6392 -28.5667 -28.5591 -28.5423 -28.5114 -28.5014 -28.4858 -28.4554
   -28.4480 -28.4250 -28.3801 -28.3770 -28.3604 -28.3182 -28.2814 -28.2679
   -28.2368 -28.2177 -28.1960 -28.1326 -28.1125 -28.0309 -27.9497 -27.8812
   -12.1282  -5.0727  -2.1992  -1.8202  -1.3437  -1.2440  -0.4845  -0.2670
    -0.1055  -0.0793  -0.0342   0.1141   0.1426   0.3027   0.4932   0.6539
     0.6681   0.7698   0.8557   0.9118   1.0790   1.2926   1.3741   1.4408
     1.4600   1.6339   1.7073   1.8270   1.8411   1.9671   2.1472   2.1652
     2.1685   2.2278   2.3409   2.5022   2.5987   2.6455   2.8165   2.8180
     3.0315   3.2222   3.5265

     the Fermi energy is     2.5083 ev

!    total energy              =   -1447.91110493 Ry
     Harris-Foulkes estimate   =   -1447.91110462 Ry
     estimated scf accuracy    <       0.00000007 Ry

     The total energy is the sum of the following terms:

     one-electron contribution =  -11696.65154902 Ry
     hartree contribution      =    5845.63004975 Ry
     xc contribution           =    -237.93732525 Ry
     ewald contribution        =    4641.15498524 Ry
     electric field correction =       0.00019811 Ry
     smearing contrib. (-TS)   =      -0.10746376 Ry

     convergence has been achieved in  11 iterations

 BEEF-vdW xc energy contributions
           1 :   -203.913374958266
           2 :    185.176913158795
           3 :   -153.260146196653
           4 :    116.707784363211
           5 :   -83.7159050261646
           6 :    59.4477647629932
           7 :   -44.9393103986130
           8 :    37.7377522480159
           9 :   -33.7596592199138
          10 :    29.3621750867551
          11 :   -22.7327957021504
          12 :    14.1391338056582
          13 :   -5.19840974486902
          14 :   -2.29202898777052
          15 :    7.32294727633206
          16 :   -10.0412065450886
          17 :    11.4538787995254
          18 :   -12.7427223617477
          19 :    14.5953291596784
          20 :   -16.9033868801727
          21 :    18.9322181932428
          22 :   -19.8141965110429
          23 :    19.0581476406608
          24 :   -16.8085073575060
          25 :    13.7458080275810
          26 :   -10.7269324844533
          27 :    8.38113177644308
          28 :   -6.87648950524812
          29 :    5.94910332761052
          30 :   -5.14688484651123
          31 :   -23.5882306096817
          32 :   -17.7649587730585

     Forces acting on atoms (Ry/au):

     negative rho (up, down):  4.532E-03 0.000E+00
     atom    1 type  1   force =     0.00221669    0.00128101   -0.00360405
     atom    2 type  1   force =    -0.00221603    0.00127926   -0.00360087
     atom    3 type  1   force =    -0.00000112   -0.00255968   -0.00360335
     atom    4 type  1   force =     0.00000173   -0.00000059    0.00057446
     atom    5 type  1   force =    -0.00000125    0.02472524   -0.01249687
     atom    6 type  1   force =     0.00000202    0.00000029    0.05099701
     atom    7 type  1   force =    -0.02141185   -0.01236183   -0.01249791
     atom    8 type  1   force =     0.02141162   -0.01236322   -0.01249368
     atom    9 type  1   force =     0.00000044   -0.00000014   -0.00090415
     atom   10 type  1   force =    -0.00000181   -0.00011124   -0.00012798
     atom   11 type  1   force =    -0.00009562    0.00005456   -0.00012699
     atom   12 type  1   force =     0.00009408    0.00005608   -0.00012873
     atom   13 type  2   force =     0.00000085    0.00000030   -0.00062648
     atom   14 type  3   force =     0.00000025   -0.00000004   -0.00136041

     Total force =     0.001774     Total SCF correction =     0.001041
     SCF correction compared to forces is large: reduce conv_thr to get better values

     entering subroutine stress ...

     negative rho (up, down):  4.532E-03 0.000E+00
          total   stress  (Ry/bohr**3)                   (kbar)     P=  -16.65
  -0.00017173  -0.00000000   0.00000000        -25.26     -0.00      0.00
  -0.00000000  -0.00017173  -0.00000000         -0.00    -25.26     -0.00
   0.00000000  -0.00000000   0.00000395          0.00     -0.00      0.58

     bfgs converged in  15 scf cycles and  14 bfgs steps
     (criteria: energy <  1.0E+00, force <  1.9E-03)

     End of BFGS Geometry Optimization

     Final energy   =   -1447.9111049308 Ry
Begin final coordinates

ATOMIC_POSITIONS (crystal)
Nb1      0.166666667   0.166666667   0.402010442    0   0   0
Nb1      0.666666667   0.166666667   0.402010442    0   0   0
Nb1      0.166666667   0.666666667   0.402010442    0   0   0
Nb1      0.666666667   0.666666667   0.402010442    0   0   0
Nb1      0.833333333   0.333333333   0.500000000    0   0   0
Nb1      0.333333333   0.333333333   0.500000000    0   0   0
Nb1      0.833333333   0.833333333   0.500000000    0   0   0
Nb1      0.333333333   0.833333333   0.500000000    0   0   0
Nb1     -0.000003331   0.000001153   0.582106171
Nb1      0.510171027  -0.020342611   0.604094883
Nb1     -0.020342748   0.510170494   0.604094725
Nb1      0.510171251   0.510169630   0.604094813
S1       0.333333594   0.333332624   0.673298044
H1       0.333334186   0.333333066   0.728382561
End final coordinates

     Writing output data file calc.save

     General routines

     Parallel routines

   This run was terminated on:  12:43: 7  19Apr2018

   JOB DONE.
Job  /afs/slac/g/suncat/bin/suncat-tsmpirun -x LD_LIBRARY_PATH -wdir /scratch/qe829385_yBUJT pw.x -npool 4 -in pw.inp

TID   HOST_NAME   COMMAND_LINE            STATUS            TERMINATION_TIME
00000 suncat0142 pw.x -npool 4 -i  Done                     04/19/2018 12:43:07
00001 suncat0142 pw.x -npool 4 -i  Done                     04/19/2018 12:43:07
00002 suncat0142 pw.x -npool 4 -i  Done                     04/19/2018 12:43:07
00003 suncat0142 pw.x -npool 4 -i  Done                     04/19/2018 12:43:07
00004 suncat0142 pw.x -npool 4 -i  Done                     04/19/2018 12:43:07
00005 suncat0142 pw.x -npool 4 -i  Done                     04/19/2018 12:43:07
00006 suncat0142 pw.x -npool 4 -i  Done                     04/19/2018 12:43:07
00007 suncat0142 pw.x -npool 4 -i  Done                     04/19/2018 12:43:07
00008 suncat0140 pw.x -npool 4 -i  Done                     04/19/2018 12:43:07
00009 suncat0140 pw.x -npool 4 -i  Done                     04/19/2018 12:43:07
00010 suncat0140 pw.x -npool 4 -i  Done                     04/19/2018 12:43:07
00011 suncat0140 pw.x -npool 4 -i  Done                     04/19/2018 12:43:07
00012 suncat0140 pw.x -npool 4 -i  Done                     04/19/2018 12:43:07
00013 suncat0140 pw.x -npool 4 -i  Done                     04/19/2018 12:43:07
00014 suncat0140 pw.x -npool 4 -i  Done                     04/19/2018 12:43:07
00015 suncat0140 pw.x -npool 4 -i  Done                     04/19/2018 12:43:07
00016 suncat0134 pw.x -npool 4 -i  Done                     04/19/2018 12:43:07
00017 suncat0134 pw.x -npool 4 -i  Done                     04/19/2018 12:43:07
00018 suncat0134 pw.x -npool 4 -i  Done                     04/19/2018 12:43:07
00019 suncat0134 pw.x -npool 4 -i  Done                     04/19/2018 12:43:07
00020 suncat0134 pw.x -npool 4 -i  Done                     04/19/2018 12:43:07
00021 suncat0134 pw.x -npool 4 -i  Done                     04/19/2018 12:43:07
00022 suncat0134 pw.x -npool 4 -i  Done                     04/19/2018 12:43:07
00023 suncat0134 pw.x -npool 4 -i  Done                     04/19/2018 12:43:07
00024 suncat0115 pw.x -npool 4 -i  Done                     04/19/2018 12:43:07
00025 suncat0115 pw.x -npool 4 -i  Done                     04/19/2018 12:43:07
00026 suncat0115 pw.x -npool 4 -i  Done                     04/19/2018 12:43:07
00027 suncat0115 pw.x -npool 4 -i  Done                     04/19/2018 12:43:07
00028 suncat0115 pw.x -npool 4 -i  Done                     04/19/2018 12:43:07
00029 suncat0115 pw.x -npool 4 -i  Done                     04/19/2018 12:43:07
00030 suncat0115 pw.x -npool 4 -i  Done                     04/19/2018 12:43:07
00031 suncat0115 pw.x -npool 4 -i  Done                     04/19/2018 12:43:07