     Program PWSCF v.5.1rc2 (svn rev. 11289) starts on  2May2018 at 15:57:15

     Current dimensions of program PWSCF are:
     Max number of different atomic species (ntypx) = 10
     Max number of k-points (npk) =  40000
     Max angular momentum in pseudopotentials (lmaxx) =  3
     Presently stress not available with electric field

     IMPORTANT: XC functional enforced from input :
     Exchange-correlation      = BEEF-VDW ( 1  4 27 13 2)
     Any further DFT definition will be discarded
     Please, verify this is what you really want

     Subspace diagonalization in iterative solution of the eigenvalue problem:
     a serial algorithm will be used

     bravais-lattice index     =            0
     lattice parameter (alat)  =       1.8897  a.u.
     unit-cell volume          =    6116.8020 (a.u.)^3
     number of atoms/cell      =           13
     number of atomic types    =            2
     number of electrons       =       138.00
     number of Kohn-Sham states=           79
     kinetic-energy cutoff     =      36.7493  Ry
     charge density cutoff     =     367.4932  Ry
     convergence threshold     =      1.0E-05
     mixing beta               =       0.3000
     number of iterations used =           10  plain     mixing
     Exchange-correlation      = BEEF-VDW ( 1  4 27 13 2)
     nstep                     =           50

     celldm(1)=   1.889726  celldm(2)=   0.000000  celldm(3)=   0.000000
     celldm(4)=   0.000000  celldm(5)=   0.000000  celldm(6)=   0.000000

     crystal axes: (cart. coord. in units of alat)
               a(1) = (   6.437465   0.000000   0.000000 )
               a(2) = (   3.218732   5.575008   0.000000 )
               a(3) = (   0.000000   0.000000  25.256168 )

     reciprocal axes: (cart. coord. in units 2 pi/alat)
               b(1) = (  0.155341 -0.089686  0.000000 )
               b(2) = (  0.000000  0.179372  0.000000 )
               b(3) = (  0.000000  0.000000  0.039594 )

     PseudoPot. # 1 for Sc read from file:
     /u/if/mamunm/psp/gbrv1.5pbe/Sc.UPF
     MD5 check sum: db30a2753ba66ef00f23801d899b7e7f
     Pseudo is Ultrasoft + core correction, Zval = 11.0
     Generated by new atomic code, or converted to UPF format
     Using radial grid of  849 points,  6 beta functions with:
                l(1) =   0
                l(2) =   0
                l(3) =   1
                l(4) =   1
                l(5) =   2
                l(6) =   2
     Q(r) pseudized with  6 coefficients,  rinner =    1.200   1.200   1.200
                                                       1.200   1.200

     PseudoPot. # 2 for S  read from file:
     /u/if/mamunm/psp/gbrv1.5pbe/S.UPF
     MD5 check sum: 88d86576ff6df21479756cfb9bdac1df
     Pseudo is Ultrasoft + core correction, Zval =  6.0
     Generated by new atomic code, or converted to UPF format
     Using radial grid of  907 points,  6 beta functions with:
                l(1) =   0
                l(2) =   0
                l(3) =   1
                l(4) =   1
                l(5) =   2
                l(6) =   2
     Q(r) pseudized with  8 coefficients,  rinner =    1.300   1.300   1.300
                                                       1.300   1.300

     vdW kernel table read from file vdW_kernel_table
     MD5 check sum: 095c7af220d748ca6e76c0b4c6cfb241

     atomic species   valence    mass     pseudopotential
        Sc1           11.00    44.95591     Sc( 1.00)
        S1             6.00    32.06000     S ( 1.00)

     No symmetry found

   Cartesian axes

     site n.     atom                  positions (alat units)
         1           Sc1 tau(   1) = (   1.6093662   0.9291680  10.0000000  )
         2           Sc1 tau(   2) = (   4.8280986   0.9291680  10.0000000  )
         3           Sc1 tau(   3) = (   3.2187324   3.7166720  10.0000000  )
         4           Sc1 tau(   4) = (   6.4374648   3.7166720  10.0000000  )
         5           Sc1 tau(   5) = (   6.4374648   1.8583360  12.6280840  )
         6           Sc1 tau(   6) = (   3.2187324   1.8583360  12.6280840  )
         7           Sc1 tau(   7) = (   8.0468310   4.6458400  12.6280840  )
         8           Sc1 tau(   8) = (   4.8280986   4.6458400  12.6280840  )
         9           Sc1 tau(   9) = (   0.0000000   0.0000000  15.2561680  )
        10           Sc1 tau(  10) = (   3.2187324   0.0000000  15.2561680  )
        11           Sc1 tau(  11) = (   1.6093662   2.7875040  15.2561680  )
        12           Sc1 tau(  12) = (   4.8280986   2.7875040  15.2561680  )
        13           S1  tau(  13) = (   3.2187324   1.8583360  17.0436680  )

     number of k points=    20  Fermi-Dirac smearing, width (Ry)=  0.0110
                       cart. coord. in units 2pi/alat
        k(    1) = (   0.0000000   0.0000000   0.0000000), wk =   0.0555556
        k(    2) = (   0.0000000   0.0298953   0.0000000), wk =   0.1111111
        k(    3) = (   0.0000000   0.0597906   0.0000000), wk =   0.1111111
        k(    4) = (   0.0000000  -0.0896860   0.0000000), wk =   0.0555556
        k(    5) = (   0.0258901  -0.0149477   0.0000000), wk =   0.1111111
        k(    6) = (   0.0258901   0.0149477   0.0000000), wk =   0.1111111
        k(    7) = (   0.0258901   0.0448430   0.0000000), wk =   0.1111111
        k(    8) = (   0.0258901  -0.1046336   0.0000000), wk =   0.1111111
        k(    9) = (   0.0258901  -0.0747383   0.0000000), wk =   0.1111111
        k(   10) = (   0.0258901  -0.0448430   0.0000000), wk =   0.1111111
        k(   11) = (   0.0517802  -0.0298953   0.0000000), wk =   0.1111111
        k(   12) = (   0.0517802   0.0000000   0.0000000), wk =   0.1111111
        k(   13) = (   0.0517802   0.0298953   0.0000000), wk =   0.1111111
        k(   14) = (   0.0517802  -0.1195813   0.0000000), wk =   0.1111111
        k(   15) = (   0.0517802  -0.0896860   0.0000000), wk =   0.1111111
        k(   16) = (   0.0517802  -0.0597906   0.0000000), wk =   0.1111111
        k(   17) = (  -0.0776703   0.0448430   0.0000000), wk =   0.0555556
        k(   18) = (  -0.0776703   0.0747383   0.0000000), wk =   0.1111111
        k(   19) = (  -0.0776703   0.1046336   0.0000000), wk =   0.1111111
        k(   20) = (  -0.0776703  -0.0448430   0.0000000), wk =   0.0555556

     Largest allocated arrays     est. size (Mb)     dimensions
     Largest temporary arrays     est. size (Mb)     dimensions

     Initial potential from superposition of free atoms
     Check: negative starting charge=   -0.000263

     starting charge  137.97114, renormalised to  138.00000

     negative rho (up, down):  2.631E-04 0.000E+00

     *
     * You are using vdW-DF for exchange-correlation in this calculation.
     * Please cite the following three references that made this development
     * possible:
     *
     *   M. Dion, H. Rydberg, E. Schroder, D. C. Langreth, and
     *   B. I. Lundqvist, Phys. Rev. Lett. 92, 246401 (2004).
     *
     *   T. Thonhauser, V. R. Cooper, S. Li, A. Puzder, P. Hyldgaard, and
     *   D. C. Langreth, Phys. Rev. B 76, 125112 (2007).
     *
     *   G. Roman-Perez and J. M. Soler, Phys. Rev. Lett. 103, 096102 (2009).
     *
     *
     * If you are using vdW-DF2, please also cite:
     *
     *   K. Lee, E. D. Murray, L. Kong, B. I. Lundqvist, and
     *   D. C. Langreth, Phys. Rev. B 82, 081101(R) (2010).
     *
     *
     * If you are calculating the stress with vdW-DF, please also cite:
     *
     *   R. Sabatini, E. Kucukbenli, B. Kolb, T. Thonhauser, and
     *   S. de Gironcoli, J. Phys.: Condens. Matter 24, 424209 (2012).
     *

     Carrying out vdW-DF run using the following parameters:

     Nqs =      20    Nr_points =    1024   r_max =   100.000
     q_mesh =
               0.00001000     0.04494208     0.09755937     0.15916263
               0.23128650     0.31572767     0.41458969     0.53033537
               0.66584808     0.82450364     1.01025438     1.22772762
               1.48234092     1.78043706     2.12944203     2.53805004
               3.01644009     3.57652955     4.23227104     5.00000000

     Gradients computed in reciprocal space

     Adding external electric field

     Computed dipole along edir(3) :
        Dipole               -0.0102 Ry au,         -0.0258 Debye
        Dipole field         -0.0000 Ry au

        Potential amp.        0.0019 Ry
        Total length         46.5341 bohr

     Starting wfc are  160 randomized atomic wfcs

     Self-consistent Calculation

     iteration #  1     ecut=    36.75 Ry     beta=0.30
     Davidson diagonalization with overlap
     ethr =  1.00E-02,  avg # of iterations =  2.0

[...]

     total energy              =   -1159.89065788 Ry
     Harris-Foulkes estimate   =   -1162.73448464 Ry
     estimated scf accuracy    <       6.01499868 Ry

[...]

     End of self-consistent calculation

          k = 0.0000 0.0000 0.0000 ( 23031 PWs)   bands (ev):

   -49.6127 -49.5141 -49.4710 -49.4669 -49.4661 -49.4012 -49.3683 -49.3674
   -49.0673 -49.0263 -49.0257 -49.0117 -28.3541 -28.2456 -28.2453 -28.2255
   -28.2251 -28.2249 -28.1957 -28.1453 -28.1382 -28.1349 -28.1342 -28.0605
   -28.0315 -28.0307 -27.9674 -27.9671 -27.9666 -27.9471 -27.9468 -27.8939
   -27.8883 -27.8883 -27.8083 -27.8078 -27.7868 -27.7794 -27.7791 -27.6310
   -27.6122 -27.6116 -27.5929 -27.5551 -27.5439 -27.5436 -27.4712 -27.4712
   -11.9448  -4.3075  -3.3395  -2.7182  -2.7182  -2.5102  -1.7354  -1.0572
    -1.0183  -1.0182  -0.9043  -0.9042  -0.8592  -0.5444  -0.5444  -0.3309
    -0.1253  -0.1252  -0.1234   0.1886   0.2059   0.2060   0.5260   0.9070
     1.0461   1.0525   1.0526   1.1753   1.3660   1.3661   1.5668

[...]

          k =-0.0777 0.0448 0.0000 ( 23032 PWs)   bands (ev):

[...]

     the Fermi energy is     0.4352 ev

!    total energy              =   -1162.29091215 Ry
     Harris-Foulkes estimate   =   -1162.29093889 Ry
     estimated scf accuracy    <       0.00000530 Ry

     The total energy is the sum of the following terms:

     one-electron contribution =   -7370.42066371 Ry
     hartree contribution      =    3669.09328444 Ry
     xc contribution           =    -175.29100675 Ry
     ewald contribution        =    2714.45402046 Ry
     electric field correction =       0.00013466 Ry
     smearing contrib. (-TS)   =      -0.12668124 Ry

     convergence has been achieved in  19 iterations

 BEEF-vdW xc energy contributions
           1 :   -148.544937005483
           2 :    130.658829237275
           3 :   -102.700653628948
           4 :    75.3457233305262
           5 :   -56.1582034861592
           6 :    46.5907058278861
           7 :   -43.2067764064830
           8 :    41.3623450944233
           9 :   -38.3856285248801
          10 :    34.3831347378002
          11 :   -30.8849355738158
          12 :    28.9340821397817
          13 :   -28.1829083467019
          14 :    27.4321354018076
          15 :   -25.8439180854056
          16 :    23.6527238584809
          17 :   -21.8111858646997
          18 :    21.0176147914026
          19 :   -21.0721027089768
          20 :    21.1070550594146
          21 :   -20.3972764657231
          22 :    18.9700473808013
          23 :   -17.5009943479013
          24 :    16.6632393755468
          25 :   -16.5522767352492
          26 :    16.6717816555214
          27 :   -16.4287947318241
          28 :    15.6520758988044
          29 :   -14.6811915262961
          30 :    13.9972889387984
          31 :   -17.5552421893032
          32 :   -12.5520674032248

     Forces acting on atoms (Ry/au):

     negative rho (up, down):  1.159E-04 0.000E+00
     atom    1 type  1   force =     0.00009408    0.00003323    0.00199579
     atom    2 type  1   force =    -0.00009592   -0.00000579    0.00200306
     atom    3 type  1   force =    -0.00004181   -0.00006379    0.00205189
     atom    4 type  1   force =     0.00003516    0.00003861    0.00138928
     atom    5 type  1   force =    -0.00007515   -0.00330855    0.00399363
     atom    6 type  1   force =     0.00007431   -0.00012636   -0.01196011
     atom    7 type  1   force =     0.00274931    0.00176774    0.00405770
     atom    8 type  1   force =    -0.00275035    0.00167752    0.00411912
     atom    9 type  1   force =    -0.00003781   -0.00004247   -0.00791781
     atom   10 type  1   force =     0.00004226    0.01279380    0.00929719
     atom   11 type  1   force =     0.01112134   -0.00635565    0.00933229
     atom   12 type  1   force =    -0.01110970   -0.00639603    0.00935017
     atom   13 type  2   force =    -0.00000571   -0.00001228   -0.02771218

     Total force =     0.039796     Total SCF correction =     0.002203

     entering subroutine stress ...

     negative rho (up, down):  1.159E-04 0.000E+00
          total   stress  (Ry/bohr**3)                   (kbar)     P=    1.80
   0.00003198   0.00000001  -0.00000000          4.70      0.00     -0.00
   0.00000001   0.00003200   0.00000002          0.00      4.71      0.00
  -0.00000000   0.00000002  -0.00002732         -0.00      0.00     -4.02

     BFGS Geometry Optimization

     number of scf cycles    =   1
     number of bfgs steps    =   0

     energy   new            =   -1162.2909121456 Ry

     new trust radius        =       0.0277121843 bohr
     new conv_thr            =       0.0000099958 Ry

ATOMIC_POSITIONS (crystal)
Sc1      0.166666667   0.166666667   0.395942884    0   0   0
Sc1      0.666666667   0.166666667   0.395942884    0   0   0
Sc1      0.166666667   0.666666667   0.395942884    0   0   0
Sc1      0.666666667   0.666666667   0.395942884    0   0   0
Sc1      0.833333333   0.333333333   0.500000000    0   0   0
Sc1      0.333333333   0.333333333   0.500000000    0   0   0
Sc1      0.833333333   0.833333333   0.500000000    0   0   0
Sc1      0.333333333   0.833333333   0.500000000    0   0   0
Sc1     -0.000001093  -0.000004031   0.603891218
Sc1      0.499396283   0.001214382   0.604251914
Sc1      0.001215842   0.499396725   0.604252649
Sc1      0.499390306   0.499392892   0.604253024
S1       0.333333446   0.333332168   0.674251270

     Writing output data file calc.save
     Check: negative starting charge=   -0.000263
     NEW-OLD atomic charge density approx. for the potential
     Check: negative starting charge=   -0.000263

[...]

     Total force =     0.028522     Total SCF correction =     0.006276
     SCF correction compared to forces is large: reduce conv_thr to get better values

[...]

     energy   old            =   -1162.2909121456 Ry
     energy   new            =   -1162.2922790785 Ry

     CASE: energy  _new < energy  _old

[...]

     Threshold (ethr) on eigenvalues was too large:
     Diagonalizing with lowered threshold

     Davidson diagonalization with overlap
     ethr =  6.55E-09,  avg # of iterations =  9.3

[...]

     WARNING: bfgs curvature condition failed, Theta= 0.862
     new trust radius        =       0.0075459606 bohr
     new conv_thr            =       0.0000001000 Ry

[...]

     Threshold (ethr) on eigenvalues was too large:
     Diagonalizing with lowered threshold

     Davidson diagonalization with overlap
     ethr =  7.15E-08,  avg # of iterations =  6.4

[...]

     Total force =     0.005325     Total SCF correction =     0.000460

[...]

     number of scf cycles    =   9
     number of bfgs steps    =   8

     energy   old            =   -1162.2940548531 Ry
     energy   new            =   -1162.2941687430 Ry

     CASE: energy  _new < energy  _old

     new trust radius        =       0.0382014256 bohr
     new conv_thr            =       0.0000001000 Ry

ATOMIC_POSITIONS (crystal)
Sc1      0.166666667   0.166666667   0.395942884    0   0   0
Sc1      0.666666667   0.166666667   0.395942884    0   0   0
Sc1      0.166666667   0.666666667   0.395942884    0   0   0
Sc1      0.666666667   0.666666667   0.395942884    0   0   0
Sc1      0.833333333   0.333333333   0.500000000    0   0   0
Sc1      0.333333333   0.333333333   0.500000000    0   0   0
Sc1      0.833333333   0.833333333   0.500000000    0   0   0
Sc1      0.333333333   0.833333333   0.500000000    0   0   0
Sc1      0.000004379  -0.000000597   0.600890977
Sc1      0.498408355   0.003178408   0.604784203
Sc1      0.003178357   0.498410011   0.604784313
Sc1      0.498409733   0.498412969   0.604785484
S1       0.333333872   0.333328697   0.672679642

     Writing output data file calc.save
     Check: negative starting charge=   -0.000261
     NEW-OLD atomic charge density approx. for the potential
     Check: negative starting charge=   -0.000260

[...]

     Self-consistent Calculation

[...]

     total energy              =   -1162.29427598 Ry
     Harris-Foulkes estimate   =   -1162.29427599 Ry
     estimated scf accuracy    <       0.00000033 Ry

     iteration # 12     ecut=    36.75 Ry     beta=0.30
     Davidson diagonalization with overlap
     ethr =  2.36E-10,  avg # of iterations =  7.2

[...]

     negative rho (up, down):  1.207E-04 0.000E+00

     Adding external electric field

     Computed dipole along edir(3) :
        Dipole               -0.2405 Ry au,         -0.6114 Debye
        Dipole field         -0.0005 Ry au

        Potential amp.        0.0460 Ry
        Total length         46.5341 bohr

     End of self-consistent calculation

[...]

          k = 0.0518-0.0598 0.0000 ( 23012 PWs)   bands (ev):

[...]

          k =-0.0777-0.0448 0.0000 ( 23032 PWs)   bands (ev):

   -49.5099 -49.4624 -49.4565 -49.4374 -49.4335 -49.3492 -49.3356 -49.3248
   -49.0091 -49.0075 -48.9868 -48.9848 -28.2589 -28.1382 -28.1354 -28.1304
   -28.1274 -28.1193 -28.1037 -28.0982 -28.0591 -28.0493 -28.0308 -28.0266
   -28.0093 -28.0027 -28.0020 -27.9969 -27.9850 -27.9450 -27.9135 -27.8975
   -27.8935 -27.8934 -27.8582 -27.7855 -27.6941 -27.6885 -27.6005 -27.5969
   -27.5813 -27.5809 -27.5785 -27.5698 -27.5687 -27.5631 -27.4775 -27.4699
   -12.0871  -3.3323  -3.1583  -2.8658  -2.7189  -2.6762  -1.7711  -1.6251
    -1.0410  -1.0234  -0.6757  -0.5816  -0.4750  -0.4557   0.1955   0.2022
     0.2395   0.2662   0.2950   0.3655   0.5176   0.5555   0.5640   0.6275
     0.6461   0.7503   0.8736   0.9314   0.9416   1.0028   1.0285

     the Fermi energy is     0.4677 ev

!    total energy              =   -1162.29427597 Ry
     Harris-Foulkes estimate   =   -1162.29427545 Ry
     estimated scf accuracy    <       0.00000008 Ry

     The total energy is the sum of the following terms:

     one-electron contribution =   -7387.41375509 Ry
     hartree contribution      =    3677.75357917 Ry
     xc contribution           =    -175.34034210 Ry
     ewald contribution        =    2722.83326272 Ry
     electric field correction =       0.00011886 Ry
     smearing contrib. (-TS)   =      -0.12713952 Ry

     convergence has been achieved in  12 iterations

 BEEF-vdW xc energy contributions
           1 :   -148.595140493805
           2 :    130.725216421497
           3 :   -102.779974175596
           4 :    75.4185153430116
           5 :   -56.2075658235547
           6 :    46.6147763766533
           7 :   -43.2153719626245
           8 :    41.3660125825059
           9 :   -38.3885492377370
          10 :    34.3824004427172
          11 :   -30.8741536470750
          12 :    28.9099458973788
          13 :   -28.1507398591276
          14 :    27.4040685854780
          15 :   -25.8294600847977
          16 :    23.6509049902995
          17 :   -21.8123966363708
          18 :    21.0124780415678
          19 :   -21.0581275754929
          20 :    21.0882290534881
          21 :   -20.3797414238628
          22 :    18.9583492810406
          23 :   -17.4965168614537
          24 :    16.6651420669452
          25 :   -16.5601799875788
          26 :    16.6867436763973
          27 :   -16.4498325204446
          28 :    15.6712274241226
          29 :   -14.6834958305282
          30 :    13.9672867085798
          31 :   -17.5588629608373
          32 :   -12.5588238621643

     Forces acting on atoms (Ry/au):

     negative rho (up, down):  1.207E-04 0.000E+00
     atom    1 type  1   force =     0.00031768    0.00018436    0.00158768
     atom    2 type  1   force =    -0.00031696    0.00018113    0.00158989
     atom    3 type  1   force =    -0.00000244   -0.00036618    0.00158817
     atom    4 type  1   force =     0.00000204    0.00000061    0.00182309
     atom    5 type  1   force =    -0.00001036   -0.00254098    0.00205624
     atom    6 type  1   force =     0.00000990   -0.00000473   -0.01058109
     atom    7 type  1   force =     0.00219626    0.00127920    0.00205514
     atom    8 type  1   force =    -0.00219646    0.00126715    0.00206289
     atom    9 type  1   force =    -0.00001112    0.00000267   -0.00175917
     atom   10 type  1   force =     0.00001010   -0.00014271   -0.00028669
     atom   11 type  1   force =    -0.00012120    0.00007384   -0.00028794
     atom   12 type  1   force =     0.00012339    0.00006313   -0.00028760
     atom   13 type  2   force =    -0.00000083    0.00000252    0.00043939

     Total force =     0.001896     Total SCF correction =     0.000424
     SCF correction compared to forces is large: reduce conv_thr to get better values

     entering subroutine stress ...

     negative rho (up, down):  1.207E-04 0.000E+00
          total   stress  (Ry/bohr**3)                   (kbar)     P=    3.31
   0.00003942   0.00000000  -0.00000000          5.80      0.00     -0.00
   0.00000000   0.00003943   0.00000000          0.00      5.80      0.00
  -0.00000000   0.00000000  -0.00001142         -0.00      0.00     -1.68

     bfgs converged in  10 scf cycles and   9 bfgs steps
     (criteria: energy <  1.0E+00, force <  1.9E-03)

     End of BFGS Geometry Optimization

     Final energy   =   -1162.2942759688 Ry
Begin final coordinates

ATOMIC_POSITIONS (crystal)
Sc1      0.166666667   0.166666667   0.395942884    0   0   0
Sc1      0.666666667   0.166666667   0.395942884    0   0   0
Sc1      0.166666667   0.666666667   0.395942884    0   0   0
Sc1      0.666666667   0.666666667   0.395942884    0   0   0
Sc1      0.833333333   0.333333333   0.500000000    0   0   0
Sc1      0.333333333   0.333333333   0.500000000    0   0   0
Sc1      0.833333333   0.833333333   0.500000000    0   0   0
Sc1      0.333333333   0.833333333   0.500000000    0   0   0
Sc1      0.000004379  -0.000000597   0.600890977
Sc1      0.498408355   0.003178408   0.604784203
Sc1      0.003178357   0.498410011   0.604784313
Sc1      0.498409733   0.498412969   0.604785484
S1       0.333333872   0.333328697   0.672679642
End final coordinates

     Writing output data file calc.save

     General routines

     Parallel routines

   This run was terminated on:  17:21:36   2May2018

   JOB DONE.
Job  /afs/slac/g/suncat/bin/suncat-tsmpirun -x LD_LIBRARY_PATH -wdir /scratch/qe785993_jFg6p pw.x -npool 4 -in pw.inp

TID   HOST_NAME   COMMAND_LINE            STATUS            TERMINATION_TIME
00000 suncat0177 pw.x -npool 4 -i  Done                     05/02/2018 17:21:36
00001 suncat0177 pw.x -npool 4 -i  Done                     05/02/2018 17:21:36
00002 suncat0177 pw.x -npool 4 -i  Done                     05/02/2018 17:21:36
00003 suncat0177 pw.x -npool 4 -i  Done                     05/02/2018 17:21:36
00004 suncat0177 pw.x -npool 4 -i  Done                     05/02/2018 17:21:36
00005 suncat0177 pw.x -npool 4 -i  Done                     05/02/2018 17:21:36
00006 suncat0177 pw.x -npool 4 -i  Done                     05/02/2018 17:21:36
00007 suncat0177 pw.x -npool 4 -i  Done                     05/02/2018 17:21:36
00008 suncat0149 pw.x -npool 4 -i  Done                     05/02/2018 17:21:36
00009 suncat0149 pw.x -npool 4 -i  Done                     05/02/2018 17:21:36
00010 suncat0149 pw.x -npool 4 -i  Done                     05/02/2018 17:21:36
00011 suncat0149 pw.x -npool 4 -i  Done                     05/02/2018 17:21:36
00012 suncat0149 pw.x -npool 4 -i  Done                     05/02/2018 17:21:36
00013 suncat0149 pw.x -npool 4 -i  Done                     05/02/2018 17:21:36
00014 suncat0149 pw.x -npool 4 -i  Done                     05/02/2018 17:21:36
00015 suncat0149 pw.x -npool 4 -i  Done                     05/02/2018 17:21:36
00016 suncat0145 pw.x -npool 4 -i  Done                     05/02/2018 17:21:36
00017 suncat0145 pw.x -npool 4 -i  Done                     05/02/2018 17:21:36
00018 suncat0145 pw.x -npool 4 -i  Done                     05/02/2018 17:21:36
00019 suncat0145 pw.x -npool 4 -i  Done                     05/02/2018 17:21:36
00020 suncat0145 pw.x -npool 4 -i  Done                     05/02/2018 17:21:36
00021 suncat0145 pw.x -npool 4 -i  Done                     05/02/2018 17:21:36
00022 suncat0145 pw.x -npool 4 -i  Done                     05/02/2018 17:21:36
00023 suncat0145 pw.x -npool 4 -i  Done                     05/02/2018 17:21:36
00024 suncat0140 pw.x -npool 4 -i  Done                     05/02/2018 17:21:36
00025 suncat0140 pw.x -npool 4 -i  Done                     05/02/2018 17:21:36
00026 suncat0140 pw.x -npool 4 -i  Done                     05/02/2018 17:21:36
00027 suncat0140 pw.x -npool 4 -i  Done                     05/02/2018 17:21:36
00028 suncat0140 pw.x -npool 4 -i  Done                     05/02/2018 17:21:36
00029 suncat0140 pw.x -npool 4 -i  Done                     05/02/2018 17:21:36
00030 suncat0140 pw.x -npool 4 -i  Done                     05/02/2018 17:21:36
00031 suncat0140 pw.x -npool 4 -i  Done                     05/02/2018 17:21:36