     Program PWSCF v.5.1rc2 (svn rev. 11289) starts on  3May2018 at  7:13: 8

     Current dimensions of program PWSCF are:
     Max number of different atomic species (ntypx) = 10
     Max number of k-points (npk) =  40000
     Max angular momentum in pseudopotentials (lmaxx) =  3
     Presently stress not available with electric field

     IMPORTANT: XC functional enforced from input :
     Exchange-correlation      = BEEF-VDW ( 1  4 27 13 2)
     Any further DFT definition will be discarded
     Please, verify this is what you really want

     Subspace diagonalization in iterative solution of the eigenvalue problem:
     a serial algorithm will be used

     bravais-lattice index     =            0
     lattice parameter (alat)  =       1.8897  a.u.
     unit-cell volume          =    5185.0501 (a.u.)^3
     number of atoms/cell      =           13
     number of atomic types    =            2
     number of electrons       =       162.00
     number of Kohn-Sham states=           91
     kinetic-energy cutoff     =      36.7493  Ry
     charge density cutoff     =     367.4932  Ry
     convergence threshold     =      1.0E-05
     mixing beta               =       0.3000
     number of iterations used =           10  plain     mixing
     Exchange-correlation      = BEEF-VDW ( 1  4 27 13 2)
     nstep                     =           50

     celldm(1)=   1.889726  celldm(2)=   0.000000  celldm(3)=   0.000000
     celldm(4)=   0.000000  celldm(5)=   0.000000  celldm(6)=   0.000000

     crystal axes: (cart. coord. in units of alat)
               a(1) = (   5.972022   0.000000   0.000000 )
               a(2) = (   2.986011   5.171923   0.000000 )
               a(3) = (   0.000000   0.000000  24.876136 )

     reciprocal axes: (cart. coord. in units 2 pi/alat)
               b(1) = (  0.167447 -0.096676  0.000000 )
               b(2) = (  0.000000  0.193352  0.000000 )
               b(3) = (  0.000000  0.000000  0.040199 )

     PseudoPot. # 1 for Ta read from file:
     /u/if/mamunm/psp/gbrv1.5pbe/Ta.UPF
     MD5 check sum: f8bbe9446314a3b8ea5d9f3e3836c939
     Pseudo is Ultrasoft + core correction, Zval = 13.0
     Generated by new atomic code, or converted to UPF format
     Using radial grid of  921 points,  7 beta functions with:
                l(1) =   0
                l(2) =   0
                l(3) =   1
                l(4) =   1
                l(5) =   2
                l(6) =   2
                l(7) =   3
     Q(r) pseudized with  6 coefficients,  rinner =    1.300   1.300   1.300
                                                       1.300   1.300   1.300
                                                       1.300

     PseudoPot. # 2 for O  read from file:
     /u/if/mamunm/psp/gbrv1.5pbe/O.UPF
     MD5 check sum: 734c27235a0248c51dbae37a1fbe46ec
     Pseudo is Ultrasoft + core correction, Zval =  6.0
     Generated by new atomic code, or converted to UPF format
     Using radial grid of  737 points,  5 beta functions with:
                l(1) =   0
                l(2) =   0
                l(3) =   1
                l(4) =   1
                l(5) =   2
     Q(r) pseudized with  8 coefficients,  rinner =    0.900   0.900   0.900
                                                       0.900   0.900

     vdW kernel table read from file vdW_kernel_table
     MD5 check sum: 095c7af220d748ca6e76c0b4c6cfb241

     atomic species   valence    mass     pseudopotential
        Ta1           13.00   180.94788     Ta( 1.00)
        O1             6.00    15.99900     O ( 1.00)

     No symmetry found

   Cartesian axes

     site n.     atom                  positions (alat units)
         1           Ta1 tau(   1) = (   1.4930055   0.8619871  10.0000000  )
         2           Ta1 tau(   2) = (   4.4790165   0.8619871  10.0000000  )
         3           Ta1 tau(   3) = (   2.9860110   3.4479485  10.0000000  )
         4           Ta1 tau(   4) = (   5.9720221   3.4479485  10.0000000  )
         5           Ta1 tau(   5) = (   5.9720221   1.7239743  12.4380678  )
         6           Ta1 tau(   6) = (   2.9860110   1.7239743  12.4380678  )
         7           Ta1 tau(   7) = (   7.4650276   4.3099357  12.4380678  )
         8           Ta1 tau(   8) = (   4.4790165   4.3099357  12.4380678  )
         9           Ta1 tau(   9) = (   0.0000000   0.0000000  14.8761356  )
        10           Ta1 tau(  10) = (   2.9860110   0.0000000  14.8761356  )
        11           Ta1 tau(  11) = (   1.4930055   2.5859614  14.8761356  )
        12           Ta1 tau(  12) = (   4.4790165   2.5859614  14.8761356  )
        13           O1  tau(  13) = (   1.4930055   0.8619871  16.4101356  )

     number of k points=    20  Fermi-Dirac smearing, width (Ry)=  0.0110
                       cart. coord. in units 2pi/alat
        k(    1) = (   0.0000000   0.0000000   0.0000000), wk =   0.0555556
        k(    2) = (   0.0000000   0.0322253   0.0000000), wk =   0.1111111
        k(    3) = (   0.0000000   0.0644506   0.0000000), wk =   0.1111111
        k(    4) = (   0.0000000  -0.0966758   0.0000000), wk =   0.0555556
        k(    5) = (   0.0279079  -0.0161126   0.0000000), wk =   0.1111111
        k(    6) = (   0.0279079   0.0161126   0.0000000), wk =   0.1111111
        k(    7) = (   0.0279079   0.0483379   0.0000000), wk =   0.1111111
        k(    8) = (   0.0279079  -0.1127885   0.0000000), wk =   0.1111111
        k(    9) = (   0.0279079  -0.0805632   0.0000000), wk =   0.1111111
        k(   10) = (   0.0279079  -0.0483379   0.0000000), wk =   0.1111111
        k(   11) = (   0.0558158  -0.0322253   0.0000000), wk =   0.1111111
        k(   12) = (   0.0558158   0.0000000   0.0000000), wk =   0.1111111
        k(   13) = (   0.0558158   0.0322253   0.0000000), wk =   0.1111111
        k(   14) = (   0.0558158  -0.1289011   0.0000000), wk =   0.1111111
        k(   15) = (   0.0558158  -0.0966758   0.0000000), wk =   0.1111111
        k(   16) = (   0.0558158  -0.0644506   0.0000000), wk =   0.1111111
        k(   17) = (  -0.0837237   0.0483379   0.0000000), wk =   0.0555556
        k(   18) = (  -0.0837237   0.0805632   0.0000000), wk =   0.1111111
        k(   19) = (  -0.0837237   0.1127885   0.0000000), wk =   0.1111111
        k(   20) = (  -0.0837237  -0.0483379   0.0000000), wk =   0.0555556

     Largest allocated arrays     est. size (Mb)     dimensions
     Largest temporary arrays     est. size (Mb)     dimensions

     Initial potential from superposition of free atoms
     Check: negative starting charge=   -1.121797

     starting charge  161.98665, renormalised to  162.00000

     negative rho (up, down):  1.122E+00 0.000E+00

     *
     * You are using vdW-DF for exchange-correlation in this calculation.
     * Please cite the following three references that made this development
     * possible:
     *
     *   M. Dion, H. Rydberg, E. Schroder, D. C. Langreth, and
     *   B. I. Lundqvist, Phys. Rev. Lett. 92, 246401 (2004).
     *
     *   T. Thonhauser, V. R. Cooper, S. Li, A. Puzder, P. Hyldgaard, and
     *   D. C. Langreth, Phys. Rev. B 76, 125112 (2007).
     *
     *   G. Roman-Perez and J. M. Soler, Phys. Rev. Lett. 103, 096102 (2009).
     *
     *
     * If you are using vdW-DF2, please also cite:
     *
     *   K. Lee, E. D. Murray, L. Kong, B. I. Lundqvist, and
     *   D. C. Langreth, Phys. Rev. B 82, 081101(R) (2010).
     *
     *
     * If you are calculating the stress with vdW-DF, please also cite:
     *
     *   R. Sabatini, E. Kucukbenli, B. Kolb, T. Thonhauser, and
     *   S. de Gironcoli, J. Phys.: Condens. Matter 24, 424209 (2012).
     *

     Carrying out vdW-DF run using the following parameters:

     Nqs =      20    Nr_points =    1024   r_max =   100.000
     q_mesh =
               0.00001000     0.04494208     0.09755937     0.15916263
               0.23128650     0.31572767     0.41458969     0.53033537
               0.66584808     0.82450364     1.01025438     1.22772762
               1.48234092     1.78043706     2.12944203     2.53805004
               3.01644009     3.57652955     4.23227104     5.00000000

     Gradients computed in reciprocal space

     Adding external electric field

     Computed dipole along edir(3) :
        Dipole               -0.0037 Ry au,         -0.0094 Debye
        Dipole field         -0.0000 Ry au

        Potential amp.        0.0008 Ry
        Total length         45.8339 bohr

     Starting wfc are  160 randomized atomic wfcs

     Self-consistent Calculation

     iteration #  1     ecut=    36.75 Ry     beta=0.30
     Davidson diagonalization with overlap
     ethr =  1.00E-02,  avg # of iterations =  2.0

[...]

     total energy              =   -1749.19289761 Ry
     Harris-Foulkes estimate   =   -1751.45434571 Ry
     estimated scf accuracy    <       4.92770455 Ry

[...]

     iteration #  8     ecut=    36.75 Ry     beta=0.30
     Davidson diagonalization with overlap
     c_bands:  1 eigenvalues not converged
     ethr =  1.17E-05,  avg # of iterations =  5.0

[...]

     End of self-consistent calculation

          k = 0.0000 0.0000 0.0000 ( 19447 PWs)   bands (ev):

   -66.6384 -66.5907 -66.5903 -66.5243 -66.4651 -66.4072 -66.4059 -66.4056
   -66.3695 -66.3262 -66.3261 -66.2871 -33.3359 -33.2793 -33.2792 -33.2264
   -33.1934 -33.1779 -33.1778 -33.1164 -33.1163 -33.1141 -32.9682 -32.9016
   -32.9014 -32.8808 -32.7529 -32.7528 -32.7507 -32.7188 -32.7119 -32.7117
   -32.5677 -32.5676 -32.5670 -32.5417 -32.5416 -32.5246 -32.5246 -32.5191
   -32.4850 -32.4558 -32.4513 -32.4512 -32.3773 -32.3773 -32.3044 -32.3044
   -15.9482  -5.5876  -4.0234  -3.0342  -2.6052  -2.6052  -2.5088  -2.2301
    -2.2301  -2.1763  -1.7917  -1.7205  -1.7205  -1.2022  -1.1872  -1.1872
    -0.9068  -0.9067  -0.4760   0.2195   0.2196   0.7325   1.2268   1.4101
     1.4176   1.4177   1.7378   1.8331   1.8997   1.8997   1.9669   2.2045
     2.2045   2.4913   2.4913   2.5694   2.6050   2.6089   2.6089   2.6712
     2.6712   2.9404   2.9404

[...]

          k =-0.0837 0.0483 0.0000 ( 19532 PWs)   bands (ev):

[...]

     the Fermi energy is     1.8566 ev

!    total energy              =   -1750.99694312 Ry
     Harris-Foulkes estimate   =   -1750.99693876 Ry
     estimated scf accuracy    <       0.00000402 Ry

     The total energy is the sum of the following terms:

     one-electron contribution =  -11802.61109323 Ry
     hartree contribution      =    5885.60859821 Ry
     xc contribution           =    -530.21953315 Ry
     ewald contribution        =    4696.32416598 Ry
     electric field correction =       0.00007580 Ry
     smearing contrib. (-TS)   =      -0.09915674 Ry

     convergence has been achieved in  13 iterations

 BEEF-vdW xc energy contributions
           1 :   -466.657273712406
           2 :    430.494174328466
           3 :   -367.454054616808
           4 :    292.218724621443
           5 :   -219.426124573236
           6 :    159.177452526205
           7 :   -115.066595367496
           8 :    85.0545697102727
           9 :   -64.2446309256678
          10 :    47.9312130407308
          11 :   -33.5100509364447
          12 :    20.6897224089834
          13 :   -10.4178922810008
          14 :    3.48446103533797
          15 :   0.329279505972693
          16 :   -2.21682909640276
          17 :    3.64979948979760
          18 :   -5.56157543745184
          19 :    7.93008800642798
          20 :   -9.97518396865485
          21 :    10.7969464895995
          22 :   -10.0343545877644
          23 :    8.14186666451451
          24 :   -6.14168085420630
          25 :    5.03400246288481
          26 :   -5.23980304879694
          27 :    6.40867485880631
          28 :   -7.68529535921778
          29 :    8.24101869529369
          30 :   -7.73626705509537
          31 :   -41.7754151529163
          32 :   -30.9495219178209

     Forces acting on atoms (Ry/au):

     negative rho (up, down):  1.177E+00 0.000E+00
     atom    1 type  1   force =    -0.00000966   -0.00000946    0.00453603
     atom    2 type  1   force =     0.00000781    0.00178933    0.00463521
     atom    3 type  1   force =     0.00155412   -0.00088790    0.00464047
     atom    4 type  1   force =    -0.00155731   -0.00089688    0.00465072
     atom    5 type  1   force =     0.00247648   -0.00147917    0.00358246
     atom    6 type  1   force =    -0.00247080   -0.00144963    0.00354357
     atom    7 type  1   force =     0.00001825    0.00003042    0.00399650
     atom    8 type  1   force =    -0.00002253    0.00289789    0.00359910
     atom    9 type  1   force =     0.00459584    0.00265277    0.06057933
     atom   10 type  1   force =    -0.00458805    0.00263977    0.06058526
     atom   11 type  1   force =    -0.00000940   -0.00529082    0.06058194
     atom   12 type  1   force =     0.00000488    0.00000183   -0.04276343
     atom   13 type  2   force =     0.00000037    0.00000184   -0.17216717

     Total force =     0.206313     Total SCF correction =     0.002917

     entering subroutine stress ...

     negative rho (up, down):  1.177E+00 0.000E+00
          total   stress  (Ry/bohr**3)                   (kbar)     P=  -36.82
  -0.00028123   0.00000000  -0.00000000        -41.37      0.00     -0.00
   0.00000000  -0.00028123  -0.00000000          0.00    -41.37     -0.00
  -0.00000000  -0.00000000  -0.00018846         -0.00     -0.00    -27.72

     BFGS Geometry Optimization

     number of scf cycles    =   1
     number of bfgs steps    =   0

     energy   new            =   -1750.9969431204 Ry

     new trust radius        =       0.1721671657 bohr
     new conv_thr            =       0.0000099958 Ry

ATOMIC_POSITIONS (crystal)
Ta1      0.166666667   0.166666667   0.401991699    0   0   0
Ta1      0.666666667   0.166666667   0.401991699    0   0   0
Ta1      0.166666667   0.666666667   0.401991699    0   0   0
Ta1      0.666666667   0.666666667   0.401991699    0   0   0
Ta1      0.833333333   0.333333333   0.500000000    0   0   0
Ta1      0.333333333   0.333333333   0.500000000    0   0   0
Ta1      0.833333333   0.833333333   0.500000000    0   0   0
Ta1      0.333333333   0.833333333   0.500000000    0   0   0
Ta1      0.000271522   0.000271425   0.599296974
Ta1      0.499458409   0.000270094   0.599297100
Ta1      0.000269838   0.499458658   0.599297030
Ta1      0.500000339   0.500000187   0.597098617
O1       0.166666605   0.166666855   0.656011405

     Writing output data file calc.save
     Check: negative starting charge=   -1.121797
     NEW-OLD atomic charge density approx. for the potential
     Check: negative starting charge=   -1.119564

[...]

     energy   old            =   -1750.9969431204 Ry
     energy   new            =   -1751.0356292180 Ry

     CASE: energy  _new < energy  _old

     WARNING: bfgs curvature condition failed, Theta= 0.997
     new trust radius        =       0.1893838823 bohr
     new conv_thr            =       0.0000001000 Ry

[...]

     Threshold (ethr) on eigenvalues was too large:
     Diagonalizing with lowered threshold

     Davidson diagonalization with overlap
     ethr =  3.48E-08,  avg # of iterations =  3.5

[...]

     Total force =     0.004237     Total SCF correction =     0.000116

[...]

     number of scf cycles    =  11
     number of bfgs steps    =  10

     energy   old            =   -1751.0958290697 Ry
     energy   new            =   -1751.0958657052 Ry

     CASE: energy  _new < energy  _old

     new trust radius        =       0.0096312103 bohr
     new conv_thr            =       0.0000001000 Ry

ATOMIC_POSITIONS (crystal)
Ta1      0.166666667   0.166666667   0.401991699    0   0   0
Ta1      0.666666667   0.166666667   0.401991699    0   0   0
Ta1      0.166666667   0.666666667   0.401991699    0   0   0
Ta1      0.666666667   0.666666667   0.401991699    0   0   0
Ta1      0.833333333   0.333333333   0.500000000    0   0   0
Ta1      0.333333333   0.333333333   0.500000000    0   0   0
Ta1      0.833333333   0.833333333   0.500000000    0   0   0
Ta1      0.333333333   0.833333333   0.500000000    0   0   0
Ta1     -0.003169199  -0.003168414   0.599512526
Ta1      0.506340492  -0.003168396   0.599512480
Ta1     -0.003169162   0.506341222   0.599512449
Ta1      0.500000642   0.500001251   0.588234978
O1       0.166667312   0.166668090   0.642218839

     Writing output data file calc.save
     Check: negative starting charge=   -1.122962
     NEW-OLD atomic charge density approx. for the potential
     Check: negative starting charge=   -1.122738

[...]

     Self-consistent Calculation

[...]

     Threshold (ethr) on eigenvalues was too large:
     Diagonalizing with lowered threshold

     Davidson diagonalization with overlap
     ethr =  1.83E-08,  avg # of iterations =  4.0

[...]

     total energy              =   -1751.09589722 Ry
     Harris-Foulkes estimate   =   -1751.09589727 Ry
     estimated scf accuracy    <       0.00000018 Ry

     iteration #  9     ecut=    36.75 Ry     beta=0.30
     Davidson diagonalization with overlap
     ethr =  1.12E-10,  avg # of iterations =  1.6

[...]

     negative rho (up, down):  1.179E+00 0.000E+00

     Adding external electric field

     Computed dipole along edir(3) :
        Dipole                0.0713 Ry au,          0.1813 Debye
        Dipole field          0.0002 Ry au

        Potential amp.       -0.0158 Ry
        Total length         45.8339 bohr

     End of self-consistent calculation

[...]

          k = 0.0558-0.0645 0.0000 ( 19521 PWs)   bands (ev):

[...]

          k =-0.0837-0.0483 0.0000 ( 19532 PWs)   bands (ev):

   -66.3816 -66.3654 -66.3510 -66.1398 -66.1309 -66.1073 -66.1016 -66.0329
   -66.0219 -65.9989 -65.9958 -65.9407 -33.0651 -32.8974 -32.8707 -32.8546
   -32.8089 -32.7987 -32.7584 -32.7129 -32.7008 -32.6914 -32.6630 -32.6466
   -32.6338 -32.6213 -32.6090 -32.4714 -32.4639 -32.4639 -32.4148 -32.4144
   -32.4059 -32.3637 -32.3428 -32.3318 -32.3137 -32.2968 -32.2687 -32.2394
   -32.1807 -32.1793 -32.1686 -32.1189 -32.1099 -32.0654 -32.0344 -32.0330
   -17.5710  -4.4274  -3.9219  -3.6780  -3.3309  -3.2020  -1.9961  -1.7028
    -1.1954  -1.1756  -0.9585  -0.8545  -0.8270  -0.6432  -0.0889   0.0658
     0.2173   0.2273   0.3368   0.4345   0.6730   0.7191   0.8369   0.8724
     1.0034   1.0142   1.2040   1.3163   1.4912   1.5520   1.5653   1.6558
     1.7664   1.8444   1.9469   2.3653   2.4210   2.4355   2.7170   2.8539
     2.9421   3.1705   3.5413

     the Fermi energy is     2.1523 ev

!    total energy              =   -1751.09589721 Ry
     Harris-Foulkes estimate   =   -1751.09589729 Ry
     estimated scf accuracy    <       0.00000003 Ry

     The total energy is the sum of the following terms:

     one-electron contribution =  -11967.59602054 Ry
     hartree contribution      =    5969.30304889 Ry
     xc contribution           =    -530.57576730 Ry
     ewald contribution        =    4777.86687013 Ry
     electric field correction =       0.00001233 Ry
     smearing contrib. (-TS)   =      -0.09404072 Ry

     convergence has been achieved in   9 iterations

 BEEF-vdW xc energy contributions
           1 :   -467.021130591163
           2 :    430.962104071767
           3 :   -368.020761472301
           4 :    292.767646697032
           5 :   -219.806922460080
           6 :    159.292604677271
           7 :   -114.924030913030
           8 :    84.7631707700219
           9 :   -63.9575508586253
          10 :    47.7690443133568
          11 :   -33.5058870739825
          12 :    20.7873100378326
          13 :   -10.5205516207095
          14 :    3.51765699420179
          15 :   0.381211014976543
          16 :   -2.31484508850940
          17 :    3.73568463483832
          18 :   -5.59972417998438
          19 :    7.92908726237863
          20 :   -9.97792214851597
          21 :    10.8489233063509
          22 :   -10.1522804400487
          23 :    8.30192534224381
          24 :   -6.29209608522342
          25 :    5.12283077837208
          26 :   -5.24368159643114
          27 :    6.34696844046545
          28 :   -7.61063479821803
          29 :    8.21228037660899
          30 :   -7.78913041018677
          31 :   -41.7970467521994
          32 :   -30.9900340140679

     Forces acting on atoms (Ry/au):

     negative rho (up, down):  1.179E+00 0.000E+00
     atom    1 type  1   force =    -0.00000014   -0.00000013    0.00732147
     atom    2 type  1   force =     0.00000002    0.00054926    0.00305039
     atom    3 type  1   force =     0.00047570   -0.00027463    0.00305036
     atom    4 type  1   force =    -0.00047575   -0.00027468    0.00305027
     atom    5 type  1   force =     0.02640787   -0.01524693   -0.01092132
     atom    6 type  1   force =    -0.02640801   -0.01524675   -0.01092110
     atom    7 type  1   force =    -0.00000004   -0.00000001    0.01783341
     atom    8 type  1   force =    -0.00000020    0.03049335   -0.01092130
     atom    9 type  1   force =    -0.00148113   -0.00085520   -0.00073238
     atom   10 type  1   force =     0.00148115   -0.00085529   -0.00073195
     atom   11 type  1   force =    -0.00000003    0.00171050   -0.00073179
     atom   12 type  1   force =     0.00000041    0.00000043    0.00176790
     atom   13 type  2   force =     0.00000018    0.00000009   -0.00111395

     Total force =     0.003841     Total SCF correction =     0.000573
     SCF correction compared to forces is large: reduce conv_thr to get better values

     entering subroutine stress ...

     negative rho (up, down):  1.179E+00 0.000E+00
          total   stress  (Ry/bohr**3)                   (kbar)     P=  -23.34
  -0.00020514  -0.00000000   0.00000000        -30.18     -0.00      0.00
  -0.00000000  -0.00020514   0.00000000         -0.00    -30.18      0.00
   0.00000000   0.00000000  -0.00006572          0.00      0.00     -9.67

     bfgs converged in  12 scf cycles and  11 bfgs steps
     (criteria: energy <  1.0E+00, force <  1.9E-03)

     End of BFGS Geometry Optimization

     Final energy   =   -1751.0958972144 Ry
Begin final coordinates

ATOMIC_POSITIONS (crystal)
Ta1      0.166666667   0.166666667   0.401991699    0   0   0
Ta1      0.666666667   0.166666667   0.401991699    0   0   0
Ta1      0.166666667   0.666666667   0.401991699    0   0   0
Ta1      0.666666667   0.666666667   0.401991699    0   0   0
Ta1      0.833333333   0.333333333   0.500000000    0   0   0
Ta1      0.333333333   0.333333333   0.500000000    0   0   0
Ta1      0.833333333   0.833333333   0.500000000    0   0   0
Ta1      0.333333333   0.833333333   0.500000000    0   0   0
Ta1     -0.003169199  -0.003168414   0.599512526
Ta1      0.506340492  -0.003168396   0.599512480
Ta1     -0.003169162   0.506341222   0.599512449
Ta1      0.500000642   0.500001251   0.588234978
O1       0.166667312   0.166668090   0.642218839
End final coordinates

     Writing output data file calc.save

     General routines

     Parallel routines

   This run was terminated on:   9: 2: 5   3May2018

   JOB DONE.
Job  /afs/slac/g/suncat/bin/suncat-tsmpirun -x LD_LIBRARY_PATH -wdir /scratch/qe659548_FKN0W pw.x -npool 4 -in pw.inp

TID   HOST_NAME   COMMAND_LINE            STATUS            TERMINATION_TIME
00000 suncat0028 pw.x -npool 4 -i  Done                     05/03/2018 09:02:05
00001 suncat0028 pw.x -npool 4 -i  Done                     05/03/2018 09:02:05
00002 suncat0028 pw.x -npool 4 -i  Done                     05/03/2018 09:02:05
00003 suncat0028 pw.x -npool 4 -i  Done                     05/03/2018 09:02:05
00004 suncat0028 pw.x -npool 4 -i  Done                     05/03/2018 09:02:05
00005 suncat0028 pw.x -npool 4 -i  Done                     05/03/2018 09:02:05
00006 suncat0028 pw.x -npool 4 -i  Done                     05/03/2018 09:02:05
00007 suncat0028 pw.x -npool 4 -i  Done                     05/03/2018 09:02:05
00008 suncat0016 pw.x -npool 4 -i  Done                     05/03/2018 09:02:05
00009 suncat0016 pw.x -npool 4 -i  Done                     05/03/2018 09:02:05
00010 suncat0016 pw.x -npool 4 -i  Done                     05/03/2018 09:02:05
00011 suncat0016 pw.x -npool 4 -i  Done                     05/03/2018 09:02:05
00012 suncat0016 pw.x -npool 4 -i  Done                     05/03/2018 09:02:05
00013 suncat0016 pw.x -npool 4 -i  Done                     05/03/2018 09:02:05
00014 suncat0016 pw.x -npool 4 -i  Done                     05/03/2018 09:02:05
00015 suncat0016 pw.x -npool 4 -i  Done                     05/03/2018 09:02:05
00016 suncat0188 pw.x -npool 4 -i  Done                     05/03/2018 09:02:05
00017 suncat0188 pw.x -npool 4 -i  Done                     05/03/2018 09:02:05
00018 suncat0188 pw.x -npool 4 -i  Done                     05/03/2018 09:02:05
00019 suncat0188 pw.x -npool 4 -i  Done                     05/03/2018 09:02:05
00020 suncat0188 pw.x -npool 4 -i  Done                     05/03/2018 09:02:05
00021 suncat0188 pw.x -npool 4 -i  Done                     05/03/2018 09:02:05
00022 suncat0188 pw.x -npool 4 -i  Done                     05/03/2018 09:02:05
00023 suncat0188 pw.x -npool 4 -i  Done                     05/03/2018 09:02:05
00024 suncat0147 pw.x -npool 4 -i  Done                     05/03/2018 09:02:05
00025 suncat0147 pw.x -npool 4 -i  Done                     05/03/2018 09:02:05
00026 suncat0147 pw.x -npool 4 -i  Done                     05/03/2018 09:02:05
00027 suncat0147 pw.x -npool 4 -i  Done                     05/03/2018 09:02:05
00028 suncat0147 pw.x -npool 4 -i  Done                     05/03/2018 09:02:05
00029 suncat0147 pw.x -npool 4 -i  Done                     05/03/2018 09:02:05
00030 suncat0147 pw.x -npool 4 -i  Done                     05/03/2018 09:02:05
00031 suncat0147 pw.x -npool 4 -i  Done                     05/03/2018 09:02:05