     Program PWSCF v.5.1rc2 (svn rev. 11289) starts on 17Jan2019 at  1:34: 8

     Current dimensions of program PWSCF are:
     Max number of different atomic species (ntypx) = 10
     Max number of k-points (npk) =  40000
     Max angular momentum in pseudopotentials (lmaxx) =  3

     IMPORTANT: XC functional enforced from input :
     Exchange-correlation      = BEEF-VDW ( 1  4 27 13 2)
     Any further DFT definition will be discarded
     Please, verify this is what you really want

     Subspace diagonalization in iterative solution of the eigenvalue problem:
     a serial algorithm will be used

     bravais-lattice index     =            0
     lattice parameter (alat)  =      12.7122  a.u.
     unit-cell volume          =    6741.9071 (a.u.)^3
     number of atoms/cell      =           13
     number of atomic types    =            2
     number of electrons       =       174.00
     number of Kohn-Sham states=           97
     kinetic-energy cutoff     =      36.7493  Ry
     charge density cutoff     =     367.4933  Ry
     convergence threshold     =      1.0E-04
     mixing beta               =       0.2000
     number of iterations used =            8  plain     mixing
     Exchange-correlation      = BEEF-VDW ( 1  4 27 13 2)
     nstep                     =           50

     celldm(1)=  12.712175  celldm(2)=   0.000000  celldm(3)=   0.000000
     celldm(4)=   0.000000  celldm(5)=   0.000000  celldm(6)=   0.000000

     crystal axes: (cart. coord. in units of alat)
               a(1) = (   1.000000   0.000000   0.000000 )
               a(2) = (   0.500000   0.866025   0.000000 )
               a(3) = (   0.000000   0.000000   3.789593 )

     reciprocal axes: (cart. coord. in units 2 pi/alat)
               b(1) = (  1.000000 -0.577350  0.000000 )
               b(2) = (  0.000000  1.154701  0.000000 )
               b(3) = (  0.000000  0.000000  0.263881 )

     PseudoPot. # 1 for Sn read from file:
     /nfs/slac/g/suncatfs/mamunm/src/decaf-espresso/gbrv15pbe/Sn.UPF
     MD5 check sum: 469debedee59599fedebd795477fea03
     Pseudo is Ultrasoft + core correction, Zval = 14.0
     Generated by new atomic code, or converted to UPF format
     Using radial grid of  891 points,  6 beta functions with:
                l(1) =   0
                l(2) =   0
                l(3) =   1
                l(4) =   1
                l(5) =   2
                l(6) =   2
     Q(r) pseudized with  8 coefficients,  rinner =    1.350   1.350   1.350
                                                       1.350   1.350

     PseudoPot. # 2 for S  read from file:
     /nfs/slac/g/suncatfs/mamunm/src/decaf-espresso/gbrv15pbe/S.UPF
     MD5 check sum: 88d86576ff6df21479756cfb9bdac1df
     Pseudo is Ultrasoft + core correction, Zval =  6.0
     Generated by new atomic code, or converted to UPF format
     Using radial grid of  907 points,  6 beta functions with:
                l(1) =   0
                l(2) =   0
                l(3) =   1
                l(4) =   1
                l(5) =   2
                l(6) =   2
     Q(r) pseudized with  8 coefficients,  rinner =    1.300   1.300   1.300
                                                       1.300   1.300

     vdW kernel table read from file vdW_kernel_table
     MD5 check sum: 095c7af220d748ca6e76c0b4c6cfb241

     atomic species   valence    mass     pseudopotential
        Sn            14.00   118.71000     Sn( 1.00)
        S              6.00    32.06000     S ( 1.00)

     No symmetry found

   Cartesian axes

     site n.     atom                  positions (alat units)
         1           Sn  tau(   1) = (   0.2500000   0.1443376   1.4865483  )
         2           Sn  tau(   2) = (   0.7500000   0.1443376   1.4865483  )
         3           Sn  tau(   3) = (   0.5000000   0.5773503   1.4865483  )
         4           Sn  tau(   4) = (   1.0000000   0.5773503   1.4865483  )
         5           Sn  tau(   5) = (   1.0000000   0.2886751   1.8947966  )
         6           Sn  tau(   6) = (   0.5000000   0.2886751   1.8947966  )
         7           Sn  tau(   7) = (   1.2500000   0.7216878   1.8947966  )
         8           Sn  tau(   8) = (   0.7500000   0.7216878   1.8947966  )
         9           Sn  tau(   9) = (  -0.0000015   0.0000047   2.2920368  )
        10           Sn  tau(  10) = (   0.4999990   0.0112011   2.3720846  )
        11           Sn  tau(  11) = (   0.2596994   0.4274166   2.3720812  )
        12           Sn  tau(  12) = (   0.7403036   0.4274187   2.3720856  )
        13           S   tau(  13) = (   0.4999996   0.2886790   2.6543883  )

     number of k points=    20  Fermi-Dirac smearing, width (Ry)=  0.0110
                       cart. coord. in units 2pi/alat
        k(    1) = (   0.0000000   0.0000000   0.0000000), wk =   0.0555556
        k(    2) = (   0.0000000   0.1924501   0.0000000), wk =   0.1111111
        k(    3) = (   0.0000000   0.3849002   0.0000000), wk =   0.1111111
        k(    4) = (   0.0000000  -0.5773503   0.0000000), wk =   0.0555556
        k(    5) = (   0.1666667  -0.0962250   0.0000000), wk =   0.1111111
        k(    6) = (   0.1666667   0.0962250   0.0000000), wk =   0.1111111
        k(    7) = (   0.1666667   0.2886751   0.0000000), wk =   0.1111111
        k(    8) = (   0.1666667  -0.6735753   0.0000000), wk =   0.1111111
        k(    9) = (   0.1666667  -0.4811252   0.0000000), wk =   0.1111111
        k(   10) = (   0.1666667  -0.2886751   0.0000000), wk =   0.1111111
        k(   11) = (   0.3333333  -0.1924501   0.0000000), wk =   0.1111111
        k(   12) = (   0.3333333   0.0000000   0.0000000), wk =   0.1111111
        k(   13) = (   0.3333333   0.1924501   0.0000000), wk =   0.1111111
        k(   14) = (   0.3333333  -0.7698004   0.0000000), wk =   0.1111111
        k(   15) = (   0.3333333  -0.5773503   0.0000000), wk =   0.1111111
        k(   16) = (   0.3333333  -0.3849002   0.0000000), wk =   0.1111111
        k(   17) = (  -0.5000000   0.2886751   0.0000000), wk =   0.0555556
        k(   18) = (  -0.5000000   0.4811252   0.0000000), wk =   0.1111111
        k(   19) = (  -0.5000000   0.6735753   0.0000000), wk =   0.1111111
        k(   20) = (  -0.5000000  -0.2886751   0.0000000), wk =   0.0555556

     Largest allocated arrays     est. size (Mb)     dimensions
     Largest temporary arrays     est. size (Mb)     dimensions

     Initial potential from superposition of free atoms
     Check: negative starting charge=   -0.001313

     starting charge  161.99942, renormalised to  174.00000

     negative rho (up, down):  1.411E-03 0.000E+00

     *
     * You are using vdW-DF for exchange-correlation in this calculation.
     * Please cite the following three references that made this development
     * possible:
     *
     *   M. Dion, H. Rydberg, E. Schroder, D. C. Langreth, and
     *   B. I. Lundqvist, Phys. Rev. Lett. 92, 246401 (2004).
     *
     *   T. Thonhauser, V. R. Cooper, S. Li, A. Puzder, P. Hyldgaard, and
     *   D. C. Langreth, Phys. Rev. B 76, 125112 (2007).
     *
     *   G. Roman-Perez and J. M. Soler, Phys. Rev. Lett. 103, 096102 (2009).
     *
     *
     * If you are using vdW-DF2, please also cite:
     *
     *   K. Lee, E. D. Murray, L. Kong, B. I. Lundqvist, and
     *   D. C. Langreth, Phys. Rev. B 82, 081101(R) (2010).
     *
     *
     * If you are calculating the stress with vdW-DF, please also cite:
     *
     *   R. Sabatini, E. Kucukbenli, B. Kolb, T. Thonhauser, and
     *   S. de Gironcoli, J. Phys.: Condens. Matter 24, 424209 (2012).
     *

     Carrying out vdW-DF run using the following parameters:

     Nqs =      20    Nr_points =    1024   r_max =   100.000
     q_mesh =
               0.00001000     0.04494208     0.09755937     0.15916263
               0.23128650     0.31572767     0.41458969     0.53033537
               0.66584808     0.82450364     1.01025438     1.22772762
               1.48234092     1.78043706     2.12944203     2.53805004
               3.01644009     3.57652955     4.23227104     5.00000000

     Gradients computed in reciprocal space

     Adding external electric field

     Computed dipole along edir(3) :
        Dipole               -4.1991 Ry au,        -10.6730 Debye
        Dipole field         -0.0078 Ry au

        Potential amp.        0.6787 Ry
        Total length         43.3566 bohr

     Starting wfc are  112 randomized atomic wfcs

     Self-consistent Calculation

     iteration #  1     ecut=    36.75 Ry     beta=0.20
     Davidson diagonalization with overlap
     ethr =  1.00E-02,  avg # of iterations =  7.3

[...]

     total energy              =   -1903.20864861 Ry
     Harris-Foulkes estimate   =   -1958.82704560 Ry
     estimated scf accuracy    <     163.39759995 Ry

[...]

     End of self-consistent calculation

          k = 0.0000 0.0000 0.0000 ( 25377 PWs)   bands (ev):

   -21.4820 -21.4606 -21.4606 -21.4591 -21.4522 -21.4522 -21.4348 -21.4229
   -21.4126 -21.4125 -21.4125 -21.4048 -21.4041 -21.4010 -21.4010 -21.3901
   -21.3901 -21.3896 -21.3896 -21.3849 -21.3849 -21.3798 -21.3798 -21.3785
   -21.3723 -21.3723 -21.3723 -21.3659 -21.3554 -21.3554 -21.3491 -21.3457
   -21.3457 -21.3290 -21.3290 -21.3182 -21.3181 -21.2956 -21.2956 -21.2847
   -21.2847 -21.2831 -21.2804 -21.2765 -21.2674 -21.2674 -21.2635 -21.2635
   -21.2620 -21.2606 -21.2541 -21.2541 -21.2445 -21.2430 -21.2430 -21.2408
   -21.2408 -21.2344 -21.2247 -21.2247 -12.2376  -9.9093  -8.5265  -7.2517
    -5.9635  -5.9302  -5.9302  -5.5845  -5.5844  -5.5514  -4.9608  -4.9608
    -4.6374  -3.4475  -3.1741  -3.1741  -2.7085  -2.5596  -2.5444  -2.5444
    -2.0761  -1.9962  -1.9961  -1.1622  -1.1622  -0.6072   0.6163   1.4028
     1.4028   1.5869   2.2552   2.2552   2.4163   2.8050   3.3515   3.3515
     3.4090

[...]

          k =-0.5000 0.2887 0.0000 ( 25386 PWs)   bands (ev):

[...]

     the Fermi energy is     0.6307 ev

!    total energy              =   -1952.77152155 Ry
     Harris-Foulkes estimate   =   -1952.77150098 Ry
     estimated scf accuracy    <       0.00001162 Ry

     The total energy is the sum of the following terms:

     one-electron contribution =  -10058.64100814 Ry
     hartree contribution      =    5093.93336651 Ry
     xc contribution           =    -542.49518744 Ry
     ewald contribution        =    3554.47207921 Ry
     electric field correction =       0.00027405 Ry
     smearing contrib. (-TS)   =      -0.04104575 Ry

     convergence has been achieved in  14 iterations

     Forces acting on atoms (Ry/au):

     negative rho (up, down):  3.878E-04 0.000E+00
     atom    1 type  1   force =    -0.00000199   -0.00000756    0.00102983
     atom    2 type  1   force =    -0.00002734   -0.00005124    0.00104458
     atom    3 type  1   force =    -0.00003797    0.00004137    0.00104779
     atom    4 type  1   force =     0.00004389    0.00002290    0.00088082
     atom    5 type  1   force =    -0.00002633    0.00801254   -0.00602114
     atom    6 type  1   force =     0.00002608   -0.00000804    0.00527624
     atom    7 type  1   force =    -0.00693322   -0.00397982   -0.00601196
     atom    8 type  1   force =     0.00691505   -0.00400237   -0.00601920
     atom    9 type  1   force =    -0.00000226    0.00000913    0.00353629
     atom   10 type  1   force =     0.00002526    0.00034218    0.00105034
     atom   11 type  1   force =     0.00028144   -0.00019601    0.00104612
     atom   12 type  1   force =    -0.00027189   -0.00017434    0.00105577
     atom   13 type  2   force =     0.00000929   -0.00000875    0.00208451

     Total force =     0.004528     Total SCF correction =     0.003473
     SCF correction compared to forces is large: reduce conv_thr to get better values

     BFGS Geometry Optimization

     number of scf cycles    =   1
     number of bfgs steps    =   0

     energy   new            =   -1952.7715215538 Ry

     new trust radius        =       0.0035363031 bohr
     new conv_thr            =       0.0001000000 Ry

ATOMIC_POSITIONS (angstrom)
Sn       1.681748263   0.970957812  10.000000000    0   0   0
Sn       5.045244789   0.970957812  10.000000000    0   0   0
Sn       3.363496526   3.883831250  10.000000000    0   0   0
Sn       6.726993052   3.883831250  10.000000000    0   0   0
Sn       6.726993052   1.941915625  12.746283414    0   0   0
Sn       3.363496526   1.941915625  12.746283414    0   0   0
Sn       8.408741315   4.854789062  12.746283414    0   0   0
Sn       5.045244789   4.854789062  12.746283414    0   0   0
Sn      -0.000011058   0.000036278  15.420386849
Sn       3.363503094   0.075531045  15.957552438
Sn       1.747144782   2.875124913  15.957527619
Sn       4.979873253   2.875150595  15.957561991
S        3.363498995   1.941937270  17.857154872

     Writing output data file calc.save
     Check: negative starting charge=   -0.001313
     NEW-OLD atomic charge density approx. for the potential
     Check: negative starting charge=   -0.001314

[...]

     Self-consistent Calculation

[...]

     total energy              =   -1952.77149492 Ry
     Harris-Foulkes estimate   =   -1952.77160215 Ry
     estimated scf accuracy    <       0.00127741 Ry

     iteration #  4     ecut=    36.75 Ry     beta=0.20
     Davidson diagonalization with overlap
     ethr =  2.89E-07,  avg # of iterations =  2.9

     negative rho (up, down):  3.886E-04 0.000E+00

     Adding external electric field

     Computed dipole along edir(3) :
        Dipole               -0.3662 Ry au,         -0.9308 Debye
        Dipole field         -0.0007 Ry au

        Potential amp.        0.0592 Ry
        Total length         43.3566 bohr

     End of self-consistent calculation

[...]

          k = 0.3333-0.3849 0.0000 ( 25368 PWs)   bands (ev):

[...]

          k =-0.5000-0.2887 0.0000 ( 25386 PWs)   bands (ev):

   -21.4645 -21.4431 -21.4391 -21.4248 -21.4200 -21.4121 -21.4107 -21.4052
   -21.4042 -21.4002 -21.3981 -21.3958 -21.3951 -21.3943 -21.3897 -21.3879
   -21.3865 -21.3822 -21.3796 -21.3759 -21.3735 -21.3732 -21.3701 -21.3681
   -21.3674 -21.3667 -21.3635 -21.3596 -21.3580 -21.3565 -21.3516 -21.3508
   -21.3458 -21.3435 -21.3384 -21.3271 -21.3258 -21.3207 -21.3172 -21.3151
   -21.3119 -21.3072 -21.3057 -21.3008 -21.2946 -21.2923 -21.2916 -21.2907
   -21.2897 -21.2880 -21.2855 -21.2791 -21.2770 -21.2742 -21.2671 -21.2666
   -21.2602 -21.2550 -21.2414 -21.2310 -12.2112  -8.8509  -8.7131  -7.6605
    -7.4262  -6.5953  -6.5699  -6.3324  -6.2719  -5.8033  -5.5594  -4.6839
    -4.4825  -2.7737  -2.1116  -1.9712  -1.5732  -1.3590  -1.3127  -1.1811
    -1.0767  -0.7922  -0.4005  -0.1579   0.0415   0.2517   0.7524   0.9613
     1.1328   1.1884   1.2913   1.4927   1.7554   1.7967   1.8271   1.9339
     2.2778

     the Fermi energy is     0.6308 ev

!    total energy              =   -1952.77153610 Ry
     Harris-Foulkes estimate   =   -1952.77154789 Ry
     estimated scf accuracy    <       0.00000162 Ry

     The total energy is the sum of the following terms:

     one-electron contribution =  -10057.27174149 Ry
     hartree contribution      =    5093.23740179 Ry
     xc contribution           =    -542.50778897 Ry
     ewald contribution        =    3553.81138260 Ry
     electric field correction =       0.00024998 Ry
     smearing contrib. (-TS)   =      -0.04104001 Ry

     convergence has been achieved in   4 iterations

     Forces acting on atoms (Ry/au):

     negative rho (up, down):  3.886E-04 0.000E+00
     atom    1 type  1   force =    -0.00055090   -0.00031524    0.00165978
     atom    2 type  1   force =     0.00055910   -0.00030087    0.00167401
     atom    3 type  1   force =     0.00000633    0.00059933    0.00165810
     atom    4 type  1   force =     0.00000097   -0.00001105    0.00234858
     atom    5 type  1   force =     0.00000940    0.00590303   -0.00526613
     atom    6 type  1   force =    -0.00000738    0.00000069    0.00761371
     atom    7 type  1   force =    -0.00511914   -0.00296499   -0.00528114
     atom    8 type  1   force =     0.00513584   -0.00295712   -0.00526741
     atom    9 type  1   force =     0.00000764    0.00000067    0.00132334
     atom   10 type  1   force =    -0.00002375   -0.00067882    0.00018708
     atom   11 type  1   force =    -0.00057423    0.00036130    0.00020609
     atom   12 type  1   force =     0.00056343    0.00035905    0.00017736
     atom   13 type  2   force =    -0.00000731    0.00000402   -0.00103337

     Total force =     0.002073     Total SCF correction =     0.004434
     SCF correction compared to forces is large: reduce conv_thr to get better values

     bfgs converged in   2 scf cycles and   1 bfgs steps
     (criteria: energy <  1.0E+12, force <  1.9E-03)

     End of BFGS Geometry Optimization

     Final energy   =   -1952.7715360972 Ry
Begin final coordinates

ATOMIC_POSITIONS (angstrom)
Sn       1.681748263   0.970957812  10.000000000    0   0   0
Sn       5.045244789   0.970957812  10.000000000    0   0   0
Sn       3.363496526   3.883831250  10.000000000    0   0   0
Sn       6.726993052   3.883831250  10.000000000    0   0   0
Sn       6.726993052   1.941915625  12.746283414    0   0   0
Sn       3.363496526   1.941915625  12.746283414    0   0   0
Sn       8.408741315   4.854789062  12.746283414    0   0   0
Sn       5.045244789   4.854789062  12.746283414    0   0   0
Sn      -0.000011058   0.000036278  15.420386849
Sn       3.363503094   0.075531045  15.957552438
Sn       1.747144782   2.875124913  15.957527619
Sn       4.979873253   2.875150595  15.957561991
S        3.363498995   1.941937270  17.857154872
End final coordinates

     Writing output data file calc.save

     General routines

     Parallel routines

   This run was terminated on:   1:45:24  17Jan2019

   JOB DONE.
Job  /afs/slac/g/suncat/bin/suncat-tsmpirun -x LD_LIBRARY_PATH -wdir /tmp/qe_3793806n__ki4k_scratch pw.x -npool 3 -in pw.pwi

TID   HOST_NAME   COMMAND_LINE            STATUS            TERMINATION_TIME
00000 suncat1052 pw.x -npool 3 -i  Done                     01/17/2019 01:45:24
00001 suncat1052 pw.x -npool 3 -i  Done                     01/17/2019 01:45:24
00002 suncat1052 pw.x -npool 3 -i  Done                     01/17/2019 01:45:24
00003 suncat1052 pw.x -npool 3 -i  Done                     01/17/2019 01:45:24
00004 suncat1052 pw.x -npool 3 -i  Done                     01/17/2019 01:45:24
00005 suncat1052 pw.x -npool 3 -i  Done                     01/17/2019 01:45:24
00006 suncat1052 pw.x -npool 3 -i  Done                     01/17/2019 01:45:24
00007 suncat1052 pw.x -npool 3 -i  Done                     01/17/2019 01:45:24
00008 suncat1052 pw.x -npool 3 -i  Done                     01/17/2019 01:45:24
00009 suncat1052 pw.x -npool 3 -i  Done                     01/17/2019 01:45:24
00010 suncat1052 pw.x -npool 3 -i  Done                     01/17/2019 01:45:24
00011 suncat1052 pw.x -npool 3 -i  Done                     01/17/2019 01:45:24
00012 suncat1048 pw.x -npool 3 -i  Done                     01/17/2019 01:45:24
00013 suncat1048 pw.x -npool 3 -i  Done                     01/17/2019 01:45:24
00014 suncat1048 pw.x -npool 3 -i  Done                     01/17/2019 01:45:24
00015 suncat1048 pw.x -npool 3 -i  Done                     01/17/2019 01:45:24
00016 suncat1048 pw.x -npool 3 -i  Done                     01/17/2019 01:45:24
00017 suncat1048 pw.x -npool 3 -i  Done                     01/17/2019 01:45:24
00018 suncat1048 pw.x -npool 3 -i  Done                     01/17/2019 01:45:24
00019 suncat1048 pw.x -npool 3 -i  Done                     01/17/2019 01:45:24
00020 suncat1048 pw.x -npool 3 -i  Done                     01/17/2019 01:45:24
00021 suncat1048 pw.x -npool 3 -i  Done                     01/17/2019 01:45:24
00022 suncat1048 pw.x -npool 3 -i  Done                     01/17/2019 01:45:24
00023 suncat1048 pw.x -npool 3 -i  Done                     01/17/2019 01:45:24
00024 suncat1034 pw.x -npool 3 -i  Done                     01/17/2019 01:45:24
00025 suncat1034 pw.x -npool 3 -i  Done                     01/17/2019 01:45:24
00026 suncat1034 pw.x -npool 3 -i  Done                     01/17/2019 01:45:24
00027 suncat1034 pw.x -npool 3 -i  Done                     01/17/2019 01:45:24
00028 suncat1034 pw.x -npool 3 -i  Done                     01/17/2019 01:45:24
00029 suncat1034 pw.x -npool 3 -i  Done                     01/17/2019 01:45:24
00030 suncat1034 pw.x -npool 3 -i  Done                     01/17/2019 01:45:24
00031 suncat1034 pw.x -npool 3 -i  Done                     01/17/2019 01:45:24
00032 suncat1034 pw.x -npool 3 -i  Done                     01/17/2019 01:45:24
00033 suncat1034 pw.x -npool 3 -i  Done                     01/17/2019 01:45:24
00034 suncat1034 pw.x -npool 3 -i  Done                     01/17/2019 01:45:24
00035 suncat1034 pw.x -npool 3 -i  Done                     01/17/2019 01:45:24