     Program PWSCF v.5.1rc2 (svn rev. 11289) starts on 18Jan2018 at  3:33:35

     Current dimensions of program PWSCF are:
     Max number of different atomic species (ntypx) = 10
     Max number of k-points (npk) =  40000
     Max angular momentum in pseudopotentials (lmaxx) =  3
     Presently stress not available with electric field

     IMPORTANT: XC functional enforced from input :
     Exchange-correlation      = BEEF-VDW ( 1  4 27 13 2)
     Any further DFT definition will be discarded
     Please, verify this is what you really want

     Subspace diagonalization in iterative solution of the eigenvalue problem:
     a serial algorithm will be used

     bravais-lattice index     =            0
     lattice parameter (alat)  =       1.8897  a.u.
     unit-cell volume          =    6501.5726 (a.u.)^3
     number of atoms/cell      =           13
     number of atomic types    =            2
     number of electrons       =       160.00
     number of Kohn-Sham states=           90
     kinetic-energy cutoff     =      36.7493  Ry
     charge density cutoff     =     367.4932  Ry
     convergence threshold     =      1.0E-05
     mixing beta               =       0.3000
     number of iterations used =           10  plain     mixing
     Exchange-correlation      = BEEF-VDW ( 1  4 27 13 2)
     nstep                     =           50

     celldm(1)=   1.889726  celldm(2)=   0.000000  celldm(3)=   0.000000
     celldm(4)=   0.000000  celldm(5)=   0.000000  celldm(6)=   0.000000

     crystal axes: (cart. coord. in units of alat)
               a(1) = (   6.617606   0.000000   0.000000 )
               a(2) = (   3.308803   5.731015   0.000000 )
               a(3) = (   0.000000   0.000000  25.403253 )

     reciprocal axes: (cart. coord. in units 2 pi/alat)
               b(1) = (  0.151112 -0.087245  0.000000 )
               b(2) = (  0.000000  0.174489  0.000000 )
               b(3) = (  0.000000  0.000000  0.039365 )

     PseudoPot. # 1 for In read from file:
     /afs/slac.stanford.edu/u/if/mamunm/psp/gbrv1.5pbe/In.UPF
     MD5 check sum: 90777abd96fbb83f2e67db2a40c566b9
     Pseudo is Ultrasoft + core correction, Zval = 13.0
     Generated by new atomic code, or converted to UPF format
     Using radial grid of  889 points,  6 beta functions with:
                l(1) =   0
                l(2) =   0
                l(3) =   1
                l(4) =   1
                l(5) =   2
                l(6) =   2
     Q(r) pseudized with  6 coefficients,  rinner =    1.400   1.400   1.400
                                                       1.400   1.400

     PseudoPot. # 2 for C  read from file:
     /afs/slac.stanford.edu/u/if/mamunm/psp/gbrv1.5pbe/C.UPF
     MD5 check sum: d1aef80898a10debaa0f26306b886e00
     Pseudo is Ultrasoft + core correction, Zval =  4.0
     Generated by new atomic code, or converted to UPF format
     Using radial grid of  721 points,  4 beta functions with:
                l(1) =   0
                l(2) =   0
                l(3) =   1
                l(4) =   1
     Q(r) pseudized with  8 coefficients,  rinner =    1.100   1.100   1.100

     vdW kernel table read from file vdW_kernel_table
     MD5 check sum: 095c7af220d748ca6e76c0b4c6cfb241

     atomic species   valence    mass     pseudopotential
        In1           13.00   114.81800     In( 1.00)
        C1             4.00    12.01100     C ( 1.00)

     No symmetry found

   Cartesian axes

     site n.     atom                  positions (alat units)
         1           In1 tau(   1) = (   1.6544016   0.9551692  10.0000000  )
         2           In1 tau(   2) = (   4.9632047   0.9551692  10.0000000  )
         3           In1 tau(   3) = (   3.3088031   3.8206768  10.0000000  )
         4           In1 tau(   4) = (   6.6176063   3.8206768  10.0000000  )
         5           In1 tau(   5) = (   6.6176063   1.9103384  12.7016265  )
         6           In1 tau(   6) = (   3.3088031   1.9103384  12.7016265  )
         7           In1 tau(   7) = (   8.2720078   4.7758460  12.7016265  )
         8           In1 tau(   8) = (   4.9632047   4.7758460  12.7016265  )
         9           In1 tau(   9) = (   0.0000000   0.0000000  15.4032529  )
        10           In1 tau(  10) = (   3.3088031   0.0000000  15.4032529  )
        11           In1 tau(  11) = (   1.6544016   2.8655076  15.4032529  )
        12           In1 tau(  12) = (   4.9632047   2.8655076  15.4032529  )
        13           C1  tau(  13) = (   1.6544016   0.9551692  17.5832529  )

     number of k points=    20  Fermi-Dirac smearing, width (Ry)=  0.0110
                       cart. coord. in units 2pi/alat
        k(    1) = (   0.0000000   0.0000000   0.0000000), wk =   0.0555556
        k(    2) = (   0.0000000   0.0290815   0.0000000), wk =   0.1111111
        k(    3) = (   0.0000000   0.0581631   0.0000000), wk =   0.1111111
        k(    4) = (   0.0000000  -0.0872446   0.0000000), wk =   0.0555556
        k(    5) = (   0.0251853  -0.0145408   0.0000000), wk =   0.1111111
        k(    6) = (   0.0251853   0.0145408   0.0000000), wk =   0.1111111
        k(    7) = (   0.0251853   0.0436223   0.0000000), wk =   0.1111111
        k(    8) = (   0.0251853  -0.1017853   0.0000000), wk =   0.1111111
        k(    9) = (   0.0251853  -0.0727038   0.0000000), wk =   0.1111111
        k(   10) = (   0.0251853  -0.0436223   0.0000000), wk =   0.1111111
        k(   11) = (   0.0503707  -0.0290815   0.0000000), wk =   0.1111111
        k(   12) = (   0.0503707   0.0000000   0.0000000), wk =   0.1111111
        k(   13) = (   0.0503707   0.0290815   0.0000000), wk =   0.1111111
        k(   14) = (   0.0503707  -0.1163261   0.0000000), wk =   0.1111111
        k(   15) = (   0.0503707  -0.0872446   0.0000000), wk =   0.1111111
        k(   16) = (   0.0503707  -0.0581631   0.0000000), wk =   0.1111111
        k(   17) = (  -0.0755560   0.0436223   0.0000000), wk =   0.0555556
        k(   18) = (  -0.0755560   0.0727038   0.0000000), wk =   0.1111111
        k(   19) = (  -0.0755560   0.1017853   0.0000000), wk =   0.1111111
        k(   20) = (  -0.0755560  -0.0436223   0.0000000), wk =   0.0555556

     Largest allocated arrays     est. size (Mb)     dimensions
     Largest temporary arrays     est. size (Mb)     dimensions

     Initial potential from superposition of free atoms
     Check: negative starting charge=   -0.000197

     starting charge  141.99995, renormalised to  160.00000

     negative rho (up, down):  2.215E-04 0.000E+00

     *
     * You are using vdW-DF for exchange-correlation in this calculation.
     * Please cite the following three references that made this development
     * possible:
     *
     *   M. Dion, H. Rydberg, E. Schroder, D. C. Langreth, and
     *   B. I. Lundqvist, Phys. Rev. Lett. 92, 246401 (2004).
     *
     *   T. Thonhauser, V. R. Cooper, S. Li, A. Puzder, P. Hyldgaard, and
     *   D. C. Langreth, Phys. Rev. B 76, 125112 (2007).
     *
     *   G. Roman-Perez and J. M. Soler, Phys. Rev. Lett. 103, 096102 (2009).
     *
     *
     * If you are using vdW-DF2, please also cite:
     *
     *   K. Lee, E. D. Murray, L. Kong, B. I. Lundqvist, and
     *   D. C. Langreth, Phys. Rev. B 82, 081101(R) (2010).
     *
     *
     * If you are calculating the stress with vdW-DF, please also cite:
     *
     *   R. Sabatini, E. Kucukbenli, B. Kolb, T. Thonhauser, and
     *   S. de Gironcoli, J. Phys.: Condens. Matter 24, 424209 (2012).
     *

     Carrying out vdW-DF run using the following parameters:

     Nqs =      20    Nr_points =    1024   r_max =   100.000
     q_mesh =
               0.00001000     0.04494208     0.09755937     0.15916263
               0.23128650     0.31572767     0.41458969     0.53033537
               0.66584808     0.82450364     1.01025438     1.22772762
               1.48234092     1.78043706     2.12944203     2.53805004
               3.01644009     3.57652955     4.23227104     5.00000000

     Gradients computed in reciprocal space

     Adding external electric field

     Computed dipole along edir(3) :
        Dipole               -4.6770 Ry au,        -11.8878 Debye
        Dipole field         -0.0090 Ry au

        Potential amp.        0.8462 Ry
        Total length         46.8051 bohr

     Starting wfc are  112 randomized atomic wfcs

     Self-consistent Calculation

     iteration #  1     ecut=    36.75 Ry     beta=0.30
     Davidson diagonalization with overlap
     ethr =  1.00E-02,  avg # of iterations =  8.3

[...]

     total energy              =   -1476.27336235 Ry
     Harris-Foulkes estimate   =   -1636.84677908 Ry
     estimated scf accuracy    <     346.62570087 Ry

     iteration #  2     ecut=    36.75 Ry     beta=0.30
     Davidson diagonalization with overlap
     c_bands:  1 eigenvalues not converged
     c_bands:  1 eigenvalues not converged
     c_bands:  2 eigenvalues not converged
     c_bands:  1 eigenvalues not converged
     c_bands:  4 eigenvalues not converged
     c_bands:  2 eigenvalues not converged
     c_bands:  3 eigenvalues not converged
     c_bands:  3 eigenvalues not converged
     c_bands:  1 eigenvalues not converged
     c_bands:  2 eigenvalues not converged
     ethr =  1.00E-02,  avg # of iterations = 19.6

[...]

     End of self-consistent calculation

          k = 0.0000 0.0000 0.0000 ( 24345 PWs)   bands (ev):

   -15.0176 -15.0173 -15.0173 -14.9272 -14.9272 -14.9209 -14.9142 -14.9115
   -14.9115 -14.8980 -14.8673 -14.8644 -14.8644 -14.8500 -14.8344 -14.8344
   -14.8268 -14.8179 -14.8179 -14.8037 -14.8037 -14.7881 -14.7881 -14.7768
   -14.7688 -14.7557 -14.7557 -14.7428 -14.7363 -14.7363 -14.6593 -14.6593
   -14.6361 -14.6361 -14.6352 -14.6010 -14.6010 -14.5967 -14.5967 -14.5789
   -14.5603 -14.5383 -14.5383 -14.5363 -14.5363 -14.5243 -14.5129 -14.5129
   -14.5121 -14.5020 -14.5020 -14.4959 -14.4903 -14.4830 -14.4830 -14.4620
   -14.4620 -14.4213 -14.4213 -14.4117  -9.1067  -8.4398  -7.3907  -5.3614
    -4.2019  -4.1945  -4.1945  -3.9132  -3.9132  -3.8878  -2.6627  -2.6627
    -2.6299  -2.4237  -2.4237  -2.4071  -1.8765  -0.9285  -0.9285  -0.9034
    -0.6202  -0.6202  -0.5795   0.6787   0.6787   0.8323   1.5883   2.8812
     2.8812   2.9099

[...]

          k =-0.0756 0.0436 0.0000 ( 24448 PWs)   bands (ev):

[...]

     the Fermi energy is     0.1506 ev

!    total energy              =   -1628.47600673 Ry
     Harris-Foulkes estimate   =   -1628.47600639 Ry
     estimated scf accuracy    <       0.00000022 Ry

     The total energy is the sum of the following terms:

     one-electron contribution =   -9288.50220643 Ry
     hartree contribution      =    4723.10945332 Ry
     xc contribution           =    -472.76658891 Ry
     ewald contribution        =    3409.72699413 Ry
     electric field correction =       0.00066779 Ry
     smearing contrib. (-TS)   =      -0.04432662 Ry

     convergence has been achieved in  19 iterations

 BEEF-vdW xc energy contributions
           1 :   -414.049481969224
           2 :    378.376273733130
           3 :   -318.179522323549
           4 :    250.422274863851
           5 :   -190.569826986482
           6 :    146.989711193550
[...]

[...]

     Program PWSCF v.5.1rc2 (svn rev. 11289) starts on 18Jan2018 at  4: 4:57

[...]

   This run was terminated on:   4:20:39  18Jan2018

[...]

     Program PWSCF v.5.1rc2 (svn rev. 11289) starts on 18Jan2018 at  4:20:45

     Current dimensions of program PWSCF are:
     Max number of different atomic species (ntypx) = 10
     Max number of k-points (npk) =  40000
     Max angular momentum in pseudopotentials (lmaxx) =  3
     Presently stress not available with electric field

     IMPORTANT: XC functional enforced from input :
     Exchange-correlation      = BEEF-VDW ( 1  4 27 13 2)
     Any further DFT definition will be discarded
     Please, verify this is what you really want

     Subspace diagonalization in iterative solution of the eigenvalue problem:
     a serial algorithm will be used

     bravais-lattice index     =            0
     lattice parameter (alat)  =       1.8897  a.u.
     unit-cell volume          =    6501.5726 (a.u.)^3
     number of atoms/cell      =           13
     number of atomic types    =            2
     number of electrons       =       160.00
     number of Kohn-Sham states=           90
     kinetic-energy cutoff     =      36.7493  Ry
     charge density cutoff     =     367.4932  Ry
     convergence threshold     =      1.0E-05
     mixing beta               =       0.3000
     number of iterations used =           10  plain     mixing
     Exchange-correlation      = BEEF-VDW ( 1  4 27 13 2)
     nstep                     =           50

     celldm(1)=   1.889726  celldm(2)=   0.000000  celldm(3)=   0.000000
     celldm(4)=   0.000000  celldm(5)=   0.000000  celldm(6)=   0.000000

     crystal axes: (cart. coord. in units of alat)
               a(1) = (   6.617606   0.000000   0.000000 )
               a(2) = (   3.308803   5.731015   0.000000 )
               a(3) = (   0.000000   0.000000  25.403253 )

     reciprocal axes: (cart. coord. in units 2 pi/alat)
               b(1) = (  0.151112 -0.087245  0.000000 )
               b(2) = (  0.000000  0.174489  0.000000 )
               b(3) = (  0.000000  0.000000  0.039365 )

     PseudoPot. # 1 for In read from file:
     /afs/slac.stanford.edu/u/if/mamunm/psp/gbrv1.5pbe/In.UPF
     MD5 check sum: 90777abd96fbb83f2e67db2a40c566b9
     Pseudo is Ultrasoft + core correction, Zval = 13.0
     Generated by new atomic code, or converted to UPF format
     Using radial grid of  889 points,  6 beta functions with:
                l(1) =   0
                l(2) =   0
                l(3) =   1
                l(4) =   1
                l(5) =   2
                l(6) =   2
     Q(r) pseudized with  6 coefficients,  rinner =    1.400   1.400   1.400
                                                       1.400   1.400

     PseudoPot. # 2 for C  read from file:
     /afs/slac.stanford.edu/u/if/mamunm/psp/gbrv1.5pbe/C.UPF
     MD5 check sum: d1aef80898a10debaa0f26306b886e00
     Pseudo is Ultrasoft + core correction, Zval =  4.0
     Generated by new atomic code, or converted to UPF format
     Using radial grid of  721 points,  4 beta functions with:
                l(1) =   0
                l(2) =   0
                l(3) =   1
                l(4) =   1
     Q(r) pseudized with  8 coefficients,  rinner =    1.100   1.100   1.100

     vdW kernel table read from file vdW_kernel_table
     MD5 check sum: 095c7af220d748ca6e76c0b4c6cfb241

     atomic species   valence    mass     pseudopotential
        In1           13.00   114.81800     In( 1.00)
        C1             4.00    12.01100     C ( 1.00)

     No symmetry found

   Cartesian axes

     site n.     atom                  positions (alat units)
         1           In1 tau(   1) = (   1.6544016   0.9551692  10.0000000  )
         2           In1 tau(   2) = (   4.9632047   0.9551692  10.0000000  )
         3           In1 tau(   3) = (   3.3088031   3.8206768  10.0000000  )
         4           In1 tau(   4) = (   6.6176063   3.8206768  10.0000000  )
         5           In1 tau(   5) = (   6.6176063   1.9103384  12.7016265  )
         6           In1 tau(   6) = (   3.3088031   1.9103384  12.7016265  )
         7           In1 tau(   7) = (   8.2720078   4.7758460  12.7016265  )
         8           In1 tau(   8) = (   4.9632047   4.7758460  12.7016265  )
         9           In1 tau(   9) = (   9.8245995   5.6722359  15.7937101  )
        10           In1 tau(  10) = (   6.7194063   5.6722421  15.7936748  )
        11           In1 tau(  11) = (   8.2720068   2.9830644  15.7936778  )
        12           In1 tau(  12) = (   4.9632241   2.8655098  15.4938412  )
        13           C1  tau(  13) = (   1.6544240   0.9551775  16.5996285  )

     number of k points=    20  Fermi-Dirac smearing, width (Ry)=  0.0110
                       cart. coord. in units 2pi/alat
        k(    1) = (   0.0000000   0.0000000   0.0000000), wk =   0.0555556
        k(    2) = (   0.0000000   0.0290815   0.0000000), wk =   0.1111111
        k(    3) = (   0.0000000   0.0581631   0.0000000), wk =   0.1111111
        k(    4) = (   0.0000000  -0.0872446   0.0000000), wk =   0.0555556
        k(    5) = (   0.0251853  -0.0145408   0.0000000), wk =   0.1111111
        k(    6) = (   0.0251853   0.0145408   0.0000000), wk =   0.1111111
        k(    7) = (   0.0251853   0.0436223   0.0000000), wk =   0.1111111
        k(    8) = (   0.0251853  -0.1017853   0.0000000), wk =   0.1111111
        k(    9) = (   0.0251853  -0.0727038   0.0000000), wk =   0.1111111
        k(   10) = (   0.0251853  -0.0436223   0.0000000), wk =   0.1111111
        k(   11) = (   0.0503707  -0.0290815   0.0000000), wk =   0.1111111
        k(   12) = (   0.0503707   0.0000000   0.0000000), wk =   0.1111111
        k(   13) = (   0.0503707   0.0290815   0.0000000), wk =   0.1111111
        k(   14) = (   0.0503707  -0.1163261   0.0000000), wk =   0.1111111
        k(   15) = (   0.0503707  -0.0872446   0.0000000), wk =   0.1111111
        k(   16) = (   0.0503707  -0.0581631   0.0000000), wk =   0.1111111
        k(   17) = (  -0.0755560   0.0436223   0.0000000), wk =   0.0555556
        k(   18) = (  -0.0755560   0.0727038   0.0000000), wk =   0.1111111
        k(   19) = (  -0.0755560   0.1017853   0.0000000), wk =   0.1111111
        k(   20) = (  -0.0755560  -0.0436223   0.0000000), wk =   0.0555556

     Largest allocated arrays     est. size (Mb)     dimensions
     Largest temporary arrays     est. size (Mb)     dimensions

     Initial potential from superposition of free atoms
     Check: negative starting charge=   -0.000216

     starting charge  141.99995, renormalised to  160.00000

[...]

     *
     * You are using vdW-DF for exchange-correlation in this calculation.
     * Please cite the following three references that made this development
     * possible:
     *
     *   M. Dion, H. Rydberg, E. Schroder, D. C. Langreth, and
     *   B. I. Lundqvist, Phys. Rev. Lett. 92, 246401 (2004).
     *
     *   T. Thonhauser, V. R. Cooper, S. Li, A. Puzder, P. Hyldgaard, and
     *   D. C. Langreth, Phys. Rev. B 76, 125112 (2007).
     *
     *   G. Roman-Perez and J. M. Soler, Phys. Rev. Lett. 103, 096102 (2009).
     *
     *
     * If you are using vdW-DF2, please also cite:
     *
     *   K. Lee, E. D. Murray, L. Kong, B. I. Lundqvist, and
     *   D. C. Langreth, Phys. Rev. B 82, 081101(R) (2010).
     *
     *
     * If you are calculating the stress with vdW-DF, please also cite:
     *
     *   R. Sabatini, E. Kucukbenli, B. Kolb, T. Thonhauser, and
     *   S. de Gironcoli, J. Phys.: Condens. Matter 24, 424209 (2012).
     *

     Carrying out vdW-DF run using the following parameters:

     Nqs =      20    Nr_points =    1024   r_max =   100.000
     q_mesh =
               0.00001000     0.04494208     0.09755937     0.15916263
               0.23128650     0.31572767     0.41458969     0.53033537
               0.66584808     0.82450364     1.01025438     1.22772762
               1.48234092     1.78043706     2.12944203     2.53805004
               3.01644009     3.57652955     4.23227104     5.00000000

     Gradients computed in reciprocal space

[...]

     Starting wfc are  112 randomized atomic wfcs

     Self-consistent Calculation

[...]

     iteration #  2     ecut=    36.75 Ry     beta=0.30
     Davidson diagonalization with overlap
     c_bands:  5 eigenvalues not converged
     c_bands:  3 eigenvalues not converged
     c_bands:  5 eigenvalues not converged
     c_bands:  1 eigenvalues not converged
     c_bands:  2 eigenvalues not converged
     c_bands:  5 eigenvalues not converged
     c_bands:  5 eigenvalues not converged
     c_bands:  5 eigenvalues not converged
     c_bands:  5 eigenvalues not converged
     ethr =  1.00E-02,  avg # of iterations = 19.5

[...]

     total energy              =   -1628.63330711 Ry
     Harris-Foulkes estimate   =   -1628.63330602 Ry
     estimated scf accuracy    <       0.00004848 Ry

     iteration # 19     ecut=    36.75 Ry     beta=0.30
     Davidson diagonalization with overlap
     ethr =  3.03E-08,  avg # of iterations =  3.0

[...]

     negative rho (up, down):  1.139E-03 0.000E+00

     Adding external electric field

     Computed dipole along edir(3) :
        Dipole               -0.2434 Ry au,         -0.6188 Debye
        Dipole field         -0.0005 Ry au

        Potential amp.        0.0440 Ry
        Total length         46.8051 bohr

     End of self-consistent calculation

[...]

          k = 0.0504-0.0582 0.0000 ( 24479 PWs)   bands (ev):

[...]

          k =-0.0756-0.0436 0.0000 ( 24448 PWs)   bands (ev):

   -14.7093 -14.6490 -14.6467 -14.6014 -14.5942 -14.5907 -14.5837 -14.5816
   -14.5782 -14.5670 -14.5510 -14.5487 -14.5319 -14.5289 -14.5267 -14.5140
   -14.5111 -14.4995 -14.4949 -14.4931 -14.4797 -14.4775 -14.4748 -14.4647
   -14.4624 -14.4566 -14.4449 -14.4398 -14.4342 -14.4320 -14.4205 -14.4069
   -14.4030 -14.3967 -14.3965 -14.3902 -14.3874 -14.3824 -14.3675 -14.3638
   -14.3612 -14.3592 -14.3578 -14.3542 -14.3519 -14.3461 -14.3418 -14.3401
   -14.3295 -14.3084 -14.3025 -14.2890 -14.2853 -14.2841 -14.2801 -14.2712
   -14.2389 -14.2356 -14.2289 -14.1467  -9.4048  -7.3536  -7.1861  -6.2891
    -5.4122  -4.8532  -4.7367  -4.5139  -4.1103  -4.0204  -2.6650  -2.3866
    -1.8856  -1.3718  -0.3458  -0.1702  -0.0035   0.1194   0.3259   0.3672
     0.6819   0.8977   1.5132   1.7739   1.7870   1.9018   2.4528   2.7254
     2.8559   3.0235

     the Fermi energy is     0.4438 ev

!    total energy              =   -1628.63330885 Ry
     Harris-Foulkes estimate   =   -1628.63328924 Ry
     estimated scf accuracy    <       0.00000297 Ry

     The total energy is the sum of the following terms:

     one-electron contribution =   -9038.55298907 Ry
     hartree contribution      =    4599.45216936 Ry
     xc contribution           =    -473.03310648 Ry
     ewald contribution        =    3283.53976223 Ry
     electric field correction =       0.00011454 Ry
     smearing contrib. (-TS)   =      -0.03925942 Ry

     convergence has been achieved in  19 iterations

 BEEF-vdW xc energy contributions
           1 :   -414.317207019679
           2 :    378.677171901660
           3 :   -318.486374951327
           4 :    250.678676356037
           5 :   -190.732959566225
           6 :    147.027556565389
           7 :   -119.259128775327
           8 :    101.067138996747
           9 :   -84.9182918812328
          10 :    66.3869983620885
          11 :   -45.7202503392207
          12 :    26.3901467085739
          13 :   -12.0841797646397
          14 :    4.20746897835841
          15 :   -1.28379138560189
          16 :   0.236043047013254
          17 :    1.60222893452146
          18 :   -5.11986602065554
          19 :    9.40839523604393
          20 :   -12.8238668321969
          21 :    14.2467116237535
          22 :   -13.7187939960393
          23 :    12.1981934726966
          24 :   -10.7932882049929
          25 :    10.0920732184203
          26 :   -9.99823358268247
          27 :    10.0425221837662
          28 :   -9.82574007979554
          29 :    9.25060796451612
          30 :   -8.45027472942934
          31 :   -37.7082385190487
          32 :   -27.3842282111914

     Forces acting on atoms (Ry/au):

     negative rho (up, down):  1.139E-03 0.000E+00
     atom    1 type  1   force =    -0.00000012   -0.00000230   -0.01173886
     atom    2 type  1   force =     0.00000261    0.00000776   -0.01244952
     atom    3 type  1   force =     0.00001023   -0.00000100   -0.01245306
     atom    4 type  1   force =    -0.00000740   -0.00000499   -0.01245153
     atom    5 type  1   force =     0.00103885   -0.00060024    0.01226423
     atom    6 type  1   force =    -0.00103925   -0.00059931    0.01226543
     atom    7 type  1   force =    -0.00000039    0.00000038    0.01458924
     atom    8 type  1   force =    -0.00000128    0.00119997    0.01226319
     atom    9 type  1   force =     0.00069409    0.00039848    0.00037802
     atom   10 type  1   force =    -0.00068468    0.00039540    0.00037319
     atom   11 type  1   force =    -0.00000090   -0.00079271    0.00037530
     atom   12 type  1   force =    -0.00000317   -0.00000034   -0.00191765
     atom   13 type  2   force =    -0.00000857   -0.00000110   -0.00149799

     Total force =     0.035771     Total SCF correction =     0.009583
     SCF correction compared to forces is large: reduce conv_thr to get better values

     entering subroutine stress ...

     negative rho (up, down):  1.139E-03 0.000E+00
          total   stress  (Ry/bohr**3)                   (kbar)     P=    4.43
   0.00003052  -0.00000000  -0.00000000          4.49     -0.00     -0.00
  -0.00000000   0.00003052  -0.00000000         -0.00      4.49     -0.00
  -0.00000000  -0.00000000   0.00002925         -0.00     -0.00      4.30

 !ASE

     Writing output data file calc.save

     General routines

     Parallel routines

   This run was terminated on:   4:29: 7  18Jan2018

   JOB DONE.
Job  /afs/slac/g/suncat/bin/suncat-tsmpirun -x LD_LIBRARY_PATH -wdir /scratch/qe842449_joETH pw.x -in pw.inp

TID   HOST_NAME   COMMAND_LINE            STATUS            TERMINATION_TIME
00000 suncat2070 pw.x -in pw.inp   Done                     01/18/2018 04:29:07
00001 suncat2070 pw.x -in pw.inp   Done                     01/18/2018 04:29:07
00002 suncat2070 pw.x -in pw.inp   Done                     01/18/2018 04:29:07
00003 suncat2070 pw.x -in pw.inp   Done                     01/18/2018 04:29:07
00004 suncat2070 pw.x -in pw.inp   Done                     01/18/2018 04:29:07
00005 suncat2070 pw.x -in pw.inp   Done                     01/18/2018 04:29:07
00006 suncat2070 pw.x -in pw.inp   Done                     01/18/2018 04:29:07
00007 suncat2070 pw.x -in pw.inp   Done                     01/18/2018 04:29:07
00008 suncat2070 pw.x -in pw.inp   Done                     01/18/2018 04:29:07
00009 suncat2070 pw.x -in pw.inp   Done                     01/18/2018 04:29:07
00010 suncat2070 pw.x -in pw.inp   Done                     01/18/2018 04:29:07
00011 suncat2070 pw.x -in pw.inp   Done                     01/18/2018 04:29:07
00012 suncat2070 pw.x -in pw.inp   Done                     01/18/2018 04:29:07
00013 suncat2070 pw.x -in pw.inp   Done                     01/18/2018 04:29:07
00014 suncat2070 pw.x -in pw.inp   Done                     01/18/2018 04:29:07
00015 suncat2070 pw.x -in pw.inp   Done                     01/18/2018 04:29:07
00016 suncat2062 pw.x -in pw.inp   Done                     01/18/2018 04:29:07
00017 suncat2062 pw.x -in pw.inp   Done                     01/18/2018 04:29:07
00018 suncat2062 pw.x -in pw.inp   Done                     01/18/2018 04:29:07
00019 suncat2062 pw.x -in pw.inp   Done                     01/18/2018 04:29:07
00020 suncat2062 pw.x -in pw.inp   Done                     01/18/2018 04:29:07
00021 suncat2062 pw.x -in pw.inp   Done                     01/18/2018 04:29:07
00022 suncat2062 pw.x -in pw.inp   Done                     01/18/2018 04:29:07
00023 suncat2062 pw.x -in pw.inp   Done                     01/18/2018 04:29:07
00024 suncat2062 pw.x -in pw.inp   Done                     01/18/2018 04:29:07
00025 suncat2062 pw.x -in pw.inp   Done                     01/18/2018 04:29:07
00026 suncat2062 pw.x -in pw.inp   Done                     01/18/2018 04:29:07
00027 suncat2062 pw.x -in pw.inp   Done                     01/18/2018 04:29:07
00028 suncat2062 pw.x -in pw.inp   Done                     01/18/2018 04:29:07
00029 suncat2062 pw.x -in pw.inp   Done                     01/18/2018 04:29:07
00030 suncat2062 pw.x -in pw.inp   Done                     01/18/2018 04:29:07
00031 suncat2062 pw.x -in pw.inp   Done                     01/18/2018 04:29:07