     Program PWSCF v.5.1rc2 (svn rev. 11289) starts on  3May2018 at  5:20: 7

     Current dimensions of program PWSCF are:
     Max number of different atomic species (ntypx) = 10
     Max number of k-points (npk) =  40000
     Max angular momentum in pseudopotentials (lmaxx) =  3
     Presently stress not available with electric field

     IMPORTANT: XC functional enforced from input :
     Exchange-correlation      = BEEF-VDW ( 1  4 27 13 2)
     Any further DFT definition will be discarded
     Please, verify this is what you really want

     Subspace diagonalization in iterative solution of the eigenvalue problem:
     a serial algorithm will be used

     bravais-lattice index     =            0
     lattice parameter (alat)  =       1.8897  a.u.
     unit-cell volume          =    4704.3541 (a.u.)^3
     number of atoms/cell      =           13
     number of atomic types    =            2
     number of electrons       =       174.00
     number of Kohn-Sham states=           97
     kinetic-energy cutoff     =      36.7493  Ry
     charge density cutoff     =     367.4932  Ry
     convergence threshold     =      1.0E-05
     mixing beta               =       0.3000
     number of iterations used =           10  plain     mixing
     Exchange-correlation      = BEEF-VDW ( 1  4 27 13 2)
     nstep                     =           50

     celldm(1)=   1.889726  celldm(2)=   0.000000  celldm(3)=   0.000000
     celldm(4)=   0.000000  celldm(5)=   0.000000  celldm(6)=   0.000000

     crystal axes: (cart. coord. in units of alat)
               a(1) = (   5.712816   0.000000   0.000000 )
               a(2) = (   2.856408   4.947444   0.000000 )
               a(3) = (   0.000000   0.000000  24.664495 )

     reciprocal axes: (cart. coord. in units 2 pi/alat)
               b(1) = (  0.175045 -0.101062  0.000000 )
               b(2) = (  0.000000  0.202125  0.000000 )
               b(3) = (  0.000000  0.000000  0.040544 )

     PseudoPot. # 1 for W  read from file:
     /u/if/mamunm/psp/gbrv1.5pbe/W.UPF
     MD5 check sum: 9c083fa34c2a2ea0f02f1f893e16e1c8
     Pseudo is Ultrasoft + core correction, Zval = 14.0
     Generated by new atomic code, or converted to UPF format
     Using radial grid of  923 points,  8 beta functions with:
                l(1) =   0
                l(2) =   0
                l(3) =   0
                l(4) =   1
                l(5) =   1
                l(6) =   2
                l(7) =   2
                l(8) =   3
     Q(r) pseudized with  6 coefficients,  rinner =    1.350   1.350   1.350
                                                       1.350   1.350   1.350
                                                       1.350

     PseudoPot. # 2 for O  read from file:
     /u/if/mamunm/psp/gbrv1.5pbe/O.UPF
     MD5 check sum: 734c27235a0248c51dbae37a1fbe46ec
     Pseudo is Ultrasoft + core correction, Zval =  6.0
     Generated by new atomic code, or converted to UPF format
     Using radial grid of  737 points,  5 beta functions with:
                l(1) =   0
                l(2) =   0
                l(3) =   1
                l(4) =   1
                l(5) =   2
     Q(r) pseudized with  8 coefficients,  rinner =    0.900   0.900   0.900
                                                       0.900   0.900

     vdW kernel table read from file vdW_kernel_table
     MD5 check sum: 095c7af220d748ca6e76c0b4c6cfb241

     atomic species   valence    mass     pseudopotential
        W1            14.00   183.84000     W ( 1.00)
        O1             6.00    15.99900     O ( 1.00)

     No symmetry found

   Cartesian axes

     site n.     atom                  positions (alat units)
         1           W1  tau(   1) = (   1.4282041   0.8245740  10.0000000  )
         2           W1  tau(   2) = (   4.2846123   0.8245740  10.0000000  )
         3           W1  tau(   3) = (   2.8564082   3.2982961  10.0000000  )
         4           W1  tau(   4) = (   5.7128165   3.2982961  10.0000000  )
         5           W1  tau(   5) = (   5.7128165   1.6491481  12.3322476  )
         6           W1  tau(   6) = (   2.8564082   1.6491481  12.3322476  )
         7           W1  tau(   7) = (   7.1410206   4.1228701  12.3322476  )
         8           W1  tau(   8) = (   4.2846123   4.1228701  12.3322476  )
         9           W1  tau(   9) = (   0.0000000   0.0000000  14.6644951  )
        10           W1  tau(  10) = (   2.8564082   0.0000000  14.6644951  )
        11           W1  tau(  11) = (   1.4282041   2.4737221  14.6644951  )
        12           W1  tau(  12) = (   4.2846123   2.4737221  14.6644951  )
        13           O1  tau(  13) = (   2.8564082   1.6491481  16.1464951  )

     number of k points=    20  Fermi-Dirac smearing, width (Ry)=  0.0110
                       cart. coord. in units 2pi/alat
        k(    1) = (   0.0000000   0.0000000   0.0000000), wk =   0.0555556
        k(    2) = (   0.0000000   0.0336874   0.0000000), wk =   0.1111111
        k(    3) = (   0.0000000   0.0673749   0.0000000), wk =   0.1111111
        k(    4) = (   0.0000000  -0.1010623   0.0000000), wk =   0.0555556
        k(    5) = (   0.0291742  -0.0168437   0.0000000), wk =   0.1111111
        k(    6) = (   0.0291742   0.0168437   0.0000000), wk =   0.1111111
        k(    7) = (   0.0291742   0.0505311   0.0000000), wk =   0.1111111
        k(    8) = (   0.0291742  -0.1179060   0.0000000), wk =   0.1111111
        k(    9) = (   0.0291742  -0.0842186   0.0000000), wk =   0.1111111
        k(   10) = (   0.0291742  -0.0505311   0.0000000), wk =   0.1111111
        k(   11) = (   0.0583483  -0.0336874   0.0000000), wk =   0.1111111
        k(   12) = (   0.0583483  -0.0000000   0.0000000), wk =   0.1111111
        k(   13) = (   0.0583483   0.0336874   0.0000000), wk =   0.1111111
        k(   14) = (   0.0583483  -0.1347497   0.0000000), wk =   0.1111111
        k(   15) = (   0.0583483  -0.1010623   0.0000000), wk =   0.1111111
        k(   16) = (   0.0583483  -0.0673749   0.0000000), wk =   0.1111111
        k(   17) = (  -0.0875225   0.0505311   0.0000000), wk =   0.0555556
        k(   18) = (  -0.0875225   0.0842186   0.0000000), wk =   0.1111111
        k(   19) = (  -0.0875225   0.1179060   0.0000000), wk =   0.1111111
        k(   20) = (  -0.0875225  -0.0505311   0.0000000), wk =   0.0555556

     Largest allocated arrays     est. size (Mb)     dimensions
     Largest temporary arrays     est. size (Mb)     dimensions

     Initial potential from superposition of free atoms
     Check: negative starting charge=   -0.760529

     starting charge  172.79592, renormalised to  174.00000

     negative rho (up, down):  7.658E-01 0.000E+00

     *
     * You are using vdW-DF for exchange-correlation in this calculation.
     * Please cite the following three references that made this development
     * possible:
     *
     *   M. Dion, H. Rydberg, E. Schroder, D. C. Langreth, and
     *   B. I. Lundqvist, Phys. Rev. Lett. 92, 246401 (2004).
     *
     *   T. Thonhauser, V. R. Cooper, S. Li, A. Puzder, P. Hyldgaard, and
     *   D. C. Langreth, Phys. Rev. B 76, 125112 (2007).
     *
     *   G. Roman-Perez and J. M. Soler, Phys. Rev. Lett. 103, 096102 (2009).
     *
     *
     * If you are using vdW-DF2, please also cite:
     *
     *   K. Lee, E. D. Murray, L. Kong, B. I. Lundqvist, and
     *   D. C. Langreth, Phys. Rev. B 82, 081101(R) (2010).
     *
     *
     * If you are calculating the stress with vdW-DF, please also cite:
     *
     *   R. Sabatini, E. Kucukbenli, B. Kolb, T. Thonhauser, and
     *   S. de Gironcoli, J. Phys.: Condens. Matter 24, 424209 (2012).
     *

     Carrying out vdW-DF run using the following parameters:

     Nqs =      20    Nr_points =    1024   r_max =   100.000
     q_mesh =
               0.00001000     0.04494208     0.09755937     0.15916263
               0.23128650     0.31572767     0.41458969     0.53033537
               0.66584808     0.82450364     1.01025438     1.22772762
               1.48234092     1.78043706     2.12944203     2.53805004
               3.01644009     3.57652955     4.23227104     5.00000000

     Gradients computed in reciprocal space

     Adding external electric field

     Computed dipole along edir(3) :
        Dipole               -0.3013 Ry au,         -0.7659 Debye
        Dipole field         -0.0008 Ry au

        Potential amp.        0.0732 Ry
        Total length         45.4439 bohr

     Starting wfc are  160 randomized atomic wfcs

     Self-consistent Calculation

     iteration #  1     ecut=    36.75 Ry     beta=0.30
     Davidson diagonalization with overlap
     ethr =  1.00E-02,  avg # of iterations =  2.0

[...]

     total energy              =   -1954.82504977 Ry
     Harris-Foulkes estimate   =   -1957.81932507 Ry
     estimated scf accuracy    <       6.40510361 Ry

[...]

     iteration # 11     ecut=    36.75 Ry     beta=0.30
     Davidson diagonalization with overlap
     c_bands:  1 eigenvalues not converged
     ethr =  5.64E-06,  avg # of iterations =  5.9

[...]

     End of self-consistent calculation

          k = 0.0000 0.0000 0.0000 ( 17753 PWs)   bands (ev):

   -72.0917 -72.0358 -72.0350 -71.9247 -71.8759 -71.8652 -71.8457 -71.8454
   -71.8419 -71.8214 -71.8177 -71.8173 -36.6336 -36.5292 -36.5291 -36.5000
   -36.4924 -36.4826 -36.4824 -36.3397 -36.3341 -36.3338 -36.1767 -36.1188
   -36.1181 -36.0182 -35.9652 -35.9572 -35.9569 -35.9004 -35.9000 -35.8940
   -35.7814 -35.7814 -35.7696 -35.7622 -35.7580 -35.7579 -35.6980 -35.6509
   -35.6508 -35.6381 -35.6307 -35.6307 -35.5684 -35.5683 -35.4624 -35.4624
   -15.9028  -5.8768  -4.1457  -3.3807  -2.9746  -2.9746  -2.8769  -2.7203
    -2.6641  -2.6641  -2.0793  -2.0786  -2.0786  -1.7102  -1.7013  -1.7013
    -1.2322  -1.2322  -0.7830  -0.0786  -0.0784   0.1527   0.9408   0.9735
     0.9735   1.2447   1.5442   1.6943   1.6943   1.8992   1.8994   1.9546
     2.0290   2.0291   2.1012   2.1390   2.1978   2.1978   2.3664   2.3664
     3.0264   3.1601   3.1602   3.5882   3.9022   4.0323   4.0324   4.1497
     4.1498

[...]

          k =-0.0875 0.0505 0.0000 ( 17668 PWs)   bands (ev):

[...]

     the Fermi energy is     2.2898 ev

!    total energy              =   -1957.42124384 Ry
     Harris-Foulkes estimate   =   -1957.42124821 Ry
     estimated scf accuracy    <       0.00000430 Ry

     The total energy is the sum of the following terms:

     one-electron contribution =  -15144.89640989 Ry
     hartree contribution      =    7557.74795962 Ry
     xc contribution           =    -517.80847632 Ry
     ewald contribution        =    6147.63018624 Ry
     electric field correction =       0.00003957 Ry
     smearing contrib. (-TS)   =      -0.09454306 Ry

     convergence has been achieved in  16 iterations

 BEEF-vdW xc energy contributions
           1 :   -455.454789905389
           2 :    421.130894101981
           3 :   -360.762100294597
           4 :    287.665180610555
           5 :   -215.625705567987
           6 :    154.912957070744
           7 :   -110.122112811632
           8 :    80.3127339301520
           9 :   -61.0066121451621
          10 :    46.9313556964867
          11 :   -34.2812944685309
          12 :    21.6929469371836
          13 :   -9.86203501236554
          14 :   0.342969428913023
          15 :    5.71105165036005
          16 :   -8.27883326179125
          17 :    8.44786083174046
          18 :   -7.80159623280298
          19 :    7.62945403454256
          20 :   -8.39055866792825
          21 :    9.67289485791912
          22 :   -10.6088598579063
          23 :    10.4768283053964
          24 :   -9.15167671950149
          25 :    7.17456261186027
          26 :   -5.43360117026015
          27 :    4.66191075990997
          28 :   -5.04434483668348
          29 :    6.14149212208889
          30 :   -7.15702846262081
          31 :   -41.3242757004846
          32 :   -30.9027567315338

     Forces acting on atoms (Ry/au):

     negative rho (up, down):  7.926E-01 0.000E+00
     atom    1 type  1   force =    -0.00154752   -0.00087538   -0.00216167
     atom    2 type  1   force =     0.00155952   -0.00090093   -0.00210595
     atom    3 type  1   force =    -0.00001624    0.00178761   -0.00213847
     atom    4 type  1   force =     0.00002613   -0.00001663   -0.00215906
     atom    5 type  1   force =    -0.00000301   -0.00303358   -0.00435120
     atom    6 type  1   force =    -0.00000897    0.00004922    0.02240018
     atom    7 type  1   force =     0.00264167    0.00150190   -0.00435884
     atom    8 type  1   force =    -0.00264939    0.00150589   -0.00436732
     atom    9 type  1   force =    -0.00001757   -0.00000533   -0.03693653
     atom   10 type  1   force =     0.00002312   -0.00589844    0.05764136
     atom   11 type  1   force =    -0.00514365    0.00297356    0.05753234
     atom   12 type  1   force =     0.00511728    0.00293110    0.05762674
     atom   13 type  2   force =     0.00001862   -0.00001899   -0.13662157

     Total force =     0.173459     Total SCF correction =     0.007960

     entering subroutine stress ...

     negative rho (up, down):  7.926E-01 0.000E+00
          total   stress  (Ry/bohr**3)                   (kbar)     P=  -51.87
  -0.00045093   0.00000001  -0.00000001        -66.33      0.00     -0.00
   0.00000001  -0.00045094   0.00000001          0.00    -66.34      0.00
  -0.00000001   0.00000001  -0.00015597         -0.00      0.00    -22.94

     BFGS Geometry Optimization

     number of scf cycles    =   1
     number of bfgs steps    =   0

     energy   new            =   -1957.4212438445 Ry

     new trust radius        =       0.1366215684 bohr
     new conv_thr            =       0.0000099958 Ry

ATOMIC_POSITIONS (crystal)
W1       0.166666667   0.166666667   0.405441099    0   0   0
W1       0.666666667   0.166666667   0.405441099    0   0   0
W1       0.166666667   0.666666667   0.405441099    0   0   0
W1       0.666666667   0.666666667   0.405441099    0   0   0
W1       0.833333333   0.333333333   0.500000000    0   0   0
W1       0.333333333   0.333333333   0.500000000    0   0   0
W1       0.833333333   0.833333333   0.500000000    0   0   0
W1       0.333333333   0.833333333   0.500000000    0   0   0
W1      -0.000001343  -0.000000570   0.593766427
W1       0.500317590  -0.000630896   0.595795597
W1      -0.000635481   0.500318051   0.595793258
W1       0.500317258   0.500313510   0.595795284
O1       0.333336074   0.333331302   0.651714054

     Writing output data file calc.save
     Check: negative starting charge=   -0.760529
     NEW-OLD atomic charge density approx. for the potential
     Check: negative starting charge=   -0.761248

[...]

     energy   old            =   -1957.4212438445 Ry
     energy   new            =   -1957.4470963022 Ry

     CASE: energy  _new < energy  _old

[...]

     Total force =     0.007656     Total SCF correction =     0.000415

[...]

     number of scf cycles    =   8
     number of bfgs steps    =   7

     energy   old            =   -1957.4750150760 Ry
     energy   new            =   -1957.4753592367 Ry

     CASE: energy  _new < energy  _old

     new trust radius        =       0.0074639730 bohr
     new conv_thr            =       0.0000001000 Ry

ATOMIC_POSITIONS (crystal)
W1       0.166666667   0.166666667   0.405441099    0   0   0
W1       0.666666667   0.166666667   0.405441099    0   0   0
W1       0.166666667   0.666666667   0.405441099    0   0   0
W1       0.666666667   0.666666667   0.405441099    0   0   0
W1       0.833333333   0.333333333   0.500000000    0   0   0
W1       0.333333333   0.333333333   0.500000000    0   0   0
W1       0.833333333   0.833333333   0.500000000    0   0   0
W1       0.333333333   0.833333333   0.500000000    0   0   0
W1       0.000002176  -0.000001892   0.585309180
W1       0.503642422  -0.007286095   0.596587179
W1      -0.007283419   0.503640864   0.596587250
W1       0.503643034   0.503642329   0.596587184
O1       0.333331404   0.333333997   0.644062118

     Writing output data file calc.save
     Check: negative starting charge=   -0.758538
     NEW-OLD atomic charge density approx. for the potential
     Check: negative starting charge=   -0.758562

[...]

     Self-consistent Calculation

[...]

     Threshold (ethr) on eigenvalues was too large:
     Diagonalizing with lowered threshold

     Davidson diagonalization with overlap
     ethr =  3.86E-08,  avg # of iterations =  2.4

[...]

     total energy              =   -1957.47541041 Ry
     Harris-Foulkes estimate   =   -1957.47541048 Ry
     estimated scf accuracy    <       0.00000035 Ry

     iteration #  9     ecut=    36.75 Ry     beta=0.30
     Davidson diagonalization with overlap
     ethr =  2.01E-10,  avg # of iterations =  3.1

[...]

     negative rho (up, down):  7.914E-01 0.000E+00

     Adding external electric field

     Computed dipole along edir(3) :
        Dipole                0.0608 Ry au,          0.1545 Debye
        Dipole field          0.0002 Ry au

        Potential amp.       -0.0148 Ry
        Total length         45.4439 bohr

     End of self-consistent calculation

[...]

          k = 0.0583-0.0674 0.0000 ( 17692 PWs)   bands (ev):

[...]

          k =-0.0875-0.0505 0.0000 ( 17668 PWs)   bands (ev):

   -71.8822 -71.8616 -71.8445 -71.6985 -71.6205 -71.6090 -71.5879 -71.5790
   -71.5761 -71.5616 -71.5482 -71.5208 -36.3368 -36.1936 -36.1796 -36.1607
   -36.1465 -36.1239 -36.0135 -36.0106 -35.9968 -35.9854 -35.9574 -35.9260
   -35.9035 -35.8860 -35.8327 -35.7553 -35.7542 -35.7310 -35.6945 -35.6513
   -35.6394 -35.6308 -35.6221 -35.6057 -35.6046 -35.5750 -35.5522 -35.5253
   -35.4953 -35.4576 -35.4349 -35.3749 -35.3491 -35.3057 -35.2845 -35.2811
   -17.1153  -4.2522  -3.7696  -3.4627  -3.3169  -3.1253  -2.1772  -1.8655
    -1.5234  -1.4361  -1.3651  -1.3221  -1.2204  -0.9946  -0.5303  -0.4824
    -0.3042  -0.2184  -0.1472   0.1432   0.2190   0.3903   0.4150   0.4916
     0.6990   0.7049   0.9753   1.0990   1.2381   1.3160   1.4196   1.4398
     1.4884   1.5776   1.7054   1.8592   2.0755   2.0782   2.1402   2.4045
     2.5846   2.6849   2.9853   3.2140   3.4759   3.5972   3.6536   3.8407
     3.9278

     the Fermi energy is     2.5452 ev

!    total energy              =   -1957.47541040 Ry
     Harris-Foulkes estimate   =   -1957.47541048 Ry
     estimated scf accuracy    <       0.00000007 Ry

     The total energy is the sum of the following terms:

     one-electron contribution =  -15264.50781554 Ry
     hartree contribution      =    7618.55030809 Ry
     xc contribution           =    -518.07688936 Ry
     ewald contribution        =    6206.64984457 Ry
     electric field correction =       0.00000987 Ry
     smearing contrib. (-TS)   =      -0.09086804 Ry

     convergence has been achieved in   9 iterations

 BEEF-vdW xc energy contributions
           1 :   -455.728379383790
           2 :    421.477645760816
           3 :   -361.182331365668
           4 :    288.083979451859
           5 :   -215.939388044642
           6 :    155.040548786993
           7 :   -110.041444944795
           8 :    80.0703418306989
           9 :   -60.6991420789062
          10 :    46.6661416747460
          11 :   -34.1323878855087
          12 :    21.6738567494172
          13 :   -9.92742099782231
          14 :   0.415112873883345
          15 :    5.70362889044532
          16 :   -8.36724631541182
          17 :    8.61082222003245
          18 :   -7.98169150163221
          19 :    7.76682204585637
          20 :   -8.45418052875118
          21 :    9.67359948973848
          22 :   -10.5897769399362
          23 :    10.4881312726338
          24 :   -9.22255384010748
          25 :    7.29730521144984
          26 :   -5.56871430858087
          27 :    4.75988089418524
          28 :   -5.07211583754406
          29 :    6.10086183841884
          30 :   -7.08530635534771
          31 :   -41.3400222213278
          32 :   -30.9316466430736

     Forces acting on atoms (Ry/au):

     negative rho (up, down):  7.914E-01 0.000E+00
     atom    1 type  1   force =    -0.00221431   -0.00127821   -0.00092293
     atom    2 type  1   force =     0.00221416   -0.00127823   -0.00092313
     atom    3 type  1   force =    -0.00000009    0.00255694   -0.00092294
     atom    4 type  1   force =     0.00000001    0.00000010    0.00477309
     atom    5 type  1   force =    -0.00000035    0.01230551   -0.01835530
     atom    6 type  1   force =    -0.00000034    0.00000039    0.05300601
     atom    7 type  1   force =    -0.01065710   -0.00615241   -0.01835532
     atom    8 type  1   force =     0.01065733   -0.00615295   -0.01835685
     atom    9 type  1   force =    -0.00000341    0.00000124    0.00084789
     atom   10 type  1   force =     0.00000357    0.00063191    0.00005670
     atom   11 type  1   force =     0.00054324   -0.00031269    0.00005435
     atom   12 type  1   force =    -0.00054667   -0.00031870    0.00005669
     atom   13 type  2   force =     0.00000397   -0.00000290   -0.00095826

     Total force =     0.001685     Total SCF correction =     0.000880
     SCF correction compared to forces is large: reduce conv_thr to get better values

     entering subroutine stress ...

     negative rho (up, down):  7.914E-01 0.000E+00
          total   stress  (Ry/bohr**3)                   (kbar)     P=  -39.69
  -0.00036196  -0.00000000   0.00000000        -53.25     -0.00      0.00
  -0.00000000  -0.00036196  -0.00000000         -0.00    -53.25     -0.00
   0.00000000  -0.00000000  -0.00008556          0.00     -0.00    -12.59

     bfgs converged in   9 scf cycles and   8 bfgs steps
     (criteria: energy <  1.0E+00, force <  1.9E-03)

     End of BFGS Geometry Optimization

     Final energy   =   -1957.4754103974 Ry
Begin final coordinates

ATOMIC_POSITIONS (crystal)
W1       0.166666667   0.166666667   0.405441099    0   0   0
W1       0.666666667   0.166666667   0.405441099    0   0   0
W1       0.166666667   0.666666667   0.405441099    0   0   0
W1       0.666666667   0.666666667   0.405441099    0   0   0
W1       0.833333333   0.333333333   0.500000000    0   0   0
W1       0.333333333   0.333333333   0.500000000    0   0   0
W1       0.833333333   0.833333333   0.500000000    0   0   0
W1       0.333333333   0.833333333   0.500000000    0   0   0
W1       0.000002176  -0.000001892   0.585309180
W1       0.503642422  -0.007286095   0.596587179
W1      -0.007283419   0.503640864   0.596587250
W1       0.503643034   0.503642329   0.596587184
O1       0.333331404   0.333333997   0.644062118
End final coordinates

     Writing output data file calc.save

     General routines

     Parallel routines

   This run was terminated on:   6:39:27   3May2018

   JOB DONE.
Job  /afs/slac/g/suncat/bin/suncat-tsmpirun -x LD_LIBRARY_PATH -wdir /scratch/qe628576_YKMqD pw.x -npool 4 -in pw.inp

TID   HOST_NAME   COMMAND_LINE            STATUS            TERMINATION_TIME
00000 suncat0018 pw.x -npool 4 -i  Done                     05/03/2018 06:39:27
00001 suncat0018 pw.x -npool 4 -i  Done                     05/03/2018 06:39:27
00002 suncat0018 pw.x -npool 4 -i  Done                     05/03/2018 06:39:27
00003 suncat0018 pw.x -npool 4 -i  Done                     05/03/2018 06:39:27
00004 suncat0018 pw.x -npool 4 -i  Done                     05/03/2018 06:39:27
00005 suncat0018 pw.x -npool 4 -i  Done                     05/03/2018 06:39:27
00006 suncat0018 pw.x -npool 4 -i  Done                     05/03/2018 06:39:27
00007 suncat0018 pw.x -npool 4 -i  Done                     05/03/2018 06:39:27
00008 suncat0017 pw.x -npool 4 -i  Done                     05/03/2018 06:39:27
00009 suncat0017 pw.x -npool 4 -i  Done                     05/03/2018 06:39:27
00010 suncat0017 pw.x -npool 4 -i  Done                     05/03/2018 06:39:27
00011 suncat0017 pw.x -npool 4 -i  Done                     05/03/2018 06:39:27
00012 suncat0017 pw.x -npool 4 -i  Done                     05/03/2018 06:39:27
00013 suncat0017 pw.x -npool 4 -i  Done                     05/03/2018 06:39:27
00014 suncat0017 pw.x -npool 4 -i  Done                     05/03/2018 06:39:27
00015 suncat0017 pw.x -npool 4 -i  Done                     05/03/2018 06:39:27
00016 suncat0005 pw.x -npool 4 -i  Done                     05/03/2018 06:39:27
00017 suncat0005 pw.x -npool 4 -i  Done                     05/03/2018 06:39:27
00018 suncat0005 pw.x -npool 4 -i  Done                     05/03/2018 06:39:27
00019 suncat0005 pw.x -npool 4 -i  Done                     05/03/2018 06:39:27
00020 suncat0005 pw.x -npool 4 -i  Done                     05/03/2018 06:39:27
00021 suncat0005 pw.x -npool 4 -i  Done                     05/03/2018 06:39:27
00022 suncat0005 pw.x -npool 4 -i  Done                     05/03/2018 06:39:27
00023 suncat0005 pw.x -npool 4 -i  Done                     05/03/2018 06:39:27
00024 suncat0004 pw.x -npool 4 -i  Done                     05/03/2018 06:39:27
00025 suncat0004 pw.x -npool 4 -i  Done                     05/03/2018 06:39:27
00026 suncat0004 pw.x -npool 4 -i  Done                     05/03/2018 06:39:27
00027 suncat0004 pw.x -npool 4 -i  Done                     05/03/2018 06:39:27
00028 suncat0004 pw.x -npool 4 -i  Done                     05/03/2018 06:39:27
00029 suncat0004 pw.x -npool 4 -i  Done                     05/03/2018 06:39:27
00030 suncat0004 pw.x -npool 4 -i  Done                     05/03/2018 06:39:27
00031 suncat0004 pw.x -npool 4 -i  Done                     05/03/2018 06:39:27