     Program PWSCF v.5.1rc2 (svn rev. ) starts on 17Apr2018 at 23:17:24

     Current dimensions of program PWSCF are:
     Max number of different atomic species (ntypx) = 10
     Max number of k-points (npk) =  40000
     Max angular momentum in pseudopotentials (lmaxx) =  3
     Presently stress not available with electric field

     IMPORTANT: XC functional enforced from input :
     Exchange-correlation      = BEEF-VDW ( 1  4 27 13 2)
     Any further DFT definition will be discarded
     Please, verify this is what you really want

     Subspace diagonalization in iterative solution of the eigenvalue problem:
     a serial algorithm will be used

     bravais-lattice index     =            0
     lattice parameter (alat)  =       1.8897  a.u.
     unit-cell volume          =    5409.9593 (a.u.)^3
     number of atoms/cell      =           14
     number of atomic types    =            3
     number of electrons       =       234.00
     number of Kohn-Sham states=          127
     kinetic-energy cutoff     =      36.7493  Ry
     charge density cutoff     =     367.4932  Ry
     convergence threshold     =      1.0E-05
     mixing beta               =       0.3000
     number of iterations used =           10  plain     mixing
     Exchange-correlation      = BEEF-VDW ( 1  4 27 13 2)
     nstep                     =           50

     celldm(1)=   1.889726  celldm(2)=   0.000000  celldm(3)=   0.000000
     celldm(4)=   0.000000  celldm(5)=   0.000000  celldm(6)=   0.000000

     crystal axes: (cart. coord. in units of alat)
               a(1) = (   6.088539   0.000000   0.000000 )
               a(2) = (   3.044269   5.272829   0.000000 )
               a(3) = (   0.000000   0.000000  24.971271 )

     reciprocal axes: (cart. coord. in units 2 pi/alat)
               b(1) = (  0.164243 -0.094826  0.000000 )
               b(2) = (  0.000000  0.189652  0.000000 )
               b(3) = (  0.000000  0.000000  0.040046 )

     PseudoPot. # 1 for Ga read from file:
     /home/mamunm/src/pseudo/gbrv1.5pbe/Ga.UPF
     MD5 check sum: ccd671392a58a050fbb373893b4fcd66
     Pseudo is Ultrasoft + core correction, Zval = 19.0
     Generated by new atomic code, or converted to UPF format
     Using radial grid of  871 points,  6 beta functions with:
                l(1) =   0
                l(2) =   0
                l(3) =   1
                l(4) =   1
                l(5) =   2
                l(6) =   2
     Q(r) pseudized with  8 coefficients,  rinner =    1.250   1.250   1.250
                                                       1.250   1.250

     PseudoPot. # 2 for N  read from file:
     /home/mamunm/src/pseudo/gbrv1.5pbe/N.UPF
     MD5 check sum: 95339753478d7afb44899504a8723017
     Pseudo is Ultrasoft + core correction, Zval =  5.0
     Generated by new atomic code, or converted to UPF format
     Using radial grid of  729 points,  4 beta functions with:
                l(1) =   0
                l(2) =   0
                l(3) =   1
                l(4) =   1
     Q(r) pseudized with  8 coefficients,  rinner =    0.900   0.900   0.900

     PseudoPot. # 3 for H  read from file:
     /home/mamunm/src/pseudo/gbrv1.5pbe/H.UPF
     MD5 check sum: 761ae9a214b05c3daf00ab9f6b793d6f
     Pseudo is Ultrasoft, Zval =  1.0
     Generated by new atomic code, or converted to UPF format
     Using radial grid of  615 points,  2 beta functions with:
                l(1) =   0
                l(2) =   0
     Q(r) pseudized with  8 coefficients,  rinner =    0.700

     vdW kernel table read from file vdW_kernel_table
     MD5 check sum: 095c7af220d748ca6e76c0b4c6cfb241

     atomic species   valence    mass     pseudopotential
        Ga1           19.00    69.72300     Ga( 1.00)
        N1             5.00    14.00700     N ( 1.00)
        H1             1.00     1.00800     H ( 1.00)

     No symmetry found

   Cartesian axes

     site n.     atom                  positions (alat units)
         1           Ga1 tau(   1) = (   1.5221346   0.8788048  10.0000000  )
         2           Ga1 tau(   2) = (   4.5664039   0.8788048  10.0000000  )
         3           Ga1 tau(   3) = (   3.0442693   3.5152194  10.0000000  )
         4           Ga1 tau(   4) = (   6.0885386   3.5152194  10.0000000  )
         5           Ga1 tau(   5) = (   6.0885386   1.7576097  12.4856355  )
         6           Ga1 tau(   6) = (   3.0442693   1.7576097  12.4856355  )
         7           Ga1 tau(   7) = (   7.6106732   4.3940242  12.4856355  )
         8           Ga1 tau(   8) = (   4.5664039   4.3940242  12.4856355  )
         9           Ga1 tau(   9) = (   0.0000000   0.0000000  14.9712709  )
        10           Ga1 tau(  10) = (   3.0442693   0.0000000  14.9712709  )
        11           Ga1 tau(  11) = (   1.5221346   2.6364145  14.9712709  )
        12           Ga1 tau(  12) = (   4.5664039   2.6364145  14.9712709  )
        13           N1  tau(  13) = (   3.0442693   1.7576097  16.2257709  )
        14           H1  tau(  14) = (   3.0442693   1.7576097  17.2757709  )

     number of k points=    20  Fermi-Dirac smearing, width (Ry)=  0.0110
                       cart. coord. in units 2pi/alat
        k(    1) = (   0.0000000   0.0000000   0.0000000), wk =   0.0555556
        k(    2) = (   0.0000000   0.0316086   0.0000000), wk =   0.1111111
        k(    3) = (   0.0000000   0.0632172   0.0000000), wk =   0.1111111
        k(    4) = (   0.0000000  -0.0948258   0.0000000), wk =   0.0555556
        k(    5) = (   0.0273738  -0.0158043   0.0000000), wk =   0.1111111
        k(    6) = (   0.0273738   0.0158043   0.0000000), wk =   0.1111111
        k(    7) = (   0.0273738   0.0474129   0.0000000), wk =   0.1111111
        k(    8) = (   0.0273738  -0.1106300   0.0000000), wk =   0.1111111
        k(    9) = (   0.0273738  -0.0790215   0.0000000), wk =   0.1111111
        k(   10) = (   0.0273738  -0.0474129   0.0000000), wk =   0.1111111
        k(   11) = (   0.0547477  -0.0316086   0.0000000), wk =   0.1111111
        k(   12) = (   0.0547477   0.0000000   0.0000000), wk =   0.1111111
        k(   13) = (   0.0547477   0.0316086   0.0000000), wk =   0.1111111
        k(   14) = (   0.0547477  -0.1264343   0.0000000), wk =   0.1111111
        k(   15) = (   0.0547477  -0.0948258   0.0000000), wk =   0.1111111
        k(   16) = (   0.0547477  -0.0632172   0.0000000), wk =   0.1111111
        k(   17) = (  -0.0821215   0.0474129   0.0000000), wk =   0.0555556
        k(   18) = (  -0.0821215   0.0790215   0.0000000), wk =   0.1111111
        k(   19) = (  -0.0821215   0.1106300   0.0000000), wk =   0.1111111
        k(   20) = (  -0.0821215  -0.0474129   0.0000000), wk =   0.0555556

     Largest allocated arrays     est. size (Mb)     dimensions
     Largest temporary arrays     est. size (Mb)     dimensions

     Initial potential from superposition of free atoms
     Check: negative starting charge=   -0.001134

     starting charge  221.99997, renormalised to  234.00000

     negative rho (up, down):  1.195E-03 0.000E+00

     *
     * You are using vdW-DF for exchange-correlation in this calculation.
     * Please cite the following three references that made this development
     * possible:
     *
     *   M. Dion, H. Rydberg, E. Schroder, D. C. Langreth, and
     *   B. I. Lundqvist, Phys. Rev. Lett. 92, 246401 (2004).
     *
     *   T. Thonhauser, V. R. Cooper, S. Li, A. Puzder, P. Hyldgaard, and
     *   D. C. Langreth, Phys. Rev. B 76, 125112 (2007).
     *
     *   G. Roman-Perez and J. M. Soler, Phys. Rev. Lett. 103, 096102 (2009).
     *
     *
     * If you are using vdW-DF2, please also cite:
     *
     *   K. Lee, E. D. Murray, L. Kong, B. I. Lundqvist, and
     *   D. C. Langreth, Phys. Rev. B 82, 081101(R) (2010).
     *
     *
     * If you are calculating the stress with vdW-DF, please also cite:
     *
     *   R. Sabatini, E. Kucukbenli, B. Kolb, T. Thonhauser, and
     *   S. de Gironcoli, J. Phys.: Condens. Matter 24, 424209 (2012).
     *

     Carrying out vdW-DF run using the following parameters:

     Nqs =      20    Nr_points =    1024   r_max =   100.000
     q_mesh =
               0.00001000     0.04494208     0.09755937     0.15916263
               0.23128650     0.31572767     0.41458969     0.53033537
               0.66584808     0.82450364     1.01025438     1.22772762
               1.48234092     1.78043706     2.12944203     2.53805004
               3.01644009     3.57652955     4.23227104     5.00000000

     Gradients computed in reciprocal space

     Adding external electric field

     Computed dipole along edir(3) :
        Dipole               -2.3994 Ry au,         -6.0986 Debye
        Dipole field         -0.0056 Ry au

        Potential amp.        0.5128 Ry
        Total length         46.0091 bohr

     Starting wfc are  149 randomized atomic wfcs

     Self-consistent Calculation

     iteration #  1     ecut=    36.75 Ry     beta=0.30
     Davidson diagonalization with overlap
     ethr =  1.00E-02,  avg # of iterations =  7.0

[...]

     total energy              =   -4742.81431953 Ry
     Harris-Foulkes estimate   =   -5032.10855757 Ry
     estimated scf accuracy    <     610.04480175 Ry

     iteration #  2     ecut=    36.75 Ry     beta=0.30
     Davidson diagonalization with overlap
     c_bands:  1 eigenvalues not converged
     c_bands:  1 eigenvalues not converged
     c_bands:  2 eigenvalues not converged
     ethr =  1.00E-02,  avg # of iterations = 19.1

[...]

     End of self-consistent calculation

          k = 0.0000 0.0000 0.0000 ( 20347 PWs)   bands (ev):

   -94.4560 -94.4263 -94.4263 -94.4239 -94.4232 -94.4229 -94.4148 -94.4145
   -94.4140 -94.4079 -94.4079 -94.3945 -94.3914 -94.3912 -94.3911 -94.3861
   -94.3852 -94.3852 -94.3832 -94.3832 -94.3827 -94.3767 -94.3761 -94.3761
   -94.3714 -94.3705 -94.3705 -94.3696 -94.3696 -94.3696 -94.3599 -94.3566
   -94.3558 -94.3555 -94.3435 -94.3435 -15.5723 -14.9025 -14.8995 -14.8995
   -14.8631 -14.8611 -14.8610 -14.8505 -14.8505 -14.8367 -14.8299 -14.8298
   -14.8255 -14.8173 -14.8069 -14.7989 -14.7989 -14.7917 -14.7862 -14.7861
   -14.7782 -14.7782 -14.7759 -14.7751 -14.7751 -14.7567 -14.7561 -14.7561
   -14.7508 -14.7508 -14.6999 -14.6998 -14.6956 -14.6813 -14.6813 -14.6708
   -14.6671 -14.6671 -14.6563 -14.6563 -14.6523 -14.6312 -14.6312 -14.6298
   -14.6199 -14.6199 -14.6147 -14.6147 -14.6042 -14.6005 -14.6005 -14.5985
   -14.5955 -14.5955 -14.5853 -14.5826 -14.5825 -14.5791 -14.5790 -14.5676
   -14.1727  -9.7611  -8.3560  -6.5663  -5.3716  -4.7780  -4.7780  -4.4956
    -4.4955  -4.3427  -3.9642  -3.5811  -3.5811  -2.9060  -2.4175  -2.4175
    -2.1150  -1.7011  -1.7011  -1.4903  -0.6413  -0.4796  -0.4795   0.6589
     0.6589   0.9341   1.5869   3.0952   3.3489   3.3489   3.3564

[...]

          k =-0.0821 0.0474 0.0000 ( 20384 PWs)   bands (ev):

[...]

     the Fermi energy is     0.3755 ev

!    total energy              =   -5020.55262382 Ry
     Harris-Foulkes estimate   =   -5020.55263081 Ry
     estimated scf accuracy    <       0.00000170 Ry

     The total energy is the sum of the following terms:

     one-electron contribution =  -27655.02248397 Ry
     hartree contribution      =   13835.29224581 Ry
     xc contribution           =    -602.79885143 Ry
     ewald contribution        =    9402.01003415 Ry
     electric field correction =       0.00001301 Ry
     smearing contrib. (-TS)   =      -0.03358138 Ry

     convergence has been achieved in  19 iterations

 BEEF-vdW xc energy contributions
           1 :   -538.711277815133
           2 :    488.963952119267
           3 :   -405.565747734718
           4 :    312.755713280814
           5 :   -231.979579109309
           6 :    173.857210668705
           7 :   -136.674515689920
           8 :    111.155717456481
           9 :   -87.9122459582509
          10 :    62.9416336072848
          11 :   -38.4058798926397
          12 :    19.2072862256075
          13 :   -8.42529015767082
          14 :    4.89185914300265
          15 :   -4.22141331771127
          16 :    2.04527957758273
          17 :    3.14010357881216
          18 :   -9.49966356953439
          19 :    13.8171579070777
          20 :   -14.1926803695794
          21 :    11.4402554842798
          22 :   -8.30869401842642
          23 :    7.31927892181193
          24 :   -8.95506638149936
          25 :    11.5186077378160
          26 :   -12.6321035257013
          27 :    11.1315203647034
          28 :   -7.90728980215886
          29 :    5.13336831472691
          30 :   -4.57090690013047
          31 :   -39.9440019144658
          32 :   -27.1300580827719

     Forces acting on atoms (Ry/au):

     negative rho (up, down):  1.152E-03 0.000E+00
     atom    1 type  1   force =     0.00119653    0.00067673   -0.00055322
     atom    2 type  1   force =    -0.00121573    0.00064040   -0.00109856
     atom    3 type  1   force =     0.00001707   -0.00135880   -0.00024457
     atom    4 type  1   force =    -0.00001383    0.00002840    0.00179878
     atom    5 type  1   force =    -0.00004142   -0.00354797    0.00153991
     atom    6 type  1   force =     0.00004905   -0.00003660    0.00936752
     atom    7 type  1   force =     0.00304041    0.00181807    0.00156372
     atom    8 type  1   force =    -0.00303360    0.00177081    0.00152670
     atom    9 type  1   force =     0.00000377   -0.00000208   -0.00645297
     atom   10 type  1   force =     0.00000850   -0.00066407    0.01792020
     atom   11 type  1   force =    -0.00057372    0.00034171    0.01788070
     atom   12 type  1   force =     0.00055258    0.00033045    0.01790515
     atom   13 type  2   force =     0.00000563    0.00000122   -0.02956772
     atom   14 type  3   force =     0.00000476    0.00000174   -0.03158565

     Total force =     0.053631     Total SCF correction =     0.002268

     entering subroutine stress ...

     negative rho (up, down):  1.152E-03 0.000E+00
          total   stress  (Ry/bohr**3)                   (kbar)     P=  -10.31
  -0.00006662  -0.00000000  -0.00000000         -9.80     -0.00     -0.00
  -0.00000000  -0.00006662   0.00000000         -0.00     -9.80      0.00
  -0.00000000   0.00000000  -0.00007697         -0.00      0.00    -11.32

     BFGS Geometry Optimization

     number of scf cycles    =   1
     number of bfgs steps    =   0

     energy   new            =   -5020.5526238206 Ry

     new trust radius        =       0.0315856466 bohr
     new conv_thr            =       0.0000099958 Ry

ATOMIC_POSITIONS (crystal)
Ga1      0.166666667   0.166666667   0.400460194    0   0   0
Ga1      0.666666667   0.166666667   0.400460194    0   0   0
Ga1      0.166666667   0.666666667   0.400460194    0   0   0
Ga1      0.666666667   0.666666667   0.400460194    0   0   0
Ga1      0.833333333   0.333333333   0.500000000    0   0   0
Ga1      0.333333333   0.333333333   0.500000000    0   0   0
Ga1      0.833333333   0.833333333   0.500000000    0   0   0
Ga1      0.333333333   0.833333333   0.500000000    0   0   0
Ga1      0.000000432  -0.000000209   0.599403058
Ga1      0.500034062  -0.000066646   0.599919561
Ga1     -0.000067011   0.500034294   0.599918724
Ga1      0.500031445   0.500033164   0.599919242
N1       0.333333761   0.333333455   0.649150955
H1       0.333333660   0.333333508   0.691156512

     Writing output data file calc.save
     Check: negative starting charge=   -0.001134
     NEW-OLD atomic charge density approx. for the potential
     Check: negative starting charge=   -0.001128

[...]

     energy   old            =   -5020.5526238206 Ry
     energy   new            =   -5020.5553972533 Ry

     CASE: energy  _new < energy  _old

     WARNING: bfgs curvature condition failed, Theta= 0.880
     new trust radius        =       0.0347442112 bohr
     new conv_thr            =       0.0000001000 Ry

[...]

     iteration #  1     ecut=    36.75 Ry     beta=0.30
     Davidson diagonalization with overlap
     c_bands:  1 eigenvalues not converged
     c_bands:  1 eigenvalues not converged
     c_bands:  1 eigenvalues not converged
     ethr =  1.00E-06,  avg # of iterations =  9.9

[...]

     Total force =     0.010264     Total SCF correction =     0.001643
     SCF correction compared to forces is large: reduce conv_thr to get better values

[...]

     Total force =     0.006171     Total SCF correction =     0.000154

[...]

     number of scf cycles    =  20
     number of bfgs steps    =  19

     energy   old            =   -5020.5782946382 Ry
     energy   new            =   -5020.5784113389 Ry

     CASE: energy  _new < energy  _old

     new trust radius        =       0.0515466396 bohr
     new conv_thr            =       0.0000001000 Ry

ATOMIC_POSITIONS (crystal)
Ga1      0.166666667   0.166666667   0.400460194    0   0   0
Ga1      0.666666667   0.166666667   0.400460194    0   0   0
Ga1      0.166666667   0.666666667   0.400460194    0   0   0
Ga1      0.666666667   0.666666667   0.400460194    0   0   0
Ga1      0.833333333   0.333333333   0.500000000    0   0   0
Ga1      0.333333333   0.333333333   0.500000000    0   0   0
Ga1      0.833333333   0.833333333   0.500000000    0   0   0
Ga1      0.333333333   0.833333333   0.500000000    0   0   0
Ga1     -0.000002020   0.000000526   0.593481630
Ga1      0.510837656  -0.021653635   0.597801018
Ga1     -0.021644600   0.510818060   0.597796597
Ga1      0.510820323   0.510829832   0.597800510
N1       0.333331484   0.333341735   0.632238453
H1       0.333321906   0.333342798   0.673436379

     Writing output data file calc.save
     Check: negative starting charge=   -0.001166
     NEW-OLD atomic charge density approx. for the potential
     Check: negative starting charge=   -0.001165

[...]

     Self-consistent Calculation

[...]

     total energy              =   -5020.57857160 Ry
     Harris-Foulkes estimate   =   -5020.57857185 Ry
     estimated scf accuracy    <       0.00000044 Ry

     iteration #  7     ecut=    36.75 Ry     beta=0.30
     Davidson diagonalization with overlap
     ethr =  1.87E-10,  avg # of iterations =  3.4

[...]

     negative rho (up, down):  1.165E-03 0.000E+00

     Adding external electric field

     Computed dipole along edir(3) :
        Dipole                0.1856 Ry au,          0.4718 Debye
        Dipole field          0.0004 Ry au

        Potential amp.       -0.0397 Ry
        Total length         46.0091 bohr

     End of self-consistent calculation

[...]

          k = 0.0547-0.0632 0.0000 ( 20377 PWs)   bands (ev):

[...]

          k =-0.0821-0.0474 0.0000 ( 20384 PWs)   bands (ev):

   -94.4080 -94.4076 -94.4075 -94.4001 -94.4000 -94.3993 -94.3376 -94.3363
   -94.3360 -94.2875 -94.2653 -94.2653 -94.2632 -94.2600 -94.2600 -94.2460
   -94.2460 -94.2459 -94.2296 -94.2291 -94.2287 -94.2274 -94.2273 -94.2270
   -94.2246 -94.2240 -94.2236 -94.2234 -94.2233 -94.2230 -94.2182 -94.2180
   -94.2179 -94.2154 -94.2148 -94.2148 -16.2601 -14.8422 -14.8110 -14.7999
   -14.7876 -14.7803 -14.7738 -14.7701 -14.7495 -14.7462 -14.7317 -14.7283
   -14.7067 -14.6926 -14.6836 -14.6824 -14.6624 -14.6589 -14.6495 -14.6481
   -14.6463 -14.6389 -14.6330 -14.6325 -14.6237 -14.6198 -14.6152 -14.6128
   -14.6036 -14.5977 -14.5926 -14.5865 -14.5836 -14.5782 -14.5728 -14.5658
   -14.5583 -14.5570 -14.5545 -14.5526 -14.5367 -14.5337 -14.5314 -14.5278
   -14.5232 -14.5164 -14.5159 -14.5142 -14.5100 -14.5067 -14.5021 -14.4936
   -14.4919 -14.4873 -14.4753 -14.4699 -14.4651 -14.4493 -14.4449 -14.4346
   -14.1999  -8.5211  -8.3842  -7.2319  -7.1253  -6.1337  -6.0116  -5.2219
    -5.0719  -4.8971  -4.3863  -3.1635  -3.0490  -2.8231  -1.5944  -0.8118
    -0.4793  -0.2617  -0.0894   0.2918   0.3455   0.9009   1.4444   1.5661
     2.1252   2.2842   2.3565   2.5220   2.5419   2.9964   3.1169

     the Fermi energy is     0.5248 ev

!    total energy              =   -5020.57857158 Ry
     Harris-Foulkes estimate   =   -5020.57857169 Ry
     estimated scf accuracy    <       0.00000004 Ry

     The total energy is the sum of the following terms:

     one-electron contribution =  -28038.35326650 Ry
     hartree contribution      =   14027.68430687 Ry
     xc contribution           =    -602.98105500 Ry
     ewald contribution        =    9593.10427046 Ry
     electric field correction =       0.00008005 Ry
     smearing contrib. (-TS)   =      -0.03290746 Ry

     convergence has been achieved in   7 iterations

 BEEF-vdW xc energy contributions
           1 :   -538.899176232726
           2 :    489.223804351745
           3 :   -405.895339495927
           4 :    313.081469440689
           5 :   -232.213870539082
           6 :    173.955241790170
           7 :   -136.658449492537
           8 :    111.095420830631
           9 :   -87.8781507478636
          10 :    62.9620567527764
          11 :   -38.4566072777420
          12 :    19.2386679124106
          13 :   -8.40515307156056
          14 :    4.83114254184102
          15 :   -4.16520959896366
          16 :    2.03844094459077
          17 :    3.08721521848042
          18 :   -9.41861789636243
          19 :    13.7561734011076
          20 :   -14.1808495230523
          21 :    11.4702073954015
          22 :   -8.34918927351475
          23 :    7.34489717091446
          24 :   -8.96645843098258
          25 :    11.5356807262513
          26 :   -12.6658235179067
          27 :    11.1593127640497
          28 :   -7.87705586953041
          29 :    4.99787722824158
          30 :   -4.32882850550436
          31 :   -39.9580157001386
          32 :   -27.1596870975150

     Forces acting on atoms (Ry/au):

     negative rho (up, down):  1.165E-03 0.000E+00
     atom    1 type  1   force =     0.00147646    0.00085216    0.00011350
     atom    2 type  1   force =    -0.00147694    0.00085259    0.00011279
     atom    3 type  1   force =     0.00000010   -0.00170467    0.00011554
     atom    4 type  1   force =    -0.00000015    0.00000002    0.00336589
     atom    5 type  1   force =    -0.00000177    0.00035624   -0.00057773
     atom    6 type  1   force =     0.00000131   -0.00000185   -0.00058929
     atom    7 type  1   force =    -0.00030982   -0.00017697   -0.00057802
     atom    8 type  1   force =     0.00030958   -0.00017813   -0.00057580
     atom    9 type  1   force =     0.00000082    0.00000090    0.00180567
     atom   10 type  1   force =    -0.00000021   -0.00008276   -0.00182451
     atom   11 type  1   force =    -0.00007467    0.00004297   -0.00182129
     atom   12 type  1   force =     0.00008049    0.00004723   -0.00182770
     atom   13 type  2   force =    -0.00000659   -0.00000936    0.00102266
     atom   14 type  3   force =     0.00000140    0.00000163    0.00125830

     Total force =     0.003987     Total SCF correction =     0.000804
     SCF correction compared to forces is large: reduce conv_thr to get better values

     entering subroutine stress ...

     negative rho (up, down):  1.165E-03 0.000E+00
          total   stress  (Ry/bohr**3)                   (kbar)     P=   -3.67
  -0.00003259   0.00000000  -0.00000000         -4.79      0.00     -0.00
   0.00000000  -0.00003259  -0.00000000          0.00     -4.79     -0.00
  -0.00000000  -0.00000000  -0.00000976         -0.00     -0.00     -1.44

     bfgs converged in  21 scf cycles and  20 bfgs steps
     (criteria: energy <  1.0E+00, force <  1.9E-03)

     End of BFGS Geometry Optimization

     Final energy   =   -5020.5785715806 Ry
Begin final coordinates

ATOMIC_POSITIONS (crystal)
Ga1      0.166666667   0.166666667   0.400460194    0   0   0
Ga1      0.666666667   0.166666667   0.400460194    0   0   0
Ga1      0.166666667   0.666666667   0.400460194    0   0   0
Ga1      0.666666667   0.666666667   0.400460194    0   0   0
Ga1      0.833333333   0.333333333   0.500000000    0   0   0
Ga1      0.333333333   0.333333333   0.500000000    0   0   0
Ga1      0.833333333   0.833333333   0.500000000    0   0   0
Ga1      0.333333333   0.833333333   0.500000000    0   0   0
Ga1     -0.000002020   0.000000526   0.593481630
Ga1      0.510837656  -0.021653635   0.597801018
Ga1     -0.021644600   0.510818060   0.597796597
Ga1      0.510820323   0.510829832   0.597800510
N1       0.333331484   0.333341735   0.632238453
H1       0.333321906   0.333342798   0.673436379
End final coordinates

     Writing output data file calc.save

     General routines

     Parallel routines

   This run was terminated on:   0:46:15  18Apr2018

   JOB DONE.