     Program PWSCF v.5.1rc2 (svn rev. 11289) starts on  2May2018 at 20:18:41

     Current dimensions of program PWSCF are:
     Max number of different atomic species (ntypx) = 10
     Max number of k-points (npk) =  40000
     Max angular momentum in pseudopotentials (lmaxx) =  3
     Presently stress not available with electric field

     IMPORTANT: XC functional enforced from input :
     Exchange-correlation      = BEEF-VDW ( 1  4 27 13 2)
     Any further DFT definition will be discarded
     Please, verify this is what you really want

     Subspace diagonalization in iterative solution of the eigenvalue problem:
     a serial algorithm will be used

     bravais-lattice index     =            0
     lattice parameter (alat)  =       1.8897  a.u.
     unit-cell volume          =    6082.7792 (a.u.)^3
     number of atoms/cell      =           13
     number of atomic types    =            2
     number of electrons       =       150.00
     number of Kohn-Sham states=           85
     kinetic-energy cutoff     =      36.7493  Ry
     charge density cutoff     =     367.4932  Ry
     convergence threshold     =      1.0E-05
     mixing beta               =       0.3000
     number of iterations used =           10  plain     mixing
     Exchange-correlation      = BEEF-VDW ( 1  4 27 13 2)
     nstep                     =           50

     celldm(1)=   1.889726  celldm(2)=   0.000000  celldm(3)=   0.000000
     celldm(4)=   0.000000  celldm(5)=   0.000000  celldm(6)=   0.000000

     crystal axes: (cart. coord. in units of alat)
               a(1) = (   6.421223   0.000000   0.000000 )
               a(2) = (   3.210611   5.560942   0.000000 )
               a(3) = (   0.000000   0.000000  25.242906 )

     reciprocal axes: (cart. coord. in units 2 pi/alat)
               b(1) = (  0.155734 -0.089913  0.000000 )
               b(2) = (  0.000000  0.179826  0.000000 )
               b(3) = (  0.000000  0.000000  0.039615 )

     PseudoPot. # 1 for Zr read from file:
     /u/if/mamunm/psp/gbrv1.5pbe/Zr.UPF
     MD5 check sum: 5db81b1e868ab7776c4564c113de050b
     Pseudo is Ultrasoft + core correction, Zval = 12.0
     Generated by new atomic code, or converted to UPF format
     Using radial grid of  887 points,  6 beta functions with:
                l(1) =   0
                l(2) =   0
                l(3) =   1
                l(4) =   1
                l(5) =   2
                l(6) =   2
     Q(r) pseudized with  6 coefficients,  rinner =    1.200   1.200   1.200
                                                       1.200   1.200

     PseudoPot. # 2 for S  read from file:
     /u/if/mamunm/psp/gbrv1.5pbe/S.UPF
     MD5 check sum: 88d86576ff6df21479756cfb9bdac1df
     Pseudo is Ultrasoft + core correction, Zval =  6.0
     Generated by new atomic code, or converted to UPF format
     Using radial grid of  907 points,  6 beta functions with:
                l(1) =   0
                l(2) =   0
                l(3) =   1
                l(4) =   1
                l(5) =   2
                l(6) =   2
     Q(r) pseudized with  8 coefficients,  rinner =    1.300   1.300   1.300
                                                       1.300   1.300

     vdW kernel table read from file vdW_kernel_table
     MD5 check sum: 095c7af220d748ca6e76c0b4c6cfb241

     atomic species   valence    mass     pseudopotential
        Zr1           12.00    91.22400     Zr( 1.00)
        S1             6.00    32.06000     S ( 1.00)

     No symmetry found

   Cartesian axes

     site n.     atom                  positions (alat units)
         1           Zr1 tau(   1) = (   1.6053057   0.9268237  10.0000000  )
         2           Zr1 tau(   2) = (   4.8159170   0.9268237  10.0000000  )
         3           Zr1 tau(   3) = (   3.2106113   3.7072946  10.0000000  )
         4           Zr1 tau(   4) = (   6.4212227   3.7072946  10.0000000  )
         5           Zr1 tau(   5) = (   6.4212227   1.8536473  12.6214532  )
         6           Zr1 tau(   6) = (   3.2106113   1.8536473  12.6214532  )
         7           Zr1 tau(   7) = (   8.0265283   4.6341183  12.6214532  )
         8           Zr1 tau(   8) = (   4.8159170   4.6341183  12.6214532  )
         9           Zr1 tau(   9) = (   0.0000000   0.0000000  15.2429064  )
        10           Zr1 tau(  10) = (   3.2106113   0.0000000  15.2429064  )
        11           Zr1 tau(  11) = (   1.6053057   2.7804710  15.2429064  )
        12           Zr1 tau(  12) = (   4.8159170   2.7804710  15.2429064  )
        13           S1  tau(  13) = (   3.2106113   1.8536473  17.0629064  )

     number of k points=    20  Fermi-Dirac smearing, width (Ry)=  0.0110
                       cart. coord. in units 2pi/alat
        k(    1) = (   0.0000000   0.0000000   0.0000000), wk =   0.0555556
        k(    2) = (   0.0000000   0.0299709   0.0000000), wk =   0.1111111
        k(    3) = (   0.0000000   0.0599419   0.0000000), wk =   0.1111111
        k(    4) = (   0.0000000  -0.0899128   0.0000000), wk =   0.0555556
        k(    5) = (   0.0259556  -0.0149855   0.0000000), wk =   0.1111111
        k(    6) = (   0.0259556   0.0149855   0.0000000), wk =   0.1111111
        k(    7) = (   0.0259556   0.0449564   0.0000000), wk =   0.1111111
        k(    8) = (   0.0259556  -0.1048983   0.0000000), wk =   0.1111111
        k(    9) = (   0.0259556  -0.0749274   0.0000000), wk =   0.1111111
        k(   10) = (   0.0259556  -0.0449564   0.0000000), wk =   0.1111111
        k(   11) = (   0.0519112  -0.0299709   0.0000000), wk =   0.1111111
        k(   12) = (   0.0519112   0.0000000   0.0000000), wk =   0.1111111
        k(   13) = (   0.0519112   0.0299709   0.0000000), wk =   0.1111111
        k(   14) = (   0.0519112  -0.1198838   0.0000000), wk =   0.1111111
        k(   15) = (   0.0519112  -0.0899128   0.0000000), wk =   0.1111111
        k(   16) = (   0.0519112  -0.0599419   0.0000000), wk =   0.1111111
        k(   17) = (  -0.0778668   0.0449564   0.0000000), wk =   0.0555556
        k(   18) = (  -0.0778668   0.0749274   0.0000000), wk =   0.1111111
        k(   19) = (  -0.0778668   0.1048983   0.0000000), wk =   0.1111111
        k(   20) = (  -0.0778668  -0.0449564   0.0000000), wk =   0.0555556

     Largest allocated arrays     est. size (Mb)     dimensions
     Largest temporary arrays     est. size (Mb)     dimensions

     Initial potential from superposition of free atoms
     Check: negative starting charge=   -0.728995

     starting charge  149.97417, renormalised to  150.00000

     negative rho (up, down):  7.291E-01 0.000E+00

     *
     * You are using vdW-DF for exchange-correlation in this calculation.
     * Please cite the following three references that made this development
     * possible:
     *
     *   M. Dion, H. Rydberg, E. Schroder, D. C. Langreth, and
     *   B. I. Lundqvist, Phys. Rev. Lett. 92, 246401 (2004).
     *
     *   T. Thonhauser, V. R. Cooper, S. Li, A. Puzder, P. Hyldgaard, and
     *   D. C. Langreth, Phys. Rev. B 76, 125112 (2007).
     *
     *   G. Roman-Perez and J. M. Soler, Phys. Rev. Lett. 103, 096102 (2009).
     *
     *
     * If you are using vdW-DF2, please also cite:
     *
     *   K. Lee, E. D. Murray, L. Kong, B. I. Lundqvist, and
     *   D. C. Langreth, Phys. Rev. B 82, 081101(R) (2010).
     *
     *
     * If you are calculating the stress with vdW-DF, please also cite:
     *
     *   R. Sabatini, E. Kucukbenli, B. Kolb, T. Thonhauser, and
     *   S. de Gironcoli, J. Phys.: Condens. Matter 24, 424209 (2012).
     *

     Carrying out vdW-DF run using the following parameters:

     Nqs =      20    Nr_points =    1024   r_max =   100.000
     q_mesh =
               0.00001000     0.04494208     0.09755937     0.15916263
               0.23128650     0.31572767     0.41458969     0.53033537
               0.66584808     0.82450364     1.01025438     1.22772762
               1.48234092     1.78043706     2.12944203     2.53805004
               3.01644009     3.57652955     4.23227104     5.00000000

     Gradients computed in reciprocal space

     Adding external electric field

     Computed dipole along edir(3) :
        Dipole               -0.0084 Ry au,         -0.0213 Debye
        Dipole field         -0.0000 Ry au

        Potential amp.        0.0016 Ry
        Total length         46.5096 bohr

     Starting wfc are  160 randomized atomic wfcs

     Self-consistent Calculation

     iteration #  1     ecut=    36.75 Ry     beta=0.30
     Davidson diagonalization with overlap
     ethr =  1.00E-02,  avg # of iterations =  2.0

[...]

     total energy              =   -1218.68675321 Ry
     Harris-Foulkes estimate   =   -1222.02676967 Ry
     estimated scf accuracy    <       7.02135099 Ry

[...]

     End of self-consistent calculation

          k = 0.0000 0.0000 0.0000 ( 22923 PWs)   bands (ev):

   -47.8125 -47.7857 -47.7025 -47.6965 -47.6963 -47.6951 -47.6499 -47.6497
   -47.4727 -47.3955 -47.3953 -47.3800 -26.0915 -26.0913 -26.0744 -26.0417
   -26.0416 -26.0249 -26.0091 -25.9250 -25.8984 -25.8982 -25.8138 -25.7273
   -25.6794 -25.6792 -25.5710 -25.5522 -25.5521 -25.5291 -25.5290 -25.5244
   -25.5134 -25.5134 -25.4980 -25.3557 -25.3557 -25.3367 -25.3367 -25.3100
   -25.3099 -25.3070 -25.2787 -25.2179 -25.2018 -25.2017 -25.0574 -25.0573
   -11.0415  -3.4630  -2.5358  -2.0453  -2.0453  -1.9312  -1.4414  -1.0781
    -1.0781  -0.9823  -0.8066  -0.7776  -0.7776  -0.3767  -0.3767  -0.3216
    -0.2844  -0.2843  -0.0141   0.6306   0.6306   0.8758   1.4046   1.7027
     1.7027   1.7869   2.0016   2.0756   2.2969   2.2969   2.3211   2.4191
     2.4199   2.4616   2.6321   2.6329   2.6523

[...]

          k =-0.0779 0.0450 0.0000 ( 22880 PWs)   bands (ev):

[...]

     the Fermi energy is     1.4901 ev

!    total energy              =   -1221.51233200 Ry
     Harris-Foulkes estimate   =   -1221.51231418 Ry
     estimated scf accuracy    <       0.00000792 Ry

     The total energy is the sum of the following terms:

     one-electron contribution =   -8449.11119882 Ry
     hartree contribution      =    4217.49204323 Ry
     xc contribution           =    -229.40076671 Ry
     ewald contribution        =    3239.62492723 Ry
     electric field correction =       0.00006645 Ry
     smearing contrib. (-TS)   =      -0.11740339 Ry

     convergence has been achieved in  14 iterations

 BEEF-vdW xc energy contributions
           1 :   -196.420680683780
           2 :    177.601351101061
           3 :   -145.872064556072
           4 :    110.138707201573
           5 :   -78.4650270444957
           6 :    55.2812378077676
           7 :   -40.6760352610123
           8 :    31.7075050499244
           9 :   -24.7107402943645
          10 :    17.2950163069783
          11 :   -9.14388721919576
          12 :    1.51273783858014
          13 :    4.00236918073608
          14 :   -6.59960499930210
          15 :    6.70725781783503
          16 :   -5.61581896305040
          17 :    4.66218480802689
          18 :   -4.51353711322639
          19 :    4.96098422203980
          20 :   -5.27345159928024
          21 :    4.81372561211575
          22 :   -3.49501963586664
          23 :    1.80945649219356
          24 :  -0.466655099321400
          25 :  -7.301186152076866E-002
          26 :  -0.145450823888382
          27 :   0.665706201764095
          28 :  -0.961612654993843
          29 :   0.779137577663903
          30 :  -0.261147494886160
          31 :   -22.7963449555005
          32 :   -16.9502831013072

     Forces acting on atoms (Ry/au):

     negative rho (up, down):  7.490E-01 0.000E+00
     atom    1 type  1   force =     0.00019666    0.00015559    0.01387798
     atom    2 type  1   force =    -0.00019543    0.00014623    0.01388250
     atom    3 type  1   force =    -0.00001150   -0.00026849    0.01383823
     atom    4 type  1   force =     0.00001339   -0.00003317    0.01504908
     atom    5 type  1   force =     0.00001008   -0.00023212   -0.00548906
     atom    6 type  1   force =    -0.00000936    0.00000187   -0.00372747
     atom    7 type  1   force =     0.00020483    0.00010866   -0.00549942
     atom    8 type  1   force =    -0.00020784    0.00011892   -0.00550527
     atom    9 type  1   force =    -0.00000513    0.00003676   -0.02966471
     atom   10 type  1   force =     0.00000497    0.00699010    0.00294301
     atom   11 type  1   force =     0.00602121   -0.00351423    0.00290802
     atom   12 type  1   force =    -0.00601969   -0.00352045    0.00291769
     atom   13 type  2   force =    -0.00000219    0.00001033   -0.01553059

     Total force =     0.035957     Total SCF correction =     0.006770
     SCF correction compared to forces is large: reduce conv_thr to get better values

     entering subroutine stress ...

     negative rho (up, down):  7.490E-01 0.000E+00
          total   stress  (Ry/bohr**3)                   (kbar)     P=   -9.76
  -0.00005712   0.00000000   0.00000000         -8.40      0.00      0.00
   0.00000000  -0.00005710   0.00000000          0.00     -8.40      0.00
   0.00000000   0.00000000  -0.00008484          0.00      0.00    -12.48

     BFGS Geometry Optimization

     number of scf cycles    =   1
     number of bfgs steps    =   0

     energy   new            =   -1221.5123320014 Ry

     new trust radius        =       0.0296647305 bohr
     new conv_thr            =       0.0000099958 Ry

ATOMIC_POSITIONS (crystal)
Zr1      0.166666667   0.166666667   0.396150897    0   0   0
Zr1      0.666666667   0.166666667   0.396150897    0   0   0
Zr1      0.166666667   0.666666667   0.396150897    0   0   0
Zr1      0.666666667   0.666666667   0.396150897    0   0   0
Zr1      0.833333333   0.333333333   0.500000000    0   0   0
Zr1      0.333333333   0.333333333   0.500000000    0   0   0
Zr1      0.833333333   0.833333333   0.500000000    0   0   0
Zr1      0.333333333   0.833333333   0.500000000    0   0   0
Zr1     -0.000002172   0.000003498   0.603227230
Zr1      0.499667822   0.000665175   0.603910798
Zr1      0.000663419   0.499665587   0.603910065
Zr1      0.499671416   0.499664995   0.603910268
S1       0.333332662   0.333334316   0.675622992

     Writing output data file calc.save
     Check: negative starting charge=   -0.728995
     NEW-OLD atomic charge density approx. for the potential
     Check: negative starting charge=   -0.729316

[...]

     Total force =     0.031636     Total SCF correction =     0.005897
     SCF correction compared to forces is large: reduce conv_thr to get better values

[...]

     energy   old            =   -1221.5123320014 Ry
     energy   new            =   -1221.5135455121 Ry

     CASE: energy  _new < energy  _old

     WARNING: bfgs curvature condition failed, Theta= 0.917
     new trust radius        =       0.0444970958 bohr
     new conv_thr            =       0.0000001000 Ry

[...]

     Total force =     0.027890     Total SCF correction =     0.000184

[...]

     iteration #  1     ecut=    36.75 Ry     beta=0.30
     Davidson diagonalization with overlap
     c_bands:  2 eigenvalues not converged
     ethr =  1.00E-06,  avg # of iterations = 12.2

[...]

     number of scf cycles    =   7
     number of bfgs steps    =   6

     energy   old            =   -1221.5201063762 Ry
     energy   new            =   -1221.5204372644 Ry

     CASE: energy  _new < energy  _old

     new trust radius        =       0.0268770561 bohr
     new conv_thr            =       0.0000001000 Ry

ATOMIC_POSITIONS (crystal)
Zr1      0.166666667   0.166666667   0.396150897    0   0   0
Zr1      0.666666667   0.166666667   0.396150897    0   0   0
Zr1      0.166666667   0.666666667   0.396150897    0   0   0
Zr1      0.666666667   0.666666667   0.396150897    0   0   0
Zr1      0.833333333   0.333333333   0.500000000    0   0   0
Zr1      0.333333333   0.333333333   0.500000000    0   0   0
Zr1      0.833333333   0.833333333   0.500000000    0   0   0
Zr1      0.333333333   0.833333333   0.500000000    0   0   0
Zr1     -0.000005595   0.000000107   0.594514883
Zr1      0.498759303   0.002493484   0.603555031
Zr1      0.002492622   0.498752254   0.603553163
Zr1      0.498760648   0.498744968   0.603555816
S1       0.333327483   0.333336711   0.674227496

     Writing output data file calc.save
     Check: negative starting charge=   -0.728196
     NEW-OLD atomic charge density approx. for the potential
     Check: negative starting charge=   -0.728031

[...]

     Self-consistent Calculation

[...]

     total energy              =   -1221.52082176 Ry
     Harris-Foulkes estimate   =   -1221.52082185 Ry
     estimated scf accuracy    <       0.00000012 Ry

     iteration # 11     ecut=    36.75 Ry     beta=0.30
     Davidson diagonalization with overlap
     ethr =  7.95E-11,  avg # of iterations =  4.5

[...]

     negative rho (up, down):  7.481E-01 0.000E+00

     Adding external electric field

     Computed dipole along edir(3) :
        Dipole               -0.1748 Ry au,         -0.4442 Debye
        Dipole field         -0.0004 Ry au

        Potential amp.        0.0336 Ry
        Total length         46.5096 bohr

     End of self-consistent calculation

[...]

          k = 0.0519-0.0599 0.0000 ( 22856 PWs)   bands (ev):

[...]

          k =-0.0779-0.0450 0.0000 ( 22880 PWs)   bands (ev):

   -47.7585 -47.7583 -47.7272 -47.7134 -47.7133 -47.7068 -47.6802 -47.5727
   -47.4092 -47.3908 -47.3607 -47.3537 -25.9696 -25.9603 -25.9269 -25.9143
   -25.9086 -25.8889 -25.8320 -25.8192 -25.8075 -25.7933 -25.7658 -25.7512
   -25.7359 -25.7250 -25.7185 -25.6766 -25.6729 -25.6678 -25.6608 -25.5899
   -25.4843 -25.4566 -25.4561 -25.4306 -25.4304 -25.4056 -25.3476 -25.3366
   -25.3039 -25.2954 -25.2666 -25.2401 -25.2287 -25.1913 -25.1156 -25.0879
   -11.0930  -2.4641  -2.1991  -1.9535  -1.8636  -1.7619  -1.0003  -0.8103
    -0.4012  -0.3850  -0.3105  -0.2885  -0.1984  -0.1124   0.3746   0.4112
     0.4995   0.5073   0.5421   0.6425   0.8999   0.9542   0.9785   0.9906
     1.0946   1.1681   1.3193   1.3885   1.4458   1.4809   1.5032   1.5311
     1.6999   1.7452   1.8600   1.9478   2.1825

     the Fermi energy is     1.4678 ev

!    total energy              =   -1221.52082178 Ry
     Harris-Foulkes estimate   =   -1221.52082182 Ry
     estimated scf accuracy    <       0.00000005 Ry

     The total energy is the sum of the following terms:

     one-electron contribution =   -8528.77651738 Ry
     hartree contribution      =    4257.40826105 Ry
     xc contribution           =    -229.52106255 Ry
     ewald contribution        =    3279.48234002 Ry
     electric field correction =       0.00006310 Ry
     smearing contrib. (-TS)   =      -0.11390601 Ry

     convergence has been achieved in  11 iterations

 BEEF-vdW xc energy contributions
           1 :   -196.541443914504
           2 :    177.757334276345
           3 :   -146.065671545071
           4 :    110.330611826801
           5 :   -78.5982789059219
           6 :    55.3203838733418
           7 :   -40.6315810835657
           8 :    31.6300081834435
           9 :   -24.6605456121454
          10 :    17.3068124700161
          11 :   -9.20626000654386
          12 :    1.57525576474481
          13 :    3.99673515189264
          14 :   -6.67556802129235
          15 :    6.83812971492191
          16 :   -5.73936256548825
          17 :    4.72131786854783
          18 :   -4.49279862522121
          19 :    4.89344841093180
          20 :   -5.21575206615978
          21 :    4.80894559699396
          22 :   -3.54815264819973
          23 :    1.88839952261071
          24 :  -0.525031740898527
          25 :  -6.620143043036819E-002
          26 :  -0.103943159992298
          27 :   0.609937367110746
          28 :  -0.932291083773578
          29 :   0.794489008911285
          30 :  -0.303448319310519
          31 :   -22.8054737088477
          32 :   -16.9660752948962

     Forces acting on atoms (Ry/au):

     negative rho (up, down):  7.481E-01 0.000E+00
     atom    1 type  1   force =    -0.00017865   -0.00010503    0.01300658
     atom    2 type  1   force =     0.00017871   -0.00011143    0.01301021
     atom    3 type  1   force =    -0.00000565    0.00021086    0.01301119
     atom    4 type  1   force =     0.00000540    0.00000487    0.01123922
     atom    5 type  1   force =    -0.00000302    0.00949431   -0.01549494
     atom    6 type  1   force =     0.00000374    0.00000106   -0.00133869
     atom    7 type  1   force =    -0.00822221   -0.00474666   -0.01549842
     atom    8 type  1   force =     0.00822036   -0.00474924   -0.01548593
     atom    9 type  1   force =     0.00000024   -0.00000533    0.00054853
     atom   10 type  1   force =     0.00000094   -0.00096875   -0.00071740
     atom   11 type  1   force =    -0.00083397    0.00048800   -0.00071311
     atom   12 type  1   force =     0.00083398    0.00048720   -0.00071591
     atom   13 type  2   force =     0.00000013    0.00000014   -0.00085133

     Total force =     0.002317     Total SCF correction =     0.000186

     entering subroutine stress ...

     negative rho (up, down):  7.481E-01 0.000E+00
          total   stress  (Ry/bohr**3)                   (kbar)     P=   -6.28
  -0.00004238  -0.00000000   0.00000000         -6.23     -0.00      0.00
  -0.00000000  -0.00004239   0.00000000         -0.00     -6.24      0.00
   0.00000000   0.00000000  -0.00004340          0.00      0.00     -6.38

     bfgs converged in   8 scf cycles and   7 bfgs steps
     (criteria: energy <  1.0E+00, force <  1.9E-03)

     End of BFGS Geometry Optimization

     Final energy   =   -1221.5208217780 Ry
Begin final coordinates

ATOMIC_POSITIONS (crystal)
Zr1      0.166666667   0.166666667   0.396150897    0   0   0
Zr1      0.666666667   0.166666667   0.396150897    0   0   0
Zr1      0.166666667   0.666666667   0.396150897    0   0   0
Zr1      0.666666667   0.666666667   0.396150897    0   0   0
Zr1      0.833333333   0.333333333   0.500000000    0   0   0
Zr1      0.333333333   0.333333333   0.500000000    0   0   0
Zr1      0.833333333   0.833333333   0.500000000    0   0   0
Zr1      0.333333333   0.833333333   0.500000000    0   0   0
Zr1     -0.000005595   0.000000107   0.594514883
Zr1      0.498759303   0.002493484   0.603555031
Zr1      0.002492622   0.498752254   0.603553163
Zr1      0.498760648   0.498744968   0.603555816
S1       0.333327483   0.333336711   0.674227496
End final coordinates

     Writing output data file calc.save

     General routines

     Parallel routines

   This run was terminated on:  21:22: 7   2May2018

   JOB DONE.
Job  /afs/slac/g/suncat/bin/suncat-tsmpirun -x LD_LIBRARY_PATH -wdir /scratch/qe99773_L9N7i pw.x -npool 4 -in pw.inp

TID   HOST_NAME   COMMAND_LINE            STATUS            TERMINATION_TIME
00000 suncat0041 pw.x -npool 4 -i  Done                     05/02/2018 21:22:07
00001 suncat0041 pw.x -npool 4 -i  Done                     05/02/2018 21:22:07
00002 suncat0041 pw.x -npool 4 -i  Done                     05/02/2018 21:22:07
00003 suncat0041 pw.x -npool 4 -i  Done                     05/02/2018 21:22:07
00004 suncat0041 pw.x -npool 4 -i  Done                     05/02/2018 21:22:07
00005 suncat0041 pw.x -npool 4 -i  Done                     05/02/2018 21:22:07
00006 suncat0041 pw.x -npool 4 -i  Done                     05/02/2018 21:22:07
00007 suncat0041 pw.x -npool 4 -i  Done                     05/02/2018 21:22:07
00008 suncat0029 pw.x -npool 4 -i  Done                     05/02/2018 21:22:07
00009 suncat0029 pw.x -npool 4 -i  Done                     05/02/2018 21:22:07
00010 suncat0029 pw.x -npool 4 -i  Done                     05/02/2018 21:22:07
00011 suncat0029 pw.x -npool 4 -i  Done                     05/02/2018 21:22:07
00012 suncat0029 pw.x -npool 4 -i  Done                     05/02/2018 21:22:07
00013 suncat0029 pw.x -npool 4 -i  Done                     05/02/2018 21:22:07
00014 suncat0029 pw.x -npool 4 -i  Done                     05/02/2018 21:22:07
00015 suncat0029 pw.x -npool 4 -i  Done                     05/02/2018 21:22:07
00016 suncat0144 pw.x -npool 4 -i  Done                     05/02/2018 21:22:07
00017 suncat0144 pw.x -npool 4 -i  Done                     05/02/2018 21:22:07
00018 suncat0144 pw.x -npool 4 -i  Done                     05/02/2018 21:22:07
00019 suncat0144 pw.x -npool 4 -i  Done                     05/02/2018 21:22:07
00020 suncat0144 pw.x -npool 4 -i  Done                     05/02/2018 21:22:07
00021 suncat0144 pw.x -npool 4 -i  Done                     05/02/2018 21:22:07
00022 suncat0144 pw.x -npool 4 -i  Done                     05/02/2018 21:22:07
00023 suncat0144 pw.x -npool 4 -i  Done                     05/02/2018 21:22:07
00024 suncat0128 pw.x -npool 4 -i  Done                     05/02/2018 21:22:07
00025 suncat0128 pw.x -npool 4 -i  Done                     05/02/2018 21:22:07
00026 suncat0128 pw.x -npool 4 -i  Done                     05/02/2018 21:22:07
00027 suncat0128 pw.x -npool 4 -i  Done                     05/02/2018 21:22:07
00028 suncat0128 pw.x -npool 4 -i  Done                     05/02/2018 21:22:07
00029 suncat0128 pw.x -npool 4 -i  Done                     05/02/2018 21:22:07
00030 suncat0128 pw.x -npool 4 -i  Done                     05/02/2018 21:22:07
00031 suncat0128 pw.x -npool 4 -i  Done                     05/02/2018 21:22:07