     Program PWSCF v.5.1rc2 (svn rev. 11289) starts on 28Jan2019 at  1:45:35

     Current dimensions of program PWSCF are:
     Max number of different atomic species (ntypx) = 10
     Max number of k-points (npk) =  40000
     Max angular momentum in pseudopotentials (lmaxx) =  3

     IMPORTANT: XC functional enforced from input :
     Exchange-correlation      = BEEF-VDW ( 1  4 27 13 2)
     Any further DFT definition will be discarded
     Please, verify this is what you really want

     Subspace diagonalization in iterative solution of the eigenvalue problem:
     a serial algorithm will be used

     Generating pointlists ...
     new r_m :   0.1226 (alat units)  1.1610 (a.u.) for type    1
     new r_m :   0.1788 (alat units)  1.6935 (a.u.) for type    2
     new r_m :   0.1226 (alat units)  1.1610 (a.u.) for type    3

     bravais-lattice index     =            0
     lattice parameter (alat)  =       9.4723  a.u.
     unit-cell volume          =    3537.7769 (a.u.)^3
     number of atoms/cell      =           14
     number of atomic types    =            3
     number of electrons       =       211.00
     number of Kohn-Sham states=          115
     kinetic-energy cutoff     =      36.7493  Ry
     charge density cutoff     =     367.4933  Ry
     convergence threshold     =      1.0E-04
     mixing beta               =       0.3000
     number of iterations used =            8  plain     mixing
     Exchange-correlation      = BEEF-VDW ( 1  4 27 13 2)
     nstep                     =           50

     celldm(1)=   9.472344  celldm(2)=   0.000000  celldm(3)=   0.000000
     celldm(4)=   0.000000  celldm(5)=   0.000000  celldm(6)=   0.000000

     crystal axes: (cart. coord. in units of alat)
               a(1) = (   1.000000   0.000000   0.000000 )
               a(2) = (   0.500000   0.866025   0.000000 )
               a(3) = (   0.000000   0.000000   4.806483 )

     reciprocal axes: (cart. coord. in units 2 pi/alat)
               b(1) = (  1.000000 -0.577350  0.000000 )
               b(2) = (  0.000000  1.154701  0.000000 )
               b(3) = (  0.000000  0.000000  0.208052 )

     PseudoPot. # 1 for Co read from file:
     /nfs/slac/staas/fs1/g/suncat/jboes/src/decaf-espresso/gbrv15pbe/Co.UPF
     MD5 check sum: 5f91765df6ddd3222702df6e7b74a16d
     Pseudo is Ultrasoft + core correction, Zval = 17.0
     Generated by new atomic code, or converted to UPF format
     Using radial grid of  863 points,  6 beta functions with:
                l(1) =   0
                l(2) =   0
                l(3) =   1
                l(4) =   1
                l(5) =   2
                l(6) =   2
     Q(r) pseudized with  8 coefficients,  rinner =    1.200   1.200   1.200
                                                       1.200   1.200

     PseudoPot. # 2 for S  read from file:
     /nfs/slac/staas/fs1/g/suncat/jboes/src/decaf-espresso/gbrv15pbe/S.UPF
     MD5 check sum: 88d86576ff6df21479756cfb9bdac1df
     Pseudo is Ultrasoft + core correction, Zval =  6.0
     Generated by new atomic code, or converted to UPF format
     Using radial grid of  907 points,  6 beta functions with:
                l(1) =   0
                l(2) =   0
                l(3) =   1
                l(4) =   1
                l(5) =   2
                l(6) =   2
     Q(r) pseudized with  8 coefficients,  rinner =    1.300   1.300   1.300
                                                       1.300   1.300

     PseudoPot. # 3 for H  read from file:
     /nfs/slac/staas/fs1/g/suncat/jboes/src/decaf-espresso/gbrv15pbe/H.UPF
     MD5 check sum: 761ae9a214b05c3daf00ab9f6b793d6f
     Pseudo is Ultrasoft, Zval =  1.0
     Generated by new atomic code, or converted to UPF format
     Using radial grid of  615 points,  2 beta functions with:
                l(1) =   0
                l(2) =   0
     Q(r) pseudized with  8 coefficients,  rinner =    0.700

     vdW kernel table read from file vdW_kernel_table
     MD5 check sum: 095c7af220d748ca6e76c0b4c6cfb241

     atomic species   valence    mass     pseudopotential
        Co            17.00    58.93319     Co( 1.00)
        S              6.00    32.06000     S ( 1.00)
        H              1.00     1.00800     H ( 1.00)

     Starting magnetic structure
     atomic species   magnetization
        Co           0.065
        S            0.000
        H            0.000

     No symmetry found

   Cartesian axes

     site n.     atom                  positions (alat units)
         1           Co  tau(   1) = (   0.7499067   0.4328319   2.3073109  )
         2           Co  tau(   2) = (   0.2499067   0.4328319   2.3073109  )
         3           Co  tau(   3) = (   0.4999067   0.8658446   2.3073109  )
         4           Co  tau(   4) = (   0.9999067   0.8658446   2.3073109  )
         5           Co  tau(   5) = (   0.7499067   0.1441568   2.7155592  )
         6           Co  tau(   6) = (   0.2499067   0.1441568   2.7155592  )
         7           Co  tau(   7) = (   0.9999067   0.5771695   2.7155592  )
         8           Co  tau(   8) = (   0.4999067   0.5771695   2.7155592  )
         9           Co  tau(   9) = (   0.7408637   0.7267059   3.1219075  )
        10           Co  tau(  10) = (   1.2588918   0.7267174   3.1218402  )
        11           Co  tau(  11) = (   0.4999114   0.2885024   3.1140558  )
        12           Co  tau(  12) = (   0.9998622   0.2781071   3.1218575  )
        13           S   tau(  13) = (   0.9999037   0.5771208   3.4355987  )
        14           H   tau(  14) = (   0.4999513   0.2885873   3.4111801  )

     number of k points=    40  Fermi-Dirac smearing, width (Ry)=  0.0110
                       cart. coord. in units 2pi/alat
        k(    1) = (   0.0000000   0.0000000   0.0000000), wk =   0.0277778
        k(    2) = (   0.0000000   0.1924501   0.0000000), wk =   0.0555556
        k(    3) = (   0.0000000   0.3849002   0.0000000), wk =   0.0555556
        k(    4) = (   0.0000000  -0.5773503   0.0000000), wk =   0.0277778
        k(    5) = (   0.1666667  -0.0962250   0.0000000), wk =   0.0555556
        k(    6) = (   0.1666667   0.0962250   0.0000000), wk =   0.0555556
        k(    7) = (   0.1666667   0.2886751   0.0000000), wk =   0.0555556
        k(    8) = (   0.1666667  -0.6735753   0.0000000), wk =   0.0555556
        k(    9) = (   0.1666667  -0.4811252   0.0000000), wk =   0.0555556
        k(   10) = (   0.1666667  -0.2886751   0.0000000), wk =   0.0555556
        k(   11) = (   0.3333333  -0.1924501   0.0000000), wk =   0.0555556
        k(   12) = (   0.3333333  -0.0000000   0.0000000), wk =   0.0555556
        k(   13) = (   0.3333333   0.1924501   0.0000000), wk =   0.0555556
        k(   14) = (   0.3333333  -0.7698004   0.0000000), wk =   0.0555556
        k(   15) = (   0.3333333  -0.5773503   0.0000000), wk =   0.0555556
        k(   16) = (   0.3333333  -0.3849002   0.0000000), wk =   0.0555556
        k(   17) = (  -0.5000000   0.2886751   0.0000000), wk =   0.0277778
        k(   18) = (  -0.5000000   0.4811252   0.0000000), wk =   0.0555556
        k(   19) = (  -0.5000000   0.6735753   0.0000000), wk =   0.0555556
        k(   20) = (  -0.5000000  -0.2886751   0.0000000), wk =   0.0277778
        k(   21) = (   0.0000000   0.0000000   0.0000000), wk =   0.0277778
        k(   22) = (   0.0000000   0.1924501   0.0000000), wk =   0.0555556
        k(   23) = (   0.0000000   0.3849002   0.0000000), wk =   0.0555556
        k(   24) = (   0.0000000  -0.5773503   0.0000000), wk =   0.0277778
        k(   25) = (   0.1666667  -0.0962250   0.0000000), wk =   0.0555556
        k(   26) = (   0.1666667   0.0962250   0.0000000), wk =   0.0555556
        k(   27) = (   0.1666667   0.2886751   0.0000000), wk =   0.0555556
        k(   28) = (   0.1666667  -0.6735753   0.0000000), wk =   0.0555556
        k(   29) = (   0.1666667  -0.4811252   0.0000000), wk =   0.0555556
        k(   30) = (   0.1666667  -0.2886751   0.0000000), wk =   0.0555556
        k(   31) = (   0.3333333  -0.1924501   0.0000000), wk =   0.0555556
        k(   32) = (   0.3333333  -0.0000000   0.0000000), wk =   0.0555556
        k(   33) = (   0.3333333   0.1924501   0.0000000), wk =   0.0555556
        k(   34) = (   0.3333333  -0.7698004   0.0000000), wk =   0.0555556
        k(   35) = (   0.3333333  -0.5773503   0.0000000), wk =   0.0555556
        k(   36) = (   0.3333333  -0.3849002   0.0000000), wk =   0.0555556
        k(   37) = (  -0.5000000   0.2886751   0.0000000), wk =   0.0277778
        k(   38) = (  -0.5000000   0.4811252   0.0000000), wk =   0.0555556
        k(   39) = (  -0.5000000   0.6735753   0.0000000), wk =   0.0555556
        k(   40) = (  -0.5000000  -0.2886751   0.0000000), wk =   0.0277778

     Largest allocated arrays     est. size (Mb)     dimensions
     Largest temporary arrays     est. size (Mb)     dimensions

     Check: negative/imaginary core charge=   -0.000007    0.000000

     Initial potential from superposition of free atoms
     Check: negative starting charge=(component1):   -0.000170
     Check: negative starting charge=(component2):   -0.000149

     starting charge  198.99987, renormalised to  211.00000

     negative rho (up, down):  1.806E-04 1.580E-04

     *
     * You are using vdW-DF for exchange-correlation in this calculation.
     * Please cite the following three references that made this development
     * possible:
     *
     *   M. Dion, H. Rydberg, E. Schroder, D. C. Langreth, and
     *   B. I. Lundqvist, Phys. Rev. Lett. 92, 246401 (2004).
     *
     *   T. Thonhauser, V. R. Cooper, S. Li, A. Puzder, P. Hyldgaard, and
     *   D. C. Langreth, Phys. Rev. B 76, 125112 (2007).
     *
     *   G. Roman-Perez and J. M. Soler, Phys. Rev. Lett. 103, 096102 (2009).
     *
     *
     * If you are using vdW-DF2, please also cite:
     *
     *   K. Lee, E. D. Murray, L. Kong, B. I. Lundqvist, and
     *   D. C. Langreth, Phys. Rev. B 82, 081101(R) (2010).
     *
     *
     * If you are calculating the stress with vdW-DF, please also cite:
     *
     *   R. Sabatini, E. Kucukbenli, B. Kolb, T. Thonhauser, and
     *   S. de Gironcoli, J. Phys.: Condens. Matter 24, 424209 (2012).
     *

     Carrying out vdW-DF run using the following parameters:

     Nqs =      20    Nr_points =    1024   r_max =   100.000
     q_mesh =
               0.00001000     0.04494208     0.09755937     0.15916263
               0.23128650     0.31572767     0.41458969     0.53033537
               0.66584808     0.82450364     1.01025438     1.22772762
               1.48234092     1.78043706     2.12944203     2.53805004
               3.01644009     3.57652955     4.23227104     5.00000000

     Gradients computed in reciprocal space

     Adding external electric field

     Computed dipole along edir(3) :
        Dipole               -2.8699 Ry au,         -7.2946 Debye
        Dipole field         -0.0102 Ry au

        Potential amp.        0.8354 Ry
        Total length         40.9758 bohr

[...]

     Starting wfc are  161 randomized atomic wfcs

     Self-consistent Calculation

     iteration #  1     ecut=    36.75 Ry     beta=0.30
[...]
     atom:   11    charge:   11.6015    magn:    0.6506    constr:    0.0000
     atom:   12    charge:   11.5684    magn:    0.6381    constr:    0.0000
     atom:   13    charge:    3.5909    magn:    0.0054    constr:    0.0000
     atom:   14    charge:    0.6758    magn:    0.0053    constr:    0.0000

     total energy              =   -3060.82698431 Ry
     Harris-Foulkes estimate   =   -3618.52162855 Ry
     estimated scf accuracy    <    1177.12443150 Ry

     total magnetization       =     5.85 Bohr mag/cell
     absolute magnetization    =     6.27 Bohr mag/cell

[...]

     iteration #  3     ecut=    36.75 Ry     beta=0.30
     Davidson diagonalization with overlap
     c_bands:  2 eigenvalues not converged
     c_bands:  4 eigenvalues not converged
     c_bands:  3 eigenvalues not converged
     c_bands:  3 eigenvalues not converged
     c_bands:  1 eigenvalues not converged
     c_bands:  1 eigenvalues not converged
     c_bands:  2 eigenvalues not converged
     c_bands:  1 eigenvalues not converged
     c_bands:  1 eigenvalues not converged
     c_bands:  3 eigenvalues not converged
     c_bands:  3 eigenvalues not converged
     c_bands:  1 eigenvalues not converged
     c_bands:  4 eigenvalues not converged
     c_bands:  3 eigenvalues not converged
     ethr =  1.00E-02,  avg # of iterations = 18.0

[...]

     End of self-consistent calculation

 ------ SPIN UP ------------

          k = 0.0000 0.0000 0.0000 ( 13257 PWs)   bands (ev):

   -95.5485 -95.4411 -95.4184 -95.4174 -95.3440 -95.3177 -95.3092 -95.3084
   -95.2246 -95.1987 -95.1961 -94.9083 -58.8698 -58.8695 -58.8235 -58.7893
   -58.7682 -58.7264 -58.7258 -58.6778 -58.6776 -58.6774 -58.6404 -58.6385
   -58.6384 -58.6383 -58.6214 -58.6187 -58.6180 -58.6157 -58.5761 -58.5755
   -58.5460 -58.5441 -58.4926 -58.4923 -58.4882 -58.4584 -58.4538 -58.4536
   -58.4386 -58.4385 -58.3718 -58.3708 -58.3379 -58.2071 -58.1238 -58.1235
   -12.2960  -6.9907  -5.1148  -4.3471  -4.0820  -4.0321  -4.0319  -3.8879
    -3.8725  -3.8722  -3.4919  -3.4917  -3.4655  -3.3681  -3.3093  -3.3092
    -2.7688  -2.7687  -2.7398  -2.5254  -2.3159  -2.3152  -2.2513  -1.9892
    -1.9889  -1.9385  -1.7942  -1.7942  -1.6595  -1.6247  -1.6054  -1.6052
    -1.5807  -1.5804  -1.4500  -1.4496  -1.3063  -1.0613  -1.0607  -0.8251
    -0.8251  -0.7620  -0.7617  -0.7347  -0.7343  -0.6239  -0.6238  -0.4309
    -0.4304  -0.2801  -0.2295  -0.2289  -0.1958  -0.0631  -0.0627   0.0564
     0.0569   0.0984   0.2393   0.2396   0.2497   0.2934   0.3911   0.4037
     0.4045   0.7161   0.7167

[...]

          k =-0.5000 0.2887 0.0000 ( 13378 PWs)   bands (ev):

[...]

 ------ SPIN DOWN ----------

[...]

     the Fermi energy is     1.0051 ev

!    total energy              =   -3620.00401420 Ry
     Harris-Foulkes estimate   =   -3620.00411692 Ry
     estimated scf accuracy    <       0.00009228 Ry

     The total energy is the sum of the following terms:

     one-electron contribution =  -32161.25274271 Ry
     hartree contribution      =   16090.04799997 Ry
     xc contribution           =    -414.82415899 Ry
     ewald contribution        =   12866.10229477 Ry
     electric field correction =       0.00001526 Ry
     smearing contrib. (-TS)   =      -0.07742249 Ry

[...]

     convergence has been achieved in  71 iterations

     Forces acting on atoms (Ry/au):

     negative rho (up, down):  6.104E-04 3.111E-04
     atom    1 type  1   force =    -0.00084660   -0.00028270    0.01108701
     atom    2 type  1   force =     0.00085794   -0.00016415    0.01103762
     atom    3 type  1   force =    -0.00011054   -0.00024346    0.01030745
     atom    4 type  1   force =     0.00010654    0.00075934    0.01089939
     atom    5 type  1   force =     0.00189379   -0.00144541   -0.00686139
     atom    6 type  1   force =    -0.00186725   -0.00122009   -0.00699461
     atom    7 type  1   force =     0.00019540    0.00027405    0.00039857
     atom    8 type  1   force =    -0.00019577    0.00246257   -0.00670123
     atom    9 type  1   force =    -0.00195911    0.00077058   -0.00413025
     atom   10 type  1   force =     0.00191260    0.00085929   -0.00413856
     atom   11 type  1   force =     0.00009025    0.00028111   -0.00429367
     atom   12 type  1   force =    -0.00006648   -0.00212156   -0.00399660
     atom   13 type  2   force =    -0.00001983    0.00006097   -0.00098308
     atom   14 type  3   force =     0.00000906    0.00000946   -0.00563067

     Total force =     0.010709     Total SCF correction =     0.023419
     SCF correction compared to forces is large: reduce conv_thr to get better values

     BFGS Geometry Optimization

     number of scf cycles    =   1
     number of bfgs steps    =   0

     energy   new            =   -3620.0040141987 Ry

     new trust radius        =       0.0056306813 bohr
     new conv_thr            =       0.0001000000 Ry

ATOMIC_POSITIONS (angstrom)
Co       3.758943755   2.169591094  11.565508396    0   0   0
Co       1.252669398   2.169591094  11.565508396    0   0   0
Co       2.505806576   4.340088357  11.565508396    0   0   0
Co       5.012080934   4.340088357  11.565508396    0   0   0
Co       3.758943755   0.722592919  13.611872840    0   0   0
Co       1.252669398   0.722592919  13.611872840    0   0   0
Co       5.012080934   2.893090182  13.611872840    0   0   0
Co       2.505806576   2.893090182  13.611872840    0   0   0
Co       3.712578465   3.643056551  15.646527706
Co       6.311268540   3.643161233  15.646186155
Co       2.505878000   1.446281291  15.607084453
Co       5.011822868   1.392902470  15.646347795
S        5.012055353   2.892878520  17.220585454
H        2.506035098   1.446563054  17.095726683

     Writing output data file calc.save
     Check: negative starting charge=(component1):   -0.000319
     NEW-OLD atomic charge density approx. for the potential

     Check: negative/imaginary core charge=   -0.000007    0.000000
     Check: negative starting charge=(component1):   -0.000319

[...]

     energy   old            =   -3620.0040141987 Ry
     energy   new            =   -3620.0040756486 Ry

     CASE: energy  _new < energy  _old

[...]

     number of scf cycles    =   4
     number of bfgs steps    =   3

     energy   old            =   -3620.0041328806 Ry
     energy   new            =   -3620.0041498742 Ry

     CASE: energy  _new < energy  _old

     new trust radius        =       0.0039833759 bohr
     new conv_thr            =       0.0000010000 Ry

ATOMIC_POSITIONS (angstrom)
Co       3.758943755   2.169591094  11.565508396    0   0   0
Co       1.252669398   2.169591094  11.565508396    0   0   0
Co       2.505806577   4.340088357  11.565508396    0   0   0
Co       5.012080934   4.340088357  11.565508396    0   0   0
Co       3.758943755   0.722592919  13.611872840    0   0   0
Co       1.252669398   0.722592919  13.611872840    0   0   0
Co       5.012080934   2.893090182  13.611872840    0   0   0
Co       2.505806577   2.893090182  13.611872840    0   0   0
Co       3.711651539   3.643724681  15.644483548
Co       6.312101231   3.643663477  15.644198164
Co       2.505773125   1.446165109  15.601090826
Co       5.011944608   1.391497383  15.644380234
S        5.012131526   2.893075104  17.220867793
H        2.506050870   1.446583136  17.089715199

     Writing output data file calc.save
     Check: negative starting charge=(component1):   -0.000319
     NEW-OLD atomic charge density approx. for the potential

     Check: negative/imaginary core charge=   -0.000007    0.000000
     Check: negative starting charge=(component1):   -0.000319

[...]

     Self-consistent Calculation

[...]

     total energy              =   -3620.00416371 Ry
     Harris-Foulkes estimate   =   -3620.00416516 Ry
     estimated scf accuracy    <       0.00001848 Ry

[...]

     iteration #  8     ecut=    36.75 Ry     beta=0.30
     Davidson diagonalization with overlap
     ethr =  1.88E-09,  avg # of iterations =  2.4

     negative rho (up, down):  6.083E-04 3.100E-04

[...]

     Adding external electric field

     Computed dipole along edir(3) :
        Dipole               -0.1057 Ry au,         -0.2687 Debye
        Dipole field         -0.0004 Ry au

        Potential amp.        0.0308 Ry
        Total length         40.9758 bohr

     Magnetic moment per site:
     atom:    1    charge:   12.5318    magn:    1.5113    constr:    0.0000
     atom:    2    charge:   12.5319    magn:    1.5110    constr:    0.0000
     atom:    3    charge:   12.5318    magn:    1.5256    constr:    0.0000
     atom:    4    charge:   12.5318    magn:    1.5112    constr:    0.0000
     atom:    5    charge:   12.5217    magn:    1.4477    constr:    0.0000
     atom:    6    charge:   12.5215    magn:    1.4475    constr:    0.0000
     atom:    7    charge:   12.5233    magn:    1.5496    constr:    0.0000
     atom:    8    charge:   12.5217    magn:    1.4476    constr:    0.0000
     atom:    9    charge:   12.5306    magn:    1.2867    constr:    0.0000
     atom:   10    charge:   12.5300    magn:    1.2867    constr:    0.0000
     atom:   11    charge:   12.5206    magn:    1.0522    constr:    0.0000
     atom:   12    charge:   12.5303    magn:    1.2868    constr:    0.0000
     atom:   13    charge:    3.4388    magn:   -0.0057    constr:    0.0000
     atom:   14    charge:    0.6861    magn:   -0.0580    constr:    0.0000

     End of self-consistent calculation

 ------ SPIN UP ------------

[...]

 ------ SPIN DOWN ----------

[...]

          k = 0.3333-0.3849 0.0000 ( 13313 PWs)   bands (ev):

[...]

          k =-0.5000-0.2887 0.0000 ( 13378 PWs)   bands (ev):

   -93.2244 -93.1726 -93.1555 -93.1493 -93.1015 -93.0951 -93.0849 -93.0496
   -92.8937 -92.8919 -92.8768 -92.8744 -56.8008 -56.7293 -56.6694 -56.6438
   -56.5513 -56.5342 -56.5175 -56.5130 -56.4936 -56.4714 -56.4564 -56.4442
   -56.4385 -56.4323 -56.4311 -56.4278 -56.4228 -56.4135 -56.3850 -56.3829
   -56.3494 -56.3491 -56.3486 -56.3255 -56.3161 -56.3110 -56.2515 -56.2498
   -56.2364 -56.2337 -56.2045 -56.2025 -56.2002 -56.1934 -56.1636 -56.1614
   -12.1771  -5.4618  -5.2224  -4.2456  -3.7315  -3.1240  -3.0320  -2.8298
    -2.6291  -2.5537  -2.2894  -2.1067  -2.0558  -1.8867  -1.6747  -1.5176
    -1.3905  -1.3744  -1.2138  -1.2025  -1.1621  -0.9099  -0.8990  -0.8836
    -0.8621  -0.7558  -0.6163  -0.5397  -0.4056  -0.3464  -0.2963  -0.2868
    -0.2650  -0.2142  -0.1603  -0.0231   0.0404   0.1507   0.1554   0.1742
     0.1845   0.3339   0.4072   0.4907   0.7909   0.7941   0.8405   0.8437
     1.0207   1.0420   1.0722   1.1044   1.2010   1.2506   1.2583   1.3232
     1.3908   1.5080   1.5351   1.5566   1.7142   1.9477   1.9675   2.0178
     2.0566   2.1092   2.2875

     the Fermi energy is     0.9997 ev

!    total energy              =   -3620.00416400 Ry
     Harris-Foulkes estimate   =   -3620.00416725 Ry
     estimated scf accuracy    <       0.00000065 Ry

     The total energy is the sum of the following terms:

     one-electron contribution =  -32182.84175060 Ry
     hartree contribution      =   16100.92149511 Ry
     xc contribution           =    -414.83387004 Ry
     ewald contribution        =   12876.82701250 Ry
     electric field correction =       0.00003970 Ry
     smearing contrib. (-TS)   =      -0.07709067 Ry

     total magnetization       =    18.63 Bohr mag/cell
     absolute magnetization    =    21.40 Bohr mag/cell

     convergence has been achieved in   8 iterations

     Forces acting on atoms (Ry/au):

     negative rho (up, down):  6.083E-04 3.100E-04
     atom    1 type  1   force =    -0.00056207   -0.00033369    0.01067443
     atom    2 type  1   force =     0.00057055   -0.00033716    0.01071333
     atom    3 type  1   force =     0.00000836    0.00000917    0.00978813
     atom    4 type  1   force =     0.00000057    0.00066364    0.01072192
     atom    5 type  1   force =     0.00107994   -0.00069078   -0.01178818
     atom    6 type  1   force =    -0.00107569   -0.00061206   -0.01180226
     atom    7 type  1   force =     0.00006499    0.00001872   -0.00512572
     atom    8 type  1   force =    -0.00006809    0.00127541   -0.01180757
     atom    9 type  1   force =     0.00059737   -0.00028165   -0.00046164
     atom   10 type  1   force =    -0.00059898   -0.00031760   -0.00039888
     atom   11 type  1   force =    -0.00004008   -0.00006960   -0.00126293
     atom   12 type  1   force =     0.00002811    0.00068389   -0.00042831
     atom   13 type  2   force =    -0.00001143   -0.00000854    0.00140709
     atom   14 type  3   force =     0.00000647    0.00000024   -0.00022941

     Total force =     0.002357     Total SCF correction =     0.003363
     SCF correction compared to forces is large: reduce conv_thr to get better values

     bfgs converged in   5 scf cycles and   4 bfgs steps
     (criteria: energy <  1.0E+12, force <  1.9E-03)

     End of BFGS Geometry Optimization

     Final energy   =   -3620.0041639990 Ry
Begin final coordinates

ATOMIC_POSITIONS (angstrom)
Co       3.758943755   2.169591094  11.565508396    0   0   0
Co       1.252669398   2.169591094  11.565508396    0   0   0
Co       2.505806576   4.340088357  11.565508396    0   0   0
Co       5.012080934   4.340088357  11.565508396    0   0   0
Co       3.758943755   0.722592919  13.611872840    0   0   0
Co       1.252669398   0.722592919  13.611872840    0   0   0
Co       5.012080934   2.893090182  13.611872840    0   0   0
Co       2.505806577   2.893090182  13.611872840    0   0   0
Co       3.711651539   3.643724681  15.644483548
Co       6.312101231   3.643663477  15.644198164
Co       2.505773125   1.446165109  15.601090826
Co       5.011944608   1.391497383  15.644380234
S        5.012131526   2.893075104  17.220867793
H        2.506050870   1.446583136  17.089715199
End final coordinates

     Writing output data file calc.save

     General routines

     Parallel routines

   This run was terminated on:   2:27:32  28Jan2019

   JOB DONE.
Job  /afs/slac/g/suncat/bin/suncat-tsmpirun -x LD_LIBRARY_PATH -wdir /tmp/qe_227879i3nwfxwo_scratch pw.x -npool 2 -in pw.pwi

TID   HOST_NAME   COMMAND_LINE            STATUS            TERMINATION_TIME
00000 suncat2057 pw.x -npool 2 -i  Done                     01/28/2019 02:27:32
00001 suncat2057 pw.x -npool 2 -i  Done                     01/28/2019 02:27:32
00002 suncat2057 pw.x -npool 2 -i  Done                     01/28/2019 02:27:32
00003 suncat2057 pw.x -npool 2 -i  Done                     01/28/2019 02:27:32
00004 suncat2057 pw.x -npool 2 -i  Done                     01/28/2019 02:27:32
00005 suncat2057 pw.x -npool 2 -i  Done                     01/28/2019 02:27:32
00006 suncat2057 pw.x -npool 2 -i  Done                     01/28/2019 02:27:32
00007 suncat2057 pw.x -npool 2 -i  Done                     01/28/2019 02:27:32
00008 suncat2057 pw.x -npool 2 -i  Done                     01/28/2019 02:27:32
00009 suncat2057 pw.x -npool 2 -i  Done                     01/28/2019 02:27:32
00010 suncat2057 pw.x -npool 2 -i  Done                     01/28/2019 02:27:32
00011 suncat2057 pw.x -npool 2 -i  Done                     01/28/2019 02:27:32
00012 suncat2057 pw.x -npool 2 -i  Done                     01/28/2019 02:27:32
00013 suncat2057 pw.x -npool 2 -i  Done                     01/28/2019 02:27:32
00014 suncat2057 pw.x -npool 2 -i  Done                     01/28/2019 02:27:32
00015 suncat2057 pw.x -npool 2 -i  Done                     01/28/2019 02:27:32
00016 suncat2055 pw.x -npool 2 -i  Done                     01/28/2019 02:27:32
00017 suncat2055 pw.x -npool 2 -i  Done                     01/28/2019 02:27:32
00018 suncat2055 pw.x -npool 2 -i  Done                     01/28/2019 02:27:32
00019 suncat2055 pw.x -npool 2 -i  Done                     01/28/2019 02:27:32
00020 suncat2055 pw.x -npool 2 -i  Done                     01/28/2019 02:27:32
00021 suncat2055 pw.x -npool 2 -i  Done                     01/28/2019 02:27:32
00022 suncat2055 pw.x -npool 2 -i  Done                     01/28/2019 02:27:32
00023 suncat2055 pw.x -npool 2 -i  Done                     01/28/2019 02:27:32
00024 suncat2055 pw.x -npool 2 -i  Done                     01/28/2019 02:27:32
00025 suncat2055 pw.x -npool 2 -i  Done                     01/28/2019 02:27:32
00026 suncat2055 pw.x -npool 2 -i  Done                     01/28/2019 02:27:32
00027 suncat2055 pw.x -npool 2 -i  Done                     01/28/2019 02:27:32
00028 suncat2055 pw.x -npool 2 -i  Done                     01/28/2019 02:27:32
00029 suncat2055 pw.x -npool 2 -i  Done                     01/28/2019 02:27:32
00030 suncat2055 pw.x -npool 2 -i  Done                     01/28/2019 02:27:32
00031 suncat2055 pw.x -npool 2 -i  Done                     01/28/2019 02:27:32