     Program PWSCF v.5.1rc2 (svn rev. 11289) starts on  2May2018 at 13: 7:12

     Current dimensions of program PWSCF are:
     Max number of different atomic species (ntypx) = 10
     Max number of k-points (npk) =  40000
     Max angular momentum in pseudopotentials (lmaxx) =  3
     Presently stress not available with electric field

     IMPORTANT: XC functional enforced from input :
     Exchange-correlation      = BEEF-VDW ( 1  4 27 13 2)
     Any further DFT definition will be discarded
     Please, verify this is what you really want

     Subspace diagonalization in iterative solution of the eigenvalue problem:
     a serial algorithm will be used

     bravais-lattice index     =            0
     lattice parameter (alat)  =       1.8897  a.u.
     unit-cell volume          =    3724.3394 (a.u.)^3
     number of atoms/cell      =           13
     number of atomic types    =            2
     number of electrons       =       172.00
     number of Kohn-Sham states=           96
     kinetic-energy cutoff     =      36.7493  Ry
     charge density cutoff     =     367.4932  Ry
     convergence threshold     =      1.0E-05
     mixing beta               =       0.3000
     number of iterations used =           10  plain     mixing
     Exchange-correlation      = BEEF-VDW ( 1  4 27 13 2)
     nstep                     =           50

     celldm(1)=   1.889726  celldm(2)=   0.000000  celldm(3)=   0.000000
     celldm(4)=   0.000000  celldm(5)=   0.000000  celldm(6)=   0.000000

     crystal axes: (cart. coord. in units of alat)
               a(1) = (   5.132588   0.000000   0.000000 )
               a(2) = (   2.566294   4.444952   0.000000 )
               a(3) = (   0.000000   0.000000  24.190741 )

     reciprocal axes: (cart. coord. in units 2 pi/alat)
               b(1) = (  0.194833 -0.112487  0.000000 )
               b(2) = (  0.000000  0.224974  0.000000 )
               b(3) = (  0.000000  0.000000  0.041338 )

     PseudoPot. # 1 for Cr read from file:
     /u/if/mamunm/psp/gbrv1.5pbe/Cr.UPF
     MD5 check sum: 0d52af634a40206e4dee301ad30da4bf
     Pseudo is Ultrasoft + core correction, Zval = 14.0
     Generated by new atomic code, or converted to UPF format
     Using radial grid of  857 points,  6 beta functions with:
                l(1) =   0
                l(2) =   0
                l(3) =   1
                l(4) =   1
                l(5) =   2
                l(6) =   2
     Q(r) pseudized with  8 coefficients,  rinner =    0.950   0.950   0.950
                                                       0.950   0.950

     PseudoPot. # 2 for C  read from file:
     /u/if/mamunm/psp/gbrv1.5pbe/C.UPF
     MD5 check sum: d1aef80898a10debaa0f26306b886e00
     Pseudo is Ultrasoft + core correction, Zval =  4.0
     Generated by new atomic code, or converted to UPF format
     Using radial grid of  721 points,  4 beta functions with:
                l(1) =   0
                l(2) =   0
                l(3) =   1
                l(4) =   1
     Q(r) pseudized with  8 coefficients,  rinner =    1.100   1.100   1.100

     vdW kernel table read from file vdW_kernel_table
     MD5 check sum: 095c7af220d748ca6e76c0b4c6cfb241

     atomic species   valence    mass     pseudopotential
        Cr1           14.00    51.99610     Cr( 1.00)
        C1             4.00    12.01100     C ( 1.00)

     No symmetry found

   Cartesian axes

     site n.     atom                  positions (alat units)
         1           Cr1 tau(   1) = (   1.2831471   0.7408253  10.0000000  )
         2           Cr1 tau(   2) = (   3.8494412   0.7408253  10.0000000  )
         3           Cr1 tau(   3) = (   2.5662941   2.9633012  10.0000000  )
         4           Cr1 tau(   4) = (   5.1325882   2.9633012  10.0000000  )
         5           Cr1 tau(   5) = (   5.1325882   1.4816506  12.0953704  )
         6           Cr1 tau(   6) = (   2.5662941   1.4816506  12.0953704  )
         7           Cr1 tau(   7) = (   6.4157353   3.7041265  12.0953704  )
         8           Cr1 tau(   8) = (   3.8494412   3.7041265  12.0953704  )
         9           Cr1 tau(   9) = (   0.0000000   0.0000000  14.1907408  )
        10           Cr1 tau(  10) = (   2.5662941   0.0000000  14.1907408  )
        11           Cr1 tau(  11) = (   1.2831471   2.2224759  14.1907408  )
        12           Cr1 tau(  12) = (   3.8494412   2.2224759  14.1907408  )
        13           C1  tau(  13) = (   2.5662941   1.4816506  15.5882408  )

     number of k points=    20  Fermi-Dirac smearing, width (Ry)=  0.0110
                       cart. coord. in units 2pi/alat
        k(    1) = (   0.0000000   0.0000000   0.0000000), wk =   0.0555556
        k(    2) = (   0.0000000   0.0374957   0.0000000), wk =   0.1111111
        k(    3) = (   0.0000000   0.0749914   0.0000000), wk =   0.1111111
        k(    4) = (   0.0000000  -0.1124872   0.0000000), wk =   0.0555556
        k(    5) = (   0.0324722  -0.0187479   0.0000000), wk =   0.1111111
        k(    6) = (   0.0324722   0.0187479   0.0000000), wk =   0.1111111
        k(    7) = (   0.0324722   0.0562436   0.0000000), wk =   0.1111111
        k(    8) = (   0.0324722  -0.1312350   0.0000000), wk =   0.1111111
        k(    9) = (   0.0324722  -0.0937393   0.0000000), wk =   0.1111111
        k(   10) = (   0.0324722  -0.0562436   0.0000000), wk =   0.1111111
        k(   11) = (   0.0649445  -0.0374957   0.0000000), wk =   0.1111111
        k(   12) = (   0.0649445   0.0000000   0.0000000), wk =   0.1111111
        k(   13) = (   0.0649445   0.0374957   0.0000000), wk =   0.1111111
        k(   14) = (   0.0649445  -0.1499829   0.0000000), wk =   0.1111111
        k(   15) = (   0.0649445  -0.1124872   0.0000000), wk =   0.1111111
        k(   16) = (   0.0649445  -0.0749914   0.0000000), wk =   0.1111111
        k(   17) = (  -0.0974167   0.0562436   0.0000000), wk =   0.0555556
        k(   18) = (  -0.0974167   0.0937393   0.0000000), wk =   0.1111111
        k(   19) = (  -0.0974167   0.1312350   0.0000000), wk =   0.1111111
        k(   20) = (  -0.0974167  -0.0562436   0.0000000), wk =   0.0555556

     Largest allocated arrays     est. size (Mb)     dimensions
     Largest temporary arrays     est. size (Mb)     dimensions

     Check: negative/imaginary core charge=   -0.000004    0.000000

     Initial potential from superposition of free atoms
     Check: negative starting charge=   -0.014935

     starting charge  159.99977, renormalised to  172.00000

     negative rho (up, down):  1.606E-02 0.000E+00

     *
     * You are using vdW-DF for exchange-correlation in this calculation.
     * Please cite the following three references that made this development
     * possible:
     *
     *   M. Dion, H. Rydberg, E. Schroder, D. C. Langreth, and
     *   B. I. Lundqvist, Phys. Rev. Lett. 92, 246401 (2004).
     *
     *   T. Thonhauser, V. R. Cooper, S. Li, A. Puzder, P. Hyldgaard, and
     *   D. C. Langreth, Phys. Rev. B 76, 125112 (2007).
     *
     *   G. Roman-Perez and J. M. Soler, Phys. Rev. Lett. 103, 096102 (2009).
     *
     *
     * If you are using vdW-DF2, please also cite:
     *
     *   K. Lee, E. D. Murray, L. Kong, B. I. Lundqvist, and
     *   D. C. Langreth, Phys. Rev. B 82, 081101(R) (2010).
     *
     *
     * If you are calculating the stress with vdW-DF, please also cite:
     *
     *   R. Sabatini, E. Kucukbenli, B. Kolb, T. Thonhauser, and
     *   S. de Gironcoli, J. Phys.: Condens. Matter 24, 424209 (2012).
     *

     Carrying out vdW-DF run using the following parameters:

     Nqs =      20    Nr_points =    1024   r_max =   100.000
     q_mesh =
               0.00001000     0.04494208     0.09755937     0.15916263
               0.23128650     0.31572767     0.41458969     0.53033537
               0.66584808     0.82450364     1.01025438     1.22772762
               1.48234092     1.78043706     2.12944203     2.53805004
               3.01644009     3.57652955     4.23227104     5.00000000

     Gradients computed in reciprocal space

     Adding external electric field

     Computed dipole along edir(3) :
        Dipole               -1.9799 Ry au,         -5.0325 Debye
        Dipole field         -0.0067 Ry au

        Potential amp.        0.5955 Ry
        Total length         44.5710 bohr

     Starting wfc are  124 randomized atomic wfcs

     Self-consistent Calculation

     iteration #  1     ecut=    36.75 Ry     beta=0.30
     Davidson diagonalization with overlap
     ethr =  1.00E-02,  avg # of iterations =  6.2

[...]

     total energy              =   -2029.44572008 Ry
     Harris-Foulkes estimate   =   -2131.96510282 Ry
     estimated scf accuracy    <     213.63933345 Ry

[...]

     End of self-consistent calculation

          k = 0.0000 0.0000 0.0000 ( 14081 PWs)   bands (ev):

   -70.8657 -70.7840 -70.7232 -70.7228 -70.7206 -70.7022 -70.6918 -70.6862
   -70.6861 -70.6069 -70.6067 -70.6032 -42.4616 -42.4553 -42.4551 -42.3957
   -42.3871 -42.3870 -42.3729 -42.2693 -42.2684 -42.2684 -42.1170 -42.0541
   -42.0322 -42.0321 -41.9993 -41.9991 -41.9957 -41.9552 -41.9469 -41.9467
   -41.8673 -41.8670 -41.8670 -41.8519 -41.8475 -41.8475 -41.8161 -41.7838
   -41.7838 -41.7510 -41.7503 -41.7502 -41.7143 -41.7143 -41.6168 -41.6167
    -8.6809  -5.6753  -3.8244  -2.9822  -2.7935  -2.7934  -2.7381  -2.6704
    -2.6704  -2.5298  -2.1407  -2.1270  -2.1270  -1.9752  -1.9752  -1.9661
    -1.2595  -1.2595  -1.0604  -0.4854  -0.4854  -0.4119  -0.0318   0.0399
     0.0399   0.1562   0.4476   0.4476   0.6185   0.6185   0.6307   0.6985
     0.6986   0.7024   0.7831   0.7831   0.9342   1.1565   1.1682   1.1682
     1.5823   1.5824   1.7798   1.9804   1.9805   2.1618   2.1619   2.2537

[...]

          k =-0.0974 0.0562 0.0000 ( 14010 PWs)   bands (ev):

[...]

     the Fermi energy is     0.8687 ev

!    total energy              =   -2126.39604106 Ry
     Harris-Foulkes estimate   =   -2126.39604199 Ry
     estimated scf accuracy    <       0.00000556 Ry

     The total energy is the sum of the following terms:

     one-electron contribution =  -19866.45275449 Ry
     hartree contribution      =    9923.88924844 Ry
     xc contribution           =    -282.62190664 Ry
     ewald contribution        =    8098.92216631 Ry
     electric field correction =       0.00017442 Ry
     smearing contrib. (-TS)   =      -0.13296910 Ry

     convergence has been achieved in  42 iterations

 BEEF-vdW xc energy contributions
           1 :   -244.639902745043
           2 :    220.321921927945
           3 :   -179.696742025198
           4 :    134.961111049635
           5 :   -97.2180464566575
           6 :    72.4321999625241
           7 :   -60.3033851880007
           8 :    56.0971190423257
           9 :   -54.0273088216383
          10 :    50.2492967661569
          11 :   -44.0910272012495
          12 :    37.3126854796762
          13 :   -32.2509936689660
          14 :    30.1095101052978
          15 :   -30.3236192954956
          16 :    31.1452970896333
          17 :   -30.8758329724019
          18 :    28.8945762381853
          19 :   -25.8817264781436
          20 :    23.1974837752101
          21 :   -21.9071352355232
          22 :    22.1069071360097
          23 :   -22.9493107784948
          24 :    23.2789638669936
          25 :   -22.4092999482516
          26 :    20.5239644884367
          27 :   -18.4794946025827
          28 :    17.1902418775081
          29 :   -17.0289271801578
          30 :    17.6256731549460
          31 :   -24.2731262582188
          32 :   -17.4760289199251

     Forces acting on atoms (Ry/au):

     negative rho (up, down):  1.469E-02 0.000E+00
     atom    1 type  1   force =    -0.00158943   -0.00091413    0.00103461
     atom    2 type  1   force =     0.00158519   -0.00091571    0.00107403
     atom    3 type  1   force =    -0.00000126    0.00182815    0.00105217
     atom    4 type  1   force =     0.00000721   -0.00000402   -0.00142424
     atom    5 type  1   force =     0.00000383   -0.00228650   -0.00383930
     atom    6 type  1   force =    -0.00001115   -0.00000470    0.00968934
     atom    7 type  1   force =     0.00197623    0.00113993   -0.00383024
     atom    8 type  1   force =    -0.00197651    0.00115542   -0.00384323
     atom    9 type  1   force =    -0.00001218    0.00001238   -0.01964214
     atom   10 type  1   force =     0.00002508    0.01527197    0.05648808
     atom   11 type  1   force =     0.01322463   -0.00763564    0.05647770
     atom   12 type  1   force =    -0.01323393   -0.00765038    0.05648583
     atom   13 type  2   force =     0.00000230    0.00000323   -0.14972258

     Total force =     0.181863     Total SCF correction =     0.002863

     entering subroutine stress ...

     negative rho (up, down):  1.469E-02 0.000E+00
          total   stress  (Ry/bohr**3)                   (kbar)     P=  -27.54
  -0.00022703   0.00000000   0.00000002        -33.40      0.00      0.00
   0.00000000  -0.00022706   0.00000001          0.00    -33.40      0.00
   0.00000002   0.00000001  -0.00010751          0.00      0.00    -15.82

     BFGS Geometry Optimization

     number of scf cycles    =   1
     number of bfgs steps    =   0

     energy   new            =   -2126.3960410592 Ry

     new trust radius        =       0.1497225843 bohr
     new conv_thr            =       0.0000099958 Ry

ATOMIC_POSITIONS (crystal)
Cr1      0.166666667   0.166666667   0.413381306    0   0   0
Cr1      0.666666667   0.166666667   0.413381306    0   0   0
Cr1      0.166666667   0.666666667   0.413381306    0   0   0
Cr1      0.666666667   0.666666667   0.413381306    0   0   0
Cr1      0.833333333   0.333333333   0.500000000    0   0   0
Cr1      0.333333333   0.333333333   0.500000000    0   0   0
Cr1      0.833333333   0.833333333   0.500000000    0   0   0
Cr1      0.333333333   0.833333333   0.500000000    0   0   0
Cr1     -0.000001993   0.000001474   0.586189019
Cr1      0.499093512   0.001818148   0.587854382
Cr1      0.001817995   0.499090967   0.587854155
Cr1      0.499090957   0.499089212   0.587854333
C1       0.333333378   0.333333717   0.641113521

     Writing output data file calc.save
     Check: negative starting charge=   -0.014935
     NEW-OLD atomic charge density approx. for the potential

     Check: negative/imaginary core charge=   -0.000004    0.000000
     Check: negative starting charge=   -0.014557

[...]

     energy   old            =   -2126.3960410592 Ry
     energy   new            =   -2126.4243840289 Ry

     CASE: energy  _new < energy  _old

[...]

     Total force =     0.011692     Total SCF correction =     0.000296

[...]

     number of scf cycles    =  11
     number of bfgs steps    =  10

     energy   old            =   -2126.4603924748 Ry
     energy   new            =   -2126.4609054882 Ry

     CASE: energy  _new < energy  _old

     new trust radius        =       0.0165491363 bohr
     new conv_thr            =       0.0000001000 Ry

ATOMIC_POSITIONS (crystal)
Cr1      0.166666667   0.166666667   0.413381306    0   0   0
Cr1      0.666666667   0.166666667   0.413381306    0   0   0
Cr1      0.166666667   0.666666667   0.413381306    0   0   0
Cr1      0.666666667   0.666666667   0.413381306    0   0   0
Cr1      0.833333333   0.333333333   0.500000000    0   0   0
Cr1      0.333333333   0.333333333   0.500000000    0   0   0
Cr1      0.833333333   0.833333333   0.500000000    0   0   0
Cr1      0.333333333   0.833333333   0.500000000    0   0   0
Cr1      0.000002912  -0.000000335   0.572569738
Cr1      0.504539938  -0.009075915   0.590268586
Cr1     -0.009077896   0.504539511   0.590268368
Cr1      0.504537691   0.504540616   0.590268438
C1       0.333330956   0.333334485   0.634036751

     Writing output data file calc.save
     Check: negative starting charge=   -0.015173
     NEW-OLD atomic charge density approx. for the potential

     Check: negative/imaginary core charge=   -0.000004    0.000000
     Check: negative starting charge=   -0.015015

[...]

     Self-consistent Calculation

[...]

     total energy              =   -2126.46106128 Ry
     Harris-Foulkes estimate   =   -2126.46106133 Ry
     estimated scf accuracy    <       0.00000023 Ry

     iteration # 22     ecut=    36.75 Ry     beta=0.30
     Davidson diagonalization with overlap
     ethr =  1.34E-10,  avg # of iterations =  3.5

[...]

     negative rho (up, down):  1.512E-02 0.000E+00

     Adding external electric field

     Computed dipole along edir(3) :
        Dipole               -0.1791 Ry au,         -0.4551 Debye
        Dipole field         -0.0006 Ry au

        Potential amp.        0.0539 Ry
        Total length         44.5710 bohr

     End of self-consistent calculation

[...]

          k = 0.0649-0.0750 0.0000 ( 13990 PWs)   bands (ev):

[...]

          k =-0.0974-0.0562 0.0000 ( 14010 PWs)   bands (ev):

   -70.7813 -70.7621 -70.6949 -70.6699 -70.6527 -70.6475 -70.6192 -70.6123
   -70.5981 -70.5811 -70.5494 -70.5493 -42.4460 -42.3140 -42.3086 -42.2810
   -42.2451 -42.2250 -42.1891 -42.1308 -42.1204 -42.0874 -42.0811 -42.0593
   -42.0241 -41.9862 -41.9509 -41.9392 -41.9371 -41.9223 -41.9194 -41.9056
   -41.8856 -41.8806 -41.8686 -41.8618 -41.8343 -41.8281 -41.8280 -41.8235
   -41.7825 -41.7693 -41.7344 -41.7032 -41.6685 -41.6284 -41.6218 -41.6211
    -8.8624  -4.0302  -3.8466  -2.9306  -2.5031  -2.1936  -2.1046  -1.9901
    -1.9615  -1.8646  -1.8301  -1.8231  -1.4595  -1.3467  -1.2969  -1.2061
    -1.1076  -1.0523  -0.8815  -0.7684  -0.6861  -0.4743  -0.4739  -0.4286
    -0.2539  -0.2283  -0.1086  -0.0579   0.0597   0.0958   0.1886   0.2033
     0.2900   0.3890   0.4925   0.6142   0.6248   0.6994   0.7790   0.8360
     1.0215   1.2555   1.3563   1.5035   1.5119   1.5739   1.7940   1.8075

     the Fermi energy is     0.9353 ev

!    total energy              =   -2126.46106123 Ry
     Harris-Foulkes estimate   =   -2126.46106136 Ry
     estimated scf accuracy    <       0.00000007 Ry

     The total energy is the sum of the following terms:

     one-electron contribution =  -19970.31397867 Ry
     hartree contribution      =    9976.06829737 Ry
     xc contribution           =    -282.90353967 Ry
     ewald contribution        =    8150.80917666 Ry
     electric field correction =       0.00010819 Ry
     smearing contrib. (-TS)   =      -0.12112512 Ry

     convergence has been achieved in  22 iterations

 BEEF-vdW xc energy contributions
           1 :   -244.924254414643
           2 :    220.667047506134
           3 :   -180.097193229082
           4 :    135.337381959688
           5 :   -97.4617705596955
           6 :    72.4646507093932
           7 :   -60.1146064897468
           8 :    55.7504612493399
           9 :   -53.6323494265183
          10 :    49.9146653229442
          11 :   -43.8735950147020
          12 :    37.1870727351291
          13 :   -32.1219925358828
          14 :    29.8695956017287
          15 :   -29.9248993529221
          16 :    30.6385334868850
          17 :   -30.3878952846756
          18 :    28.5554053742236
          19 :   -25.7466803207523
          20 :    23.2147620849639
          21 :   -21.9498094280377
          22 :    22.0482726053604
          23 :   -22.7356073855439
          24 :    22.9572856002524
          25 :   -22.0952770536685
          26 :    20.3286794534458
          27 :   -18.4394807281287
          28 :    17.2437127174453
          29 :   -17.0539971250535
          30 :    17.5175791877568
          31 :   -24.2909143273392
          32 :   -17.5027259006014

     Forces acting on atoms (Ry/au):

     negative rho (up, down):  1.512E-02 0.000E+00
     atom    1 type  1   force =    -0.00126817   -0.00073259   -0.00000313
     atom    2 type  1   force =     0.00126904   -0.00073128   -0.00000049
     atom    3 type  1   force =     0.00000071    0.00146506   -0.00000209
     atom    4 type  1   force =    -0.00000029   -0.00000020    0.00489987
     atom    5 type  1   force =     0.00000249    0.01722938   -0.01733412
     atom    6 type  1   force =    -0.00000324   -0.00000008    0.04325455
     atom    7 type  1   force =    -0.01492003   -0.00861672   -0.01733491
     atom    8 type  1   force =     0.01492006   -0.00861293   -0.01733824
     atom    9 type  1   force =    -0.00000112    0.00000185   -0.00054435
     atom   10 type  1   force =    -0.00000001    0.00086560    0.00150075
     atom   11 type  1   force =     0.00075042   -0.00043395    0.00149883
     atom   12 type  1   force =    -0.00075078   -0.00043659    0.00150407
     atom   13 type  2   force =     0.00000093    0.00000243   -0.00010076

     Total force =     0.003053     Total SCF correction =     0.000672
     SCF correction compared to forces is large: reduce conv_thr to get better values

     entering subroutine stress ...

     negative rho (up, down):  1.512E-02 0.000E+00
          total   stress  (Ry/bohr**3)                   (kbar)     P=  -14.42
  -0.00014109  -0.00000000  -0.00000000        -20.75     -0.00     -0.00
  -0.00000000  -0.00014107  -0.00000000         -0.00    -20.75     -0.00
  -0.00000000  -0.00000000  -0.00001192         -0.00     -0.00     -1.75

     bfgs converged in  12 scf cycles and  11 bfgs steps
     (criteria: energy <  1.0E+00, force <  1.9E-03)

     End of BFGS Geometry Optimization

     Final energy   =   -2126.4610612328 Ry
Begin final coordinates

ATOMIC_POSITIONS (crystal)
Cr1      0.166666667   0.166666667   0.413381306    0   0   0
Cr1      0.666666667   0.166666667   0.413381306    0   0   0
Cr1      0.166666667   0.666666667   0.413381306    0   0   0
Cr1      0.666666667   0.666666667   0.413381306    0   0   0
Cr1      0.833333333   0.333333333   0.500000000    0   0   0
Cr1      0.333333333   0.333333333   0.500000000    0   0   0
Cr1      0.833333333   0.833333333   0.500000000    0   0   0
Cr1      0.333333333   0.833333333   0.500000000    0   0   0
Cr1      0.000002912  -0.000000335   0.572569738
Cr1      0.504539938  -0.009075915   0.590268586
Cr1     -0.009077896   0.504539511   0.590268368
Cr1      0.504537691   0.504540616   0.590268438
C1       0.333330956   0.333334485   0.634036751
End final coordinates

     Writing output data file calc.save

     General routines

     Parallel routines

   This run was terminated on:  14:54:15   2May2018

   JOB DONE.
Job  /afs/slac/g/suncat/bin/suncat-tsmpirun -x LD_LIBRARY_PATH -wdir /scratch/qe642481_hEwr2 pw.x -npool 4 -in pw.inp

TID   HOST_NAME   COMMAND_LINE            STATUS            TERMINATION_TIME
00000 suncat0151 pw.x -npool 4 -i  Done                     05/02/2018 14:54:15
00001 suncat0151 pw.x -npool 4 -i  Done                     05/02/2018 14:54:15
00002 suncat0151 pw.x -npool 4 -i  Done                     05/02/2018 14:54:15
00003 suncat0151 pw.x -npool 4 -i  Done                     05/02/2018 14:54:15
00004 suncat0151 pw.x -npool 4 -i  Done                     05/02/2018 14:54:15
00005 suncat0151 pw.x -npool 4 -i  Done                     05/02/2018 14:54:15
00006 suncat0151 pw.x -npool 4 -i  Done                     05/02/2018 14:54:15
00007 suncat0151 pw.x -npool 4 -i  Done                     05/02/2018 14:54:15
00008 suncat0279 pw.x -npool 4 -i  Done                     05/02/2018 14:54:15
00009 suncat0279 pw.x -npool 4 -i  Done                     05/02/2018 14:54:15
00010 suncat0279 pw.x -npool 4 -i  Done                     05/02/2018 14:54:15
00011 suncat0279 pw.x -npool 4 -i  Done                     05/02/2018 14:54:15
00012 suncat0279 pw.x -npool 4 -i  Done                     05/02/2018 14:54:15
00013 suncat0279 pw.x -npool 4 -i  Done                     05/02/2018 14:54:15
00014 suncat0279 pw.x -npool 4 -i  Done                     05/02/2018 14:54:15
00015 suncat0279 pw.x -npool 4 -i  Done                     05/02/2018 14:54:15
00016 suncat0251 pw.x -npool 4 -i  Done                     05/02/2018 14:54:15
00017 suncat0251 pw.x -npool 4 -i  Done                     05/02/2018 14:54:15
00018 suncat0251 pw.x -npool 4 -i  Done                     05/02/2018 14:54:15
00019 suncat0251 pw.x -npool 4 -i  Done                     05/02/2018 14:54:15
00020 suncat0251 pw.x -npool 4 -i  Done                     05/02/2018 14:54:15
00021 suncat0251 pw.x -npool 4 -i  Done                     05/02/2018 14:54:15
00022 suncat0251 pw.x -npool 4 -i  Done                     05/02/2018 14:54:15
00023 suncat0251 pw.x -npool 4 -i  Done                     05/02/2018 14:54:15
00024 suncat0205 pw.x -npool 4 -i  Done                     05/02/2018 14:54:15
00025 suncat0205 pw.x -npool 4 -i  Done                     05/02/2018 14:54:15
00026 suncat0205 pw.x -npool 4 -i  Done                     05/02/2018 14:54:15
00027 suncat0205 pw.x -npool 4 -i  Done                     05/02/2018 14:54:15
00028 suncat0205 pw.x -npool 4 -i  Done                     05/02/2018 14:54:15
00029 suncat0205 pw.x -npool 4 -i  Done                     05/02/2018 14:54:15
00030 suncat0205 pw.x -npool 4 -i  Done                     05/02/2018 14:54:15
00031 suncat0205 pw.x -npool 4 -i  Done                     05/02/2018 14:54:15