     Program PWSCF v.5.1rc2 (svn rev. ) starts on 22Feb2018 at 22:48:50

     Current dimensions of program PWSCF are:
     Max number of different atomic species (ntypx) = 10
     Max number of k-points (npk) =  40000
     Max angular momentum in pseudopotentials (lmaxx) =  3
     Presently stress not available with electric field

     IMPORTANT: XC functional enforced from input :
     Exchange-correlation      = BEEF-VDW ( 1  4 27 13 2)
     Any further DFT definition will be discarded
     Please, verify this is what you really want

     Subspace diagonalization in iterative solution of the eigenvalue problem:
     a serial algorithm will be used

     bravais-lattice index     =            0
     lattice parameter (alat)  =       1.8897  a.u.
     unit-cell volume          =    7276.7660 (a.u.)^3
     number of atoms/cell      =           13
     number of atomic types    =            2
     number of electrons       =       186.00
     number of Kohn-Sham states=          103
     kinetic-energy cutoff     =      36.7493  Ry
     charge density cutoff     =     367.4932  Ry
     convergence threshold     =      1.0E-05
     mixing beta               =       0.3000
     number of iterations used =           10  plain     mixing
     Exchange-correlation      = BEEF-VDW ( 1  4 27 13 2)
     nstep                     =           50

     celldm(1)=   1.889726  celldm(2)=   0.000000  celldm(3)=   0.000000
     celldm(4)=   0.000000  celldm(5)=   0.000000  celldm(6)=   0.000000

     crystal axes: (cart. coord. in units of alat)
               a(1) = (   6.962526   0.000000   0.000000 )
               a(2) = (   3.481263   6.029724   0.000000 )
               a(3) = (   0.000000   0.000000  25.684879 )

     reciprocal axes: (cart. coord. in units 2 pi/alat)
               b(1) = (  0.143626 -0.082923  0.000000 )
               b(2) = (  0.000000  0.165845  0.000000 )
               b(3) = (  0.000000  0.000000  0.038933 )

     PseudoPot. # 1 for Bi read from file:
     /home/mamunm/src/pseudo/gbrv1.5pbe/Bi.UPF
     MD5 check sum: 81103212dc04adf40945787f699eab19
     Pseudo is Ultrasoft + core correction, Zval = 15.0
     Generated by new atomic code, or converted to UPF format
     Using radial grid of  899 points,  6 beta functions with:
                l(1) =   0
                l(2) =   0
                l(3) =   1
                l(4) =   1
                l(5) =   2
                l(6) =   2
     Q(r) pseudized with  6 coefficients,  rinner =    1.000   1.000   1.000
                                                       1.000   1.000

     PseudoPot. # 2 for S  read from file:
     /home/mamunm/src/pseudo/gbrv1.5pbe/S.UPF
     MD5 check sum: 88d86576ff6df21479756cfb9bdac1df
     Pseudo is Ultrasoft + core correction, Zval =  6.0
     Generated by new atomic code, or converted to UPF format
     Using radial grid of  907 points,  6 beta functions with:
                l(1) =   0
                l(2) =   0
                l(3) =   1
                l(4) =   1
                l(5) =   2
                l(6) =   2
     Q(r) pseudized with  8 coefficients,  rinner =    1.300   1.300   1.300
                                                       1.300   1.300

     vdW kernel table read from file vdW_kernel_table
     MD5 check sum: 095c7af220d748ca6e76c0b4c6cfb241

     atomic species   valence    mass     pseudopotential
        Bi1           15.00   208.98040     Bi( 1.00)
        S1             6.00    32.06000     S ( 1.00)

     No symmetry found

   Cartesian axes

     site n.     atom                  positions (alat units)
         1           Bi1 tau(   1) = (   1.7406315   1.0049541  10.0000000  )
         2           Bi1 tau(   2) = (   5.2218945   1.0049541  10.0000000  )
         3           Bi1 tau(   3) = (   3.4812630   4.0198163  10.0000000  )
         4           Bi1 tau(   4) = (   6.9625260   4.0198163  10.0000000  )
         5           Bi1 tau(   5) = (   6.9625260   2.0099081  12.8424393  )
         6           Bi1 tau(   6) = (   3.4812630   2.0099081  12.8424393  )
         7           Bi1 tau(   7) = (   8.7031575   5.0247703  12.8424393  )
         8           Bi1 tau(   8) = (   5.2218945   5.0247703  12.8424393  )
         9           Bi1 tau(   9) = (   0.0000000   0.0000000  15.6848787  )
        10           Bi1 tau(  10) = (   3.4812630   0.0000000  15.6848787  )
        11           Bi1 tau(  11) = (   1.7406315   3.0148622  15.6848787  )
        12           Bi1 tau(  12) = (   5.2218945   3.0148622  15.6848787  )
        13           S1  tau(  13) = (   1.7406315   1.0049541  17.3293787  )

     number of k points=    20  Fermi-Dirac smearing, width (Ry)=  0.0110
                       cart. coord. in units 2pi/alat
        k(    1) = (   0.0000000   0.0000000   0.0000000), wk =   0.0555556
        k(    2) = (   0.0000000   0.0276408   0.0000000), wk =   0.1111111
        k(    3) = (   0.0000000   0.0552817   0.0000000), wk =   0.1111111
        k(    4) = (   0.0000000  -0.0829225   0.0000000), wk =   0.0555556
        k(    5) = (   0.0239377  -0.0138204   0.0000000), wk =   0.1111111
        k(    6) = (   0.0239377   0.0138204   0.0000000), wk =   0.1111111
        k(    7) = (   0.0239377   0.0414613   0.0000000), wk =   0.1111111
        k(    8) = (   0.0239377  -0.0967430   0.0000000), wk =   0.1111111
        k(    9) = (   0.0239377  -0.0691021   0.0000000), wk =   0.1111111
        k(   10) = (   0.0239377  -0.0414613   0.0000000), wk =   0.1111111
        k(   11) = (   0.0478753  -0.0276408   0.0000000), wk =   0.1111111
        k(   12) = (   0.0478753   0.0000000   0.0000000), wk =   0.1111111
        k(   13) = (   0.0478753   0.0276408   0.0000000), wk =   0.1111111
        k(   14) = (   0.0478753  -0.1105634   0.0000000), wk =   0.1111111
        k(   15) = (   0.0478753  -0.0829225   0.0000000), wk =   0.1111111
        k(   16) = (   0.0478753  -0.0552817   0.0000000), wk =   0.1111111
        k(   17) = (  -0.0718130   0.0414613   0.0000000), wk =   0.0555556
        k(   18) = (  -0.0718130   0.0691021   0.0000000), wk =   0.1111111
        k(   19) = (  -0.0718130   0.0967430   0.0000000), wk =   0.1111111
        k(   20) = (  -0.0718130  -0.0414613   0.0000000), wk =   0.0555556

     Largest allocated arrays     est. size (Mb)     dimensions
     Largest temporary arrays     est. size (Mb)     dimensions

     Check: negative/imaginary core charge=   -0.000001    0.000000

     Initial potential from superposition of free atoms
     Check: negative starting charge=   -0.503121

     starting charge  173.99946, renormalised to  186.00000

     negative rho (up, down):  5.378E-01 0.000E+00

     *
     * You are using vdW-DF for exchange-correlation in this calculation.
     * Please cite the following three references that made this development
     * possible:
     *
     *   M. Dion, H. Rydberg, E. Schroder, D. C. Langreth, and
     *   B. I. Lundqvist, Phys. Rev. Lett. 92, 246401 (2004).
     *
     *   T. Thonhauser, V. R. Cooper, S. Li, A. Puzder, P. Hyldgaard, and
     *   D. C. Langreth, Phys. Rev. B 76, 125112 (2007).
     *
     *   G. Roman-Perez and J. M. Soler, Phys. Rev. Lett. 103, 096102 (2009).
     *
     *
     * If you are using vdW-DF2, please also cite:
     *
     *   K. Lee, E. D. Murray, L. Kong, B. I. Lundqvist, and
     *   D. C. Langreth, Phys. Rev. B 82, 081101(R) (2010).
     *
     *
     * If you are calculating the stress with vdW-DF, please also cite:
     *
     *   R. Sabatini, E. Kucukbenli, B. Kolb, T. Thonhauser, and
     *   S. de Gironcoli, J. Phys.: Condens. Matter 24, 424209 (2012).
     *

     Carrying out vdW-DF run using the following parameters:

     Nqs =      20    Nr_points =    1024   r_max =   100.000
     q_mesh =
               0.00001000     0.04494208     0.09755937     0.15916263
               0.23128650     0.31572767     0.41458969     0.53033537
               0.66584808     0.82450364     1.01025438     1.22772762
               1.48234092     1.78043706     2.12944203     2.53805004
               3.01644009     3.57652955     4.23227104     5.00000000

     Gradients computed in reciprocal space

     Adding external electric field

     Computed dipole along edir(3) :
        Dipole               -3.5084 Ry au,         -8.9175 Debye
        Dipole field         -0.0061 Ry au

        Potential amp.        0.5734 Ry
        Total length         47.3240 bohr

     Starting wfc are  112 randomized atomic wfcs

     Self-consistent Calculation

     iteration #  1     ecut=    36.75 Ry     beta=0.30
     Davidson diagonalization with overlap
     ethr =  1.00E-02,  avg # of iterations =  8.2

[...]

     total energy              =   -2229.52986710 Ry
     Harris-Foulkes estimate   =   -2272.93857060 Ry
     estimated scf accuracy    <      91.91549355 Ry

[...]

     End of self-consistent calculation

          k = 0.0000 0.0000 0.0000 ( 27441 PWs)   bands (ev):

   -22.3876 -22.3681 -22.3681 -22.3519 -22.3293 -22.3148 -22.3148 -22.3117
   -22.2935 -22.2935 -22.2835 -22.2835 -22.2806 -22.2767 -22.2737 -22.2737
   -22.2507 -22.2506 -22.2382 -22.2382 -22.1941 -22.1938 -22.1764 -22.1763
   -22.1691 -22.1560 -22.1560 -22.1428 -22.1428 -22.0882 -22.0820 -22.0805
   -22.0805 -22.0409 -22.0409 -22.0289 -22.0213 -22.0159 -22.0159 -22.0123
   -22.0123 -21.9927 -21.9927 -21.9530 -21.9477 -21.9477 -21.9454 -21.9290
   -21.9290 -21.9222 -21.9207 -21.9207 -21.9172 -21.9172 -21.9062 -21.9062
   -21.9023 -21.8977 -21.8977 -21.8921 -13.0227 -11.9372 -10.6678  -9.6128
    -9.4569  -9.4569  -9.2321  -9.0095  -9.0095  -8.6679  -8.4675  -8.4675
    -8.2167  -3.8349  -3.8349  -3.8202  -3.1778  -2.9561  -2.7935  -2.7935
    -2.7322  -2.7322  -2.5752  -1.5286  -1.5286  -0.4611   0.3245   1.0417
     1.0417   1.0578   1.7642   1.7642   1.8074   2.1379   2.3187   2.3187
     2.8025   3.1517   3.1517   3.2642   3.6805   3.6805   3.9026

[...]

          k =-0.0718 0.0415 0.0000 ( 27378 PWs)   bands (ev):

[...]

     the Fermi energy is     1.4470 ev

!    total energy              =   -2270.22838335 Ry
     Harris-Foulkes estimate   =   -2270.22838818 Ry
     estimated scf accuracy    <       0.00000390 Ry

     The total energy is the sum of the following terms:

     one-electron contribution =  -10990.81763591 Ry
     hartree contribution      =    5551.68491785 Ry
     xc contribution           =    -807.89935612 Ry
     ewald contribution        =    3976.86083371 Ry
     electric field correction =       0.00006003 Ry
     smearing contrib. (-TS)   =      -0.05720290 Ry

     convergence has been achieved in  16 iterations

 BEEF-vdW xc energy contributions
           1 :   -720.067860249248
           2 :    669.071959051782
           3 :   -579.077117010493
           4 :    469.602068725545
           5 :   -361.192992862193
           6 :    269.468923440457
           7 :   -201.579486001513
           8 :    155.997161308834
           9 :   -125.338729306772
          10 :    100.757465699987
          11 :   -75.9565853375252
          12 :    49.2378716128669
          13 :   -23.0566119708552
          14 :    1.71776536912375
          15 :    11.4130647486500
          16 :   -15.8022704298688
          17 :    13.9678360576453
          18 :   -10.1348336851372
          19 :    8.16450883267862
          20 :   -9.85854178402599
          21 :    14.4394134283029
          22 :   -19.3529157769160
          23 :    21.8641322189740
          24 :   -20.5723476631789
          25 :    16.0878699688170
          26 :   -10.6039259585689
          27 :    6.67303405186249
          28 :   -5.87634857634407
          29 :    8.07787156688164
          30 :   -11.6100161574501
          31 :   -57.7086359071193
          32 :   -42.4668951635250

     Forces acting on atoms (Ry/au):

     negative rho (up, down):  5.269E-01 0.000E+00
     atom    1 type  1   force =    -0.00002069   -0.00000679   -0.00813624
     atom    2 type  1   force =     0.00001645    0.00594706   -0.00918905
     atom    3 type  1   force =     0.00513353   -0.00296556   -0.00917274
     atom    4 type  1   force =    -0.00514780   -0.00298922   -0.00920867
     atom    5 type  1   force =     0.00005040   -0.00001758   -0.00610134
     atom    6 type  1   force =    -0.00004792   -0.00001374   -0.00610469
     atom    7 type  1   force =     0.00000550   -0.00000997   -0.01278366
     atom    8 type  1   force =     0.00000211    0.00004885   -0.00611490
     atom    9 type  1   force =    -0.03318446   -0.01915469   -0.00596783
     atom   10 type  1   force =     0.03318130   -0.01915201   -0.00596722
     atom   11 type  1   force =     0.00000291    0.03831590   -0.00597224
     atom   12 type  1   force =    -0.00000107   -0.00000724    0.01038721
     atom   13 type  2   force =     0.00000973    0.00000499    0.07433136

     Total force =     0.100717     Total SCF correction =     0.009697

     entering subroutine stress ...

     negative rho (up, down):  5.269E-01 0.000E+00
          total   stress  (Ry/bohr**3)                   (kbar)     P=   13.94
   0.00009616  -0.00000001   0.00000000         14.14     -0.00      0.00
  -0.00000001   0.00009616  -0.00000000         -0.00     14.15     -0.00
   0.00000000  -0.00000000   0.00009191          0.00     -0.00     13.52

     BFGS Geometry Optimization

     number of scf cycles    =   1
     number of bfgs steps    =   0

     energy   new            =   -2270.2283833453 Ry

     new trust radius        =       0.0743313639 bohr
     new conv_thr            =       0.0000099958 Ry

ATOMIC_POSITIONS (crystal)
Bi1      0.166666667   0.166666667   0.389334134    0   0   0
Bi1      0.666666667   0.166666667   0.389334134    0   0   0
Bi1      0.166666667   0.666666667   0.389334134    0   0   0
Bi1      0.666666667   0.666666667   0.389334134    0   0   0
Bi1      0.833333333   0.333333333   0.500000000    0   0   0
Bi1      0.333333333   0.333333333   0.500000000    0   0   0
Bi1      0.833333333   0.833333333   0.500000000    0   0   0
Bi1      0.333333333   0.833333333   0.500000000    0   0   0
Bi1     -0.001681617  -0.001681043   0.610542912
Bi1      0.503362303  -0.001680807   0.610542925
Bi1     -0.001681108   0.503362658   0.610542822
Bi1      0.500000236   0.499999365   0.610879870
S1       0.166667187   0.166667105   0.676223289

     Writing output data file calc.save
     Check: negative starting charge=   -0.503121
     NEW-OLD atomic charge density approx. for the potential

     Check: negative/imaginary core charge=   -0.000001    0.000000
     Check: negative starting charge=   -0.502501

[...]

     energy   old            =   -2270.2283833453 Ry
     energy   new            =   -2270.2371098988 Ry

     CASE: energy  _new < energy  _old

[...]

     iteration #  1     ecut=    36.75 Ry     beta=0.30
     Davidson diagonalization with overlap
     c_bands:  1 eigenvalues not converged
     c_bands:  1 eigenvalues not converged
     c_bands:  1 eigenvalues not converged
     ethr =  1.00E-06,  avg # of iterations = 13.4

[...]

     Total force =     0.005961     Total SCF correction =     0.000449

[...]

     number of scf cycles    =  15
     number of bfgs steps    =  14

     energy   old            =   -2270.2634403649 Ry
     energy   new            =   -2270.2638549665 Ry

     CASE: energy  _new < energy  _old

     new trust radius        =       0.0769463282 bohr
     new conv_thr            =       0.0000001000 Ry

ATOMIC_POSITIONS (crystal)
Bi1      0.166666667   0.166666667   0.389334134    0   0   0
Bi1      0.666666667   0.166666667   0.389334134    0   0   0
Bi1      0.166666667   0.666666667   0.389334134    0   0   0
Bi1      0.666666667   0.666666667   0.389334134    0   0   0
Bi1      0.833333333   0.333333333   0.500000000    0   0   0
Bi1      0.333333333   0.333333333   0.500000000    0   0   0
Bi1      0.833333333   0.833333333   0.500000000    0   0   0
Bi1      0.333333333   0.833333333   0.500000000    0   0   0
Bi1     -0.004273221  -0.004272429   0.626788630
Bi1      0.508568255  -0.004266434   0.626795892
Bi1     -0.004267077   0.508571231   0.626796300
Bi1      0.500003856   0.499998304   0.615133968
S1       0.166639678   0.166639597   0.698814554

     Writing output data file calc.save
     Check: negative starting charge=   -0.503363
     NEW-OLD atomic charge density approx. for the potential

     Check: negative/imaginary core charge=   -0.000001    0.000000
     Check: negative starting charge=   -0.502157

[...]

     Self-consistent Calculation

[...]

     total energy              =   -2270.26404768 Ry
     Harris-Foulkes estimate   =   -2270.26404776 Ry
     estimated scf accuracy    <       0.00000011 Ry

     iteration #  9     ecut=    36.75 Ry     beta=0.30
     Davidson diagonalization with overlap
     ethr =  5.85E-11,  avg # of iterations =  3.3

[...]

     negative rho (up, down):  5.249E-01 0.000E+00

     Adding external electric field

     Computed dipole along edir(3) :
        Dipole               -0.3809 Ry au,         -0.9683 Debye
        Dipole field         -0.0007 Ry au

        Potential amp.        0.0623 Ry
        Total length         47.3240 bohr

     End of self-consistent calculation

[...]

          k = 0.0479-0.0553 0.0000 ( 27352 PWs)   bands (ev):

[...]

          k =-0.0718-0.0415 0.0000 ( 27378 PWs)   bands (ev):

   -22.3986 -22.3576 -22.3561 -22.3433 -22.3334 -22.3295 -22.3259 -22.3237
   -22.3227 -22.3225 -22.3204 -22.3190 -22.3170 -22.3050 -22.2936 -22.2935
   -22.2809 -22.2743 -22.2674 -22.2591 -22.2569 -22.2470 -22.2410 -22.2244
   -22.2200 -22.2180 -22.2097 -22.2045 -22.2034 -22.2028 -22.1879 -22.1831
   -22.1831 -22.1698 -22.1694 -22.1650 -22.1554 -22.1518 -22.1513 -22.1262
   -22.1187 -22.1178 -22.1168 -22.1148 -22.1125 -22.1102 -22.1093 -22.1045
   -22.1021 -22.0997 -22.0926 -22.0855 -22.0813 -22.0532 -22.0507 -22.0476
   -22.0358 -22.0127 -22.0117 -21.9980 -11.9352 -11.0992 -11.0117 -10.3253
    -9.8315  -9.5351  -9.4994  -9.4202  -9.1972  -9.0126  -8.6765  -8.5323
    -8.3812  -2.7799  -2.2458  -2.1455  -2.0763  -2.0029  -1.9933  -1.7781
    -1.5687  -1.5676  -1.4132  -0.6744  -0.5623  -0.5103  -0.2712  -0.1106
     0.3438   0.6601   0.7214   0.7298   0.7989   0.9157   0.9345   1.1930
     1.2821   1.6023   1.6438   2.0053   2.6998   2.8468   3.2243

     the Fermi energy is     1.3259 ev

!    total energy              =   -2270.26404772 Ry
     Harris-Foulkes estimate   =   -2270.26404769 Ry
     estimated scf accuracy    <       0.00000002 Ry

     The total energy is the sum of the following terms:

     one-electron contribution =  -10385.35367566 Ry
     hartree contribution      =    5248.46479119 Ry
     xc contribution           =    -807.53230560 Ry
     ewald contribution        =    3674.21289552 Ry
     electric field correction =       0.00025061 Ry
     smearing contrib. (-TS)   =      -0.05600379 Ry

     convergence has been achieved in   9 iterations

 BEEF-vdW xc energy contributions
           1 :   -719.687257703773
           2 :    668.488681650272
           3 :   -578.234965300648
           4 :    468.636577430724
           5 :   -360.362087554885
           6 :    269.013988498501
           7 :   -201.589141448828
           8 :    156.349584110357
           9 :   -125.757801533455
          10 :    100.955345696680
          11 :   -75.7860214163782
          12 :    48.7697856308394
          13 :   -22.5387911797397
          14 :    1.43655663260347
          15 :    11.2923695184058
          16 :   -15.3292814848797
          17 :    13.3835504482643
          18 :   -9.74312616124325
          19 :    8.16811981810429
          20 :   -10.2488412218800
          21 :    15.0000119008794
          22 :   -19.7755821217072
          23 :    21.9143726714194
          24 :   -20.2151334748031
          25 :    15.5061232698893
          26 :   -10.1001537598754
          27 :    6.50717382730375
          28 :   -6.12754600858057
          29 :    8.60387709421434
          30 :   -12.1251078753364
          31 :   -57.6764468127976
          32 :   -42.3801631445247

     Forces acting on atoms (Ry/au):

     negative rho (up, down):  5.249E-01 0.000E+00
     atom    1 type  1   force =     0.00000668    0.00000401   -0.00416798
     atom    2 type  1   force =    -0.00000073    0.00309974   -0.00491039
     atom    3 type  1   force =     0.00268435   -0.00155055   -0.00491043
     atom    4 type  1   force =    -0.00268494   -0.00155010   -0.00490559
     atom    5 type  1   force =     0.00314860   -0.00181350    0.00198088
     atom    6 type  1   force =    -0.00314696   -0.00181670    0.00198302
     atom    7 type  1   force =    -0.00000552   -0.00000342    0.01309685
     atom    8 type  1   force =     0.00000353    0.00363354    0.00198065
     atom    9 type  1   force =    -0.00049175   -0.00028382   -0.00014925
     atom   10 type  1   force =     0.00049505   -0.00030118   -0.00013641
     atom   11 type  1   force =    -0.00001304    0.00058000   -0.00013613
     atom   12 type  1   force =    -0.00000072   -0.00000093   -0.00127404
     atom   13 type  2   force =     0.00000545    0.00000291    0.00154882

     Total force =     0.002253     Total SCF correction =     0.000341
     SCF correction compared to forces is large: reduce conv_thr to get better values

     entering subroutine stress ...

     negative rho (up, down):  5.249E-01 0.000E+00
          total   stress  (Ry/bohr**3)                   (kbar)     P=    1.68
   0.00001734  -0.00000000   0.00000001          2.55     -0.00      0.00
  -0.00000000   0.00001734   0.00000000         -0.00      2.55      0.00
   0.00000001   0.00000000  -0.00000042          0.00      0.00     -0.06

     bfgs converged in  16 scf cycles and  15 bfgs steps
     (criteria: energy <  1.0E+00, force <  1.9E-03)

     End of BFGS Geometry Optimization

     Final energy   =   -2270.2640477213 Ry
Begin final coordinates

ATOMIC_POSITIONS (crystal)
Bi1      0.166666667   0.166666667   0.389334134    0   0   0
Bi1      0.666666667   0.166666667   0.389334134    0   0   0
Bi1      0.166666667   0.666666667   0.389334134    0   0   0
Bi1      0.666666667   0.666666667   0.389334134    0   0   0
Bi1      0.833333333   0.333333333   0.500000000    0   0   0
Bi1      0.333333333   0.333333333   0.500000000    0   0   0
Bi1      0.833333333   0.833333333   0.500000000    0   0   0
Bi1      0.333333333   0.833333333   0.500000000    0   0   0
Bi1     -0.004273221  -0.004272429   0.626788630
Bi1      0.508568255  -0.004266434   0.626795892
Bi1     -0.004267077   0.508571231   0.626796300
Bi1      0.500003856   0.499998304   0.615133968
S1       0.166639678   0.166639597   0.698814554
End final coordinates

     Writing output data file calc.save

     General routines

     Parallel routines

   This run was terminated on:   0:19: 1  23Feb2018

   JOB DONE.