     Program PWSCF v.5.1rc2 (svn rev. 11289) starts on 16Jan2018 at 18:53: 0

     Current dimensions of program PWSCF are:
     Max number of different atomic species (ntypx) = 10
     Max number of k-points (npk) =  40000
     Max angular momentum in pseudopotentials (lmaxx) =  3
     Presently stress not available with electric field

     IMPORTANT: XC functional enforced from input :
     Exchange-correlation      = BEEF-VDW ( 1  4 27 13 2)
     Any further DFT definition will be discarded
     Please, verify this is what you really want

     Subspace diagonalization in iterative solution of the eigenvalue problem:
     a serial algorithm will be used

     bravais-lattice index     =            0
     lattice parameter (alat)  =       1.8897  a.u.
     unit-cell volume          =    4299.0717 (a.u.)^3
     number of atoms/cell      =           13
     number of atomic types    =            2
     number of electrons       =       186.00
     number of Kohn-Sham states=          103
     kinetic-energy cutoff     =      36.7493  Ry
     charge density cutoff     =     367.4932  Ry
     convergence threshold     =      1.0E-05
     mixing beta               =       0.3000
     number of iterations used =           10  plain     mixing
     Exchange-correlation      = BEEF-VDW ( 1  4 27 13 2)
     nstep                     =           50

     celldm(1)=   1.889726  celldm(2)=   0.000000  celldm(3)=   0.000000
     celldm(4)=   0.000000  celldm(5)=   0.000000  celldm(6)=   0.000000

     crystal axes: (cart. coord. in units of alat)
               a(1) = (   5.482164   0.000000   0.000000 )
               a(2) = (   2.741082   4.747693   0.000000 )
               a(3) = (   0.000000   0.000000  24.476168 )

     reciprocal axes: (cart. coord. in units 2 pi/alat)
               b(1) = (  0.182410 -0.105314  0.000000 )
               b(2) = (  0.000000  0.210629  0.000000 )
               b(3) = (  0.000000  0.000000  0.040856 )

     PseudoPot. # 1 for Ir read from file:
     /afs/slac.stanford.edu/u/if/mamunm/psp/gbrv1.5pbe/Ir.UPF
     MD5 check sum: 8836f839c3459d2b385c504ce6d91f2c
     Pseudo is Ultrasoft + core correction, Zval = 15.0
     Generated by new atomic code, or converted to UPF format
     Using radial grid of  983 points,  7 beta functions with:
                l(1) =   0
                l(2) =   0
                l(3) =   1
                l(4) =   1
                l(5) =   1
                l(6) =   2
                l(7) =   2
     Q(r) pseudized with  8 coefficients,  rinner =    1.400   1.400   1.400
                                                       1.400   1.400

     PseudoPot. # 2 for S  read from file:
     /afs/slac.stanford.edu/u/if/mamunm/psp/gbrv1.5pbe/S.UPF
     MD5 check sum: 88d86576ff6df21479756cfb9bdac1df
     Pseudo is Ultrasoft + core correction, Zval =  6.0
     Generated by new atomic code, or converted to UPF format
     Using radial grid of  907 points,  6 beta functions with:
                l(1) =   0
                l(2) =   0
                l(3) =   1
                l(4) =   1
                l(5) =   2
                l(6) =   2
     Q(r) pseudized with  8 coefficients,  rinner =    1.300   1.300   1.300
                                                       1.300   1.300

     vdW kernel table read from file vdW_kernel_table
     MD5 check sum: 095c7af220d748ca6e76c0b4c6cfb241

     atomic species   valence    mass     pseudopotential
        Ir1           15.00   192.21700     Ir( 1.00)
        S1             6.00    32.06000     S ( 1.00)

     No symmetry found

   Cartesian axes

     site n.     atom                  positions (alat units)
         1           Ir1 tau(   1) = (   1.3705410   0.7912822  10.0000000  )
         2           Ir1 tau(   2) = (   4.1116229   0.7912822  10.0000000  )
         3           Ir1 tau(   3) = (   2.7410819   3.1651288  10.0000000  )
         4           Ir1 tau(   4) = (   5.4821639   3.1651288  10.0000000  )
         5           Ir1 tau(   5) = (   5.4821639   1.5825644  12.2380840  )
         6           Ir1 tau(   6) = (   2.7410819   1.5825644  12.2380840  )
         7           Ir1 tau(   7) = (   6.8527049   3.9564110  12.2380840  )
         8           Ir1 tau(   8) = (   4.1116229   3.9564110  12.2380840  )
         9           Ir1 tau(   9) = (   0.0000000   0.0000000  14.4761681  )
        10           Ir1 tau(  10) = (   2.7410819   0.0000000  14.4761681  )
        11           Ir1 tau(  11) = (   1.3705410   2.3738466  14.4761681  )
        12           Ir1 tau(  12) = (   4.1116229   2.3738466  14.4761681  )
        13           S1  tau(  13) = (   1.3705410   0.7912822  16.9361681  )

     number of k points=    20  Fermi-Dirac smearing, width (Ry)=  0.0110
                       cart. coord. in units 2pi/alat
        k(    1) = (   0.0000000   0.0000000   0.0000000), wk =   0.0555556
        k(    2) = (   0.0000000   0.0351048   0.0000000), wk =   0.1111111
        k(    3) = (   0.0000000   0.0702095   0.0000000), wk =   0.1111111
        k(    4) = (   0.0000000  -0.1053143   0.0000000), wk =   0.0555556
        k(    5) = (   0.0304016  -0.0175524   0.0000000), wk =   0.1111111
        k(    6) = (   0.0304016   0.0175524   0.0000000), wk =   0.1111111
        k(    7) = (   0.0304016   0.0526572   0.0000000), wk =   0.1111111
        k(    8) = (   0.0304016  -0.1228667   0.0000000), wk =   0.1111111
        k(    9) = (   0.0304016  -0.0877619   0.0000000), wk =   0.1111111
        k(   10) = (   0.0304016  -0.0526572   0.0000000), wk =   0.1111111
        k(   11) = (   0.0608032  -0.0351048   0.0000000), wk =   0.1111111
        k(   12) = (   0.0608032   0.0000000   0.0000000), wk =   0.1111111
        k(   13) = (   0.0608032   0.0351048   0.0000000), wk =   0.1111111
        k(   14) = (   0.0608032  -0.1404191   0.0000000), wk =   0.1111111
        k(   15) = (   0.0608032  -0.1053143   0.0000000), wk =   0.1111111
        k(   16) = (   0.0608032  -0.0702095   0.0000000), wk =   0.1111111
        k(   17) = (  -0.0912049   0.0526572   0.0000000), wk =   0.0555556
        k(   18) = (  -0.0912049   0.0877619   0.0000000), wk =   0.1111111
        k(   19) = (  -0.0912049   0.1228667   0.0000000), wk =   0.1111111
        k(   20) = (  -0.0912049  -0.0526572   0.0000000), wk =   0.0555556

     Largest allocated arrays     est. size (Mb)     dimensions
     Largest temporary arrays     est. size (Mb)     dimensions

     Initial potential from superposition of free atoms
     Check: negative starting charge=   -4.361417

     starting charge  179.99958, renormalised to  186.00000

     negative rho (up, down):  4.507E+00 0.000E+00

     *
     * You are using vdW-DF for exchange-correlation in this calculation.
     * Please cite the following three references that made this development
     * possible:
     *
     *   M. Dion, H. Rydberg, E. Schroder, D. C. Langreth, and
     *   B. I. Lundqvist, Phys. Rev. Lett. 92, 246401 (2004).
     *
     *   T. Thonhauser, V. R. Cooper, S. Li, A. Puzder, P. Hyldgaard, and
     *   D. C. Langreth, Phys. Rev. B 76, 125112 (2007).
     *
     *   G. Roman-Perez and J. M. Soler, Phys. Rev. Lett. 103, 096102 (2009).
     *
     *
     * If you are using vdW-DF2, please also cite:
     *
     *   K. Lee, E. D. Murray, L. Kong, B. I. Lundqvist, and
     *   D. C. Langreth, Phys. Rev. B 82, 081101(R) (2010).
     *
     *
     * If you are calculating the stress with vdW-DF, please also cite:
     *
     *   R. Sabatini, E. Kucukbenli, B. Kolb, T. Thonhauser, and
     *   S. de Gironcoli, J. Phys.: Condens. Matter 24, 424209 (2012).
     *

     Carrying out vdW-DF run using the following parameters:

     Nqs =      20    Nr_points =    1024   r_max =   100.000
     q_mesh =
               0.00001000     0.04494208     0.09755937     0.15916263
               0.23128650     0.31572767     0.41458969     0.53033537
               0.66584808     0.82450364     1.01025438     1.22772762
               1.48234092     1.78043706     2.12944203     2.53805004
               3.01644009     3.57652955     4.23227104     5.00000000

     Gradients computed in reciprocal space

     Adding external electric field

     Computed dipole along edir(3) :
        Dipole               -1.7754 Ry au,         -4.5126 Debye
        Dipole field         -0.0052 Ry au

        Potential amp.        0.4681 Ry
        Total length         45.0969 bohr

     Starting wfc are  148 randomized atomic wfcs

     Self-consistent Calculation

     iteration #  1     ecut=    36.75 Ry     beta=0.30
     Davidson diagonalization with overlap
     ethr =  1.00E-02,  avg # of iterations =  2.6

[...]

     total energy              =   -2187.11856917 Ry
     Harris-Foulkes estimate   =   -2226.68623011 Ry
     estimated scf accuracy    <      83.18757967 Ry

     iteration #  2     ecut=    36.75 Ry     beta=0.30
     Davidson diagonalization with overlap
     c_bands:  1 eigenvalues not converged
     c_bands:  1 eigenvalues not converged
     c_bands:  1 eigenvalues not converged
     ethr =  1.00E-02,  avg # of iterations = 18.5

[...]

     End of self-consistent calculation

          k = 0.0000 0.0000 0.0000 ( 16073 PWs)   bands (ev):

   -47.6553 -47.6550 -47.6385 -47.5186 -47.4360 -47.4355 -47.4282 -47.2592
   -47.2258 -47.2255 -47.2046 -47.1451 -47.1450 -47.1031 -47.1031 -47.0548
   -47.0546 -47.0391 -46.8787 -46.8739 -46.8738 -46.8121 -46.7692 -46.7690
   -46.6925 -46.6889 -46.6887 -46.6844 -46.6448 -46.6259 -46.6256 -46.6178
   -46.6178 -46.6119 -46.5579 -46.5579  -8.9616  -7.0112  -5.1080  -4.7700
    -4.4605  -4.4604  -4.4596  -4.1690  -4.1689  -4.1596  -3.6886  -3.6592
    -3.6591  -3.3843  -3.3712  -3.3711  -1.9820  -1.9081  -1.9080  -1.3475
    -1.3475  -1.3444  -1.1562  -1.0047  -1.0047  -0.8574  -0.5506  -0.5505
    -0.5105  -0.4958  -0.4957  -0.2351  -0.2351  -0.0597  -0.0595  -0.0383
     0.4755   0.9778   0.9778   1.3421   1.3818   1.3818   1.4457   1.4457
     1.4823   1.7311   1.7313   2.1805   2.1805   2.2562   2.8462   2.8657
     2.8779   2.8779   3.0072   3.0073   3.0720   3.0720   3.3982   3.4126
     3.4128   3.5337   3.8604   3.8712   3.8712   3.9055   3.9057

[...]

          k =-0.0912 0.0527 0.0000 ( 16164 PWs)   bands (ev):

[...]

     the Fermi energy is     2.4684 ev

!    total energy              =   -2224.16578951 Ry
     Harris-Foulkes estimate   =   -2224.16579297 Ry
     estimated scf accuracy    <       0.00000497 Ry

     The total energy is the sum of the following terms:

     one-electron contribution =  -18643.65166285 Ry
     hartree contribution      =    9354.10173185 Ry
     xc contribution           =    -632.10858331 Ry
     ewald contribution        =    7697.58904862 Ry
     electric field correction =       0.00009267 Ry
     smearing contrib. (-TS)   =      -0.09641650 Ry

     convergence has been achieved in  20 iterations

 BEEF-vdW xc energy contributions
           1 :   -559.571390693108
           2 :    520.150813752977
           3 :   -449.768832888659
           4 :    362.368610221629
           5 :   -273.190300019139
           6 :    194.869181726682
           7 :   -134.780216042672
[...]
     Max angular momentum in pseudopotentials (lmaxx) =  3
     Presently stress not available with electric field

     IMPORTANT: XC functional enforced from input :
     Exchange-correlation      = BEEF-VDW ( 1  4 27 13 2)
     Any further DFT definition will be discarded
     Please, verify this is what you really want

     Subspace diagonalization in iterative solution of the eigenvalue problem:
     a serial algorithm will be used

     bravais-lattice index     =            0
     lattice parameter (alat)  =       1.8897  a.u.
     unit-cell volume          =    4299.0717 (a.u.)^3
     number of atoms/cell      =           13
     number of atomic types    =            2
     number of electrons       =       186.00
     number of Kohn-Sham states=          103
     kinetic-energy cutoff     =      36.7493  Ry
     charge density cutoff     =     367.4932  Ry
     convergence threshold     =      1.0E-05
     mixing beta               =       0.3000
     number of iterations used =           10  plain     mixing
     Exchange-correlation      = BEEF-VDW ( 1  4 27 13 2)
     nstep                     =           50

     celldm(1)=   1.889726  celldm(2)=   0.000000  celldm(3)=   0.000000
     celldm(4)=   0.000000  celldm(5)=   0.000000  celldm(6)=   0.000000

     crystal axes: (cart. coord. in units of alat)
               a(1) = (   5.482164   0.000000   0.000000 )
               a(2) = (   2.741082   4.747693   0.000000 )
               a(3) = (   0.000000   0.000000  24.476168 )

     reciprocal axes: (cart. coord. in units 2 pi/alat)
               b(1) = (  0.182410 -0.105314  0.000000 )
               b(2) = (  0.000000  0.210629  0.000000 )
               b(3) = (  0.000000  0.000000  0.040856 )

     PseudoPot. # 1 for Ir read from file:
     /afs/slac.stanford.edu/u/if/mamunm/psp/gbrv1.5pbe/Ir.UPF
     MD5 check sum: 8836f839c3459d2b385c504ce6d91f2c
     Pseudo is Ultrasoft + core correction, Zval = 15.0
     Generated by new atomic code, or converted to UPF format
     Using radial grid of  983 points,  7 beta functions with:
                l(1) =   0
                l(2) =   0
                l(3) =   1
                l(4) =   1
                l(5) =   1
                l(6) =   2
                l(7) =   2
     Q(r) pseudized with  8 coefficients,  rinner =    1.400   1.400   1.400
                                                       1.400   1.400

     PseudoPot. # 2 for S  read from file:
     /afs/slac.stanford.edu/u/if/mamunm/psp/gbrv1.5pbe/S.UPF
     MD5 check sum: 88d86576ff6df21479756cfb9bdac1df
     Pseudo is Ultrasoft + core correction, Zval =  6.0
     Generated by new atomic code, or converted to UPF format
     Using radial grid of  907 points,  6 beta functions with:
                l(1) =   0
                l(2) =   0
                l(3) =   1
                l(4) =   1
                l(5) =   2
                l(6) =   2
     Q(r) pseudized with  8 coefficients,  rinner =    1.300   1.300   1.300
                                                       1.300   1.300

     vdW kernel table read from file vdW_kernel_table
     MD5 check sum: 095c7af220d748ca6e76c0b4c6cfb241

     atomic species   valence    mass     pseudopotential
        Ir1           15.00   192.21700     Ir( 1.00)
        S1             6.00    32.06000     S ( 1.00)

     No symmetry found

   Cartesian axes

     site n.     atom                  positions (alat units)
         1           Ir1 tau(   1) = (   1.3705410   0.7912822  10.0000000  )
         2           Ir1 tau(   2) = (   4.1116229   0.7912822  10.0000000  )
         3           Ir1 tau(   3) = (   2.7410819   3.1651288  10.0000000  )
         4           Ir1 tau(   4) = (   5.4821639   3.1651288  10.0000000  )
         5           Ir1 tau(   5) = (   5.4821639   1.5825644  12.2380840  )
         6           Ir1 tau(   6) = (   2.7410819   1.5825644  12.2380840  )
         7           Ir1 tau(   7) = (   6.8527049   3.9564110  12.2380840  )
         8           Ir1 tau(   8) = (   4.1116229   3.9564110  12.2380840  )
         9           Ir1 tau(   9) = (   8.2092711   4.7396974  14.4641768  )
        10           Ir1 tau(  10) = (   5.4961830   4.7396739  14.4641066  )
        11           Ir1 tau(  11) = (   6.8526987   2.3898880  14.4641667  )
        12           Ir1 tau(  12) = (   4.1116447   2.3737578  14.4076377  )
        13           S1  tau(  13) = (   1.3705174   0.7913364  16.1688179  )

     number of k points=    20  Fermi-Dirac smearing, width (Ry)=  0.0110
                       cart. coord. in units 2pi/alat
        k(    1) = (   0.0000000   0.0000000   0.0000000), wk =   0.0555556
        k(    2) = (   0.0000000   0.0351048   0.0000000), wk =   0.1111111
        k(    3) = (   0.0000000   0.0702095   0.0000000), wk =   0.1111111
        k(    4) = (   0.0000000  -0.1053143   0.0000000), wk =   0.0555556
        k(    5) = (   0.0304016  -0.0175524   0.0000000), wk =   0.1111111
        k(    6) = (   0.0304016   0.0175524   0.0000000), wk =   0.1111111
        k(    7) = (   0.0304016   0.0526572   0.0000000), wk =   0.1111111
        k(    8) = (   0.0304016  -0.1228667   0.0000000), wk =   0.1111111
        k(    9) = (   0.0304016  -0.0877619   0.0000000), wk =   0.1111111
        k(   10) = (   0.0304016  -0.0526572   0.0000000), wk =   0.1111111
        k(   11) = (   0.0608032  -0.0351048   0.0000000), wk =   0.1111111
        k(   12) = (   0.0608032   0.0000000   0.0000000), wk =   0.1111111
        k(   13) = (   0.0608032   0.0351048   0.0000000), wk =   0.1111111
        k(   14) = (   0.0608032  -0.1404191   0.0000000), wk =   0.1111111
        k(   15) = (   0.0608032  -0.1053143   0.0000000), wk =   0.1111111
        k(   16) = (   0.0608032  -0.0702095   0.0000000), wk =   0.1111111
        k(   17) = (  -0.0912049   0.0526572   0.0000000), wk =   0.0555556
        k(   18) = (  -0.0912049   0.0877619   0.0000000), wk =   0.1111111
        k(   19) = (  -0.0912049   0.1228667   0.0000000), wk =   0.1111111
        k(   20) = (  -0.0912049  -0.0526572   0.0000000), wk =   0.0555556

     Largest allocated arrays     est. size (Mb)     dimensions
     Largest temporary arrays     est. size (Mb)     dimensions

     Initial potential from superposition of free atoms
     Check: negative starting charge=   -4.363975

     starting charge  179.99958, renormalised to  186.00000

[...]

     *
     * You are using vdW-DF for exchange-correlation in this calculation.
     * Please cite the following three references that made this development
     * possible:
     *
     *   M. Dion, H. Rydberg, E. Schroder, D. C. Langreth, and
     *   B. I. Lundqvist, Phys. Rev. Lett. 92, 246401 (2004).
     *
     *   T. Thonhauser, V. R. Cooper, S. Li, A. Puzder, P. Hyldgaard, and
     *   D. C. Langreth, Phys. Rev. B 76, 125112 (2007).
     *
     *   G. Roman-Perez and J. M. Soler, Phys. Rev. Lett. 103, 096102 (2009).
     *
     *
     * If you are using vdW-DF2, please also cite:
     *
     *   K. Lee, E. D. Murray, L. Kong, B. I. Lundqvist, and
     *   D. C. Langreth, Phys. Rev. B 82, 081101(R) (2010).
     *
     *
     * If you are calculating the stress with vdW-DF, please also cite:
     *
     *   R. Sabatini, E. Kucukbenli, B. Kolb, T. Thonhauser, and
     *   S. de Gironcoli, J. Phys.: Condens. Matter 24, 424209 (2012).
     *

     Carrying out vdW-DF run using the following parameters:

     Nqs =      20    Nr_points =    1024   r_max =   100.000
     q_mesh =
               0.00001000     0.04494208     0.09755937     0.15916263
               0.23128650     0.31572767     0.41458969     0.53033537
               0.66584808     0.82450364     1.01025438     1.22772762
               1.48234092     1.78043706     2.12944203     2.53805004
               3.01644009     3.57652955     4.23227104     5.00000000

     Gradients computed in reciprocal space

[...]

     Starting wfc are  148 randomized atomic wfcs

     Self-consistent Calculation

[...]

     iteration #  2     ecut=    36.75 Ry     beta=0.30
     Davidson diagonalization with overlap
     c_bands:  2 eigenvalues not converged
     c_bands:  2 eigenvalues not converged
     c_bands:  4 eigenvalues not converged
     c_bands:  1 eigenvalues not converged
     c_bands:  1 eigenvalues not converged
     c_bands:  5 eigenvalues not converged
     c_bands:  2 eigenvalues not converged
     c_bands:  2 eigenvalues not converged
     c_bands:  1 eigenvalues not converged
     c_bands:  5 eigenvalues not converged
     c_bands:  1 eigenvalues not converged
     c_bands:  5 eigenvalues not converged
     ethr =  1.00E-02,  avg # of iterations = 19.4

[...]

     total energy              =   -2224.31772748 Ry
     Harris-Foulkes estimate   =   -2224.31772844 Ry
     estimated scf accuracy    <       0.00002715 Ry

     iteration # 21     ecut=    36.75 Ry     beta=0.30
     Davidson diagonalization with overlap
     ethr =  8.18E-09,  avg # of iterations =  1.4

[...]

     negative rho (up, down):  3.878E+00 0.000E+00

     Adding external electric field

     Computed dipole along edir(3) :
        Dipole                0.0648 Ry au,          0.1646 Debye
        Dipole field          0.0002 Ry au

        Potential amp.       -0.0171 Ry
        Total length         45.0969 bohr

     End of self-consistent calculation

[...]

          k = 0.0608-0.0702 0.0000 ( 16191 PWs)   bands (ev):

[...]

          k =-0.0912-0.0527 0.0000 ( 16164 PWs)   bands (ev):

   -47.2209 -47.1561 -47.1521 -47.1312 -47.1034 -47.0836 -47.0564 -47.0331
   -47.0278 -46.9387 -46.8397 -46.8138 -46.7944 -46.7616 -46.7601 -46.7217
   -46.6910 -46.6266 -46.6102 -46.6069 -46.5910 -46.5783 -46.5133 -46.4591
   -46.4582 -46.4257 -46.4245 -46.4146 -46.3269 -46.3085 -46.2903 -46.2774
   -46.2762 -46.2686 -46.2671 -46.2543 -10.9971  -4.9412  -4.8420  -3.7278
    -3.4669  -3.2051  -3.1756  -3.0802  -2.9982  -2.9979  -2.9541  -2.6397
    -2.5804  -2.4379  -2.1067  -2.0836  -2.0654  -1.9254  -1.8540  -1.7459
    -1.5577  -1.5209  -1.4476  -1.4319  -1.1494  -1.0740  -0.7766  -0.6571
    -0.4055  -0.3744  -0.3444  -0.2152  -0.0696  -0.0516   0.0171   0.0740
     0.0802   0.1424   0.1768   0.2178   0.2462   0.5812   0.6762   0.9298
     0.9826   1.0281   1.2343   1.2692   1.5539   1.5822   1.6185   1.7205
     1.8327   1.9571   2.0545   2.0938   2.3946   2.3979   2.5252   2.6339
     2.9632   3.2463   3.3753   3.5153   3.7600   3.9435   4.0977

     the Fermi energy is     2.8206 ev

!    total energy              =   -2224.31772463 Ry
     Harris-Foulkes estimate   =   -2224.31773252 Ry
     estimated scf accuracy    <       0.00000385 Ry

     The total energy is the sum of the following terms:

     one-electron contribution =  -18983.55896206 Ry
     hartree contribution      =    9525.69338290 Ry
     xc contribution           =    -632.62419515 Ry
     ewald contribution        =    7866.26378526 Ry
     electric field correction =       0.00001226 Ry
     smearing contrib. (-TS)   =      -0.09174785 Ry

     convergence has been achieved in  21 iterations

 BEEF-vdW xc energy contributions
           1 :   -560.105775320134
           2 :    520.922307815047
           3 :   -450.843961862209
           4 :    363.606127311757
           5 :   -274.333422412121
           6 :    195.682510267707
           7 :   -135.160171535472
           8 :    94.2400112316162
           9 :   -69.3575769669243
          10 :    54.2309585556131
          11 :   -42.5601421942206
          12 :    30.1312589839988
          13 :   -15.7188013629014
          14 :   0.704680934350336
          15 :    12.2022528219845
          16 :   -20.5176180810522
          17 :    23.1689765312481
          18 :   -20.9181263981684
          19 :    15.9622453263635
          20 :   -10.9856667327524
          21 :    8.10872922343378
          22 :   -8.16580062304365
          23 :    10.5649262489303
          24 :   -13.7302356521784
          25 :    15.8911745797946
          26 :   -15.8656348628692
          27 :    13.5155906517411
          28 :   -9.71931260805877
          29 :    5.91491505178533
          30 :   -3.44409878375291
          31 :   -48.2233803682742
          32 :   -36.1538424822699

     Forces acting on atoms (Ry/au):

     negative rho (up, down):  3.878E+00 0.000E+00
     atom    1 type  1   force =    -0.00001074    0.00003416    0.01680638
     atom    2 type  1   force =     0.00001092    0.00529618    0.01317397
     atom    3 type  1   force =     0.00454438   -0.00264534    0.01320929
     atom    4 type  1   force =    -0.00455941   -0.00265680    0.01317180
     atom    5 type  1   force =     0.00005057    0.00001009   -0.01700247
     atom    6 type  1   force =    -0.00004649   -0.00000322   -0.01700348
     atom    7 type  1   force =    -0.00002419   -0.00002321   -0.00693187
     atom    8 type  1   force =     0.00002059    0.00002079   -0.01701600
     atom    9 type  1   force =     0.00031559    0.00015076    0.00033332
     atom   10 type  1   force =    -0.00032318    0.00015322    0.00036740
     atom   11 type  1   force =    -0.00000043   -0.00034663    0.00031456
     atom   12 type  1   force =    -0.00000010    0.00003676   -0.00010561
     atom   13 type  2   force =     0.00002249   -0.00002675    0.00068272

     Total force =     0.042480     Total SCF correction =     0.011970
     SCF correction compared to forces is large: reduce conv_thr to get better values

     entering subroutine stress ...

     negative rho (up, down):  3.878E+00 0.000E+00
          total   stress  (Ry/bohr**3)                   (kbar)     P=  -23.28
  -0.00018883   0.00000001   0.00000003        -27.78      0.00      0.00
   0.00000001  -0.00018875  -0.00000008          0.00    -27.77     -0.01
   0.00000003  -0.00000008  -0.00009720          0.00     -0.01    -14.30

 !ASE

     Writing output data file calc.save

     General routines

     Parallel routines

   This run was terminated on:  21:19:31  16Jan2018

   JOB DONE.
Job  /afs/slac/g/suncat/bin/suncat-tsmpirun -x LD_LIBRARY_PATH -wdir /scratch/qe749821_zAMsY pw.x -in pw.inp

TID   HOST_NAME   COMMAND_LINE            STATUS            TERMINATION_TIME
00000 suncat0089 pw.x -in pw.inp   Done                     01/16/2018 21:19:31
00001 suncat0089 pw.x -in pw.inp   Done                     01/16/2018 21:19:31
00002 suncat0089 pw.x -in pw.inp   Done                     01/16/2018 21:19:31
00003 suncat0089 pw.x -in pw.inp   Done                     01/16/2018 21:19:31
00004 suncat0089 pw.x -in pw.inp   Done                     01/16/2018 21:19:31
00005 suncat0089 pw.x -in pw.inp   Done                     01/16/2018 21:19:31
00006 suncat0089 pw.x -in pw.inp   Done                     01/16/2018 21:19:31
00007 suncat0089 pw.x -in pw.inp   Done                     01/16/2018 21:19:31
00008 suncat0074 pw.x -in pw.inp   Done                     01/16/2018 21:19:31
00009 suncat0074 pw.x -in pw.inp   Done                     01/16/2018 21:19:31
00010 suncat0074 pw.x -in pw.inp   Done                     01/16/2018 21:19:31
00011 suncat0074 pw.x -in pw.inp   Done                     01/16/2018 21:19:31
00012 suncat0074 pw.x -in pw.inp   Done                     01/16/2018 21:19:31
00013 suncat0074 pw.x -in pw.inp   Done                     01/16/2018 21:19:31
00014 suncat0074 pw.x -in pw.inp   Done                     01/16/2018 21:19:31
00015 suncat0074 pw.x -in pw.inp   Done                     01/16/2018 21:19:31
00016 suncat0041 pw.x -in pw.inp   Done                     01/16/2018 21:19:31
00017 suncat0041 pw.x -in pw.inp   Done                     01/16/2018 21:19:31
00018 suncat0041 pw.x -in pw.inp   Done                     01/16/2018 21:19:31
00019 suncat0041 pw.x -in pw.inp   Done                     01/16/2018 21:19:31
00020 suncat0041 pw.x -in pw.inp   Done                     01/16/2018 21:19:31
00021 suncat0041 pw.x -in pw.inp   Done                     01/16/2018 21:19:31
00022 suncat0041 pw.x -in pw.inp   Done                     01/16/2018 21:19:31
00023 suncat0041 pw.x -in pw.inp   Done                     01/16/2018 21:19:31
00024 suncat0122 pw.x -in pw.inp   Done                     01/16/2018 21:19:31
00025 suncat0122 pw.x -in pw.inp   Done                     01/16/2018 21:19:31
00026 suncat0122 pw.x -in pw.inp   Done                     01/16/2018 21:19:31
00027 suncat0122 pw.x -in pw.inp   Done                     01/16/2018 21:19:31
00028 suncat0122 pw.x -in pw.inp   Done                     01/16/2018 21:19:31
00029 suncat0122 pw.x -in pw.inp   Done                     01/16/2018 21:19:31
00030 suncat0122 pw.x -in pw.inp   Done                     01/16/2018 21:19:31
00031 suncat0122 pw.x -in pw.inp   Done                     01/16/2018 21:19:31