     Program PWSCF v.5.1rc2 (svn rev. 11289) starts on 17Jan2019 at  1: 6:16

     Current dimensions of program PWSCF are:
     Max number of different atomic species (ntypx) = 10
     Max number of k-points (npk) =  40000
     Max angular momentum in pseudopotentials (lmaxx) =  3

     IMPORTANT: XC functional enforced from input :
     Exchange-correlation      = BEEF-VDW ( 1  4 27 13 2)
     Any further DFT definition will be discarded
     Please, verify this is what you really want

     Subspace diagonalization in iterative solution of the eigenvalue problem:
     a serial algorithm will be used

     bravais-lattice index     =            0
     lattice parameter (alat)  =      12.7122  a.u.
     unit-cell volume          =    6741.9071 (a.u.)^3
     number of atoms/cell      =           13
     number of atomic types    =            2
     number of electrons       =       174.00
     number of Kohn-Sham states=           97
     kinetic-energy cutoff     =      36.7493  Ry
     charge density cutoff     =     367.4933  Ry
     convergence threshold     =      1.0E-04
     mixing beta               =       0.2000
     number of iterations used =            8  plain     mixing
     Exchange-correlation      = BEEF-VDW ( 1  4 27 13 2)
     nstep                     =           50

     celldm(1)=  12.712175  celldm(2)=   0.000000  celldm(3)=   0.000000
     celldm(4)=   0.000000  celldm(5)=   0.000000  celldm(6)=   0.000000

     crystal axes: (cart. coord. in units of alat)
               a(1) = (   1.000000   0.000000   0.000000 )
               a(2) = (   0.500000   0.866025   0.000000 )
               a(3) = (   0.000000   0.000000   3.789593 )

     reciprocal axes: (cart. coord. in units 2 pi/alat)
               b(1) = (  1.000000 -0.577350  0.000000 )
               b(2) = (  0.000000  1.154701  0.000000 )
               b(3) = (  0.000000  0.000000  0.263881 )

     PseudoPot. # 1 for Sn read from file:
     /nfs/slac/g/suncatfs/mamunm/src/decaf-espresso/gbrv15pbe/Sn.UPF
     MD5 check sum: 469debedee59599fedebd795477fea03
     Pseudo is Ultrasoft + core correction, Zval = 14.0
     Generated by new atomic code, or converted to UPF format
     Using radial grid of  891 points,  6 beta functions with:
                l(1) =   0
                l(2) =   0
                l(3) =   1
                l(4) =   1
                l(5) =   2
                l(6) =   2
     Q(r) pseudized with  8 coefficients,  rinner =    1.350   1.350   1.350
                                                       1.350   1.350

     PseudoPot. # 2 for O  read from file:
     /nfs/slac/g/suncatfs/mamunm/src/decaf-espresso/gbrv15pbe/O.UPF
     MD5 check sum: 734c27235a0248c51dbae37a1fbe46ec
     Pseudo is Ultrasoft + core correction, Zval =  6.0
     Generated by new atomic code, or converted to UPF format
     Using radial grid of  737 points,  5 beta functions with:
                l(1) =   0
                l(2) =   0
                l(3) =   1
                l(4) =   1
                l(5) =   2
     Q(r) pseudized with  8 coefficients,  rinner =    0.900   0.900   0.900
                                                       0.900   0.900

     vdW kernel table read from file vdW_kernel_table
     MD5 check sum: 095c7af220d748ca6e76c0b4c6cfb241

     atomic species   valence    mass     pseudopotential
        Sn            14.00   118.71000     Sn( 1.00)
        O              6.00    15.99900     O ( 1.00)

     No symmetry found

   Cartesian axes

     site n.     atom                  positions (alat units)
         1           Sn  tau(   1) = (   0.2500000   0.1443376   1.4865483  )
         2           Sn  tau(   2) = (   0.7500000   0.1443376   1.4865483  )
         3           Sn  tau(   3) = (   0.5000000   0.5773503   1.4865483  )
         4           Sn  tau(   4) = (   1.0000000   0.5773503   1.4865483  )
         5           Sn  tau(   5) = (   1.0000000   0.2886751   1.8947966  )
         6           Sn  tau(   6) = (   0.5000000   0.2886751   1.8947966  )
         7           Sn  tau(   7) = (   1.2500000   0.7216878   1.8947966  )
         8           Sn  tau(   8) = (   0.7500000   0.7216878   1.8947966  )
         9           Sn  tau(   9) = (   0.0000015   0.0000051   2.4302216  )
        10           Sn  tau(  10) = (   0.5000013  -0.0022561   2.2872067  )
        11           Sn  tau(  11) = (   0.2480575   0.4341409   2.2872105  )
        12           Sn  tau(  12) = (   0.7519497   0.4341431   2.2872093  )
        13           O   tau(  13) = (  -0.0000053   0.0000015   2.7096541  )

     number of k points=    20  Fermi-Dirac smearing, width (Ry)=  0.0110
                       cart. coord. in units 2pi/alat
        k(    1) = (   0.0000000   0.0000000   0.0000000), wk =   0.0555556
        k(    2) = (   0.0000000   0.1924501   0.0000000), wk =   0.1111111
        k(    3) = (   0.0000000   0.3849002   0.0000000), wk =   0.1111111
        k(    4) = (   0.0000000  -0.5773503   0.0000000), wk =   0.0555556
        k(    5) = (   0.1666667  -0.0962250   0.0000000), wk =   0.1111111
        k(    6) = (   0.1666667   0.0962250   0.0000000), wk =   0.1111111
        k(    7) = (   0.1666667   0.2886751   0.0000000), wk =   0.1111111
        k(    8) = (   0.1666667  -0.6735753   0.0000000), wk =   0.1111111
        k(    9) = (   0.1666667  -0.4811252   0.0000000), wk =   0.1111111
        k(   10) = (   0.1666667  -0.2886751   0.0000000), wk =   0.1111111
        k(   11) = (   0.3333333  -0.1924501   0.0000000), wk =   0.1111111
        k(   12) = (   0.3333333   0.0000000   0.0000000), wk =   0.1111111
        k(   13) = (   0.3333333   0.1924501   0.0000000), wk =   0.1111111
        k(   14) = (   0.3333333  -0.7698004   0.0000000), wk =   0.1111111
        k(   15) = (   0.3333333  -0.5773503   0.0000000), wk =   0.1111111
        k(   16) = (   0.3333333  -0.3849002   0.0000000), wk =   0.1111111
        k(   17) = (  -0.5000000   0.2886751   0.0000000), wk =   0.0555556
        k(   18) = (  -0.5000000   0.4811252   0.0000000), wk =   0.1111111
        k(   19) = (  -0.5000000   0.6735753   0.0000000), wk =   0.1111111
        k(   20) = (  -0.5000000  -0.2886751   0.0000000), wk =   0.0555556

     Largest allocated arrays     est. size (Mb)     dimensions
     Largest temporary arrays     est. size (Mb)     dimensions

     Initial potential from superposition of free atoms
     Check: negative starting charge=   -0.001443

     starting charge  161.99946, renormalised to  174.00000

     negative rho (up, down):  1.550E-03 0.000E+00

     *
     * You are using vdW-DF for exchange-correlation in this calculation.
     * Please cite the following three references that made this development
     * possible:
     *
     *   M. Dion, H. Rydberg, E. Schroder, D. C. Langreth, and
     *   B. I. Lundqvist, Phys. Rev. Lett. 92, 246401 (2004).
     *
     *   T. Thonhauser, V. R. Cooper, S. Li, A. Puzder, P. Hyldgaard, and
     *   D. C. Langreth, Phys. Rev. B 76, 125112 (2007).
     *
     *   G. Roman-Perez and J. M. Soler, Phys. Rev. Lett. 103, 096102 (2009).
     *
     *
     * If you are using vdW-DF2, please also cite:
     *
     *   K. Lee, E. D. Murray, L. Kong, B. I. Lundqvist, and
     *   D. C. Langreth, Phys. Rev. B 82, 081101(R) (2010).
     *
     *
     * If you are calculating the stress with vdW-DF, please also cite:
     *
     *   R. Sabatini, E. Kucukbenli, B. Kolb, T. Thonhauser, and
     *   S. de Gironcoli, J. Phys.: Condens. Matter 24, 424209 (2012).
     *

     Carrying out vdW-DF run using the following parameters:

     Nqs =      20    Nr_points =    1024   r_max =   100.000
     q_mesh =
               0.00001000     0.04494208     0.09755937     0.15916263
               0.23128650     0.31572767     0.41458969     0.53033537
               0.66584808     0.82450364     1.01025438     1.22772762
               1.48234092     1.78043706     2.12944203     2.53805004
               3.01644009     3.57652955     4.23227104     5.00000000

     Gradients computed in reciprocal space

     Adding external electric field

     Computed dipole along edir(3) :
        Dipole               -4.5665 Ry au,        -11.6069 Debye
        Dipole field         -0.0085 Ry au

        Potential amp.        0.7381 Ry
        Total length         43.3566 bohr

     Starting wfc are  112 randomized atomic wfcs

     Self-consistent Calculation

     iteration #  1     ecut=    36.75 Ry     beta=0.20
     Davidson diagonalization with overlap
     ethr =  1.00E-02,  avg # of iterations =  7.6

[...]

     total energy              =   -1904.94415208 Ry
     Harris-Foulkes estimate   =   -1967.03543097 Ry
     estimated scf accuracy    <     182.36468068 Ry

[...]

     End of self-consistent calculation

          k = 0.0000 0.0000 0.0000 ( 25377 PWs)   bands (ev):

   -22.4064 -22.3988 -22.3988 -22.3815 -22.3747 -22.3747 -22.3634 -22.3633
   -22.3545 -22.3453 -22.3390 -22.3390 -22.3306 -22.3306 -22.3273 -22.3200
   -22.3200 -22.3196 -22.3151 -22.3126 -22.3126 -22.3087 -22.3087 -22.3087
   -22.2926 -22.2865 -22.2865 -22.2805 -22.2723 -22.2723 -22.2633 -22.2601
   -22.2601 -22.2466 -22.2466 -22.2295 -22.2295 -22.2165 -22.1989 -22.1989
   -22.1941 -22.1898 -22.1898 -22.1862 -22.1861 -22.1790 -22.1756 -22.1756
   -22.1690 -22.1647 -22.1597 -22.1597 -22.1510 -22.1510 -22.1468 -21.8606
   -21.7067 -21.7067 -21.4842 -21.4842 -16.2441 -11.0168  -9.6877  -7.9799
    -7.0064  -7.0064  -6.9562  -6.5574  -6.5574  -6.1081  -5.5768  -5.5310
    -5.5309  -4.3559  -4.1055  -4.1054  -3.4356  -3.1309  -2.9721  -2.9720
    -2.8015  -2.7454  -2.7454  -1.6594  -1.2425  -1.2425  -0.4509   0.7206
     0.7206   0.7287   0.7998   0.7998   1.8635   2.2010   2.3439   2.3439
     2.3473

[...]

          k =-0.5000 0.2887 0.0000 ( 25386 PWs)   bands (ev):

[...]

     the Fermi energy is    -0.2909 ev

!    total energy              =   -1960.77772860 Ry
     Harris-Foulkes estimate   =   -1960.77791947 Ry
     estimated scf accuracy    <       0.00002532 Ry

     The total energy is the sum of the following terms:

     one-electron contribution =  -10248.40050980 Ry
     hartree contribution      =    5186.04601813 Ry
     xc contribution           =    -541.33464132 Ry
     ewald contribution        =    3642.94906668 Ry
     electric field correction =       0.00252372 Ry
     smearing contrib. (-TS)   =      -0.04018601 Ry

     convergence has been achieved in  20 iterations

     Forces acting on atoms (Ry/au):

     negative rho (up, down):  5.662E-04 0.000E+00
     atom    1 type  1   force =    -0.00458376   -0.00264630    0.00114424
     atom    2 type  1   force =     0.00457861   -0.00266672    0.00118243
     atom    3 type  1   force =    -0.00001342    0.00528720    0.00112011
     atom    4 type  1   force =     0.00000255    0.00001566    0.00742184
     atom    5 type  1   force =    -0.00001521   -0.00801149   -0.00545682
     atom    6 type  1   force =     0.00000350   -0.00001579   -0.00430596
     atom    7 type  1   force =     0.00694972    0.00400736   -0.00544765
     atom    8 type  1   force =    -0.00692741    0.00401649   -0.00545090
     atom    9 type  1   force =    -0.00000306    0.00000308    0.00940510
     atom   10 type  1   force =     0.00000928   -0.00029691    0.00169578
     atom   11 type  1   force =    -0.00026853    0.00015678    0.00165709
     atom   12 type  1   force =     0.00026747    0.00015333    0.00168360
     atom   13 type  2   force =     0.00000026   -0.00000269   -0.00464886

     Total force =     0.010900     Total SCF correction =     0.028561
     SCF correction compared to forces is large: reduce conv_thr to get better values

     BFGS Geometry Optimization

     number of scf cycles    =   1
     number of bfgs steps    =   0

     energy   new            =   -1960.7777285998 Ry

     new trust radius        =       0.0094051012 bohr
     new conv_thr            =       0.0001000000 Ry

ATOMIC_POSITIONS (angstrom)
Sn       1.681748263   0.970957812  10.000000000    0   0   0
Sn       5.045244789   0.970957812  10.000000000    0   0   0
Sn       3.363496526   3.883831250  10.000000000    0   0   0
Sn       6.726993052   3.883831250  10.000000000    0   0   0
Sn       6.726993052   1.941915625  12.746283414    0   0   0
Sn       3.363496526   1.941915625  12.746283414    0   0   0
Sn       8.408741315   4.854789062  12.746283414    0   0   0
Sn       5.045244789   4.854789062  12.746283414    0   0   0
Sn       0.000008796   0.000035933  16.353060941
Sn       3.363510393  -0.015333879  15.386921038
Sn       1.668539290   2.920545711  15.386925748
Sn       5.058502193   2.920558743  15.386931899
O       -0.000035519   0.000008776  18.225364130

     Writing output data file calc.save
     Check: negative starting charge=   -0.001443
     NEW-OLD atomic charge density approx. for the potential
     Check: negative starting charge=   -0.001443

[...]

     energy   old            =   -1960.7777285998 Ry
     energy   new            =   -1960.7776361521 Ry

     CASE: energy  _new > energy  _old

[...]

     new trust radius        =       0.0000433638 bohr

     trust_radius < trust_radius_min

     resetting bfgs history

     new conv_thr            =       0.0001000000 Ry

[...]

     CASE: energy  _new > energy  _old

[...]

     number of scf cycles    =   7
     number of bfgs steps    =   1

     energy   old            =   -1960.7777285998 Ry
     energy   new            =   -1960.7777308240 Ry

     CASE: energy  _new < energy  _old

     new trust radius        =       0.0021847590 bohr
     new conv_thr            =       0.0000010000 Ry

ATOMIC_POSITIONS (angstrom)
Sn       1.681748263   0.970957812  10.000000000    0   0   0
Sn       5.045244789   0.970957812  10.000000000    0   0   0
Sn       3.363496526   3.883831250  10.000000000    0   0   0
Sn       6.726993052   3.883831250  10.000000000    0   0   0
Sn       6.726993052   1.941915625  12.746283414    0   0   0
Sn       3.363496526   1.941915625  12.746283414    0   0   0
Sn       8.408741315   4.854789062  12.746283414    0   0   0
Sn       5.045244789   4.854789062  12.746283414    0   0   0
Sn       0.000008639   0.000034813  16.349401156
Sn       3.363508223  -0.015385877  15.387246038
Sn       1.668495858   2.920570945  15.387260850
Sn       5.058545084   2.920584550  15.387260761
O       -0.000036338   0.000008521  18.228741162

     Writing output data file calc.save
     Check: negative starting charge=   -0.001443
     NEW-OLD atomic charge density approx. for the potential
     Check: negative starting charge=   -0.001444

[...]

     Self-consistent Calculation

[...]

     total energy              =   -1960.77775537 Ry
     Harris-Foulkes estimate   =   -1960.77775263 Ry
     estimated scf accuracy    <       0.00000103 Ry

     iteration #  6     ecut=    36.75 Ry     beta=0.20
     Davidson diagonalization with overlap
     ethr =  5.91E-10,  avg # of iterations =  3.0

     negative rho (up, down):  5.664E-04 0.000E+00

     Adding external electric field

     Computed dipole along edir(3) :
        Dipole               -1.2111 Ry au,         -3.0784 Debye
        Dipole field         -0.0023 Ry au

        Potential amp.        0.1958 Ry
        Total length         43.3566 bohr

     End of self-consistent calculation

[...]

          k = 0.3333-0.3849 0.0000 ( 25368 PWs)   bands (ev):

[...]

          k =-0.5000-0.2887 0.0000 ( 25386 PWs)   bands (ev):

   -22.3914 -22.3732 -22.3662 -22.3633 -22.3570 -22.3555 -22.3508 -22.3488
   -22.3394 -22.3373 -22.3336 -22.3318 -22.3252 -22.3212 -22.3195 -22.3148
   -22.3109 -22.3072 -22.3042 -22.3027 -22.2967 -22.2947 -22.2920 -22.2909
   -22.2880 -22.2836 -22.2831 -22.2789 -22.2770 -22.2752 -22.2669 -22.2602
   -22.2592 -22.2578 -22.2548 -22.2430 -22.2407 -22.2332 -22.2285 -22.2259
   -22.2231 -22.2225 -22.2216 -22.2195 -22.2157 -22.2135 -22.2080 -22.2020
   -22.1966 -22.1961 -22.1895 -22.1784 -22.1770 -22.1649 -22.1536 -21.8692
   -21.7160 -21.7152 -21.4907 -21.4899 -16.2551  -9.9941  -9.7718  -8.7039
    -8.4645  -7.6919  -7.5016  -6.9524  -6.9160  -6.5540  -6.2795  -5.3358
    -5.2260  -2.9013  -2.6798  -2.5548  -2.4506  -2.1816  -2.0996  -1.9131
    -1.6881  -1.5718  -1.1074  -1.1008  -0.9176  -0.6760  -0.2724  -0.0599
     0.1232   0.2397   0.4698   0.8096   0.8462   0.9640   1.0331   1.0632
     1.2377

     the Fermi energy is    -0.2945 ev

!    total energy              =   -1960.77775555 Ry
     Harris-Foulkes estimate   =   -1960.77774935 Ry
     estimated scf accuracy    <       0.00000019 Ry

     The total energy is the sum of the following terms:

     one-electron contribution =  -10246.45382915 Ry
     hartree contribution      =    5185.00739244 Ry
     xc contribution           =    -541.33691093 Ry
     ewald contribution        =    3642.04304508 Ry
     electric field correction =       0.00273413 Ry
     smearing contrib. (-TS)   =      -0.04018712 Ry

     convergence has been achieved in   6 iterations

     Forces acting on atoms (Ry/au):

     negative rho (up, down):  5.664E-04 0.000E+00
     atom    1 type  1   force =    -0.00436328   -0.00251951    0.00194235
     atom    2 type  1   force =     0.00436410   -0.00251955    0.00194249
     atom    3 type  1   force =    -0.00000011    0.00503993    0.00194308
     atom    4 type  1   force =    -0.00000041    0.00000036    0.00863694
     atom    5 type  1   force =    -0.00000044   -0.00750475   -0.00476206
     atom    6 type  1   force =     0.00000118    0.00000071   -0.00392893
     atom    7 type  1   force =     0.00649822    0.00375288   -0.00476577
     atom    8 type  1   force =    -0.00650066    0.00375296   -0.00476495
     atom    9 type  1   force =     0.00000009   -0.00000013   -0.00135808
     atom   10 type  1   force =     0.00000198   -0.00029073    0.00131140
     atom   11 type  1   force =    -0.00025319    0.00014373    0.00130903
     atom   12 type  1   force =     0.00025281    0.00014407    0.00131034
     atom   13 type  2   force =    -0.00000026    0.00000002    0.00118417

     Total force =     0.002941     Total SCF correction =     0.001863
     SCF correction compared to forces is large: reduce conv_thr to get better values

     bfgs converged in   8 scf cycles and   2 bfgs steps
     (criteria: energy <  1.0E+12, force <  1.9E-03)

     End of BFGS Geometry Optimization

     Final energy   =   -1960.7777555520 Ry
Begin final coordinates

ATOMIC_POSITIONS (angstrom)
Sn       1.681748263   0.970957812  10.000000000    0   0   0
Sn       5.045244789   0.970957812  10.000000000    0   0   0
Sn       3.363496526   3.883831250  10.000000000    0   0   0
Sn       6.726993052   3.883831250  10.000000000    0   0   0
Sn       6.726993052   1.941915625  12.746283414    0   0   0
Sn       3.363496526   1.941915625  12.746283414    0   0   0
Sn       8.408741315   4.854789062  12.746283414    0   0   0
Sn       5.045244789   4.854789062  12.746283414    0   0   0
Sn       0.000008639   0.000034813  16.349401156
Sn       3.363508223  -0.015385877  15.387246038
Sn       1.668495858   2.920570945  15.387260850
Sn       5.058545084   2.920584550  15.387260761
O       -0.000036338   0.000008521  18.228741162
End final coordinates

     Writing output data file calc.save

     General routines

     Parallel routines

   This run was terminated on:   1:40:37  17Jan2019

   JOB DONE.
Job  /afs/slac/g/suncat/bin/suncat-tsmpirun -x LD_LIBRARY_PATH -wdir /tmp/qe_3791482ufh6bm7_scratch pw.x -npool 3 -in pw.pwi

TID   HOST_NAME   COMMAND_LINE            STATUS            TERMINATION_TIME
00000 suncat1036 pw.x -npool 3 -i  Done                     01/17/2019 01:40:37
00001 suncat1036 pw.x -npool 3 -i  Done                     01/17/2019 01:40:37
00002 suncat1036 pw.x -npool 3 -i  Done                     01/17/2019 01:40:37
00003 suncat1036 pw.x -npool 3 -i  Done                     01/17/2019 01:40:37
00004 suncat1036 pw.x -npool 3 -i  Done                     01/17/2019 01:40:37
00005 suncat1036 pw.x -npool 3 -i  Done                     01/17/2019 01:40:37
00006 suncat1036 pw.x -npool 3 -i  Done                     01/17/2019 01:40:37
00007 suncat1036 pw.x -npool 3 -i  Done                     01/17/2019 01:40:37
00008 suncat1036 pw.x -npool 3 -i  Done                     01/17/2019 01:40:37
00009 suncat1036 pw.x -npool 3 -i  Done                     01/17/2019 01:40:37
00010 suncat1036 pw.x -npool 3 -i  Done                     01/17/2019 01:40:37
00011 suncat1036 pw.x -npool 3 -i  Done                     01/17/2019 01:40:37
00012 suncat1011 pw.x -npool 3 -i  Done                     01/17/2019 01:40:37
00013 suncat1011 pw.x -npool 3 -i  Done                     01/17/2019 01:40:37
00014 suncat1011 pw.x -npool 3 -i  Done                     01/17/2019 01:40:37
00015 suncat1011 pw.x -npool 3 -i  Done                     01/17/2019 01:40:37
00016 suncat1011 pw.x -npool 3 -i  Done                     01/17/2019 01:40:37
00017 suncat1011 pw.x -npool 3 -i  Done                     01/17/2019 01:40:37
00018 suncat1011 pw.x -npool 3 -i  Done                     01/17/2019 01:40:37
00019 suncat1011 pw.x -npool 3 -i  Done                     01/17/2019 01:40:37
00020 suncat1011 pw.x -npool 3 -i  Done                     01/17/2019 01:40:37
00021 suncat1011 pw.x -npool 3 -i  Done                     01/17/2019 01:40:37
00022 suncat1011 pw.x -npool 3 -i  Done                     01/17/2019 01:40:37
00023 suncat1011 pw.x -npool 3 -i  Done                     01/17/2019 01:40:37
00024 suncat1006 pw.x -npool 3 -i  Done                     01/17/2019 01:40:37
00025 suncat1006 pw.x -npool 3 -i  Done                     01/17/2019 01:40:37
00026 suncat1006 pw.x -npool 3 -i  Done                     01/17/2019 01:40:37
00027 suncat1006 pw.x -npool 3 -i  Done                     01/17/2019 01:40:37
00028 suncat1006 pw.x -npool 3 -i  Done                     01/17/2019 01:40:37
00029 suncat1006 pw.x -npool 3 -i  Done                     01/17/2019 01:40:37
00030 suncat1006 pw.x -npool 3 -i  Done                     01/17/2019 01:40:37
00031 suncat1006 pw.x -npool 3 -i  Done                     01/17/2019 01:40:37
00032 suncat1006 pw.x -npool 3 -i  Done                     01/17/2019 01:40:37
00033 suncat1006 pw.x -npool 3 -i  Done                     01/17/2019 01:40:37
00034 suncat1006 pw.x -npool 3 -i  Done                     01/17/2019 01:40:37
00035 suncat1006 pw.x -npool 3 -i  Done                     01/17/2019 01:40:37