     Program PWSCF v.5.1rc2 (svn rev. 11289) starts on 20Jan2018 at  4:34:12

     Current dimensions of program PWSCF are:
     Max number of different atomic species (ntypx) = 10
     Max number of k-points (npk) =  40000
     Max angular momentum in pseudopotentials (lmaxx) =  3
     Presently stress not available with electric field

     IMPORTANT: XC functional enforced from input :
     Exchange-correlation      = BEEF-VDW ( 1  4 27 13 2)
     Any further DFT definition will be discarded
     Please, verify this is what you really want

     Subspace diagonalization in iterative solution of the eigenvalue problem:
     a serial algorithm will be used

     bravais-lattice index     =            0
     lattice parameter (alat)  =       1.8897  a.u.
     unit-cell volume          =    6501.5726 (a.u.)^3
     number of atoms/cell      =           13
     number of atomic types    =            2
     number of electrons       =       162.00
     number of Kohn-Sham states=           91
     kinetic-energy cutoff     =      36.7493  Ry
     charge density cutoff     =     367.4932  Ry
     convergence threshold     =      1.0E-05
     mixing beta               =       0.3000
     number of iterations used =           10  plain     mixing
     Exchange-correlation      = BEEF-VDW ( 1  4 27 13 2)
     nstep                     =           50

     celldm(1)=   1.889726  celldm(2)=   0.000000  celldm(3)=   0.000000
     celldm(4)=   0.000000  celldm(5)=   0.000000  celldm(6)=   0.000000

     crystal axes: (cart. coord. in units of alat)
               a(1) = (   6.617606   0.000000   0.000000 )
               a(2) = (   3.308803   5.731015   0.000000 )
               a(3) = (   0.000000   0.000000  25.403253 )

     reciprocal axes: (cart. coord. in units 2 pi/alat)
               b(1) = (  0.151112 -0.087245  0.000000 )
               b(2) = (  0.000000  0.174489  0.000000 )
               b(3) = (  0.000000  0.000000  0.039365 )

     PseudoPot. # 1 for In read from file:
     /afs/slac.stanford.edu/u/if/mamunm/psp/gbrv1.5pbe/In.UPF
     MD5 check sum: 90777abd96fbb83f2e67db2a40c566b9
     Pseudo is Ultrasoft + core correction, Zval = 13.0
     Generated by new atomic code, or converted to UPF format
     Using radial grid of  889 points,  6 beta functions with:
                l(1) =   0
                l(2) =   0
                l(3) =   1
                l(4) =   1
                l(5) =   2
                l(6) =   2
     Q(r) pseudized with  6 coefficients,  rinner =    1.400   1.400   1.400
                                                       1.400   1.400

     PseudoPot. # 2 for S  read from file:
     /afs/slac.stanford.edu/u/if/mamunm/psp/gbrv1.5pbe/S.UPF
     MD5 check sum: 88d86576ff6df21479756cfb9bdac1df
     Pseudo is Ultrasoft + core correction, Zval =  6.0
     Generated by new atomic code, or converted to UPF format
     Using radial grid of  907 points,  6 beta functions with:
                l(1) =   0
                l(2) =   0
                l(3) =   1
                l(4) =   1
                l(5) =   2
                l(6) =   2
     Q(r) pseudized with  8 coefficients,  rinner =    1.300   1.300   1.300
                                                       1.300   1.300

     vdW kernel table read from file vdW_kernel_table
     MD5 check sum: 095c7af220d748ca6e76c0b4c6cfb241

     atomic species   valence    mass     pseudopotential
        In1           13.00   114.81800     In( 1.00)
        S1             6.00    32.06000     S ( 1.00)

     No symmetry found

   Cartesian axes

     site n.     atom                  positions (alat units)
         1           In1 tau(   1) = (   1.6544016   0.9551692  10.0000000  )
         2           In1 tau(   2) = (   4.9632047   0.9551692  10.0000000  )
         3           In1 tau(   3) = (   3.3088031   3.8206768  10.0000000  )
         4           In1 tau(   4) = (   6.6176063   3.8206768  10.0000000  )
         5           In1 tau(   5) = (   6.6176063   1.9103384  12.7016265  )
         6           In1 tau(   6) = (   3.3088031   1.9103384  12.7016265  )
         7           In1 tau(   7) = (   8.2720078   4.7758460  12.7016265  )
         8           In1 tau(   8) = (   4.9632047   4.7758460  12.7016265  )
         9           In1 tau(   9) = (   0.0000000   0.0000000  15.4032529  )
        10           In1 tau(  10) = (   3.3088031   0.0000000  15.4032529  )
        11           In1 tau(  11) = (   1.6544016   2.8655076  15.4032529  )
        12           In1 tau(  12) = (   4.9632047   2.8655076  15.4032529  )
        13           S1  tau(  13) = (   1.6544016   0.9551692  17.8732529  )

     number of k points=    20  Fermi-Dirac smearing, width (Ry)=  0.0110
                       cart. coord. in units 2pi/alat
        k(    1) = (   0.0000000   0.0000000   0.0000000), wk =   0.0555556
        k(    2) = (   0.0000000   0.0290815   0.0000000), wk =   0.1111111
        k(    3) = (   0.0000000   0.0581631   0.0000000), wk =   0.1111111
        k(    4) = (   0.0000000  -0.0872446   0.0000000), wk =   0.0555556
        k(    5) = (   0.0251853  -0.0145408   0.0000000), wk =   0.1111111
        k(    6) = (   0.0251853   0.0145408   0.0000000), wk =   0.1111111
        k(    7) = (   0.0251853   0.0436223   0.0000000), wk =   0.1111111
        k(    8) = (   0.0251853  -0.1017853   0.0000000), wk =   0.1111111
        k(    9) = (   0.0251853  -0.0727038   0.0000000), wk =   0.1111111
        k(   10) = (   0.0251853  -0.0436223   0.0000000), wk =   0.1111111
        k(   11) = (   0.0503707  -0.0290815   0.0000000), wk =   0.1111111
        k(   12) = (   0.0503707   0.0000000   0.0000000), wk =   0.1111111
        k(   13) = (   0.0503707   0.0290815   0.0000000), wk =   0.1111111
        k(   14) = (   0.0503707  -0.1163261   0.0000000), wk =   0.1111111
        k(   15) = (   0.0503707  -0.0872446   0.0000000), wk =   0.1111111
        k(   16) = (   0.0503707  -0.0581631   0.0000000), wk =   0.1111111
        k(   17) = (  -0.0755560   0.0436223   0.0000000), wk =   0.0555556
        k(   18) = (  -0.0755560   0.0727038   0.0000000), wk =   0.1111111
        k(   19) = (  -0.0755560   0.1017853   0.0000000), wk =   0.1111111
        k(   20) = (  -0.0755560  -0.0436223   0.0000000), wk =   0.0555556

     Largest allocated arrays     est. size (Mb)     dimensions
     Largest temporary arrays     est. size (Mb)     dimensions

     Initial potential from superposition of free atoms
     Check: negative starting charge=   -0.000151

     starting charge  143.99996, renormalised to  162.00000

     negative rho (up, down):  1.701E-04 0.000E+00

     *
     * You are using vdW-DF for exchange-correlation in this calculation.
     * Please cite the following three references that made this development
     * possible:
     *
     *   M. Dion, H. Rydberg, E. Schroder, D. C. Langreth, and
     *   B. I. Lundqvist, Phys. Rev. Lett. 92, 246401 (2004).
     *
     *   T. Thonhauser, V. R. Cooper, S. Li, A. Puzder, P. Hyldgaard, and
     *   D. C. Langreth, Phys. Rev. B 76, 125112 (2007).
     *
     *   G. Roman-Perez and J. M. Soler, Phys. Rev. Lett. 103, 096102 (2009).
     *
     *
     * If you are using vdW-DF2, please also cite:
     *
     *   K. Lee, E. D. Murray, L. Kong, B. I. Lundqvist, and
     *   D. C. Langreth, Phys. Rev. B 82, 081101(R) (2010).
     *
     *
     * If you are calculating the stress with vdW-DF, please also cite:
     *
     *   R. Sabatini, E. Kucukbenli, B. Kolb, T. Thonhauser, and
     *   S. de Gironcoli, J. Phys.: Condens. Matter 24, 424209 (2012).
     *

     Carrying out vdW-DF run using the following parameters:

     Nqs =      20    Nr_points =    1024   r_max =   100.000
     q_mesh =
               0.00001000     0.04494208     0.09755937     0.15916263
               0.23128650     0.31572767     0.41458969     0.53033537
               0.66584808     0.82450364     1.01025438     1.22772762
               1.48234092     1.78043706     2.12944203     2.53805004
               3.01644009     3.57652955     4.23227104     5.00000000

     Gradients computed in reciprocal space

     Adding external electric field

     Computed dipole along edir(3) :
        Dipole               -7.3293 Ry au,        -18.6293 Debye
        Dipole field         -0.0142 Ry au

        Potential amp.        1.3261 Ry
        Total length         46.8051 bohr

     Starting wfc are  112 randomized atomic wfcs

     Self-consistent Calculation

     iteration #  1     ecut=    36.75 Ry     beta=0.30
     Davidson diagonalization with overlap
     ethr =  1.00E-02,  avg # of iterations =  8.0

[...]

     total energy              =   -1145.55611657 Ry
     Harris-Foulkes estimate   =   -1632.07645256 Ry
     estimated scf accuracy    <    1040.38347072 Ry

[...]

     End of self-consistent calculation

          k = 0.0000 0.0000 0.0000 ( 24345 PWs)   bands (ev):

   -15.1664 -15.1657 -15.1657 -15.0757 -15.0757 -15.0691 -15.0594 -15.0573
   -15.0573 -15.0521 -15.0139 -15.0139 -15.0134 -15.0088 -14.9846 -14.9846
   -14.9759 -14.9694 -14.9694 -14.9490 -14.9490 -14.9358 -14.9358 -14.9336
   -14.9274 -14.9101 -14.9083 -14.9083 -14.8949 -14.8949 -14.8162 -14.8162
   -14.7846 -14.7846 -14.7799 -14.7464 -14.7464 -14.7445 -14.7390 -14.7390
   -14.7153 -14.6958 -14.6958 -14.6917 -14.6917 -14.6817 -14.6678 -14.6678
   -14.6648 -14.6648 -14.6581 -14.6457 -14.6343 -14.6343 -14.6325 -14.6304
   -14.6304 -14.5916 -14.5822 -14.5822 -10.8549  -9.1643  -7.7375  -5.6215
    -4.3483  -4.3466  -4.3466  -4.0580  -4.0580  -4.0559  -2.8974  -2.8200
    -2.8200  -2.5765  -2.5765  -2.5757  -2.1798  -1.2792  -1.2757  -1.2757
    -0.7797  -0.7797  -0.7137  -0.0417  -0.0417   0.1559   1.3560   2.7436
     2.7436   2.7738   2.9980

[...]

          k =-0.0756 0.0436 0.0000 ( 24448 PWs)   bands (ev):

[...]

     the Fermi energy is     0.0162 ev

!    total energy              =   -1641.68604156 Ry
     Harris-Foulkes estimate   =   -1641.68608193 Ry
     estimated scf accuracy    <       0.00000178 Ry

     The total energy is the sum of the following terms:

     one-electron contribution =   -9300.91772457 Ry
     hartree contribution      =    4729.34422095 Ry
     xc contribution           =    -478.16534963 Ry
     ewald contribution        =    3408.09471114 Ry
     electric field correction =       0.00131038 Ry
     smearing contrib. (-TS)   =      -0.04320984 Ry

     convergence has been achieved in  27 iterations

 BEEF-vdW xc energy contributions
           1 :   -418.629093174339
           2 :    382.282658281065
           3 :   -320.968988254545
           4 :    251.968518939064
           5 :   -191.021528268572
           6 :    146.665675002708
           7 :   -118.643308429775
           8 :    100.521497526716
           9 :   -84.6061596914502
          10 :    66.2917440505392
          11 :   -45.7049722427790
          12 :    26.2986200199506
          13 :   -11.8253360445632
          14 :    3.78667157104348
          15 :  -0.781081056740391
          16 :  -0.244364414738584
          17 :    1.97983585084546
          18 :   -5.35827142385801
          19 :    9.50763275629237
[...]

[...]

   This run was terminated on:   8: 7:52  20Jan2018

[...]

     Program PWSCF v.5.1rc2 (svn rev. 11289) starts on 20Jan2018 at  8: 7:58

[...]

   This run was terminated on:   8:33: 7  20Jan2018

[...]

     Total force =     0.031894     Total SCF correction =     0.000623

[...]

     Program PWSCF v.5.1rc2 (svn rev. 11289) starts on 20Jan2018 at  8:59:17

     Current dimensions of program PWSCF are:
     Max number of different atomic species (ntypx) = 10
     Max number of k-points (npk) =  40000
     Max angular momentum in pseudopotentials (lmaxx) =  3
     Presently stress not available with electric field

     IMPORTANT: XC functional enforced from input :
     Exchange-correlation      = BEEF-VDW ( 1  4 27 13 2)
     Any further DFT definition will be discarded
     Please, verify this is what you really want

     Subspace diagonalization in iterative solution of the eigenvalue problem:
     a serial algorithm will be used

     bravais-lattice index     =            0
     lattice parameter (alat)  =       1.8897  a.u.
     unit-cell volume          =    6501.5726 (a.u.)^3
     number of atoms/cell      =           13
     number of atomic types    =            2
     number of electrons       =       162.00
     number of Kohn-Sham states=           91
     kinetic-energy cutoff     =      36.7493  Ry
     charge density cutoff     =     367.4932  Ry
     convergence threshold     =      1.0E-05
     mixing beta               =       0.3000
     number of iterations used =           10  plain     mixing
     Exchange-correlation      = BEEF-VDW ( 1  4 27 13 2)
     nstep                     =           50

     celldm(1)=   1.889726  celldm(2)=   0.000000  celldm(3)=   0.000000
     celldm(4)=   0.000000  celldm(5)=   0.000000  celldm(6)=   0.000000

     crystal axes: (cart. coord. in units of alat)
               a(1) = (   6.617606   0.000000   0.000000 )
               a(2) = (   3.308803   5.731015   0.000000 )
               a(3) = (   0.000000   0.000000  25.403253 )

     reciprocal axes: (cart. coord. in units 2 pi/alat)
               b(1) = (  0.151112 -0.087245  0.000000 )
               b(2) = (  0.000000  0.174489  0.000000 )
               b(3) = (  0.000000  0.000000  0.039365 )

     PseudoPot. # 1 for In read from file:
     /afs/slac.stanford.edu/u/if/mamunm/psp/gbrv1.5pbe/In.UPF
     MD5 check sum: 90777abd96fbb83f2e67db2a40c566b9
     Pseudo is Ultrasoft + core correction, Zval = 13.0
     Generated by new atomic code, or converted to UPF format
     Using radial grid of  889 points,  6 beta functions with:
                l(1) =   0
                l(2) =   0
                l(3) =   1
                l(4) =   1
                l(5) =   2
                l(6) =   2
     Q(r) pseudized with  6 coefficients,  rinner =    1.400   1.400   1.400
                                                       1.400   1.400

     PseudoPot. # 2 for S  read from file:
     /afs/slac.stanford.edu/u/if/mamunm/psp/gbrv1.5pbe/S.UPF
     MD5 check sum: 88d86576ff6df21479756cfb9bdac1df
     Pseudo is Ultrasoft + core correction, Zval =  6.0
     Generated by new atomic code, or converted to UPF format
     Using radial grid of  907 points,  6 beta functions with:
                l(1) =   0
                l(2) =   0
                l(3) =   1
                l(4) =   1
                l(5) =   2
                l(6) =   2
     Q(r) pseudized with  8 coefficients,  rinner =    1.300   1.300   1.300
                                                       1.300   1.300

     vdW kernel table read from file vdW_kernel_table
     MD5 check sum: 095c7af220d748ca6e76c0b4c6cfb241

     atomic species   valence    mass     pseudopotential
        In1           13.00   114.81800     In( 1.00)
        S1             6.00    32.06000     S ( 1.00)

     No symmetry found

   Cartesian axes

     site n.     atom                  positions (alat units)
         1           In1 tau(   1) = (   1.6544016   0.9551692  10.0000000  )
         2           In1 tau(   2) = (   4.9632047   0.9551692  10.0000000  )
         3           In1 tau(   3) = (   3.3088031   3.8206768  10.0000000  )
         4           In1 tau(   4) = (   6.6176063   3.8206768  10.0000000  )
         5           In1 tau(   5) = (   6.6176063   1.9103384  12.7016265  )
         6           In1 tau(   6) = (   3.3088031   1.9103384  12.7016265  )
         7           In1 tau(   7) = (   8.2720078   4.7758460  12.7016265  )
         8           In1 tau(   8) = (   4.9632047   4.7758460  12.7016265  )
         9           In1 tau(   9) = (   9.8488298   5.6862339  15.6290402  )
        10           In1 tau(  10) = (   6.6952228   5.6861137  15.6289584  )
        11           In1 tau(  11) = (   8.2719217   2.9551271  15.6289414  )
        12           In1 tau(  12) = (   4.9632798   2.8655582  15.4273134  )
        13           S1  tau(  13) = (   1.6543294   0.9552299  17.3379407  )

     number of k points=    20  Fermi-Dirac smearing, width (Ry)=  0.0110
                       cart. coord. in units 2pi/alat
        k(    1) = (   0.0000000   0.0000000   0.0000000), wk =   0.0555556
        k(    2) = (   0.0000000   0.0290815   0.0000000), wk =   0.1111111
        k(    3) = (   0.0000000   0.0581631   0.0000000), wk =   0.1111111
        k(    4) = (   0.0000000  -0.0872446   0.0000000), wk =   0.0555556
        k(    5) = (   0.0251853  -0.0145408   0.0000000), wk =   0.1111111
        k(    6) = (   0.0251853   0.0145408   0.0000000), wk =   0.1111111
        k(    7) = (   0.0251853   0.0436223   0.0000000), wk =   0.1111111
        k(    8) = (   0.0251853  -0.1017853   0.0000000), wk =   0.1111111
        k(    9) = (   0.0251853  -0.0727038   0.0000000), wk =   0.1111111
        k(   10) = (   0.0251853  -0.0436223   0.0000000), wk =   0.1111111
        k(   11) = (   0.0503707  -0.0290815   0.0000000), wk =   0.1111111
        k(   12) = (   0.0503707   0.0000000   0.0000000), wk =   0.1111111
        k(   13) = (   0.0503707   0.0290815   0.0000000), wk =   0.1111111
        k(   14) = (   0.0503707  -0.1163261   0.0000000), wk =   0.1111111
        k(   15) = (   0.0503707  -0.0872446   0.0000000), wk =   0.1111111
        k(   16) = (   0.0503707  -0.0581631   0.0000000), wk =   0.1111111
        k(   17) = (  -0.0755560   0.0436223   0.0000000), wk =   0.0555556
        k(   18) = (  -0.0755560   0.0727038   0.0000000), wk =   0.1111111
        k(   19) = (  -0.0755560   0.1017853   0.0000000), wk =   0.1111111
        k(   20) = (  -0.0755560  -0.0436223   0.0000000), wk =   0.0555556

     Largest allocated arrays     est. size (Mb)     dimensions
     Largest temporary arrays     est. size (Mb)     dimensions

     Initial potential from superposition of free atoms
     Check: negative starting charge=   -0.000166

     starting charge  143.99996, renormalised to  162.00000

[...]

     *
     * You are using vdW-DF for exchange-correlation in this calculation.
     * Please cite the following three references that made this development
     * possible:
     *
     *   M. Dion, H. Rydberg, E. Schroder, D. C. Langreth, and
     *   B. I. Lundqvist, Phys. Rev. Lett. 92, 246401 (2004).
     *
     *   T. Thonhauser, V. R. Cooper, S. Li, A. Puzder, P. Hyldgaard, and
     *   D. C. Langreth, Phys. Rev. B 76, 125112 (2007).
     *
     *   G. Roman-Perez and J. M. Soler, Phys. Rev. Lett. 103, 096102 (2009).
     *
     *
     * If you are using vdW-DF2, please also cite:
     *
     *   K. Lee, E. D. Murray, L. Kong, B. I. Lundqvist, and
     *   D. C. Langreth, Phys. Rev. B 82, 081101(R) (2010).
     *
     *
     * If you are calculating the stress with vdW-DF, please also cite:
     *
     *   R. Sabatini, E. Kucukbenli, B. Kolb, T. Thonhauser, and
     *   S. de Gironcoli, J. Phys.: Condens. Matter 24, 424209 (2012).
     *

     Carrying out vdW-DF run using the following parameters:

     Nqs =      20    Nr_points =    1024   r_max =   100.000
     q_mesh =
               0.00001000     0.04494208     0.09755937     0.15916263
               0.23128650     0.31572767     0.41458969     0.53033537
               0.66584808     0.82450364     1.01025438     1.22772762
               1.48234092     1.78043706     2.12944203     2.53805004
               3.01644009     3.57652955     4.23227104     5.00000000

     Gradients computed in reciprocal space

[...]

     Starting wfc are  112 randomized atomic wfcs

     Self-consistent Calculation

[...]

     iteration # 20     ecut=    36.75 Ry     beta=0.30
     Davidson diagonalization with overlap
     c_bands:  1 eigenvalues not converged
     c_bands:  1 eigenvalues not converged
     c_bands:  1 eigenvalues not converged
     ethr =  1.09E-05,  avg # of iterations =  6.1

[...]

     total energy              =   -1641.77055948 Ry
     Harris-Foulkes estimate   =   -1641.77042042 Ry
     estimated scf accuracy    <       0.00008987 Ry

     iteration # 28     ecut=    36.75 Ry     beta=0.30
     Davidson diagonalization with overlap
     ethr =  5.55E-08,  avg # of iterations =  3.8

[...]

     negative rho (up, down):  1.115E-03 0.000E+00

     Adding external electric field

     Computed dipole along edir(3) :
        Dipole               -0.3864 Ry au,         -0.9822 Debye
        Dipole field         -0.0007 Ry au

        Potential amp.        0.0699 Ry
        Total length         46.8051 bohr

     End of self-consistent calculation

[...]

          k = 0.0504-0.0582 0.0000 ( 24479 PWs)   bands (ev):

[...]

          k =-0.0756-0.0436 0.0000 ( 24448 PWs)   bands (ev):

   -14.6539 -14.6284 -14.6144 -14.5879 -14.5730 -14.5659 -14.5605 -14.5573
   -14.5479 -14.5422 -14.5309 -14.5236 -14.5230 -14.5038 -14.5024 -14.4972
   -14.4934 -14.4911 -14.4818 -14.4780 -14.4691 -14.4458 -14.4448 -14.4411
   -14.4368 -14.4312 -14.4243 -14.4224 -14.4128 -14.4031 -14.4029 -14.3890
   -14.3850 -14.3742 -14.3675 -14.3652 -14.3534 -14.3489 -14.3474 -14.3456
   -14.3363 -14.3339 -14.3323 -14.3277 -14.3176 -14.3162 -14.3146 -14.3121
   -14.2992 -14.2907 -14.2861 -14.2715 -14.2693 -14.2559 -14.2529 -14.2276
   -14.2207 -14.2194 -14.1969 -14.1938 -11.7745  -7.3874  -7.2782  -6.2415
    -5.8528  -4.8855  -4.8445  -4.4598  -4.1528  -4.0869  -3.6835  -2.5250
    -2.3206  -2.0720  -0.9293  -0.9089  -0.2039   0.0047   0.1751   0.2106
     0.5114   0.7955   1.5214   1.5515   1.6298   1.9076   2.3359   2.5987
     2.6840   2.8863   2.9913

     the Fermi energy is     0.4883 ev

!    total energy              =   -1641.77056902 Ry
     Harris-Foulkes estimate   =   -1641.77057675 Ry
     estimated scf accuracy    <       0.00000205 Ry

     The total energy is the sum of the following terms:

     one-electron contribution =   -9201.63046606 Ry
     hartree contribution      =    4681.65586662 Ry
     xc contribution           =    -478.31492039 Ry
     ewald contribution        =    3356.55585271 Ry
     electric field correction =       0.00028862 Ry
     smearing contrib. (-TS)   =      -0.03719052 Ry

     convergence has been achieved in  28 iterations

 BEEF-vdW xc energy contributions
           1 :   -418.782034539003
           2 :    382.477505077808
           3 :   -321.189882614453
           4 :    252.157997400672
           5 :   -191.128555138279
           6 :    146.671308167619
           7 :   -118.559794467661
           8 :    100.376964369854
           9 :   -84.4295328215262
          10 :    66.1049474685255
          11 :   -45.5229256006606
          12 :    26.1349598332077
          13 :   -11.6979976984850
          14 :    3.71624323443774
          15 :  -0.780772166983184
          16 :  -0.180135301461746
          17 :    1.87951722058028
          18 :   -5.26587633872413
          19 :    9.46530161513999
          20 :   -12.8331853440779
          21 :    14.2324617634473
          22 :   -13.6945638346260
          23 :    12.1809409228525
          24 :   -10.8039315450604
          25 :    10.1394893302156
          26 :   -10.0623198558725
          27 :    10.0775383752206
          28 :   -9.79023361200166
          29 :    9.14571314167955
          30 :   -8.33601831377109
          31 :   -38.2186571338632
          32 :   -27.7045327882512

     Forces acting on atoms (Ry/au):

     negative rho (up, down):  1.115E-03 0.000E+00
     atom    1 type  1   force =    -0.00000067    0.00000162   -0.00910718
     atom    2 type  1   force =     0.00000035   -0.00002834   -0.00949334
     atom    3 type  1   force =    -0.00002786    0.00001613   -0.00948469
     atom    4 type  1   force =     0.00002736    0.00001269   -0.00950554
     atom    5 type  1   force =     0.00146112   -0.00085339    0.01298388
     atom    6 type  1   force =    -0.00145905   -0.00086303    0.01298610
     atom    7 type  1   force =    -0.00000132    0.00001319    0.00142570
     atom    8 type  1   force =     0.00000250    0.00170249    0.01298295
     atom    9 type  1   force =     0.00088006    0.00050144   -0.00025174
     atom   10 type  1   force =    -0.00089773    0.00053274   -0.00023862
     atom   11 type  1   force =     0.00001816   -0.00102839   -0.00024434
     atom   12 type  1   force =    -0.00001778   -0.00000558   -0.00056773
     atom   13 type  2   force =     0.00001488   -0.00000156   -0.00148546

     Total force =     0.029592     Total SCF correction =     0.009884
     SCF correction compared to forces is large: reduce conv_thr to get better values

     entering subroutine stress ...

     negative rho (up, down):  1.115E-03 0.000E+00
          total   stress  (Ry/bohr**3)                   (kbar)     P=    5.79
   0.00005021   0.00000000   0.00000001          7.39      0.00      0.00
   0.00000000   0.00005021  -0.00000000          0.00      7.39     -0.00
   0.00000001  -0.00000000   0.00001760          0.00     -0.00      2.59

 !ASE

     Writing output data file calc.save

     General routines

     Parallel routines

   This run was terminated on:   9:30:36  20Jan2018

   JOB DONE.
Job  /afs/slac/g/suncat/bin/suncat-tsmpirun -x LD_LIBRARY_PATH -wdir /scratch/qe505014_WbFSA pw.x -in pw.inp

TID   HOST_NAME   COMMAND_LINE            STATUS            TERMINATION_TIME
00000 suncat0110 pw.x -in pw.inp   Done                     01/20/2018 09:30:36
00001 suncat0110 pw.x -in pw.inp   Done                     01/20/2018 09:30:36
00002 suncat0110 pw.x -in pw.inp   Done                     01/20/2018 09:30:36
00003 suncat0110 pw.x -in pw.inp   Done                     01/20/2018 09:30:36
00004 suncat0110 pw.x -in pw.inp   Done                     01/20/2018 09:30:36
00005 suncat0110 pw.x -in pw.inp   Done                     01/20/2018 09:30:36
00006 suncat0110 pw.x -in pw.inp   Done                     01/20/2018 09:30:36
00007 suncat0110 pw.x -in pw.inp   Done                     01/20/2018 09:30:36
00008 suncat0109 pw.x -in pw.inp   Done                     01/20/2018 09:30:36
00009 suncat0109 pw.x -in pw.inp   Done                     01/20/2018 09:30:36
00010 suncat0109 pw.x -in pw.inp   Done                     01/20/2018 09:30:36
00011 suncat0109 pw.x -in pw.inp   Done                     01/20/2018 09:30:36
00012 suncat0109 pw.x -in pw.inp   Done                     01/20/2018 09:30:36
00013 suncat0109 pw.x -in pw.inp   Done                     01/20/2018 09:30:36
00014 suncat0109 pw.x -in pw.inp   Done                     01/20/2018 09:30:36
00015 suncat0109 pw.x -in pw.inp   Done                     01/20/2018 09:30:36
00016 suncat0238 pw.x -in pw.inp   Done                     01/20/2018 09:30:36
00017 suncat0238 pw.x -in pw.inp   Done                     01/20/2018 09:30:36
00018 suncat0238 pw.x -in pw.inp   Done                     01/20/2018 09:30:36
00019 suncat0238 pw.x -in pw.inp   Done                     01/20/2018 09:30:36
00020 suncat0238 pw.x -in pw.inp   Done                     01/20/2018 09:30:36
00021 suncat0238 pw.x -in pw.inp   Done                     01/20/2018 09:30:36
00022 suncat0238 pw.x -in pw.inp   Done                     01/20/2018 09:30:36
00023 suncat0238 pw.x -in pw.inp   Done                     01/20/2018 09:30:36
00024 suncat0212 pw.x -in pw.inp   Done                     01/20/2018 09:30:36
00025 suncat0212 pw.x -in pw.inp   Done                     01/20/2018 09:30:36
00026 suncat0212 pw.x -in pw.inp   Done                     01/20/2018 09:30:36
00027 suncat0212 pw.x -in pw.inp   Done                     01/20/2018 09:30:36
00028 suncat0212 pw.x -in pw.inp   Done                     01/20/2018 09:30:36
00029 suncat0212 pw.x -in pw.inp   Done                     01/20/2018 09:30:36
00030 suncat0212 pw.x -in pw.inp   Done                     01/20/2018 09:30:36
00031 suncat0212 pw.x -in pw.inp   Done                     01/20/2018 09:30:36