     Program PWSCF v.5.1rc2 (svn rev. ) starts on 16Apr2018 at 11:21:58

     Current dimensions of program PWSCF are:
     Max number of different atomic species (ntypx) = 10
     Max number of k-points (npk) =  40000
     Max angular momentum in pseudopotentials (lmaxx) =  3
     Presently stress not available with electric field

     IMPORTANT: XC functional enforced from input :
     Exchange-correlation      = BEEF-VDW ( 1  4 27 13 2)
     Any further DFT definition will be discarded
     Please, verify this is what you really want

     Subspace diagonalization in iterative solution of the eigenvalue problem:
     a serial algorithm will be used

     bravais-lattice index     =            0
     lattice parameter (alat)  =       1.8897  a.u.
     unit-cell volume          =    4650.5773 (a.u.)^3
     number of atoms/cell      =           14
     number of atomic types    =            3
     number of electrons       =        42.00
     number of Kohn-Sham states=           31
     kinetic-energy cutoff     =      36.7493  Ry
     charge density cutoff     =     367.4932  Ry
     convergence threshold     =      1.0E-05
     mixing beta               =       0.3000
     number of iterations used =           10  plain     mixing
     Exchange-correlation      = BEEF-VDW ( 1  4 27 13 2)
     nstep                     =           50

     celldm(1)=   1.889726  celldm(2)=   0.000000  celldm(3)=   0.000000
     celldm(4)=   0.000000  celldm(5)=   0.000000  celldm(6)=   0.000000

     crystal axes: (cart. coord. in units of alat)
               a(1) = (   5.682886   0.000000   0.000000 )
               a(2) = (   2.841443   4.921524   0.000000 )
               a(3) = (   0.000000   0.000000  24.640057 )

     reciprocal axes: (cart. coord. in units 2 pi/alat)
               b(1) = (  0.175967 -0.101595  0.000000 )
               b(2) = (  0.000000  0.203189  0.000000 )
               b(3) = (  0.000000  0.000000  0.040584 )

     PseudoPot. # 1 for Al read from file:
     /home/mamunm/src/pseudo/gbrv1.5pbe/Al.UPF
     MD5 check sum: 0a6289f5291fc8f409219462bc851e1f
     Pseudo is Ultrasoft + core correction, Zval =  3.0
     Generated by new atomic code, or converted to UPF format
     Using radial grid of  893 points,  3 beta functions with:
                l(1) =   0
                l(2) =   1
                l(3) =   2
     Q(r) pseudized with  8 coefficients,  rinner =    0.900   0.900   0.900
                                                       0.900   0.900

     PseudoPot. # 2 for N  read from file:
     /home/mamunm/src/pseudo/gbrv1.5pbe/N.UPF
     MD5 check sum: 95339753478d7afb44899504a8723017
     Pseudo is Ultrasoft + core correction, Zval =  5.0
     Generated by new atomic code, or converted to UPF format
     Using radial grid of  729 points,  4 beta functions with:
                l(1) =   0
                l(2) =   0
                l(3) =   1
                l(4) =   1
     Q(r) pseudized with  8 coefficients,  rinner =    0.900   0.900   0.900

     PseudoPot. # 3 for H  read from file:
     /home/mamunm/src/pseudo/gbrv1.5pbe/H.UPF
     MD5 check sum: 761ae9a214b05c3daf00ab9f6b793d6f
     Pseudo is Ultrasoft, Zval =  1.0
     Generated by new atomic code, or converted to UPF format
     Using radial grid of  615 points,  2 beta functions with:
                l(1) =   0
                l(2) =   0
     Q(r) pseudized with  8 coefficients,  rinner =    0.700

     vdW kernel table read from file vdW_kernel_table
     MD5 check sum: 095c7af220d748ca6e76c0b4c6cfb241

     atomic species   valence    mass     pseudopotential
        Al1            3.00    26.98154     Al( 1.00)
        N1             5.00    14.00700     N ( 1.00)
        H1             1.00     1.00800     H ( 1.00)

     No symmetry found

   Cartesian axes

     site n.     atom                  positions (alat units)
         1           Al1 tau(   1) = (   1.4207216   0.8202540  10.0000000  )
         2           Al1 tau(   2) = (   4.2621647   0.8202540  10.0000000  )
         3           Al1 tau(   3) = (   2.8414431   3.2810159  10.0000000  )
         4           Al1 tau(   4) = (   5.6828862   3.2810159  10.0000000  )
         5           Al1 tau(   5) = (   5.6828862   1.6405079  12.3200286  )
         6           Al1 tau(   6) = (   2.8414431   1.6405079  12.3200286  )
         7           Al1 tau(   7) = (   7.1036078   4.1012699  12.3200286  )
         8           Al1 tau(   8) = (   4.2621647   4.1012699  12.3200286  )
         9           Al1 tau(   9) = (   0.0000000   0.0000000  14.6400572  )
        10           Al1 tau(  10) = (   2.8414431   0.0000000  14.6400572  )
        11           Al1 tau(  11) = (   1.4207216   2.4607619  14.6400572  )
        12           Al1 tau(  12) = (   4.2621647   2.4607619  14.6400572  )
        13           N1  tau(  13) = (   2.8414431   1.6405079  15.8880572  )
        14           H1  tau(  14) = (   2.8414431   1.6405079  16.9380572  )

     number of k points=    20  Fermi-Dirac smearing, width (Ry)=  0.0110
                       cart. coord. in units 2pi/alat
        k(    1) = (   0.0000000   0.0000000   0.0000000), wk =   0.0555556
        k(    2) = (   0.0000000   0.0338648   0.0000000), wk =   0.1111111
        k(    3) = (   0.0000000   0.0677297   0.0000000), wk =   0.1111111
        k(    4) = (   0.0000000  -0.1015945   0.0000000), wk =   0.0555556
        k(    5) = (   0.0293278  -0.0169324   0.0000000), wk =   0.1111111
        k(    6) = (   0.0293278   0.0169324   0.0000000), wk =   0.1111111
        k(    7) = (   0.0293278   0.0507973   0.0000000), wk =   0.1111111
        k(    8) = (   0.0293278  -0.1185270   0.0000000), wk =   0.1111111
        k(    9) = (   0.0293278  -0.0846621   0.0000000), wk =   0.1111111
        k(   10) = (   0.0293278  -0.0507973   0.0000000), wk =   0.1111111
        k(   11) = (   0.0586556  -0.0338648   0.0000000), wk =   0.1111111
        k(   12) = (   0.0586556   0.0000000   0.0000000), wk =   0.1111111
        k(   13) = (   0.0586556   0.0338648   0.0000000), wk =   0.1111111
        k(   14) = (   0.0586556  -0.1354594   0.0000000), wk =   0.1111111
        k(   15) = (   0.0586556  -0.1015945   0.0000000), wk =   0.1111111
        k(   16) = (   0.0586556  -0.0677297   0.0000000), wk =   0.1111111
        k(   17) = (  -0.0879835   0.0507973   0.0000000), wk =   0.0555556
        k(   18) = (  -0.0879835   0.0846621   0.0000000), wk =   0.1111111
        k(   19) = (  -0.0879835   0.1185270   0.0000000), wk =   0.1111111
        k(   20) = (  -0.0879835  -0.0507973   0.0000000), wk =   0.0555556

     Largest allocated arrays     est. size (Mb)     dimensions
     Largest temporary arrays     est. size (Mb)     dimensions

     Initial potential from superposition of free atoms
     Check: negative starting charge=   -0.000154

     starting charge   41.97040, renormalised to   42.00000

     negative rho (up, down):  1.539E-04 0.000E+00

     *
     * You are using vdW-DF for exchange-correlation in this calculation.
     * Please cite the following three references that made this development
     * possible:
     *
     *   M. Dion, H. Rydberg, E. Schroder, D. C. Langreth, and
     *   B. I. Lundqvist, Phys. Rev. Lett. 92, 246401 (2004).
     *
     *   T. Thonhauser, V. R. Cooper, S. Li, A. Puzder, P. Hyldgaard, and
     *   D. C. Langreth, Phys. Rev. B 76, 125112 (2007).
     *
     *   G. Roman-Perez and J. M. Soler, Phys. Rev. Lett. 103, 096102 (2009).
     *
     *
     * If you are using vdW-DF2, please also cite:
     *
     *   K. Lee, E. D. Murray, L. Kong, B. I. Lundqvist, and
     *   D. C. Langreth, Phys. Rev. B 82, 081101(R) (2010).
     *
     *
     * If you are calculating the stress with vdW-DF, please also cite:
     *
     *   R. Sabatini, E. Kucukbenli, B. Kolb, T. Thonhauser, and
     *   S. de Gironcoli, J. Phys.: Condens. Matter 24, 424209 (2012).
     *

     Carrying out vdW-DF run using the following parameters:

     Nqs =      20    Nr_points =    1024   r_max =   100.000
     q_mesh =
               0.00001000     0.04494208     0.09755937     0.15916263
               0.23128650     0.31572767     0.41458969     0.53033537
               0.66584808     0.82450364     1.01025438     1.22772762
               1.48234092     1.78043706     2.12944203     2.53805004
               3.01644009     3.57652955     4.23227104     5.00000000

     Gradients computed in reciprocal space

     Adding external electric field

     Computed dipole along edir(3) :
        Dipole               -0.0298 Ry au,         -0.0757 Debye
        Dipole field         -0.0001 Ry au

        Potential amp.        0.0073 Ry
        Total length         45.3989 bohr

     Starting wfc are   53 randomized atomic wfcs

     Self-consistent Calculation

     iteration #  1     ecut=    36.75 Ry     beta=0.30
     Davidson diagonalization with overlap
     ethr =  1.00E-02,  avg # of iterations =  3.0

[...]

     total energy              =    -103.65410942 Ry
     Harris-Foulkes estimate   =    -104.33872370 Ry
     estimated scf accuracy    <       1.60363884 Ry

[...]

     End of self-consistent calculation

          k = 0.0000 0.0000 0.0000 ( 17579 PWs)   bands (ev):

   -16.2452 -10.9953  -9.4289  -7.7205  -6.1557  -5.4886  -5.4886  -5.0578
    -5.0129  -5.0129  -4.6933  -4.5085  -4.5085  -3.6964  -3.6964  -3.5292
    -3.0957  -2.4083  -2.4083  -2.3800  -0.8001  -0.5774  -0.5774   0.0953
     0.3334   0.3334   0.8012   1.9892   2.2273   2.2382   2.2382

[...]

          k =-0.0880 0.0508 0.0000 ( 17464 PWs)   bands (ev):

[...]

     the Fermi energy is    -0.3196 ev

!    total energy              =    -104.00030636 Ry
     Harris-Foulkes estimate   =    -104.00030716 Ry
     estimated scf accuracy    <       0.00000052 Ry

     The total energy is the sum of the following terms:

     one-electron contribution =    -784.06160718 Ry
     hartree contribution      =     401.30029734 Ry
     xc contribution           =     -59.51990848 Ry
     ewald contribution        =     338.31019281 Ry
     electric field correction =       0.00007161 Ry
     smearing contrib. (-TS)   =      -0.02935246 Ry

     convergence has been achieved in  11 iterations

 BEEF-vdW xc energy contributions
           1 :   -48.9582611724814
           2 :    42.0620863403067
           3 :   -31.4717299696399
           4 :    21.3424489386465
           5 :   -14.3306643877364
           6 :    10.6243375557400
           7 :   -8.73547499856989
           8 :    7.11313616313823
           9 :   -5.26124301322614
          10 :    3.66682348644968
          11 :   -2.92154396857109
          12 :    2.98265714945651
          13 :   -3.20420413372360
          14 :    2.96195966265765
          15 :   -2.18716679436731
          16 :    1.31958436955291
          17 :  -0.813117091751039
          18 :   0.716592727220736
          19 :  -0.703734194036066
          20 :   0.452791195532022
          21 :   3.529954091795418E-002
          22 :  -0.477577673417947
          23 :   0.620537157784959
          24 :  -0.489013056478321
          25 :   0.338892373410388
          26 :  -0.391338941469492
          27 :   0.625949277469822
          28 :  -0.826379465190485
          29 :   0.809993792939252
          30 :  -0.604975948051667
          31 :   -7.23898512579775
          32 :   -5.26230808895266

     Forces acting on atoms (Ry/au):

     negative rho (up, down):  6.883E-04 0.000E+00
     atom    1 type  1   force =    -0.00019045   -0.00011002    0.00088297
     atom    2 type  1   force =     0.00019044   -0.00011000    0.00088305
     atom    3 type  1   force =    -0.00000002    0.00021998    0.00088295
     atom    4 type  1   force =    -0.00000007    0.00000006   -0.00340658
     atom    5 type  1   force =     0.00000006   -0.00156193    0.00227021
     atom    6 type  1   force =     0.00000003    0.00000009    0.01025517
     atom    7 type  1   force =     0.00135277    0.00078094    0.00227025
     atom    8 type  1   force =    -0.00135269    0.00078095    0.00227027
     atom    9 type  1   force =     0.00000001    0.00000004   -0.02205163
     atom   10 type  1   force =    -0.00000011    0.00219188    0.03030880
     atom   11 type  1   force =     0.00189827   -0.00109595    0.03030895
     atom   12 type  1   force =    -0.00189824   -0.00109604    0.03030902
     atom   13 type  2   force =    -0.00000002   -0.00000002   -0.04645082
     atom   14 type  3   force =     0.00000002    0.00000001   -0.03873260

     Total force =     0.083153     Total SCF correction =     0.000577

     entering subroutine stress ...

     negative rho (up, down):  6.883E-04 0.000E+00
          total   stress  (Ry/bohr**3)                   (kbar)     P=  -10.13
  -0.00006588   0.00000000   0.00000000         -9.69      0.00      0.00
   0.00000000  -0.00006588  -0.00000000          0.00     -9.69     -0.00
   0.00000000  -0.00000000  -0.00007476          0.00     -0.00    -11.00

     BFGS Geometry Optimization

     number of scf cycles    =   1
     number of bfgs steps    =   0

     energy   new            =    -104.0003063640 Ry

     new trust radius        =       0.0464508233 bohr
     new conv_thr            =       0.0000099958 Ry

ATOMIC_POSITIONS (crystal)
Al1      0.166666667   0.166666667   0.405843214    0   0   0
Al1      0.666666667   0.166666667   0.405843214    0   0   0
Al1      0.166666667   0.666666667   0.405843214    0   0   0
Al1      0.666666667   0.666666667   0.405843214    0   0   0
Al1      0.833333333   0.333333333   0.500000000    0   0   0
Al1      0.333333333   0.333333333   0.500000000    0   0   0
Al1      0.833333333   0.833333333   0.500000000    0   0   0
Al1      0.333333333   0.833333333   0.500000000    0   0   0
Al1     -0.000000001   0.000000005   0.593683199
Al1      0.499882151   0.000235677   0.594807707
Al1      0.000235682   0.499882160   0.594807710
Al1      0.499882165   0.499882151   0.594807711
N1       0.333333332   0.333333332   0.643808427
H1       0.333333335   0.333333335   0.686587724

     Writing output data file calc.save
     Check: negative starting charge=   -0.000154
     NEW-OLD atomic charge density approx. for the potential
     Check: negative starting charge=   -0.000152

[...]

     energy   old            =    -104.0003063640 Ry
     energy   new            =    -104.0065604345 Ry

     CASE: energy  _new < energy  _old

     WARNING: bfgs curvature condition failed, Theta= 0.992
     new trust radius        =       0.0510959057 bohr
     new conv_thr            =       0.0000001000 Ry

[...]

     Threshold (ethr) on eigenvalues was too large:
     Diagonalizing with lowered threshold

     Davidson diagonalization with overlap
     ethr =  4.72E-08,  avg # of iterations =  2.1

[...]

     number of scf cycles    =  16
     number of bfgs steps    =  15

     energy   old            =    -104.0278458749 Ry
     energy   new            =    -104.0278632808 Ry

     CASE: energy  _new < energy  _old

     new trust radius        =       0.0060373661 bohr
     new conv_thr            =       0.0000001000 Ry

ATOMIC_POSITIONS (crystal)
Al1      0.166666667   0.166666667   0.405843214    0   0   0
Al1      0.666666667   0.166666667   0.405843214    0   0   0
Al1      0.166666667   0.666666667   0.405843214    0   0   0
Al1      0.666666667   0.666666667   0.405843214    0   0   0
Al1      0.833333333   0.333333333   0.500000000    0   0   0
Al1      0.333333333   0.333333333   0.500000000    0   0   0
Al1      0.833333333   0.833333333   0.500000000    0   0   0
Al1      0.333333333   0.833333333   0.500000000    0   0   0
Al1     -0.000000006  -0.000000000   0.588059012
Al1      0.506614325  -0.013228661   0.595194384
Al1     -0.013228662   0.506614333   0.595194383
Al1      0.506614324   0.506614332   0.595194382
N1       0.333333332   0.333333334   0.633967948
H1       0.333333333   0.333333324   0.675652046

     Writing output data file calc.save
     Check: negative starting charge=   -0.000149
     NEW-OLD atomic charge density approx. for the potential
     Check: negative starting charge=   -0.000149

[...]

     Self-consistent Calculation

[...]

     Threshold (ethr) on eigenvalues was too large:
     Diagonalizing with lowered threshold

     Davidson diagonalization with overlap
     ethr =  7.51E-09,  avg # of iterations =  2.9

[...]

     total energy              =    -104.02787780 Ry
     Harris-Foulkes estimate   =    -104.02787783 Ry
     estimated scf accuracy    <       0.00000033 Ry

     iteration #  5     ecut=    36.75 Ry     beta=0.30
     Davidson diagonalization with overlap
     ethr =  7.81E-10,  avg # of iterations =  2.0

[...]

     negative rho (up, down):  6.656E-04 0.000E+00

     Adding external electric field

     Computed dipole along edir(3) :
        Dipole                0.2367 Ry au,          0.6015 Debye
        Dipole field          0.0006 Ry au

        Potential amp.       -0.0581 Ry
        Total length         45.3989 bohr

     End of self-consistent calculation

[...]

          k = 0.0587-0.0677 0.0000 ( 17495 PWs)   bands (ev):

[...]

          k =-0.0880-0.0508 0.0000 ( 17464 PWs)   bands (ev):

   -17.0795  -9.5421  -9.5094  -8.5200  -7.9719  -7.0525  -6.7611  -6.0846
    -5.7960  -5.6918  -4.9231  -3.9541  -3.9310  -3.5186  -2.1096  -1.8018
    -1.6552  -0.7360  -0.6951  -0.5273  -0.1933  -0.0760   0.7526   0.8837
     1.2888   1.3945   1.6714   1.7917   2.0405   2.1236   2.5044

     the Fermi energy is    -0.1786 ev

!    total energy              =    -104.02787787 Ry
     Harris-Foulkes estimate   =    -104.02787782 Ry
     estimated scf accuracy    <       0.00000003 Ry

     The total energy is the sum of the following terms:

     one-electron contribution =    -803.05552020 Ry
     hartree contribution      =     410.81042288 Ry
     xc contribution           =     -59.68538945 Ry
     ewald contribution        =     347.93190345 Ry
     electric field correction =       0.00015134 Ry
     smearing contrib. (-TS)   =      -0.02944588 Ry

     convergence has been achieved in   5 iterations

 BEEF-vdW xc energy contributions
           1 :   -49.1164131450655
           2 :    42.2344736339348
           3 :   -31.6393090034822
           4 :    21.4639092434732
           5 :   -14.3750777204809
           6 :    10.5929322316478
           7 :   -8.66114166589399
           8 :    7.03872755873012
           9 :   -5.21271740623759
          10 :    3.64155080405405
          11 :   -2.89918377007112
          12 :    2.94830196626350
          13 :   -3.16283047651910
          14 :    2.93145558363776
          15 :   -2.17958048935331
          16 :    1.33073014966217
          17 :  -0.829598584425867
          18 :   0.731986889452557
          19 :  -0.726191185635713
          20 :   0.494356834457527
          21 :  -2.394540731297923E-002
          22 :  -0.418959923887726
          23 :   0.581896283012455
          24 :  -0.471476914409791
          25 :   0.322447465676859
          26 :  -0.351857715560556
          27 :   0.555409607876399
          28 :  -0.736531830856315
          29 :   0.716881673013489
          30 :  -0.511240338682299
          31 :   -7.24955542672515
          32 :   -5.27330566548049

     Forces acting on atoms (Ry/au):

     negative rho (up, down):  6.656E-04 0.000E+00
     atom    1 type  1   force =     0.00215354    0.00124335    0.00051392
     atom    2 type  1   force =    -0.00215355    0.00124336    0.00051392
     atom    3 type  1   force =    -0.00000000   -0.00248670    0.00051392
     atom    4 type  1   force =     0.00000000   -0.00000000   -0.00259919
     atom    5 type  1   force =     0.00000000    0.00323639   -0.00004055
     atom    6 type  1   force =    -0.00000000    0.00000000    0.00050258
     atom    7 type  1   force =    -0.00280280   -0.00161819   -0.00004055
     atom    8 type  1   force =     0.00280280   -0.00161819   -0.00004056
     atom    9 type  1   force =     0.00000000    0.00000001    0.00188052
     atom   10 type  1   force =    -0.00000000   -0.00095193   -0.00052033
     atom   11 type  1   force =    -0.00082440    0.00047597   -0.00052033
     atom   12 type  1   force =     0.00082440    0.00047597   -0.00052033
     atom   13 type  2   force =     0.00000000   -0.00000002    0.00015049
     atom   14 type  3   force =     0.00000000    0.00000001    0.00020650

     Total force =     0.002671     Total SCF correction =     0.000062

     entering subroutine stress ...

     negative rho (up, down):  6.656E-04 0.000E+00
          total   stress  (Ry/bohr**3)                   (kbar)     P=   -4.16
  -0.00004250  -0.00000000   0.00000000         -6.25     -0.00      0.00
  -0.00000000  -0.00004250   0.00000000         -0.00     -6.25      0.00
   0.00000000   0.00000000   0.00000026          0.00      0.00      0.04

     bfgs converged in  17 scf cycles and  16 bfgs steps
     (criteria: energy <  1.0E+00, force <  1.9E-03)

     End of BFGS Geometry Optimization

     Final energy   =    -104.0278778702 Ry
Begin final coordinates

ATOMIC_POSITIONS (crystal)
Al1      0.166666667   0.166666667   0.405843214    0   0   0
Al1      0.666666667   0.166666667   0.405843214    0   0   0
Al1      0.166666667   0.666666667   0.405843214    0   0   0
Al1      0.666666667   0.666666667   0.405843214    0   0   0
Al1      0.833333333   0.333333333   0.500000000    0   0   0
Al1      0.333333333   0.333333333   0.500000000    0   0   0
Al1      0.833333333   0.833333333   0.500000000    0   0   0
Al1      0.333333333   0.833333333   0.500000000    0   0   0
Al1     -0.000000006  -0.000000000   0.588059012
Al1      0.506614325  -0.013228661   0.595194384
Al1     -0.013228662   0.506614333   0.595194383
Al1      0.506614324   0.506614332   0.595194382
N1       0.333333332   0.333333334   0.633967948
H1       0.333333333   0.333333324   0.675652046
End final coordinates

     Writing output data file calc.save

     General routines

     Parallel routines

   This run was terminated on:  11:39:28  16Apr2018

   JOB DONE.