     Program PWSCF v.5.1rc2 (svn rev. 11289) starts on  2May2018 at 16:22:33

     Current dimensions of program PWSCF are:
     Max number of different atomic species (ntypx) = 10
     Max number of k-points (npk) =  40000
     Max angular momentum in pseudopotentials (lmaxx) =  3
     Presently stress not available with electric field

     IMPORTANT: XC functional enforced from input :
     Exchange-correlation      = BEEF-VDW ( 1  4 27 13 2)
     Any further DFT definition will be discarded
     Please, verify this is what you really want

     Subspace diagonalization in iterative solution of the eigenvalue problem:
     a serial algorithm will be used

     bravais-lattice index     =            0
     lattice parameter (alat)  =       1.8897  a.u.
     unit-cell volume          =    4301.6107 (a.u.)^3
     number of atoms/cell      =           13
     number of atomic types    =            2
     number of electrons       =       181.00
     number of Kohn-Sham states=          100
     kinetic-energy cutoff     =      36.7493  Ry
     charge density cutoff     =     367.4932  Ry
     convergence threshold     =      1.0E-05
     mixing beta               =       0.3000
     number of iterations used =           10  plain     mixing
     Exchange-correlation      = BEEF-VDW ( 1  4 27 13 2)
     nstep                     =           50

     celldm(1)=   1.889726  celldm(2)=   0.000000  celldm(3)=   0.000000
     celldm(4)=   0.000000  celldm(5)=   0.000000  celldm(6)=   0.000000

     crystal axes: (cart. coord. in units of alat)
               a(1) = (   5.483647   0.000000   0.000000 )
               a(2) = (   2.741823   4.748977   0.000000 )
               a(3) = (   0.000000   0.000000  24.477379 )

     reciprocal axes: (cart. coord. in units 2 pi/alat)
               b(1) = (  0.182360 -0.105286  0.000000 )
               b(2) = (  0.000000  0.210572  0.000000 )
               b(3) = (  0.000000  0.000000  0.040854 )

     PseudoPot. # 1 for Tc read from file:
     /u/if/mamunm/psp/gbrv1.5pbe/Tc.UPF
     MD5 check sum: 9eb49e5b028550b2339a02317eb7b844
     Pseudo is Ultrasoft + core correction, Zval = 15.0
     Generated by new atomic code, or converted to UPF format
     Using radial grid of  965 points,  6 beta functions with:
                l(1) =   0
                l(2) =   0
                l(3) =   1
                l(4) =   1
                l(5) =   2
                l(6) =   2
     Q(r) pseudized with  8 coefficients,  rinner =    1.300   1.300   1.300
                                                       1.300   1.300

     PseudoPot. # 2 for H  read from file:
     /u/if/mamunm/psp/gbrv1.5pbe/H.UPF
     MD5 check sum: 761ae9a214b05c3daf00ab9f6b793d6f
     Pseudo is Ultrasoft, Zval =  1.0
     Generated by new atomic code, or converted to UPF format
     Using radial grid of  615 points,  2 beta functions with:
                l(1) =   0
                l(2) =   0
     Q(r) pseudized with  8 coefficients,  rinner =    0.700

     vdW kernel table read from file vdW_kernel_table
     MD5 check sum: 095c7af220d748ca6e76c0b4c6cfb241

     atomic species   valence    mass     pseudopotential
        Tc1           15.00    97.90721     Tc( 1.00)
        H1             1.00     1.00800     H ( 1.00)

     No symmetry found

   Cartesian axes

     site n.     atom                  positions (alat units)
         1           Tc1 tau(   1) = (   1.3709117   0.7914962  10.0000000  )
         2           Tc1 tau(   2) = (   4.1127351   0.7914962  10.0000000  )
         3           Tc1 tau(   3) = (   2.7418234   3.1659850  10.0000000  )
         4           Tc1 tau(   4) = (   5.4836469   3.1659850  10.0000000  )
         5           Tc1 tau(   5) = (   5.4836469   1.5829925  12.2386895  )
         6           Tc1 tau(   6) = (   2.7418234   1.5829925  12.2386895  )
         7           Tc1 tau(   7) = (   6.8545586   3.9574812  12.2386895  )
         8           Tc1 tau(   8) = (   4.1127351   3.9574812  12.2386895  )
         9           Tc1 tau(   9) = (   0.0000000   0.0000000  14.4773789  )
        10           Tc1 tau(  10) = (   2.7418234   0.0000000  14.4773789  )
        11           Tc1 tau(  11) = (   1.3709117   2.3744887  14.4773789  )
        12           Tc1 tau(  12) = (   4.1127351   2.3744887  14.4773789  )
        13           H1  tau(  13) = (   1.3709117   0.0000000  15.8123789  )

     number of k points=    20  Fermi-Dirac smearing, width (Ry)=  0.0110
                       cart. coord. in units 2pi/alat
        k(    1) = (   0.0000000   0.0000000   0.0000000), wk =   0.0555556
        k(    2) = (   0.0000000   0.0350953   0.0000000), wk =   0.1111111
        k(    3) = (   0.0000000   0.0701905   0.0000000), wk =   0.1111111
        k(    4) = (   0.0000000  -0.1052858   0.0000000), wk =   0.0555556
        k(    5) = (   0.0303934  -0.0175476   0.0000000), wk =   0.1111111
        k(    6) = (   0.0303934   0.0175476   0.0000000), wk =   0.1111111
        k(    7) = (   0.0303934   0.0526429   0.0000000), wk =   0.1111111
        k(    8) = (   0.0303934  -0.1228335   0.0000000), wk =   0.1111111
        k(    9) = (   0.0303934  -0.0877382   0.0000000), wk =   0.1111111
        k(   10) = (   0.0303934  -0.0526429   0.0000000), wk =   0.1111111
        k(   11) = (   0.0607868  -0.0350953   0.0000000), wk =   0.1111111
        k(   12) = (   0.0607868   0.0000000   0.0000000), wk =   0.1111111
        k(   13) = (   0.0607868   0.0350953   0.0000000), wk =   0.1111111
        k(   14) = (   0.0607868  -0.1403811   0.0000000), wk =   0.1111111
        k(   15) = (   0.0607868  -0.1052858   0.0000000), wk =   0.1111111
        k(   16) = (   0.0607868  -0.0701905   0.0000000), wk =   0.1111111
        k(   17) = (  -0.0911802   0.0526429   0.0000000), wk =   0.0555556
        k(   18) = (  -0.0911802   0.0877382   0.0000000), wk =   0.1111111
        k(   19) = (  -0.0911802   0.1228335   0.0000000), wk =   0.1111111
        k(   20) = (  -0.0911802  -0.0526429   0.0000000), wk =   0.0555556

     Largest allocated arrays     est. size (Mb)     dimensions
     Largest temporary arrays     est. size (Mb)     dimensions

     Check: negative/imaginary core charge=   -0.000022    0.000000

     Initial potential from superposition of free atoms
     Check: negative starting charge=   -1.504997

     starting charge  168.99966, renormalised to  181.00000

     negative rho (up, down):  1.612E+00 0.000E+00

     *
     * You are using vdW-DF for exchange-correlation in this calculation.
     * Please cite the following three references that made this development
     * possible:
     *
     *   M. Dion, H. Rydberg, E. Schroder, D. C. Langreth, and
     *   B. I. Lundqvist, Phys. Rev. Lett. 92, 246401 (2004).
     *
     *   T. Thonhauser, V. R. Cooper, S. Li, A. Puzder, P. Hyldgaard, and
     *   D. C. Langreth, Phys. Rev. B 76, 125112 (2007).
     *
     *   G. Roman-Perez and J. M. Soler, Phys. Rev. Lett. 103, 096102 (2009).
     *
     *
     * If you are using vdW-DF2, please also cite:
     *
     *   K. Lee, E. D. Murray, L. Kong, B. I. Lundqvist, and
     *   D. C. Langreth, Phys. Rev. B 82, 081101(R) (2010).
     *
     *
     * If you are calculating the stress with vdW-DF, please also cite:
     *
     *   R. Sabatini, E. Kucukbenli, B. Kolb, T. Thonhauser, and
     *   S. de Gironcoli, J. Phys.: Condens. Matter 24, 424209 (2012).
     *

     Carrying out vdW-DF run using the following parameters:

     Nqs =      20    Nr_points =    1024   r_max =   100.000
     q_mesh =
               0.00001000     0.04494208     0.09755937     0.15916263
               0.23128650     0.31572767     0.41458969     0.53033537
               0.66584808     0.82450364     1.01025438     1.22772762
               1.48234092     1.78043706     2.12944203     2.53805004
               3.01644009     3.57652955     4.23227104     5.00000000

     Gradients computed in reciprocal space

     Adding external electric field

     Computed dipole along edir(3) :
        Dipole               -0.4795 Ry au,         -1.2187 Debye
        Dipole field         -0.0014 Ry au

        Potential amp.        0.1263 Ry
        Total length         45.0992 bohr

     Starting wfc are  157 randomized atomic wfcs

     Self-consistent Calculation

     iteration #  1     ecut=    36.75 Ry     beta=0.30
     Davidson diagonalization with overlap
     ethr =  1.00E-02,  avg # of iterations =  2.1

[...]

     total energy              =   -2098.95421116 Ry
     Harris-Foulkes estimate   =   -2109.28029934 Ry
     estimated scf accuracy    <      23.53054461 Ry

[...]

     End of self-consistent calculation

          k = 0.0000 0.0000 0.0000 ( 16073 PWs)   bands (ev):

   -64.8733 -64.7338 -64.7179 -64.6985 -64.6685 -64.6070 -64.5624 -64.5388
   -64.5206 -64.4866 -64.4848 -64.4834 -37.3103 -37.3015 -37.2960 -37.1938
   -37.1481 -37.1270 -37.1258 -37.0063 -36.9931 -36.9867 -36.6901 -36.6578
   -36.6534 -36.6353 -36.5822 -36.5806 -36.5723 -36.5666 -36.5574 -36.5493
   -36.4220 -36.4134 -36.4054 -36.3562 -36.3447 -36.3412 -36.3395 -36.3369
   -36.3321 -36.2743 -36.2732 -36.2724 -36.1377 -36.1317 -36.0782 -36.0780
    -4.2420  -3.3583  -2.7970  -2.7903  -2.7796  -2.6865  -2.4374  -2.3579
    -2.3519  -2.2736  -2.1641  -2.1614  -1.9327  -1.8394  -1.8165  -1.2915
    -0.6549  -0.6404  -0.1378   0.1680   0.1716   0.2973   0.4480   0.7233
     0.7279   0.9044   1.0456   1.0845   1.1186   1.1257   1.1834   1.2922
     1.3235   1.6409   1.6736   1.7220   2.4979   2.7360   2.7659   2.7676
     2.7925   2.8125   3.1191   3.1245   3.1928   3.5858   3.6109   3.9722
     4.1077   4.1485   4.4042   4.4370

[...]

          k =-0.0912 0.0526 0.0000 ( 16164 PWs)   bands (ev):

[...]

     the Fermi energy is     2.4132 ev

!    total energy              =   -2104.55227711 Ry
     Harris-Foulkes estimate   =   -2104.55228054 Ry
     estimated scf accuracy    <       0.00000504 Ry

     The total energy is the sum of the following terms:

     one-electron contribution =  -18662.16815908 Ry
     hartree contribution      =    9329.73367040 Ry
     xc contribution           =    -397.65239418 Ry
     ewald contribution        =    7625.62879952 Ry
     electric field correction =       0.00000151 Ry
     smearing contrib. (-TS)   =      -0.09419529 Ry

     convergence has been achieved in  23 iterations

 BEEF-vdW xc energy contributions
           1 :   -348.460328312748
           2 :    320.416487833110
           3 :   -270.508826663452
           4 :    208.738304273122
           5 :   -145.820807846235
           6 :    90.1965402252395
           7 :   -46.3573924612907
           8 :    14.7366426523448
           9 :    7.01970212103686
          10 :   -22.2011351734757
          11 :    33.3625057152283
          12 :   -41.4767038494887
          13 :    46.0155729197883
          14 :   -45.7666666622715
          15 :    39.8824383051392
          16 :   -28.6912660005115
          17 :    13.9255377258162
          18 :    1.67330150673206
          19 :   -15.1795209054837
          20 :    24.3562987790289
          21 :   -28.2293695989913
          22 :    27.1518650935823
          23 :   -22.4065271131643
          24 :    15.5727668281357
          25 :   -7.97008202181667
          26 :   0.394433830639969
          27 :    6.79993432939682
          28 :   -13.4052925759231
          29 :    19.0626135949242
          30 :   -23.1465717501374
          31 :   -33.1200988970659
          32 :   -24.3012015555673

     Forces acting on atoms (Ry/au):

     negative rho (up, down):  1.589E+00 0.000E+00
     atom    1 type  1   force =     0.00000672    0.00084605    0.02720280
     atom    2 type  1   force =    -0.00000993   -0.00089179    0.02827844
     atom    3 type  1   force =    -0.00169599    0.00120717    0.02907890
     atom    4 type  1   force =     0.00170041    0.00121672    0.02908999
     atom    5 type  1   force =     0.00017883   -0.00065724    0.00217704
     atom    6 type  1   force =    -0.00018054   -0.00065517    0.00217343
     atom    7 type  1   force =     0.00000319   -0.00833430   -0.02465420
     atom    8 type  1   force =    -0.00000075    0.00012519    0.00731393
     atom    9 type  1   force =    -0.00433223    0.00401197   -0.00959832
     atom   10 type  1   force =     0.00433238    0.00401198   -0.00959000
     atom   11 type  1   force =     0.00000099    0.00515189   -0.02804178
     atom   12 type  1   force =    -0.00000293   -0.00727040   -0.03250394
     atom   13 type  2   force =    -0.00000015    0.00123793   -0.02092629

     Total force =     0.051142     Total SCF correction =     0.010827
     SCF correction compared to forces is large: reduce conv_thr to get better values

     entering subroutine stress ...

     negative rho (up, down):  1.589E+00 0.000E+00
          total   stress  (Ry/bohr**3)                   (kbar)     P=  -35.05
  -0.00023812   0.00000001  -0.00000000        -35.03      0.00     -0.00
   0.00000001  -0.00023536   0.00000544          0.00    -34.62      0.80
  -0.00000000   0.00000544  -0.00024128         -0.00      0.80    -35.49

     BFGS Geometry Optimization

     number of scf cycles    =   1
     number of bfgs steps    =   0

     energy   new            =   -2104.5522771112 Ry

     new trust radius        =       0.0333071287 bohr
     new conv_thr            =       0.0000099958 Ry

ATOMIC_POSITIONS (crystal)
Tc1      0.166666667   0.166666667   0.408540475    0   0   0
Tc1      0.666666667   0.166666667   0.408540475    0   0   0
Tc1      0.166666667   0.666666667   0.408540475    0   0   0
Tc1      0.666666667   0.666666667   0.408540475    0   0   0
Tc1      0.833333333   0.333333333   0.500000000    0   0   0
Tc1      0.333333333   0.333333333   0.500000000    0   0   0
Tc1      0.833333333   0.833333333   0.500000000    0   0   0
Tc1      0.333333333   0.833333333   0.500000000    0   0   0
Tc1     -0.000641590   0.000447053   0.591252019
Tc1      0.500194551   0.000447054   0.591252199
Tc1     -0.000286942   0.500574074   0.590853289
Tc1      0.500404787   0.499189861   0.590756822
H1       0.249931014   0.000137943   0.645547272

     Writing output data file calc.save
     Check: negative starting charge=   -1.504997
     NEW-OLD atomic charge density approx. for the potential

     Check: negative/imaginary core charge=   -0.000022    0.000000
     Check: negative starting charge=   -1.508211

[...]

     Total force =     0.046113     Total SCF correction =     0.001099

[...]

     energy   old            =   -2104.5522771112 Ry
     energy   new            =   -2104.5547712496 Ry

     CASE: energy  _new < energy  _old

     WARNING: bfgs curvature condition failed, Theta= 0.888
     new trust radius        =       0.0366378415 bohr
     new conv_thr            =       0.0000001000 Ry

[...]

     WARNING: bfgs curvature condition failed, Theta= 0.904
     new trust radius        =       0.0151246459 bohr
     new conv_thr            =       0.0000001000 Ry

[...]

     Threshold (ethr) on eigenvalues was too large:
     Diagonalizing with lowered threshold

     Davidson diagonalization with overlap
     ethr =  8.75E-08,  avg # of iterations =  3.1

[...]

     Total force =     0.004177     Total SCF correction =     0.000292

[...]

     number of scf cycles    =  12
     number of bfgs steps    =  11

     energy   old            =   -2104.5656330102 Ry
     energy   new            =   -2104.5656581021 Ry

     CASE: energy  _new < energy  _old

     new trust radius        =       0.0117991295 bohr
     new conv_thr            =       0.0000001000 Ry

ATOMIC_POSITIONS (crystal)
Tc1      0.166666667   0.166666667   0.408540475    0   0   0
Tc1      0.666666667   0.166666667   0.408540475    0   0   0
Tc1      0.166666667   0.666666667   0.408540475    0   0   0
Tc1      0.666666667   0.666666667   0.408540475    0   0   0
Tc1      0.833333333   0.333333333   0.500000000    0   0   0
Tc1      0.333333333   0.333333333   0.500000000    0   0   0
Tc1      0.833333333   0.833333333   0.500000000    0   0   0
Tc1      0.333333333   0.833333333   0.500000000    0   0   0
Tc1     -0.006436761   0.006081318   0.588226306
Tc1      0.500354995   0.006081243   0.588226100
Tc1     -0.003223384   0.506446466   0.587190033
Tc1      0.500704564   0.498590711   0.586448251
H1       0.247324990   0.005349408   0.637953452

     Writing output data file calc.save
     Check: negative starting charge=   -1.502342
     NEW-OLD atomic charge density approx. for the potential

     Check: negative/imaginary core charge=   -0.000022    0.000000
     Check: negative starting charge=   -1.502891

[...]

     Self-consistent Calculation

[...]

     Threshold (ethr) on eigenvalues was too large:
     Diagonalizing with lowered threshold

     Davidson diagonalization with overlap
     ethr =  4.68E-08,  avg # of iterations =  2.2

[...]

     total energy              =   -2104.56569175 Ry
     Harris-Foulkes estimate   =   -2104.56569183 Ry
     estimated scf accuracy    <       0.00000064 Ry

     iteration # 10     ecut=    36.75 Ry     beta=0.30
     Davidson diagonalization with overlap
     ethr =  3.55E-10,  avg # of iterations =  4.0

[...]

     negative rho (up, down):  1.587E+00 0.000E+00

     Adding external electric field

     Computed dipole along edir(3) :
        Dipole                0.0255 Ry au,          0.0649 Debye
        Dipole field          0.0001 Ry au

        Potential amp.       -0.0067 Ry
        Total length         45.0992 bohr

     End of self-consistent calculation

[...]

          k = 0.0608-0.0702 0.0000 ( 16203 PWs)   bands (ev):

[...]

          k =-0.0912-0.0526 0.0000 ( 16164 PWs)   bands (ev):

   -64.8035 -64.8006 -64.7175 -64.7130 -64.5705 -64.5602 -64.5430 -64.5421
   -64.5009 -64.4904 -64.4851 -64.4822 -37.1711 -37.1673 -37.1245 -37.1112
   -37.0557 -37.0441 -36.9259 -36.9139 -36.8585 -36.8486 -36.8144 -36.8132
   -36.6206 -36.5886 -36.5611 -36.5575 -36.5501 -36.5377 -36.5239 -36.5128
   -36.4902 -36.4793 -36.4776 -36.4764 -36.4698 -36.4635 -36.4341 -36.4238
   -36.3428 -36.3291 -36.2806 -36.2715 -36.2087 -36.1977 -36.1698 -36.1664
    -3.0232  -2.5764  -2.4841  -1.9249  -1.9087  -1.8833  -1.8574  -1.6019
    -1.5877  -1.3795  -1.2971  -1.2068  -1.1763  -0.9431  -0.8842  -0.8480
    -0.8224  -0.3825  -0.3665  -0.1887  -0.1698  -0.0389  -0.0006   0.4682
     0.5310   0.7127   0.7695   0.8508   0.8601   1.0375   1.0516   1.0892
     1.1364   1.1596   1.2268   1.2930   1.3463   1.3790   1.3894   1.4099
     2.1892   2.2342   2.2451   2.3099   2.4427   2.4572   2.8030   2.8562
     2.9402   3.0058   3.0885   3.1309

     the Fermi energy is     2.4305 ev

!    total energy              =   -2104.56569177 Ry
     Harris-Foulkes estimate   =   -2104.56569175 Ry
     estimated scf accuracy    <       0.00000005 Ry

     The total energy is the sum of the following terms:

     one-electron contribution =  -18928.73184850 Ry
     hartree contribution      =    9463.06242694 Ry
     xc contribution           =    -397.91326700 Ry
     ewald contribution        =    7759.11003422 Ry
     electric field correction =       0.00000190 Ry
     smearing contrib. (-TS)   =      -0.09303934 Ry

     convergence has been achieved in  10 iterations

 BEEF-vdW xc energy contributions
           1 :   -348.725638884255
           2 :    320.771671403898
           3 :   -270.984219725288
           4 :    209.278439233655
           5 :   -146.305603139638
           6 :    90.4994591556663
           7 :   -46.4098988738782
           8 :    14.5688450510766
           9 :    7.28521384025760
          10 :   -22.4040064994078
          11 :    33.3810603270491
          12 :   -41.2843729635027
          13 :    45.6934157109329
          14 :   -45.4639198068951
          15 :    39.7427932664156
          16 :   -28.7833212093387
          17 :    14.2091079499671
          18 :    1.32790951035270
          19 :   -14.9296054682455
          20 :    24.3105731646645
          21 :   -28.3955589518406
          22 :    27.4341803130691
          23 :   -22.6540657798594
          24 :    15.6537165816637
          25 :   -7.83505490976472
          26 :   9.890396713581140E-002
          27 :    7.12385717806853
          28 :   -13.6131901104347
          29 :    19.0657099726609
          30 :   -22.9508661614403
          31 :   -33.1377189990787
          32 :   -24.3389963469985

     Forces acting on atoms (Ry/au):

     negative rho (up, down):  1.587E+00 0.000E+00
     atom    1 type  1   force =     0.00000013    0.00128057    0.01718545
     atom    2 type  1   force =     0.00000003   -0.00010562    0.01825341
     atom    3 type  1   force =    -0.00117834    0.00206724    0.01793711
     atom    4 type  1   force =     0.00117825    0.00206722    0.01793623
     atom    5 type  1   force =    -0.00074676   -0.00121735   -0.01281405
     atom    6 type  1   force =     0.00074671   -0.00121761   -0.01281416
     atom    7 type  1   force =    -0.00000045   -0.00557396   -0.03825992
     atom    8 type  1   force =     0.00000052    0.00180812   -0.00806233
     atom    9 type  1   force =    -0.00112248    0.00032362    0.00076519
     atom   10 type  1   force =     0.00112189    0.00032331    0.00076690
     atom   11 type  1   force =     0.00000013   -0.00152393   -0.00054350
     atom   12 type  1   force =    -0.00000003    0.00062328   -0.00070513
     atom   13 type  2   force =     0.00000040    0.00114511    0.00035479

     Total force =     0.002974     Total SCF correction =     0.000433
     SCF correction compared to forces is large: reduce conv_thr to get better values

     entering subroutine stress ...

     negative rho (up, down):  1.587E+00 0.000E+00
          total   stress  (Ry/bohr**3)                   (kbar)     P=  -21.32
  -0.00017225   0.00000000   0.00000000        -25.34      0.00      0.00
   0.00000000  -0.00017645  -0.00000337          0.00    -25.96     -0.50
   0.00000000  -0.00000337  -0.00008614          0.00     -0.50    -12.67

     bfgs converged in  13 scf cycles and  12 bfgs steps
     (criteria: energy <  1.0E+00, force <  1.9E-03)

     End of BFGS Geometry Optimization

     Final energy   =   -2104.5656917689 Ry
Begin final coordinates

ATOMIC_POSITIONS (crystal)
Tc1      0.166666667   0.166666667   0.408540475    0   0   0
Tc1      0.666666667   0.166666667   0.408540475    0   0   0
Tc1      0.166666667   0.666666667   0.408540475    0   0   0
Tc1      0.666666667   0.666666667   0.408540475    0   0   0
Tc1      0.833333333   0.333333333   0.500000000    0   0   0
Tc1      0.333333333   0.333333333   0.500000000    0   0   0
Tc1      0.833333333   0.833333333   0.500000000    0   0   0
Tc1      0.333333333   0.833333333   0.500000000    0   0   0
Tc1     -0.006436761   0.006081318   0.588226306
Tc1      0.500354995   0.006081243   0.588226100
Tc1     -0.003223384   0.506446466   0.587190033
Tc1      0.500704564   0.498590711   0.586448251
H1       0.247324990   0.005349408   0.637953452
End final coordinates

     Writing output data file calc.save

     General routines

     Parallel routines

   This run was terminated on:  17:47:29   2May2018

   JOB DONE.
Job  /afs/slac/g/suncat/bin/suncat-tsmpirun -x LD_LIBRARY_PATH -wdir /scratch/qe796801_EBfzk pw.x -npool 4 -in pw.inp

TID   HOST_NAME   COMMAND_LINE            STATUS            TERMINATION_TIME
00000 suncat0010 pw.x -npool 4 -i  Done                     05/02/2018 17:47:29
00001 suncat0010 pw.x -npool 4 -i  Done                     05/02/2018 17:47:29
00002 suncat0010 pw.x -npool 4 -i  Done                     05/02/2018 17:47:29
00003 suncat0010 pw.x -npool 4 -i  Done                     05/02/2018 17:47:29
00004 suncat0010 pw.x -npool 4 -i  Done                     05/02/2018 17:47:29
00005 suncat0010 pw.x -npool 4 -i  Done                     05/02/2018 17:47:29
00006 suncat0010 pw.x -npool 4 -i  Done                     05/02/2018 17:47:29
00007 suncat0010 pw.x -npool 4 -i  Done                     05/02/2018 17:47:29
00008 suncat0191 pw.x -npool 4 -i  Done                     05/02/2018 17:47:29
00009 suncat0191 pw.x -npool 4 -i  Done                     05/02/2018 17:47:29
00010 suncat0191 pw.x -npool 4 -i  Done                     05/02/2018 17:47:29
00011 suncat0191 pw.x -npool 4 -i  Done                     05/02/2018 17:47:29
00012 suncat0191 pw.x -npool 4 -i  Done                     05/02/2018 17:47:29
00013 suncat0191 pw.x -npool 4 -i  Done                     05/02/2018 17:47:29
00014 suncat0191 pw.x -npool 4 -i  Done                     05/02/2018 17:47:29
00015 suncat0191 pw.x -npool 4 -i  Done                     05/02/2018 17:47:29
00016 suncat0159 pw.x -npool 4 -i  Done                     05/02/2018 17:47:29
00017 suncat0159 pw.x -npool 4 -i  Done                     05/02/2018 17:47:29
00018 suncat0159 pw.x -npool 4 -i  Done                     05/02/2018 17:47:29
00019 suncat0159 pw.x -npool 4 -i  Done                     05/02/2018 17:47:29
00020 suncat0159 pw.x -npool 4 -i  Done                     05/02/2018 17:47:29
00021 suncat0159 pw.x -npool 4 -i  Done                     05/02/2018 17:47:29
00022 suncat0159 pw.x -npool 4 -i  Done                     05/02/2018 17:47:29
00023 suncat0159 pw.x -npool 4 -i  Done                     05/02/2018 17:47:29
00024 suncat0143 pw.x -npool 4 -i  Done                     05/02/2018 17:47:29
00025 suncat0143 pw.x -npool 4 -i  Done                     05/02/2018 17:47:29
00026 suncat0143 pw.x -npool 4 -i  Done                     05/02/2018 17:47:29
00027 suncat0143 pw.x -npool 4 -i  Done                     05/02/2018 17:47:29
00028 suncat0143 pw.x -npool 4 -i  Done                     05/02/2018 17:47:29
00029 suncat0143 pw.x -npool 4 -i  Done                     05/02/2018 17:47:29
00030 suncat0143 pw.x -npool 4 -i  Done                     05/02/2018 17:47:29
00031 suncat0143 pw.x -npool 4 -i  Done                     05/02/2018 17:47:29