     Program PWSCF v.6.1 starts on  9Jan2019 at  9:21:17

     Current dimensions of program PWSCF are:
     Max number of different atomic species (ntypx) = 10
     Max number of k-points (npk) =  40000
     Max angular momentum in pseudopotentials (lmaxx) =  3

     IMPORTANT: XC functional enforced from input :
     Exchange-correlation      = BEEF-VDW ( 1  4 29 14 2 0)
     Any further DFT definition will be discarded
     Please, verify this is what you really want

     bravais-lattice index     =            0
     lattice parameter (alat)  =       9.4723  a.u.
     unit-cell volume          =    3537.7769 (a.u.)^3
     number of atoms/cell      =           14
     number of atomic types    =            3
     number of electrons       =       209.00
     number of Kohn-Sham states=          114
     kinetic-energy cutoff     =      36.7493  Ry
     charge density cutoff     =     367.4933  Ry
     convergence threshold     =      1.0E-04
     mixing beta               =       0.1000
     number of iterations used =            8  plain     mixing
     Exchange-correlation      = BEEF-VDW ( 1  4 29 14 2 0)
     nstep                     =           50

     celldm(1)=   9.472344  celldm(2)=   0.000000  celldm(3)=   0.000000
     celldm(4)=   0.000000  celldm(5)=   0.000000  celldm(6)=   0.000000

     crystal axes: (cart. coord. in units of alat)
               a(1) = (   1.000000   0.000000   0.000000 )
               a(2) = (   0.500000   0.866025   0.000000 )
               a(3) = (   0.000000   0.000000   4.806483 )

     reciprocal axes: (cart. coord. in units 2 pi/alat)
               b(1) = (  1.000000 -0.577350  0.000000 )
               b(2) = (  0.000000  1.154701  0.000000 )
               b(3) = (  0.000000  0.000000  0.208052 )

     PseudoPot. # 1 for Co read from file:
     /home/users/jrboes/code/decaf-espresso/gbrv15pbe/Co.UPF
     MD5 check sum: 5f91765df6ddd3222702df6e7b74a16d
     Pseudo is Ultrasoft + core correction, Zval = 17.0
     Generated by new atomic code, or converted to UPF format
     Using radial grid of  863 points,  6 beta functions with:
                l(1) =   0
                l(2) =   0
                l(3) =   1
                l(4) =   1
                l(5) =   2
                l(6) =   2
     Q(r) pseudized with  8 coefficients,  rinner =    1.200   1.200   1.200
                                                       1.200   1.200

     PseudoPot. # 2 for C  read from file:
     /home/users/jrboes/code/decaf-espresso/gbrv15pbe/C.UPF
     MD5 check sum: d1aef80898a10debaa0f26306b886e00
     Pseudo is Ultrasoft + core correction, Zval =  4.0
     Generated by new atomic code, or converted to UPF format
     Using radial grid of  721 points,  4 beta functions with:
                l(1) =   0
                l(2) =   0
                l(3) =   1
                l(4) =   1
     Q(r) pseudized with  8 coefficients,  rinner =    1.100   1.100   1.100

     PseudoPot. # 3 for H  read from file:
     /home/users/jrboes/code/decaf-espresso/gbrv15pbe/H.UPF
     MD5 check sum: 761ae9a214b05c3daf00ab9f6b793d6f
     Pseudo is Ultrasoft, Zval =  1.0
     Generated by new atomic code, or converted to UPF format
     Using radial grid of  615 points,  2 beta functions with:
                l(1) =   0
                l(2) =   0
     Q(r) pseudized with  8 coefficients,  rinner =    0.700

     vdW kernel table read from file vdW_kernel_table
     MD5 check sum: 095c7af220d748ca6e76c0b4c6cfb241

     atomic species   valence    mass     pseudopotential
        Co            17.00    58.93319     Co( 1.00)
        C              4.00    12.01100     C ( 1.00)
        H              1.00     1.00800     H ( 1.00)

     Starting magnetic structure
     atomic species   magnetization
        Co           0.118
        C            0.000
        H            0.000

     No symmetry found

   Cartesian axes

     site n.     atom                  positions (alat units)
         1           Co  tau(   1) = (   0.2500000   0.1443376   1.9949931  )
         2           Co  tau(   2) = (   0.7500000   0.1443376   1.9949931  )
         3           Co  tau(   3) = (   0.5000000   0.5773503   1.9949931  )
         4           Co  tau(   4) = (   1.0000000   0.5773503   1.9949931  )
         5           Co  tau(   5) = (   1.0000000   0.2886751   2.4032414  )
         6           Co  tau(   6) = (   0.5000000   0.2886751   2.4032414  )
         7           Co  tau(   7) = (   1.2500000   0.7216878   2.4032414  )
         8           Co  tau(   8) = (   0.7500000   0.7216878   2.4032414  )
         9           Co  tau(   9) = (  -0.0026544  -0.0012965   2.8161940  )
        10           Co  tau(  10) = (   0.5026838  -0.0015428   2.8161147  )
        11           Co  tau(  11) = (   0.2498009   0.4359435   2.8162163  )
        12           Co  tau(  12) = (   0.7498347   0.4331335   2.7987217  )
        13           C   tau(  13) = (   0.2503678   0.1440974   3.0484361  )
        14           H   tau(  14) = (   0.2501509   0.1442505   3.2672846  )

     number of k points=    20  Fermi-Dirac smearing, width (Ry)=  0.0110
                       cart. coord. in units 2pi/alat
        k(    1) = (   0.0000000   0.0000000   0.0000000), wk =   0.0277778
        k(    2) = (   0.0000000   0.1924501   0.0000000), wk =   0.0555556
        k(    3) = (   0.0000000   0.3849002   0.0000000), wk =   0.0555556
        k(    4) = (   0.0000000  -0.5773503   0.0000000), wk =   0.0277778
        k(    5) = (   0.1666667  -0.0962250   0.0000000), wk =   0.0555556
        k(    6) = (   0.1666667   0.0962250   0.0000000), wk =   0.0555556
        k(    7) = (   0.1666667   0.2886751   0.0000000), wk =   0.0555556
        k(    8) = (   0.1666667  -0.6735753   0.0000000), wk =   0.0555556
        k(    9) = (   0.1666667  -0.4811252   0.0000000), wk =   0.0555556
        k(   10) = (   0.1666667  -0.2886751   0.0000000), wk =   0.0555556
        k(   11) = (   0.3333333  -0.1924501   0.0000000), wk =   0.0555556
        k(   12) = (   0.3333333  -0.0000000   0.0000000), wk =   0.0555556
        k(   13) = (   0.3333333   0.1924501   0.0000000), wk =   0.0555556
        k(   14) = (   0.3333333  -0.7698004   0.0000000), wk =   0.0555556
        k(   15) = (   0.3333333  -0.5773503   0.0000000), wk =   0.0555556
        k(   16) = (   0.3333333  -0.3849002   0.0000000), wk =   0.0555556
        k(   17) = (  -0.5000000   0.2886751   0.0000000), wk =   0.0277778
        k(   18) = (  -0.5000000   0.4811252   0.0000000), wk =   0.0555556
        k(   19) = (  -0.5000000   0.6735753   0.0000000), wk =   0.0555556
        k(   20) = (  -0.5000000  -0.2886751   0.0000000), wk =   0.0277778

     Check: negative/imaginary core charge=   -0.000007    0.000000

     Initial potential from superposition of free atoms
     Check: negative starting charge=(component1):   -0.000179
     Check: negative starting charge=(component2):   -0.000142

     starting charge  196.99987, renormalised to  209.00000

     negative rho (up, down):  1.903E-04 1.511E-04

     %%%%%%%%%%%%%%%%%%%%%%%%%%%%%%%%%%%%%%%%%%%%%%%%%%%%%%%%%%%%%%%%%%%%%%%%
     %                                                                      %
     % You are using vdW-DF, which was implemented by the Thonhauser group. %
     % Please cite the following two papers that made this development      %
     % possible and the two reviews that describe the various versions:     %
     %                                                                      %
     %   T. Thonhauser et al., PRL 115, 136402 (2015).                      %
     %   T. Thonhauser et al., PRB 76, 125112 (2007).                       %
     %   K. Berland et al., Rep. Prog. Phys. 78, 066501 (2015).             %
     %   D.C. Langreth et al., J. Phys.: Condens. Matter 21, 084203 (2009). %
     %                                                                      %
     %                                                                      %
     % If you are calculating the stress with vdW-DF, please also cite:     %
     %                                                                      %
     %   R. Sabatini et al., J. Phys.: Condens. Matter 24, 424209 (2012).   %
     %                                                                      %
     %%%%%%%%%%%%%%%%%%%%%%%%%%%%%%%%%%%%%%%%%%%%%%%%%%%%%%%%%%%%%%%%%%%%%%%%

     Adding external electric field

     Computed dipole along edir(3) :
        Dipole               -1.9870 Ry au,         -5.0505 Debye
        Dipole field         -0.0071 Ry au,

        Potential amp.        0.5784 Ry
        Total length         40.9758 bohr

[...]

     Starting wfc are  161 randomized atomic wfcs

     Self-consistent Calculation

     iteration #  1     ecut=    36.75 Ry     beta=0.10
     Davidson diagonalization with overlap
     ethr =  1.00E-02,  avg # of iterations =  7.3

[...]

     total energy              =   -3495.71561203 Ry
     Harris-Foulkes estimate   =   -3632.30062628 Ry
     estimated scf accuracy    <     756.03025783 Ry

     total magnetization       =    10.48 Bohr mag/cell
     absolute magnetization    =    11.05 Bohr mag/cell

[...]

     Magnetic moment per site:
     atom:    1    charge:   14.0453    magn:    1.7318    constr:    0.0000
     atom:    2    charge:   14.0488    magn:    1.7123    constr:    0.0000
     atom:    3    charge:   14.0485    magn:    1.7121    constr:    0.0000
     atom:    4    charge:   14.0475    magn:    1.7133    constr:    0.0000
     atom:    5    charge:   14.0500    magn:    1.7281    constr:    0.0000
     atom:    6    charge:   14.0502    magn:    1.7280    constr:    0.0000
     atom:    7    charge:   14.0499    magn:    1.7049    constr:    0.0000
     atom:    8    charge:   14.0499    magn:    1.7281    constr:    0.0000
     atom:    9    charge:   14.0628    magn:    1.1256    constr:    0.0000
     atom:   10    charge:   14.0627    magn:    1.1203    constr:    0.0000
     atom:   11    charge:   14.0631    magn:    1.1261    constr:    0.0000
     atom:   12    charge:   14.0464    magn:    1.7783    constr:    0.0000
     atom:   13    charge:    0.8259    magn:   -0.0450    constr:    0.0000
     atom:   14    charge:    0.4925    magn:    0.0039    constr:    0.0000

     End of self-consistent calculation

 ------ SPIN UP ------------

          k = 0.0000 0.0000 0.0000 ( 13257 PWs)   bands (ev):

   -95.3238 -95.2947 -95.2945 -95.2698 -95.2409 -95.1176 -95.0817 -95.0646
   -95.0643 -94.7331 -94.7101 -94.7072 -58.6915 -58.6572 -58.6570 -58.6258
   -58.5890 -58.5888 -58.5599 -58.5146 -58.4948 -58.4946 -58.4942 -58.4762
   -58.4760 -58.4342 -58.4342 -58.4285 -58.4118 -58.4117 -58.3919 -58.3894
   -58.3821 -58.3819 -58.2541 -58.2540 -58.2467 -58.2352 -58.1953 -58.1951
   -58.0976 -58.0959 -57.9422 -57.9403 -57.9052 -57.8875 -57.8497 -57.8472
   -10.4712  -6.7748  -5.5089  -4.4033  -3.7809  -3.7797  -3.7110  -3.6631
    -3.5947  -3.5945  -3.4421  -3.1380  -3.1372  -3.1132  -3.1131  -3.0584
    -2.4455  -2.4450  -2.4069  -2.0063  -2.0054  -1.8117  -1.7620  -1.7140
    -1.7130  -1.6064  -1.5993  -1.5986  -1.3900  -1.3897  -1.3703  -1.3259
    -1.2896  -1.2894  -1.1209  -1.0912  -1.0911  -0.8304  -0.8303  -0.6113
    -0.6113  -0.5400  -0.5400  -0.4559  -0.2304  -0.2289  -0.1495  -0.1492
    -0.0958   0.0111   0.0714   0.0715   0.0809   0.1196   0.1199   0.2434
     0.2435   0.2493   0.4802   0.4804   0.4912   0.5630   0.5641   0.7557
     0.8383   1.4286

[...]

          k =-0.5000 0.2887 0.0000 ( 13378 PWs)   bands (ev):

[...]

 ------ SPIN DOWN ----------

[...]

     the Fermi energy is     1.2653 ev

!    total energy              =   -3607.08259006 Ry
     Harris-Foulkes estimate   =   -3607.08257721 Ry
     estimated scf accuracy    <       0.00007608 Ry

     The total energy is the sum of the following terms:

     one-electron contribution =  -31849.97229774 Ry
     hartree contribution      =   15934.69985923 Ry
     xc contribution           =    -409.66374041 Ry
     ewald contribution        =   12717.93147605 Ry
     electric field correction =       0.00006966 Ry
     smearing contrib. (-TS)   =      -0.07795685 Ry

[...]

     convergence has been achieved in  30 iterations

[...]

     Forces acting on atoms (cartesian axes, Ry/au):

     atom    1 type  1   force =    -0.00005083   -0.00002804    0.00993216
     atom    2 type  1   force =     0.00001285   -0.00244906    0.01174947
     atom    3 type  1   force =    -0.00209125    0.00126345    0.01175107
     atom    4 type  1   force =     0.00206886    0.00123941    0.01174226
     atom    5 type  1   force =     0.00088788   -0.00038336   -0.00507508
     atom    6 type  1   force =    -0.00094628   -0.00059107   -0.00493923
     atom    7 type  1   force =    -0.00005984   -0.00011986   -0.02644681
     atom    8 type  1   force =     0.00015274    0.00104877   -0.00507038
     atom    9 type  1   force =    -0.00145290   -0.00082704   -0.00042582
     atom   10 type  1   force =     0.00145617   -0.00088432   -0.00043011
     atom   11 type  1   force =    -0.00004599    0.00176341   -0.00047867
     atom   12 type  1   force =     0.00003341    0.00000878    0.00115088
     atom   13 type  2   force =    -0.00003644    0.00001467    0.00072025
     atom   14 type  3   force =     0.00007162   -0.00005574   -0.00417999

     Total force =     0.005360     Total SCF correction =     0.019495
     SCF correction compared to forces is large: reduce conv_thr to get better values

     BFGS Geometry Optimization

     number of scf cycles    =   1
     number of bfgs steps    =   0

     energy   new            =   -3607.0825900582 Ry

     new trust radius        =       0.0041809707 bohr
     new conv_thr            =       0.0001000000 Ry

ATOMIC_POSITIONS (angstrom)
Co       1.253137179   0.723499088  10.000000000    0   0   0
Co       3.759411536   0.723499088  10.000000000    0   0   0
Co       2.506274358   2.893996350  10.000000000    0   0   0
Co       5.012548715   2.893996350  10.000000000    0   0   0
Co       5.012548715   1.446998175  12.046364444    0   0   0
Co       2.506274357   1.446998175  12.046364444    0   0   0
Co       6.265685894   3.617495438  12.046364444    0   0   0
Co       3.759411536   3.617495438  12.046364444    0   0   0
Co      -0.014074318  -0.006936500  14.116084051
Co       2.520497535  -0.008201233  14.115684303
Co       1.252114953   2.186121413  14.116168092
Co       3.758600894   2.171107380  14.029337891
C        1.254961616   0.722303086  15.280815528
H        1.253931655   0.723032996  16.375211051

     Writing output data file calc.save
     Check: negative starting charge=(component1):   -0.000322
     NEW-OLD atomic charge density approx. for the potential

     Check: negative/imaginary core charge=   -0.000007    0.000000
     Check: negative starting charge=(component1):   -0.000322

[...]

     energy   old            =   -3607.0825900582 Ry
     energy   new            =   -3607.0825997648 Ry

     CASE: energy  _new < energy  _old

[...]

     number of scf cycles    =   3
     number of bfgs steps    =   2

     energy   old            =   -3607.0825997648 Ry
     energy   new            =   -3607.0826334640 Ry

     CASE: energy  _new < energy  _old

     new trust radius        =       0.0042849389 bohr
     new conv_thr            =       0.0000010000 Ry

ATOMIC_POSITIONS (angstrom)
Co       1.253137179   0.723499088  10.000000000    0   0   0
Co       3.759411536   0.723499088  10.000000000    0   0   0
Co       2.506274358   2.893996350  10.000000000    0   0   0
Co       5.012548715   2.893996350  10.000000000    0   0   0
Co       5.012548715   1.446998175  12.046364444    0   0   0
Co       2.506274357   1.446998175  12.046364444    0   0   0
Co       6.265685894   3.617495438  12.046364444    0   0   0
Co       3.759411536   3.617495438  12.046364444    0   0   0
Co      -0.014109740  -0.006977761  14.113742636
Co       2.520522905  -0.008205964  14.113353587
Co       1.252147321   2.186194756  14.113777854
Co       3.758570922   2.171086720  14.028462869
C        1.254920451   0.722336797  15.278782580
H        1.254035879   0.722959109  16.374223640

     Writing output data file calc.save
     Check: negative starting charge=(component1):   -0.000322
     NEW-OLD atomic charge density approx. for the potential

     Check: negative/imaginary core charge=   -0.000007    0.000000
     Check: negative starting charge=(component1):   -0.000322

[...]

     Self-consistent Calculation

[...]

     total energy              =   -3607.08264931 Ry
     Harris-Foulkes estimate   =   -3607.08264923 Ry
     estimated scf accuracy    <       0.00000218 Ry

[...]

     iteration # 10     ecut=    36.75 Ry     beta=0.10
     Davidson diagonalization with overlap
     ethr =  8.59E-10,  avg # of iterations =  2.0

[...]

     Adding external electric field

     Computed dipole along edir(3) :
        Dipole                0.1298 Ry au,          0.3298 Debye
        Dipole field          0.0005 Ry au,

        Potential amp.       -0.0378 Ry
        Total length         40.9758 bohr

     Magnetic moment per site:
     atom:    1    charge:   14.0453    magn:    1.7391    constr:    0.0000
     atom:    2    charge:   14.0479    magn:    1.7203    constr:    0.0000
     atom:    3    charge:   14.0478    magn:    1.7200    constr:    0.0000
     atom:    4    charge:   14.0477    magn:    1.7204    constr:    0.0000
     atom:    5    charge:   14.0492    magn:    1.7301    constr:    0.0000
     atom:    6    charge:   14.0492    magn:    1.7302    constr:    0.0000
     atom:    7    charge:   14.0497    magn:    1.7065    constr:    0.0000
     atom:    8    charge:   14.0492    magn:    1.7302    constr:    0.0000
     atom:    9    charge:   14.0629    magn:    1.1286    constr:    0.0000
     atom:   10    charge:   14.0631    magn:    1.1231    constr:    0.0000
     atom:   11    charge:   14.0628    magn:    1.1291    constr:    0.0000
     atom:   12    charge:   14.0495    magn:    1.7801    constr:    0.0000
     atom:   13    charge:    0.8258    magn:   -0.0458    constr:    0.0000
     atom:   14    charge:    0.4916    magn:    0.0039    constr:    0.0000

     End of self-consistent calculation

 ------ SPIN UP ------------

[...]

 ------ SPIN DOWN ----------

[...]

          k = 0.3333-0.3849 0.0000 ( 13313 PWs)   bands (ev):

[...]

          k =-0.5000-0.2887 0.0000 ( 13378 PWs)   bands (ev):

   -93.1417 -93.1303 -93.1230 -92.8492 -92.8413 -92.8276 -92.8230 -92.7247
   -92.6564 -92.6480 -92.6350 -92.6310 -56.7768 -56.7213 -56.6799 -56.4192
   -56.4106 -56.3648 -56.3308 -56.3111 -56.2895 -56.2757 -56.2453 -56.2237
   -56.2188 -56.2088 -56.1969 -56.1925 -56.1804 -56.1714 -56.1687 -56.1030
   -56.0997 -56.0809 -56.0790 -56.0730 -56.0522 -56.0482 -56.0134 -56.0069
   -55.9982 -55.9913 -55.9681 -55.9559 -55.9520 -55.9497 -55.9231 -55.9214
   -10.5849  -5.4065  -5.0960  -4.5971  -3.5592  -2.8937  -2.6658  -2.5096
    -2.2149  -2.1676  -1.8926  -1.8525  -1.7481  -1.4551  -1.3187  -1.2345
    -1.2110  -1.1692  -0.9935  -0.9589  -0.7335  -0.6690  -0.6526  -0.6235
    -0.5978  -0.4993  -0.3530  -0.2383  -0.2179  -0.0867  -0.0710  -0.0473
    -0.0087   0.0935   0.1180   0.3727   0.3733   0.3815   0.4117   0.4842
     0.6474   0.7846   0.9041   0.9293   0.9860   1.0513   1.0975   1.1213
     1.2049   1.3043   1.3330   1.3899   1.4398   1.4853   1.5718   1.6174
     1.7126   1.7188   1.7829   1.8866   2.0283   2.1359   2.1543   2.2201
     2.3199   2.5103

     the Fermi energy is     1.2217 ev

!    total energy              =   -3607.08264967 Ry
     Harris-Foulkes estimate   =   -3607.08264534 Ry
     estimated scf accuracy    <       0.00000058 Ry

     The total energy is the sum of the following terms:

     one-electron contribution =  -31858.76013073 Ry
     hartree contribution      =   15939.04635271 Ry
     xc contribution           =    -409.66973160 Ry
     ewald contribution        =   12722.37850839 Ry
     electric field correction =       0.00005982 Ry
     smearing contrib. (-TS)   =      -0.07770827 Ry

     total magnetization       =    18.53 Bohr mag/cell
     absolute magnetization    =    21.40 Bohr mag/cell

     convergence has been achieved in  10 iterations

     negative rho (up, down):  6.353E-04 3.517E-04

     Forces acting on atoms (cartesian axes, Ry/au):

     atom    1 type  1   force =    -0.00001600    0.00002447    0.01041310
     atom    2 type  1   force =    -0.00002724   -0.00227850    0.01206046
     atom    3 type  1   force =    -0.00199647    0.00114226    0.01206852
     atom    4 type  1   force =     0.00197200    0.00115990    0.01205561
     atom    5 type  1   force =     0.00171870   -0.00096185   -0.00549754
     atom    6 type  1   force =    -0.00178496   -0.00098853   -0.00550188
     atom    7 type  1   force =     0.00009154   -0.00009162   -0.02701716
     atom    8 type  1   force =    -0.00000915    0.00203337   -0.00553763
     atom    9 type  1   force =     0.00016314    0.00008425   -0.00063763
     atom   10 type  1   force =    -0.00017554    0.00013395   -0.00065218
     atom   11 type  1   force =     0.00003873   -0.00022139   -0.00065515
     atom   12 type  1   force =    -0.00002151   -0.00002248    0.00001586
     atom   13 type  2   force =    -0.00001030    0.00002441   -0.00057802
     atom   14 type  3   force =     0.00005705   -0.00003823   -0.00053636

     Total force =     0.001422     Total SCF correction =     0.001681
     SCF correction compared to forces is large: reduce conv_thr to get better values

     bfgs converged in   4 scf cycles and   3 bfgs steps
     (criteria: energy <  1.0E+12 Ry, force <  1.9E-03 Ry/Bohr)

     End of BFGS Geometry Optimization

     Final energy   =   -3607.0826496711 Ry
Begin final coordinates

ATOMIC_POSITIONS (angstrom)
Co       1.253137179   0.723499088  10.000000000    0   0   0
Co       3.759411536   0.723499088  10.000000000    0   0   0
Co       2.506274358   2.893996350  10.000000000    0   0   0
Co       5.012548715   2.893996350  10.000000000    0   0   0
Co       5.012548715   1.446998175  12.046364444    0   0   0
Co       2.506274357   1.446998175  12.046364444    0   0   0
Co       6.265685894   3.617495438  12.046364444    0   0   0
Co       3.759411536   3.617495438  12.046364444    0   0   0
Co      -0.014109740  -0.006977761  14.113742636
Co       2.520522905  -0.008205964  14.113353587
Co       1.252147321   2.186194756  14.113777854
Co       3.758570922   2.171086720  14.028462869
C        1.254920451   0.722336797  15.278782580
H        1.254035879   0.722959109  16.374223640
End final coordinates

     Writing output data file calc.save

     General routines

     Parallel routines

   This run was terminated on:   9:41: 5   9Jan2019

   JOB DONE.