     Program PWSCF v.5.1rc2 starts on 27Apr2018 at 11:28:40

     Current dimensions of program PWSCF are:
     Max number of different atomic species (ntypx) = 10
     Max number of k-points (npk) =  40000
     Max angular momentum in pseudopotentials (lmaxx) =  3
     Presently stress not available with electric field

     IMPORTANT: XC functional enforced from input :
     Exchange-correlation      = BEEF-VDW ( 1  4 27 13 2)
     Any further DFT definition will be discarded
     Please, verify this is what you really want

     bravais-lattice index     =            0
     lattice parameter (alat)  =       1.8897  a.u.
     unit-cell volume          =    7276.7660 (a.u.)^3
     number of atoms/cell      =           14
     number of atomic types    =            3
     number of electrons       =       187.00
     number of Kohn-Sham states=          103
     kinetic-energy cutoff     =      36.7493  Ry
     charge density cutoff     =     367.4932  Ry
     convergence threshold     =      1.0E-05
     mixing beta               =       0.3000
     number of iterations used =           10  plain     mixing
     Exchange-correlation      = BEEF-VDW ( 1  4 27 13 2)
     nstep                     =           50

     celldm(1)=   1.889726  celldm(2)=   0.000000  celldm(3)=   0.000000
     celldm(4)=   0.000000  celldm(5)=   0.000000  celldm(6)=   0.000000

     crystal axes: (cart. coord. in units of alat)
               a(1) = (   6.962526   0.000000   0.000000 )
               a(2) = (   3.481263   6.029724   0.000000 )
               a(3) = (   0.000000   0.000000  25.684879 )

     reciprocal axes: (cart. coord. in units 2 pi/alat)
               b(1) = (  0.143626 -0.082923  0.000000 )
               b(2) = (  0.000000  0.165845  0.000000 )
               b(3) = (  0.000000  0.000000  0.038933 )

     PseudoPot. # 1 for Bi read from file:
     /home/users/mamunm/src/pseudo/gbrv1.5pbe/Bi.UPF
     MD5 check sum: 81103212dc04adf40945787f699eab19
     Pseudo is Ultrasoft + core correction, Zval = 15.0
     Generated by new atomic code, or converted to UPF format
     Using radial grid of  899 points,  6 beta functions with:
                l(1) =   0
                l(2) =   0
                l(3) =   1
                l(4) =   1
                l(5) =   2
                l(6) =   2
     Q(r) pseudized with  6 coefficients,  rinner =    1.000   1.000   1.000
                                                       1.000   1.000

     PseudoPot. # 2 for S  read from file:
     /home/users/mamunm/src/pseudo/gbrv1.5pbe/S.UPF
     MD5 check sum: 88d86576ff6df21479756cfb9bdac1df
     Pseudo is Ultrasoft + core correction, Zval =  6.0
     Generated by new atomic code, or converted to UPF format
     Using radial grid of  907 points,  6 beta functions with:
                l(1) =   0
                l(2) =   0
                l(3) =   1
                l(4) =   1
                l(5) =   2
                l(6) =   2
     Q(r) pseudized with  8 coefficients,  rinner =    1.300   1.300   1.300
                                                       1.300   1.300

     PseudoPot. # 3 for H  read from file:
     /home/users/mamunm/src/pseudo/gbrv1.5pbe/H.UPF
     MD5 check sum: 761ae9a214b05c3daf00ab9f6b793d6f
     Pseudo is Ultrasoft, Zval =  1.0
     Generated by new atomic code, or converted to UPF format
     Using radial grid of  615 points,  2 beta functions with:
                l(1) =   0
                l(2) =   0
     Q(r) pseudized with  8 coefficients,  rinner =    0.700

     vdW kernel table read from file vdW_kernel_table
     MD5 check sum: 095c7af220d748ca6e76c0b4c6cfb241

     atomic species   valence    mass     pseudopotential
        Bi1           15.00   208.98040     Bi( 1.00)
        S1             6.00    32.06000     S ( 1.00)
        H1             1.00     1.00800     H ( 1.00)

     No symmetry found

   Cartesian axes

     site n.     atom                  positions (alat units)
         1           Bi1 tau(   1) = (   1.7406315   1.0049541  10.0000000  )
         2           Bi1 tau(   2) = (   5.2218945   1.0049541  10.0000000  )
         3           Bi1 tau(   3) = (   3.4812630   4.0198163  10.0000000  )
         4           Bi1 tau(   4) = (   6.9625260   4.0198163  10.0000000  )
         5           Bi1 tau(   5) = (   6.9625260   2.0099081  12.8424393  )
         6           Bi1 tau(   6) = (   3.4812630   2.0099081  12.8424393  )
         7           Bi1 tau(   7) = (   8.7031575   5.0247703  12.8424393  )
         8           Bi1 tau(   8) = (   5.2218945   5.0247703  12.8424393  )
         9           Bi1 tau(   9) = (   0.0000000   0.0000000  15.6848787  )
        10           Bi1 tau(  10) = (   3.4812630   0.0000000  15.6848787  )
        11           Bi1 tau(  11) = (   1.7406315   3.0148622  15.6848787  )
        12           Bi1 tau(  12) = (   5.2218945   3.0148622  15.6848787  )
        13           S1  tau(  13) = (   1.7406315   1.0049541  17.3293787  )
        14           H1  tau(  14) = (   1.7406315   1.0049541  18.5793787  )

     number of k points=    20  Fermi-Dirac smearing, width (Ry)=  0.0110
                       cart. coord. in units 2pi/alat
        k(    1) = (   0.0000000   0.0000000   0.0000000), wk =   0.0555556
        k(    2) = (   0.0000000   0.0276408   0.0000000), wk =   0.1111111
        k(    3) = (   0.0000000   0.0552817   0.0000000), wk =   0.1111111
        k(    4) = (   0.0000000  -0.0829225   0.0000000), wk =   0.0555556
        k(    5) = (   0.0239377  -0.0138204   0.0000000), wk =   0.1111111
        k(    6) = (   0.0239377   0.0138204   0.0000000), wk =   0.1111111
        k(    7) = (   0.0239377   0.0414613   0.0000000), wk =   0.1111111
        k(    8) = (   0.0239377  -0.0967430   0.0000000), wk =   0.1111111
        k(    9) = (   0.0239377  -0.0691021   0.0000000), wk =   0.1111111
        k(   10) = (   0.0239377  -0.0414613   0.0000000), wk =   0.1111111
        k(   11) = (   0.0478753  -0.0276408   0.0000000), wk =   0.1111111
        k(   12) = (   0.0478753  -0.0000000   0.0000000), wk =   0.1111111
        k(   13) = (   0.0478753   0.0276408   0.0000000), wk =   0.1111111
        k(   14) = (   0.0478753  -0.1105634   0.0000000), wk =   0.1111111
        k(   15) = (   0.0478753  -0.0829225   0.0000000), wk =   0.1111111
        k(   16) = (   0.0478753  -0.0552817   0.0000000), wk =   0.1111111
        k(   17) = (  -0.0718130   0.0414613   0.0000000), wk =   0.0555556
        k(   18) = (  -0.0718130   0.0691021   0.0000000), wk =   0.1111111
        k(   19) = (  -0.0718130   0.0967430   0.0000000), wk =   0.1111111
        k(   20) = (  -0.0718130  -0.0414613   0.0000000), wk =   0.0555556

     Largest allocated arrays     est. size (Mb)     dimensions
     Largest temporary arrays     est. size (Mb)     dimensions

     Check: negative/imaginary core charge=   -0.000001    0.000000

     Initial potential from superposition of free atoms
     Check: negative starting charge=   -0.502768

     starting charge  174.99945, renormalised to  187.00000

     negative rho (up, down):  5.372E-01 0.000E+00

     *
     * You are using vdW-DF for exchange-correlation in this calculation.
     * Please cite the following three references that made this development
     * possible:
     *
     *   M. Dion, H. Rydberg, E. Schroder, D. C. Langreth, and
     *   B. I. Lundqvist, Phys. Rev. Lett. 92, 246401 (2004).
     *
     *   T. Thonhauser, V. R. Cooper, S. Li, A. Puzder, P. Hyldgaard, and
     *   D. C. Langreth, Phys. Rev. B 76, 125112 (2007).
     *
     *   G. Roman-Perez and J. M. Soler, Phys. Rev. Lett. 103, 096102 (2009).
     *
     *
     * If you are using vdW-DF2, please also cite:
     *
     *   K. Lee, E. D. Murray, L. Kong, B. I. Lundqvist, and
     *   D. C. Langreth, Phys. Rev. B 82, 081101(R) (2010).
     *
     *
     * If you are calculating the stress with vdW-DF, please also cite:
     *
     *   R. Sabatini, E. Kucukbenli, B. Kolb, T. Thonhauser, and
     *   S. de Gironcoli, J. Phys.: Condens. Matter 24, 424209 (2012).
     *

     Carrying out vdW-DF run using the following parameters:

     Nqs =      20    Nr_points =    1024   r_max =   100.000
     q_mesh =
               0.00001000     0.04494208     0.09755937     0.15916263
               0.23128650     0.31572767     0.41458969     0.53033537
               0.66584808     0.82450364     1.01025438     1.22772762
               1.48234092     1.78043706     2.12944203     2.53805004
               3.01644009     3.57652955     4.23227104     5.00000000

     Gradients computed in reciprocal space

     Adding external electric field

     Computed dipole along edir(3) :
        Dipole               -4.2317 Ry au,        -10.7559 Debye
        Dipole field         -0.0073 Ry au

        Potential amp.        0.6917 Ry
        Total length         47.3240 bohr

     Starting wfc are  113 randomized atomic wfcs

     Self-consistent Calculation

     iteration #  1     ecut=    36.75 Ry     beta=0.30
     Davidson diagonalization with overlap
     ethr =  1.00E-02,  avg # of iterations =  8.2

[...]

     total energy              =   -2210.57411879 Ry
     Harris-Foulkes estimate   =   -2273.55888207 Ry
     estimated scf accuracy    <     133.28140310 Ry

[...]

     End of self-consistent calculation

          k = 0.0000 0.0000 0.0000 ( 27441 PWs)   bands (ev):

   -22.0382 -21.9795 -21.9740 -21.9740 -21.9482 -21.9478 -21.9478 -21.9351
   -21.9351 -21.9319 -21.9226 -21.9226 -21.9152 -21.8979 -21.8963 -21.8963
   -21.8735 -21.8735 -21.8479 -21.8478 -21.8334 -21.8265 -21.8265 -21.8212
   -21.7959 -21.7828 -21.7828 -21.7726 -21.7726 -21.7088 -21.6971 -21.6931
   -21.6931 -21.6594 -21.6594 -21.6470 -21.6444 -21.6444 -21.6400 -21.6391
   -21.6391 -21.6108 -21.6108 -21.5790 -21.5617 -21.5617 -21.5565 -21.5414
   -21.5413 -21.5367 -21.5191 -21.5190 -21.5161 -21.5160 -21.5114 -21.5113
   -21.5075 -21.5066 -21.5066 -21.4912 -13.9671 -11.7203 -10.6602  -9.6270
    -9.1097  -9.1096  -8.8686  -8.6606  -8.6606  -8.4396  -8.0860  -8.0859
    -8.0346  -5.9561  -3.6061  -3.6060  -3.1471  -2.6230  -2.5735  -2.5735
    -2.3623  -2.3623  -2.1934  -1.5359  -1.5359  -1.1119   0.3624   1.3691
     1.4191   1.4192   1.8195   2.0421   2.0422   2.5145   2.6343   2.6343
     2.9936   3.4930   3.4931   3.6311   3.8723   3.8723   3.9116

[...]

          k =-0.0718 0.0415 0.0000 ( 27378 PWs)   bands (ev):

[...]

     the Fermi energy is     1.8227 ev

!    total energy              =   -2271.33921493 Ry
     Harris-Foulkes estimate   =   -2271.33919501 Ry
     estimated scf accuracy    <       0.00000837 Ry

     The total energy is the sum of the following terms:

     one-electron contribution =  -11007.83616947 Ry
     hartree contribution      =    5562.28662635 Ry
     xc contribution           =    -808.78288585 Ry
     ewald contribution        =    3983.04800440 Ry
     electric field correction =       0.00014769 Ry
     smearing contrib. (-TS)   =      -0.05493805 Ry

     convergence has been achieved in  18 iterations

 BEEF-vdW xc energy contributions
           1 :   -720.795493234806
           2 :    669.692467205714
           3 :   -579.533082841477
           4 :    469.889095701754
           5 :   -361.334999126377
           6 :    269.504195666133
           7 :   -201.558063443537
           8 :    155.974240819595
           9 :   -125.361248695126
          10 :    100.848743165766
          11 :   -76.1072213130217
          12 :    49.4084379049318
          13 :   -23.1934048684227
          14 :    1.77691274021402
          15 :    11.4452507877423
          16 :   -15.9038321848805
          17 :    14.0921922748180
          18 :   -10.2326707657699
          19 :    8.20608649548024
          20 :   -9.84557626009632
          21 :    14.4012020510418
          22 :   -19.3294123766788
          23 :    21.8847676431202
          24 :   -20.6411506444383
          25 :    16.1818350709761
          26 :   -10.6847840741027
          27 :    6.70614975811009
          28 :   -5.84813424064157
          29 :    8.00295005000066
          30 :   -11.5238959037686
          31 :   -57.8148840671720
          32 :   -42.5394080313581

     Forces acting on atoms (Ry/au):

     negative rho (up, down):  5.266E-01 0.000E+00
     atom    1 type  1   force =    -0.00001136    0.00000216   -0.00241303
     atom    2 type  1   force =     0.00000650    0.00357440   -0.00585863
     atom    3 type  1   force =     0.00309687   -0.00178185   -0.00588783
     atom    4 type  1   force =    -0.00309572   -0.00179751   -0.00586104
     atom    5 type  1   force =    -0.00232278    0.00132856   -0.00971924
     atom    6 type  1   force =     0.00231499    0.00128165   -0.00967973
     atom    7 type  1   force =    -0.00003965    0.00003259    0.00541080
     atom    8 type  1   force =     0.00003579   -0.00264580   -0.00967843
     atom    9 type  1   force =    -0.05490740   -0.03168197   -0.03671795
     atom   10 type  1   force =     0.05490809   -0.03169926   -0.03671033
     atom   11 type  1   force =    -0.00001429    0.06338901   -0.03670991
     atom   12 type  1   force =     0.00001220   -0.00001186    0.00609003
     atom   13 type  2   force =     0.00001865    0.00001084   -0.00401378
     atom   14 type  3   force =    -0.00000190   -0.00000098    0.15174908

     Total force =     0.197942     Total SCF correction =     0.002313

     entering subroutine stress ...

     negative rho (up, down):  5.266E-01 0.000E+00
          total   stress  (Ry/bohr**3)                   (kbar)     P=   15.59
   0.00008511  -0.00000001  -0.00000000         12.52     -0.00     -0.00
  -0.00000001   0.00008511   0.00000000         -0.00     12.52      0.00
  -0.00000000   0.00000000   0.00014777         -0.00      0.00     21.74

     BFGS Geometry Optimization

     number of scf cycles    =   1
     number of bfgs steps    =   0

     energy   new            =   -2271.3392149259 Ry

     new trust radius        =       0.1517490807 bohr
     new conv_thr            =       0.0000099958 Ry

ATOMIC_POSITIONS (crystal)
Bi1      0.166666667   0.166666667   0.389334134    0   0   0
Bi1      0.666666667   0.166666667   0.389334134    0   0   0
Bi1      0.166666667   0.666666667   0.389334134    0   0   0
Bi1      0.666666667   0.666666667   0.389334134    0   0   0
Bi1      0.833333333   0.333333333   0.500000000    0   0   0
Bi1      0.333333333   0.333333333   0.500000000    0   0   0
Bi1      0.833333333   0.833333333   0.500000000    0   0   0
Bi1      0.333333333   0.833333333   0.500000000    0   0   0
Bi1     -0.002782934  -0.002780455   0.609909378
Bi1      0.505564200  -0.002781972   0.609909535
Bi1     -0.002782641   0.505563110   0.609909543
Bi1      0.500001447   0.499998959   0.610791337
S1       0.166667609   0.166667618   0.674609169
H1       0.166666565   0.166666580   0.726485068

     Writing output data file calc.save
     Check: negative starting charge=   -0.502768
     NEW-OLD atomic charge density approx. for the potential

     Check: negative/imaginary core charge=   -0.000001    0.000000
     Check: negative starting charge=   -0.501677

[...]

     energy   old            =   -2271.3392149259 Ry
     energy   new            =   -2271.3680994559 Ry

     CASE: energy  _new < energy  _old

[...]

     iteration #  1     ecut=    36.75 Ry     beta=0.30
     Davidson diagonalization with overlap
     c_bands:  1 eigenvalues not converged
     c_bands:  1 eigenvalues not converged
     c_bands:  1 eigenvalues not converged
     ethr =  1.00E-06,  avg # of iterations = 10.9

[...]

     Total force =     0.005803     Total SCF correction =     0.000827
     SCF correction compared to forces is large: reduce conv_thr to get better values

[...]

     Total force =     0.004300     Total SCF correction =     0.000287

[...]

     number of scf cycles    =  28
     number of bfgs steps    =  27

     energy   old            =   -2271.4533049100 Ry
     energy   new            =   -2271.4533628186 Ry

     CASE: energy  _new < energy  _old

     new trust radius        =       0.0337223132 bohr
     new conv_thr            =       0.0000001000 Ry

ATOMIC_POSITIONS (crystal)
Bi1      0.166666667   0.166666667   0.389334134    0   0   0
Bi1      0.666666667   0.166666667   0.389334134    0   0   0
Bi1      0.166666667   0.666666667   0.389334134    0   0   0
Bi1      0.666666667   0.666666667   0.389334134    0   0   0
Bi1      0.833333333   0.333333333   0.500000000    0   0   0
Bi1      0.333333333   0.333333333   0.500000000    0   0   0
Bi1      0.833333333   0.833333333   0.500000000    0   0   0
Bi1      0.333333333   0.833333333   0.500000000    0   0   0
Bi1     -0.014244428  -0.014247827   0.625798566
Bi1      0.528430183  -0.014240503   0.625803935
Bi1     -0.014245320   0.528449050   0.625804768
Bi1      0.499987408   0.499966612   0.608350900
S1       0.166675804   0.166670771   0.711035881
H1       0.166682878   0.166681459   0.764014629

     Writing output data file calc.save
     Check: negative starting charge=   -0.502712
     NEW-OLD atomic charge density approx. for the potential

     Check: negative/imaginary core charge=   -0.000001    0.000000
     Check: negative starting charge=   -0.501631

[...]

     Self-consistent Calculation

[...]

     total energy              =   -2271.45340600 Ry
     Harris-Foulkes estimate   =   -2271.45340605 Ry
     estimated scf accuracy    <       0.00000049 Ry

     iteration #  8     ecut=    36.75 Ry     beta=0.30
     Davidson diagonalization with overlap
     ethr =  2.63E-10,  avg # of iterations =  2.2

[...]

     negative rho (up, down):  5.252E-01 0.000E+00

     Adding external electric field

     Computed dipole along edir(3) :
        Dipole               -0.1503 Ry au,         -0.3821 Debye
        Dipole field         -0.0003 Ry au

        Potential amp.        0.0246 Ry
        Total length         47.3240 bohr

     End of self-consistent calculation

[...]

          k = 0.0479-0.0553 0.0000 ( 27352 PWs)   bands (ev):

[...]

          k =-0.0718-0.0415 0.0000 ( 27378 PWs)   bands (ev):

   -22.2513 -22.2395 -22.2100 -22.1963 -22.1957 -22.1911 -22.1840 -22.1756
   -22.1740 -22.1738 -22.1720 -22.1683 -22.1683 -22.1630 -22.1574 -22.1551
   -22.1498 -22.1453 -22.1438 -22.1393 -22.1322 -22.1265 -22.1093 -22.1035
   -22.0936 -22.0931 -22.0895 -22.0732 -22.0666 -22.0600 -22.0529 -22.0401
   -22.0391 -22.0273 -22.0211 -21.9997 -21.9968 -21.9857 -21.9668 -21.9616
   -21.9595 -21.9587 -21.9568 -21.9550 -21.9507 -21.9503 -21.9468 -21.9459
   -21.9301 -21.9257 -21.9224 -21.9153 -21.9150 -21.9116 -21.9084 -21.9029
   -21.8978 -21.8915 -21.8913 -21.8742 -11.7801 -11.0564 -10.9316 -10.4047
    -9.9303  -9.4310  -9.3532  -9.3113  -9.1653  -8.7338  -8.6698  -8.3646
    -8.2731  -4.2459  -2.1894  -2.1106  -2.0553  -1.8951  -1.8445  -1.7115
    -1.4198  -1.2421  -0.9793  -0.6870  -0.6437  -0.3919  -0.2064  -0.1868
     0.2832   0.6697   0.8588   0.8649   0.9285   1.0133   1.0755   1.2605
     1.3823   1.5632   1.8091   2.0872   2.4345   2.5226   3.2848

     the Fermi energy is     1.4751 ev

!    total energy              =   -2271.45340589 Ry
     Harris-Foulkes estimate   =   -2271.45340626 Ry
     estimated scf accuracy    <       0.00000004 Ry

     The total energy is the sum of the following terms:

     one-electron contribution =  -10395.84040404 Ry
     hartree contribution      =    5254.90576714 Ry
     xc contribution           =    -808.31042448 Ry
     ewald contribution        =    3677.84434616 Ry
     electric field correction =       0.00003903 Ry
     smearing contrib. (-TS)   =      -0.05272970 Ry

     convergence has been achieved in   8 iterations

 BEEF-vdW xc energy contributions
           1 :   -720.303879877083
           2 :    668.948070883036
           3 :   -578.487707787046
           4 :    468.734452146992
           5 :   -360.392196295627
           6 :    269.048418292175
           7 :   -201.664481738065
           8 :    156.470120997698
           9 :   -125.908453328861
          10 :    101.114834786377
          11 :   -75.9349885709956
          12 :    48.8917820207332
          13 :   -22.6186116256983
          14 :    1.46158786887759
          15 :    11.3271188937576
          16 :   -15.4152127060714
          17 :    13.4957980403221
          18 :   -9.84604736775009
          19 :    8.22864533001450
          20 :   -10.2507015749862
          21 :    14.9516158564043
          22 :   -19.7068039913618
          23 :    21.8629613507520
          24 :   -20.2093982368306
          25 :    15.5523015574995
          26 :   -10.1802940755958
          27 :    6.58845719507826
          28 :   -6.17837476135401
          29 :    8.60848838739253
          30 :   -12.0891704362336
          31 :   -57.7750293936699
          32 :   -42.4327583740737

     Forces acting on atoms (Ry/au):

     negative rho (up, down):  5.252E-01 0.000E+00
     atom    1 type  1   force =     0.00000338    0.00000239   -0.00707461
     atom    2 type  1   force =     0.00000344   -0.00189880   -0.00667346
     atom    3 type  1   force =    -0.00164196    0.00095219   -0.00667412
     atom    4 type  1   force =     0.00164809    0.00095162   -0.00666738
     atom    5 type  1   force =     0.00701122   -0.00404440    0.00274720
     atom    6 type  1   force =    -0.00700726   -0.00404545    0.00275115
     atom    7 type  1   force =     0.00000309    0.00000051    0.01721942
     atom    8 type  1   force =     0.00000282    0.00809400    0.00274816
     atom    9 type  1   force =     0.00034626    0.00020178    0.00045850
     atom   10 type  1   force =    -0.00036743    0.00020163    0.00046282
     atom   11 type  1   force =    -0.00001019   -0.00042001    0.00046433
     atom   12 type  1   force =     0.00000249    0.00000014    0.00040883
     atom   13 type  2   force =    -0.00000417    0.00000048    0.00108032
     atom   14 type  3   force =     0.00001023    0.00000391   -0.00125117

     Total force =     0.002013     Total SCF correction =     0.000968
     SCF correction compared to forces is large: reduce conv_thr to get better values

     entering subroutine stress ...

     negative rho (up, down):  5.252E-01 0.000E+00
          total   stress  (Ry/bohr**3)                   (kbar)     P=    3.20
   0.00002945  -0.00000001  -0.00000000          4.33     -0.00     -0.00
  -0.00000001   0.00002946  -0.00000000         -0.00      4.33     -0.00
  -0.00000000  -0.00000000   0.00000633         -0.00     -0.00      0.93

     bfgs converged in  29 scf cycles and  28 bfgs steps
     (criteria: energy <  1.0E+00, force <  1.9E-03)

     End of BFGS Geometry Optimization

     Final energy   =   -2271.4534058936 Ry
Begin final coordinates

ATOMIC_POSITIONS (crystal)
Bi1      0.166666667   0.166666667   0.389334134    0   0   0
Bi1      0.666666667   0.166666667   0.389334134    0   0   0
Bi1      0.166666667   0.666666667   0.389334134    0   0   0
Bi1      0.666666667   0.666666667   0.389334134    0   0   0
Bi1      0.833333333   0.333333333   0.500000000    0   0   0
Bi1      0.333333333   0.333333333   0.500000000    0   0   0
Bi1      0.833333333   0.833333333   0.500000000    0   0   0
Bi1      0.333333333   0.833333333   0.500000000    0   0   0
Bi1     -0.014244428  -0.014247827   0.625798566
Bi1      0.528430183  -0.014240503   0.625803935
Bi1     -0.014245320   0.528449050   0.625804768
Bi1      0.499987408   0.499966612   0.608350900
S1       0.166675804   0.166670771   0.711035881
H1       0.166682878   0.166681459   0.764014629
End final coordinates

     Writing output data file calc.save

     General routines

     Parallel routines

   This run was terminated on:  13:22:52  27Apr2018

   JOB DONE.