     Program PWSCF v.5.1rc2 (svn rev. 11289) starts on 17Jan2019 at  1:10: 5

     Current dimensions of program PWSCF are:
     Max number of different atomic species (ntypx) = 10
     Max number of k-points (npk) =  40000
     Max angular momentum in pseudopotentials (lmaxx) =  3

     IMPORTANT: XC functional enforced from input :
     Exchange-correlation      = BEEF-VDW ( 1  4 27 13 2)
     Any further DFT definition will be discarded
     Please, verify this is what you really want

     Subspace diagonalization in iterative solution of the eigenvalue problem:
     a serial algorithm will be used

     bravais-lattice index     =            0
     lattice parameter (alat)  =      12.7122  a.u.
     unit-cell volume          =    6741.9071 (a.u.)^3
     number of atoms/cell      =           13
     number of atomic types    =            2
     number of electrons       =       174.00
     number of Kohn-Sham states=           97
     kinetic-energy cutoff     =      36.7493  Ry
     charge density cutoff     =     367.4933  Ry
     convergence threshold     =      1.0E-04
     mixing beta               =       0.2000
     number of iterations used =            8  plain     mixing
     Exchange-correlation      = BEEF-VDW ( 1  4 27 13 2)
     nstep                     =           50

     celldm(1)=  12.712175  celldm(2)=   0.000000  celldm(3)=   0.000000
     celldm(4)=   0.000000  celldm(5)=   0.000000  celldm(6)=   0.000000

     crystal axes: (cart. coord. in units of alat)
               a(1) = (   1.000000   0.000000   0.000000 )
               a(2) = (   0.500000   0.866025   0.000000 )
               a(3) = (   0.000000   0.000000   3.789593 )

     reciprocal axes: (cart. coord. in units 2 pi/alat)
               b(1) = (  1.000000 -0.577350  0.000000 )
               b(2) = (  0.000000  1.154701  0.000000 )
               b(3) = (  0.000000  0.000000  0.263881 )

     PseudoPot. # 1 for Sn read from file:
     /nfs/slac/g/suncatfs/mamunm/src/decaf-espresso/gbrv15pbe/Sn.UPF
     MD5 check sum: 469debedee59599fedebd795477fea03
     Pseudo is Ultrasoft + core correction, Zval = 14.0
     Generated by new atomic code, or converted to UPF format
     Using radial grid of  891 points,  6 beta functions with:
                l(1) =   0
                l(2) =   0
                l(3) =   1
                l(4) =   1
                l(5) =   2
                l(6) =   2
     Q(r) pseudized with  8 coefficients,  rinner =    1.350   1.350   1.350
                                                       1.350   1.350

     PseudoPot. # 2 for O  read from file:
     /nfs/slac/g/suncatfs/mamunm/src/decaf-espresso/gbrv15pbe/O.UPF
     MD5 check sum: 734c27235a0248c51dbae37a1fbe46ec
     Pseudo is Ultrasoft + core correction, Zval =  6.0
     Generated by new atomic code, or converted to UPF format
     Using radial grid of  737 points,  5 beta functions with:
                l(1) =   0
                l(2) =   0
                l(3) =   1
                l(4) =   1
                l(5) =   2
     Q(r) pseudized with  8 coefficients,  rinner =    0.900   0.900   0.900
                                                       0.900   0.900

     vdW kernel table read from file vdW_kernel_table
     MD5 check sum: 095c7af220d748ca6e76c0b4c6cfb241

     atomic species   valence    mass     pseudopotential
        Sn            14.00   118.71000     Sn( 1.00)
        O              6.00    15.99900     O ( 1.00)

     No symmetry found

   Cartesian axes

     site n.     atom                  positions (alat units)
         1           Sn  tau(   1) = (   0.2500000   0.1443376   1.4865483  )
         2           Sn  tau(   2) = (   0.7500000   0.1443376   1.4865483  )
         3           Sn  tau(   3) = (   0.5000000   0.5773503   1.4865483  )
         4           Sn  tau(   4) = (   1.0000000   0.5773503   1.4865483  )
         5           Sn  tau(   5) = (   1.0000000   0.2886751   1.8947966  )
         6           Sn  tau(   6) = (   0.5000000   0.2886751   1.8947966  )
         7           Sn  tau(   7) = (   1.2500000   0.7216878   1.8947966  )
         8           Sn  tau(   8) = (   0.7500000   0.7216878   1.8947966  )
         9           Sn  tau(   9) = (  -0.0056231  -0.0032459   2.3272990  )
        10           Sn  tau(  10) = (   0.5056238  -0.0032423   2.3272963  )
        11           Sn  tau(  11) = (   0.2499969   0.4395082   2.3272994  )
        12           Sn  tau(  12) = (   0.7500014   0.4330139   2.2978566  )
        13           O   tau(  13) = (   0.2500009   0.1443379   2.4589551  )

     number of k points=    20  Fermi-Dirac smearing, width (Ry)=  0.0110
                       cart. coord. in units 2pi/alat
        k(    1) = (   0.0000000   0.0000000   0.0000000), wk =   0.0555556
        k(    2) = (   0.0000000   0.1924501   0.0000000), wk =   0.1111111
        k(    3) = (   0.0000000   0.3849002   0.0000000), wk =   0.1111111
        k(    4) = (   0.0000000  -0.5773503   0.0000000), wk =   0.0555556
        k(    5) = (   0.1666667  -0.0962250   0.0000000), wk =   0.1111111
        k(    6) = (   0.1666667   0.0962250   0.0000000), wk =   0.1111111
        k(    7) = (   0.1666667   0.2886751   0.0000000), wk =   0.1111111
        k(    8) = (   0.1666667  -0.6735753   0.0000000), wk =   0.1111111
        k(    9) = (   0.1666667  -0.4811252   0.0000000), wk =   0.1111111
        k(   10) = (   0.1666667  -0.2886751   0.0000000), wk =   0.1111111
        k(   11) = (   0.3333333  -0.1924501   0.0000000), wk =   0.1111111
        k(   12) = (   0.3333333   0.0000000   0.0000000), wk =   0.1111111
        k(   13) = (   0.3333333   0.1924501   0.0000000), wk =   0.1111111
        k(   14) = (   0.3333333  -0.7698004   0.0000000), wk =   0.1111111
        k(   15) = (   0.3333333  -0.5773503   0.0000000), wk =   0.1111111
        k(   16) = (   0.3333333  -0.3849002   0.0000000), wk =   0.1111111
        k(   17) = (  -0.5000000   0.2886751   0.0000000), wk =   0.0555556
        k(   18) = (  -0.5000000   0.4811252   0.0000000), wk =   0.1111111
        k(   19) = (  -0.5000000   0.6735753   0.0000000), wk =   0.1111111
        k(   20) = (  -0.5000000  -0.2886751   0.0000000), wk =   0.0555556

     Largest allocated arrays     est. size (Mb)     dimensions
     Largest temporary arrays     est. size (Mb)     dimensions

     Initial potential from superposition of free atoms
     Check: negative starting charge=   -0.001609

     starting charge  161.99946, renormalised to  174.00000

     negative rho (up, down):  1.729E-03 0.000E+00

     *
     * You are using vdW-DF for exchange-correlation in this calculation.
     * Please cite the following three references that made this development
     * possible:
     *
     *   M. Dion, H. Rydberg, E. Schroder, D. C. Langreth, and
     *   B. I. Lundqvist, Phys. Rev. Lett. 92, 246401 (2004).
     *
     *   T. Thonhauser, V. R. Cooper, S. Li, A. Puzder, P. Hyldgaard, and
     *   D. C. Langreth, Phys. Rev. B 76, 125112 (2007).
     *
     *   G. Roman-Perez and J. M. Soler, Phys. Rev. Lett. 103, 096102 (2009).
     *
     *
     * If you are using vdW-DF2, please also cite:
     *
     *   K. Lee, E. D. Murray, L. Kong, B. I. Lundqvist, and
     *   D. C. Langreth, Phys. Rev. B 82, 081101(R) (2010).
     *
     *
     * If you are calculating the stress with vdW-DF, please also cite:
     *
     *   R. Sabatini, E. Kucukbenli, B. Kolb, T. Thonhauser, and
     *   S. de Gironcoli, J. Phys.: Condens. Matter 24, 424209 (2012).
     *

     Carrying out vdW-DF run using the following parameters:

     Nqs =      20    Nr_points =    1024   r_max =   100.000
     q_mesh =
               0.00001000     0.04494208     0.09755937     0.15916263
               0.23128650     0.31572767     0.41458969     0.53033537
               0.66584808     0.82450364     1.01025438     1.22772762
               1.48234092     1.78043706     2.12944203     2.53805004
               3.01644009     3.57652955     4.23227104     5.00000000

     Gradients computed in reciprocal space

     Adding external electric field

     Computed dipole along edir(3) :
        Dipole               -3.1557 Ry au,         -8.0211 Debye
        Dipole field         -0.0059 Ry au

        Potential amp.        0.5101 Ry
        Total length         43.3566 bohr

     Starting wfc are  112 randomized atomic wfcs

     Self-consistent Calculation

     iteration #  1     ecut=    36.75 Ry     beta=0.20
     Davidson diagonalization with overlap
     ethr =  1.00E-02,  avg # of iterations =  7.5

[...]

     total energy              =   -1929.31829952 Ry
     Harris-Foulkes estimate   =   -1967.00153499 Ry
     estimated scf accuracy    <     110.76435186 Ry

[...]

     End of self-consistent calculation

          k = 0.0000 0.0000 0.0000 ( 25377 PWs)   bands (ev):

   -21.7268 -21.4833 -21.4832 -21.4627 -21.4501 -21.4366 -21.4365 -21.4142
   -21.4142 -21.4024 -21.3865 -21.3865 -21.3687 -21.3627 -21.3627 -21.3502
   -21.3502 -21.3276 -21.3238 -21.3106 -21.3106 -21.3100 -21.3050 -21.3050
   -21.3008 -21.2945 -21.2944 -21.2735 -21.2735 -21.2725 -21.2713 -21.2683
   -21.2683 -21.2621 -21.2538 -21.2537 -21.2258 -21.2257 -21.1942 -21.1942
   -21.1846 -21.1846 -21.1813 -21.1790 -21.1717 -21.1580 -21.1580 -21.1536
   -21.1529 -21.1529 -21.1454 -21.1453 -21.1366 -21.1366 -21.1332 -21.1253
   -21.1249 -21.1249 -21.1128 -21.1128 -17.7508  -9.9169  -8.6044  -7.0015
    -6.4302  -6.4301  -5.9355  -5.7934  -5.7934  -5.4359  -4.8958  -4.8958
    -4.4827  -3.7049  -3.6618  -3.6618  -2.7634  -2.5979  -2.5979  -2.4908
    -2.0706  -2.0706  -1.9678  -1.0134  -1.0134   0.2730   0.3597   1.6575
     1.6575   1.6754   2.1518   2.1519   2.3308   3.0074   3.3493   3.4475
     3.4475

[...]

          k =-0.5000 0.2887 0.0000 ( 25386 PWs)   bands (ev):

[...]

     the Fermi energy is     0.7082 ev

!    total energy              =   -1960.86884848 Ry
     Harris-Foulkes estimate   =   -1960.86886276 Ry
     estimated scf accuracy    <       0.00003002 Ry

     The total energy is the sum of the following terms:

     one-electron contribution =  -10638.22765915 Ry
     hartree contribution      =    5384.97674590 Ry
     xc contribution           =    -541.50297351 Ry
     ewald contribution        =    3833.93294083 Ry
     electric field correction =       0.00001770 Ry
     smearing contrib. (-TS)   =      -0.04792024 Ry

     convergence has been achieved in  13 iterations

     Forces acting on atoms (Ry/au):

     negative rho (up, down):  5.146E-04 0.000E+00
     atom    1 type  1   force =     0.00002022    0.00000139   -0.00900748
     atom    2 type  1   force =    -0.00000923   -0.00290498   -0.00710918
     atom    3 type  1   force =    -0.00250467    0.00142030   -0.00715714
     atom    4 type  1   force =     0.00255070    0.00136009   -0.00716006
     atom    5 type  1   force =     0.00285970   -0.00164714    0.01058436
     atom    6 type  1   force =    -0.00287699   -0.00163809    0.01053708
     atom    7 type  1   force =    -0.00002509    0.00002938   -0.00399463
     atom    8 type  1   force =     0.00000929    0.00331047    0.01059859
     atom    9 type  1   force =     0.00323381    0.00190403    0.00042278
     atom   10 type  1   force =    -0.00325760    0.00186473    0.00038295
     atom   11 type  1   force =    -0.00001871   -0.00372629    0.00042344
     atom   12 type  1   force =     0.00001949    0.00001617   -0.00004496
     atom   13 type  2   force =    -0.00000094    0.00000992    0.00152426

     Total force =     0.006700     Total SCF correction =     0.011606
     SCF correction compared to forces is large: reduce conv_thr to get better values

     BFGS Geometry Optimization

     number of scf cycles    =   1
     number of bfgs steps    =   0

     energy   new            =   -1960.8688484780 Ry

     new trust radius        =       0.0037764548 bohr
     new conv_thr            =       0.0001000000 Ry

ATOMIC_POSITIONS (angstrom)
Sn       1.681748263   0.970957812  10.000000000    0   0   0
Sn       5.045244789   0.970957812  10.000000000    0   0   0
Sn       3.363496526   3.883831250  10.000000000    0   0   0
Sn       6.726993052   3.883831250  10.000000000    0   0   0
Sn       6.726993052   1.941915625  12.746283414    0   0   0
Sn       3.363496526   1.941915625  12.746283414    0   0   0
Sn       8.408741315   4.854789062  12.746283414    0   0   0
Sn       5.045244789   4.854789062  12.746283414    0   0   0
Sn      -0.036115000  -0.020827643  15.655948093
Sn       3.399604032  -0.020824215  15.655908762
Sn       1.681717602   2.954596715  15.655951021
Sn       5.045264628   2.912889974  15.457641583
O        1.681753739   0.970965134  16.542180449

     Writing output data file calc.save
     Check: negative starting charge=   -0.001609
     NEW-OLD atomic charge density approx. for the potential
     Check: negative starting charge=   -0.001609

[...]

     energy   old            =   -1960.8688484780 Ry
     energy   new            =   -1960.8688406307 Ry

     CASE: energy  _new > energy  _old

[...]

     number of scf cycles    =   3
     number of bfgs steps    =   1

     energy   old            =   -1960.8688484780 Ry
     energy   new            =   -1960.8688617754 Ry

     CASE: energy  _new < energy  _old

     new trust radius        =       0.0024108777 bohr
     new conv_thr            =       0.0000010000 Ry

ATOMIC_POSITIONS (angstrom)
Sn       1.681748263   0.970957812  10.000000000    0   0   0
Sn       5.045244789   0.970957812  10.000000000    0   0   0
Sn       3.363496526   3.883831250  10.000000000    0   0   0
Sn       6.726993052   3.883831250  10.000000000    0   0   0
Sn       6.726993052   1.941915625  12.746283414    0   0   0
Sn       3.363496526   1.941915625  12.746283414    0   0   0
Sn       8.408741315   4.854789062  12.746283414    0   0   0
Sn       5.045244789   4.854789062  12.746283414    0   0   0
Sn      -0.036024394  -0.020777899  15.656102588
Sn       3.399514209  -0.020773754  15.656065883
Sn       1.681716056   2.954490715  15.656105519
Sn       5.045266712   2.912890666  15.457801881
O        1.681753413   0.970964988  16.541731390

     Writing output data file calc.save
     Check: negative starting charge=   -0.001609
     NEW-OLD atomic charge density approx. for the potential
     Check: negative starting charge=   -0.001609

[...]

     Self-consistent Calculation

[...]

     Threshold (ethr) on eigenvalues was too large:
     Diagonalizing with lowered threshold

     Davidson diagonalization with overlap
     ethr =  7.77E-08,  avg # of iterations =  2.5

[...]

     total energy              =   -1960.86887089 Ry
     Harris-Foulkes estimate   =   -1960.86888154 Ry
     estimated scf accuracy    <       0.00011072 Ry

     iteration #  4     ecut=    36.75 Ry     beta=0.20
     Davidson diagonalization with overlap
     ethr =  6.36E-08,  avg # of iterations =  2.0

     negative rho (up, down):  5.172E-04 0.000E+00

     Adding external electric field

     Computed dipole along edir(3) :
        Dipole               -0.0734 Ry au,         -0.1865 Debye
        Dipole field         -0.0001 Ry au

        Potential amp.        0.0119 Ry
        Total length         43.3566 bohr

     End of self-consistent calculation

[...]

          k = 0.3333-0.3849 0.0000 ( 25368 PWs)   bands (ev):

[...]

          k =-0.5000-0.2887 0.0000 ( 25386 PWs)   bands (ev):

   -21.6541 -21.4406 -21.4131 -21.4050 -21.4029 -21.3981 -21.3922 -21.3891
   -21.3857 -21.3831 -21.3735 -21.3676 -21.3579 -21.3473 -21.3171 -21.2991
   -21.2921 -21.2810 -21.2712 -21.2688 -21.2681 -21.2639 -21.2617 -21.2609
   -21.2550 -21.2516 -21.2444 -21.2428 -21.2419 -21.2317 -21.2316 -21.2174
   -21.2157 -21.2121 -21.2108 -21.2054 -21.1903 -21.1864 -21.1809 -21.1746
   -21.1741 -21.1663 -21.1648 -21.1587 -21.1554 -21.1542 -21.1525 -21.1497
   -21.1430 -21.1418 -21.1387 -21.1271 -21.1240 -21.1208 -21.1187 -21.1165
   -21.1150 -21.1065 -21.0937 -21.0840 -17.7294  -8.8532  -8.7029  -7.8585
    -7.3634  -6.8220  -6.5649  -6.2797  -6.1323  -5.8405  -5.3617  -4.6525
    -4.4507  -3.7528  -2.6445  -2.5724  -1.5166  -1.4291  -1.3232  -1.2293
    -1.1709  -0.8258  -0.2062  -0.0592   0.1177   0.6210   0.7065   0.9208
     1.2294   1.3474   1.5045   1.5364   1.8621   1.9164   1.9739   2.0273
     2.7750

     the Fermi energy is     0.7380 ev

!    total energy              =   -1960.86887508 Ry
     Harris-Foulkes estimate   =   -1960.86887662 Ry
     estimated scf accuracy    <       0.00000074 Ry

     The total energy is the sum of the following terms:

     one-electron contribution =  -10637.81057745 Ry
     hartree contribution      =    5384.73672021 Ry
     xc contribution           =    -541.50292664 Ry
     ewald contribution        =    3833.75580863 Ry
     electric field correction =       0.00001004 Ry
     smearing contrib. (-TS)   =      -0.04790988 Ry

     convergence has been achieved in   4 iterations

     Forces acting on atoms (Ry/au):

     negative rho (up, down):  5.172E-04 0.000E+00
     atom    1 type  1   force =    -0.00000441   -0.00000518   -0.00406061
     atom    2 type  1   force =     0.00000285   -0.00304383   -0.00126380
     atom    3 type  1   force =    -0.00263368    0.00152423   -0.00126804
     atom    4 type  1   force =     0.00262964    0.00152634   -0.00126000
     atom    5 type  1   force =     0.00238530   -0.00137800    0.00579481
     atom    6 type  1   force =    -0.00238582   -0.00137480    0.00581738
     atom    7 type  1   force =     0.00000994   -0.00000089   -0.00935278
     atom    8 type  1   force =    -0.00000653    0.00275296    0.00580103
     atom    9 type  1   force =    -0.00060709   -0.00035801    0.00076439
     atom   10 type  1   force =     0.00060922   -0.00033074    0.00076710
     atom   11 type  1   force =     0.00002337    0.00069658    0.00075015
     atom   12 type  1   force =    -0.00002352   -0.00000854   -0.00061781
     atom   13 type  2   force =     0.00000071   -0.00000013   -0.00187182

     Total force =     0.002662     Total SCF correction =     0.003533
     SCF correction compared to forces is large: reduce conv_thr to get better values

     bfgs converged in   4 scf cycles and   2 bfgs steps
     (criteria: energy <  1.0E+12, force <  1.9E-03)

     End of BFGS Geometry Optimization

     Final energy   =   -1960.8688750800 Ry
Begin final coordinates

ATOMIC_POSITIONS (angstrom)
Sn       1.681748263   0.970957812  10.000000000    0   0   0
Sn       5.045244789   0.970957812  10.000000000    0   0   0
Sn       3.363496526   3.883831250  10.000000000    0   0   0
Sn       6.726993052   3.883831250  10.000000000    0   0   0
Sn       6.726993052   1.941915625  12.746283414    0   0   0
Sn       3.363496526   1.941915625  12.746283414    0   0   0
Sn       8.408741315   4.854789062  12.746283414    0   0   0
Sn       5.045244789   4.854789062  12.746283414    0   0   0
Sn      -0.036024394  -0.020777899  15.656102588
Sn       3.399514209  -0.020773754  15.656065883
Sn       1.681716056   2.954490715  15.656105519
Sn       5.045266712   2.912890666  15.457801881
O        1.681753413   0.970964988  16.541731390
End final coordinates

     Writing output data file calc.save

     General routines

     Parallel routines

   This run was terminated on:   1:24:49  17Jan2019

   JOB DONE.
Job  /afs/slac/g/suncat/bin/suncat-tsmpirun -x LD_LIBRARY_PATH -wdir /tmp/qe_3791936cn8u51y_scratch pw.x -npool 3 -in pw.pwi

TID   HOST_NAME   COMMAND_LINE            STATUS            TERMINATION_TIME
00000 suncat1043 pw.x -npool 3 -i  Done                     01/17/2019 01:24:49
00001 suncat1043 pw.x -npool 3 -i  Done                     01/17/2019 01:24:49
00002 suncat1043 pw.x -npool 3 -i  Done                     01/17/2019 01:24:49
00003 suncat1043 pw.x -npool 3 -i  Done                     01/17/2019 01:24:49
00004 suncat1043 pw.x -npool 3 -i  Done                     01/17/2019 01:24:49
00005 suncat1043 pw.x -npool 3 -i  Done                     01/17/2019 01:24:49
00006 suncat1043 pw.x -npool 3 -i  Done                     01/17/2019 01:24:49
00007 suncat1043 pw.x -npool 3 -i  Done                     01/17/2019 01:24:49
00008 suncat1043 pw.x -npool 3 -i  Done                     01/17/2019 01:24:49
00009 suncat1043 pw.x -npool 3 -i  Done                     01/17/2019 01:24:49
00010 suncat1043 pw.x -npool 3 -i  Done                     01/17/2019 01:24:49
00011 suncat1043 pw.x -npool 3 -i  Done                     01/17/2019 01:24:49
00012 suncat1042 pw.x -npool 3 -i  Done                     01/17/2019 01:24:49
00013 suncat1042 pw.x -npool 3 -i  Done                     01/17/2019 01:24:49
00014 suncat1042 pw.x -npool 3 -i  Done                     01/17/2019 01:24:49
00015 suncat1042 pw.x -npool 3 -i  Done                     01/17/2019 01:24:49
00016 suncat1042 pw.x -npool 3 -i  Done                     01/17/2019 01:24:49
00017 suncat1042 pw.x -npool 3 -i  Done                     01/17/2019 01:24:49
00018 suncat1042 pw.x -npool 3 -i  Done                     01/17/2019 01:24:49
00019 suncat1042 pw.x -npool 3 -i  Done                     01/17/2019 01:24:49
00020 suncat1042 pw.x -npool 3 -i  Done                     01/17/2019 01:24:49
00021 suncat1042 pw.x -npool 3 -i  Done                     01/17/2019 01:24:49
00022 suncat1042 pw.x -npool 3 -i  Done                     01/17/2019 01:24:49
00023 suncat1042 pw.x -npool 3 -i  Done                     01/17/2019 01:24:49
00024 suncat1025 pw.x -npool 3 -i  Done                     01/17/2019 01:24:49
00025 suncat1025 pw.x -npool 3 -i  Done                     01/17/2019 01:24:49
00026 suncat1025 pw.x -npool 3 -i  Done                     01/17/2019 01:24:49
00027 suncat1025 pw.x -npool 3 -i  Done                     01/17/2019 01:24:49
00028 suncat1025 pw.x -npool 3 -i  Done                     01/17/2019 01:24:49
00029 suncat1025 pw.x -npool 3 -i  Done                     01/17/2019 01:24:49
00030 suncat1025 pw.x -npool 3 -i  Done                     01/17/2019 01:24:49
00031 suncat1025 pw.x -npool 3 -i  Done                     01/17/2019 01:24:49
00032 suncat1025 pw.x -npool 3 -i  Done                     01/17/2019 01:24:49
00033 suncat1025 pw.x -npool 3 -i  Done                     01/17/2019 01:24:49
00034 suncat1025 pw.x -npool 3 -i  Done                     01/17/2019 01:24:49
00035 suncat1025 pw.x -npool 3 -i  Done                     01/17/2019 01:24:49