     Program PWSCF v.5.1rc2 (svn rev. 11289) starts on 16Apr2018 at 21:32:33

     Current dimensions of program PWSCF are:
     Max number of different atomic species (ntypx) = 10
     Max number of k-points (npk) =  40000
     Max angular momentum in pseudopotentials (lmaxx) =  3
     Presently stress not available with electric field

     IMPORTANT: XC functional enforced from input :
     Exchange-correlation      = BEEF-VDW ( 1  4 27 13 2)
     Any further DFT definition will be discarded
     Please, verify this is what you really want

     Subspace diagonalization in iterative solution of the eigenvalue problem:
     a serial algorithm will be used

     bravais-lattice index     =            0
     lattice parameter (alat)  =       1.8897  a.u.
     unit-cell volume          =    3724.3394 (a.u.)^3
     number of atoms/cell      =           14
     number of atomic types    =            3
     number of electrons       =       173.00
     number of Kohn-Sham states=           96
     kinetic-energy cutoff     =      36.7493  Ry
     charge density cutoff     =     367.4932  Ry
     convergence threshold     =      1.0E-05
     mixing beta               =       0.3000
     number of iterations used =           10  plain     mixing
     Exchange-correlation      = BEEF-VDW ( 1  4 27 13 2)
     nstep                     =           50

     celldm(1)=   1.889726  celldm(2)=   0.000000  celldm(3)=   0.000000
     celldm(4)=   0.000000  celldm(5)=   0.000000  celldm(6)=   0.000000

     crystal axes: (cart. coord. in units of alat)
               a(1) = (   5.132588   0.000000   0.000000 )
               a(2) = (   2.566294   4.444952   0.000000 )
               a(3) = (   0.000000   0.000000  24.190741 )

     reciprocal axes: (cart. coord. in units 2 pi/alat)
               b(1) = (  0.194833 -0.112487  0.000000 )
               b(2) = (  0.000000  0.224974  0.000000 )
               b(3) = (  0.000000  0.000000  0.041338 )

     PseudoPot. # 1 for Cr read from file:
     /u/if/mamunm/psp/gbrv1.5pbe/Cr.UPF
     MD5 check sum: 0d52af634a40206e4dee301ad30da4bf
     Pseudo is Ultrasoft + core correction, Zval = 14.0
     Generated by new atomic code, or converted to UPF format
     Using radial grid of  857 points,  6 beta functions with:
                l(1) =   0
                l(2) =   0
                l(3) =   1
                l(4) =   1
                l(5) =   2
                l(6) =   2
     Q(r) pseudized with  8 coefficients,  rinner =    0.950   0.950   0.950
                                                       0.950   0.950

     PseudoPot. # 2 for C  read from file:
     /u/if/mamunm/psp/gbrv1.5pbe/C.UPF
     MD5 check sum: d1aef80898a10debaa0f26306b886e00
     Pseudo is Ultrasoft + core correction, Zval =  4.0
     Generated by new atomic code, or converted to UPF format
     Using radial grid of  721 points,  4 beta functions with:
                l(1) =   0
                l(2) =   0
                l(3) =   1
                l(4) =   1
     Q(r) pseudized with  8 coefficients,  rinner =    1.100   1.100   1.100

     PseudoPot. # 3 for H  read from file:
     /u/if/mamunm/psp/gbrv1.5pbe/H.UPF
     MD5 check sum: 761ae9a214b05c3daf00ab9f6b793d6f
     Pseudo is Ultrasoft, Zval =  1.0
     Generated by new atomic code, or converted to UPF format
     Using radial grid of  615 points,  2 beta functions with:
                l(1) =   0
                l(2) =   0
     Q(r) pseudized with  8 coefficients,  rinner =    0.700

     vdW kernel table read from file vdW_kernel_table
     MD5 check sum: 095c7af220d748ca6e76c0b4c6cfb241

     atomic species   valence    mass     pseudopotential
        Cr1           14.00    51.99610     Cr( 1.00)
        C1             4.00    12.01100     C ( 1.00)
        H1             1.00     1.00800     H ( 1.00)

     No symmetry found

   Cartesian axes

     site n.     atom                  positions (alat units)
         1           Cr1 tau(   1) = (   1.2831471   0.7408253  10.0000000  )
         2           Cr1 tau(   2) = (   3.8494412   0.7408253  10.0000000  )
         3           Cr1 tau(   3) = (   2.5662941   2.9633012  10.0000000  )
         4           Cr1 tau(   4) = (   5.1325882   2.9633012  10.0000000  )
         5           Cr1 tau(   5) = (   5.1325882   1.4816506  12.0953704  )
         6           Cr1 tau(   6) = (   2.5662941   1.4816506  12.0953704  )
         7           Cr1 tau(   7) = (   6.4157353   3.7041265  12.0953704  )
         8           Cr1 tau(   8) = (   3.8494412   3.7041265  12.0953704  )
         9           Cr1 tau(   9) = (   0.0000000   0.0000000  14.1907408  )
        10           Cr1 tau(  10) = (   2.5662941   0.0000000  14.1907408  )
        11           Cr1 tau(  11) = (   1.2831471   2.2224759  14.1907408  )
        12           Cr1 tau(  12) = (   3.8494412   2.2224759  14.1907408  )
        13           C1  tau(  13) = (   1.2831471   0.0000000  15.8032408  )
        14           H1  tau(  14) = (   1.2831471   0.0000000  16.9032408  )

     number of k points=    20  Fermi-Dirac smearing, width (Ry)=  0.0110
                       cart. coord. in units 2pi/alat
        k(    1) = (   0.0000000   0.0000000   0.0000000), wk =   0.0555556
        k(    2) = (   0.0000000   0.0374957   0.0000000), wk =   0.1111111
        k(    3) = (   0.0000000   0.0749914   0.0000000), wk =   0.1111111
        k(    4) = (   0.0000000  -0.1124872   0.0000000), wk =   0.0555556
        k(    5) = (   0.0324722  -0.0187479   0.0000000), wk =   0.1111111
        k(    6) = (   0.0324722   0.0187479   0.0000000), wk =   0.1111111
        k(    7) = (   0.0324722   0.0562436   0.0000000), wk =   0.1111111
        k(    8) = (   0.0324722  -0.1312350   0.0000000), wk =   0.1111111
        k(    9) = (   0.0324722  -0.0937393   0.0000000), wk =   0.1111111
        k(   10) = (   0.0324722  -0.0562436   0.0000000), wk =   0.1111111
        k(   11) = (   0.0649445  -0.0374957   0.0000000), wk =   0.1111111
        k(   12) = (   0.0649445   0.0000000   0.0000000), wk =   0.1111111
        k(   13) = (   0.0649445   0.0374957   0.0000000), wk =   0.1111111
        k(   14) = (   0.0649445  -0.1499829   0.0000000), wk =   0.1111111
        k(   15) = (   0.0649445  -0.1124872   0.0000000), wk =   0.1111111
        k(   16) = (   0.0649445  -0.0749914   0.0000000), wk =   0.1111111
        k(   17) = (  -0.0974167   0.0562436   0.0000000), wk =   0.0555556
        k(   18) = (  -0.0974167   0.0937393   0.0000000), wk =   0.1111111
        k(   19) = (  -0.0974167   0.1312350   0.0000000), wk =   0.1111111
        k(   20) = (  -0.0974167  -0.0562436   0.0000000), wk =   0.0555556

     Largest allocated arrays     est. size (Mb)     dimensions
     Largest temporary arrays     est. size (Mb)     dimensions

     Check: negative/imaginary core charge=   -0.000004    0.000000

     Initial potential from superposition of free atoms
     Check: negative starting charge=   -0.014798

     starting charge  160.99977, renormalised to  173.00000

     negative rho (up, down):  1.590E-02 0.000E+00

     *
     * You are using vdW-DF for exchange-correlation in this calculation.
     * Please cite the following three references that made this development
     * possible:
     *
     *   M. Dion, H. Rydberg, E. Schroder, D. C. Langreth, and
     *   B. I. Lundqvist, Phys. Rev. Lett. 92, 246401 (2004).
     *
     *   T. Thonhauser, V. R. Cooper, S. Li, A. Puzder, P. Hyldgaard, and
     *   D. C. Langreth, Phys. Rev. B 76, 125112 (2007).
     *
     *   G. Roman-Perez and J. M. Soler, Phys. Rev. Lett. 103, 096102 (2009).
     *
     *
     * If you are using vdW-DF2, please also cite:
     *
     *   K. Lee, E. D. Murray, L. Kong, B. I. Lundqvist, and
     *   D. C. Langreth, Phys. Rev. B 82, 081101(R) (2010).
     *
     *
     * If you are calculating the stress with vdW-DF, please also cite:
     *
     *   R. Sabatini, E. Kucukbenli, B. Kolb, T. Thonhauser, and
     *   S. de Gironcoli, J. Phys.: Condens. Matter 24, 424209 (2012).
     *

     Carrying out vdW-DF run using the following parameters:

     Nqs =      20    Nr_points =    1024   r_max =   100.000
     q_mesh =
               0.00001000     0.04494208     0.09755937     0.15916263
               0.23128650     0.31572767     0.41458969     0.53033537
               0.66584808     0.82450364     1.01025438     1.22772762
               1.48234092     1.78043706     2.12944203     2.53805004
               3.01644009     3.57652955     4.23227104     5.00000000

     Gradients computed in reciprocal space

     Adding external electric field

     Computed dipole along edir(3) :
        Dipole               -2.7659 Ry au,         -7.0301 Debye
        Dipole field         -0.0093 Ry au

        Potential amp.        0.8319 Ry
        Total length         44.5710 bohr

     Starting wfc are  125 randomized atomic wfcs

     Self-consistent Calculation

     iteration #  1     ecut=    36.75 Ry     beta=0.30
     Davidson diagonalization with overlap
     ethr =  1.00E-02,  avg # of iterations =  7.8

[...]

     total energy              =   -1954.10762016 Ry
     Harris-Foulkes estimate   =   -2130.49127553 Ry
     estimated scf accuracy    <     367.57656040 Ry

     iteration #  2     ecut=    36.75 Ry     beta=0.30
     Davidson diagonalization with overlap
     c_bands:  1 eigenvalues not converged
     c_bands:  1 eigenvalues not converged
     ethr =  1.00E-02,  avg # of iterations = 18.9

[...]

     End of self-consistent calculation

          k = 0.0000 0.0000 0.0000 ( 14081 PWs)   bands (ev):

   -70.3736 -70.2973 -70.2417 -70.2283 -70.2179 -70.2101 -70.2054 -70.2014
   -70.1885 -70.1127 -70.1125 -70.1077 -41.9675 -41.9563 -41.9482 -41.9136
   -41.8958 -41.8936 -41.8736 -41.7810 -41.7736 -41.7710 -41.6388 -41.5875
   -41.5501 -41.5284 -41.5040 -41.5029 -41.5017 -41.4548 -41.4533 -41.4406
   -41.3854 -41.3754 -41.3731 -41.3615 -41.3529 -41.3493 -41.3216 -41.2827
   -41.2801 -41.2577 -41.2561 -41.2519 -41.2288 -41.2172 -41.1245 -41.1203
    -9.2836  -5.3814  -4.1292  -3.0578  -2.4455  -2.3064  -2.2867  -2.2445
    -2.0541  -2.0497  -1.8367  -1.6429  -1.5395  -1.5388  -1.4721  -1.4716
    -1.2182  -0.7597  -0.5678  -0.2406  -0.0696   0.2472   0.3800   0.4724
     0.5460   0.6523   0.9281   0.9383   0.9643   1.1146   1.1152   1.1768
     1.1960   1.1969   1.2052   1.2815   1.2865   1.3081   1.4806   1.6551
     2.0050   2.0761   2.2448   2.2745   2.3544   2.5058   2.5876   2.5876

[...]

          k =-0.0974 0.0562 0.0000 ( 14010 PWs)   bands (ev):

[...]

     the Fermi energy is     1.3627 ev

!    total energy              =   -2127.65435696 Ry
     Harris-Foulkes estimate   =   -2127.65436250 Ry
     estimated scf accuracy    <       0.00000568 Ry

     The total energy is the sum of the following terms:

     one-electron contribution =  -19855.25420636 Ry
     hartree contribution      =    9921.21731478 Ry
     xc contribution           =    -283.38739117 Ry
     ewald contribution        =    8089.90261047 Ry
     electric field correction =       0.00001797 Ry
     smearing contrib. (-TS)   =      -0.13270266 Ry

     convergence has been achieved in  47 iterations

 BEEF-vdW xc energy contributions
           1 :   -245.242556623439
           2 :    220.762525298509
           3 :   -179.916361538411
           4 :    135.001031059572
           5 :   -97.1606243872935
           6 :    72.3507304770587
           7 :   -60.2323434486221
           8 :    56.0295288793982
           9 :   -53.9387643114888
          10 :    50.1315787417446
          11 :   -43.9690754135042
          12 :    37.2306287559001
          13 :   -32.2415749711575
          14 :    30.1716127159237
          15 :   -30.4205779114199
          16 :    31.2246296983466
          17 :   -30.8981686724809
          18 :    28.8523323709662
          19 :   -25.7973065329428
          20 :    23.1036582726338
          21 :   -21.8224577841419
          22 :    22.0231879640635
          23 :   -22.8405639505047
          24 :    23.1255024143145
          25 :   -22.2178668965243
          26 :    20.3269114861728
          27 :   -18.3136875203663
          28 :    17.0734695144763
          29 :   -16.9520999945667
          30 :    17.5642186483692
          31 :   -24.3713612269545
          32 :   -17.5294356828465

     Forces acting on atoms (Ry/au):

     negative rho (up, down):  1.464E-02 0.000E+00
     atom    1 type  1   force =    -0.00000682    0.00060542    0.00020638
     atom    2 type  1   force =     0.00001396    0.00046700   -0.00011255
     atom    3 type  1   force =    -0.00094549   -0.00087612   -0.00031126
     atom    4 type  1   force =     0.00093739   -0.00087996   -0.00034611
     atom    5 type  1   force =     0.00014650    0.00120229   -0.00072664
     atom    6 type  1   force =    -0.00015079    0.00119440   -0.00070449
     atom    7 type  1   force =    -0.00001541   -0.00488058   -0.01054145
     atom    8 type  1   force =     0.00001664    0.00503117    0.00321189
     atom    9 type  1   force =    -0.00635739   -0.00115956    0.07231730
     atom   10 type  1   force =     0.00636030   -0.00117986    0.07232172
     atom   11 type  1   force =    -0.00000879    0.00141714    0.01318810
     atom   12 type  1   force =     0.00001823   -0.00210982    0.00481101
     atom   13 type  2   force =    -0.00000703    0.00137556   -0.14049569
     atom   14 type  3   force =    -0.00000131   -0.00020707   -0.01281821

     Total force =     0.175079     Total SCF correction =     0.003873

     entering subroutine stress ...

     negative rho (up, down):  1.464E-02 0.000E+00
          total   stress  (Ry/bohr**3)                   (kbar)     P=  -32.98
  -0.00027448   0.00000001  -0.00000004        -40.38      0.00     -0.01
   0.00000001  -0.00026177  -0.00000047          0.00    -38.51     -0.07
  -0.00000004  -0.00000047  -0.00013627         -0.01     -0.07    -20.05

     BFGS Geometry Optimization

     number of scf cycles    =   1
     number of bfgs steps    =   0

     energy   new            =   -2127.6543569612 Ry

     new trust radius        =       0.1405024218 bohr
     new conv_thr            =       0.0000099958 Ry

ATOMIC_POSITIONS (crystal)
Cr1      0.166666667   0.166666667   0.413381306    0   0   0
Cr1      0.666666667   0.166666667   0.413381306    0   0   0
Cr1      0.166666667   0.666666667   0.413381306    0   0   0
Cr1      0.666666667   0.666666667   0.413381306    0   0   0
Cr1      0.833333333   0.333333333   0.500000000    0   0   0
Cr1      0.333333333   0.333333333   0.500000000    0   0   0
Cr1      0.833333333   0.833333333   0.500000000    0   0   0
Cr1      0.333333333   0.833333333   0.500000000    0   0   0
Cr1     -0.000586432  -0.000138048   0.588200650
Cr1      0.500725988  -0.000140463   0.588200746
Cr1     -0.000085262   0.500168712   0.586907187
Cr1      0.500127468   0.499748823   0.586723936
C1       0.249917395   0.000163762   0.650203059
H1       0.250012191  -0.000024652   0.698467973

     Writing output data file calc.save
     Check: negative starting charge=   -0.014798
     NEW-OLD atomic charge density approx. for the potential

     Check: negative/imaginary core charge=   -0.000004    0.000000
     Check: negative starting charge=   -0.014887

[...]

     energy   old            =   -2127.6543569612 Ry
     energy   new            =   -2127.6752936139 Ry

     CASE: energy  _new < energy  _old

[...]

     iteration #  6     ecut=    36.75 Ry     beta=0.30
     Davidson diagonalization with overlap
     c_bands:  2 eigenvalues not converged
     ethr =  1.04E-04,  avg # of iterations =  8.3

[...]

     Total force =     0.006584     Total SCF correction =     0.000739
     SCF correction compared to forces is large: reduce conv_thr to get better values

[...]

     Total force =     0.003819     Total SCF correction =     0.000301

[...]

     number of scf cycles    =  18
     number of bfgs steps    =  17

     energy   old            =   -2127.7148983316 Ry
     energy   new            =   -2127.7149246435 Ry

     CASE: energy  _new < energy  _old

     new trust radius        =       0.0038004880 bohr
     new conv_thr            =       0.0000001000 Ry

ATOMIC_POSITIONS (crystal)
Cr1      0.166666667   0.166666667   0.413381306    0   0   0
Cr1      0.666666667   0.166666667   0.413381306    0   0   0
Cr1      0.166666667   0.666666667   0.413381306    0   0   0
Cr1      0.666666667   0.666666667   0.413381306    0   0   0
Cr1      0.833333333   0.333333333   0.500000000    0   0   0
Cr1      0.333333333   0.333333333   0.500000000    0   0   0
Cr1      0.833333333   0.833333333   0.500000000    0   0   0
Cr1      0.333333333   0.833333333   0.500000000    0   0   0
Cr1     -0.028392749  -0.001740911   0.586221292
Cr1      0.530137141  -0.001740751   0.586221028
Cr1      0.019332111   0.461339766   0.586537415
Cr1      0.475792710   0.548420837   0.588796007
C1       0.252654114  -0.005302639   0.637978141
H1       0.249096636   0.001807641   0.683320719

     Writing output data file calc.save
     Check: negative starting charge=   -0.013556
     NEW-OLD atomic charge density approx. for the potential

     Check: negative/imaginary core charge=   -0.000004    0.000000
     Check: negative starting charge=   -0.013543

[...]

     Self-consistent Calculation

[...]

     total energy              =   -2127.71494072 Ry
     Harris-Foulkes estimate   =   -2127.71494072 Ry
     estimated scf accuracy    <       0.00000016 Ry

     iteration # 18     ecut=    36.75 Ry     beta=0.30
     Davidson diagonalization with overlap
     ethr =  9.03E-11,  avg # of iterations =  5.3

[...]

     negative rho (up, down):  1.342E-02 0.000E+00

     Adding external electric field

     Computed dipole along edir(3) :
        Dipole                0.1066 Ry au,          0.2709 Debye
        Dipole field          0.0004 Ry au

        Potential amp.       -0.0321 Ry
        Total length         44.5710 bohr

     End of self-consistent calculation

[...]

          k = 0.0649-0.0750 0.0000 ( 13990 PWs)   bands (ev):

[...]

          k =-0.0974-0.0562 0.0000 ( 14010 PWs)   bands (ev):

   -70.2961 -70.2676 -70.2443 -70.2184 -70.1897 -70.1881 -70.1311 -70.1107
   -70.1092 -70.0616 -70.0609 -70.0338 -41.8287 -41.8220 -41.7865 -41.7800
   -41.7590 -41.7544 -41.6679 -41.6647 -41.6553 -41.6388 -41.6153 -41.5958
   -41.5704 -41.5228 -41.5179 -41.4833 -41.4527 -41.4335 -41.4249 -41.4078
   -41.3994 -41.3869 -41.3759 -41.3656 -41.3625 -41.3362 -41.3198 -41.3103
   -41.2927 -41.2763 -41.2691 -41.2519 -41.2079 -41.1414 -41.1397 -41.0589
    -9.5621  -4.1130  -3.5577  -3.2379  -2.3724  -1.9092  -1.7732  -1.5598
    -1.5157  -1.4273  -1.4096  -1.1399  -1.0839  -0.7986  -0.7547  -0.7089
    -0.6355  -0.5256  -0.4735  -0.3093  -0.1404  -0.1063   0.0072   0.0313
     0.0783   0.2304   0.3443   0.3852   0.5862   0.6294   0.7213   0.7419
     0.7741   0.8079   0.9103   1.0529   1.0618   1.0895   1.1975   1.4634
     1.6168   1.6481   1.8231   1.8754   1.9322   2.0961   2.1239   2.1792

     the Fermi energy is     1.4147 ev

!    total energy              =   -2127.71494067 Ry
     Harris-Foulkes estimate   =   -2127.71494067 Ry
     estimated scf accuracy    <       0.00000008 Ry

     The total energy is the sum of the following terms:

     one-electron contribution =  -19958.21866256 Ry
     hartree contribution      =    9972.96296139 Ry
     xc contribution           =    -283.62587584 Ry
     ewald contribution        =    8141.29373074 Ry
     electric field correction =       0.00003833 Ry
     smearing contrib. (-TS)   =      -0.12713272 Ry

     convergence has been achieved in  18 iterations

 BEEF-vdW xc energy contributions
           1 :   -245.483811688894
           2 :    221.071033118660
           3 :   -180.293398052779
           4 :    135.378735614201
           5 :   -97.4461072565618
           6 :    72.4766896272853
           7 :   -60.1881895344640
           8 :    55.8603276068699
           9 :   -53.7179979132802
          10 :    49.9242401704471
          11 :   -43.8025329139020
          12 :    37.0861014567092
          13 :   -32.0703888492204
          14 :    29.9297247251934
          15 :   -30.1025474451790
          16 :    30.8750635781975
          17 :   -30.5923810412006
          18 :    28.6556160668178
          19 :   -25.7264155460597
          20 :    23.1156584415684
          21 :   -21.8388058838464
          22 :    21.9739476603991
          23 :   -22.7018223185198
          24 :    22.9285541475613
          25 :   -22.0267207812768
          26 :    20.1982221720752
          27 :   -18.2615237140097
          28 :    17.0590740721160
          29 :   -16.9061023072646
          30 :    17.4297093378815
          31 :   -24.3876826364556
          32 :   -17.5589752719152

     Forces acting on atoms (Ry/au):

     negative rho (up, down):  1.342E-02 0.000E+00
     atom    1 type  1   force =     0.00000028    0.00341373   -0.00272979
     atom    2 type  1   force =    -0.00000121   -0.00003267   -0.00123193
     atom    3 type  1   force =    -0.00036837   -0.00104574   -0.00184952
     atom    4 type  1   force =     0.00036758   -0.00104593   -0.00185206
     atom    5 type  1   force =    -0.00335068    0.00325575    0.00673034
     atom    6 type  1   force =     0.00335032    0.00325518    0.00673069
     atom    7 type  1   force =    -0.00000111   -0.00871824   -0.02484953
     atom    8 type  1   force =     0.00000039    0.00154055    0.01895131
     atom    9 type  1   force =     0.00027892    0.00048844    0.00025126
     atom   10 type  1   force =    -0.00027724    0.00049010    0.00025336
     atom   11 type  1   force =     0.00000221   -0.00034576    0.00074425
     atom   12 type  1   force =    -0.00000055    0.00048987   -0.00106363
     atom   13 type  2   force =    -0.00000137   -0.00112675    0.00004372
     atom   14 type  3   force =     0.00000083   -0.00061852   -0.00012846

     Total force =     0.002116     Total SCF correction =     0.000399
     SCF correction compared to forces is large: reduce conv_thr to get better values

     entering subroutine stress ...

     negative rho (up, down):  1.342E-02 0.000E+00
          total   stress  (Ry/bohr**3)                   (kbar)     P=  -21.12
  -0.00016788  -0.00000000  -0.00000000        -24.70     -0.00     -0.00
  -0.00000000  -0.00026169  -0.00000347         -0.00    -38.50     -0.51
  -0.00000000  -0.00000347  -0.00000115         -0.00     -0.51     -0.17

     bfgs converged in  19 scf cycles and  18 bfgs steps
     (criteria: energy <  1.0E+00, force <  1.9E-03)

     End of BFGS Geometry Optimization

     Final energy   =   -2127.7149406669 Ry
Begin final coordinates

ATOMIC_POSITIONS (crystal)
Cr1      0.166666667   0.166666667   0.413381306    0   0   0
Cr1      0.666666667   0.166666667   0.413381306    0   0   0
Cr1      0.166666667   0.666666667   0.413381306    0   0   0
Cr1      0.666666667   0.666666667   0.413381306    0   0   0
Cr1      0.833333333   0.333333333   0.500000000    0   0   0
Cr1      0.333333333   0.333333333   0.500000000    0   0   0
Cr1      0.833333333   0.833333333   0.500000000    0   0   0
Cr1      0.333333333   0.833333333   0.500000000    0   0   0
Cr1     -0.028392749  -0.001740911   0.586221292
Cr1      0.530137141  -0.001740751   0.586221028
Cr1      0.019332111   0.461339766   0.586537415
Cr1      0.475792710   0.548420837   0.588796007
C1       0.252654114  -0.005302639   0.637978141
H1       0.249096636   0.001807641   0.683320719
End final coordinates

     Writing output data file calc.save

     General routines

     Parallel routines

   This run was terminated on:   0:23:57  17Apr2018

   JOB DONE.
Job  /afs/slac/g/suncat/bin/suncat-tsmpirun -x LD_LIBRARY_PATH -wdir /scratch/qe137755_Cd5DH pw.x -npool 4 -in pw.inp

TID   HOST_NAME   COMMAND_LINE            STATUS            TERMINATION_TIME
00000 suncat0089 pw.x -npool 4 -i  Done                     04/17/2018 00:23:57
00001 suncat0089 pw.x -npool 4 -i  Done                     04/17/2018 00:23:57
00002 suncat0089 pw.x -npool 4 -i  Done                     04/17/2018 00:23:57
00003 suncat0089 pw.x -npool 4 -i  Done                     04/17/2018 00:23:57
00004 suncat0089 pw.x -npool 4 -i  Done                     04/17/2018 00:23:57
00005 suncat0089 pw.x -npool 4 -i  Done                     04/17/2018 00:23:57
00006 suncat0089 pw.x -npool 4 -i  Done                     04/17/2018 00:23:57
00007 suncat0089 pw.x -npool 4 -i  Done                     04/17/2018 00:23:57
00008 suncat0081 pw.x -npool 4 -i  Done                     04/17/2018 00:23:57
00009 suncat0081 pw.x -npool 4 -i  Done                     04/17/2018 00:23:57
00010 suncat0081 pw.x -npool 4 -i  Done                     04/17/2018 00:23:57
00011 suncat0081 pw.x -npool 4 -i  Done                     04/17/2018 00:23:57
00012 suncat0081 pw.x -npool 4 -i  Done                     04/17/2018 00:23:57
00013 suncat0081 pw.x -npool 4 -i  Done                     04/17/2018 00:23:57
00014 suncat0081 pw.x -npool 4 -i  Done                     04/17/2018 00:23:57
00015 suncat0081 pw.x -npool 4 -i  Done                     04/17/2018 00:23:57
00016 suncat0058 pw.x -npool 4 -i  Done                     04/17/2018 00:23:57
00017 suncat0058 pw.x -npool 4 -i  Done                     04/17/2018 00:23:57
00018 suncat0058 pw.x -npool 4 -i  Done                     04/17/2018 00:23:57
00019 suncat0058 pw.x -npool 4 -i  Done                     04/17/2018 00:23:57
00020 suncat0058 pw.x -npool 4 -i  Done                     04/17/2018 00:23:57
00021 suncat0058 pw.x -npool 4 -i  Done                     04/17/2018 00:23:57
00022 suncat0058 pw.x -npool 4 -i  Done                     04/17/2018 00:23:57
00023 suncat0058 pw.x -npool 4 -i  Done                     04/17/2018 00:23:57
00024 suncat0050 pw.x -npool 4 -i  Done                     04/17/2018 00:23:57
00025 suncat0050 pw.x -npool 4 -i  Done                     04/17/2018 00:23:57
00026 suncat0050 pw.x -npool 4 -i  Done                     04/17/2018 00:23:57
00027 suncat0050 pw.x -npool 4 -i  Done                     04/17/2018 00:23:57
00028 suncat0050 pw.x -npool 4 -i  Done                     04/17/2018 00:23:57
00029 suncat0050 pw.x -npool 4 -i  Done                     04/17/2018 00:23:57
00030 suncat0050 pw.x -npool 4 -i  Done                     04/17/2018 00:23:57
00031 suncat0050 pw.x -npool 4 -i  Done                     04/17/2018 00:23:57