     Program PWSCF v.5.1rc2 (svn rev. 11289) starts on 16Apr2018 at  9:57:12

     Current dimensions of program PWSCF are:
     Max number of different atomic species (ntypx) = 10
     Max number of k-points (npk) =  40000
     Max angular momentum in pseudopotentials (lmaxx) =  3
     Presently stress not available with electric field

     IMPORTANT: XC functional enforced from input :
     Exchange-correlation      = BEEF-VDW ( 1  4 27 13 2)
     Any further DFT definition will be discarded
     Please, verify this is what you really want

     Subspace diagonalization in iterative solution of the eigenvalue problem:
     a serial algorithm will be used

     bravais-lattice index     =            0
     lattice parameter (alat)  =       1.8897  a.u.
     unit-cell volume          =    5174.6160 (a.u.)^3
     number of atoms/cell      =           14
     number of atomic types    =            3
     number of electrons       =       233.00
     number of Kohn-Sham states=          126
     kinetic-energy cutoff     =      36.7493  Ry
     charge density cutoff     =     367.4932  Ry
     convergence threshold     =      1.0E-05
     mixing beta               =       0.3000
     number of iterations used =           10  plain     mixing
     Exchange-correlation      = BEEF-VDW ( 1  4 27 13 2)
     nstep                     =           50

     celldm(1)=   1.889726  celldm(2)=   0.000000  celldm(3)=   0.000000
     celldm(4)=   0.000000  celldm(5)=   0.000000  celldm(6)=   0.000000

     crystal axes: (cart. coord. in units of alat)
               a(1) = (   5.966546   0.000000   0.000000 )
               a(2) = (   2.983273   5.167181   0.000000 )
               a(3) = (   0.000000   0.000000  24.871665 )

     reciprocal axes: (cart. coord. in units 2 pi/alat)
               b(1) = (  0.167601 -0.096765  0.000000 )
               b(2) = (  0.000000  0.193529  0.000000 )
               b(3) = (  0.000000  0.000000  0.040206 )

     PseudoPot. # 1 for Ag read from file:
     /u/if/mamunm/psp/gbrv1.5pbe/Ag.UPF
     MD5 check sum: d66d668201baa78d5eb5b04ef7011058
     Pseudo is Ultrasoft + core correction, Zval = 19.0
     Generated by new atomic code, or converted to UPF format
     Using radial grid of  887 points,  6 beta functions with:
                l(1) =   0
                l(2) =   0
                l(3) =   1
                l(4) =   1
                l(5) =   2
                l(6) =   2
     Q(r) pseudized with  6 coefficients,  rinner =    1.300   1.300   1.300
                                                       1.300   1.300

     PseudoPot. # 2 for C  read from file:
     /u/if/mamunm/psp/gbrv1.5pbe/C.UPF
     MD5 check sum: d1aef80898a10debaa0f26306b886e00
     Pseudo is Ultrasoft + core correction, Zval =  4.0
     Generated by new atomic code, or converted to UPF format
     Using radial grid of  721 points,  4 beta functions with:
                l(1) =   0
                l(2) =   0
                l(3) =   1
                l(4) =   1
     Q(r) pseudized with  8 coefficients,  rinner =    1.100   1.100   1.100

     PseudoPot. # 3 for H  read from file:
     /u/if/mamunm/psp/gbrv1.5pbe/H.UPF
     MD5 check sum: 761ae9a214b05c3daf00ab9f6b793d6f
     Pseudo is Ultrasoft, Zval =  1.0
     Generated by new atomic code, or converted to UPF format
     Using radial grid of  615 points,  2 beta functions with:
                l(1) =   0
                l(2) =   0
     Q(r) pseudized with  8 coefficients,  rinner =    0.700

     vdW kernel table read from file vdW_kernel_table
     MD5 check sum: 095c7af220d748ca6e76c0b4c6cfb241

     atomic species   valence    mass     pseudopotential
        Ag1           19.00   107.86820     Ag( 1.00)
        C1             4.00    12.01100     C ( 1.00)
        H1             1.00     1.00800     H ( 1.00)

     No symmetry found

   Cartesian axes

     site n.     atom                  positions (alat units)
         1           Ag1 tau(   1) = (   1.4916366   0.8611968  10.0000000  )
         2           Ag1 tau(   2) = (   4.4749098   0.8611968  10.0000000  )
         3           Ag1 tau(   3) = (   2.9832732   3.4447871  10.0000000  )
         4           Ag1 tau(   4) = (   5.9665464   3.4447871  10.0000000  )
         5           Ag1 tau(   5) = (   5.9665464   1.7223936  12.4358324  )
         6           Ag1 tau(   6) = (   2.9832732   1.7223936  12.4358324  )
         7           Ag1 tau(   7) = (   7.4581830   4.3059839  12.4358324  )
         8           Ag1 tau(   8) = (   4.4749098   4.3059839  12.4358324  )
         9           Ag1 tau(   9) = (   0.0000000   0.0000000  14.8716647  )
        10           Ag1 tau(  10) = (   2.9832732   0.0000000  14.8716647  )
        11           Ag1 tau(  11) = (   1.4916366   2.5835904  14.8716647  )
        12           Ag1 tau(  12) = (   4.4749098   2.5835904  14.8716647  )
        13           C1  tau(  13) = (   2.9832732   1.7223936  16.3081647  )
        14           H1  tau(  14) = (   2.9832732   1.7223936  17.4081647  )

     number of k points=    20  Fermi-Dirac smearing, width (Ry)=  0.0110
                       cart. coord. in units 2pi/alat
        k(    1) = (   0.0000000   0.0000000   0.0000000), wk =   0.0555556
        k(    2) = (   0.0000000   0.0322549   0.0000000), wk =   0.1111111
        k(    3) = (   0.0000000   0.0645097   0.0000000), wk =   0.1111111
        k(    4) = (   0.0000000  -0.0967646   0.0000000), wk =   0.0555556
        k(    5) = (   0.0279335  -0.0161274   0.0000000), wk =   0.1111111
        k(    6) = (   0.0279335   0.0161274   0.0000000), wk =   0.1111111
        k(    7) = (   0.0279335   0.0483823   0.0000000), wk =   0.1111111
        k(    8) = (   0.0279335  -0.1128920   0.0000000), wk =   0.1111111
        k(    9) = (   0.0279335  -0.0806371   0.0000000), wk =   0.1111111
        k(   10) = (   0.0279335  -0.0483823   0.0000000), wk =   0.1111111
        k(   11) = (   0.0558670  -0.0322549   0.0000000), wk =   0.1111111
        k(   12) = (   0.0558670   0.0000000   0.0000000), wk =   0.1111111
        k(   13) = (   0.0558670   0.0322549   0.0000000), wk =   0.1111111
        k(   14) = (   0.0558670  -0.1290194   0.0000000), wk =   0.1111111
        k(   15) = (   0.0558670  -0.0967646   0.0000000), wk =   0.1111111
        k(   16) = (   0.0558670  -0.0645097   0.0000000), wk =   0.1111111
        k(   17) = (  -0.0838006   0.0483823   0.0000000), wk =   0.0555556
        k(   18) = (  -0.0838006   0.0806371   0.0000000), wk =   0.1111111
        k(   19) = (  -0.0838006   0.1128920   0.0000000), wk =   0.1111111
        k(   20) = (  -0.0838006  -0.0483823   0.0000000), wk =   0.0555556

     Largest allocated arrays     est. size (Mb)     dimensions
     Largest temporary arrays     est. size (Mb)     dimensions

     Initial potential from superposition of free atoms
     Check: negative starting charge=   -0.002021

     starting charge  226.99938, renormalised to  233.00000

     negative rho (up, down):  2.074E-03 0.000E+00

     *
     * You are using vdW-DF for exchange-correlation in this calculation.
     * Please cite the following three references that made this development
     * possible:
     *
     *   M. Dion, H. Rydberg, E. Schroder, D. C. Langreth, and
     *   B. I. Lundqvist, Phys. Rev. Lett. 92, 246401 (2004).
     *
     *   T. Thonhauser, V. R. Cooper, S. Li, A. Puzder, P. Hyldgaard, and
     *   D. C. Langreth, Phys. Rev. B 76, 125112 (2007).
     *
     *   G. Roman-Perez and J. M. Soler, Phys. Rev. Lett. 103, 096102 (2009).
     *
     *
     * If you are using vdW-DF2, please also cite:
     *
     *   K. Lee, E. D. Murray, L. Kong, B. I. Lundqvist, and
     *   D. C. Langreth, Phys. Rev. B 82, 081101(R) (2010).
     *
     *
     * If you are calculating the stress with vdW-DF, please also cite:
     *
     *   R. Sabatini, E. Kucukbenli, B. Kolb, T. Thonhauser, and
     *   S. de Gironcoli, J. Phys.: Condens. Matter 24, 424209 (2012).
     *

     Carrying out vdW-DF run using the following parameters:

     Nqs =      20    Nr_points =    1024   r_max =   100.000
     q_mesh =
               0.00001000     0.04494208     0.09755937     0.15916263
               0.23128650     0.31572767     0.41458969     0.53033537
               0.66584808     0.82450364     1.01025438     1.22772762
               1.48234092     1.78043706     2.12944203     2.53805004
               3.01644009     3.57652955     4.23227104     5.00000000

     Gradients computed in reciprocal space

     Adding external electric field

     Computed dipole along edir(3) :
        Dipole               -1.0218 Ry au,         -2.5970 Debye
        Dipole field         -0.0025 Ry au

        Potential amp.        0.2274 Ry
        Total length         45.8256 bohr

     Starting wfc are  161 randomized atomic wfcs

     Self-consistent Calculation

     iteration #  1     ecut=    36.75 Ry     beta=0.30
     Davidson diagonalization with overlap
     ethr =  1.00E-02,  avg # of iterations =  5.8

[...]

     total energy              =   -3563.86316028 Ry
     Harris-Foulkes estimate   =   -3575.91244803 Ry
     estimated scf accuracy    <      26.18807152 Ry

[...]

     End of self-consistent calculation

          k = 0.0000 0.0000 0.0000 ( 19435 PWs)   bands (ev):

   -90.8478 -90.8424 -90.8423 -90.7886 -90.7404 -90.7352 -90.7351 -90.6556
   -90.6500 -90.6497 -90.6362 -90.5095 -54.3809 -54.3756 -54.3756 -54.3473
   -54.3357 -54.3356 -54.3265 -54.3095 -54.3095 -54.2925 -54.2826 -54.2741
   -54.2741 -54.2539 -54.2538 -54.2297 -54.2297 -54.2034 -54.2005 -54.1963
   -54.1942 -54.1941 -54.1680 -54.1680 -54.1394 -54.1356 -54.1354 -54.1280
   -54.1226 -54.1222 -54.1143 -54.1142 -54.1100 -54.0140 -54.0140 -53.9919
    -9.6731  -5.3601  -5.0441  -4.5760  -4.5760  -4.5629  -4.5220  -4.4442
    -4.4442  -4.4135  -4.3661  -4.3660  -4.3339  -4.2472  -4.1867  -4.1866
    -3.8120  -3.6465  -3.6465  -3.5240  -3.5075  -3.5074  -3.4126  -3.4070
    -3.4070  -3.2880  -3.2880  -3.2200  -3.2200  -3.2104  -3.1542  -3.1542
    -2.8314  -2.8313  -2.7167  -2.6234  -2.6234  -2.6117  -2.5652  -2.5475
    -2.5475  -2.4306  -2.3304  -2.3304  -2.3163  -2.3163  -2.1407  -2.1406
    -2.0940  -2.0218  -2.0218  -2.0172  -2.0172  -1.9620  -1.9275  -1.9163
    -1.9163  -1.7789  -1.7540  -1.7540  -1.7489  -1.7228  -1.7228  -1.0895
     0.5179   0.9762   0.9762   1.8015   1.8367   1.8367   2.1484   2.5964
     2.5964   2.6953   2.9800   2.9800   4.4400   4.8811

[...]

          k =-0.0838 0.0484 0.0000 ( 19500 PWs)   bands (ev):

[...]

     the Fermi energy is     1.2159 ev

!    total energy              =   -3572.39391095 Ry
     Harris-Foulkes estimate   =   -3572.39392300 Ry
     estimated scf accuracy    <       0.00000724 Ry

     The total energy is the sum of the following terms:

     one-electron contribution =  -26121.60142855 Ry
     hartree contribution      =   13053.19477243 Ry
     xc contribution           =    -365.21833498 Ry
     ewald contribution        =    9861.25649657 Ry
     electric field correction =       0.00001752 Ry
     smearing contrib. (-TS)   =      -0.02543395 Ry

     convergence has been achieved in  14 iterations

 BEEF-vdW xc energy contributions
           1 :   -316.379034891250
           2 :    286.410622517265
           3 :   -236.428500610615
           4 :    181.521247026809
           5 :   -135.389218001742
           6 :    105.414432659995
           7 :   -91.2783585006429
           8 :    87.1394688100168
           9 :   -85.7228208234903
          10 :    81.9974869884468
          11 :   -74.7537818200244
          12 :    65.7865295619241
          13 :   -57.7384747669085
          14 :    52.1527887076492
          15 :   -48.8049144435710
          16 :    46.3636903452713
          17 :   -43.6061221206373
          18 :    40.2328325559903
          19 :   -36.8223277340819
          20 :    34.1434907548257
          21 :   -32.4538396917411
          22 :    31.3052074908513
          23 :   -29.9332720122937
          24 :    27.8714226803334
          25 :   -25.3105126500755
          26 :    22.9522037686264
          27 :   -21.4927354305950
          28 :    21.1271027413665
          29 :   -21.4255489837903
          30 :    21.6465752452099
          31 :   -31.6755758920153
          32 :   -23.0447156757487

     Forces acting on atoms (Ry/au):

     negative rho (up, down):  2.109E-03 0.000E+00
     atom    1 type  1   force =    -0.00012886   -0.00007116   -0.00002850
     atom    2 type  1   force =     0.00012991   -0.00007570   -0.00027734
     atom    3 type  1   force =    -0.00000401    0.00014810   -0.00027370
     atom    4 type  1   force =     0.00000437   -0.00000065   -0.00354888
     atom    5 type  1   force =    -0.00001157    0.00221340    0.00365365
     atom    6 type  1   force =     0.00000986    0.00000281   -0.00939802
     atom    7 type  1   force =    -0.00191704   -0.00110189    0.00368109
     atom    8 type  1   force =     0.00191598   -0.00111433    0.00364653
     atom    9 type  1   force =    -0.00000049   -0.00000285    0.00217338
     atom   10 type  1   force =     0.00000207    0.00039045    0.01961277
     atom   11 type  1   force =     0.00034316   -0.00019250    0.01962054
     atom   12 type  1   force =    -0.00034590   -0.00019648    0.01959105
     atom   13 type  2   force =     0.00000139    0.00000029   -0.05030934
     atom   14 type  3   force =     0.00000114    0.00000053   -0.00814321

     Total force =     0.061286     Total SCF correction =     0.014180
     SCF correction compared to forces is large: reduce conv_thr to get better values

     entering subroutine stress ...

     negative rho (up, down):  2.109E-03 0.000E+00
          total   stress  (Ry/bohr**3)                   (kbar)     P=   -5.69
  -0.00004640  -0.00000000   0.00000000         -6.83     -0.00      0.00
  -0.00000000  -0.00004640   0.00000000         -0.00     -6.83      0.00
   0.00000000   0.00000000  -0.00002327          0.00      0.00     -3.42

     BFGS Geometry Optimization

     number of scf cycles    =   1
     number of bfgs steps    =   0

     energy   new            =   -3572.3939109485 Ry

     new trust radius        =       0.0503093381 bohr
     new conv_thr            =       0.0000099958 Ry

ATOMIC_POSITIONS (crystal)
Ag1      0.166666667   0.166666667   0.402063960    0   0   0
Ag1      0.666666667   0.166666667   0.402063960    0   0   0
Ag1      0.166666667   0.666666667   0.402063960    0   0   0
Ag1      0.666666667   0.666666667   0.402063960    0   0   0
Ag1      0.833333333   0.333333333   0.500000000    0   0   0
Ag1      0.333333333   0.333333333   0.500000000    0   0   0
Ag1      0.833333333   0.833333333   0.500000000    0   0   0
Ag1      0.333333333   0.833333333   0.500000000    0   0   0
Ag1      0.000000103  -0.000000292   0.597982282
Ag1      0.499980191   0.000039986   0.598353327
Ag1      0.000040292   0.499980285   0.598353493
Ag1      0.499979383   0.499979878   0.598352865
C1       0.333333442   0.333333363   0.654622131
H1       0.333333408   0.333333387   0.699746306

     Writing output data file calc.save
     Check: negative starting charge=   -0.002021
     NEW-OLD atomic charge density approx. for the potential
     Check: negative starting charge=   -0.002021

[...]

     energy   old            =   -3572.3939109486 Ry
     energy   new            =   -3572.3967752465 Ry

     CASE: energy  _new < energy  _old

[...]

     Total force =     0.046775     Total SCF correction =     0.000215

[...]

     Total force =     0.011081     Total SCF correction =     0.000781

[...]

     number of scf cycles    =  15
     number of bfgs steps    =  14

     energy   old            =   -3572.4101491003 Ry
     energy   new            =   -3572.4102394873 Ry

     CASE: energy  _new < energy  _old

     new trust radius        =       0.0032281383 bohr
     new conv_thr            =       0.0000001000 Ry

ATOMIC_POSITIONS (crystal)
Ag1      0.166666667   0.166666667   0.402063960    0   0   0
Ag1      0.666666667   0.166666667   0.402063960    0   0   0
Ag1      0.166666667   0.666666667   0.402063960    0   0   0
Ag1      0.666666667   0.666666667   0.402063960    0   0   0
Ag1      0.833333333   0.333333333   0.500000000    0   0   0
Ag1      0.333333333   0.333333333   0.500000000    0   0   0
Ag1      0.833333333   0.833333333   0.500000000    0   0   0
Ag1      0.333333333   0.833333333   0.500000000    0   0   0
Ag1     -0.000001852   0.000001226   0.598979783
Ag1      0.506636207  -0.013279165   0.599738636
Ag1     -0.013278977   0.506635494   0.599738383
Ag1      0.506641251   0.506640005   0.599740009
C1       0.333332590   0.333334289   0.645811983
H1       0.333338395   0.333334573   0.689887532

     Writing output data file calc.save
     Check: negative starting charge=   -0.002123
     NEW-OLD atomic charge density approx. for the potential
     Check: negative starting charge=   -0.002123

[...]

     Self-consistent Calculation

[...]

     Threshold (ethr) on eigenvalues was too large:
     Diagonalizing with lowered threshold

     Davidson diagonalization with overlap
     ethr =  8.90E-08,  avg # of iterations =  1.0

[...]

     total energy              =   -3572.41025246 Ry
     Harris-Foulkes estimate   =   -3572.41025245 Ry
     estimated scf accuracy    <       0.00000013 Ry

     iteration #  6     ecut=    36.75 Ry     beta=0.30
     Davidson diagonalization with overlap
     ethr =  5.78E-11,  avg # of iterations =  2.0

[...]

     negative rho (up, down):  2.188E-03 0.000E+00

     Adding external electric field

     Computed dipole along edir(3) :
        Dipole               -0.0589 Ry au,         -0.1497 Debye
        Dipole field         -0.0001 Ry au

        Potential amp.        0.0131 Ry
        Total length         45.8256 bohr

     End of self-consistent calculation

[...]

          k = 0.0559-0.0645 0.0000 ( 19479 PWs)   bands (ev):

[...]

          k =-0.0838-0.0484 0.0000 ( 19500 PWs)   bands (ev):

   -90.8300 -90.8262 -90.8249 -90.8001 -90.7984 -90.7967 -90.7287 -90.6023
   -90.6008 -90.5988 -90.5874 -90.4791 -54.4146 -54.3874 -54.3751 -54.3233
   -54.3126 -54.3086 -54.3039 -54.2998 -54.2958 -54.2933 -54.2919 -54.2856
   -54.2817 -54.2800 -54.2649 -54.2575 -54.2490 -54.2367 -54.2310 -54.2210
   -54.2142 -54.1345 -54.1281 -54.1089 -54.1082 -54.1046 -54.0935 -54.0801
   -54.0740 -54.0726 -54.0716 -54.0706 -54.0611 -53.9886 -53.9860 -53.9653
    -9.9600  -5.0063  -4.4136  -4.2517  -4.1960  -4.1263  -4.0939  -4.0542
    -4.0051  -3.9555  -3.9161  -3.8655  -3.8643  -3.8078  -3.8013  -3.7678
    -3.7371  -3.6795  -3.6471  -3.5093  -3.4398  -3.4385  -3.3974  -3.3585
    -3.3297  -3.3277  -3.2976  -3.1603  -3.1398  -3.1170  -3.0602  -3.0575
    -3.0019  -3.0002  -2.9546  -2.8954  -2.8587  -2.7993  -2.7957  -2.7369
    -2.7143  -2.7110  -2.7052  -2.6091  -2.5944  -2.5696  -2.5544  -2.5354
    -2.5154  -2.5046  -2.4621  -2.4556  -2.4254  -2.3448  -2.2784  -2.2548
    -2.2496  -2.0263  -2.0110  -2.0048  -1.9768  -1.8577  -1.8278  -1.2808
    -1.2089   0.1901   0.4428   0.7562   1.1392   1.3898   1.9326   2.6716
     3.0714   3.5248   4.2562   4.6171   5.2701   5.8776

     the Fermi energy is     1.2759 ev

!    total energy              =   -3572.41025247 Ry
     Harris-Foulkes estimate   =   -3572.41025261 Ry
     estimated scf accuracy    <       0.00000001 Ry

     The total energy is the sum of the following terms:

     one-electron contribution =  -26062.64997649 Ry
     hartree contribution      =   13023.64016089 Ry
     xc contribution           =    -365.27367775 Ry
     ewald contribution        =    9831.89673082 Ry
     electric field correction =       0.00000842 Ry
     smearing contrib. (-TS)   =      -0.02349837 Ry

     convergence has been achieved in   6 iterations

 BEEF-vdW xc energy contributions
           1 :   -316.442469962155
           2 :    286.508836050251
           3 :   -236.560570666644
           4 :    181.650511253118
           5 :   -135.469537532688
           6 :    105.418482854178
           7 :   -91.2136686483638
           8 :    87.0441489608800
           9 :   -85.6443071657726
          10 :    81.9675903177307
          11 :   -74.7736726277384
          12 :    65.8291696201015
          13 :   -57.7666743710944
          14 :    52.1416281373419
          15 :   -48.7557835444977
          16 :    46.3025900918493
          17 :   -43.5686764935834
          18 :    40.2454628086544
          19 :   -36.8887013306660
          20 :    34.2426087977996
          21 :   -32.5506609478914
          22 :    31.3685723487062
          23 :   -29.9522159991905
          24 :    27.8603301246311
          25 :   -25.2995971772961
          26 :    22.9687001919754
          27 :   -21.5436610563805
          28 :    21.1937047594067
          29 :   -21.4726197330255
          30 :    21.6403414180290
          31 :   -31.6808424978930
          32 :   -23.0562741822989

     Forces acting on atoms (Ry/au):

     negative rho (up, down):  2.188E-03 0.000E+00
     atom    1 type  1   force =    -0.00058626   -0.00033846   -0.00029498
     atom    2 type  1   force =     0.00058631   -0.00033847   -0.00029481
     atom    3 type  1   force =     0.00000002    0.00067701   -0.00029484
     atom    4 type  1   force =     0.00000006    0.00000003   -0.00406038
     atom    5 type  1   force =    -0.00000062    0.00127255    0.00338614
     atom    6 type  1   force =     0.00000064    0.00000030   -0.00550884
     atom    7 type  1   force =    -0.00110207   -0.00063630    0.00338675
     atom    8 type  1   force =     0.00110155   -0.00063671    0.00338679
     atom    9 type  1   force =    -0.00000196   -0.00000313   -0.00002067
     atom   10 type  1   force =     0.00000336    0.00000551    0.00011814
     atom   11 type  1   force =     0.00000679    0.00000136    0.00011846
     atom   12 type  1   force =    -0.00000659   -0.00000241    0.00011353
     atom   13 type  2   force =     0.00000110   -0.00000086    0.00175139
     atom   14 type  3   force =    -0.00000233   -0.00000043   -0.00178666

     Total force =     0.002510     Total SCF correction =     0.000288
     SCF correction compared to forces is large: reduce conv_thr to get better values

     entering subroutine stress ...

     negative rho (up, down):  2.188E-03 0.000E+00
          total   stress  (Ry/bohr**3)                   (kbar)     P=   -5.65
  -0.00004926   0.00000000  -0.00000000         -7.25      0.00     -0.00
   0.00000000  -0.00004926  -0.00000000          0.00     -7.25     -0.00
  -0.00000000  -0.00000000  -0.00001661         -0.00     -0.00     -2.44

     bfgs converged in  16 scf cycles and  15 bfgs steps
     (criteria: energy <  1.0E+00, force <  1.9E-03)

     End of BFGS Geometry Optimization

     Final energy   =   -3572.4102524715 Ry
Begin final coordinates

ATOMIC_POSITIONS (crystal)
Ag1      0.166666667   0.166666667   0.402063960    0   0   0
Ag1      0.666666667   0.166666667   0.402063960    0   0   0
Ag1      0.166666667   0.666666667   0.402063960    0   0   0
Ag1      0.666666667   0.666666667   0.402063960    0   0   0
Ag1      0.833333333   0.333333333   0.500000000    0   0   0
Ag1      0.333333333   0.333333333   0.500000000    0   0   0
Ag1      0.833333333   0.833333333   0.500000000    0   0   0
Ag1      0.333333333   0.833333333   0.500000000    0   0   0
Ag1     -0.000001852   0.000001226   0.598979783
Ag1      0.506636207  -0.013279165   0.599738636
Ag1     -0.013278977   0.506635494   0.599738383
Ag1      0.506641251   0.506640005   0.599740009
C1       0.333332590   0.333334289   0.645811983
H1       0.333338395   0.333334573   0.689887532
End final coordinates

     Writing output data file calc.save

     General routines

     Parallel routines

   This run was terminated on:  11:30:36  16Apr2018

   JOB DONE.
Job  /afs/slac/g/suncat/bin/suncat-tsmpirun -x LD_LIBRARY_PATH -wdir /scratch/qe98208_mcmgG pw.x -npool 4 -in pw.inp

TID   HOST_NAME   COMMAND_LINE            STATUS            TERMINATION_TIME
00000 suncat0005 pw.x -npool 4 -i  Done                     04/16/2018 11:30:36
00001 suncat0005 pw.x -npool 4 -i  Done                     04/16/2018 11:30:36
00002 suncat0005 pw.x -npool 4 -i  Done                     04/16/2018 11:30:36
00003 suncat0005 pw.x -npool 4 -i  Done                     04/16/2018 11:30:36
00004 suncat0005 pw.x -npool 4 -i  Done                     04/16/2018 11:30:36
00005 suncat0005 pw.x -npool 4 -i  Done                     04/16/2018 11:30:36
00006 suncat0005 pw.x -npool 4 -i  Done                     04/16/2018 11:30:36
00007 suncat0005 pw.x -npool 4 -i  Done                     04/16/2018 11:30:36
00008 suncat0161 pw.x -npool 4 -i  Done                     04/16/2018 11:30:36
00009 suncat0161 pw.x -npool 4 -i  Done                     04/16/2018 11:30:36
00010 suncat0161 pw.x -npool 4 -i  Done                     04/16/2018 11:30:36
00011 suncat0161 pw.x -npool 4 -i  Done                     04/16/2018 11:30:36
00012 suncat0161 pw.x -npool 4 -i  Done                     04/16/2018 11:30:36
00013 suncat0161 pw.x -npool 4 -i  Done                     04/16/2018 11:30:36
00014 suncat0161 pw.x -npool 4 -i  Done                     04/16/2018 11:30:36
00015 suncat0161 pw.x -npool 4 -i  Done                     04/16/2018 11:30:36
00016 suncat0156 pw.x -npool 4 -i  Done                     04/16/2018 11:30:36
00017 suncat0156 pw.x -npool 4 -i  Done                     04/16/2018 11:30:36
00018 suncat0156 pw.x -npool 4 -i  Done                     04/16/2018 11:30:36
00019 suncat0156 pw.x -npool 4 -i  Done                     04/16/2018 11:30:36
00020 suncat0156 pw.x -npool 4 -i  Done                     04/16/2018 11:30:36
00021 suncat0156 pw.x -npool 4 -i  Done                     04/16/2018 11:30:36
00022 suncat0156 pw.x -npool 4 -i  Done                     04/16/2018 11:30:36
00023 suncat0156 pw.x -npool 4 -i  Done                     04/16/2018 11:30:36
00024 suncat0279 pw.x -npool 4 -i  Done                     04/16/2018 11:30:36
00025 suncat0279 pw.x -npool 4 -i  Done                     04/16/2018 11:30:36
00026 suncat0279 pw.x -npool 4 -i  Done                     04/16/2018 11:30:36
00027 suncat0279 pw.x -npool 4 -i  Done                     04/16/2018 11:30:36
00028 suncat0279 pw.x -npool 4 -i  Done                     04/16/2018 11:30:36
00029 suncat0279 pw.x -npool 4 -i  Done                     04/16/2018 11:30:36
00030 suncat0279 pw.x -npool 4 -i  Done                     04/16/2018 11:30:36
00031 suncat0279 pw.x -npool 4 -i  Done                     04/16/2018 11:30:36