     Program PWSCF v.5.1rc2 (svn rev. 11289) starts on  3May2018 at  0:57:56

     Current dimensions of program PWSCF are:
     Max number of different atomic species (ntypx) = 10
     Max number of k-points (npk) =  40000
     Max angular momentum in pseudopotentials (lmaxx) =  3
     Presently stress not available with electric field

     IMPORTANT: XC functional enforced from input :
     Exchange-correlation      = BEEF-VDW ( 1  4 27 13 2)
     Any further DFT definition will be discarded
     Please, verify this is what you really want

     Subspace diagonalization in iterative solution of the eigenvalue problem:
     a serial algorithm will be used

     bravais-lattice index     =            0
     lattice parameter (alat)  =       1.8897  a.u.
     unit-cell volume          =    7725.1200 (a.u.)^3
     number of atoms/cell      =           13
     number of atomic types    =            2
     number of electrons       =       138.00
     number of Kohn-Sham states=           79
     kinetic-energy cutoff     =      36.7493  Ry
     charge density cutoff     =     367.4932  Ry
     convergence threshold     =      1.0E-05
     mixing beta               =       0.3000
     number of iterations used =           10  plain     mixing
     Exchange-correlation      = BEEF-VDW ( 1  4 27 13 2)
     nstep                     =           50

     celldm(1)=   1.889726  celldm(2)=   0.000000  celldm(3)=   0.000000
     celldm(4)=   0.000000  celldm(5)=   0.000000  celldm(6)=   0.000000

     crystal axes: (cart. coord. in units of alat)
               a(1) = (   7.152277   0.000000   0.000000 )
               a(2) = (   3.576139   6.194054   0.000000 )
               a(3) = (   0.000000   0.000000  25.839810 )

     reciprocal axes: (cart. coord. in units 2 pi/alat)
               b(1) = (  0.139816 -0.080723  0.000000 )
               b(2) = (  0.000000  0.161445  0.000000 )
               b(3) = (  0.000000  0.000000  0.038700 )

     PseudoPot. # 1 for Y  read from file:
     /u/if/mamunm/psp/gbrv1.5pbe/Y.UPF
     MD5 check sum: d034151ed7554c50b6e82763ed42c788
     Pseudo is Ultrasoft + core correction, Zval = 11.0
     Generated by new atomic code, or converted to UPF format
     Using radial grid of  885 points,  6 beta functions with:
                l(1) =   0
                l(2) =   0
                l(3) =   1
                l(4) =   1
                l(5) =   2
                l(6) =   2
     Q(r) pseudized with  8 coefficients,  rinner =    1.200   1.200   1.200
                                                       1.200   1.200

     PseudoPot. # 2 for O  read from file:
     /u/if/mamunm/psp/gbrv1.5pbe/O.UPF
     MD5 check sum: 734c27235a0248c51dbae37a1fbe46ec
     Pseudo is Ultrasoft + core correction, Zval =  6.0
     Generated by new atomic code, or converted to UPF format
     Using radial grid of  737 points,  5 beta functions with:
                l(1) =   0
                l(2) =   0
                l(3) =   1
                l(4) =   1
                l(5) =   2
     Q(r) pseudized with  8 coefficients,  rinner =    0.900   0.900   0.900
                                                       0.900   0.900

     vdW kernel table read from file vdW_kernel_table
     MD5 check sum: 095c7af220d748ca6e76c0b4c6cfb241

     atomic species   valence    mass     pseudopotential
        Y1            11.00    88.90584     Y ( 1.00)
        O1             6.00    15.99900     O ( 1.00)

     No symmetry found

   Cartesian axes

     site n.     atom                  positions (alat units)
         1           Y1  tau(   1) = (   1.7880693   1.0323423  10.0000000  )
         2           Y1  tau(   2) = (   5.3642080   1.0323423  10.0000000  )
         3           Y1  tau(   3) = (   3.5761386   4.1293692  10.0000000  )
         4           Y1  tau(   4) = (   7.1522773   4.1293692  10.0000000  )
         5           Y1  tau(   5) = (   7.1522773   2.0646846  12.9199050  )
         6           Y1  tau(   6) = (   3.5761386   2.0646846  12.9199050  )
         7           Y1  tau(   7) = (   8.9403466   5.1617115  12.9199050  )
         8           Y1  tau(   8) = (   5.3642080   5.1617115  12.9199050  )
         9           Y1  tau(   9) = (   0.0000000   0.0000000  15.8398100  )
        10           Y1  tau(  10) = (   3.5761386   0.0000000  15.8398100  )
        11           Y1  tau(  11) = (   1.7880693   3.0970269  15.8398100  )
        12           Y1  tau(  12) = (   5.3642080   3.0970269  15.8398100  )
        13           O1  tau(  13) = (   1.7880693   1.0323423  17.5038100  )

     number of k points=    20  Fermi-Dirac smearing, width (Ry)=  0.0110
                       cart. coord. in units 2pi/alat
        k(    1) = (   0.0000000   0.0000000   0.0000000), wk =   0.0555556
        k(    2) = (   0.0000000   0.0269075   0.0000000), wk =   0.1111111
        k(    3) = (   0.0000000   0.0538151   0.0000000), wk =   0.1111111
        k(    4) = (   0.0000000  -0.0807226   0.0000000), wk =   0.0555556
        k(    5) = (   0.0233026  -0.0134538   0.0000000), wk =   0.1111111
        k(    6) = (   0.0233026   0.0134538   0.0000000), wk =   0.1111111
        k(    7) = (   0.0233026   0.0403613   0.0000000), wk =   0.1111111
        k(    8) = (   0.0233026  -0.0941763   0.0000000), wk =   0.1111111
        k(    9) = (   0.0233026  -0.0672688   0.0000000), wk =   0.1111111
        k(   10) = (   0.0233026  -0.0403613   0.0000000), wk =   0.1111111
        k(   11) = (   0.0466052  -0.0269075   0.0000000), wk =   0.1111111
        k(   12) = (   0.0466052   0.0000000   0.0000000), wk =   0.1111111
        k(   13) = (   0.0466052   0.0269075   0.0000000), wk =   0.1111111
        k(   14) = (   0.0466052  -0.1076301   0.0000000), wk =   0.1111111
        k(   15) = (   0.0466052  -0.0807226   0.0000000), wk =   0.1111111
        k(   16) = (   0.0466052  -0.0538151   0.0000000), wk =   0.1111111
        k(   17) = (  -0.0699078   0.0403613   0.0000000), wk =   0.0555556
        k(   18) = (  -0.0699078   0.0672688   0.0000000), wk =   0.1111111
        k(   19) = (  -0.0699078   0.0941763   0.0000000), wk =   0.1111111
        k(   20) = (  -0.0699078  -0.0403613   0.0000000), wk =   0.0555556

     Largest allocated arrays     est. size (Mb)     dimensions
     Largest temporary arrays     est. size (Mb)     dimensions

     Initial potential from superposition of free atoms
     Check: negative starting charge=   -0.000693

     starting charge  137.94637, renormalised to  138.00000

     negative rho (up, down):  6.929E-04 0.000E+00

     *
     * You are using vdW-DF for exchange-correlation in this calculation.
     * Please cite the following three references that made this development
     * possible:
     *
     *   M. Dion, H. Rydberg, E. Schroder, D. C. Langreth, and
     *   B. I. Lundqvist, Phys. Rev. Lett. 92, 246401 (2004).
     *
     *   T. Thonhauser, V. R. Cooper, S. Li, A. Puzder, P. Hyldgaard, and
     *   D. C. Langreth, Phys. Rev. B 76, 125112 (2007).
     *
     *   G. Roman-Perez and J. M. Soler, Phys. Rev. Lett. 103, 096102 (2009).
     *
     *
     * If you are using vdW-DF2, please also cite:
     *
     *   K. Lee, E. D. Murray, L. Kong, B. I. Lundqvist, and
     *   D. C. Langreth, Phys. Rev. B 82, 081101(R) (2010).
     *
     *
     * If you are calculating the stress with vdW-DF, please also cite:
     *
     *   R. Sabatini, E. Kucukbenli, B. Kolb, T. Thonhauser, and
     *   S. de Gironcoli, J. Phys.: Condens. Matter 24, 424209 (2012).
     *

     Carrying out vdW-DF run using the following parameters:

     Nqs =      20    Nr_points =    1024   r_max =   100.000
     q_mesh =
               0.00001000     0.04494208     0.09755937     0.15916263
               0.23128650     0.31572767     0.41458969     0.53033537
               0.66584808     0.82450364     1.01025438     1.22772762
               1.48234092     1.78043706     2.12944203     2.53805004
               3.01644009     3.57652955     4.23227104     5.00000000

     Gradients computed in reciprocal space

     Adding external electric field

     Computed dipole along edir(3) :
        Dipole               -0.0202 Ry au,         -0.0513 Debye
        Dipole field         -0.0000 Ry au

        Potential amp.        0.0031 Ry
        Total length         47.6094 bohr

     Starting wfc are  160 randomized atomic wfcs

     Self-consistent Calculation

     iteration #  1     ecut=    36.75 Ry     beta=0.30
     Davidson diagonalization with overlap
     ethr =  1.00E-02,  avg # of iterations =  2.0

[...]

     total energy              =   -1155.00250430 Ry
     Harris-Foulkes estimate   =   -1157.52286907 Ry
     estimated scf accuracy    <       5.45042008 Ry

[...]

     End of self-consistent calculation

          k = 0.0000 0.0000 0.0000 ( 28997 PWs)   bands (ev):

   -42.7098 -42.6260 -42.5835 -42.5833 -42.5831 -42.5431 -42.5134 -42.5132
   -42.0619 -42.0234 -42.0166 -42.0165 -22.7701 -22.7489 -22.7488 -22.7322
   -22.7265 -22.7265 -22.6639 -22.6457 -22.5894 -22.5893 -22.5868 -22.5238
   -22.5047 -22.5045 -22.4071 -22.4070 -22.4048 -22.3898 -22.3897 -22.3603
   -22.3072 -22.3071 -22.2251 -22.2249 -22.1799 -22.1715 -22.1714 -21.9719
   -21.9509 -21.9414 -21.9413 -21.8821 -21.8821 -21.8779 -21.7833 -21.7833
   -15.2381  -3.5413  -2.6108  -1.6412  -1.4625  -1.4625  -1.2970  -0.8640
    -0.8639  -0.8058  -0.7176  -0.6928  -0.6927  -0.2639  -0.2639  -0.1961
     0.0457   0.0457   0.1820   0.5174   0.5174   0.7134   0.9103   1.3168
     1.4258   1.4363   1.4363   1.4696   1.6768   1.6769   1.9457

[...]

          k =-0.0699 0.0404 0.0000 ( 29048 PWs)   bands (ev):

[...]

     the Fermi energy is     0.7208 ev

!    total energy              =   -1156.95282160 Ry
     Harris-Foulkes estimate   =   -1156.95283542 Ry
     estimated scf accuracy    <       0.00000706 Ry

     The total energy is the sum of the following terms:

     one-electron contribution =   -5596.85316705 Ry
     hartree contribution      =    2792.49093297 Ry
     xc contribution           =    -346.32519476 Ry
     ewald contribution        =    1993.85803685 Ry
     electric field correction =       0.00028885 Ry
     smearing contrib. (-TS)   =      -0.12371846 Ry

     convergence has been achieved in  20 iterations

 BEEF-vdW xc energy contributions
           1 :   -301.950328169058
           2 :    270.949473317158
           3 :   -217.682926044580
           4 :    155.350919258441
           5 :   -96.1346581149899
           6 :    47.6008257263816
           7 :   -12.2408590484642
           8 :   -10.7062131173299
           9 :    22.9833057043805
          10 :   -26.0669584584785
          11 :    21.2788049022725
          12 :   -10.6074633236935
          13 :   -2.76845054879556
          14 :    14.9023963137345
          15 :   -22.3292351380173
          16 :    23.3571931234985
          17 :   -18.5557832640031
          18 :    10.1680434921096
          19 :  -0.915456006937688
          20 :   -7.04000428311571
          21 :    12.4954550623654
          22 :   -15.0317491222813
          23 :    14.6694892804040
          24 :   -11.7167871613437
          25 :    6.85279037825563
          26 :   -1.21379107733992
          27 :   -3.77872252885840
          28 :    6.87829171983361
          29 :   -7.51571404047195
          30 :    6.00889187852891
          31 :   -28.9646335948005
          32 :   -19.7705854669258

     Forces acting on atoms (Ry/au):

     negative rho (up, down):  2.636E-04 0.000E+00
     atom    1 type  1   force =     0.00002254    0.00000534    0.00297443
     atom    2 type  1   force =    -0.00005364   -0.00060274    0.00410220
     atom    3 type  1   force =    -0.00053743    0.00026358    0.00413107
     atom    4 type  1   force =     0.00051691    0.00034525    0.00408510
     atom    5 type  1   force =    -0.00284715    0.00170128    0.00046126
     atom    6 type  1   force =     0.00285257    0.00170224    0.00045612
     atom    7 type  1   force =    -0.00001447   -0.00001288   -0.01174018
     atom    8 type  1   force =     0.00000792   -0.00336984    0.00043806
     atom    9 type  1   force =     0.05456638    0.03146596    0.05059168
     atom   10 type  1   force =    -0.05452249    0.03147835    0.05061191
     atom   11 type  1   force =    -0.00000158   -0.06296539    0.05059337
     atom   12 type  1   force =     0.00001048   -0.00001095   -0.01092554
     atom   13 type  2   force =    -0.00000005   -0.00000021   -0.14577949

     Total force =     0.202355     Total SCF correction =     0.003229

     entering subroutine stress ...

     negative rho (up, down):  2.636E-04 0.000E+00
          total   stress  (Ry/bohr**3)                   (kbar)     P=   -7.81
  -0.00003952   0.00000000   0.00000001         -5.81      0.00      0.00
   0.00000000  -0.00003952  -0.00000000          0.00     -5.81     -0.00
   0.00000001  -0.00000000  -0.00008017          0.00     -0.00    -11.79

     BFGS Geometry Optimization

     number of scf cycles    =   1
     number of bfgs steps    =   0

     energy   new            =   -1156.9528215989 Ry

     new trust radius        =       0.1457794868 bohr
     new conv_thr            =       0.0000099958 Ry

ATOMIC_POSITIONS (crystal)
Y1       0.166666667   0.166666667   0.386999750    0   0   0
Y1       0.666666667   0.166666667   0.386999750    0   0   0
Y1       0.166666667   0.666666667   0.386999750    0   0   0
Y1       0.666666667   0.666666667   0.386999750    0   0   0
Y1       0.833333333   0.333333333   0.500000000    0   0   0
Y1       0.333333333   0.333333333   0.500000000    0   0   0
Y1       0.833333333   0.833333333   0.500000000    0   0   0
Y1       0.333333333   0.833333333   0.500000000    0   0   0
Y1       0.002693098   0.002688235   0.614036324
Y1       0.494621385   0.002689293   0.614036738
Y1       0.002689548   0.494620672   0.614036359
Y1       0.500001243   0.499999065   0.612776504
O1       0.166666672   0.166666649   0.674411569

     Writing output data file calc.save
     Check: negative starting charge=   -0.000693
     NEW-OLD atomic charge density approx. for the potential
     Check: negative starting charge=   -0.000684

[...]

     energy   old            =   -1156.9528215989 Ry
     energy   new            =   -1156.9923448648 Ry

     CASE: energy  _new < energy  _old

     WARNING: bfgs curvature condition failed, Theta= 0.860
     new trust radius        =       0.2186692303 bohr
     new conv_thr            =       0.0000001000 Ry

[...]

     Threshold (ethr) on eigenvalues was too large:
     Diagonalizing with lowered threshold

     Davidson diagonalization with overlap
     ethr =  7.65E-08,  avg # of iterations =  5.3

[...]

     Total force =     0.002964     Total SCF correction =     0.000228

[...]

     Total force =     0.003109     Total SCF correction =     0.000318
     SCF correction compared to forces is large: reduce conv_thr to get better values

[...]

     Threshold (ethr) on eigenvalues was too large:
     Diagonalizing with lowered threshold

     Davidson diagonalization with overlap
     ethr =  5.41E-08,  avg # of iterations =  4.6

[...]

     number of scf cycles    =  19
     number of bfgs steps    =  18

     energy   old            =   -1157.1159685983 Ry
     energy   new            =   -1157.1159966492 Ry

     CASE: energy  _new < energy  _old

     new trust radius        =       0.0159512521 bohr
     new conv_thr            =       0.0000001000 Ry

ATOMIC_POSITIONS (crystal)
Y1       0.166666667   0.166666667   0.386999750    0   0   0
Y1       0.666666667   0.166666667   0.386999750    0   0   0
Y1       0.166666667   0.666666667   0.386999750    0   0   0
Y1       0.666666667   0.666666667   0.386999750    0   0   0
Y1       0.833333333   0.333333333   0.500000000    0   0   0
Y1       0.333333333   0.333333333   0.500000000    0   0   0
Y1       0.833333333   0.833333333   0.500000000    0   0   0
Y1       0.333333333   0.833333333   0.500000000    0   0   0
Y1       0.006353720   0.006353408   0.617212485
Y1       0.487293495   0.006354333   0.617212933
Y1       0.006356018   0.487290154   0.617212986
Y1       0.500002830   0.499997166   0.604809171
O1       0.166669466   0.166666573   0.650138028

     Writing output data file calc.save
     Check: negative starting charge=   -0.000691
     NEW-OLD atomic charge density approx. for the potential
     Check: negative starting charge=   -0.000692

[...]

     Self-consistent Calculation

[...]

     total energy              =   -1157.11603007 Ry
     Harris-Foulkes estimate   =   -1157.11603006 Ry
     estimated scf accuracy    <       0.00000012 Ry

     iteration # 10     ecut=    36.75 Ry     beta=0.30
     Davidson diagonalization with overlap
     ethr =  8.58E-11,  avg # of iterations =  7.3

[...]

     negative rho (up, down):  2.304E-04 0.000E+00

     Adding external electric field

     Computed dipole along edir(3) :
        Dipole               -0.0109 Ry au,         -0.0278 Debye
        Dipole field         -0.0000 Ry au

        Potential amp.        0.0017 Ry
        Total length         47.6094 bohr

     End of self-consistent calculation

[...]

          k = 0.0466-0.0538 0.0000 ( 29098 PWs)   bands (ev):

[...]

          k =-0.0699-0.0404 0.0000 ( 29048 PWs)   bands (ev):

   -42.2912 -42.2694 -42.2552 -42.2480 -42.1486 -42.1242 -42.1134 -42.0836
   -41.8183 -41.6921 -41.6808 -41.6711 -22.7346 -22.3311 -22.3193 -22.3080
   -22.2872 -22.2577 -22.2478 -22.2113 -22.2023 -22.1981 -22.1883 -22.1749
   -22.1662 -22.1598 -22.1575 -22.1352 -22.1265 -22.0543 -22.0351 -22.0297
   -22.0234 -21.9978 -21.9178 -21.8815 -21.8360 -21.7556 -21.7515 -21.7306
   -21.6462 -21.6190 -21.6169 -21.6006 -21.5901 -21.5895 -21.5392 -21.4827
   -16.8009  -3.7085  -3.5528  -3.2506  -1.9929  -1.9224  -1.1293  -0.9487
    -0.3065  -0.3023  -0.1257  -0.0431   0.1360   0.1550   0.7443   0.7909
     0.8293   0.8652   0.9275   0.9555   1.0434   1.0630   1.1575   1.2115
     1.2394   1.2612   1.2852   1.4036   1.5739   1.6225   1.6245

     the Fermi energy is     1.0440 ev

!    total energy              =   -1157.11603001 Ry
     Harris-Foulkes estimate   =   -1157.11603008 Ry
     estimated scf accuracy    <       0.00000008 Ry

     The total energy is the sum of the following terms:

     one-electron contribution =   -5686.92031793 Ry
     hartree contribution      =    2838.61672841 Ry
     xc contribution           =    -346.63245329 Ry
     ewald contribution        =    2037.94816327 Ry
     electric field correction =       0.00000019 Ry
     smearing contrib. (-TS)   =      -0.12815067 Ry

     convergence has been achieved in  10 iterations

 BEEF-vdW xc energy contributions
           1 :   -302.273163363777
           2 :    271.380326161114
           3 :   -218.192013196336
           4 :    155.794794325177
           5 :   -96.3757047167697
           6 :    47.5878987709508
           7 :   -12.0137654545061
           8 :   -11.0518908899872
           9 :    23.3318758649509
          10 :   -26.3168762758293
          11 :    21.3847719241496
          12 :   -10.6086717920214
          13 :   -2.77166554006823
          14 :    14.8207396091527
          15 :   -22.1482998566738
          16 :    23.1380234390383
          17 :   -18.3771520065149
          18 :    10.0633124168377
          19 :  -0.852239921403793
          20 :   -7.12729176500147
          21 :    12.6493128794070
          22 :   -15.2372548670960
          23 :    14.8696686464559
          24 :   -11.8637597001146
          25 :    6.94955210435057
          26 :   -1.30990703377847
          27 :   -3.63234520485082
          28 :    6.67310049351897
          29 :   -7.28869508915272
          30 :    5.80605764609749
          31 :   -28.9830738529158
          32 :   -19.8086205853433

     Forces acting on atoms (Ry/au):

     negative rho (up, down):  2.304E-04 0.000E+00
     atom    1 type  1   force =     0.00000014   -0.00000014    0.00515584
     atom    2 type  1   force =    -0.00000011   -0.00207752    0.00527186
     atom    3 type  1   force =    -0.00179889    0.00103858    0.00527203
     atom    4 type  1   force =     0.00179871    0.00103884    0.00527233
     atom    5 type  1   force =    -0.00133787    0.00077219   -0.00579439
     atom    6 type  1   force =     0.00133851    0.00077252   -0.00579381
     atom    7 type  1   force =    -0.00000043    0.00000026   -0.00273213
     atom    8 type  1   force =     0.00000006   -0.00154563   -0.00579372
     atom    9 type  1   force =     0.00113178    0.00065086    0.00018381
     atom   10 type  1   force =    -0.00112610    0.00064724    0.00018097
     atom   11 type  1   force =     0.00000017   -0.00129629    0.00018161
     atom   12 type  1   force =    -0.00000044    0.00000271    0.00043269
     atom   13 type  2   force =    -0.00000553   -0.00000362   -0.00183710

     Total force =     0.002955     Total SCF correction =     0.000779
     SCF correction compared to forces is large: reduce conv_thr to get better values

     entering subroutine stress ...

     negative rho (up, down):  2.304E-04 0.000E+00
          total   stress  (Ry/bohr**3)                   (kbar)     P=   -0.96
  -0.00000046  -0.00000000  -0.00000000         -0.07     -0.00     -0.00
  -0.00000000  -0.00000046  -0.00000000         -0.00     -0.07     -0.00
  -0.00000000  -0.00000000  -0.00001864         -0.00     -0.00     -2.74

     bfgs converged in  20 scf cycles and  19 bfgs steps
     (criteria: energy <  1.0E+00, force <  1.9E-03)

     End of BFGS Geometry Optimization

     Final energy   =   -1157.1160300109 Ry
Begin final coordinates

ATOMIC_POSITIONS (crystal)
Y1       0.166666667   0.166666667   0.386999750    0   0   0
Y1       0.666666667   0.166666667   0.386999750    0   0   0
Y1       0.166666667   0.666666667   0.386999750    0   0   0
Y1       0.666666667   0.666666667   0.386999750    0   0   0
Y1       0.833333333   0.333333333   0.500000000    0   0   0
Y1       0.333333333   0.333333333   0.500000000    0   0   0
Y1       0.833333333   0.833333333   0.500000000    0   0   0
Y1       0.333333333   0.833333333   0.500000000    0   0   0
Y1       0.006353720   0.006353408   0.617212485
Y1       0.487293495   0.006354333   0.617212933
Y1       0.006356018   0.487290154   0.617212986
Y1       0.500002830   0.499997166   0.604809171
O1       0.166669466   0.166666573   0.650138028
End final coordinates

     Writing output data file calc.save

     General routines

     Parallel routines

   This run was terminated on:   4:38:58   3May2018

   JOB DONE.
Job  /afs/slac/g/suncat/bin/suncat-tsmpirun -x LD_LIBRARY_PATH -wdir /scratch/qe574179_uI5Ib pw.x -npool 4 -in pw.inp

TID   HOST_NAME   COMMAND_LINE            STATUS            TERMINATION_TIME
00000 suncat0034 pw.x -npool 4 -i  Done                     05/03/2018 04:38:58
00001 suncat0034 pw.x -npool 4 -i  Done                     05/03/2018 04:38:58
00002 suncat0034 pw.x -npool 4 -i  Done                     05/03/2018 04:38:58
00003 suncat0034 pw.x -npool 4 -i  Done                     05/03/2018 04:38:58
00004 suncat0034 pw.x -npool 4 -i  Done                     05/03/2018 04:38:58
00005 suncat0034 pw.x -npool 4 -i  Done                     05/03/2018 04:38:58
00006 suncat0034 pw.x -npool 4 -i  Done                     05/03/2018 04:38:58
00007 suncat0034 pw.x -npool 4 -i  Done                     05/03/2018 04:38:58
00008 suncat0022 pw.x -npool 4 -i  Done                     05/03/2018 04:38:58
00009 suncat0022 pw.x -npool 4 -i  Done                     05/03/2018 04:38:58
00010 suncat0022 pw.x -npool 4 -i  Done                     05/03/2018 04:38:58
00011 suncat0022 pw.x -npool 4 -i  Done                     05/03/2018 04:38:58
00012 suncat0022 pw.x -npool 4 -i  Done                     05/03/2018 04:38:58
00013 suncat0022 pw.x -npool 4 -i  Done                     05/03/2018 04:38:58
00014 suncat0022 pw.x -npool 4 -i  Done                     05/03/2018 04:38:58
00015 suncat0022 pw.x -npool 4 -i  Done                     05/03/2018 04:38:58
00016 suncat0227 pw.x -npool 4 -i  Done                     05/03/2018 04:38:58
00017 suncat0227 pw.x -npool 4 -i  Done                     05/03/2018 04:38:58
00018 suncat0227 pw.x -npool 4 -i  Done                     05/03/2018 04:38:58
00019 suncat0227 pw.x -npool 4 -i  Done                     05/03/2018 04:38:58
00020 suncat0227 pw.x -npool 4 -i  Done                     05/03/2018 04:38:58
00021 suncat0227 pw.x -npool 4 -i  Done                     05/03/2018 04:38:58
00022 suncat0227 pw.x -npool 4 -i  Done                     05/03/2018 04:38:58
00023 suncat0227 pw.x -npool 4 -i  Done                     05/03/2018 04:38:58
00024 suncat0226 pw.x -npool 4 -i  Done                     05/03/2018 04:38:58
00025 suncat0226 pw.x -npool 4 -i  Done                     05/03/2018 04:38:58
00026 suncat0226 pw.x -npool 4 -i  Done                     05/03/2018 04:38:58
00027 suncat0226 pw.x -npool 4 -i  Done                     05/03/2018 04:38:58
00028 suncat0226 pw.x -npool 4 -i  Done                     05/03/2018 04:38:58
00029 suncat0226 pw.x -npool 4 -i  Done                     05/03/2018 04:38:58
00030 suncat0226 pw.x -npool 4 -i  Done                     05/03/2018 04:38:58
00031 suncat0226 pw.x -npool 4 -i  Done                     05/03/2018 04:38:58