     Program PWSCF v.5.1rc2 (svn rev. ) starts on 17Apr2018 at 20: 1:20

     Current dimensions of program PWSCF are:
     Max number of different atomic species (ntypx) = 10
     Max number of k-points (npk) =  40000
     Max angular momentum in pseudopotentials (lmaxx) =  3
     Presently stress not available with electric field

     IMPORTANT: XC functional enforced from input :
     Exchange-correlation      = BEEF-VDW ( 1  4 27 13 2)
     Any further DFT definition will be discarded
     Please, verify this is what you really want

     Subspace diagonalization in iterative solution of the eigenvalue problem:
     a serial algorithm will be used

     bravais-lattice index     =            0
     lattice parameter (alat)  =       1.8897  a.u.
     unit-cell volume          =    5409.9593 (a.u.)^3
     number of atoms/cell      =           14
     number of atomic types    =            3
     number of electrons       =       235.00
     number of Kohn-Sham states=          127
     kinetic-energy cutoff     =      36.7493  Ry
     charge density cutoff     =     367.4932  Ry
     convergence threshold     =      1.0E-05
     mixing beta               =       0.3000
     number of iterations used =           10  plain     mixing
     Exchange-correlation      = BEEF-VDW ( 1  4 27 13 2)
     nstep                     =           50

     celldm(1)=   1.889726  celldm(2)=   0.000000  celldm(3)=   0.000000
     celldm(4)=   0.000000  celldm(5)=   0.000000  celldm(6)=   0.000000

     crystal axes: (cart. coord. in units of alat)
               a(1) = (   6.088539   0.000000   0.000000 )
               a(2) = (   3.044269   5.272829   0.000000 )
               a(3) = (   0.000000   0.000000  24.971271 )

     reciprocal axes: (cart. coord. in units 2 pi/alat)
               b(1) = (  0.164243 -0.094826  0.000000 )
               b(2) = (  0.000000  0.189652  0.000000 )
               b(3) = (  0.000000  0.000000  0.040046 )

     PseudoPot. # 1 for Ga read from file:
     /home/mamunm/src/pseudo/gbrv1.5pbe/Ga.UPF
     MD5 check sum: ccd671392a58a050fbb373893b4fcd66
     Pseudo is Ultrasoft + core correction, Zval = 19.0
     Generated by new atomic code, or converted to UPF format
     Using radial grid of  871 points,  6 beta functions with:
                l(1) =   0
                l(2) =   0
                l(3) =   1
                l(4) =   1
                l(5) =   2
                l(6) =   2
     Q(r) pseudized with  8 coefficients,  rinner =    1.250   1.250   1.250
                                                       1.250   1.250

     PseudoPot. # 2 for O  read from file:
     /home/mamunm/src/pseudo/gbrv1.5pbe/O.UPF
     MD5 check sum: 734c27235a0248c51dbae37a1fbe46ec
     Pseudo is Ultrasoft + core correction, Zval =  6.0
     Generated by new atomic code, or converted to UPF format
     Using radial grid of  737 points,  5 beta functions with:
                l(1) =   0
                l(2) =   0
                l(3) =   1
                l(4) =   1
                l(5) =   2
     Q(r) pseudized with  8 coefficients,  rinner =    0.900   0.900   0.900
                                                       0.900   0.900

     PseudoPot. # 3 for H  read from file:
     /home/mamunm/src/pseudo/gbrv1.5pbe/H.UPF
     MD5 check sum: 761ae9a214b05c3daf00ab9f6b793d6f
     Pseudo is Ultrasoft, Zval =  1.0
     Generated by new atomic code, or converted to UPF format
     Using radial grid of  615 points,  2 beta functions with:
                l(1) =   0
                l(2) =   0
     Q(r) pseudized with  8 coefficients,  rinner =    0.700

     vdW kernel table read from file vdW_kernel_table
     MD5 check sum: 095c7af220d748ca6e76c0b4c6cfb241

     atomic species   valence    mass     pseudopotential
        Ga1           19.00    69.72300     Ga( 1.00)
        O1             6.00    15.99900     O ( 1.00)
        H1             1.00     1.00800     H ( 1.00)

     No symmetry found

   Cartesian axes

     site n.     atom                  positions (alat units)
         1           Ga1 tau(   1) = (   1.5221346   0.8788048  10.0000000  )
         2           Ga1 tau(   2) = (   4.5664039   0.8788048  10.0000000  )
         3           Ga1 tau(   3) = (   3.0442693   3.5152194  10.0000000  )
         4           Ga1 tau(   4) = (   6.0885386   3.5152194  10.0000000  )
         5           Ga1 tau(   5) = (   6.0885386   1.7576097  12.4856355  )
         6           Ga1 tau(   6) = (   3.0442693   1.7576097  12.4856355  )
         7           Ga1 tau(   7) = (   7.6106732   4.3940242  12.4856355  )
         8           Ga1 tau(   8) = (   4.5664039   4.3940242  12.4856355  )
         9           Ga1 tau(   9) = (   0.0000000   0.0000000  14.9712709  )
        10           Ga1 tau(  10) = (   3.0442693   0.0000000  14.9712709  )
        11           Ga1 tau(  11) = (   1.5221346   2.6364145  14.9712709  )
        12           Ga1 tau(  12) = (   4.5664039   2.6364145  14.9712709  )
        13           O1  tau(  13) = (   1.5221346   0.0000000  16.3812709  )
        14           H1  tau(  14) = (   1.5221346   0.0000000  17.3312709  )

     number of k points=    20  Fermi-Dirac smearing, width (Ry)=  0.0110
                       cart. coord. in units 2pi/alat
        k(    1) = (   0.0000000   0.0000000   0.0000000), wk =   0.0555556
        k(    2) = (   0.0000000   0.0316086   0.0000000), wk =   0.1111111
        k(    3) = (   0.0000000   0.0632172   0.0000000), wk =   0.1111111
        k(    4) = (   0.0000000  -0.0948258   0.0000000), wk =   0.0555556
        k(    5) = (   0.0273738  -0.0158043   0.0000000), wk =   0.1111111
        k(    6) = (   0.0273738   0.0158043   0.0000000), wk =   0.1111111
        k(    7) = (   0.0273738   0.0474129   0.0000000), wk =   0.1111111
        k(    8) = (   0.0273738  -0.1106300   0.0000000), wk =   0.1111111
        k(    9) = (   0.0273738  -0.0790215   0.0000000), wk =   0.1111111
        k(   10) = (   0.0273738  -0.0474129   0.0000000), wk =   0.1111111
        k(   11) = (   0.0547477  -0.0316086   0.0000000), wk =   0.1111111
        k(   12) = (   0.0547477   0.0000000   0.0000000), wk =   0.1111111
        k(   13) = (   0.0547477   0.0316086   0.0000000), wk =   0.1111111
        k(   14) = (   0.0547477  -0.1264343   0.0000000), wk =   0.1111111
        k(   15) = (   0.0547477  -0.0948258   0.0000000), wk =   0.1111111
        k(   16) = (   0.0547477  -0.0632172   0.0000000), wk =   0.1111111
        k(   17) = (  -0.0821215   0.0474129   0.0000000), wk =   0.0555556
        k(   18) = (  -0.0821215   0.0790215   0.0000000), wk =   0.1111111
        k(   19) = (  -0.0821215   0.1106300   0.0000000), wk =   0.1111111
        k(   20) = (  -0.0821215  -0.0474129   0.0000000), wk =   0.0555556

     Largest allocated arrays     est. size (Mb)     dimensions
     Largest temporary arrays     est. size (Mb)     dimensions

     Initial potential from superposition of free atoms
     Check: negative starting charge=   -0.001164

     starting charge  222.99998, renormalised to  235.00000

     negative rho (up, down):  1.226E-03 0.000E+00

     *
     * You are using vdW-DF for exchange-correlation in this calculation.
     * Please cite the following three references that made this development
     * possible:
     *
     *   M. Dion, H. Rydberg, E. Schroder, D. C. Langreth, and
     *   B. I. Lundqvist, Phys. Rev. Lett. 92, 246401 (2004).
     *
     *   T. Thonhauser, V. R. Cooper, S. Li, A. Puzder, P. Hyldgaard, and
     *   D. C. Langreth, Phys. Rev. B 76, 125112 (2007).
     *
     *   G. Roman-Perez and J. M. Soler, Phys. Rev. Lett. 103, 096102 (2009).
     *
     *
     * If you are using vdW-DF2, please also cite:
     *
     *   K. Lee, E. D. Murray, L. Kong, B. I. Lundqvist, and
     *   D. C. Langreth, Phys. Rev. B 82, 081101(R) (2010).
     *
     *
     * If you are calculating the stress with vdW-DF, please also cite:
     *
     *   R. Sabatini, E. Kucukbenli, B. Kolb, T. Thonhauser, and
     *   S. de Gironcoli, J. Phys.: Condens. Matter 24, 424209 (2012).
     *

     Carrying out vdW-DF run using the following parameters:

     Nqs =      20    Nr_points =    1024   r_max =   100.000
     q_mesh =
               0.00001000     0.04494208     0.09755937     0.15916263
               0.23128650     0.31572767     0.41458969     0.53033537
               0.66584808     0.82450364     1.01025438     1.22772762
               1.48234092     1.78043706     2.12944203     2.53805004
               3.01644009     3.57652955     4.23227104     5.00000000

     Gradients computed in reciprocal space

     Adding external electric field

     Computed dipole along edir(3) :
        Dipole               -2.8695 Ry au,         -7.2936 Debye
        Dipole field         -0.0067 Ry au

        Potential amp.        0.6133 Ry
        Total length         46.0091 bohr

     Starting wfc are  149 randomized atomic wfcs

     Self-consistent Calculation

     iteration #  1     ecut=    36.75 Ry     beta=0.30
     Davidson diagonalization with overlap
     ethr =  1.00E-02,  avg # of iterations =  7.0

[...]

     total energy              =   -4649.96783664 Ry
     Harris-Foulkes estimate   =   -5038.49078390 Ry
     estimated scf accuracy    <     820.07769039 Ry

[...]

     End of self-consistent calculation

          k = 0.0000 0.0000 0.0000 ( 20347 PWs)   bands (ev):

   -94.3326 -94.3318 -94.3171 -94.3171 -94.3031 -94.3025 -94.2689 -94.2496
   -94.2457 -94.2451 -94.2336 -94.2307 -94.2272 -94.2257 -94.2255 -94.2253
   -94.2249 -94.2243 -94.2221 -94.2219 -94.2205 -94.2200 -94.2088 -94.2087
   -94.2082 -94.2071 -94.2059 -94.2055 -94.2044 -94.2040 -94.2038 -94.2035
   -94.2033 -94.2029 -94.1998 -94.1936 -20.1603 -14.7904 -14.7752 -14.7537
   -14.7271 -14.7173 -14.7082 -14.7020 -14.7012 -14.6937 -14.6864 -14.6704
   -14.6642 -14.6638 -14.6620 -14.6610 -14.6554 -14.6475 -14.6466 -14.6394
   -14.6299 -14.6296 -14.6195 -14.6160 -14.6110 -14.6019 -14.6016 -14.5948
   -14.5916 -14.5875 -14.5862 -14.5672 -14.5577 -14.5384 -14.5356 -14.5329
   -14.5178 -14.5132 -14.5097 -14.5096 -14.5072 -14.4853 -14.4732 -14.4676
   -14.4655 -14.4619 -14.4592 -14.4557 -14.4546 -14.4521 -14.4490 -14.4403
   -14.4383 -14.4320 -14.4276 -14.4211 -14.4188 -14.4167 -14.4142 -14.4129
   -14.4063  -9.7104  -8.7361  -7.4400  -5.5694  -5.4636  -4.4989  -4.4039
    -4.3191  -4.1350  -3.8912  -3.6386  -3.6269  -2.7533  -2.4942  -2.3717
    -2.1082  -1.9492  -1.9182  -1.5253  -0.4934  -0.3709  -0.3508   0.1069
     0.2152   0.5565   1.4119   2.8695   3.4814   3.4925   3.6561

[...]

          k =-0.0821 0.0474 0.0000 ( 20384 PWs)   bands (ev):

[...]

     the Fermi energy is     0.5125 ev

!    total energy              =   -5032.83749823 Ry
     Harris-Foulkes estimate   =   -5032.83749961 Ry
     estimated scf accuracy    <       0.00000072 Ry

     The total energy is the sum of the following terms:

     one-electron contribution =  -27731.09881825 Ry
     hartree contribution      =   13875.04083675 Ry
     xc contribution           =    -604.94550890 Ry
     ewald contribution        =    9428.20141008 Ry
     electric field correction =       0.00014597 Ry
     smearing contrib. (-TS)   =      -0.03556387 Ry

     convergence has been achieved in  18 iterations

 BEEF-vdW xc energy contributions
           1 :   -540.556185056182
           2 :    490.505138504068
           3 :   -406.637669111054
           4 :    313.375923305722
           5 :   -232.295487046667
           6 :    174.055091796700
           7 :   -136.900400016337
           8 :    111.469538486888
           9 :   -88.2837308696058
          10 :    63.2851086893268
          11 :   -38.6374467092678
          12 :    19.2971219159920
          13 :   -8.41492975911967
          14 :    4.86198554134899
          15 :   -4.23479169025154
          16 :    2.11155859553583
          17 :    3.05845627553776
          18 :   -9.45359742800974
          19 :    13.8310936863674
          20 :   -14.2432192986314
          21 :    11.4708963953468
          22 :   -8.27205296215334
          23 :    7.21478298997272
          24 :   -8.83324809697933
          25 :    11.4488709490739
          26 :   -12.6567340336726
          27 :    11.2388214111122
          28 :   -8.04347092158719
          29 :    5.24192580132444
          30 :   -4.62801794485472
          31 :   -40.0984566864895
          32 :   -27.2056012930634

     Forces acting on atoms (Ry/au):

     negative rho (up, down):  1.045E-03 0.000E+00
     atom    1 type  1   force =     0.00001432    0.00086206    0.00211766
     atom    2 type  1   force =     0.00001266   -0.00076297    0.00400406
     atom    3 type  1   force =    -0.00008210   -0.00001465    0.00272064
     atom    4 type  1   force =     0.00009731    0.00001891    0.00272406
     atom    5 type  1   force =     0.00057203    0.00129236   -0.00082901
     atom    6 type  1   force =    -0.00057603    0.00130097   -0.00089959
     atom    7 type  1   force =     0.00000044   -0.00398589   -0.00754839
     atom    8 type  1   force =    -0.00001014   -0.00175175    0.00382162
     atom    9 type  1   force =    -0.02247581   -0.00061250   -0.00339607
     atom   10 type  1   force =     0.02246946   -0.00062867   -0.00338864
     atom   11 type  1   force =    -0.00001995    0.01369339   -0.00729040
     atom   12 type  1   force =     0.00000796   -0.01186145   -0.00801709
     atom   13 type  2   force =    -0.00000533    0.00168218   -0.04162390
     atom   14 type  3   force =    -0.00000482    0.00076799    0.05760504

     Total force =     0.080832     Total SCF correction =     0.001971

     entering subroutine stress ...

     negative rho (up, down):  1.045E-03 0.000E+00
          total   stress  (Ry/bohr**3)                   (kbar)     P=   -2.55
  -0.00003553   0.00000000   0.00000000         -5.23      0.00      0.00
   0.00000000  -0.00003197   0.00000409          0.00     -4.70      0.60
   0.00000000   0.00000409   0.00001556          0.00      0.60      2.29

     BFGS Geometry Optimization

     number of scf cycles    =   1
     number of bfgs steps    =   0

     energy   new            =   -5032.8374982254 Ry

     new trust radius        =       0.0576101564 bohr
     new conv_thr            =       0.0000099958 Ry

ATOMIC_POSITIONS (crystal)
Ga1      0.166666667   0.166666667   0.400460194    0   0   0
Ga1      0.666666667   0.166666667   0.400460194    0   0   0
Ga1      0.166666667   0.666666667   0.400460194    0   0   0
Ga1      0.666666667   0.666666667   0.400460194    0   0   0
Ga1      0.833333333   0.333333333   0.500000000    0   0   0
Ga1      0.333333333   0.333333333   0.500000000    0   0   0
Ga1      0.833333333   0.833333333   0.500000000    0   0   0
Ga1      0.333333333   0.833333333   0.500000000    0   0   0
Ga1     -0.001922721  -0.000061470   0.599467838
Ga1      0.501984449  -0.000063092   0.599467996
Ga1     -0.000688863   0.501374259   0.599385312
Ga1      0.500595895   0.498809594   0.599369912
O1       0.249915126   0.000168822   0.655122623
H1       0.249961044   0.000077075   0.695269145

     Writing output data file calc.save
     Check: negative starting charge=   -0.001164
     NEW-OLD atomic charge density approx. for the potential
     Check: negative starting charge=   -0.001169

[...]

     iteration #  1     ecut=    36.75 Ry     beta=0.30
     Davidson diagonalization with overlap
     c_bands:  1 eigenvalues not converged
     ethr =  1.00E-06,  avg # of iterations =  5.8

[...]

     energy   old            =   -5032.8374982254 Ry
     energy   new            =   -5032.8385654473 Ry

     CASE: energy  _new < energy  _old

[...]

     Total force =     0.016671     Total SCF correction =     0.002240
     SCF correction compared to forces is large: reduce conv_thr to get better values

[...]

     Threshold (ethr) on eigenvalues was too large:
     Diagonalizing with lowered threshold

     Davidson diagonalization with overlap
     ethr =  3.03E-08,  avg # of iterations =  1.8

[...]

     iteration #  1     ecut=    36.75 Ry     beta=0.30
     Davidson diagonalization with overlap
     c_bands:  1 eigenvalues not converged
     ethr =  1.00E-06,  avg # of iterations = 10.1

[...]

     WARNING: bfgs curvature condition failed, Theta= 0.393
     new trust radius        =       0.1238582759 bohr
     new conv_thr            =       0.0000001000 Ry

[...]

     Total force =     0.010149     Total SCF correction =     0.000591

[...]

     Threshold (ethr) on eigenvalues was too large:
     Diagonalizing with lowered threshold

     Davidson diagonalization with overlap
     ethr =  2.45E-08,  avg # of iterations =  2.6

[...]

     number of scf cycles    =  48
     number of bfgs steps    =  47

     energy   old            =   -5032.8551241449 Ry
     energy   new            =   -5032.8551761233 Ry

     CASE: energy  _new < energy  _old

     new trust radius        =       0.0363395691 bohr
     new conv_thr            =       0.0000001000 Ry

ATOMIC_POSITIONS (crystal)
Ga1      0.166666667   0.166666667   0.400460194    0   0   0
Ga1      0.666666667   0.166666667   0.400460194    0   0   0
Ga1      0.166666667   0.666666667   0.400460194    0   0   0
Ga1      0.666666667   0.666666667   0.400460194    0   0   0
Ga1      0.833333333   0.333333333   0.500000000    0   0   0
Ga1      0.333333333   0.333333333   0.500000000    0   0   0
Ga1      0.833333333   0.833333333   0.500000000    0   0   0
Ga1      0.333333333   0.833333333   0.500000000    0   0   0
Ga1     -0.024495555   0.036132843   0.602647512
Ga1      0.488334093   0.036154435   0.602647595
Ga1     -0.036691959   0.573374090   0.596834068
Ga1      0.500035942   0.499938431   0.593270239
O1       0.215641169   0.068771816   0.659119251
H1       0.286733455  -0.073501976   0.684321274

     Writing output data file calc.save
     Check: negative starting charge=   -0.001170
     NEW-OLD atomic charge density approx. for the potential
     Check: negative starting charge=   -0.001168

[...]

     Self-consistent Calculation

[...]

     total energy              =   -5032.85520274 Ry
     Harris-Foulkes estimate   =   -5032.85520269 Ry
     estimated scf accuracy    <       0.00000019 Ry

     iteration #  7     ecut=    36.75 Ry     beta=0.30
     Davidson diagonalization with overlap
     ethr =  8.02E-11,  avg # of iterations =  3.7

[...]

     negative rho (up, down):  1.045E-03 0.000E+00

     Adding external electric field

     Computed dipole along edir(3) :
        Dipole                0.0481 Ry au,          0.1223 Debye
        Dipole field          0.0001 Ry au

        Potential amp.       -0.0103 Ry
        Total length         46.0091 bohr

     End of self-consistent calculation

[...]

          k = 0.0547-0.0632 0.0000 ( 20377 PWs)   bands (ev):

[...]

          k =-0.0821-0.0474 0.0000 ( 20384 PWs)   bands (ev):

   -94.5622 -94.5621 -94.5416 -94.5416 -94.5221 -94.5220 -94.4891 -94.4656
   -94.4607 -94.4595 -94.4446 -94.4440 -94.4435 -94.4429 -94.4407 -94.4401
   -94.4401 -94.4384 -94.4383 -94.4379 -94.4374 -94.4330 -94.4330 -94.4321
   -94.4321 -94.4215 -94.4164 -94.4164 -94.4151 -94.4151 -94.4107 -94.4013
   -94.3951 -94.3931 -94.3876 -94.3821 -20.0811 -14.9540 -14.9362 -14.9306
   -14.9265 -14.9232 -14.9142 -14.9044 -14.9005 -14.8967 -14.8873 -14.8834
   -14.8679 -14.8658 -14.8560 -14.8502 -14.8482 -14.8414 -14.8360 -14.8340
   -14.8281 -14.8261 -14.8207 -14.8128 -14.8089 -14.7982 -14.7947 -14.7912
   -14.7878 -14.7824 -14.7797 -14.7743 -14.7710 -14.7590 -14.7571 -14.7474
   -14.7408 -14.7378 -14.7350 -14.7280 -14.7267 -14.7220 -14.7177 -14.7134
   -14.7122 -14.7104 -14.7073 -14.7027 -14.7013 -14.6890 -14.6826 -14.6758
   -14.6740 -14.6719 -14.6694 -14.6593 -14.6567 -14.6481 -14.6429 -14.6378
   -14.6257  -8.6037  -8.5196  -7.8022  -7.2508  -6.5966  -5.7908  -5.6799
    -5.3361  -4.7103  -4.5581  -4.1139  -3.7454  -3.1223  -1.9814  -1.9474
    -0.5790  -0.4331  -0.2490  -0.0172   0.1842   0.2580   1.3342   1.3801
     1.5343   1.7281   2.2214   2.4508   2.5599   2.7688   2.7978

     the Fermi energy is     0.2953 ev

!    total energy              =   -5032.85520279 Ry
     Harris-Foulkes estimate   =   -5032.85520273 Ry
     estimated scf accuracy    <       0.00000003 Ry

     The total energy is the sum of the following terms:

     one-electron contribution =  -27767.78175462 Ry
     hartree contribution      =   13891.85623757 Ry
     xc contribution           =    -604.91860427 Ry
     ewald contribution        =    9448.02252353 Ry
     electric field correction =       0.00000537 Ry
     smearing contrib. (-TS)   =      -0.03361039 Ry

     convergence has been achieved in   7 iterations

 BEEF-vdW xc energy contributions
           1 :   -540.533410857579
           2 :    490.487329864306
           3 :   -406.632517514190
           4 :    313.383920910732
           5 :   -232.301788807135
           6 :    174.036905731945
           7 :   -136.843766369251
           8 :    111.381590082411
           9 :   -88.1900560226013
          10 :    63.2142778856688
          11 :   -38.6039488767399
          12 :    19.2938034331298
          13 :   -8.41871391227767
          14 :    4.84980415745758
          15 :   -4.20106856844041
          16 :    2.07291569252266
          17 :    3.07794882315739
          18 :   -9.44164186623766
          19 :    13.7937819123774
          20 :   -14.1979948625590
          21 :    11.4344295910691
          22 :   -8.25130336687414
          23 :    7.20709925496271
          24 :   -8.83343783125781
          25 :    11.4560302903707
          26 :   -12.6753642515444
          27 :    11.2718066558190
          28 :   -8.08017309564457
          29 :    5.25408265089254
          30 :   -4.58174758906068
          31 :   -40.0982030810939
          32 :   -27.2065109471438

     Forces acting on atoms (Ry/au):

     negative rho (up, down):  1.045E-03 0.000E+00
     atom    1 type  1   force =    -0.00000129    0.00185068    0.00125856
     atom    2 type  1   force =     0.00000031   -0.00259820    0.00340118
     atom    3 type  1   force =    -0.00016312    0.00079925    0.00182872
     atom    4 type  1   force =     0.00016408    0.00079914    0.00183033
     atom    5 type  1   force =     0.00239377   -0.00137079   -0.00064159
     atom    6 type  1   force =    -0.00239540   -0.00136920   -0.00064119
     atom    7 type  1   force =    -0.00000025   -0.00066949   -0.01206062
     atom    8 type  1   force =    -0.00000071    0.00194381    0.00528451
     atom    9 type  1   force =     0.00019456   -0.00069946    0.00017766
     atom   10 type  1   force =    -0.00017840   -0.00071561    0.00018030
     atom   11 type  1   force =    -0.00000178    0.00040225   -0.00019173
     atom   12 type  1   force =     0.00000004    0.00141270    0.00044858
     atom   13 type  2   force =    -0.00003271   -0.00088349    0.00059154
     atom   14 type  3   force =     0.00002090    0.00109842   -0.00146624

     Total force =     0.002832     Total SCF correction =     0.001335
     SCF correction compared to forces is large: reduce conv_thr to get better values

     entering subroutine stress ...

     negative rho (up, down):  1.045E-03 0.000E+00
          total   stress  (Ry/bohr**3)                   (kbar)     P=   -4.73
  -0.00004899  -0.00000001  -0.00000000         -7.21     -0.00     -0.00
  -0.00000001  -0.00003388   0.00000056         -0.00     -4.98      0.08
  -0.00000000   0.00000056  -0.00001358         -0.00      0.08     -2.00

     bfgs converged in  49 scf cycles and  48 bfgs steps
     (criteria: energy <  1.0E+00, force <  1.9E-03)

     End of BFGS Geometry Optimization

     Final energy   =   -5032.8552027903 Ry
Begin final coordinates

ATOMIC_POSITIONS (crystal)
Ga1      0.166666667   0.166666667   0.400460194    0   0   0
Ga1      0.666666667   0.166666667   0.400460194    0   0   0
Ga1      0.166666667   0.666666667   0.400460194    0   0   0
Ga1      0.666666667   0.666666667   0.400460194    0   0   0
Ga1      0.833333333   0.333333333   0.500000000    0   0   0
Ga1      0.333333333   0.333333333   0.500000000    0   0   0
Ga1      0.833333333   0.833333333   0.500000000    0   0   0
Ga1      0.333333333   0.833333333   0.500000000    0   0   0
Ga1     -0.024495555   0.036132843   0.602647512
Ga1      0.488334093   0.036154435   0.602647595
Ga1     -0.036691959   0.573374090   0.596834068
Ga1      0.500035942   0.499938431   0.593270239
O1       0.215641169   0.068771816   0.659119251
H1       0.286733455  -0.073501976   0.684321274
End final coordinates

     Writing output data file calc.save

     General routines

     Parallel routines

   This run was terminated on:  23: 7:29  17Apr2018

   JOB DONE.