     Program PWSCF v.5.1rc2 (svn rev. 11289) starts on 18Apr2018 at  8:15: 9

     Current dimensions of program PWSCF are:
     Max number of different atomic species (ntypx) = 10
     Max number of k-points (npk) =  40000
     Max angular momentum in pseudopotentials (lmaxx) =  3
     Presently stress not available with electric field

     IMPORTANT: XC functional enforced from input :
     Exchange-correlation      = BEEF-VDW ( 1  4 27 13 2)
     Any further DFT definition will be discarded
     Please, verify this is what you really want

     Subspace diagonalization in iterative solution of the eigenvalue problem:
     a serial algorithm will be used

     bravais-lattice index     =            0
     lattice parameter (alat)  =       1.8897  a.u.
     unit-cell volume          =    6501.5726 (a.u.)^3
     number of atoms/cell      =           14
     number of atomic types    =            3
     number of electrons       =       163.00
     number of Kohn-Sham states=           91
     kinetic-energy cutoff     =      36.7493  Ry
     charge density cutoff     =     367.4932  Ry
     convergence threshold     =      1.0E-05
     mixing beta               =       0.3000
     number of iterations used =           10  plain     mixing
     Exchange-correlation      = BEEF-VDW ( 1  4 27 13 2)
     nstep                     =           50

     celldm(1)=   1.889726  celldm(2)=   0.000000  celldm(3)=   0.000000
     celldm(4)=   0.000000  celldm(5)=   0.000000  celldm(6)=   0.000000

     crystal axes: (cart. coord. in units of alat)
               a(1) = (   6.617606   0.000000   0.000000 )
               a(2) = (   3.308803   5.731015   0.000000 )
               a(3) = (   0.000000   0.000000  25.403253 )

     reciprocal axes: (cart. coord. in units 2 pi/alat)
               b(1) = (  0.151112 -0.087245  0.000000 )
               b(2) = (  0.000000  0.174489  0.000000 )
               b(3) = (  0.000000  0.000000  0.039365 )

     PseudoPot. # 1 for In read from file:
     /u/if/mamunm/psp/gbrv1.5pbe/In.UPF
     MD5 check sum: 90777abd96fbb83f2e67db2a40c566b9
     Pseudo is Ultrasoft + core correction, Zval = 13.0
     Generated by new atomic code, or converted to UPF format
     Using radial grid of  889 points,  6 beta functions with:
                l(1) =   0
                l(2) =   0
                l(3) =   1
                l(4) =   1
                l(5) =   2
                l(6) =   2
     Q(r) pseudized with  6 coefficients,  rinner =    1.400   1.400   1.400
                                                       1.400   1.400

     PseudoPot. # 2 for O  read from file:
     /u/if/mamunm/psp/gbrv1.5pbe/O.UPF
     MD5 check sum: 734c27235a0248c51dbae37a1fbe46ec
     Pseudo is Ultrasoft + core correction, Zval =  6.0
     Generated by new atomic code, or converted to UPF format
     Using radial grid of  737 points,  5 beta functions with:
                l(1) =   0
                l(2) =   0
                l(3) =   1
                l(4) =   1
                l(5) =   2
     Q(r) pseudized with  8 coefficients,  rinner =    0.900   0.900   0.900
                                                       0.900   0.900

     PseudoPot. # 3 for H  read from file:
     /u/if/mamunm/psp/gbrv1.5pbe/H.UPF
     MD5 check sum: 761ae9a214b05c3daf00ab9f6b793d6f
     Pseudo is Ultrasoft, Zval =  1.0
     Generated by new atomic code, or converted to UPF format
     Using radial grid of  615 points,  2 beta functions with:
                l(1) =   0
                l(2) =   0
     Q(r) pseudized with  8 coefficients,  rinner =    0.700

     vdW kernel table read from file vdW_kernel_table
     MD5 check sum: 095c7af220d748ca6e76c0b4c6cfb241

     atomic species   valence    mass     pseudopotential
        In1           13.00   114.81800     In( 1.00)
        O1             6.00    15.99900     O ( 1.00)
        H1             1.00     1.00800     H ( 1.00)

     No symmetry found

   Cartesian axes

     site n.     atom                  positions (alat units)
         1           In1 tau(   1) = (   1.6544016   0.9551692  10.0000000  )
         2           In1 tau(   2) = (   4.9632047   0.9551692  10.0000000  )
         3           In1 tau(   3) = (   3.3088031   3.8206768  10.0000000  )
         4           In1 tau(   4) = (   6.6176063   3.8206768  10.0000000  )
         5           In1 tau(   5) = (   6.6176063   1.9103384  12.7016265  )
         6           In1 tau(   6) = (   3.3088031   1.9103384  12.7016265  )
         7           In1 tau(   7) = (   8.2720078   4.7758460  12.7016265  )
         8           In1 tau(   8) = (   4.9632047   4.7758460  12.7016265  )
         9           In1 tau(   9) = (   0.0000000   0.0000000  15.4032529  )
        10           In1 tau(  10) = (   3.3088031   0.0000000  15.4032529  )
        11           In1 tau(  11) = (   1.6544016   2.8655076  15.4032529  )
        12           In1 tau(  12) = (   4.9632047   2.8655076  15.4032529  )
        13           O1  tau(  13) = (   3.3088031   1.9103384  16.7552529  )
        14           H1  tau(  14) = (   3.3088031   1.9103384  17.7052529  )

     number of k points=    20  Fermi-Dirac smearing, width (Ry)=  0.0110
                       cart. coord. in units 2pi/alat
        k(    1) = (   0.0000000   0.0000000   0.0000000), wk =   0.0555556
        k(    2) = (   0.0000000   0.0290815   0.0000000), wk =   0.1111111
        k(    3) = (   0.0000000   0.0581631   0.0000000), wk =   0.1111111
        k(    4) = (   0.0000000  -0.0872446   0.0000000), wk =   0.0555556
        k(    5) = (   0.0251853  -0.0145408   0.0000000), wk =   0.1111111
        k(    6) = (   0.0251853   0.0145408   0.0000000), wk =   0.1111111
        k(    7) = (   0.0251853   0.0436223   0.0000000), wk =   0.1111111
        k(    8) = (   0.0251853  -0.1017853   0.0000000), wk =   0.1111111
        k(    9) = (   0.0251853  -0.0727038   0.0000000), wk =   0.1111111
        k(   10) = (   0.0251853  -0.0436223   0.0000000), wk =   0.1111111
        k(   11) = (   0.0503707  -0.0290815   0.0000000), wk =   0.1111111
        k(   12) = (   0.0503707   0.0000000   0.0000000), wk =   0.1111111
        k(   13) = (   0.0503707   0.0290815   0.0000000), wk =   0.1111111
        k(   14) = (   0.0503707  -0.1163261   0.0000000), wk =   0.1111111
        k(   15) = (   0.0503707  -0.0872446   0.0000000), wk =   0.1111111
        k(   16) = (   0.0503707  -0.0581631   0.0000000), wk =   0.1111111
        k(   17) = (  -0.0755560   0.0436223   0.0000000), wk =   0.0555556
        k(   18) = (  -0.0755560   0.0727038   0.0000000), wk =   0.1111111
        k(   19) = (  -0.0755560   0.1017853   0.0000000), wk =   0.1111111
        k(   20) = (  -0.0755560  -0.0436223   0.0000000), wk =   0.0555556

     Largest allocated arrays     est. size (Mb)     dimensions
     Largest temporary arrays     est. size (Mb)     dimensions

     Initial potential from superposition of free atoms
     Check: negative starting charge=   -0.000346

     starting charge  144.99998, renormalised to  163.00000

     negative rho (up, down):  3.886E-04 0.000E+00

     *
     * You are using vdW-DF for exchange-correlation in this calculation.
     * Please cite the following three references that made this development
     * possible:
     *
     *   M. Dion, H. Rydberg, E. Schroder, D. C. Langreth, and
     *   B. I. Lundqvist, Phys. Rev. Lett. 92, 246401 (2004).
     *
     *   T. Thonhauser, V. R. Cooper, S. Li, A. Puzder, P. Hyldgaard, and
     *   D. C. Langreth, Phys. Rev. B 76, 125112 (2007).
     *
     *   G. Roman-Perez and J. M. Soler, Phys. Rev. Lett. 103, 096102 (2009).
     *
     *
     * If you are using vdW-DF2, please also cite:
     *
     *   K. Lee, E. D. Murray, L. Kong, B. I. Lundqvist, and
     *   D. C. Langreth, Phys. Rev. B 82, 081101(R) (2010).
     *
     *
     * If you are calculating the stress with vdW-DF, please also cite:
     *
     *   R. Sabatini, E. Kucukbenli, B. Kolb, T. Thonhauser, and
     *   S. de Gironcoli, J. Phys.: Condens. Matter 24, 424209 (2012).
     *

     Carrying out vdW-DF run using the following parameters:

     Nqs =      20    Nr_points =    1024   r_max =   100.000
     q_mesh =
               0.00001000     0.04494208     0.09755937     0.15916263
               0.23128650     0.31572767     0.41458969     0.53033537
               0.66584808     0.82450364     1.01025438     1.22772762
               1.48234092     1.78043706     2.12944203     2.53805004
               3.01644009     3.57652955     4.23227104     5.00000000

     Gradients computed in reciprocal space

     Adding external electric field

     Computed dipole along edir(3) :
        Dipole               -6.8792 Ry au,        -17.4853 Debye
        Dipole field         -0.0133 Ry au

        Potential amp.        1.2447 Ry
        Total length         46.8051 bohr

     Starting wfc are  113 randomized atomic wfcs

     Self-consistent Calculation

     iteration #  1     ecut=    36.75 Ry     beta=0.30
     Davidson diagonalization with overlap
     ethr =  1.00E-02,  avg # of iterations =  8.4

[...]

     total energy              =    -761.22360054 Ry
     Harris-Foulkes estimate   =   -1617.05186620 Ry
     estimated scf accuracy    <    1827.50339953 Ry

[...]

     iteration #  4     ecut=    36.75 Ry     beta=0.30
     Davidson diagonalization with overlap
     c_bands:  1 eigenvalues not converged
     c_bands:  2 eigenvalues not converged
     c_bands:  1 eigenvalues not converged
     ethr =  1.00E-02,  avg # of iterations = 18.5

[...]

     iteration # 22     ecut=    36.75 Ry     beta=0.30
     Davidson diagonalization with overlap
     c_bands:  1 eigenvalues not converged
     ethr =  2.44E-06,  avg # of iterations =  9.3

[...]

     End of self-consistent calculation

          k = 0.0000 0.0000 0.0000 ( 24345 PWs)   bands (ev):

   -19.8013 -14.2678 -14.2548 -14.2548 -14.1898 -14.1711 -14.1711 -14.1588
   -14.1588 -14.1505 -14.1354 -14.1176 -14.1176 -14.1120 -14.1091 -14.0730
   -14.0713 -14.0713 -14.0635 -14.0635 -14.0578 -14.0578 -14.0484 -14.0484
   -14.0464 -14.0274 -14.0128 -14.0103 -14.0103 -14.0053 -14.0053 -13.9260
   -13.9260 -13.9045 -13.8856 -13.8856 -13.8637 -13.8636 -13.8555 -13.8555
   -13.8321 -13.7986 -13.7986 -13.7933 -13.7883 -13.7836 -13.7836 -13.7731
   -13.7731 -13.7722 -13.7522 -13.7522 -13.7430 -13.7430 -13.7413 -13.7362
   -13.7134 -13.7134 -13.7007 -13.7007 -13.6872  -8.4330  -7.6758  -6.4138
    -4.5453  -4.3468  -4.3468  -3.4065  -3.4065  -3.3077  -3.0914  -2.8830
    -2.8830  -1.8888  -1.6566  -1.6566  -1.4343  -1.3633  -1.3633  -0.9573
    -0.0057   0.1907   0.1907   0.5622   0.5622   1.0825   1.7488   3.2048
     3.5658   3.5658   3.6293

[...]

          k =-0.0756 0.0436 0.0000 ( 24448 PWs)   bands (ev):

[...]

     the Fermi energy is     0.9476 ev

!    total energy              =   -1651.09084260 Ry
     Harris-Foulkes estimate   =   -1651.09086427 Ry
     estimated scf accuracy    <       0.00000530 Ry

     The total energy is the sum of the following terms:

     one-electron contribution =   -9594.13001589 Ry
     hartree contribution      =    4881.20192878 Ry
     xc contribution           =    -478.07533260 Ry
     ewald contribution        =    3539.95004063 Ry
     electric field correction =       0.00009565 Ry
     smearing contrib. (-TS)   =      -0.03755917 Ry

     convergence has been achieved in  30 iterations

 BEEF-vdW xc energy contributions
           1 :   -418.625106352989
           2 :    382.385193718952
           3 :   -321.241554543898
           4 :    252.437310355540
           5 :   -191.678678749714
           6 :    147.459051799910
           7 :   -119.486507008082
           8 :    101.317937236641
           9 :   -85.2751629447555
          10 :    66.7874878008251
          11 :   -46.0248795170263
          12 :    26.4821874359493
          13 :   -11.9412779790089
          14 :    3.90230174805004
          15 :  -0.921510726397742
          16 :  -0.118594471156712
          17 :    1.95206937447125
          18 :   -5.50357752457091
          19 :    9.84173231978593
          20 :   -13.2630038368409
          21 :    14.6052194834012
          22 :   -13.9288578815439
          23 :    12.2683430775895
          24 :   -10.8135680075180
          25 :    10.1766751240178
          26 :   -10.2048484821760
          27 :    10.3285956249534
          28 :   -10.0772798746426
          29 :    9.36451485705948
          30 :   -8.40892569171046
          31 :   -38.1405963010974
          32 :   -27.6507715303185

     Forces acting on atoms (Ry/au):

     negative rho (up, down):  1.198E-03 0.000E+00
     atom    1 type  1   force =    -0.00003291   -0.00002462   -0.00989675
     atom    2 type  1   force =     0.00003299   -0.00002974   -0.00989258
     atom    3 type  1   force =    -0.00000459    0.00004477   -0.00987846
     atom    4 type  1   force =     0.00000343    0.00000649   -0.00888502
     atom    5 type  1   force =    -0.00000001   -0.00260620   -0.00238351
     atom    6 type  1   force =    -0.00000065    0.00000160    0.00273550
     atom    7 type  1   force =     0.00225957    0.00130166   -0.00239490
     atom    8 type  1   force =    -0.00225985    0.00130285   -0.00238519
     atom    9 type  1   force =     0.00000016   -0.00000139    0.00606653
     atom   10 type  1   force =     0.00000058   -0.02276643    0.00119113
     atom   11 type  1   force =    -0.01971434    0.01138514    0.00119163
     atom   12 type  1   force =     0.01971465    0.01138617    0.00118909
     atom   13 type  2   force =     0.00000060   -0.00000031   -0.03033414
     atom   14 type  3   force =     0.00000037    0.00000002    0.06367666

     Total force =     0.081061     Total SCF correction =     0.003375

     entering subroutine stress ...

     negative rho (up, down):  1.198E-03 0.000E+00
          total   stress  (Ry/bohr**3)                   (kbar)     P=   12.05
   0.00007632   0.00000000   0.00000000         11.23      0.00      0.00
   0.00000000   0.00007632  -0.00000000          0.00     11.23     -0.00
   0.00000000  -0.00000000   0.00009316          0.00     -0.00     13.70

     BFGS Geometry Optimization

     number of scf cycles    =   1
     number of bfgs steps    =   0

     energy   new            =   -1651.0908425989 Ry

     new trust radius        =       0.0636766620 bohr
     new conv_thr            =       0.0000099958 Ry

ATOMIC_POSITIONS (crystal)
In1      0.166666667   0.166666667   0.393650374    0   0   0
In1      0.666666667   0.166666667   0.393650374    0   0   0
In1      0.166666667   0.666666667   0.393650374    0   0   0
In1      0.666666667   0.666666667   0.393650374    0   0   0
In1      0.833333333   0.333333333   0.500000000    0   0   0
In1      0.333333333   0.333333333   0.500000000    0   0   0
In1      0.833333333   0.833333333   0.500000000    0   0   0
In1      0.333333333   0.833333333   0.500000000    0   0   0
In1      0.000000077  -0.000000128   0.606475999
In1      0.501051123  -0.002102154   0.606374439
In1     -0.002102086   0.501051255   0.606374449
In1      0.501050808   0.501051349   0.606374396
O1       0.333333396   0.333333305   0.658939264
H1       0.333333362   0.333333336   0.698294396

     Writing output data file calc.save
     Check: negative starting charge=   -0.000346
     NEW-OLD atomic charge density approx. for the potential
     Check: negative starting charge=   -0.000340

[...]

     energy   old            =   -1651.0908425989 Ry
     energy   new            =   -1651.0924324993 Ry

     CASE: energy  _new < energy  _old

[...]

     Total force =     0.007908     Total SCF correction =     0.001527
     SCF correction compared to forces is large: reduce conv_thr to get better values

[...]

     Threshold (ethr) on eigenvalues was too large:
     Diagonalizing with lowered threshold

     Davidson diagonalization with overlap
     ethr =  6.81E-08,  avg # of iterations =  1.0

[...]

     Total force =     0.005857     Total SCF correction =     0.000694
     SCF correction compared to forces is large: reduce conv_thr to get better values

[...]

     number of scf cycles    =  24
     number of bfgs steps    =  23

     energy   old            =   -1651.1097289750 Ry
     energy   new            =   -1651.1098303622 Ry

     CASE: energy  _new < energy  _old

     new trust radius        =       0.0491154114 bohr
     new conv_thr            =       0.0000001000 Ry

ATOMIC_POSITIONS (crystal)
In1      0.166666667   0.166666667   0.393650374    0   0   0
In1      0.666666667   0.166666667   0.393650374    0   0   0
In1      0.166666667   0.666666667   0.393650374    0   0   0
In1      0.666666667   0.666666667   0.393650374    0   0   0
In1      0.833333333   0.333333333   0.500000000    0   0   0
In1      0.333333333   0.333333333   0.500000000    0   0   0
In1      0.833333333   0.833333333   0.500000000    0   0   0
In1      0.333333333   0.833333333   0.500000000    0   0   0
In1     -0.000000852   0.000001646   0.609462699
In1      0.501477235  -0.002954056   0.619573673
In1     -0.002955567   0.501477003   0.619573609
In1      0.501478660   0.501476990   0.619573632
O1       0.333333750   0.333333106   0.680805808
H1       0.333333642   0.333333498   0.719324220

     Writing output data file calc.save
     Check: negative starting charge=   -0.000325
     NEW-OLD atomic charge density approx. for the potential
     Check: negative starting charge=   -0.000326

[...]

     Self-consistent Calculation

[...]

     total energy              =   -1651.10993854 Ry
     Harris-Foulkes estimate   =   -1651.10993819 Ry
     estimated scf accuracy    <       0.00000013 Ry

     iteration #  8     ecut=    36.75 Ry     beta=0.30
     Davidson diagonalization with overlap
     ethr =  8.26E-11,  avg # of iterations =  2.0

[...]

     negative rho (up, down):  1.174E-03 0.000E+00

     Adding external electric field

     Computed dipole along edir(3) :
        Dipole                0.1786 Ry au,          0.4540 Debye
        Dipole field          0.0003 Ry au

        Potential amp.       -0.0323 Ry
        Total length         46.8051 bohr

     End of self-consistent calculation

[...]

          k = 0.0504-0.0582 0.0000 ( 24479 PWs)   bands (ev):

[...]

          k =-0.0756-0.0436 0.0000 ( 24448 PWs)   bands (ev):

   -18.8005 -14.2319 -14.2279 -14.1867 -14.1809 -14.1759 -14.1700 -14.1669
   -14.1632 -14.1548 -14.1364 -14.1311 -14.1308 -14.1143 -14.1117 -14.0997
   -14.0985 -14.0970 -14.0927 -14.0837 -14.0710 -14.0586 -14.0557 -14.0487
   -14.0479 -14.0460 -14.0385 -14.0375 -14.0294 -14.0256 -14.0186 -14.0183
   -13.9993 -13.9965 -13.9841 -13.9796 -13.9766 -13.9730 -13.9698 -13.9607
   -13.9584 -13.9493 -13.9479 -13.9467 -13.9394 -13.9341 -13.9303 -13.9299
   -13.9273 -13.9229 -13.9182 -13.9149 -13.9135 -13.8740 -13.8730 -13.8686
   -13.8611 -13.8471 -13.8368 -13.8143 -13.8138  -7.1656  -6.9182  -6.6854
    -5.7230  -5.1124  -4.4248  -4.3559  -4.0776  -3.7407  -3.6339  -2.8358
    -2.5124  -2.4004  -1.4566  -1.1382   0.0473   0.1018   0.5510   0.5759
     0.9664   1.1072   1.8345   1.8584   2.0335   2.1764   2.5126   2.6744
     2.8645   3.1433   3.3249

     the Fermi energy is     0.8597 ev

!    total energy              =   -1651.10993856 Ry
     Harris-Foulkes estimate   =   -1651.10993867 Ry
     estimated scf accuracy    <       0.00000001 Ry

     The total energy is the sum of the following terms:

     one-electron contribution =   -9146.76480260 Ry
     hartree contribution      =    4657.27534335 Ry
     xc contribution           =    -477.84222348 Ry
     ewald contribution        =    3316.25917283 Ry
     electric field correction =       0.00006167 Ry
     smearing contrib. (-TS)   =      -0.03749033 Ry

     convergence has been achieved in   8 iterations

 BEEF-vdW xc energy contributions
           1 :   -418.376546504328
           2 :    381.987351775419
           3 :   -320.676948327362
           4 :    251.835867524629
           5 :   -191.225070850706
           6 :    147.267962143644
           7 :   -119.527700455403
           8 :    101.440945908597
           9 :   -85.3120486134626
          10 :    66.6591232817879
          11 :   -45.7798800665317
          12 :    26.2478548415011
          13 :   -11.8287581403733
          14 :    3.93622868113351
          15 :   -1.03798920166668
          16 :  -1.289609160505734E-002
          17 :    1.90983268529646
          18 :   -5.50951541542179
          19 :    9.84204253357683
          20 :   -13.2198077504390
          21 :    14.5297288213461
          22 :   -13.8684166603348
          23 :    12.2610443743542
          24 :   -10.8507091401739
          25 :    10.2061428121207
          26 :   -10.1734827122665
          27 :    10.2285176496976
          28 :   -9.95744856570013
          29 :    9.29597740551736
          30 :   -8.42952710005397
          31 :   -38.1199180441636
          32 :   -27.5921985515030

     Forces acting on atoms (Ry/au):

     negative rho (up, down):  1.174E-03 0.000E+00
     atom    1 type  1   force =    -0.00087256   -0.00050374   -0.01196450
     atom    2 type  1   force =     0.00087256   -0.00050374   -0.01196450
     atom    3 type  1   force =    -0.00000000    0.00100754   -0.01196451
     atom    4 type  1   force =     0.00000000   -0.00000003   -0.01077088
     atom    5 type  1   force =     0.00000000    0.00073592    0.01025136
     atom    6 type  1   force =    -0.00000000    0.00000001    0.01713549
     atom    7 type  1   force =    -0.00063729   -0.00036798    0.01025167
     atom    8 type  1   force =     0.00063728   -0.00036797    0.01025170
     atom    9 type  1   force =     0.00000011   -0.00000147   -0.00116304
     atom   10 type  1   force =    -0.00000013    0.00109935    0.00022683
     atom   11 type  1   force =     0.00095377   -0.00054912    0.00022695
     atom   12 type  1   force =    -0.00095373   -0.00054897    0.00022694
     atom   13 type  2   force =    -0.00000003    0.00000034    0.00111654
     atom   14 type  3   force =     0.00000001   -0.00000014   -0.00186006

     Total force =     0.003138     Total SCF correction =     0.000285

     entering subroutine stress ...

     negative rho (up, down):  1.174E-03 0.000E+00
          total   stress  (Ry/bohr**3)                   (kbar)     P=    4.99
   0.00003697   0.00000000  -0.00000000          5.44      0.00     -0.00
   0.00000000   0.00003697   0.00000000          0.00      5.44      0.00
  -0.00000000   0.00000000   0.00002785         -0.00      0.00      4.10

     bfgs converged in  25 scf cycles and  24 bfgs steps
     (criteria: energy <  1.0E+00, force <  1.9E-03)

     End of BFGS Geometry Optimization

     Final energy   =   -1651.1099385569 Ry
Begin final coordinates

ATOMIC_POSITIONS (crystal)
In1      0.166666667   0.166666667   0.393650374    0   0   0
In1      0.666666667   0.166666667   0.393650374    0   0   0
In1      0.166666667   0.666666667   0.393650374    0   0   0
In1      0.666666667   0.666666667   0.393650374    0   0   0
In1      0.833333333   0.333333333   0.500000000    0   0   0
In1      0.333333333   0.333333333   0.500000000    0   0   0
In1      0.833333333   0.833333333   0.500000000    0   0   0
In1      0.333333333   0.833333333   0.500000000    0   0   0
In1     -0.000000852   0.000001646   0.609462699
In1      0.501477235  -0.002954056   0.619573673
In1     -0.002955567   0.501477003   0.619573609
In1      0.501478660   0.501476990   0.619573632
O1       0.333333750   0.333333106   0.680805808
H1       0.333333642   0.333333498   0.719324220
End final coordinates

     Writing output data file calc.save

     General routines

     Parallel routines

   This run was terminated on:  11:35: 8  18Apr2018

   JOB DONE.
Job  /afs/slac/g/suncat/bin/suncat-tsmpirun -x LD_LIBRARY_PATH -wdir /scratch/qe226202_RSA1p pw.x -npool 4 -in pw.inp

TID   HOST_NAME   COMMAND_LINE            STATUS            TERMINATION_TIME
00000 suncat0109 pw.x -npool 4 -i  Done                     04/18/2018 11:35:08
00001 suncat0109 pw.x -npool 4 -i  Done                     04/18/2018 11:35:08
00002 suncat0109 pw.x -npool 4 -i  Done                     04/18/2018 11:35:08
00003 suncat0109 pw.x -npool 4 -i  Done                     04/18/2018 11:35:08
00004 suncat0109 pw.x -npool 4 -i  Done                     04/18/2018 11:35:08
00005 suncat0109 pw.x -npool 4 -i  Done                     04/18/2018 11:35:08
00006 suncat0109 pw.x -npool 4 -i  Done                     04/18/2018 11:35:08
00007 suncat0109 pw.x -npool 4 -i  Done                     04/18/2018 11:35:08
00008 suncat0272 pw.x -npool 4 -i  Done                     04/18/2018 11:35:08
00009 suncat0272 pw.x -npool 4 -i  Done                     04/18/2018 11:35:08
00010 suncat0272 pw.x -npool 4 -i  Done                     04/18/2018 11:35:08
00011 suncat0272 pw.x -npool 4 -i  Done                     04/18/2018 11:35:08
00012 suncat0272 pw.x -npool 4 -i  Done                     04/18/2018 11:35:08
00013 suncat0272 pw.x -npool 4 -i  Done                     04/18/2018 11:35:08
00014 suncat0272 pw.x -npool 4 -i  Done                     04/18/2018 11:35:08
00015 suncat0272 pw.x -npool 4 -i  Done                     04/18/2018 11:35:08
00016 suncat0250 pw.x -npool 4 -i  Done                     04/18/2018 11:35:08
00017 suncat0250 pw.x -npool 4 -i  Done                     04/18/2018 11:35:08
00018 suncat0250 pw.x -npool 4 -i  Done                     04/18/2018 11:35:08
00019 suncat0250 pw.x -npool 4 -i  Done                     04/18/2018 11:35:08
00020 suncat0250 pw.x -npool 4 -i  Done                     04/18/2018 11:35:08
00021 suncat0250 pw.x -npool 4 -i  Done                     04/18/2018 11:35:08
00022 suncat0250 pw.x -npool 4 -i  Done                     04/18/2018 11:35:08
00023 suncat0250 pw.x -npool 4 -i  Done                     04/18/2018 11:35:08
00024 suncat0245 pw.x -npool 4 -i  Done                     04/18/2018 11:35:08
00025 suncat0245 pw.x -npool 4 -i  Done                     04/18/2018 11:35:08
00026 suncat0245 pw.x -npool 4 -i  Done                     04/18/2018 11:35:08
00027 suncat0245 pw.x -npool 4 -i  Done                     04/18/2018 11:35:08
00028 suncat0245 pw.x -npool 4 -i  Done                     04/18/2018 11:35:08
00029 suncat0245 pw.x -npool 4 -i  Done                     04/18/2018 11:35:08
00030 suncat0245 pw.x -npool 4 -i  Done                     04/18/2018 11:35:08
00031 suncat0245 pw.x -npool 4 -i  Done                     04/18/2018 11:35:08