     Program PWSCF v.5.1rc2 (svn rev. 11289) starts on 16Apr2018 at 23:18:42

     Current dimensions of program PWSCF are:
     Max number of different atomic species (ntypx) = 10
     Max number of k-points (npk) =  40000
     Max angular momentum in pseudopotentials (lmaxx) =  3
     Presently stress not available with electric field

     IMPORTANT: XC functional enforced from input :
     Exchange-correlation      = BEEF-VDW ( 1  4 27 13 2)
     Any further DFT definition will be discarded
     Please, verify this is what you really want

     Subspace diagonalization in iterative solution of the eigenvalue problem:
     a serial algorithm will be used

     bravais-lattice index     =            0
     lattice parameter (alat)  =       1.8897  a.u.
     unit-cell volume          =    3724.3394 (a.u.)^3
     number of atoms/cell      =           14
     number of atomic types    =            3
     number of electrons       =       174.00
     number of Kohn-Sham states=           97
     kinetic-energy cutoff     =      36.7493  Ry
     charge density cutoff     =     367.4932  Ry
     convergence threshold     =      1.0E-05
     mixing beta               =       0.3000
     number of iterations used =           10  plain     mixing
     Exchange-correlation      = BEEF-VDW ( 1  4 27 13 2)
     nstep                     =           50

     celldm(1)=   1.889726  celldm(2)=   0.000000  celldm(3)=   0.000000
     celldm(4)=   0.000000  celldm(5)=   0.000000  celldm(6)=   0.000000

     crystal axes: (cart. coord. in units of alat)
               a(1) = (   5.132588   0.000000   0.000000 )
               a(2) = (   2.566294   4.444952   0.000000 )
               a(3) = (   0.000000   0.000000  24.190741 )

     reciprocal axes: (cart. coord. in units 2 pi/alat)
               b(1) = (  0.194833 -0.112487  0.000000 )
               b(2) = (  0.000000  0.224974  0.000000 )
               b(3) = (  0.000000  0.000000  0.041338 )

     PseudoPot. # 1 for Cr read from file:
     /u/if/mamunm/psp/gbrv1.5pbe/Cr.UPF
     MD5 check sum: 0d52af634a40206e4dee301ad30da4bf
     Pseudo is Ultrasoft + core correction, Zval = 14.0
     Generated by new atomic code, or converted to UPF format
     Using radial grid of  857 points,  6 beta functions with:
                l(1) =   0
                l(2) =   0
                l(3) =   1
                l(4) =   1
                l(5) =   2
                l(6) =   2
     Q(r) pseudized with  8 coefficients,  rinner =    0.950   0.950   0.950
                                                       0.950   0.950

     PseudoPot. # 2 for N  read from file:
     /u/if/mamunm/psp/gbrv1.5pbe/N.UPF
     MD5 check sum: 95339753478d7afb44899504a8723017
     Pseudo is Ultrasoft + core correction, Zval =  5.0
     Generated by new atomic code, or converted to UPF format
     Using radial grid of  729 points,  4 beta functions with:
                l(1) =   0
                l(2) =   0
                l(3) =   1
                l(4) =   1
     Q(r) pseudized with  8 coefficients,  rinner =    0.900   0.900   0.900

     PseudoPot. # 3 for H  read from file:
     /u/if/mamunm/psp/gbrv1.5pbe/H.UPF
     MD5 check sum: 761ae9a214b05c3daf00ab9f6b793d6f
     Pseudo is Ultrasoft, Zval =  1.0
     Generated by new atomic code, or converted to UPF format
     Using radial grid of  615 points,  2 beta functions with:
                l(1) =   0
                l(2) =   0
     Q(r) pseudized with  8 coefficients,  rinner =    0.700

     vdW kernel table read from file vdW_kernel_table
     MD5 check sum: 095c7af220d748ca6e76c0b4c6cfb241

     atomic species   valence    mass     pseudopotential
        Cr1           14.00    51.99610     Cr( 1.00)
        N1             5.00    14.00700     N ( 1.00)
        H1             1.00     1.00800     H ( 1.00)

     No symmetry found

   Cartesian axes

     site n.     atom                  positions (alat units)
         1           Cr1 tau(   1) = (   1.2831471   0.7408253  10.0000000  )
         2           Cr1 tau(   2) = (   3.8494412   0.7408253  10.0000000  )
         3           Cr1 tau(   3) = (   2.5662941   2.9633012  10.0000000  )
         4           Cr1 tau(   4) = (   5.1325882   2.9633012  10.0000000  )
         5           Cr1 tau(   5) = (   5.1325882   1.4816506  12.0953704  )
         6           Cr1 tau(   6) = (   2.5662941   1.4816506  12.0953704  )
         7           Cr1 tau(   7) = (   6.4157353   3.7041265  12.0953704  )
         8           Cr1 tau(   8) = (   3.8494412   3.7041265  12.0953704  )
         9           Cr1 tau(   9) = (   0.0000000   0.0000000  14.1907408  )
        10           Cr1 tau(  10) = (   2.5662941   0.0000000  14.1907408  )
        11           Cr1 tau(  11) = (   1.2831471   2.2224759  14.1907408  )
        12           Cr1 tau(  12) = (   3.8494412   2.2224759  14.1907408  )
        13           N1  tau(  13) = (   1.2831471   0.7408253  15.5557408  )
        14           H1  tau(  14) = (   1.2831471   0.7408253  16.6057408  )

     number of k points=    20  Fermi-Dirac smearing, width (Ry)=  0.0110
                       cart. coord. in units 2pi/alat
        k(    1) = (   0.0000000   0.0000000   0.0000000), wk =   0.0555556
        k(    2) = (   0.0000000   0.0374957   0.0000000), wk =   0.1111111
        k(    3) = (   0.0000000   0.0749914   0.0000000), wk =   0.1111111
        k(    4) = (   0.0000000  -0.1124872   0.0000000), wk =   0.0555556
        k(    5) = (   0.0324722  -0.0187479   0.0000000), wk =   0.1111111
        k(    6) = (   0.0324722   0.0187479   0.0000000), wk =   0.1111111
        k(    7) = (   0.0324722   0.0562436   0.0000000), wk =   0.1111111
        k(    8) = (   0.0324722  -0.1312350   0.0000000), wk =   0.1111111
        k(    9) = (   0.0324722  -0.0937393   0.0000000), wk =   0.1111111
        k(   10) = (   0.0324722  -0.0562436   0.0000000), wk =   0.1111111
        k(   11) = (   0.0649445  -0.0374957   0.0000000), wk =   0.1111111
        k(   12) = (   0.0649445   0.0000000   0.0000000), wk =   0.1111111
        k(   13) = (   0.0649445   0.0374957   0.0000000), wk =   0.1111111
        k(   14) = (   0.0649445  -0.1499829   0.0000000), wk =   0.1111111
        k(   15) = (   0.0649445  -0.1124872   0.0000000), wk =   0.1111111
        k(   16) = (   0.0649445  -0.0749914   0.0000000), wk =   0.1111111
        k(   17) = (  -0.0974167   0.0562436   0.0000000), wk =   0.0555556
        k(   18) = (  -0.0974167   0.0937393   0.0000000), wk =   0.1111111
        k(   19) = (  -0.0974167   0.1312350   0.0000000), wk =   0.1111111
        k(   20) = (  -0.0974167  -0.0562436   0.0000000), wk =   0.0555556

     Largest allocated arrays     est. size (Mb)     dimensions
     Largest temporary arrays     est. size (Mb)     dimensions

     Check: negative/imaginary core charge=   -0.000004    0.000000

     Initial potential from superposition of free atoms
     Check: negative starting charge=   -0.014851

     starting charge  161.99980, renormalised to  174.00000

     negative rho (up, down):  1.595E-02 0.000E+00

     *
     * You are using vdW-DF for exchange-correlation in this calculation.
     * Please cite the following three references that made this development
     * possible:
     *
     *   M. Dion, H. Rydberg, E. Schroder, D. C. Langreth, and
     *   B. I. Lundqvist, Phys. Rev. Lett. 92, 246401 (2004).
     *
     *   T. Thonhauser, V. R. Cooper, S. Li, A. Puzder, P. Hyldgaard, and
     *   D. C. Langreth, Phys. Rev. B 76, 125112 (2007).
     *
     *   G. Roman-Perez and J. M. Soler, Phys. Rev. Lett. 103, 096102 (2009).
     *
     *
     * If you are using vdW-DF2, please also cite:
     *
     *   K. Lee, E. D. Murray, L. Kong, B. I. Lundqvist, and
     *   D. C. Langreth, Phys. Rev. B 82, 081101(R) (2010).
     *
     *
     * If you are calculating the stress with vdW-DF, please also cite:
     *
     *   R. Sabatini, E. Kucukbenli, B. Kolb, T. Thonhauser, and
     *   S. de Gironcoli, J. Phys.: Condens. Matter 24, 424209 (2012).
     *

     Carrying out vdW-DF run using the following parameters:

     Nqs =      20    Nr_points =    1024   r_max =   100.000
     q_mesh =
               0.00001000     0.04494208     0.09755937     0.15916263
               0.23128650     0.31572767     0.41458969     0.53033537
               0.66584808     0.82450364     1.01025438     1.22772762
               1.48234092     1.78043706     2.12944203     2.53805004
               3.01644009     3.57652955     4.23227104     5.00000000

     Gradients computed in reciprocal space

     Adding external electric field

     Computed dipole along edir(3) :
        Dipole               -3.0532 Ry au,         -7.7604 Debye
        Dipole field         -0.0103 Ry au

        Potential amp.        0.9183 Ry
        Total length         44.5710 bohr

     Starting wfc are  125 randomized atomic wfcs

     Self-consistent Calculation

     iteration #  1     ecut=    36.75 Ry     beta=0.30
     Davidson diagonalization with overlap
     ethr =  1.00E-02,  avg # of iterations =  8.0

[...]

     total energy              =   -1923.59374747 Ry
     Harris-Foulkes estimate   =   -2139.16882966 Ry
     estimated scf accuracy    <     448.17601609 Ry

[...]

     End of self-consistent calculation

          k = 0.0000 0.0000 0.0000 ( 14081 PWs)   bands (ev):

   -70.0792 -69.9960 -69.9528 -69.9520 -69.9196 -69.8927 -69.8923 -69.8921
   -69.8785 -69.7842 -69.7829 -69.7776 -41.6966 -41.6493 -41.6492 -41.6357
   -41.5878 -41.5876 -41.5801 -41.4612 -41.4520 -41.4516 -41.3133 -41.2850
   -41.2843 -41.2371 -41.1838 -41.1795 -41.1789 -41.1511 -41.1508 -41.1432
   -41.0755 -41.0752 -41.0682 -41.0551 -41.0493 -41.0490 -41.0080 -40.9825
   -40.9824 -40.9314 -40.9313 -40.9298 -40.9292 -40.9256 -40.7939 -40.7939
   -13.7792  -5.8188  -4.7662  -3.0145  -2.4569  -2.4569  -2.1654  -1.9809
    -1.8648  -1.8648  -1.5475  -1.4494  -1.4492  -1.2395  -1.2394  -1.1598
    -0.8580  -0.8366  -0.8365  -0.0130  -0.0128   0.1925   0.6817   0.7772
     0.7773   0.7906   0.9705   1.2462   1.2462   1.4142   1.4143   1.4537
     1.5000   1.5002   1.5198   1.5788   1.5788   1.6679   1.6681   1.6924
     2.3706   2.3964   2.3965   2.5781   2.7379   2.7381   2.8686   2.8686
     3.0445

[...]

          k =-0.0974 0.0562 0.0000 ( 14010 PWs)   bands (ev):

[...]

     the Fermi energy is     1.6918 ev

!    total energy              =   -2136.54988147 Ry
     Harris-Foulkes estimate   =   -2136.54988471 Ry
     estimated scf accuracy    <       0.00000400 Ry

     The total energy is the sum of the following terms:

     one-electron contribution =  -20079.01279546 Ry
     hartree contribution      =   10035.30460194 Ry
     xc contribution           =    -285.42731307 Ry
     ewald contribution        =    8192.71883166 Ry
     electric field correction =       0.00024902 Ry
     smearing contrib. (-TS)   =      -0.13345556 Ry

     convergence has been achieved in  48 iterations

 BEEF-vdW xc energy contributions
           1 :   -247.016969278652
           2 :    222.341252075118
           3 :   -181.139652358387
           4 :    135.786629612279
           5 :   -97.5219778906671
           6 :    72.3786969937763
           7 :   -60.0552363414338
           8 :    55.7673514053267
           9 :   -53.6736282146992
          10 :    49.9039819301867
          11 :   -43.7912246535318
          12 :    37.0991548972117
          13 :   -32.1415895770718
          14 :    30.0780222287284
          15 :   -30.3031285321621
          16 :    31.0574706977045
          17 :   -30.6723613787365
          18 :    28.5812718621926
          19 :   -25.5081806716106
          20 :    22.8234904087366
          21 :   -21.5712978690231
          22 :    21.8167912930547
          23 :   -22.6953249419786
          24 :    23.0570672061501
          25 :   -22.2327238302628
          26 :    20.4144919088292
          27 :   -18.4470930366742
          28 :    17.2192260246938
          29 :   -17.0824265363179
          30 :    17.6654403115031
          31 :   -24.5412295248912
          32 :   -17.6366163248807

     Forces acting on atoms (Ry/au):

     negative rho (up, down):  1.477E-02 0.000E+00
     atom    1 type  1   force =     0.00000980    0.00000654    0.00037731
     atom    2 type  1   force =    -0.00000105    0.00025726   -0.00161699
     atom    3 type  1   force =     0.00023314   -0.00013471   -0.00165790
     atom    4 type  1   force =    -0.00023174   -0.00013461   -0.00164910
     atom    5 type  1   force =     0.00180272   -0.00104224    0.00347064
     atom    6 type  1   force =    -0.00179431   -0.00103799    0.00347849
     atom    7 type  1   force =     0.00001115    0.00002207   -0.01006885
     atom    8 type  1   force =    -0.00000599    0.00208101    0.00346991
     atom    9 type  1   force =    -0.00461229   -0.00266118    0.04560674
     atom   10 type  1   force =     0.00461250   -0.00266750    0.04562661
     atom   11 type  1   force =    -0.00001191    0.00531274    0.04562679
     atom   12 type  1   force =     0.00001045    0.00000966   -0.04058107
     atom   13 type  2   force =    -0.00002093   -0.00001085   -0.04467818
     atom   14 type  3   force =    -0.00000153   -0.00000020   -0.04740439

     Total force =     0.110538     Total SCF correction =     0.000624

     entering subroutine stress ...

     negative rho (up, down):  1.477E-02 0.000E+00
          total   stress  (Ry/bohr**3)                   (kbar)     P=  -27.95
  -0.00024046   0.00000002   0.00000004        -35.37      0.00      0.01
   0.00000002  -0.00024053   0.00000007          0.00    -35.38      0.01
   0.00000004   0.00000007  -0.00008908          0.01      0.01    -13.10

     BFGS Geometry Optimization

     number of scf cycles    =   1
     number of bfgs steps    =   0

     energy   new            =   -2136.5498814681 Ry

     new trust radius        =       0.0474043923 bohr
     new conv_thr            =       0.0000099958 Ry

ATOMIC_POSITIONS (crystal)
Cr1      0.166666667   0.166666667   0.413381306    0   0   0
Cr1      0.666666667   0.166666667   0.413381306    0   0   0
Cr1      0.166666667   0.666666667   0.413381306    0   0   0
Cr1      0.666666667   0.666666667   0.413381306    0   0   0
Cr1      0.833333333   0.333333333   0.500000000    0   0   0
Cr1      0.333333333   0.333333333   0.500000000    0   0   0
Cr1      0.833333333   0.833333333   0.500000000    0   0   0
Cr1      0.333333333   0.833333333   0.500000000    0   0   0
Cr1     -0.000317125  -0.000316817   0.587616351
Cr1      0.500634340  -0.000317570   0.587616785
Cr1     -0.000317473   0.500632489   0.587616789
Cr1      0.500000502   0.500001150   0.585730975
N1       0.166665154   0.166665376   0.642067899
H1       0.166666521   0.166666643   0.685413299

     Writing output data file calc.save
     Check: negative starting charge=   -0.014851
     NEW-OLD atomic charge density approx. for the potential

     Check: negative/imaginary core charge=   -0.000004    0.000000
     Check: negative starting charge=   -0.014465

[...]

     energy   old            =   -2136.5498814681 Ry
     energy   new            =   -2136.5608456523 Ry

     CASE: energy  _new < energy  _old

[...]

     iteration #  1     ecut=    36.75 Ry     beta=0.30
     Davidson diagonalization with overlap
     c_bands:  1 eigenvalues not converged
     ethr =  1.00E-06,  avg # of iterations = 15.0

[...]

     Total force =     0.015086     Total SCF correction =     0.000257

[...]

     Total force =     0.008697     Total SCF correction =     0.000998
     SCF correction compared to forces is large: reduce conv_thr to get better values

[...]

     number of scf cycles    =  11
     number of bfgs steps    =  10

     energy   old            =   -2136.5939224579 Ry
     energy   new            =   -2136.5940064324 Ry

     CASE: energy  _new < energy  _old

     new trust radius        =       0.0038568481 bohr
     new conv_thr            =       0.0000001000 Ry

ATOMIC_POSITIONS (crystal)
Cr1      0.166666667   0.166666667   0.413381306    0   0   0
Cr1      0.666666667   0.166666667   0.413381306    0   0   0
Cr1      0.166666667   0.666666667   0.413381306    0   0   0
Cr1      0.666666667   0.666666667   0.413381306    0   0   0
Cr1      0.833333333   0.333333333   0.500000000    0   0   0
Cr1      0.333333333   0.333333333   0.500000000    0   0   0
Cr1      0.833333333   0.833333333   0.500000000    0   0   0
Cr1      0.333333333   0.833333333   0.500000000    0   0   0
Cr1     -0.004913716  -0.004914070   0.590204964
Cr1      0.509825521  -0.004914457   0.590204968
Cr1     -0.004910412   0.509819185   0.590204787
Cr1      0.499999779   0.500000302   0.570705362
N1       0.166667000   0.166662438   0.639368173
H1       0.166664032   0.166664812   0.681671726

     Writing output data file calc.save
     Check: negative starting charge=   -0.015075
     NEW-OLD atomic charge density approx. for the potential

     Check: negative/imaginary core charge=   -0.000004    0.000000
     Check: negative starting charge=   -0.015038

[...]

     Self-consistent Calculation

[...]

     total energy              =   -2136.59401262 Ry
     Harris-Foulkes estimate   =   -2136.59401260 Ry
     estimated scf accuracy    <       0.00000013 Ry

     iteration # 17     ecut=    36.75 Ry     beta=0.30
     Davidson diagonalization with overlap
     ethr =  5.84E-11,  avg # of iterations =  1.0

[...]

     negative rho (up, down):  1.514E-02 0.000E+00

     Adding external electric field

     Computed dipole along edir(3) :
        Dipole                0.2898 Ry au,          0.7365 Debye
        Dipole field          0.0010 Ry au

        Potential amp.       -0.0872 Ry
        Total length         44.5710 bohr

     End of self-consistent calculation

[...]

          k = 0.0649-0.0750 0.0000 ( 13990 PWs)   bands (ev):

[...]

          k =-0.0974-0.0562 0.0000 ( 14010 PWs)   bands (ev):

   -70.0420 -70.0154 -69.9931 -69.9685 -69.9574 -69.9141 -69.8818 -69.8275
   -69.8193 -69.7880 -69.7699 -69.7663 -41.7093 -41.6206 -41.5772 -41.5562
   -41.5219 -41.4728 -41.4446 -41.4151 -41.3520 -41.3452 -41.3317 -41.3145
   -41.3075 -41.2887 -41.2737 -41.2105 -41.1997 -41.1931 -41.1654 -41.1574
   -41.1459 -41.1013 -41.0939 -41.0914 -41.0695 -41.0550 -41.0525 -41.0486
   -41.0253 -41.0218 -40.9924 -40.9109 -40.8834 -40.8471 -40.8398 -40.7983
   -14.2462  -5.8445  -3.4363  -3.0797  -2.6136  -2.5002  -1.6933  -1.4819
    -1.2664  -1.2661  -1.1660  -1.1550  -1.0977  -0.6370  -0.6077  -0.4877
    -0.3899  -0.3707  -0.2034  -0.1333   0.0415   0.1218   0.2745   0.2878
     0.3512   0.3605   0.4988   0.6224   0.6998   0.8604   0.9652   0.9774
     1.0426   1.0936   1.1635   1.3459   1.3807   1.3924   1.5327   1.5448
     1.7459   2.0175   2.1419   2.1488   2.2073   2.2731   2.2997   2.4249
     2.6071

     the Fermi energy is     1.7201 ev

!    total energy              =   -2136.59401258 Ry
     Harris-Foulkes estimate   =   -2136.59401266 Ry
     estimated scf accuracy    <       0.00000006 Ry

     The total energy is the sum of the following terms:

     one-electron contribution =  -20179.94046640 Ry
     hartree contribution      =   10085.68822148 Ry
     xc contribution           =    -285.62500308 Ry
     ewald contribution        =    8243.40421171 Ry
     electric field correction =       0.00028328 Ry
     smearing contrib. (-TS)   =      -0.12125957 Ry

     convergence has been achieved in  17 iterations

 BEEF-vdW xc energy contributions
           1 :   -247.218467252693
           2 :    222.586129052525
           3 :   -181.422232661518
           4 :    136.043030256915
           5 :   -97.6629833091208
           6 :    72.3397355994949
           7 :   -59.8345481213917
           8 :    55.4313103593230
           9 :   -53.3271879160355
          10 :    49.6406003822910
          11 :   -43.6462683346342
          12 :    37.0314466063963
          13 :   -32.0565830379035
          14 :    29.8845036823477
          15 :   -29.9733647363259
          16 :    30.6521777011713
          17 :   -30.3091159876607
          18 :    28.3620139810562
          19 :   -25.4524576295937
          20 :    22.8531493228811
          21 :   -21.5585558305271
          22 :    21.6639571935474
          23 :   -22.3934944212612
          24 :    22.6875188056299
          25 :   -21.9137452913403
          26 :    20.2291640552934
          27 :   -18.3966075509001
          28 :    17.2273035731903
          29 :   -17.0450613434925
          30 :    17.5164600908372
          31 :   -24.5530808728893
          32 :   -17.6538241699046

     Forces acting on atoms (Ry/au):

     negative rho (up, down):  1.514E-02 0.000E+00
     atom    1 type  1   force =     0.00000076    0.00000084    0.00811811
     atom    2 type  1   force =    -0.00000016    0.00061264   -0.00339244
     atom    3 type  1   force =     0.00053066   -0.00030675   -0.00339262
     atom    4 type  1   force =    -0.00053013   -0.00030632   -0.00339810
     atom    5 type  1   force =     0.02111457   -0.01218757   -0.00494008
     atom    6 type  1   force =    -0.02111186   -0.01219040   -0.00493121
     atom    7 type  1   force =    -0.00000226   -0.00000058    0.02074095
     atom    8 type  1   force =     0.00000327    0.02438043   -0.00493902
     atom    9 type  1   force =    -0.00029725   -0.00017275   -0.00059288
     atom   10 type  1   force =     0.00029277   -0.00017003   -0.00058867
     atom   11 type  1   force =     0.00000052    0.00034173   -0.00058949
     atom   12 type  1   force =    -0.00000171   -0.00000076    0.00015990
     atom   13 type  2   force =    -0.00000024    0.00000001   -0.00130836
     atom   14 type  3   force =     0.00000106   -0.00000050   -0.00094609

     Total force =     0.002007     Total SCF correction =     0.000262
     SCF correction compared to forces is large: reduce conv_thr to get better values

     entering subroutine stress ...

     negative rho (up, down):  1.514E-02 0.000E+00
          total   stress  (Ry/bohr**3)                   (kbar)     P=  -17.99
  -0.00017643   0.00000001   0.00000001        -25.95      0.00      0.00
   0.00000001  -0.00017644   0.00000001          0.00    -25.95      0.00
   0.00000001   0.00000001  -0.00001410          0.00      0.00     -2.07

     bfgs converged in  12 scf cycles and  11 bfgs steps
     (criteria: energy <  1.0E+00, force <  1.9E-03)

     End of BFGS Geometry Optimization

     Final energy   =   -2136.5940125829 Ry
Begin final coordinates

ATOMIC_POSITIONS (crystal)
Cr1      0.166666667   0.166666667   0.413381306    0   0   0
Cr1      0.666666667   0.166666667   0.413381306    0   0   0
Cr1      0.166666667   0.666666667   0.413381306    0   0   0
Cr1      0.666666667   0.666666667   0.413381306    0   0   0
Cr1      0.833333333   0.333333333   0.500000000    0   0   0
Cr1      0.333333333   0.333333333   0.500000000    0   0   0
Cr1      0.833333333   0.833333333   0.500000000    0   0   0
Cr1      0.333333333   0.833333333   0.500000000    0   0   0
Cr1     -0.004913716  -0.004914070   0.590204964
Cr1      0.509825521  -0.004914457   0.590204968
Cr1     -0.004910412   0.509819185   0.590204787
Cr1      0.499999779   0.500000302   0.570705362
N1       0.166667000   0.166662438   0.639368173
H1       0.166664032   0.166664812   0.681671726
End final coordinates

     Writing output data file calc.save

     General routines

     Parallel routines

   This run was terminated on:   1: 6:44  17Apr2018

   JOB DONE.
Job  /afs/slac/g/suncat/bin/suncat-tsmpirun -x LD_LIBRARY_PATH -wdir /scratch/qe157796_7mVwR pw.x -npool 4 -in pw.inp

TID   HOST_NAME   COMMAND_LINE            STATUS            TERMINATION_TIME
00000 suncat0192 pw.x -npool 4 -i  Done                     04/17/2018 01:06:44
00001 suncat0192 pw.x -npool 4 -i  Done                     04/17/2018 01:06:44
00002 suncat0192 pw.x -npool 4 -i  Done                     04/17/2018 01:06:44
00003 suncat0192 pw.x -npool 4 -i  Done                     04/17/2018 01:06:44
00004 suncat0192 pw.x -npool 4 -i  Done                     04/17/2018 01:06:44
00005 suncat0192 pw.x -npool 4 -i  Done                     04/17/2018 01:06:44
00006 suncat0192 pw.x -npool 4 -i  Done                     04/17/2018 01:06:44
00007 suncat0192 pw.x -npool 4 -i  Done                     04/17/2018 01:06:44
00008 suncat0191 pw.x -npool 4 -i  Done                     04/17/2018 01:06:44
00009 suncat0191 pw.x -npool 4 -i  Done                     04/17/2018 01:06:44
00010 suncat0191 pw.x -npool 4 -i  Done                     04/17/2018 01:06:44
00011 suncat0191 pw.x -npool 4 -i  Done                     04/17/2018 01:06:44
00012 suncat0191 pw.x -npool 4 -i  Done                     04/17/2018 01:06:44
00013 suncat0191 pw.x -npool 4 -i  Done                     04/17/2018 01:06:44
00014 suncat0191 pw.x -npool 4 -i  Done                     04/17/2018 01:06:44
00015 suncat0191 pw.x -npool 4 -i  Done                     04/17/2018 01:06:44
00016 suncat0008 pw.x -npool 4 -i  Done                     04/17/2018 01:06:44
00017 suncat0008 pw.x -npool 4 -i  Done                     04/17/2018 01:06:44
00018 suncat0008 pw.x -npool 4 -i  Done                     04/17/2018 01:06:44
00019 suncat0008 pw.x -npool 4 -i  Done                     04/17/2018 01:06:44
00020 suncat0008 pw.x -npool 4 -i  Done                     04/17/2018 01:06:44
00021 suncat0008 pw.x -npool 4 -i  Done                     04/17/2018 01:06:44
00022 suncat0008 pw.x -npool 4 -i  Done                     04/17/2018 01:06:44
00023 suncat0008 pw.x -npool 4 -i  Done                     04/17/2018 01:06:44
00024 suncat0164 pw.x -npool 4 -i  Done                     04/17/2018 01:06:44
00025 suncat0164 pw.x -npool 4 -i  Done                     04/17/2018 01:06:44
00026 suncat0164 pw.x -npool 4 -i  Done                     04/17/2018 01:06:44
00027 suncat0164 pw.x -npool 4 -i  Done                     04/17/2018 01:06:44
00028 suncat0164 pw.x -npool 4 -i  Done                     04/17/2018 01:06:44
00029 suncat0164 pw.x -npool 4 -i  Done                     04/17/2018 01:06:44
00030 suncat0164 pw.x -npool 4 -i  Done                     04/17/2018 01:06:44
00031 suncat0164 pw.x -npool 4 -i  Done                     04/17/2018 01:06:44