     Program PWSCF v.5.1rc2 (svn rev. 11289) starts on 16Apr2018 at 10: 3: 7

     Current dimensions of program PWSCF are:
     Max number of different atomic species (ntypx) = 10
     Max number of k-points (npk) =  40000
     Max angular momentum in pseudopotentials (lmaxx) =  3
     Presently stress not available with electric field

     IMPORTANT: XC functional enforced from input :
     Exchange-correlation      = BEEF-VDW ( 1  4 27 13 2)
     Any further DFT definition will be discarded
     Please, verify this is what you really want

     Subspace diagonalization in iterative solution of the eigenvalue problem:
     a serial algorithm will be used

     bravais-lattice index     =            0
     lattice parameter (alat)  =       1.8897  a.u.
     unit-cell volume          =    5174.6160 (a.u.)^3
     number of atoms/cell      =           14
     number of atomic types    =            3
     number of electrons       =       235.00
     number of Kohn-Sham states=          127
     kinetic-energy cutoff     =      36.7493  Ry
     charge density cutoff     =     367.4932  Ry
     convergence threshold     =      1.0E-05
     mixing beta               =       0.3000
     number of iterations used =           10  plain     mixing
     Exchange-correlation      = BEEF-VDW ( 1  4 27 13 2)
     nstep                     =           50

     celldm(1)=   1.889726  celldm(2)=   0.000000  celldm(3)=   0.000000
     celldm(4)=   0.000000  celldm(5)=   0.000000  celldm(6)=   0.000000

     crystal axes: (cart. coord. in units of alat)
               a(1) = (   5.966546   0.000000   0.000000 )
               a(2) = (   2.983273   5.167181   0.000000 )
               a(3) = (   0.000000   0.000000  24.871665 )

     reciprocal axes: (cart. coord. in units 2 pi/alat)
               b(1) = (  0.167601 -0.096765  0.000000 )
               b(2) = (  0.000000  0.193529  0.000000 )
               b(3) = (  0.000000  0.000000  0.040206 )

     PseudoPot. # 1 for Ag read from file:
     /u/if/mamunm/psp/gbrv1.5pbe/Ag.UPF
     MD5 check sum: d66d668201baa78d5eb5b04ef7011058
     Pseudo is Ultrasoft + core correction, Zval = 19.0
     Generated by new atomic code, or converted to UPF format
     Using radial grid of  887 points,  6 beta functions with:
                l(1) =   0
                l(2) =   0
                l(3) =   1
                l(4) =   1
                l(5) =   2
                l(6) =   2
     Q(r) pseudized with  6 coefficients,  rinner =    1.300   1.300   1.300
                                                       1.300   1.300

     PseudoPot. # 2 for S  read from file:
     /u/if/mamunm/psp/gbrv1.5pbe/S.UPF
     MD5 check sum: 88d86576ff6df21479756cfb9bdac1df
     Pseudo is Ultrasoft + core correction, Zval =  6.0
     Generated by new atomic code, or converted to UPF format
     Using radial grid of  907 points,  6 beta functions with:
                l(1) =   0
                l(2) =   0
                l(3) =   1
                l(4) =   1
                l(5) =   2
                l(6) =   2
     Q(r) pseudized with  8 coefficients,  rinner =    1.300   1.300   1.300
                                                       1.300   1.300

     PseudoPot. # 3 for H  read from file:
     /u/if/mamunm/psp/gbrv1.5pbe/H.UPF
     MD5 check sum: 761ae9a214b05c3daf00ab9f6b793d6f
     Pseudo is Ultrasoft, Zval =  1.0
     Generated by new atomic code, or converted to UPF format
     Using radial grid of  615 points,  2 beta functions with:
                l(1) =   0
                l(2) =   0
     Q(r) pseudized with  8 coefficients,  rinner =    0.700

     vdW kernel table read from file vdW_kernel_table
     MD5 check sum: 095c7af220d748ca6e76c0b4c6cfb241

     atomic species   valence    mass     pseudopotential
        Ag1           19.00   107.86820     Ag( 1.00)
        S1             6.00    32.06000     S ( 1.00)
        H1             1.00     1.00800     H ( 1.00)

     No symmetry found

   Cartesian axes

     site n.     atom                  positions (alat units)
         1           Ag1 tau(   1) = (   1.4916366   0.8611968  10.0000000  )
         2           Ag1 tau(   2) = (   4.4749098   0.8611968  10.0000000  )
         3           Ag1 tau(   3) = (   2.9832732   3.4447871  10.0000000  )
         4           Ag1 tau(   4) = (   5.9665464   3.4447871  10.0000000  )
         5           Ag1 tau(   5) = (   5.9665464   1.7223936  12.4358324  )
         6           Ag1 tau(   6) = (   2.9832732   1.7223936  12.4358324  )
         7           Ag1 tau(   7) = (   7.4581830   4.3059839  12.4358324  )
         8           Ag1 tau(   8) = (   4.4749098   4.3059839  12.4358324  )
         9           Ag1 tau(   9) = (   0.0000000   0.0000000  14.8716647  )
        10           Ag1 tau(  10) = (   2.9832732   0.0000000  14.8716647  )
        11           Ag1 tau(  11) = (   1.4916366   2.5835904  14.8716647  )
        12           Ag1 tau(  12) = (   4.4749098   2.5835904  14.8716647  )
        13           S1  tau(  13) = (   1.4916366   0.0000000  16.7466647  )
        14           H1  tau(  14) = (   1.4916366   0.0000000  17.9966647  )

     number of k points=    20  Fermi-Dirac smearing, width (Ry)=  0.0110
                       cart. coord. in units 2pi/alat
        k(    1) = (   0.0000000   0.0000000   0.0000000), wk =   0.0555556
        k(    2) = (   0.0000000   0.0322549   0.0000000), wk =   0.1111111
        k(    3) = (   0.0000000   0.0645097   0.0000000), wk =   0.1111111
        k(    4) = (   0.0000000  -0.0967646   0.0000000), wk =   0.0555556
        k(    5) = (   0.0279335  -0.0161274   0.0000000), wk =   0.1111111
        k(    6) = (   0.0279335   0.0161274   0.0000000), wk =   0.1111111
        k(    7) = (   0.0279335   0.0483823   0.0000000), wk =   0.1111111
        k(    8) = (   0.0279335  -0.1128920   0.0000000), wk =   0.1111111
        k(    9) = (   0.0279335  -0.0806371   0.0000000), wk =   0.1111111
        k(   10) = (   0.0279335  -0.0483823   0.0000000), wk =   0.1111111
        k(   11) = (   0.0558670  -0.0322549   0.0000000), wk =   0.1111111
        k(   12) = (   0.0558670   0.0000000   0.0000000), wk =   0.1111111
        k(   13) = (   0.0558670   0.0322549   0.0000000), wk =   0.1111111
        k(   14) = (   0.0558670  -0.1290194   0.0000000), wk =   0.1111111
        k(   15) = (   0.0558670  -0.0967646   0.0000000), wk =   0.1111111
        k(   16) = (   0.0558670  -0.0645097   0.0000000), wk =   0.1111111
        k(   17) = (  -0.0838006   0.0483823   0.0000000), wk =   0.0555556
        k(   18) = (  -0.0838006   0.0806371   0.0000000), wk =   0.1111111
        k(   19) = (  -0.0838006   0.1128920   0.0000000), wk =   0.1111111
        k(   20) = (  -0.0838006  -0.0483823   0.0000000), wk =   0.0555556

     Largest allocated arrays     est. size (Mb)     dimensions
     Largest temporary arrays     est. size (Mb)     dimensions

     Initial potential from superposition of free atoms
     Check: negative starting charge=   -0.001895

     starting charge  228.99939, renormalised to  235.00000

     negative rho (up, down):  1.944E-03 0.000E+00

     *
     * You are using vdW-DF for exchange-correlation in this calculation.
     * Please cite the following three references that made this development
     * possible:
     *
     *   M. Dion, H. Rydberg, E. Schroder, D. C. Langreth, and
     *   B. I. Lundqvist, Phys. Rev. Lett. 92, 246401 (2004).
     *
     *   T. Thonhauser, V. R. Cooper, S. Li, A. Puzder, P. Hyldgaard, and
     *   D. C. Langreth, Phys. Rev. B 76, 125112 (2007).
     *
     *   G. Roman-Perez and J. M. Soler, Phys. Rev. Lett. 103, 096102 (2009).
     *
     *
     * If you are using vdW-DF2, please also cite:
     *
     *   K. Lee, E. D. Murray, L. Kong, B. I. Lundqvist, and
     *   D. C. Langreth, Phys. Rev. B 82, 081101(R) (2010).
     *
     *
     * If you are calculating the stress with vdW-DF, please also cite:
     *
     *   R. Sabatini, E. Kucukbenli, B. Kolb, T. Thonhauser, and
     *   S. de Gironcoli, J. Phys.: Condens. Matter 24, 424209 (2012).
     *

     Carrying out vdW-DF run using the following parameters:

     Nqs =      20    Nr_points =    1024   r_max =   100.000
     q_mesh =
               0.00001000     0.04494208     0.09755937     0.15916263
               0.23128650     0.31572767     0.41458969     0.53033537
               0.66584808     0.82450364     1.01025438     1.22772762
               1.48234092     1.78043706     2.12944203     2.53805004
               3.01644009     3.57652955     4.23227104     5.00000000

     Gradients computed in reciprocal space

     Adding external electric field

     Computed dipole along edir(3) :
        Dipole               -1.5557 Ry au,         -3.9543 Debye
        Dipole field         -0.0038 Ry au

        Potential amp.        0.3463 Ry
        Total length         45.8256 bohr

     Starting wfc are  161 randomized atomic wfcs

     Self-consistent Calculation

     iteration #  1     ecut=    36.75 Ry     beta=0.30
     Davidson diagonalization with overlap
     ethr =  1.00E-02,  avg # of iterations =  5.7

[...]

     total energy              =   -3570.16639261 Ry
     Harris-Foulkes estimate   =   -3588.37631463 Ry
     estimated scf accuracy    <      39.07755502 Ry

[...]

     End of self-consistent calculation

          k = 0.0000 0.0000 0.0000 ( 19435 PWs)   bands (ev):

   -90.5507 -90.5470 -90.4730 -90.4675 -90.4660 -90.4593 -90.3359 -90.3183
   -90.2741 -90.2689 -90.2677 -90.2486 -54.1186 -54.0675 -54.0515 -54.0422
   -54.0330 -54.0191 -54.0094 -54.0026 -53.9938 -53.9694 -53.9622 -53.9567
   -53.9559 -53.9459 -53.9437 -53.9420 -53.9226 -53.9215 -53.8668 -53.8404
   -53.8240 -53.8149 -53.8133 -53.8088 -53.8082 -53.8076 -53.7906 -53.7544
   -53.7534 -53.7503 -53.7495 -53.7474 -53.7470 -53.7278 -53.7269 -53.7239
   -12.3892  -6.0938  -4.8362  -4.3182  -4.2555  -4.2372  -4.2337  -4.1622
    -4.1376  -4.0908  -4.0740  -4.0560  -4.0290  -3.9273  -3.8732  -3.8520
    -3.7938  -3.4026  -3.3915  -3.2838  -3.1742  -3.1592  -3.1188  -3.0946
    -3.0507  -3.0425  -3.0112  -2.9774  -2.9360  -2.8765  -2.8361  -2.8010
    -2.7969  -2.7768  -2.3599  -2.3464  -2.3360  -2.2886  -2.2588  -2.2405
    -2.2184  -2.1055  -2.0847  -2.0477  -1.9908  -1.9854  -1.8132  -1.7847
    -1.7603  -1.7404  -1.7267  -1.6892  -1.6874  -1.6669  -1.6277  -1.5823
    -1.5644  -1.5380  -1.5170  -1.4890  -1.4771  -1.3648  -1.3592  -1.3577
    -0.4052  -0.0767   0.7434   1.9997   2.0224   2.1314   2.4160   2.7468
     2.9262   3.0342   3.1969   3.3545   3.5618   4.9301   5.1353

[...]

          k =-0.0838 0.0484 0.0000 ( 19500 PWs)   bands (ev):

[...]

     the Fermi energy is     1.5615 ev

!    total energy              =   -3585.42601470 Ry
     Harris-Foulkes estimate   =   -3585.42601731 Ry
     estimated scf accuracy    <       0.00000229 Ry

     The total energy is the sum of the following terms:

     one-electron contribution =  -26147.78632807 Ry
     hartree contribution      =   13069.14318886 Ry
     xc contribution           =    -370.66064198 Ry
     ewald contribution        =    9863.90332468 Ry
     electric field correction =       0.00000771 Ry
     smearing contrib. (-TS)   =      -0.02556589 Ry

     convergence has been achieved in  15 iterations

 BEEF-vdW xc energy contributions
           1 :   -320.991676609940
           2 :    290.344865813879
           3 :   -239.248556488843
           4 :    183.126178410556
           5 :   -135.958487555095
           6 :    105.284128970184
           7 :   -90.8087326343434
           8 :    86.6150768379458
           9 :   -85.3042266688402
          10 :    81.7224034844760
          11 :   -74.5725526013283
          12 :    65.6111899140129
          13 :   -57.4879893239837
          14 :    51.7874210905218
          15 :   -48.3458943353788
          16 :    45.8883431055591
          17 :   -43.2156916525478
          18 :    40.0074784074896
          19 :   -36.7853432916675
          20 :    34.2538166961070
          21 :   -32.6317168011997
          22 :    31.4757111255010
          23 :   -30.0613467062299
          24 :    27.9685540156357
          25 :   -25.4135000957978
          26 :    23.0915328406677
          27 :   -21.6704578306054
          28 :    21.3141903837738
          29 :   -21.5771323135926
          30 :    21.7252796438711
          31 :   -32.1923812053606
          32 :   -23.3677642359521

     Forces acting on atoms (Ry/au):

     negative rho (up, down):  1.951E-03 0.000E+00
     atom    1 type  1   force =    -0.00000047   -0.00043373    0.00090167
     atom    2 type  1   force =     0.00000052    0.00022254   -0.00029080
     atom    3 type  1   force =     0.00042789    0.00012793    0.00099521
     atom    4 type  1   force =    -0.00042704    0.00012685    0.00099713
     atom    5 type  1   force =     0.00042645   -0.00116268    0.00320861
     atom    6 type  1   force =    -0.00042676   -0.00116212    0.00320960
     atom    7 type  1   force =     0.00000029    0.00150697    0.00836360
     atom    8 type  1   force =    -0.00000060    0.00117366   -0.00109918
     atom    9 type  1   force =    -0.04238276   -0.00042678   -0.02737193
     atom   10 type  1   force =     0.04238278   -0.00042692   -0.02737095
     atom   11 type  1   force =     0.00000011    0.00401798   -0.00498210
     atom   12 type  1   force =    -0.00000015   -0.00382006   -0.00539965
     atom   13 type  2   force =    -0.00000017    0.00049385   -0.08032222
     atom   14 type  3   force =    -0.00000009   -0.00023749    0.12916101

     Total force =     0.168258     Total SCF correction =     0.007449

     entering subroutine stress ...

     negative rho (up, down):  1.951E-03 0.000E+00
          total   stress  (Ry/bohr**3)                   (kbar)     P=   -0.01
  -0.00000631  -0.00000000  -0.00000000         -0.93     -0.00     -0.00
  -0.00000000  -0.00004784  -0.00000031         -0.00     -7.04     -0.05
  -0.00000000  -0.00000031   0.00005403         -0.00     -0.05      7.95

     BFGS Geometry Optimization

     number of scf cycles    =   1
     number of bfgs steps    =   0

     energy   new            =   -3585.4260147005 Ry

     new trust radius        =       0.1291612309 bohr
     new conv_thr            =       0.0000099958 Ry

ATOMIC_POSITIONS (crystal)
Ag1      0.166666667   0.166666667   0.402063960    0   0   0
Ag1      0.666666667   0.166666667   0.402063960    0   0   0
Ag1      0.166666667   0.666666667   0.402063960    0   0   0
Ag1      0.666666667   0.666666667   0.402063960    0   0   0
Ag1      0.833333333   0.333333333   0.500000000    0   0   0
Ag1      0.333333333   0.333333333   0.500000000    0   0   0
Ag1      0.833333333   0.833333333   0.500000000    0   0   0
Ag1      0.333333333   0.833333333   0.500000000    0   0   0
Ag1     -0.003737104  -0.000043707   0.597353666
Ag1      0.503780819  -0.000043722   0.597353687
Ag1     -0.000205734   0.500411487   0.597830039
Ag1      0.500195595   0.499608783   0.597821155
S1       0.249974697   0.000050576   0.671614072
H1       0.250012153  -0.000024321   0.726329097

     Writing output data file calc.save
     Check: negative starting charge=   -0.001895
     NEW-OLD atomic charge density approx. for the potential
     Check: negative starting charge=   -0.001889

[...]

     energy   old            =   -3585.4260147005 Ry
     energy   new            =   -3585.4388739563 Ry

     CASE: energy  _new < energy  _old

[...]

     Threshold (ethr) on eigenvalues was too large:
     Diagonalizing with lowered threshold

     Davidson diagonalization with overlap
     ethr =  1.91E-08,  avg # of iterations =  1.9

[...]

     Total force =     0.008283     Total SCF correction =     0.000541

[...]

     Total force =     0.007433     Total SCF correction =     0.000777
     SCF correction compared to forces is large: reduce conv_thr to get better values

[...]

     number of scf cycles    =   9
     number of bfgs steps    =   8

     energy   old            =   -3585.4507743726 Ry
     energy   new            =   -3585.4509229807 Ry

     CASE: energy  _new < energy  _old

     new trust radius        =       0.0276432907 bohr
     new conv_thr            =       0.0000001000 Ry

ATOMIC_POSITIONS (crystal)
Ag1      0.166666667   0.166666667   0.402063960    0   0   0
Ag1      0.666666667   0.166666667   0.402063960    0   0   0
Ag1      0.166666667   0.666666667   0.402063960    0   0   0
Ag1      0.666666667   0.666666667   0.402063960    0   0   0
Ag1      0.833333333   0.333333333   0.500000000    0   0   0
Ag1      0.333333333   0.333333333   0.500000000    0   0   0
Ag1      0.833333333   0.833333333   0.500000000    0   0   0
Ag1      0.333333333   0.833333333   0.500000000    0   0   0
Ag1     -0.016887053  -0.000864697   0.594757023
Ag1      0.517751776  -0.000864715   0.594757041
Ag1      0.003700882   0.492598228   0.597263801
Ag1      0.496431943   0.507136107   0.597005444
S1       0.248994006   0.002011869   0.674875665
H1       0.250351334  -0.000702687   0.729310682

     Writing output data file calc.save
     Check: negative starting charge=   -0.001903
     NEW-OLD atomic charge density approx. for the potential
     Check: negative starting charge=   -0.001906

[...]

     Self-consistent Calculation

[...]

     Threshold (ethr) on eigenvalues was too large:
     Diagonalizing with lowered threshold

     Davidson diagonalization with overlap
     ethr =  4.38E-08,  avg # of iterations =  1.9

[...]

     total energy              =   -3585.45104421 Ry
     Harris-Foulkes estimate   =   -3585.45104414 Ry
     estimated scf accuracy    <       0.00000018 Ry

     iteration #  7     ecut=    36.75 Ry     beta=0.30
     Davidson diagonalization with overlap
     ethr =  7.59E-11,  avg # of iterations =  2.0

[...]

     negative rho (up, down):  1.965E-03 0.000E+00

     Adding external electric field

     Computed dipole along edir(3) :
        Dipole               -0.0086 Ry au,         -0.0220 Debye
        Dipole field         -0.0000 Ry au

        Potential amp.        0.0019 Ry
        Total length         45.8256 bohr

     End of self-consistent calculation

[...]

          k = 0.0559-0.0645 0.0000 ( 19479 PWs)   bands (ev):

[...]

          k =-0.0838-0.0484 0.0000 ( 19500 PWs)   bands (ev):

   -90.6041 -90.5882 -90.5878 -90.5763 -90.5420 -90.5376 -90.4205 -90.3976
   -90.3750 -90.3744 -90.3705 -90.3579 -54.1260 -54.1149 -54.1086 -54.1012
   -54.0930 -54.0914 -54.0852 -54.0848 -54.0832 -54.0819 -54.0701 -54.0617
   -54.0493 -54.0429 -54.0397 -54.0374 -54.0049 -54.0005 -53.9346 -53.9253
   -53.9141 -53.9037 -53.9023 -53.8979 -53.8922 -53.8780 -53.8770 -53.8725
   -53.8683 -53.8620 -53.8543 -53.8535 -53.8501 -53.8472 -53.8411 -53.8339
   -11.6979  -5.1572  -4.1859  -4.0904  -4.0108  -3.9628  -3.9535  -3.9052
    -3.8660  -3.8103  -3.7234  -3.7059  -3.6816  -3.6717  -3.6090  -3.5872
    -3.5086  -3.4921  -3.3733  -3.2809  -3.2666  -3.2520  -3.2408  -3.2200
    -3.1491  -3.1055  -3.0213  -2.9949  -2.9375  -2.8644  -2.8479  -2.8322
    -2.8008  -2.7828  -2.7454  -2.6199  -2.5985  -2.5796  -2.5723  -2.5540
    -2.5346  -2.5088  -2.4779  -2.4132  -2.3777  -2.3727  -2.3560  -2.3123
    -2.3025  -2.2829  -2.2465  -2.2165  -2.2095  -2.0943  -2.0757  -2.0653
    -2.0184  -1.8778  -1.8014  -1.7521  -1.7448  -1.6777  -1.6131  -1.5763
    -1.2434  -0.2610  -0.2216  -0.0667   1.1763   1.2722   2.0988   2.2784
     2.7425   2.7704   4.4624   4.7525   5.0013   5.0576   6.0080

     the Fermi energy is     1.4528 ev

!    total energy              =   -3585.45104425 Ry
     Harris-Foulkes estimate   =   -3585.45104423 Ry
     estimated scf accuracy    <       0.00000003 Ry

     The total energy is the sum of the following terms:

     one-electron contribution =  -26286.04368654 Ry
     hartree contribution      =   13137.73250818 Ry
     xc contribution           =    -370.58114442 Ry
     ewald contribution        =    9933.46712713 Ry
     electric field correction =       0.00000018 Ry
     smearing contrib. (-TS)   =      -0.02584878 Ry

     convergence has been achieved in   7 iterations

 BEEF-vdW xc energy contributions
           1 :   -320.917176519039
           2 :    290.265840364358
           3 :   -239.163267555746
           4 :    183.034209454571
           5 :   -135.860304917878
           6 :    105.183924830149
           7 :   -90.7183721721703
           8 :    86.5540719428402
           9 :   -85.2913008843278
          10 :    81.7623887129020
          11 :   -74.6489003512832
          12 :    65.6915244445021
          13 :   -57.5414537185222
          14 :    51.8026267277232
          15 :   -48.3369677102299
          16 :    45.8841990633590
          17 :   -43.2383871390896
          18 :    40.0549874090291
          19 :   -36.8317977432864
          20 :    34.2678225969272
          21 :   -32.5998719440590
          22 :    31.4134061012930
          23 :   -30.0024394986916
          24 :    27.9413433366483
          25 :   -25.4207521950599
          26 :    23.1102251406907
          27 :   -21.6721013658087
          28 :    21.2904535306848
          29 :   -21.5501552276962
          30 :    21.7328399339193
          31 :   -32.1877358360049
          32 :   -23.3610312808840

     Forces acting on atoms (Ry/au):

     negative rho (up, down):  1.965E-03 0.000E+00
     atom    1 type  1   force =     0.00000000   -0.00028385    0.00078991
     atom    2 type  1   force =     0.00000000    0.00030160   -0.00069598
     atom    3 type  1   force =     0.00030318    0.00000908    0.00064376
     atom    4 type  1   force =    -0.00030318    0.00000908    0.00064377
     atom    5 type  1   force =     0.00044140    0.00058231   -0.00022176
     atom    6 type  1   force =    -0.00044141    0.00058229   -0.00022174
     atom    7 type  1   force =    -0.00000001   -0.00280604   -0.00278861
     atom    8 type  1   force =     0.00000001    0.00175108   -0.00263902
     atom    9 type  1   force =     0.00028809   -0.00025001    0.00177336
     atom   10 type  1   force =    -0.00028812   -0.00024999    0.00177335
     atom   11 type  1   force =     0.00000000   -0.00079270    0.00020850
     atom   12 type  1   force =     0.00000000    0.00030460   -0.00008224
     atom   13 type  2   force =     0.00000003    0.00140431   -0.00088485
     atom   14 type  3   force =     0.00000000   -0.00056176    0.00170155

     Total force =     0.003649     Total SCF correction =     0.000659
     SCF correction compared to forces is large: reduce conv_thr to get better values

     entering subroutine stress ...

     negative rho (up, down):  1.965E-03 0.000E+00
          total   stress  (Ry/bohr**3)                   (kbar)     P=   -3.43
  -0.00000915  -0.00000000   0.00000000         -1.35     -0.00      0.00
  -0.00000000  -0.00004430   0.00000017         -0.00     -6.52      0.03
   0.00000000   0.00000017  -0.00001647          0.00      0.03     -2.42

     bfgs converged in  10 scf cycles and   9 bfgs steps
     (criteria: energy <  1.0E+00, force <  1.9E-03)

     End of BFGS Geometry Optimization

     Final energy   =   -3585.4510442452 Ry
Begin final coordinates

ATOMIC_POSITIONS (crystal)
Ag1      0.166666667   0.166666667   0.402063960    0   0   0
Ag1      0.666666667   0.166666667   0.402063960    0   0   0
Ag1      0.166666667   0.666666667   0.402063960    0   0   0
Ag1      0.666666667   0.666666667   0.402063960    0   0   0
Ag1      0.833333333   0.333333333   0.500000000    0   0   0
Ag1      0.333333333   0.333333333   0.500000000    0   0   0
Ag1      0.833333333   0.833333333   0.500000000    0   0   0
Ag1      0.333333333   0.833333333   0.500000000    0   0   0
Ag1     -0.016887053  -0.000864697   0.594757023
Ag1      0.517751776  -0.000864715   0.594757041
Ag1      0.003700882   0.492598228   0.597263801
Ag1      0.496431943   0.507136107   0.597005444
S1       0.248994006   0.002011869   0.674875665
H1       0.250351334  -0.000702687   0.729310682
End final coordinates

     Writing output data file calc.save

     General routines

     Parallel routines

   This run was terminated on:  11: 1:51  16Apr2018

   JOB DONE.
Job  /afs/slac/g/suncat/bin/suncat-tsmpirun -x LD_LIBRARY_PATH -wdir /scratch/qe103533_OcaCS pw.x -npool 4 -in pw.inp

TID   HOST_NAME   COMMAND_LINE            STATUS            TERMINATION_TIME
00000 suncat0056 pw.x -npool 4 -i  Done                     04/16/2018 11:01:51
00001 suncat0056 pw.x -npool 4 -i  Done                     04/16/2018 11:01:51
00002 suncat0056 pw.x -npool 4 -i  Done                     04/16/2018 11:01:51
00003 suncat0056 pw.x -npool 4 -i  Done                     04/16/2018 11:01:51
00004 suncat0056 pw.x -npool 4 -i  Done                     04/16/2018 11:01:51
00005 suncat0056 pw.x -npool 4 -i  Done                     04/16/2018 11:01:51
00006 suncat0056 pw.x -npool 4 -i  Done                     04/16/2018 11:01:51
00007 suncat0056 pw.x -npool 4 -i  Done                     04/16/2018 11:01:51
00008 suncat0054 pw.x -npool 4 -i  Done                     04/16/2018 11:01:51
00009 suncat0054 pw.x -npool 4 -i  Done                     04/16/2018 11:01:51
00010 suncat0054 pw.x -npool 4 -i  Done                     04/16/2018 11:01:51
00011 suncat0054 pw.x -npool 4 -i  Done                     04/16/2018 11:01:51
00012 suncat0054 pw.x -npool 4 -i  Done                     04/16/2018 11:01:51
00013 suncat0054 pw.x -npool 4 -i  Done                     04/16/2018 11:01:51
00014 suncat0054 pw.x -npool 4 -i  Done                     04/16/2018 11:01:51
00015 suncat0054 pw.x -npool 4 -i  Done                     04/16/2018 11:01:51
00016 suncat0193 pw.x -npool 4 -i  Done                     04/16/2018 11:01:51
00017 suncat0193 pw.x -npool 4 -i  Done                     04/16/2018 11:01:51
00018 suncat0193 pw.x -npool 4 -i  Done                     04/16/2018 11:01:51
00019 suncat0193 pw.x -npool 4 -i  Done                     04/16/2018 11:01:51
00020 suncat0193 pw.x -npool 4 -i  Done                     04/16/2018 11:01:51
00021 suncat0193 pw.x -npool 4 -i  Done                     04/16/2018 11:01:51
00022 suncat0193 pw.x -npool 4 -i  Done                     04/16/2018 11:01:51
00023 suncat0193 pw.x -npool 4 -i  Done                     04/16/2018 11:01:51
00024 suncat0191 pw.x -npool 4 -i  Done                     04/16/2018 11:01:51
00025 suncat0191 pw.x -npool 4 -i  Done                     04/16/2018 11:01:51
00026 suncat0191 pw.x -npool 4 -i  Done                     04/16/2018 11:01:51
00027 suncat0191 pw.x -npool 4 -i  Done                     04/16/2018 11:01:51
00028 suncat0191 pw.x -npool 4 -i  Done                     04/16/2018 11:01:51
00029 suncat0191 pw.x -npool 4 -i  Done                     04/16/2018 11:01:51
00030 suncat0191 pw.x -npool 4 -i  Done                     04/16/2018 11:01:51
00031 suncat0191 pw.x -npool 4 -i  Done                     04/16/2018 11:01:51