     Program PWSCF v.5.1rc2 (svn rev. 11289) starts on  2May2018 at 15:57:35

     Current dimensions of program PWSCF are:
     Max number of different atomic species (ntypx) = 10
     Max number of k-points (npk) =  40000
     Max angular momentum in pseudopotentials (lmaxx) =  3
     Presently stress not available with electric field

     IMPORTANT: XC functional enforced from input :
     Exchange-correlation      = BEEF-VDW ( 1  4 27 13 2)
     Any further DFT definition will be discarded
     Please, verify this is what you really want

     Subspace diagonalization in iterative solution of the eigenvalue problem:
     a serial algorithm will be used

     bravais-lattice index     =            0
     lattice parameter (alat)  =       1.8897  a.u.
     unit-cell volume          =    4301.6107 (a.u.)^3
     number of atoms/cell      =           13
     number of atomic types    =            2
     number of electrons       =       184.00
     number of Kohn-Sham states=          102
     kinetic-energy cutoff     =      36.7493  Ry
     charge density cutoff     =     367.4932  Ry
     convergence threshold     =      1.0E-05
     mixing beta               =       0.3000
     number of iterations used =           10  plain     mixing
     Exchange-correlation      = BEEF-VDW ( 1  4 27 13 2)
     nstep                     =           50

     celldm(1)=   1.889726  celldm(2)=   0.000000  celldm(3)=   0.000000
     celldm(4)=   0.000000  celldm(5)=   0.000000  celldm(6)=   0.000000

     crystal axes: (cart. coord. in units of alat)
               a(1) = (   5.483647   0.000000   0.000000 )
               a(2) = (   2.741823   4.748977   0.000000 )
               a(3) = (   0.000000   0.000000  24.477379 )

     reciprocal axes: (cart. coord. in units 2 pi/alat)
               b(1) = (  0.182360 -0.105286  0.000000 )
               b(2) = (  0.000000  0.210572  0.000000 )
               b(3) = (  0.000000  0.000000  0.040854 )

     PseudoPot. # 1 for Tc read from file:
     /u/if/mamunm/psp/gbrv1.5pbe/Tc.UPF
     MD5 check sum: 9eb49e5b028550b2339a02317eb7b844
     Pseudo is Ultrasoft + core correction, Zval = 15.0
     Generated by new atomic code, or converted to UPF format
     Using radial grid of  965 points,  6 beta functions with:
                l(1) =   0
                l(2) =   0
                l(3) =   1
                l(4) =   1
                l(5) =   2
                l(6) =   2
     Q(r) pseudized with  8 coefficients,  rinner =    1.300   1.300   1.300
                                                       1.300   1.300

     PseudoPot. # 2 for C  read from file:
     /u/if/mamunm/psp/gbrv1.5pbe/C.UPF
     MD5 check sum: d1aef80898a10debaa0f26306b886e00
     Pseudo is Ultrasoft + core correction, Zval =  4.0
     Generated by new atomic code, or converted to UPF format
     Using radial grid of  721 points,  4 beta functions with:
                l(1) =   0
                l(2) =   0
                l(3) =   1
                l(4) =   1
     Q(r) pseudized with  8 coefficients,  rinner =    1.100   1.100   1.100

     vdW kernel table read from file vdW_kernel_table
     MD5 check sum: 095c7af220d748ca6e76c0b4c6cfb241

     atomic species   valence    mass     pseudopotential
        Tc1           15.00    97.90721     Tc( 1.00)
        C1             4.00    12.01100     C ( 1.00)

     No symmetry found

   Cartesian axes

     site n.     atom                  positions (alat units)
         1           Tc1 tau(   1) = (   1.3709117   0.7914962  10.0000000  )
         2           Tc1 tau(   2) = (   4.1127351   0.7914962  10.0000000  )
         3           Tc1 tau(   3) = (   2.7418234   3.1659850  10.0000000  )
         4           Tc1 tau(   4) = (   5.4836469   3.1659850  10.0000000  )
         5           Tc1 tau(   5) = (   5.4836469   1.5829925  12.2386895  )
         6           Tc1 tau(   6) = (   2.7418234   1.5829925  12.2386895  )
         7           Tc1 tau(   7) = (   6.8545586   3.9574812  12.2386895  )
         8           Tc1 tau(   8) = (   4.1127351   3.9574812  12.2386895  )
         9           Tc1 tau(   9) = (   0.0000000   0.0000000  14.4773789  )
        10           Tc1 tau(  10) = (   2.7418234   0.0000000  14.4773789  )
        11           Tc1 tau(  11) = (   1.3709117   2.3744887  14.4773789  )
        12           Tc1 tau(  12) = (   4.1127351   2.3744887  14.4773789  )
        13           C1  tau(  13) = (   0.0000000   0.0000000  16.3728789  )

     number of k points=    20  Fermi-Dirac smearing, width (Ry)=  0.0110
                       cart. coord. in units 2pi/alat
        k(    1) = (   0.0000000   0.0000000   0.0000000), wk =   0.0555556
        k(    2) = (   0.0000000   0.0350953   0.0000000), wk =   0.1111111
        k(    3) = (   0.0000000   0.0701905   0.0000000), wk =   0.1111111
        k(    4) = (   0.0000000  -0.1052858   0.0000000), wk =   0.0555556
        k(    5) = (   0.0303934  -0.0175476   0.0000000), wk =   0.1111111
        k(    6) = (   0.0303934   0.0175476   0.0000000), wk =   0.1111111
        k(    7) = (   0.0303934   0.0526429   0.0000000), wk =   0.1111111
        k(    8) = (   0.0303934  -0.1228335   0.0000000), wk =   0.1111111
        k(    9) = (   0.0303934  -0.0877382   0.0000000), wk =   0.1111111
        k(   10) = (   0.0303934  -0.0526429   0.0000000), wk =   0.1111111
        k(   11) = (   0.0607868  -0.0350953   0.0000000), wk =   0.1111111
        k(   12) = (   0.0607868   0.0000000   0.0000000), wk =   0.1111111
        k(   13) = (   0.0607868   0.0350953   0.0000000), wk =   0.1111111
        k(   14) = (   0.0607868  -0.1403811   0.0000000), wk =   0.1111111
        k(   15) = (   0.0607868  -0.1052858   0.0000000), wk =   0.1111111
        k(   16) = (   0.0607868  -0.0701905   0.0000000), wk =   0.1111111
        k(   17) = (  -0.0911802   0.0526429   0.0000000), wk =   0.0555556
        k(   18) = (  -0.0911802   0.0877382   0.0000000), wk =   0.1111111
        k(   19) = (  -0.0911802   0.1228335   0.0000000), wk =   0.1111111
        k(   20) = (  -0.0911802  -0.0526429   0.0000000), wk =   0.0555556

     Largest allocated arrays     est. size (Mb)     dimensions
     Largest temporary arrays     est. size (Mb)     dimensions

     Check: negative/imaginary core charge=   -0.000022    0.000000

     Initial potential from superposition of free atoms
     Check: negative starting charge=   -1.504811

     starting charge  171.99963, renormalised to  184.00000

     negative rho (up, down):  1.610E+00 0.000E+00

     *
     * You are using vdW-DF for exchange-correlation in this calculation.
     * Please cite the following three references that made this development
     * possible:
     *
     *   M. Dion, H. Rydberg, E. Schroder, D. C. Langreth, and
     *   B. I. Lundqvist, Phys. Rev. Lett. 92, 246401 (2004).
     *
     *   T. Thonhauser, V. R. Cooper, S. Li, A. Puzder, P. Hyldgaard, and
     *   D. C. Langreth, Phys. Rev. B 76, 125112 (2007).
     *
     *   G. Roman-Perez and J. M. Soler, Phys. Rev. Lett. 103, 096102 (2009).
     *
     *
     * If you are using vdW-DF2, please also cite:
     *
     *   K. Lee, E. D. Murray, L. Kong, B. I. Lundqvist, and
     *   D. C. Langreth, Phys. Rev. B 82, 081101(R) (2010).
     *
     *
     * If you are calculating the stress with vdW-DF, please also cite:
     *
     *   R. Sabatini, E. Kucukbenli, B. Kolb, T. Thonhauser, and
     *   S. de Gironcoli, J. Phys.: Condens. Matter 24, 424209 (2012).
     *

     Carrying out vdW-DF run using the following parameters:

     Nqs =      20    Nr_points =    1024   r_max =   100.000
     q_mesh =
               0.00001000     0.04494208     0.09755937     0.15916263
               0.23128650     0.31572767     0.41458969     0.53033537
               0.66584808     0.82450364     1.01025438     1.22772762
               1.48234092     1.78043706     2.12944203     2.53805004
               3.01644009     3.57652955     4.23227104     5.00000000

     Gradients computed in reciprocal space

     Adding external electric field

     Computed dipole along edir(3) :
        Dipole               -2.1800 Ry au,         -5.5409 Debye
        Dipole field         -0.0064 Ry au

        Potential amp.        0.5744 Ry
        Total length         45.0992 bohr

     Starting wfc are  160 randomized atomic wfcs

     Self-consistent Calculation

     iteration #  1     ecut=    36.75 Ry     beta=0.30
     Davidson diagonalization with overlap
     ethr =  1.00E-02,  avg # of iterations =  4.2

[...]

     total energy              =   -2032.80283222 Ry
     Harris-Foulkes estimate   =   -2117.49880549 Ry
     estimated scf accuracy    <     177.27021590 Ry

[...]

     End of self-consistent calculation

          k = 0.0000 0.0000 0.0000 ( 16073 PWs)   bands (ev):

   -65.1097 -64.9783 -64.9230 -64.9219 -64.8873 -64.8558 -64.7607 -64.7590
   -64.7575 -64.7475 -64.7346 -64.7339 -37.5442 -37.5438 -37.5225 -37.4312
   -37.3733 -37.3596 -37.3592 -37.2395 -37.2391 -37.2339 -36.9645 -36.9074
   -36.8690 -36.8685 -36.8361 -36.8148 -36.8145 -36.7955 -36.7835 -36.7827
   -36.6849 -36.6389 -36.6382 -36.5790 -36.5759 -36.5738 -36.5737 -36.5644
   -36.5638 -36.5209 -36.5206 -36.5200 -36.3627 -36.3627 -36.3299 -36.3298
    -6.7113  -4.2565  -3.0697  -3.0694  -3.0316  -2.9660  -2.9008  -2.5907
    -2.5905  -2.5561  -2.4521  -2.4519  -2.4177  -2.0747  -2.0745  -2.0683
    -1.1483  -1.1481  -0.8823  -0.1605  -0.1544  -0.1543   0.1623   0.3570
     0.4839   0.4840   0.7906   0.7908   0.8208   0.8210   0.8213   0.9009
     1.0455   1.0455   1.3841   1.3844   1.6896   1.6897   2.1846   2.4918
     2.5248   2.5250   2.5285   2.8736   2.8736   2.9184   3.2613   3.2615
     3.6391   3.6827   3.6828   3.9404   3.9408   4.2250

[...]

          k =-0.0912 0.0526 0.0000 ( 16164 PWs)   bands (ev):

[...]

     the Fermi energy is     2.1579 ev

!    total energy              =   -2114.70874322 Ry
     Harris-Foulkes estimate   =   -2114.70874956 Ry
     estimated scf accuracy    <       0.00000976 Ry

     The total energy is the sum of the following terms:

     one-electron contribution =  -18862.89432252 Ry
     hartree contribution      =    9430.11673307 Ry
     xc contribution           =    -400.38072939 Ry
     ewald contribution        =    7718.54166167 Ry
     electric field correction =       0.00023052 Ry
     smearing contrib. (-TS)   =      -0.09231657 Ry

     convergence has been achieved in  24 iterations

 BEEF-vdW xc energy contributions
           1 :   -350.735912818546
           2 :    322.429700553445
           3 :   -272.126543159472
           4 :    209.950428085378
           5 :   -146.657899234750
           6 :    90.6836028138428
           7 :   -46.5253623521814
           8 :    14.6512721185534
           9 :    7.25245689583772
          10 :   -22.4609091079191
          11 :    33.5533180259247
          12 :   -41.5542054525010
          13 :    45.9925963459291
          14 :   -45.6939674620473
          15 :    39.8155908851460
          16 :   -28.6637291906692
          17 :    13.9427908689424
          18 :    1.62248615161815
          19 :   -15.1101260770008
          20 :    24.2823850618781
          21 :   -28.1650078639856
          22 :    27.1107250943189
          23 :   -22.3982297414503
          24 :    15.5970413490950
          25 :   -8.01363907864572
          26 :   0.435079188210580
          27 :    6.78379705778622
          28 :   -13.4259339834415
          29 :    19.1192172842661
          30 :   -23.2267163398172
          31 :   -33.4537922097684
          32 :   -24.5482724414688

     Forces acting on atoms (Ry/au):

     negative rho (up, down):  1.588E+00 0.000E+00
     atom    1 type  1   force =    -0.00036449   -0.00025244    0.02794923
     atom    2 type  1   force =     0.00036345   -0.00028107    0.02795703
     atom    3 type  1   force =    -0.00002090    0.00047679    0.02805657
     atom    4 type  1   force =     0.00002176    0.00005666    0.04028378
     atom    5 type  1   force =     0.00013171    0.02132821   -0.01733417
     atom    6 type  1   force =    -0.00011607   -0.00000619    0.00128311
     atom    7 type  1   force =    -0.01846178   -0.01072522   -0.01726690
     atom    8 type  1   force =     0.01846630   -0.01058766   -0.01742145
     atom    9 type  1   force =    -0.00002701   -0.00005446    0.12273597
     atom   10 type  1   force =     0.00002388    0.00084260   -0.02827839
     atom   11 type  1   force =     0.00076880   -0.00037777   -0.02814253
     atom   12 type  1   force =    -0.00078718   -0.00041568   -0.02824185
     atom   13 type  2   force =     0.00000152   -0.00000378   -0.11158040

     Total force =     0.172933     Total SCF correction =     0.009290

     entering subroutine stress ...

     negative rho (up, down):  1.588E+00 0.000E+00
          total   stress  (Ry/bohr**3)                   (kbar)     P=  -35.68
  -0.00020652  -0.00000006   0.00000000        -30.38     -0.01      0.00
  -0.00000006  -0.00020658   0.00000001         -0.01    -30.39      0.00
   0.00000000   0.00000001  -0.00031461          0.00      0.00    -46.28

     BFGS Geometry Optimization

     number of scf cycles    =   1
     number of bfgs steps    =   0

     energy   new            =   -2114.7087432199 Ry

     new trust radius        =       0.1227359881 bohr
     new conv_thr            =       0.0000099958 Ry

ATOMIC_POSITIONS (crystal)
Tc1      0.166666667   0.166666667   0.408540475    0   0   0
Tc1      0.666666667   0.166666667   0.408540475    0   0   0
Tc1      0.166666667   0.666666667   0.408540475    0   0   0
Tc1      0.666666667   0.666666667   0.408540475    0   0   0
Tc1      0.833333333   0.333333333   0.500000000    0   0   0
Tc1      0.333333333   0.333333333   0.500000000    0   0   0
Tc1      0.833333333   0.833333333   0.500000000    0   0   0
Tc1      0.333333333   0.833333333   0.500000000    0   0   0
Tc1      0.000000428  -0.000006069   0.594112958
Tc1      0.499955359   0.000093891   0.590848174
Tc1      0.000095237   0.499957905   0.590851111
Tc1      0.499947196   0.499953681   0.590848964
C1       0.000000357  -0.000000421   0.666486112

     Writing output data file calc.save
     Check: negative starting charge=   -1.504811
     NEW-OLD atomic charge density approx. for the potential

     Check: negative/imaginary core charge=   -0.000022    0.000000
     Check: negative starting charge=   -1.510118

[...]

     iteration #  1     ecut=    36.75 Ry     beta=0.30
     Davidson diagonalization with overlap
     c_bands:  1 eigenvalues not converged
     c_bands:  1 eigenvalues not converged
     ethr =  1.00E-06,  avg # of iterations = 13.1

[...]

     energy   old            =   -2114.7087432199 Ry
     energy   new            =   -2114.7305365693 Ry

     CASE: energy  _new < energy  _old

[...]

     Total force =     0.005101     Total SCF correction =     0.000303

[...]

     number of scf cycles    =  12
     number of bfgs steps    =  11

     energy   old            =   -2114.7466944710 Ry
     energy   new            =   -2114.7470109468 Ry

     CASE: energy  _new < energy  _old

     new trust radius        =       0.0505495590 bohr
     new conv_thr            =       0.0000001000 Ry

ATOMIC_POSITIONS (crystal)
Tc1      0.166666667   0.166666667   0.408540475    0   0   0
Tc1      0.666666667   0.166666667   0.408540475    0   0   0
Tc1      0.166666667   0.666666667   0.408540475    0   0   0
Tc1      0.666666667   0.666666667   0.408540475    0   0   0
Tc1      0.833333333   0.333333333   0.500000000    0   0   0
Tc1      0.333333333   0.333333333   0.500000000    0   0   0
Tc1      0.833333333   0.833333333   0.500000000    0   0   0
Tc1      0.333333333   0.833333333   0.500000000    0   0   0
Tc1      0.000001309  -0.000001938   0.601419383
Tc1      0.500785139  -0.001571472   0.586215427
Tc1     -0.001572772   0.500785532   0.586207732
Tc1      0.500786012   0.500786598   0.586212661
C1       0.000003197  -0.000000646   0.671506874

     Writing output data file calc.save
     Check: negative starting charge=   -1.509217
     NEW-OLD atomic charge density approx. for the potential

     Check: negative/imaginary core charge=   -0.000022    0.000000
     Check: negative starting charge=   -1.507533

[...]

     Self-consistent Calculation

[...]

     total energy              =   -2114.74710992 Ry
     Harris-Foulkes estimate   =   -2114.74711002 Ry
     estimated scf accuracy    <       0.00000031 Ry

     iteration # 15     ecut=    36.75 Ry     beta=0.30
     Davidson diagonalization with overlap
     ethr =  1.71E-10,  avg # of iterations =  1.1

[...]

     negative rho (up, down):  1.590E+00 0.000E+00

     Adding external electric field

     Computed dipole along edir(3) :
        Dipole               -0.2961 Ry au,         -0.7527 Debye
        Dipole field         -0.0009 Ry au

        Potential amp.        0.0780 Ry
        Total length         45.0992 bohr

     End of self-consistent calculation

[...]

          k = 0.0608-0.0702 0.0000 ( 16203 PWs)   bands (ev):

[...]

          k =-0.0912-0.0526 0.0000 ( 16164 PWs)   bands (ev):

   -65.1312 -65.0963 -65.0350 -65.0189 -64.8677 -64.8543 -64.8091 -64.8047
   -64.7852 -64.7789 -64.7516 -64.5557 -37.5004 -37.4751 -37.4315 -37.3537
   -37.3476 -37.2907 -37.2447 -37.2174 -37.1575 -37.1146 -37.1063 -37.0450
   -36.8957 -36.8642 -36.8593 -36.8443 -36.8404 -36.8350 -36.8146 -36.8119
   -36.8071 -36.7876 -36.7650 -36.7592 -36.7458 -36.7366 -36.7091 -36.6732
   -36.6033 -36.5893 -36.5756 -36.5013 -36.4985 -36.4851 -36.4500 -36.3479
    -6.4626  -2.8513  -2.8162  -2.2739  -2.2064  -2.1211  -2.0470  -1.9112
    -1.8847  -1.6691  -1.6522  -1.5392  -1.4255  -1.2688  -1.2274  -1.1790
    -0.9914  -0.8335  -0.6677  -0.5796  -0.4528  -0.3651  -0.3073  -0.2739
    -0.0066   0.0257   0.3133   0.3790   0.4028   0.5868   0.6345   0.7533
     0.7729   0.8514   0.8612   0.9018   0.9173   1.0634   1.0704   1.1009
     1.1692   1.5670   1.8097   1.8989   1.9746   2.1412   2.1532   2.3447
     2.4243   2.5981   2.7114   2.7641   2.8010   2.8540

     the Fermi energy is     2.0938 ev

!    total energy              =   -2114.74710990 Ry
     Harris-Foulkes estimate   =   -2114.74710818 Ry
     estimated scf accuracy    <       0.00000005 Ry

     The total energy is the sum of the following terms:

     one-electron contribution =  -18933.88608651 Ry
     hartree contribution      =    9465.53699547 Ry
     xc contribution           =    -400.67233270 Ry
     ewald contribution        =    7754.36382670 Ry
     electric field correction =       0.00025619 Ry
     smearing contrib. (-TS)   =      -0.08976904 Ry

     convergence has been achieved in  15 iterations

 BEEF-vdW xc energy contributions
           1 :   -351.018608046977
           2 :    322.741047164067
           3 :   -272.483993671068
           4 :    210.336625634458
           5 :   -147.011452824995
           6 :    90.9249313337778
           7 :   -46.5983076499855
           8 :    14.5557742440674
           9 :    7.45599311294103
          10 :   -22.6797290212652
          11 :    33.7047560468037
          12 :   -41.5972603704846
          13 :    45.9385140994984
          14 :   -45.5961492795263
          15 :    39.7448583041093
          16 :   -28.6785143738969
          17 :    14.0627239265372
          18 :    1.42939438626712
          19 :   -14.9202637870158
          20 :    24.1857898831019
          21 :   -28.2226476858701
          22 :    27.3200711441849
          23 :   -22.6874270613229
          24 :    15.8531925575176
          25 :   -8.13258526260842
          26 :   0.370292387840834
          27 :    6.99730064588647
          28 :   -13.6865307855147
          29 :    19.3054668988597
          30 :   -23.2542256391415
          31 :   -33.4702091293065
          32 :   -24.5689206622329

     Forces acting on atoms (Ry/au):

     negative rho (up, down):  1.590E+00 0.000E+00
     atom    1 type  1   force =    -0.00084434   -0.00048827    0.02217548
     atom    2 type  1   force =     0.00084404   -0.00048796    0.02218044
     atom    3 type  1   force =     0.00000004    0.00097509    0.02217661
     atom    4 type  1   force =    -0.00000013    0.00000097    0.03725063
     atom    5 type  1   force =    -0.00001467    0.01872993   -0.02614957
     atom    6 type  1   force =     0.00001606   -0.00000726   -0.02294245
     atom    7 type  1   force =    -0.01622738   -0.00935393   -0.02614885
     atom    8 type  1   force =     0.01622770   -0.00937115   -0.02612934
     atom    9 type  1   force =    -0.00000103    0.00000105    0.00044713
     atom   10 type  1   force =     0.00000135    0.00011575   -0.00079838
     atom   11 type  1   force =     0.00010005   -0.00005610   -0.00073626
     atom   12 type  1   force =    -0.00010146   -0.00005875   -0.00077890
     atom   13 type  2   force =    -0.00000023    0.00000063   -0.00054653

     Total force =     0.001525     Total SCF correction =     0.000519
     SCF correction compared to forces is large: reduce conv_thr to get better values

     entering subroutine stress ...

     negative rho (up, down):  1.590E+00 0.000E+00
          total   stress  (Ry/bohr**3)                   (kbar)     P=  -22.26
  -0.00016626  -0.00000000  -0.00000000        -24.46     -0.00     -0.00
  -0.00000000  -0.00016626   0.00000000         -0.00    -24.46      0.00
  -0.00000000   0.00000000  -0.00012136         -0.00      0.00    -17.85

     bfgs converged in  13 scf cycles and  12 bfgs steps
     (criteria: energy <  1.0E+00, force <  1.9E-03)

     End of BFGS Geometry Optimization

     Final energy   =   -2114.7471098962 Ry
Begin final coordinates

ATOMIC_POSITIONS (crystal)
Tc1      0.166666667   0.166666667   0.408540475    0   0   0
Tc1      0.666666667   0.166666667   0.408540475    0   0   0
Tc1      0.166666667   0.666666667   0.408540475    0   0   0
Tc1      0.666666667   0.666666667   0.408540475    0   0   0
Tc1      0.833333333   0.333333333   0.500000000    0   0   0
Tc1      0.333333333   0.333333333   0.500000000    0   0   0
Tc1      0.833333333   0.833333333   0.500000000    0   0   0
Tc1      0.333333333   0.833333333   0.500000000    0   0   0
Tc1      0.000001309  -0.000001938   0.601419383
Tc1      0.500785139  -0.001571472   0.586215427
Tc1     -0.001572772   0.500785532   0.586207732
Tc1      0.500786012   0.500786598   0.586212661
C1       0.000003197  -0.000000646   0.671506874
End final coordinates

     Writing output data file calc.save

     General routines

     Parallel routines

   This run was terminated on:  17:33:46   2May2018

   JOB DONE.
Job  /afs/slac/g/suncat/bin/suncat-tsmpirun -x LD_LIBRARY_PATH -wdir /scratch/qe789865_edXHq pw.x -npool 4 -in pw.inp

TID   HOST_NAME   COMMAND_LINE            STATUS            TERMINATION_TIME
00000 suncat0188 pw.x -npool 4 -i  Done                     05/02/2018 17:33:46
00001 suncat0188 pw.x -npool 4 -i  Done                     05/02/2018 17:33:46
00002 suncat0188 pw.x -npool 4 -i  Done                     05/02/2018 17:33:46
00003 suncat0188 pw.x -npool 4 -i  Done                     05/02/2018 17:33:46
00004 suncat0188 pw.x -npool 4 -i  Done                     05/02/2018 17:33:46
00005 suncat0188 pw.x -npool 4 -i  Done                     05/02/2018 17:33:46
00006 suncat0188 pw.x -npool 4 -i  Done                     05/02/2018 17:33:46
00007 suncat0188 pw.x -npool 4 -i  Done                     05/02/2018 17:33:46
00008 suncat0147 pw.x -npool 4 -i  Done                     05/02/2018 17:33:46
00009 suncat0147 pw.x -npool 4 -i  Done                     05/02/2018 17:33:46
00010 suncat0147 pw.x -npool 4 -i  Done                     05/02/2018 17:33:46
00011 suncat0147 pw.x -npool 4 -i  Done                     05/02/2018 17:33:46
00012 suncat0147 pw.x -npool 4 -i  Done                     05/02/2018 17:33:46
00013 suncat0147 pw.x -npool 4 -i  Done                     05/02/2018 17:33:46
00014 suncat0147 pw.x -npool 4 -i  Done                     05/02/2018 17:33:46
00015 suncat0147 pw.x -npool 4 -i  Done                     05/02/2018 17:33:46
00016 suncat0135 pw.x -npool 4 -i  Done                     05/02/2018 17:33:46
00017 suncat0135 pw.x -npool 4 -i  Done                     05/02/2018 17:33:46
00018 suncat0135 pw.x -npool 4 -i  Done                     05/02/2018 17:33:46
00019 suncat0135 pw.x -npool 4 -i  Done                     05/02/2018 17:33:46
00020 suncat0135 pw.x -npool 4 -i  Done                     05/02/2018 17:33:46
00021 suncat0135 pw.x -npool 4 -i  Done                     05/02/2018 17:33:46
00022 suncat0135 pw.x -npool 4 -i  Done                     05/02/2018 17:33:46
00023 suncat0135 pw.x -npool 4 -i  Done                     05/02/2018 17:33:46
00024 suncat0282 pw.x -npool 4 -i  Done                     05/02/2018 17:33:46
00025 suncat0282 pw.x -npool 4 -i  Done                     05/02/2018 17:33:46
00026 suncat0282 pw.x -npool 4 -i  Done                     05/02/2018 17:33:46
00027 suncat0282 pw.x -npool 4 -i  Done                     05/02/2018 17:33:46
00028 suncat0282 pw.x -npool 4 -i  Done                     05/02/2018 17:33:46
00029 suncat0282 pw.x -npool 4 -i  Done                     05/02/2018 17:33:46
00030 suncat0282 pw.x -npool 4 -i  Done                     05/02/2018 17:33:46
00031 suncat0282 pw.x -npool 4 -i  Done                     05/02/2018 17:33:46