     Program PWSCF v.6.1 starts on  9Jan2019 at 11:58:48

     Current dimensions of program PWSCF are:
     Max number of different atomic species (ntypx) = 10
     Max number of k-points (npk) =  40000
     Max angular momentum in pseudopotentials (lmaxx) =  3

     IMPORTANT: XC functional enforced from input :
     Exchange-correlation      = BEEF-VDW ( 1  4 29 14 2 0)
     Any further DFT definition will be discarded
     Please, verify this is what you really want

     bravais-lattice index     =            0
     lattice parameter (alat)  =       9.4723  a.u.
     unit-cell volume          =    3537.7769 (a.u.)^3
     number of atoms/cell      =           14
     number of atomic types    =            3
     number of electrons       =       209.00
     number of Kohn-Sham states=          114
     kinetic-energy cutoff     =      36.7493  Ry
     charge density cutoff     =     367.4933  Ry
     convergence threshold     =      1.0E-04
     mixing beta               =       0.1000
     number of iterations used =            8  plain     mixing
     Exchange-correlation      = BEEF-VDW ( 1  4 29 14 2 0)
     nstep                     =           50

     celldm(1)=   9.472344  celldm(2)=   0.000000  celldm(3)=   0.000000
     celldm(4)=   0.000000  celldm(5)=   0.000000  celldm(6)=   0.000000

     crystal axes: (cart. coord. in units of alat)
               a(1) = (   1.000000   0.000000   0.000000 )
               a(2) = (   0.500000   0.866025   0.000000 )
               a(3) = (   0.000000   0.000000   4.806483 )

     reciprocal axes: (cart. coord. in units 2 pi/alat)
               b(1) = (  1.000000 -0.577350  0.000000 )
               b(2) = (  0.000000  1.154701  0.000000 )
               b(3) = (  0.000000  0.000000  0.208052 )

     PseudoPot. # 1 for Co read from file:
     /home/users/jrboes/code/decaf-espresso/gbrv15pbe/Co.UPF
     MD5 check sum: 5f91765df6ddd3222702df6e7b74a16d
     Pseudo is Ultrasoft + core correction, Zval = 17.0
     Generated by new atomic code, or converted to UPF format
     Using radial grid of  863 points,  6 beta functions with:
                l(1) =   0
                l(2) =   0
                l(3) =   1
                l(4) =   1
                l(5) =   2
                l(6) =   2
     Q(r) pseudized with  8 coefficients,  rinner =    1.200   1.200   1.200
                                                       1.200   1.200

     PseudoPot. # 2 for C  read from file:
     /home/users/jrboes/code/decaf-espresso/gbrv15pbe/C.UPF
     MD5 check sum: d1aef80898a10debaa0f26306b886e00
     Pseudo is Ultrasoft + core correction, Zval =  4.0
     Generated by new atomic code, or converted to UPF format
     Using radial grid of  721 points,  4 beta functions with:
                l(1) =   0
                l(2) =   0
                l(3) =   1
                l(4) =   1
     Q(r) pseudized with  8 coefficients,  rinner =    1.100   1.100   1.100

     PseudoPot. # 3 for H  read from file:
     /home/users/jrboes/code/decaf-espresso/gbrv15pbe/H.UPF
     MD5 check sum: 761ae9a214b05c3daf00ab9f6b793d6f
     Pseudo is Ultrasoft, Zval =  1.0
     Generated by new atomic code, or converted to UPF format
     Using radial grid of  615 points,  2 beta functions with:
                l(1) =   0
                l(2) =   0
     Q(r) pseudized with  8 coefficients,  rinner =    0.700

     vdW kernel table read from file vdW_kernel_table
     MD5 check sum: 095c7af220d748ca6e76c0b4c6cfb241

     atomic species   valence    mass     pseudopotential
        Co            17.00    58.93319     Co( 1.00)
        C              4.00    12.01100     C ( 1.00)
        H              1.00     1.00800     H ( 1.00)

     Starting magnetic structure
     atomic species   magnetization
        Co           0.118
        C            0.000
        H            0.000

     No symmetry found

   Cartesian axes

     site n.     atom                  positions (alat units)
         1           Co  tau(   1) = (   0.2500000   0.1443376   1.9949931  )
         2           Co  tau(   2) = (   0.7500000   0.1443376   1.9949931  )
         3           Co  tau(   3) = (   0.5000000   0.5773503   1.9949931  )
         4           Co  tau(   4) = (   1.0000000   0.5773503   1.9949931  )
         5           Co  tau(   5) = (   1.0000000   0.2886751   2.4032414  )
         6           Co  tau(   6) = (   0.5000000   0.2886751   2.4032414  )
         7           Co  tau(   7) = (   1.2500000   0.7216878   2.4032414  )
         8           Co  tau(   8) = (   0.7500000   0.7216878   2.4032414  )
         9           Co  tau(   9) = (   0.0000342   0.0000876   2.7975758  )
        10           Co  tau(  10) = (   0.5000290  -0.0074135   2.8114060  )
        11           Co  tau(  11) = (   0.2436146   0.4367919   2.8114767  )
        12           Co  tau(  12) = (   0.7564034   0.4367687   2.8114945  )
        13           C   tau(  13) = (   0.4999593   0.2885484   3.0365577  )
        14           H   tau(  14) = (   0.4999808   0.2886131   3.2556367  )

     number of k points=    20  Fermi-Dirac smearing, width (Ry)=  0.0110
                       cart. coord. in units 2pi/alat
        k(    1) = (   0.0000000   0.0000000   0.0000000), wk =   0.0277778
        k(    2) = (   0.0000000   0.1924501   0.0000000), wk =   0.0555556
        k(    3) = (   0.0000000   0.3849002   0.0000000), wk =   0.0555556
        k(    4) = (   0.0000000  -0.5773503   0.0000000), wk =   0.0277778
        k(    5) = (   0.1666667  -0.0962250   0.0000000), wk =   0.0555556
        k(    6) = (   0.1666667   0.0962250   0.0000000), wk =   0.0555556
        k(    7) = (   0.1666667   0.2886751   0.0000000), wk =   0.0555556
        k(    8) = (   0.1666667  -0.6735753   0.0000000), wk =   0.0555556
        k(    9) = (   0.1666667  -0.4811252   0.0000000), wk =   0.0555556
        k(   10) = (   0.1666667  -0.2886751   0.0000000), wk =   0.0555556
        k(   11) = (   0.3333333  -0.1924501   0.0000000), wk =   0.0555556
        k(   12) = (   0.3333333  -0.0000000   0.0000000), wk =   0.0555556
        k(   13) = (   0.3333333   0.1924501   0.0000000), wk =   0.0555556
        k(   14) = (   0.3333333  -0.7698004   0.0000000), wk =   0.0555556
        k(   15) = (   0.3333333  -0.5773503   0.0000000), wk =   0.0555556
        k(   16) = (   0.3333333  -0.3849002   0.0000000), wk =   0.0555556
        k(   17) = (  -0.5000000   0.2886751   0.0000000), wk =   0.0277778
        k(   18) = (  -0.5000000   0.4811252   0.0000000), wk =   0.0555556
        k(   19) = (  -0.5000000   0.6735753   0.0000000), wk =   0.0555556
        k(   20) = (  -0.5000000  -0.2886751   0.0000000), wk =   0.0277778

     Check: negative/imaginary core charge=   -0.000007    0.000000

     Initial potential from superposition of free atoms
     Check: negative starting charge=(component1):   -0.000183
     Check: negative starting charge=(component2):   -0.000146

     starting charge  196.99987, renormalised to  209.00000

     negative rho (up, down):  1.941E-04 1.547E-04

     %%%%%%%%%%%%%%%%%%%%%%%%%%%%%%%%%%%%%%%%%%%%%%%%%%%%%%%%%%%%%%%%%%%%%%%%
     %                                                                      %
     % You are using vdW-DF, which was implemented by the Thonhauser group. %
     % Please cite the following two papers that made this development      %
     % possible and the two reviews that describe the various versions:     %
     %                                                                      %
     %   T. Thonhauser et al., PRL 115, 136402 (2015).                      %
     %   T. Thonhauser et al., PRB 76, 125112 (2007).                       %
     %   K. Berland et al., Rep. Prog. Phys. 78, 066501 (2015).             %
     %   D.C. Langreth et al., J. Phys.: Condens. Matter 21, 084203 (2009). %
     %                                                                      %
     %                                                                      %
     % If you are calculating the stress with vdW-DF, please also cite:     %
     %                                                                      %
     %   R. Sabatini et al., J. Phys.: Condens. Matter 24, 424209 (2012).   %
     %                                                                      %
     %%%%%%%%%%%%%%%%%%%%%%%%%%%%%%%%%%%%%%%%%%%%%%%%%%%%%%%%%%%%%%%%%%%%%%%%

     Adding external electric field

     Computed dipole along edir(3) :
        Dipole               -1.9566 Ry au,         -4.9731 Debye
        Dipole field         -0.0069 Ry au,

        Potential amp.        0.5695 Ry
        Total length         40.9758 bohr

[...]

     Starting wfc are  161 randomized atomic wfcs

     Self-consistent Calculation

     iteration #  1     ecut=    36.75 Ry     beta=0.10
     Davidson diagonalization with overlap
     ethr =  1.00E-02,  avg # of iterations =  7.2

[...]

     total energy              =   -3498.69597066 Ry
     Harris-Foulkes estimate   =   -3632.24256448 Ry
     estimated scf accuracy    <     739.50431513 Ry

     total magnetization       =    11.19 Bohr mag/cell
     absolute magnetization    =    11.70 Bohr mag/cell

[...]

     Magnetic moment per site:
     atom:    1    charge:   14.0360    magn:    1.7219    constr:    0.0000
     atom:    2    charge:   14.0361    magn:    1.7215    constr:    0.0000
     atom:    3    charge:   14.0366    magn:    1.7211    constr:    0.0000
     atom:    4    charge:   14.0367    magn:    1.7264    constr:    0.0000
     atom:    5    charge:   14.0402    magn:    1.6959    constr:    0.0000
     atom:    6    charge:   14.0359    magn:    1.7550    constr:    0.0000
     atom:    7    charge:   14.0405    magn:    1.6954    constr:    0.0000
     atom:    8    charge:   14.0401    magn:    1.6958    constr:    0.0000
     atom:    9    charge:   14.0422    magn:    1.7504    constr:    0.0000
     atom:   10    charge:   14.0541    magn:    1.1302    constr:    0.0000
     atom:   11    charge:   14.0536    magn:    1.1315    constr:    0.0000
     atom:   12    charge:   14.0543    magn:    1.1318    constr:    0.0000
     atom:   13    charge:    0.8324    magn:   -0.0509    constr:    0.0000
     atom:   14    charge:    0.4941    magn:    0.0044    constr:    0.0000

     End of self-consistent calculation

 ------ SPIN UP ------------

          k = 0.0000 0.0000 0.0000 ( 13257 PWs)   bands (ev):

   -95.3742 -95.3091 -95.2873 -95.2867 -95.2101 -95.1511 -95.1246 -95.1149
   -95.1143 -94.7981 -94.7733 -94.7723 -58.7101 -58.7098 -58.6820 -58.6506
   -58.5974 -58.5891 -58.5887 -58.5254 -58.5252 -58.5175 -58.5082 -58.4601
   -58.4599 -58.4549 -58.4439 -58.4409 -58.4407 -58.4353 -58.4344 -58.4342
   -58.4253 -58.4250 -58.2955 -58.2953 -58.2923 -58.2880 -58.2407 -58.2406
   -58.1442 -58.1436 -58.0002 -57.9923 -57.9922 -57.9370 -57.9364 -57.9277
   -10.5263  -6.8175  -5.5434  -4.4354  -3.8062  -3.7689  -3.7686  -3.6902
    -3.6899  -3.6455  -3.3796  -3.2925  -3.2921  -3.1433  -3.0942  -3.0939
    -2.4716  -2.4715  -2.4010  -2.1379  -1.9691  -1.9681  -1.8162  -1.8156
    -1.7690  -1.6358  -1.6357  -1.5791  -1.4279  -1.4103  -1.4101  -1.3645
    -1.3643  -1.2547  -1.1911  -1.1909  -1.0030  -0.8274  -0.8270  -0.6400
    -0.6398  -0.5239  -0.5227  -0.5226  -0.3253  -0.3246  -0.1882  -0.1881
    -0.1277  -0.0126   0.0187   0.0192   0.0587   0.1161   0.1162   0.2008
     0.2011   0.2600   0.4380   0.4381   0.4487   0.5568   0.5573   0.6755
     0.6854   1.7176

[...]

          k =-0.5000 0.2887 0.0000 ( 13378 PWs)   bands (ev):

[...]

 ------ SPIN DOWN ----------

[...]

     the Fermi energy is     1.2327 ev

!    total energy              =   -3607.08986286 Ry
     Harris-Foulkes estimate   =   -3607.08986411 Ry
     estimated scf accuracy    <       0.00006080 Ry

     The total energy is the sum of the following terms:

     one-electron contribution =  -31951.95534484 Ry
     hartree contribution      =   15985.77238797 Ry
     xc contribution           =    -409.70845901 Ry
     ewald contribution        =   12768.87673857 Ry
     electric field correction =       0.00006056 Ry
     smearing contrib. (-TS)   =      -0.07524611 Ry

[...]

     convergence has been achieved in  31 iterations

[...]

     Forces acting on atoms (cartesian axes, Ry/au):

     atom    1 type  1   force =    -0.00024858   -0.00016086    0.01325720
     atom    2 type  1   force =     0.00021119   -0.00004646    0.01292472
     atom    3 type  1   force =     0.00008377    0.00024133    0.01299552
     atom    4 type  1   force =    -0.00011263   -0.00001153    0.01388731
     atom    5 type  1   force =    -0.00001094   -0.00053257   -0.01031532
     atom    6 type  1   force =    -0.00001760   -0.00001900   -0.01066173
     atom    7 type  1   force =     0.00044789    0.00027918   -0.01027620
     atom    8 type  1   force =    -0.00048164    0.00028925   -0.01040536
     atom    9 type  1   force =     0.00008189    0.00000541    0.00099834
     atom   10 type  1   force =    -0.00004625   -0.00399971   -0.00325708
     atom   11 type  1   force =    -0.00342639    0.00188632   -0.00335446
     atom   12 type  1   force =     0.00352078    0.00199246   -0.00334910
     atom   13 type  2   force =     0.00002119    0.00010404    0.00124029
     atom   14 type  3   force =    -0.00002270   -0.00002786   -0.00368412

     Total force =     0.009842     Total SCF correction =     0.007153
     SCF correction compared to forces is large: reduce conv_thr to get better values

     BFGS Geometry Optimization

     number of scf cycles    =   1
     number of bfgs steps    =   0

     energy   new            =   -3607.0898628613 Ry

     new trust radius        =       0.0052518806 bohr
     new conv_thr            =       0.0001000000 Ry

ATOMIC_POSITIONS (angstrom)
Co       1.253137179   0.723499088  10.000000000    0   0   0
Co       3.759411536   0.723499088  10.000000000    0   0   0
Co       2.506274358   2.893996350  10.000000000    0   0   0
Co       5.012548715   2.893996350  10.000000000    0   0   0
Co       5.012548715   1.446998175  12.046364444    0   0   0
Co       2.506274357   1.446998175  12.046364444    0   0   0
Co       6.265685894   3.617495438  12.046364444    0   0   0
Co       3.759411536   3.617495438  12.046364444    0   0   0
Co       0.000214646   0.000441838  14.023513077
Co       2.506395015  -0.039277303  14.090586059
Co       1.219316996   2.190438685  14.090888787
Co       3.793371840   2.190378977  14.090980963
C        2.506081767   1.446417841  15.221549496
H        2.506166074   1.446672548  16.317088216

     Writing output data file calc.save
     Check: negative starting charge=(component1):   -0.000328
     NEW-OLD atomic charge density approx. for the potential

     Check: negative/imaginary core charge=   -0.000007    0.000000
     Check: negative starting charge=(component1):   -0.000328

[...]

     energy   old            =   -3607.0898628613 Ry
     energy   new            =   -3607.0898900250 Ry

     CASE: energy  _new < energy  _old

[...]

     iteration #  9     ecut=    36.75 Ry     beta=0.10
     Davidson diagonalization with overlap
     c_bands:  1 eigenvalues not converged
     ethr =  5.92E-09,  avg # of iterations =  3.8

[...]

     number of scf cycles    =   3
     number of bfgs steps    =   2

     energy   old            =   -3607.0898900250 Ry
     energy   new            =   -3607.0899266317 Ry

     CASE: energy  _new < energy  _old

     new trust radius        =       0.0022992647 bohr
     new conv_thr            =       0.0000010000 Ry

ATOMIC_POSITIONS (angstrom)
Co       1.253137179   0.723499088  10.000000000    0   0   0
Co       3.759411536   0.723499088  10.000000000    0   0   0
Co       2.506274358   2.893996350  10.000000000    0   0   0
Co       5.012548715   2.893996350  10.000000000    0   0   0
Co       5.012548715   1.446998175  12.046364444    0   0   0
Co       2.506274357   1.446998175  12.046364444    0   0   0
Co       6.265685894   3.617495438  12.046364444    0   0   0
Co       3.759411536   3.617495438  12.046364444    0   0   0
Co       0.000169707   0.000386371  14.025401577
Co       2.506409329  -0.037762795  14.090342322
Co       1.220603342   2.189681401  14.090550603
Co       3.792025647   2.189570474  14.090700589
C        2.506120523   1.446485184  15.221133765
H        2.506164764   1.446657045  16.318575626

     Writing output data file calc.save
     Check: negative starting charge=(component1):   -0.000328
     NEW-OLD atomic charge density approx. for the potential

     Check: negative/imaginary core charge=   -0.000007    0.000000
     Check: negative starting charge=(component1):   -0.000329

[...]

     Self-consistent Calculation

[...]

     total energy              =   -3607.08993563 Ry
     Harris-Foulkes estimate   =   -3607.08993577 Ry
     estimated scf accuracy    <       0.00000144 Ry

[...]

     iteration #  7     ecut=    36.75 Ry     beta=0.10
     Davidson diagonalization with overlap
     ethr =  6.89E-10,  avg # of iterations =  1.1

[...]

     Adding external electric field

     Computed dipole along edir(3) :
        Dipole                0.1232 Ry au,          0.3132 Debye
        Dipole field          0.0004 Ry au,

        Potential amp.       -0.0359 Ry
        Total length         40.9758 bohr

     Magnetic moment per site:
     atom:    1    charge:   14.0359    magn:    1.7290    constr:    0.0000
     atom:    2    charge:   14.0359    magn:    1.7289    constr:    0.0000
     atom:    3    charge:   14.0359    magn:    1.7290    constr:    0.0000
     atom:    4    charge:   14.0354    magn:    1.7364    constr:    0.0000
     atom:    5    charge:   14.0401    magn:    1.6990    constr:    0.0000
     atom:    6    charge:   14.0367    magn:    1.7551    constr:    0.0000
     atom:    7    charge:   14.0403    magn:    1.6987    constr:    0.0000
     atom:    8    charge:   14.0404    magn:    1.6987    constr:    0.0000
     atom:    9    charge:   14.0409    magn:    1.7548    constr:    0.0000
     atom:   10    charge:   14.0540    magn:    1.1184    constr:    0.0000
     atom:   11    charge:   14.0540    magn:    1.1196    constr:    0.0000
     atom:   12    charge:   14.0539    magn:    1.1199    constr:    0.0000
     atom:   13    charge:    0.8321    magn:   -0.0502    constr:    0.0000
     atom:   14    charge:    0.4940    magn:    0.0043    constr:    0.0000

     End of self-consistent calculation

 ------ SPIN UP ------------

[...]

 ------ SPIN DOWN ----------

[...]

          k = 0.3333-0.3849 0.0000 ( 13313 PWs)   bands (ev):

[...]

          k =-0.5000-0.2887 0.0000 ( 13378 PWs)   bands (ev):

   -93.1470 -93.1343 -93.1269 -92.8410 -92.8371 -92.8229 -92.8169 -92.6806
   -92.6466 -92.6418 -92.6278 -92.6248 -56.7959 -56.7349 -56.6935 -56.4111
   -56.4028 -56.3535 -56.3427 -56.3172 -56.2904 -56.2737 -56.2385 -56.2208
   -56.2146 -56.1963 -56.1944 -56.1836 -56.1715 -56.1674 -56.1643 -56.0985
   -56.0918 -56.0720 -56.0661 -56.0297 -56.0232 -56.0088 -56.0018 -56.0012
   -55.9868 -55.9858 -55.9582 -55.9525 -55.9490 -55.9472 -55.9167 -55.9117
   -10.6032  -5.4166  -5.1145  -4.5750  -3.5883  -2.9168  -2.6733  -2.4986
    -2.2588  -2.1274  -1.9555  -1.8080  -1.7222  -1.5458  -1.3163  -1.3041
    -1.1695  -1.1632  -0.9840  -0.9193  -0.7119  -0.6851  -0.6688  -0.6426
    -0.5498  -0.5319  -0.3436  -0.2151  -0.1238  -0.1069  -0.0627  -0.0602
    -0.0008   0.0710   0.1529   0.3427   0.3804   0.3836   0.4124   0.4332
     0.5936   0.7157   0.7259   0.9881   1.0314   1.0323   1.0781   1.1707
     1.2594   1.2660   1.3332   1.4180   1.4472   1.5067   1.6167   1.6402
     1.7175   1.7226   1.7947   1.9851   2.0053   2.1719   2.2213   2.3200
     2.3461   2.5030

     the Fermi energy is     1.2293 ev

!    total energy              =   -3607.08993515 Ry
     Harris-Foulkes estimate   =   -3607.08994032 Ry
     estimated scf accuracy    <       0.00000093 Ry

     The total energy is the sum of the following terms:

     one-electron contribution =  -31955.56670456 Ry
     hartree contribution      =   15987.52202309 Ry
     xc contribution           =    -409.70502542 Ry
     ewald contribution        =   12770.73487536 Ry
     electric field correction =       0.00005394 Ry
     smearing contrib. (-TS)   =      -0.07515754 Ry

     total magnetization       =    18.45 Bohr mag/cell
     absolute magnetization    =    21.35 Bohr mag/cell

     convergence has been achieved in   7 iterations

     negative rho (up, down):  6.232E-04 3.420E-04

     Forces acting on atoms (cartesian axes, Ry/au):

     atom    1 type  1   force =    -0.00025328   -0.00010044    0.00978797
     atom    2 type  1   force =     0.00024975   -0.00011598    0.00981143
     atom    3 type  1   force =    -0.00001407    0.00025859    0.00977427
     atom    4 type  1   force =     0.00001292   -0.00002426    0.01057906
     atom    5 type  1   force =    -0.00000381   -0.00101231   -0.00960121
     atom    6 type  1   force =     0.00000335    0.00001420   -0.00953918
     atom    7 type  1   force =     0.00092091    0.00053035   -0.00966446
     atom    8 type  1   force =    -0.00089812    0.00051221   -0.00963233
     atom    9 type  1   force =    -0.00001748    0.00000305    0.00131987
     atom   10 type  1   force =    -0.00002251   -0.00168497   -0.00073230
     atom   11 type  1   force =    -0.00149619    0.00076455   -0.00080534
     atom   12 type  1   force =     0.00150462    0.00079541   -0.00084780
     atom   13 type  2   force =     0.00002092    0.00007051    0.00021422
     atom   14 type  3   force =    -0.00000701   -0.00001092   -0.00066421

     Total force =     0.003563     Total SCF correction =     0.004182
     SCF correction compared to forces is large: reduce conv_thr to get better values

     bfgs converged in   4 scf cycles and   3 bfgs steps
     (criteria: energy <  1.0E+12 Ry, force <  1.9E-03 Ry/Bohr)

     End of BFGS Geometry Optimization

     Final energy   =   -3607.0899351472 Ry
Begin final coordinates

ATOMIC_POSITIONS (angstrom)
Co       1.253137179   0.723499088  10.000000000    0   0   0
Co       3.759411536   0.723499088  10.000000000    0   0   0
Co       2.506274358   2.893996350  10.000000000    0   0   0
Co       5.012548715   2.893996350  10.000000000    0   0   0
Co       5.012548715   1.446998175  12.046364444    0   0   0
Co       2.506274357   1.446998175  12.046364444    0   0   0
Co       6.265685894   3.617495438  12.046364444    0   0   0
Co       3.759411536   3.617495438  12.046364444    0   0   0
Co       0.000169707   0.000386371  14.025401577
Co       2.506409329  -0.037762795  14.090342322
Co       1.220603342   2.189681401  14.090550603
Co       3.792025647   2.189570474  14.090700589
C        2.506120523   1.446485184  15.221133765
H        2.506164764   1.446657045  16.318575626
End final coordinates

     Writing output data file calc.save

     General routines

     Parallel routines

   This run was terminated on:  12:19: 6   9Jan2019

   JOB DONE.