     Program PWSCF v.5.1rc2 (svn rev. 11289) starts on  2May2018 at 20:10:33

     Current dimensions of program PWSCF are:
     Max number of different atomic species (ntypx) = 10
     Max number of k-points (npk) =  40000
     Max angular momentum in pseudopotentials (lmaxx) =  3
     Presently stress not available with electric field

     IMPORTANT: XC functional enforced from input :
     Exchange-correlation      = BEEF-VDW ( 1  4 27 13 2)
     Any further DFT definition will be discarded
     Please, verify this is what you really want

     Subspace diagonalization in iterative solution of the eigenvalue problem:
     a serial algorithm will be used

     bravais-lattice index     =            0
     lattice parameter (alat)  =       1.8897  a.u.
     unit-cell volume          =    6082.7792 (a.u.)^3
     number of atoms/cell      =           13
     number of atomic types    =            2
     number of electrons       =       150.00
     number of Kohn-Sham states=           85
     kinetic-energy cutoff     =      36.7493  Ry
     charge density cutoff     =     367.4932  Ry
     convergence threshold     =      1.0E-05
     mixing beta               =       0.3000
     number of iterations used =           10  plain     mixing
     Exchange-correlation      = BEEF-VDW ( 1  4 27 13 2)
     nstep                     =           50

     celldm(1)=   1.889726  celldm(2)=   0.000000  celldm(3)=   0.000000
     celldm(4)=   0.000000  celldm(5)=   0.000000  celldm(6)=   0.000000

     crystal axes: (cart. coord. in units of alat)
               a(1) = (   6.421223   0.000000   0.000000 )
               a(2) = (   3.210611   5.560942   0.000000 )
               a(3) = (   0.000000   0.000000  25.242906 )

     reciprocal axes: (cart. coord. in units 2 pi/alat)
               b(1) = (  0.155734 -0.089913  0.000000 )
               b(2) = (  0.000000  0.179826  0.000000 )
               b(3) = (  0.000000  0.000000  0.039615 )

     PseudoPot. # 1 for Zr read from file:
     /u/if/mamunm/psp/gbrv1.5pbe/Zr.UPF
     MD5 check sum: 5db81b1e868ab7776c4564c113de050b
     Pseudo is Ultrasoft + core correction, Zval = 12.0
     Generated by new atomic code, or converted to UPF format
     Using radial grid of  887 points,  6 beta functions with:
                l(1) =   0
                l(2) =   0
                l(3) =   1
                l(4) =   1
                l(5) =   2
                l(6) =   2
     Q(r) pseudized with  6 coefficients,  rinner =    1.200   1.200   1.200
                                                       1.200   1.200

     PseudoPot. # 2 for S  read from file:
     /u/if/mamunm/psp/gbrv1.5pbe/S.UPF
     MD5 check sum: 88d86576ff6df21479756cfb9bdac1df
     Pseudo is Ultrasoft + core correction, Zval =  6.0
     Generated by new atomic code, or converted to UPF format
     Using radial grid of  907 points,  6 beta functions with:
                l(1) =   0
                l(2) =   0
                l(3) =   1
                l(4) =   1
                l(5) =   2
                l(6) =   2
     Q(r) pseudized with  8 coefficients,  rinner =    1.300   1.300   1.300
                                                       1.300   1.300

     vdW kernel table read from file vdW_kernel_table
     MD5 check sum: 095c7af220d748ca6e76c0b4c6cfb241

     atomic species   valence    mass     pseudopotential
        Zr1           12.00    91.22400     Zr( 1.00)
        S1             6.00    32.06000     S ( 1.00)

     No symmetry found

   Cartesian axes

     site n.     atom                  positions (alat units)
         1           Zr1 tau(   1) = (   1.6053057   0.9268237  10.0000000  )
         2           Zr1 tau(   2) = (   4.8159170   0.9268237  10.0000000  )
         3           Zr1 tau(   3) = (   3.2106113   3.7072946  10.0000000  )
         4           Zr1 tau(   4) = (   6.4212227   3.7072946  10.0000000  )
         5           Zr1 tau(   5) = (   6.4212227   1.8536473  12.6214532  )
         6           Zr1 tau(   6) = (   3.2106113   1.8536473  12.6214532  )
         7           Zr1 tau(   7) = (   8.0265283   4.6341183  12.6214532  )
         8           Zr1 tau(   8) = (   4.8159170   4.6341183  12.6214532  )
         9           Zr1 tau(   9) = (   0.0000000   0.0000000  15.2429064  )
        10           Zr1 tau(  10) = (   3.2106113   0.0000000  15.2429064  )
        11           Zr1 tau(  11) = (   1.6053057   2.7804710  15.2429064  )
        12           Zr1 tau(  12) = (   4.8159170   2.7804710  15.2429064  )
        13           S1  tau(  13) = (   0.0000000   0.0000000  17.6229064  )

     number of k points=    20  Fermi-Dirac smearing, width (Ry)=  0.0110
                       cart. coord. in units 2pi/alat
        k(    1) = (   0.0000000   0.0000000   0.0000000), wk =   0.0555556
        k(    2) = (   0.0000000   0.0299709   0.0000000), wk =   0.1111111
        k(    3) = (   0.0000000   0.0599419   0.0000000), wk =   0.1111111
        k(    4) = (   0.0000000  -0.0899128   0.0000000), wk =   0.0555556
        k(    5) = (   0.0259556  -0.0149855   0.0000000), wk =   0.1111111
        k(    6) = (   0.0259556   0.0149855   0.0000000), wk =   0.1111111
        k(    7) = (   0.0259556   0.0449564   0.0000000), wk =   0.1111111
        k(    8) = (   0.0259556  -0.1048983   0.0000000), wk =   0.1111111
        k(    9) = (   0.0259556  -0.0749274   0.0000000), wk =   0.1111111
        k(   10) = (   0.0259556  -0.0449564   0.0000000), wk =   0.1111111
        k(   11) = (   0.0519112  -0.0299709   0.0000000), wk =   0.1111111
        k(   12) = (   0.0519112   0.0000000   0.0000000), wk =   0.1111111
        k(   13) = (   0.0519112   0.0299709   0.0000000), wk =   0.1111111
        k(   14) = (   0.0519112  -0.1198838   0.0000000), wk =   0.1111111
        k(   15) = (   0.0519112  -0.0899128   0.0000000), wk =   0.1111111
        k(   16) = (   0.0519112  -0.0599419   0.0000000), wk =   0.1111111
        k(   17) = (  -0.0778668   0.0449564   0.0000000), wk =   0.0555556
        k(   18) = (  -0.0778668   0.0749274   0.0000000), wk =   0.1111111
        k(   19) = (  -0.0778668   0.1048983   0.0000000), wk =   0.1111111
        k(   20) = (  -0.0778668  -0.0449564   0.0000000), wk =   0.0555556

     Largest allocated arrays     est. size (Mb)     dimensions
     Largest temporary arrays     est. size (Mb)     dimensions

     Initial potential from superposition of free atoms
     Check: negative starting charge=   -0.729052

     starting charge  149.97417, renormalised to  150.00000

     negative rho (up, down):  7.292E-01 0.000E+00

     *
     * You are using vdW-DF for exchange-correlation in this calculation.
     * Please cite the following three references that made this development
     * possible:
     *
     *   M. Dion, H. Rydberg, E. Schroder, D. C. Langreth, and
     *   B. I. Lundqvist, Phys. Rev. Lett. 92, 246401 (2004).
     *
     *   T. Thonhauser, V. R. Cooper, S. Li, A. Puzder, P. Hyldgaard, and
     *   D. C. Langreth, Phys. Rev. B 76, 125112 (2007).
     *
     *   G. Roman-Perez and J. M. Soler, Phys. Rev. Lett. 103, 096102 (2009).
     *
     *
     * If you are using vdW-DF2, please also cite:
     *
     *   K. Lee, E. D. Murray, L. Kong, B. I. Lundqvist, and
     *   D. C. Langreth, Phys. Rev. B 82, 081101(R) (2010).
     *
     *
     * If you are calculating the stress with vdW-DF, please also cite:
     *
     *   R. Sabatini, E. Kucukbenli, B. Kolb, T. Thonhauser, and
     *   S. de Gironcoli, J. Phys.: Condens. Matter 24, 424209 (2012).
     *

     Carrying out vdW-DF run using the following parameters:

     Nqs =      20    Nr_points =    1024   r_max =   100.000
     q_mesh =
               0.00001000     0.04494208     0.09755937     0.15916263
               0.23128650     0.31572767     0.41458969     0.53033537
               0.66584808     0.82450364     1.01025438     1.22772762
               1.48234092     1.78043706     2.12944203     2.53805004
               3.01644009     3.57652955     4.23227104     5.00000000

     Gradients computed in reciprocal space

     Adding external electric field

     Computed dipole along edir(3) :
        Dipole               -0.0094 Ry au,         -0.0239 Debye
        Dipole field         -0.0000 Ry au

        Potential amp.        0.0018 Ry
        Total length         46.5096 bohr

     Starting wfc are  160 randomized atomic wfcs

     Self-consistent Calculation

     iteration #  1     ecut=    36.75 Ry     beta=0.30
     Davidson diagonalization with overlap
     ethr =  1.00E-02,  avg # of iterations =  2.0

[...]

     total energy              =   -1218.63384423 Ry
     Harris-Foulkes estimate   =   -1221.90927123 Ry
     estimated scf accuracy    <       6.89527124 Ry

[...]

     End of self-consistent calculation

          k = 0.0000 0.0000 0.0000 ( 22923 PWs)   bands (ev):

   -48.1192 -48.0497 -48.0494 -48.0068 -47.9238 -47.9120 -47.9119 -47.7166
   -47.6391 -47.6339 -47.6337 -47.6195 -26.3545 -26.3301 -26.3300 -26.2866
   -26.2694 -26.2694 -26.2688 -26.1958 -26.1957 -26.1373 -26.0632 -25.9979
   -25.9979 -25.8816 -25.8625 -25.8111 -25.8111 -25.7511 -25.7509 -25.7366
   -25.7365 -25.7364 -25.6849 -25.5752 -25.5752 -25.5713 -25.5712 -25.5398
   -25.5039 -25.5039 -25.4902 -25.4441 -25.4403 -25.4402 -25.2956 -25.2956
   -10.2814  -3.6950  -2.5844  -1.7631  -1.4072  -1.4072  -1.4057  -1.2909
    -1.2115  -1.2114  -0.9109  -0.8758  -0.8758  -0.7595  -0.7595  -0.7109
    -0.4601  -0.4601  -0.4025   0.2780   0.6054   0.6055   1.1974   1.4209
     1.5996   1.5996   1.6265   1.8111   1.9819   1.9819   2.0485   2.1535
     2.1536   2.4017   2.4018   2.4218   2.4627

[...]

          k =-0.0779 0.0450 0.0000 ( 22880 PWs)   bands (ev):

[...]

     the Fermi energy is     1.2749 ev

!    total energy              =   -1221.39996963 Ry
     Harris-Foulkes estimate   =   -1221.39998935 Ry
     estimated scf accuracy    <       0.00000250 Ry

     The total energy is the sum of the following terms:

     one-electron contribution =   -8338.15724593 Ry
     hartree contribution      =    4161.11454052 Ry
     xc contribution           =    -229.23755252 Ry
     ewald contribution        =    3184.99520063 Ry
     electric field correction =       0.00031105 Ry
     smearing contrib. (-TS)   =      -0.11522337 Ry

     convergence has been achieved in  18 iterations

 BEEF-vdW xc energy contributions
           1 :   -196.252417644658
           2 :    177.352183390164
           3 :   -145.554411431659
           4 :    109.835441248455
           5 :   -78.2436148025508
           6 :    55.1467916273127
           7 :   -40.5941757530855
           8 :    31.6550791273820
           9 :   -24.6945865329058
          10 :    17.3280427823969
          11 :   -9.21691025760703
          12 :    1.59508677427939
          13 :    3.94173613637813
          14 :   -6.57831639918791
          15 :    6.73152782975680
          16 :   -5.68449707758288
          17 :    4.76241717978451
          18 :   -4.61621307874921
          19 :    5.02999162097470
          20 :   -5.28664392737002
          21 :    4.77749789318253
          22 :   -3.43936251708757
          23 :    1.76861347032482
          24 :  -0.461486967577741
          25 :  -3.988303843649987E-002
          26 :  -0.208128857434531
          27 :   0.748296501066307
          28 :   -1.05997894067596
          29 :   0.893476781231300
          30 :  -0.389293666185864
          31 :   -22.7817969705121
          32 :   -16.9171803101288

     Forces acting on atoms (Ry/au):

     negative rho (up, down):  7.487E-01 0.000E+00
     atom    1 type  1   force =     0.00075086    0.00044038    0.01594123
     atom    2 type  1   force =    -0.00074865    0.00045093    0.01593814
     atom    3 type  1   force =     0.00001267   -0.00087926    0.01593499
     atom    4 type  1   force =    -0.00001018   -0.00001225    0.01658801
     atom    5 type  1   force =    -0.00000500    0.00872256   -0.01192225
     atom    6 type  1   force =     0.00000200    0.00000233    0.00264082
     atom    7 type  1   force =    -0.00754899   -0.00435934   -0.01192307
     atom    8 type  1   force =     0.00755035   -0.00436241   -0.01192464
     atom    9 type  1   force =     0.00000952    0.00000903    0.02486355
     atom   10 type  1   force =    -0.00001577    0.00131927   -0.00472607
     atom   11 type  1   force =     0.00113346   -0.00067465   -0.00472361
     atom   12 type  1   force =    -0.00113254   -0.00065856   -0.00472411
     atom   13 type  2   force =     0.00000226    0.00000196   -0.04196299

     Total force =     0.049510     Total SCF correction =     0.005991
     SCF correction compared to forces is large: reduce conv_thr to get better values

     entering subroutine stress ...

     negative rho (up, down):  7.487E-01 0.000E+00
          total   stress  (Ry/bohr**3)                   (kbar)     P=  -12.08
  -0.00006905   0.00000000  -0.00000000        -10.16      0.00     -0.00
   0.00000000  -0.00006906   0.00000000          0.00    -10.16      0.00
  -0.00000000   0.00000000  -0.00010819         -0.00      0.00    -15.92

     BFGS Geometry Optimization

     number of scf cycles    =   1
     number of bfgs steps    =   0

     energy   new            =   -1221.3999696298 Ry

     new trust radius        =       0.0419629928 bohr
     new conv_thr            =       0.0000099958 Ry

ATOMIC_POSITIONS (crystal)
Zr1      0.166666667   0.166666667   0.396150897    0   0   0
Zr1      0.666666667   0.166666667   0.396150897    0   0   0
Zr1      0.166666667   0.666666667   0.396150897    0   0   0
Zr1      0.666666667   0.666666667   0.396150897    0   0   0
Zr1      0.833333333   0.333333333   0.500000000    0   0   0
Zr1      0.333333333   0.333333333   0.500000000    0   0   0
Zr1      0.833333333   0.833333333   0.500000000    0   0   0
Zr1      0.333333333   0.833333333   0.500000000    0   0   0
Zr1      0.000000355   0.000000859   0.604370327
Zr1      0.499935930   0.000125541   0.603750028
Zr1      0.000125509   0.499935800   0.603750080
Zr1      0.499938001   0.499937332   0.603750069
S1       0.000000093   0.000000186   0.697253329

     Writing output data file calc.save
     Check: negative starting charge=   -0.729052
     NEW-OLD atomic charge density approx. for the potential
     Check: negative starting charge=   -0.728689

[...]

     Total force =     0.027314     Total SCF correction =     0.001828

[...]

     energy   old            =   -1221.3999696298 Ry
     energy   new            =   -1221.4018801889 Ry

     CASE: energy  _new < energy  _old

[...]

     WARNING: bfgs curvature condition failed, Theta= 0.839
     new trust radius        =       0.0155737883 bohr
     new conv_thr            =       0.0000001000 Ry

[...]

     Total force =     0.009981     Total SCF correction =     0.000347

[...]

     number of scf cycles    =   8
     number of bfgs steps    =   7

     energy   old            =   -1221.4044235895 Ry
     energy   new            =   -1221.4050046764 Ry

     CASE: energy  _new < energy  _old

     new trust radius        =       0.0597783480 bohr
     new conv_thr            =       0.0000001000 Ry

ATOMIC_POSITIONS (crystal)
Zr1      0.166666667   0.166666667   0.396150897    0   0   0
Zr1      0.666666667   0.166666667   0.396150897    0   0   0
Zr1      0.166666667   0.666666667   0.396150897    0   0   0
Zr1      0.666666667   0.666666667   0.396150897    0   0   0
Zr1      0.833333333   0.333333333   0.500000000    0   0   0
Zr1      0.333333333   0.333333333   0.500000000    0   0   0
Zr1      0.833333333   0.833333333   0.500000000    0   0   0
Zr1      0.333333333   0.833333333   0.500000000    0   0   0
Zr1     -0.000000360  -0.000000968   0.600607047
Zr1      0.498545263   0.002908231   0.601322964
Zr1      0.002908339   0.498545743   0.601323495
Zr1      0.498546583   0.498547154   0.601326845
S1       0.000001118   0.000001408   0.692043552

     Writing output data file calc.save
     Check: negative starting charge=   -0.727930
     NEW-OLD atomic charge density approx. for the potential
     Check: negative starting charge=   -0.728369

[...]

     Self-consistent Calculation

[...]

     iteration #  2     ecut=    36.75 Ry     beta=0.30
     Davidson diagonalization with overlap
     c_bands:  1 eigenvalues not converged
     ethr =  2.74E-06,  avg # of iterations =  7.1

[...]

     total energy              =   -1221.40520420 Ry
     Harris-Foulkes estimate   =   -1221.40520453 Ry
     estimated scf accuracy    <       0.00000038 Ry

     iteration # 11     ecut=    36.75 Ry     beta=0.30
     Davidson diagonalization with overlap
     ethr =  2.53E-10,  avg # of iterations =  3.0

[...]

     negative rho (up, down):  7.478E-01 0.000E+00

     Adding external electric field

     Computed dipole along edir(3) :
        Dipole               -0.3392 Ry au,         -0.8622 Debye
        Dipole field         -0.0007 Ry au

        Potential amp.        0.0652 Ry
        Total length         46.5096 bohr

     End of self-consistent calculation

[...]

          k = 0.0519-0.0599 0.0000 ( 22856 PWs)   bands (ev):

[...]

          k =-0.0779-0.0450 0.0000 ( 22880 PWs)   bands (ev):

   -48.0227 -48.0003 -47.9769 -47.9157 -47.9055 -47.8674 -47.8604 -47.6020
   -47.5883 -47.5548 -47.5409 -47.5098 -26.1953 -26.1711 -26.1419 -26.1347
   -26.0979 -26.0920 -26.0744 -26.0319 -26.0132 -25.9740 -25.9707 -25.9590
   -25.9068 -25.9014 -25.8934 -25.8768 -25.8525 -25.8293 -25.7886 -25.6809
   -25.6585 -25.6577 -25.6103 -25.6032 -25.5741 -25.5339 -25.5307 -25.5082
   -25.4880 -25.4697 -25.4304 -25.4140 -25.4112 -25.3844 -25.2944 -25.2811
   -10.3817  -2.2742  -2.2369  -1.5343  -1.4282  -1.2251  -1.0204  -0.9549
    -0.5669  -0.5422  -0.4813  -0.4719  -0.4356  -0.3422   0.2796   0.2940
     0.3105   0.3165   0.3641   0.4321   0.7348   0.8105   0.8297   0.8609
     0.8969   0.9531   1.1143   1.2250   1.3041   1.3138   1.3783   1.5115
     1.5966   1.6265   1.6721   1.7995   2.0278

     the Fermi energy is     1.3210 ev

!    total energy              =   -1221.40520417 Ry
     Harris-Foulkes estimate   =   -1221.40520525 Ry
     estimated scf accuracy    <       0.00000009 Ry

     The total energy is the sum of the following terms:

     one-electron contribution =   -8443.18570764 Ry
     hartree contribution      =    4213.93567942 Ry
     xc contribution           =    -229.38147990 Ry
     ewald contribution        =    3237.33956391 Ry
     electric field correction =       0.00023774 Ry
     smearing contrib. (-TS)   =      -0.11349770 Ry

     convergence has been achieved in  11 iterations

 BEEF-vdW xc energy contributions
           1 :   -196.395915947910
           2 :    177.538934140340
           3 :   -145.785204130004
           4 :    110.063548407673
           5 :   -78.4066508621451
           6 :    55.2085348091876
           7 :   -40.5680140247054
           8 :    31.5959604146767
           9 :   -24.6665141010801
          10 :    17.3668063095816
          11 :   -9.30946571905110
          12 :    1.68874067827974
          13 :    3.90425816637759
          14 :   -6.62001685903124
          15 :    6.82558606655482
          16 :   -5.77343489047212
          17 :    4.79790132695564
          18 :   -4.59054090605571
          19 :    4.97764984453892
          20 :   -5.25700125286113
          21 :    4.79932897891288
          22 :   -3.50126468727257
          23 :    1.82742898329596
          24 :  -0.472296596320234
          25 :  -9.280473130525024E-002
          26 :  -0.115613712630079
          27 :   0.663352927887644
          28 :   -1.02044610729718
          29 :   0.902872453224319
          30 :  -0.416186428136115
          31 :   -22.7927388546647
          32 :   -16.9368290952745

     Forces acting on atoms (Ry/au):

     negative rho (up, down):  7.478E-01 0.000E+00
     atom    1 type  1   force =     0.00065762    0.00037967    0.01430475
     atom    2 type  1   force =    -0.00065769    0.00037942    0.01430407
     atom    3 type  1   force =    -0.00000025   -0.00075927    0.01430385
     atom    4 type  1   force =     0.00000020    0.00000008    0.01516418
     atom    5 type  1   force =    -0.00000232    0.01114313   -0.01859460
     atom    6 type  1   force =     0.00000294    0.00000211   -0.00303320
     atom    7 type  1   force =    -0.00964931   -0.00557143   -0.01860029
     atom    8 type  1   force =     0.00964868   -0.00557384   -0.01859572
     atom    9 type  1   force =    -0.00000043    0.00000019   -0.00002253
     atom   10 type  1   force =     0.00000060   -0.00090117    0.00049360
     atom   11 type  1   force =    -0.00078057    0.00045069    0.00049216
     atom   12 type  1   force =     0.00077950    0.00044967    0.00048424
     atom   13 type  2   force =     0.00000105    0.00000074   -0.00070052

     Total force =     0.001909     Total SCF correction =     0.000840
     SCF correction compared to forces is large: reduce conv_thr to get better values

     entering subroutine stress ...

     negative rho (up, down):  7.478E-01 0.000E+00
          total   stress  (Ry/bohr**3)                   (kbar)     P=   -7.71
  -0.00005490   0.00000000   0.00000000         -8.08      0.00      0.00
   0.00000000  -0.00005490   0.00000000          0.00     -8.08      0.00
   0.00000000   0.00000000  -0.00004737          0.00      0.00     -6.97

     bfgs converged in   9 scf cycles and   8 bfgs steps
     (criteria: energy <  1.0E+00, force <  1.9E-03)

     End of BFGS Geometry Optimization

     Final energy   =   -1221.4052041697 Ry
Begin final coordinates

ATOMIC_POSITIONS (crystal)
Zr1      0.166666667   0.166666667   0.396150897    0   0   0
Zr1      0.666666667   0.166666667   0.396150897    0   0   0
Zr1      0.166666667   0.666666667   0.396150897    0   0   0
Zr1      0.666666667   0.666666667   0.396150897    0   0   0
Zr1      0.833333333   0.333333333   0.500000000    0   0   0
Zr1      0.333333333   0.333333333   0.500000000    0   0   0
Zr1      0.833333333   0.833333333   0.500000000    0   0   0
Zr1      0.333333333   0.833333333   0.500000000    0   0   0
Zr1     -0.000000360  -0.000000968   0.600607047
Zr1      0.498545263   0.002908231   0.601322964
Zr1      0.002908339   0.498545743   0.601323495
Zr1      0.498546583   0.498547154   0.601326845
S1       0.000001118   0.000001408   0.692043552
End final coordinates

     Writing output data file calc.save

     General routines

     Parallel routines

   This run was terminated on:  21:20: 3   2May2018

   JOB DONE.
Job  /afs/slac/g/suncat/bin/suncat-tsmpirun -x LD_LIBRARY_PATH -wdir /scratch/qe27412_CHsOE pw.x -npool 4 -in pw.inp

TID   HOST_NAME   COMMAND_LINE            STATUS            TERMINATION_TIME
00000 suncat0093 pw.x -npool 4 -i  Done                     05/02/2018 21:20:03
00001 suncat0093 pw.x -npool 4 -i  Done                     05/02/2018 21:20:03
00002 suncat0093 pw.x -npool 4 -i  Done                     05/02/2018 21:20:03
00003 suncat0093 pw.x -npool 4 -i  Done                     05/02/2018 21:20:03
00004 suncat0093 pw.x -npool 4 -i  Done                     05/02/2018 21:20:03
00005 suncat0093 pw.x -npool 4 -i  Done                     05/02/2018 21:20:03
00006 suncat0093 pw.x -npool 4 -i  Done                     05/02/2018 21:20:03
00007 suncat0093 pw.x -npool 4 -i  Done                     05/02/2018 21:20:03
00008 suncat0085 pw.x -npool 4 -i  Done                     05/02/2018 21:20:03
00009 suncat0085 pw.x -npool 4 -i  Done                     05/02/2018 21:20:03
00010 suncat0085 pw.x -npool 4 -i  Done                     05/02/2018 21:20:03
00011 suncat0085 pw.x -npool 4 -i  Done                     05/02/2018 21:20:03
00012 suncat0085 pw.x -npool 4 -i  Done                     05/02/2018 21:20:03
00013 suncat0085 pw.x -npool 4 -i  Done                     05/02/2018 21:20:03
00014 suncat0085 pw.x -npool 4 -i  Done                     05/02/2018 21:20:03
00015 suncat0085 pw.x -npool 4 -i  Done                     05/02/2018 21:20:03
00016 suncat0083 pw.x -npool 4 -i  Done                     05/02/2018 21:20:03
00017 suncat0083 pw.x -npool 4 -i  Done                     05/02/2018 21:20:03
00018 suncat0083 pw.x -npool 4 -i  Done                     05/02/2018 21:20:03
00019 suncat0083 pw.x -npool 4 -i  Done                     05/02/2018 21:20:03
00020 suncat0083 pw.x -npool 4 -i  Done                     05/02/2018 21:20:03
00021 suncat0083 pw.x -npool 4 -i  Done                     05/02/2018 21:20:03
00022 suncat0083 pw.x -npool 4 -i  Done                     05/02/2018 21:20:03
00023 suncat0083 pw.x -npool 4 -i  Done                     05/02/2018 21:20:03
00024 suncat0063 pw.x -npool 4 -i  Done                     05/02/2018 21:20:03
00025 suncat0063 pw.x -npool 4 -i  Done                     05/02/2018 21:20:03
00026 suncat0063 pw.x -npool 4 -i  Done                     05/02/2018 21:20:03
00027 suncat0063 pw.x -npool 4 -i  Done                     05/02/2018 21:20:03
00028 suncat0063 pw.x -npool 4 -i  Done                     05/02/2018 21:20:03
00029 suncat0063 pw.x -npool 4 -i  Done                     05/02/2018 21:20:03
00030 suncat0063 pw.x -npool 4 -i  Done                     05/02/2018 21:20:03
00031 suncat0063 pw.x -npool 4 -i  Done                     05/02/2018 21:20:03