     Program PWSCF v.5.1rc2 (svn rev. ) starts on 18Apr2018 at  1:23:18

     Current dimensions of program PWSCF are:
     Max number of different atomic species (ntypx) = 10
     Max number of k-points (npk) =  40000
     Max angular momentum in pseudopotentials (lmaxx) =  3
     Presently stress not available with electric field

     IMPORTANT: XC functional enforced from input :
     Exchange-correlation      = BEEF-VDW ( 1  4 27 13 2)
     Any further DFT definition will be discarded
     Please, verify this is what you really want

     Subspace diagonalization in iterative solution of the eigenvalue problem:
     a serial algorithm will be used

     bravais-lattice index     =            0
     lattice parameter (alat)  =       1.8897  a.u.
     unit-cell volume          =    6024.3322 (a.u.)^3
     number of atoms/cell      =           14
     number of atomic types    =            3
     number of electrons       =       149.00
     number of Kohn-Sham states=           84
     kinetic-energy cutoff     =      36.7493  Ry
     charge density cutoff     =     367.4932  Ry
     convergence threshold     =      1.0E-05
     mixing beta               =       0.3000
     number of iterations used =           10  plain     mixing
     Exchange-correlation      = BEEF-VDW ( 1  4 27 13 2)
     nstep                     =           50

     celldm(1)=   1.889726  celldm(2)=   0.000000  celldm(3)=   0.000000
     celldm(4)=   0.000000  celldm(5)=   0.000000  celldm(6)=   0.000000

     crystal axes: (cart. coord. in units of alat)
               a(1) = (   6.393197   0.000000   0.000000 )
               a(2) = (   3.196599   5.536671   0.000000 )
               a(3) = (   0.000000   0.000000  25.220024 )

     reciprocal axes: (cart. coord. in units 2 pi/alat)
               b(1) = (  0.156416 -0.090307  0.000000 )
               b(2) = (  0.000000  0.180614  0.000000 )
               b(3) = (  0.000000  0.000000  0.039651 )

     PseudoPot. # 1 for Hf read from file:
     /home/mamunm/src/pseudo/gbrv1.5pbe/Hf.UPF
     MD5 check sum: 8ee9378dfe14276e333edf04c5e4aa26
     Pseudo is Ultrasoft + core correction, Zval = 12.0
     Generated by new atomic code, or converted to UPF format
     Using radial grid of  921 points,  8 beta functions with:
                l(1) =   0
                l(2) =   0
                l(3) =   0
                l(4) =   1
                l(5) =   1
                l(6) =   2
                l(7) =   2
                l(8) =   3
     Q(r) pseudized with  6 coefficients,  rinner =    1.200   1.200   1.200
                                                       1.200   1.200   1.200
                                                       1.200

     PseudoPot. # 2 for C  read from file:
     /home/mamunm/src/pseudo/gbrv1.5pbe/C.UPF
     MD5 check sum: d1aef80898a10debaa0f26306b886e00
     Pseudo is Ultrasoft + core correction, Zval =  4.0
     Generated by new atomic code, or converted to UPF format
     Using radial grid of  721 points,  4 beta functions with:
                l(1) =   0
                l(2) =   0
                l(3) =   1
                l(4) =   1
     Q(r) pseudized with  8 coefficients,  rinner =    1.100   1.100   1.100

     PseudoPot. # 3 for H  read from file:
     /home/mamunm/src/pseudo/gbrv1.5pbe/H.UPF
     MD5 check sum: 761ae9a214b05c3daf00ab9f6b793d6f
     Pseudo is Ultrasoft, Zval =  1.0
     Generated by new atomic code, or converted to UPF format
     Using radial grid of  615 points,  2 beta functions with:
                l(1) =   0
                l(2) =   0
     Q(r) pseudized with  8 coefficients,  rinner =    0.700

     vdW kernel table read from file vdW_kernel_table
     MD5 check sum: 095c7af220d748ca6e76c0b4c6cfb241

     atomic species   valence    mass     pseudopotential
        Hf1           12.00   178.49000     Hf( 1.00)
        C1             4.00    12.01100     C ( 1.00)
        H1             1.00     1.00800     H ( 1.00)

     No symmetry found

   Cartesian axes

     site n.     atom                  positions (alat units)
         1           Hf1 tau(   1) = (   1.5982993   0.9227785  10.0000000  )
         2           Hf1 tau(   2) = (   4.7948978   0.9227785  10.0000000  )
         3           Hf1 tau(   3) = (   3.1965986   3.6911141  10.0000000  )
         4           Hf1 tau(   4) = (   6.3931971   3.6911141  10.0000000  )
         5           Hf1 tau(   5) = (   6.3931971   1.8455570  12.6100118  )
         6           Hf1 tau(   6) = (   3.1965986   1.8455570  12.6100118  )
         7           Hf1 tau(   7) = (   7.9914964   4.6138926  12.6100118  )
         8           Hf1 tau(   8) = (   4.7948978   4.6138926  12.6100118  )
         9           Hf1 tau(   9) = (   0.0000000   0.0000000  15.2200236  )
        10           Hf1 tau(  10) = (   3.1965986   0.0000000  15.2200236  )
        11           Hf1 tau(  11) = (   1.5982993   2.7683356  15.2200236  )
        12           Hf1 tau(  12) = (   4.7948978   2.7683356  15.2200236  )
        13           C1  tau(  13) = (   1.5982993   0.9227785  16.8515236  )
        14           H1  tau(  14) = (   1.5982993   0.9227785  17.9515236  )

     number of k points=    20  Fermi-Dirac smearing, width (Ry)=  0.0110
                       cart. coord. in units 2pi/alat
        k(    1) = (   0.0000000   0.0000000   0.0000000), wk =   0.0555556
        k(    2) = (   0.0000000   0.0301023   0.0000000), wk =   0.1111111
        k(    3) = (   0.0000000   0.0602046   0.0000000), wk =   0.1111111
        k(    4) = (   0.0000000  -0.0903070   0.0000000), wk =   0.0555556
        k(    5) = (   0.0260694  -0.0150512   0.0000000), wk =   0.1111111
        k(    6) = (   0.0260694   0.0150512   0.0000000), wk =   0.1111111
        k(    7) = (   0.0260694   0.0451535   0.0000000), wk =   0.1111111
        k(    8) = (   0.0260694  -0.1053581   0.0000000), wk =   0.1111111
        k(    9) = (   0.0260694  -0.0752558   0.0000000), wk =   0.1111111
        k(   10) = (   0.0260694  -0.0451535   0.0000000), wk =   0.1111111
        k(   11) = (   0.0521388  -0.0301023   0.0000000), wk =   0.1111111
        k(   12) = (   0.0521388   0.0000000   0.0000000), wk =   0.1111111
        k(   13) = (   0.0521388   0.0301023   0.0000000), wk =   0.1111111
        k(   14) = (   0.0521388  -0.1204093   0.0000000), wk =   0.1111111
        k(   15) = (   0.0521388  -0.0903070   0.0000000), wk =   0.1111111
        k(   16) = (   0.0521388  -0.0602046   0.0000000), wk =   0.1111111
        k(   17) = (  -0.0782081   0.0451535   0.0000000), wk =   0.0555556
        k(   18) = (  -0.0782081   0.0752558   0.0000000), wk =   0.1111111
        k(   19) = (  -0.0782081   0.1053581   0.0000000), wk =   0.1111111
        k(   20) = (  -0.0782081  -0.0451535   0.0000000), wk =   0.0555556

     Largest allocated arrays     est. size (Mb)     dimensions
     Largest temporary arrays     est. size (Mb)     dimensions

     Check: negative/imaginary core charge=   -0.000003    0.000000

     Initial potential from superposition of free atoms
     Check: negative starting charge=   -1.301318

     starting charge  124.99993, renormalised to  149.00000

     negative rho (up, down):  1.551E+00 0.000E+00

     *
     * You are using vdW-DF for exchange-correlation in this calculation.
     * Please cite the following three references that made this development
     * possible:
     *
     *   M. Dion, H. Rydberg, E. Schroder, D. C. Langreth, and
     *   B. I. Lundqvist, Phys. Rev. Lett. 92, 246401 (2004).
     *
     *   T. Thonhauser, V. R. Cooper, S. Li, A. Puzder, P. Hyldgaard, and
     *   D. C. Langreth, Phys. Rev. B 76, 125112 (2007).
     *
     *   G. Roman-Perez and J. M. Soler, Phys. Rev. Lett. 103, 096102 (2009).
     *
     *
     * If you are using vdW-DF2, please also cite:
     *
     *   K. Lee, E. D. Murray, L. Kong, B. I. Lundqvist, and
     *   D. C. Langreth, Phys. Rev. B 82, 081101(R) (2010).
     *
     *
     * If you are calculating the stress with vdW-DF, please also cite:
     *
     *   R. Sabatini, E. Kucukbenli, B. Kolb, T. Thonhauser, and
     *   S. de Gironcoli, J. Phys.: Condens. Matter 24, 424209 (2012).
     *

     Carrying out vdW-DF run using the following parameters:

     Nqs =      20    Nr_points =    1024   r_max =   100.000
     q_mesh =
               0.00001000     0.04494208     0.09755937     0.15916263
               0.23128650     0.31572767     0.41458969     0.53033537
               0.66584808     0.82450364     1.01025438     1.22772762
               1.48234092     1.78043706     2.12944203     2.53805004
               3.01644009     3.57652955     4.23227104     5.00000000

     Gradients computed in reciprocal space

     Adding external electric field

     Computed dipole along edir(3) :
        Dipole               -8.0933 Ry au,        -20.5712 Debye
        Dipole field         -0.0169 Ry au

        Potential amp.        1.5689 Ry
        Total length         46.4675 bohr

     Starting wfc are  161 randomized atomic wfcs

     Self-consistent Calculation

     iteration #  1     ecut=    36.75 Ry     beta=0.30
     Davidson diagonalization with overlap
     ethr =  1.00E-02,  avg # of iterations =  9.1

[...]

     total energy              =   -1351.53321946 Ry
     Harris-Foulkes estimate   =   -1929.00079844 Ry
     estimated scf accuracy    <    1240.63827579 Ry

     iteration #  2     ecut=    36.75 Ry     beta=0.30
     Davidson diagonalization with overlap
     c_bands:  4 eigenvalues not converged
     c_bands:  5 eigenvalues not converged
     ethr =  1.00E-02,  avg # of iterations = 21.2

[...]

     End of self-consistent calculation

          k = 0.0000 0.0000 0.0000 ( 22729 PWs)   bands (ev):

   -61.3371 -61.2461 -61.2127 -61.2124 -61.2103 -61.0901 -61.0652 -61.0650
   -60.8091 -60.7810 -60.7806 -60.7371 -30.0013 -30.0012 -29.9956 -29.9791
   -29.9698 -29.9698 -29.8896 -29.8590 -29.8066 -29.8064 -29.7909 -29.6690
   -29.6653 -29.6651 -29.5855 -29.5838 -29.5837 -29.5373 -29.5372 -29.5193
   -29.4683 -29.4682 -29.4653 -29.4565 -29.4565 -29.3169 -29.3168 -29.2674
   -29.2572 -29.2569 -29.1961 -29.1703 -29.1617 -29.1615 -29.0410 -29.0410
    -8.9114  -5.1103  -3.9876  -2.9307  -2.1992  -1.6849  -1.6849  -1.4592
    -1.4267  -1.4267  -1.3274  -1.0797  -1.0796  -0.6600  -0.3162  -0.3161
    -0.0880   0.2330   0.2330   0.8899   0.8961   0.8961   1.4021   1.5832
     1.8056   1.8334   1.8782   1.8782   1.9733   1.9733   2.2099   2.3477
     2.5210   2.5212   2.6734   2.6959

[...]

          k =-0.0782 0.0452 0.0000 ( 22668 PWs)   bands (ev):

[...]

     the Fermi energy is     1.3864 ev

!    total energy              =   -1939.40351798 Ry
     Harris-Foulkes estimate   =   -1939.40352242 Ry
     estimated scf accuracy    <       0.00000901 Ry

     The total energy is the sum of the following terms:

     one-electron contribution =   -8509.15365787 Ry
     hartree contribution      =    4239.38978252 Ry
     xc contribution           =    -932.02899893 Ry
     ewald contribution        =    3262.50234547 Ry
     electric field correction =       0.00000390 Ry
     smearing contrib. (-TS)   =      -0.11299307 Ry

     convergence has been achieved in  37 iterations

 BEEF-vdW xc energy contributions
           1 :   -842.640156145199
           2 :    783.098816229080
           3 :   -677.627658473106
           4 :    548.060363822372
           5 :   -416.946098475477
           6 :    301.232798388447
           7 :   -209.513766745718
           8 :    142.951670691651
           9 :   -98.3275939801844
          10 :    71.0133423503183
          11 :   -56.5255121353390
          12 :    50.6079117954694
          13 :   -48.8180867583369
          14 :    46.6032641376360
          15 :   -40.2134232372576
          16 :    27.9471463639948
          17 :   -10.8796913883563
          18 :   -7.54762722385465
          19 :    22.9898103360061
          20 :   -32.0158999983545
          21 :    33.3801315803297
          22 :   -28.2158921578588
          23 :    19.2319044481156
          24 :   -9.50358015207451
          25 :    1.51414589589501
          26 :    3.21589886778690
          27 :   -4.03636544501182
          28 :   0.969150019306994
          29 :    5.32547211996905
          30 :   -13.4578740754961
          31 :   -60.6948654084987
          32 :   -43.6467719497407

     Forces acting on atoms (Ry/au):

     negative rho (up, down):  1.380E+00 0.000E+00
     atom    1 type  1   force =    -0.00001715    0.00003670    0.02234771
     atom    2 type  1   force =     0.00001454    0.00219928    0.02404062
     atom    3 type  1   force =     0.00185986   -0.00110399    0.02397640
     atom    4 type  1   force =    -0.00186891   -0.00112296    0.02394760
     atom    5 type  1   force =    -0.00273894    0.00154559   -0.00188801
     atom    6 type  1   force =     0.00273664    0.00151380   -0.00178453
     atom    7 type  1   force =    -0.00002557    0.00004911   -0.00944006
     atom    8 type  1   force =     0.00002390   -0.00313345   -0.00187162
     atom    9 type  1   force =     0.02597835    0.01505597    0.02602632
     atom   10 type  1   force =    -0.02596739    0.01506044    0.02600281
     atom   11 type  1   force =     0.00000321   -0.03005298    0.02596345
     atom   12 type  1   force =    -0.00000798   -0.00005976   -0.02318787
     atom   13 type  2   force =     0.00000890    0.00000733   -0.12564753
     atom   14 type  3   force =     0.00000055    0.00000494   -0.00848527

     Total force =     0.145363     Total SCF correction =     0.006803

     entering subroutine stress ...

     negative rho (up, down):  1.380E+00 0.000E+00
          total   stress  (Ry/bohr**3)                   (kbar)     P=  -27.92
  -0.00016763  -0.00000000   0.00000001        -24.66     -0.00      0.00
  -0.00000000  -0.00016761  -0.00000000         -0.00    -24.66     -0.00
   0.00000001  -0.00000000  -0.00023422          0.00     -0.00    -34.45

     BFGS Geometry Optimization

     number of scf cycles    =   1
     number of bfgs steps    =   0

     energy   new            =   -1939.4035179816 Ry

     new trust radius        =       0.1256475337 bohr
     new conv_thr            =       0.0000099958 Ry

ATOMIC_POSITIONS (crystal)
Hf1      0.166666667   0.166666667   0.396510335    0   0   0
Hf1      0.666666667   0.166666667   0.396510335    0   0   0
Hf1      0.166666667   0.666666667   0.396510335    0   0   0
Hf1      0.666666667   0.666666667   0.396510335    0   0   0
Hf1      0.833333333   0.333333333   0.500000000    0   0   0
Hf1      0.333333333   0.333333333   0.500000000    0   0   0
Hf1      0.833333333   0.833333333   0.500000000    0   0   0
Hf1      0.333333333   0.833333333   0.500000000    0   0   0
Hf1      0.001430777   0.001439001   0.604035760
Hf1      0.497130914   0.001439429   0.604035267
Hf1      0.001436449   0.497127633   0.604034441
Hf1      0.500002196   0.499994288   0.603003128
C1       0.166667053   0.166667367   0.665543937
H1       0.166666476   0.166667139   0.711618422

     Writing output data file calc.save
     Check: negative starting charge=   -1.301318
     NEW-OLD atomic charge density approx. for the potential

     Check: negative/imaginary core charge=   -0.000003    0.000000
     Check: negative starting charge=   -1.300185

[...]

     energy   old            =   -1939.4035179816 Ry
     energy   new            =   -1939.4190271559 Ry

     CASE: energy  _new < energy  _old

[...]

     iteration #  1     ecut=    36.75 Ry     beta=0.30
     Davidson diagonalization with overlap
     c_bands:  1 eigenvalues not converged
     ethr =  1.00E-06,  avg # of iterations = 15.4

[...]

     Total force =     0.007999     Total SCF correction =     0.000181

[...]

     number of scf cycles    =  14
     number of bfgs steps    =  13

     energy   old            =   -1939.4783865786 Ry
     energy   new            =   -1939.4785745279 Ry

     CASE: energy  _new < energy  _old

     new trust radius        =       0.0117197905 bohr
     new conv_thr            =       0.0000001000 Ry

ATOMIC_POSITIONS (crystal)
Hf1      0.166666667   0.166666667   0.396510335    0   0   0
Hf1      0.666666667   0.166666667   0.396510335    0   0   0
Hf1      0.166666667   0.666666667   0.396510335    0   0   0
Hf1      0.666666667   0.666666667   0.396510335    0   0   0
Hf1      0.833333333   0.333333333   0.500000000    0   0   0
Hf1      0.333333333   0.333333333   0.500000000    0   0   0
Hf1      0.833333333   0.833333333   0.500000000    0   0   0
Hf1      0.333333333   0.833333333   0.500000000    0   0   0
Hf1     -0.000130502  -0.000133605   0.599844584
Hf1      0.500342697  -0.000121124   0.599849376
Hf1     -0.000120765   0.500345592   0.599848905
Hf1      0.499999579   0.500004261   0.595069798
C1       0.166676293   0.166683505   0.646013815
H1       0.166656852   0.166661651   0.689814525

     Writing output data file calc.save
     Check: negative starting charge=   -1.298991
     NEW-OLD atomic charge density approx. for the potential

     Check: negative/imaginary core charge=   -0.000003    0.000000
     Check: negative starting charge=   -1.299329

[...]

     Self-consistent Calculation

[...]

     total energy              =   -1939.47860477 Ry
     Harris-Foulkes estimate   =   -1939.47860481 Ry
     estimated scf accuracy    <       0.00000023 Ry

     iteration # 11     ecut=    36.75 Ry     beta=0.30
     Davidson diagonalization with overlap
     ethr =  1.54E-10,  avg # of iterations =  3.0

[...]

     negative rho (up, down):  1.377E+00 0.000E+00

     Adding external electric field

     Computed dipole along edir(3) :
        Dipole                0.1152 Ry au,          0.2927 Debye
        Dipole field          0.0002 Ry au

        Potential amp.       -0.0223 Ry
        Total length         46.4675 bohr

     End of self-consistent calculation

[...]

          k = 0.0521-0.0602 0.0000 ( 22643 PWs)   bands (ev):

[...]

          k =-0.0782-0.0452 0.0000 ( 22668 PWs)   bands (ev):

   -61.1111 -61.1110 -61.0941 -61.0939 -60.9611 -60.6901 -60.6801 -60.6715
   -60.5407 -60.5399 -60.5244 -60.5235 -29.7760 -29.7758 -29.7219 -29.7157
   -29.6662 -29.6637 -29.6462 -29.6131 -29.6074 -29.6030 -29.5710 -29.5680
   -29.5078 -29.4504 -29.4076 -29.4010 -29.4004 -29.3803 -29.3745 -29.2704
   -29.2605 -29.1965 -29.1645 -29.1500 -29.1360 -29.0522 -29.0512 -29.0279
   -29.0223 -28.9931 -28.9817 -28.9764 -28.9718 -28.9371 -28.8671 -28.8588
    -9.2469  -3.7256  -3.4496  -3.0548  -2.3081  -1.7455  -1.2939  -1.2491
    -0.9458  -0.8704  -0.6725  -0.3692  -0.3050   0.0833   0.3744   0.4737
     0.5259   0.5774   0.6810   0.6946   0.9488   0.9605   1.0583   1.0947
     1.1435   1.1841   1.3684   1.4304   1.4360   1.5172   1.6074   1.7345
     1.8369   1.9618   2.0795   2.4540

     the Fermi energy is     1.5083 ev

!    total energy              =   -1939.47860478 Ry
     Harris-Foulkes estimate   =   -1939.47860424 Ry
     estimated scf accuracy    <       0.00000003 Ry

     The total energy is the sum of the following terms:

     one-electron contribution =   -8743.96574433 Ry
     hartree contribution      =    4357.88035389 Ry
     xc contribution           =    -932.54590750 Ry
     ewald contribution        =    3379.26245305 Ry
     electric field correction =       0.00002766 Ry
     smearing contrib. (-TS)   =      -0.10978756 Ry

     convergence has been achieved in  11 iterations

 BEEF-vdW xc energy contributions
           1 :   -843.153492476618
           2 :    783.742375888923
           3 :   -678.391449743717
           4 :    548.783159450833
           5 :   -417.423234227151
           6 :    301.352152755605
           7 :   -209.328153353886
           8 :    142.641516055703
           9 :   -98.0831751786340
          10 :    70.9220630979629
          11 :   -56.5378899550353
          12 :    50.5976703771596
          13 :   -48.6873794740850
          14 :    46.3580652308990
          15 :   -39.9593561302936
          16 :    27.8134860734035
          17 :   -10.9277722648264
          18 :   -7.36593257067761
          19 :    22.7957301896001
          20 :   -31.9183395839829
          21 :    33.4034146919695
          22 :   -28.2917088189276
          23 :    19.2579826700299
          24 :   -9.42360895050444
          25 :    1.35822143232713
          26 :    3.36027987969624
          27 :   -4.09688501766004
          28 :   0.945375541836597
          29 :    5.36580399912827
          30 :   -13.4390090033440
          31 :   -60.7303731231054
          32 :   -43.7043496376140

     Forces acting on atoms (Ry/au):

     negative rho (up, down):  1.377E+00 0.000E+00
     atom    1 type  1   force =    -0.00001437   -0.00000796    0.01601484
     atom    2 type  1   force =     0.00000199    0.00126093    0.02135814
     atom    3 type  1   force =     0.00109268   -0.00062900    0.02135763
     atom    4 type  1   force =    -0.00110206   -0.00063668    0.02132295
     atom    5 type  1   force =     0.00082123   -0.00044177   -0.01773853
     atom    6 type  1   force =    -0.00080715   -0.00046651   -0.01771936
     atom    7 type  1   force =    -0.00000508   -0.00000199   -0.02736240
     atom    8 type  1   force =     0.00002832    0.00093295   -0.01773929
     atom    9 type  1   force =    -0.00003827   -0.00001664    0.00010623
     atom   10 type  1   force =    -0.00002980   -0.00001550    0.00010454
     atom   11 type  1   force =    -0.00003337   -0.00001851    0.00010611
     atom   12 type  1   force =     0.00006272    0.00003111    0.00021393
     atom   13 type  2   force =     0.00003151    0.00001414   -0.00017771
     atom   14 type  3   force =    -0.00000835   -0.00000458    0.00015291

     Total force =     0.000380     Total SCF correction =     0.000357
     SCF correction compared to forces is large: reduce conv_thr to get better values

     entering subroutine stress ...

     negative rho (up, down):  1.377E+00 0.000E+00
          total   stress  (Ry/bohr**3)                   (kbar)     P=  -13.75
  -0.00009509  -0.00000001  -0.00000002        -13.99     -0.00     -0.00
  -0.00000001  -0.00009507  -0.00000001         -0.00    -13.99     -0.00
  -0.00000002  -0.00000001  -0.00009034         -0.00     -0.00    -13.29

     bfgs converged in  15 scf cycles and  14 bfgs steps
     (criteria: energy <  1.0E+00, force <  1.9E-03)

     End of BFGS Geometry Optimization

     Final energy   =   -1939.4786047838 Ry
Begin final coordinates

ATOMIC_POSITIONS (crystal)
Hf1      0.166666667   0.166666667   0.396510335    0   0   0
Hf1      0.666666667   0.166666667   0.396510335    0   0   0
Hf1      0.166666667   0.666666667   0.396510335    0   0   0
Hf1      0.666666667   0.666666667   0.396510335    0   0   0
Hf1      0.833333333   0.333333333   0.500000000    0   0   0
Hf1      0.333333333   0.333333333   0.500000000    0   0   0
Hf1      0.833333333   0.833333333   0.500000000    0   0   0
Hf1      0.333333333   0.833333333   0.500000000    0   0   0
Hf1     -0.000130502  -0.000133605   0.599844584
Hf1      0.500342697  -0.000121124   0.599849376
Hf1     -0.000120765   0.500345592   0.599848905
Hf1      0.499999579   0.500004261   0.595069798
C1       0.166676293   0.166683505   0.646013815
H1       0.166656852   0.166661651   0.689814525
End final coordinates

     Writing output data file calc.save

     General routines

     Parallel routines

   This run was terminated on:   3: 5:46  18Apr2018

   JOB DONE.