     Program PWSCF v.5.1rc2 (svn rev. ) starts on 16Apr2018 at 11:16:30

     Current dimensions of program PWSCF are:
     Max number of different atomic species (ntypx) = 10
     Max number of k-points (npk) =  40000
     Max angular momentum in pseudopotentials (lmaxx) =  3
     Presently stress not available with electric field

     IMPORTANT: XC functional enforced from input :
     Exchange-correlation      = BEEF-VDW ( 1  4 27 13 2)
     Any further DFT definition will be discarded
     Please, verify this is what you really want

     Subspace diagonalization in iterative solution of the eigenvalue problem:
     a serial algorithm will be used

     bravais-lattice index     =            0
     lattice parameter (alat)  =       1.8897  a.u.
     unit-cell volume          =    4650.5773 (a.u.)^3
     number of atoms/cell      =           14
     number of atomic types    =            3
     number of electrons       =        43.00
     number of Kohn-Sham states=           31
     kinetic-energy cutoff     =      36.7493  Ry
     charge density cutoff     =     367.4932  Ry
     convergence threshold     =      1.0E-05
     mixing beta               =       0.3000
     number of iterations used =           10  plain     mixing
     Exchange-correlation      = BEEF-VDW ( 1  4 27 13 2)
     nstep                     =           50

     celldm(1)=   1.889726  celldm(2)=   0.000000  celldm(3)=   0.000000
     celldm(4)=   0.000000  celldm(5)=   0.000000  celldm(6)=   0.000000

     crystal axes: (cart. coord. in units of alat)
               a(1) = (   5.682886   0.000000   0.000000 )
               a(2) = (   2.841443   4.921524   0.000000 )
               a(3) = (   0.000000   0.000000  24.640057 )

     reciprocal axes: (cart. coord. in units 2 pi/alat)
               b(1) = (  0.175967 -0.101595  0.000000 )
               b(2) = (  0.000000  0.203189  0.000000 )
               b(3) = (  0.000000  0.000000  0.040584 )

     PseudoPot. # 1 for Al read from file:
     /home/mamunm/src/pseudo/gbrv1.5pbe/Al.UPF
     MD5 check sum: 0a6289f5291fc8f409219462bc851e1f
     Pseudo is Ultrasoft + core correction, Zval =  3.0
     Generated by new atomic code, or converted to UPF format
     Using radial grid of  893 points,  3 beta functions with:
                l(1) =   0
                l(2) =   1
                l(3) =   2
     Q(r) pseudized with  8 coefficients,  rinner =    0.900   0.900   0.900
                                                       0.900   0.900

     PseudoPot. # 2 for O  read from file:
     /home/mamunm/src/pseudo/gbrv1.5pbe/O.UPF
     MD5 check sum: 734c27235a0248c51dbae37a1fbe46ec
     Pseudo is Ultrasoft + core correction, Zval =  6.0
     Generated by new atomic code, or converted to UPF format
     Using radial grid of  737 points,  5 beta functions with:
                l(1) =   0
                l(2) =   0
                l(3) =   1
                l(4) =   1
                l(5) =   2
     Q(r) pseudized with  8 coefficients,  rinner =    0.900   0.900   0.900
                                                       0.900   0.900

     PseudoPot. # 3 for H  read from file:
     /home/mamunm/src/pseudo/gbrv1.5pbe/H.UPF
     MD5 check sum: 761ae9a214b05c3daf00ab9f6b793d6f
     Pseudo is Ultrasoft, Zval =  1.0
     Generated by new atomic code, or converted to UPF format
     Using radial grid of  615 points,  2 beta functions with:
                l(1) =   0
                l(2) =   0
     Q(r) pseudized with  8 coefficients,  rinner =    0.700

     vdW kernel table read from file vdW_kernel_table
     MD5 check sum: 095c7af220d748ca6e76c0b4c6cfb241

     atomic species   valence    mass     pseudopotential
        Al1            3.00    26.98154     Al( 1.00)
        O1             6.00    15.99900     O ( 1.00)
        H1             1.00     1.00800     H ( 1.00)

     No symmetry found

   Cartesian axes

     site n.     atom                  positions (alat units)
         1           Al1 tau(   1) = (   1.4207216   0.8202540  10.0000000  )
         2           Al1 tau(   2) = (   4.2621647   0.8202540  10.0000000  )
         3           Al1 tau(   3) = (   2.8414431   3.2810159  10.0000000  )
         4           Al1 tau(   4) = (   5.6828862   3.2810159  10.0000000  )
         5           Al1 tau(   5) = (   5.6828862   1.6405079  12.3200286  )
         6           Al1 tau(   6) = (   2.8414431   1.6405079  12.3200286  )
         7           Al1 tau(   7) = (   7.1036078   4.1012699  12.3200286  )
         8           Al1 tau(   8) = (   4.2621647   4.1012699  12.3200286  )
         9           Al1 tau(   9) = (   0.0000000   0.0000000  14.6400572  )
        10           Al1 tau(  10) = (   2.8414431   0.0000000  14.6400572  )
        11           Al1 tau(  11) = (   1.4207216   2.4607619  14.6400572  )
        12           Al1 tau(  12) = (   4.2621647   2.4607619  14.6400572  )
        13           O1  tau(  13) = (   2.8414431   1.6405079  15.8555572  )
        14           H1  tau(  14) = (   2.8414431   1.6405079  16.8055572  )

     number of k points=    20  Fermi-Dirac smearing, width (Ry)=  0.0110
                       cart. coord. in units 2pi/alat
        k(    1) = (   0.0000000   0.0000000   0.0000000), wk =   0.0555556
        k(    2) = (   0.0000000   0.0338648   0.0000000), wk =   0.1111111
        k(    3) = (   0.0000000   0.0677297   0.0000000), wk =   0.1111111
        k(    4) = (   0.0000000  -0.1015945   0.0000000), wk =   0.0555556
        k(    5) = (   0.0293278  -0.0169324   0.0000000), wk =   0.1111111
        k(    6) = (   0.0293278   0.0169324   0.0000000), wk =   0.1111111
        k(    7) = (   0.0293278   0.0507973   0.0000000), wk =   0.1111111
        k(    8) = (   0.0293278  -0.1185270   0.0000000), wk =   0.1111111
        k(    9) = (   0.0293278  -0.0846621   0.0000000), wk =   0.1111111
        k(   10) = (   0.0293278  -0.0507973   0.0000000), wk =   0.1111111
        k(   11) = (   0.0586556  -0.0338648   0.0000000), wk =   0.1111111
        k(   12) = (   0.0586556   0.0000000   0.0000000), wk =   0.1111111
        k(   13) = (   0.0586556   0.0338648   0.0000000), wk =   0.1111111
        k(   14) = (   0.0586556  -0.1354594   0.0000000), wk =   0.1111111
        k(   15) = (   0.0586556  -0.1015945   0.0000000), wk =   0.1111111
        k(   16) = (   0.0586556  -0.0677297   0.0000000), wk =   0.1111111
        k(   17) = (  -0.0879835   0.0507973   0.0000000), wk =   0.0555556
        k(   18) = (  -0.0879835   0.0846621   0.0000000), wk =   0.1111111
        k(   19) = (  -0.0879835   0.1185270   0.0000000), wk =   0.1111111
        k(   20) = (  -0.0879835  -0.0507973   0.0000000), wk =   0.0555556

     Largest allocated arrays     est. size (Mb)     dimensions
     Largest temporary arrays     est. size (Mb)     dimensions

     Initial potential from superposition of free atoms
     Check: negative starting charge=   -0.000275

     starting charge   42.97041, renormalised to   43.00000

     negative rho (up, down):  2.753E-04 0.000E+00

     *
     * You are using vdW-DF for exchange-correlation in this calculation.
     * Please cite the following three references that made this development
     * possible:
     *
     *   M. Dion, H. Rydberg, E. Schroder, D. C. Langreth, and
     *   B. I. Lundqvist, Phys. Rev. Lett. 92, 246401 (2004).
     *
     *   T. Thonhauser, V. R. Cooper, S. Li, A. Puzder, P. Hyldgaard, and
     *   D. C. Langreth, Phys. Rev. B 76, 125112 (2007).
     *
     *   G. Roman-Perez and J. M. Soler, Phys. Rev. Lett. 103, 096102 (2009).
     *
     *
     * If you are using vdW-DF2, please also cite:
     *
     *   K. Lee, E. D. Murray, L. Kong, B. I. Lundqvist, and
     *   D. C. Langreth, Phys. Rev. B 82, 081101(R) (2010).
     *
     *
     * If you are calculating the stress with vdW-DF, please also cite:
     *
     *   R. Sabatini, E. Kucukbenli, B. Kolb, T. Thonhauser, and
     *   S. de Gironcoli, J. Phys.: Condens. Matter 24, 424209 (2012).
     *

     Carrying out vdW-DF run using the following parameters:

     Nqs =      20    Nr_points =    1024   r_max =   100.000
     q_mesh =
               0.00001000     0.04494208     0.09755937     0.15916263
               0.23128650     0.31572767     0.41458969     0.53033537
               0.66584808     0.82450364     1.01025438     1.22772762
               1.48234092     1.78043706     2.12944203     2.53805004
               3.01644009     3.57652955     4.23227104     5.00000000

     Gradients computed in reciprocal space

     Adding external electric field

     Computed dipole along edir(3) :
        Dipole               -0.0334 Ry au,         -0.0848 Debye
        Dipole field         -0.0001 Ry au

        Potential amp.        0.0082 Ry
        Total length         45.3989 bohr

     Starting wfc are   53 randomized atomic wfcs

     Self-consistent Calculation

     iteration #  1     ecut=    36.75 Ry     beta=0.30
     Davidson diagonalization with overlap
     ethr =  1.00E-02,  avg # of iterations =  3.0

[...]

     total energy              =    -115.93896217 Ry
     Harris-Foulkes estimate   =    -116.52995502 Ry
     estimated scf accuracy    <       1.38703481 Ry

[...]

     End of self-consistent calculation

          k = 0.0000 0.0000 0.0000 ( 17579 PWs)   bands (ev):

   -22.7035 -11.3555 -10.3606  -8.5937  -7.2530  -7.2530  -6.0624  -4.7245
    -4.6858  -4.6858  -4.6183  -4.6183  -4.4711  -3.3923  -3.3923  -3.3052
    -2.7781  -2.4303  -2.4258  -2.4258  -0.5077  -0.3103  -0.3103   0.1929
     0.1929   0.2002   0.6586   1.6129   2.4658   2.4658   2.4862

[...]

          k =-0.0880 0.0508 0.0000 ( 17464 PWs)   bands (ev):

[...]

     the Fermi energy is     0.0174 ev

!    total energy              =    -116.22334225 Ry
     Harris-Foulkes estimate   =    -116.22335853 Ry
     estimated scf accuracy    <       0.00000182 Ry

     The total energy is the sum of the following terms:

     one-electron contribution =    -835.18589955 Ry
     hartree contribution      =     427.44776327 Ry
     xc contribution           =     -61.65022992 Ry
     ewald contribution        =     353.19514305 Ry
     electric field correction =       0.00037147 Ry
     smearing contrib. (-TS)   =      -0.03049058 Ry

     convergence has been achieved in  10 iterations

 BEEF-vdW xc energy contributions
           1 :   -50.7979565779362
           2 :    43.6361991883897
           3 :   -32.6156973809464
           4 :    22.0544582845882
           5 :   -14.7404817751815
           6 :    10.9060698069395
           7 :   -9.03324732599106
           8 :    7.49621301293539
           9 :   -5.71389265367227
          10 :    4.11654116694114
          11 :   -3.28715732271912
          12 :    3.21544970780969
          13 :   -3.30324304723246
          14 :    2.95967702174406
          15 :   -2.12467113597024
          16 :    1.23511945778753
          17 :  -0.741890223017208
          18 :   0.686124787258159
          19 :  -0.722434876574901
          20 :   0.504025423759522
          21 :  -1.675605432532024E-002
          22 :  -0.451078828542514
          23 :   0.626438791536280
          24 :  -0.517224906604490
          25 :   0.377064564873301
          26 :  -0.437918135071207
          27 :   0.690072204336410
          28 :  -0.915491328857257
          29 :   0.918236967742651
          30 :  -0.713824430023870
          31 :   -7.39273039379024
          32 :   -5.34760757205426

     Forces acting on atoms (Ry/au):

     negative rho (up, down):  4.709E-04 0.000E+00
     atom    1 type  1   force =    -0.00186682   -0.00107790    0.00203405
     atom    2 type  1   force =     0.00186676   -0.00107771    0.00203373
     atom    3 type  1   force =    -0.00000004    0.00215551    0.00203380
     atom    4 type  1   force =    -0.00000009    0.00000006   -0.00041711
     atom    5 type  1   force =     0.00000007    0.00019162   -0.00088222
     atom    6 type  1   force =    -0.00000004    0.00000001    0.01209332
     atom    7 type  1   force =    -0.00016593   -0.00009590   -0.00088232
     atom    8 type  1   force =     0.00016602   -0.00009577   -0.00088223
     atom    9 type  1   force =    -0.00000015    0.00000001   -0.01549395
     atom   10 type  1   force =    -0.00000001   -0.02789340   -0.00902830
     atom   11 type  1   force =    -0.02415638    0.01394675   -0.00902836
     atom   12 type  1   force =     0.02415630    0.01394663   -0.00902829
     atom   13 type  2   force =     0.00000033    0.00000007   -0.04677888
     atom   14 type  3   force =    -0.00000003    0.00000000    0.07422676

     Total force =     0.102550     Total SCF correction =     0.002318

     entering subroutine stress ...

     negative rho (up, down):  4.709E-04 0.000E+00
          total   stress  (Ry/bohr**3)                   (kbar)     P=   -2.19
  -0.00003341  -0.00000000  -0.00000000         -4.91     -0.00     -0.00
  -0.00000000  -0.00003341  -0.00000000         -0.00     -4.91     -0.00
  -0.00000000  -0.00000000   0.00002219         -0.00     -0.00      3.26

     BFGS Geometry Optimization

     number of scf cycles    =   1
     number of bfgs steps    =   0

     energy   new            =    -116.2233422522 Ry

     new trust radius        =       0.0742267572 bohr
     new conv_thr            =       0.0000099958 Ry

ATOMIC_POSITIONS (crystal)
Al1      0.166666667   0.166666667   0.405843214    0   0   0
Al1      0.666666667   0.166666667   0.405843214    0   0   0
Al1      0.166666667   0.666666667   0.405843214    0   0   0
Al1      0.666666667   0.666666667   0.405843214    0   0   0
Al1      0.833333333   0.333333333   0.500000000    0   0   0
Al1      0.333333333   0.333333333   0.500000000    0   0   0
Al1      0.833333333   0.833333333   0.500000000    0   0   0
Al1      0.333333333   0.833333333   0.500000000    0   0   0
Al1     -0.000000014   0.000000001   0.593824033
Al1      0.501499591  -0.002999183   0.593962891
Al1     -0.002999184   0.501499596   0.593962890
Al1      0.501499587   0.501499584   0.593962892
O1       0.333333360   0.333333341   0.642482392
H1       0.333333330   0.333333334   0.683636250

     Writing output data file calc.save
     Check: negative starting charge=   -0.000275
     NEW-OLD atomic charge density approx. for the potential
     Check: negative starting charge=   -0.000278

[...]

     energy   old            =    -116.2233422522 Ry
     energy   new            =    -116.2260605187 Ry

     CASE: energy  _new < energy  _old

[...]

     Threshold (ethr) on eigenvalues was too large:
     Diagonalizing with lowered threshold

     Davidson diagonalization with overlap
     ethr =  5.36E-08,  avg # of iterations =  2.6

[...]

     Total force =     0.006994     Total SCF correction =     0.000116

[...]

     Total force =     0.003243     Total SCF correction =     0.000413
     SCF correction compared to forces is large: reduce conv_thr to get better values

[...]

     number of scf cycles    =   9
     number of bfgs steps    =   8

     energy   old            =    -116.2325855288 Ry
     energy   new            =    -116.2327326160 Ry

     CASE: energy  _new < energy  _old

     new trust radius        =       0.0028108530 bohr
     new conv_thr            =       0.0000001000 Ry

ATOMIC_POSITIONS (crystal)
Al1      0.166666667   0.166666667   0.405843214    0   0   0
Al1      0.666666667   0.166666667   0.405843214    0   0   0
Al1      0.166666667   0.666666667   0.405843214    0   0   0
Al1      0.666666667   0.666666667   0.405843214    0   0   0
Al1      0.833333333   0.333333333   0.500000000    0   0   0
Al1      0.333333333   0.333333333   0.500000000    0   0   0
Al1      0.833333333   0.833333333   0.500000000    0   0   0
Al1      0.333333333   0.833333333   0.500000000    0   0   0
Al1      0.000000005   0.000000002   0.589563628
Al1      0.505626114  -0.011252245   0.593643885
Al1     -0.011252248   0.505626125   0.593643883
Al1      0.505626128   0.505626130   0.593643886
O1       0.333333341   0.333333333   0.644649824
H1       0.333333343   0.333333340   0.684633804

     Writing output data file calc.save
     Check: negative starting charge=   -0.000265
     NEW-OLD atomic charge density approx. for the potential
     Check: negative starting charge=   -0.000265

[...]

     Self-consistent Calculation

[...]

     Threshold (ethr) on eigenvalues was too large:
     Diagonalizing with lowered threshold

     Davidson diagonalization with overlap
     ethr =  1.32E-08,  avg # of iterations =  2.8

[...]

     total energy              =    -116.23274353 Ry
     Harris-Foulkes estimate   =    -116.23274362 Ry
     estimated scf accuracy    <       0.00000022 Ry

     iteration #  5     ecut=    36.75 Ry     beta=0.30
     Davidson diagonalization with overlap
     ethr =  5.17E-10,  avg # of iterations =  2.0

[...]

     negative rho (up, down):  4.915E-04 0.000E+00

     Adding external electric field

     Computed dipole along edir(3) :
        Dipole                0.3563 Ry au,          0.9057 Debye
        Dipole field          0.0010 Ry au

        Potential amp.       -0.0874 Ry
        Total length         45.3989 bohr

     End of self-consistent calculation

[...]

          k = 0.0587-0.0677 0.0000 ( 17495 PWs)   bands (ev):

[...]

          k =-0.0880-0.0508 0.0000 ( 17464 PWs)   bands (ev):

   -21.9973 -10.4951  -9.3422  -8.9853  -7.8620  -7.1675  -6.9842  -6.3397
    -6.1311  -5.9716  -4.7804  -4.4128  -4.2726  -3.8614  -2.0243  -1.8052
    -1.6144  -0.8561  -0.5540  -0.5199  -0.2573  -0.0679   0.8554   0.9880
     1.4059   1.5421   1.5721   1.6904   1.7634   1.9752   2.3719

     the Fermi energy is    -0.0197 ev

!    total energy              =    -116.23274355 Ry
     Harris-Foulkes estimate   =    -116.23274455 Ry
     estimated scf accuracy    <       0.00000004 Ry

     The total energy is the sum of the following terms:

     one-electron contribution =    -834.11924460 Ry
     hartree contribution      =     427.00398769 Ry
     xc contribution           =     -61.62106835 Ry
     ewald contribution        =     352.53264447 Ry
     electric field correction =       0.00034312 Ry
     smearing contrib. (-TS)   =      -0.02940587 Ry

     convergence has been achieved in   5 iterations

 BEEF-vdW xc energy contributions
           1 :   -50.7683995927194
           2 :    43.6031836591364
           3 :   -32.5822432305574
           4 :    22.0281239114696
           5 :   -14.7307005278693
           6 :    10.9231464922114
           7 :   -9.08473512961240
           8 :    7.58188842341811
           9 :   -5.82264328644639
          10 :    4.22854420136666
          11 :   -3.38388673233254
          12 :    3.29249702956653
          13 :   -3.37430677165784
          14 :    3.04627608048936
          15 :   -2.23898510871582
          16 :    1.36980016618382
          17 :  -0.876467134691012
          18 :   0.804935908482307
          19 :  -0.825923572935096
          20 :   0.602304587475388
          21 :  -0.114337448425651
          22 :  -0.361793675667684
          23 :   0.556419128297946
          24 :  -0.467175111515168
          25 :   0.334594125831501
          26 :  -0.389622209492615
          27 :   0.636208192301090
          28 :  -0.870714230400665
          29 :   0.895913367154620
          30 :  -0.710014500637683
          31 :   -7.39214152362818
          32 :   -5.34625941512692

     Forces acting on atoms (Ry/au):

     negative rho (up, down):  4.915E-04 0.000E+00
     atom    1 type  1   force =    -0.00177131   -0.00102266    0.00201063
     atom    2 type  1   force =     0.00177131   -0.00102267    0.00201062
     atom    3 type  1   force =    -0.00000000    0.00204533    0.00201062
     atom    4 type  1   force =    -0.00000000   -0.00000000   -0.00028920
     atom    5 type  1   force =    -0.00000000    0.00232328   -0.00746532
     atom    6 type  1   force =     0.00000000    0.00000000    0.01268456
     atom    7 type  1   force =    -0.00201202   -0.00116164   -0.00746531
     atom    8 type  1   force =     0.00201202   -0.00116164   -0.00746532
     atom    9 type  1   force =    -0.00000001   -0.00000000    0.00081814
     atom   10 type  1   force =     0.00000001    0.00057970    0.00037676
     atom   11 type  1   force =     0.00050204   -0.00028985    0.00037676
     atom   12 type  1   force =    -0.00050205   -0.00028986    0.00037676
     atom   13 type  2   force =     0.00000000    0.00000001    0.00151933
     atom   14 type  3   force =    -0.00000000   -0.00000000    0.00050098

     Total force =     0.002159     Total SCF correction =     0.000272
     SCF correction compared to forces is large: reduce conv_thr to get better values

     entering subroutine stress ...

     negative rho (up, down):  4.915E-04 0.000E+00
          total   stress  (Ry/bohr**3)                   (kbar)     P=   -3.78
  -0.00003807  -0.00000000   0.00000000         -5.60     -0.00      0.00
  -0.00000000  -0.00003807  -0.00000000         -0.00     -5.60     -0.00
   0.00000000  -0.00000000  -0.00000102          0.00     -0.00     -0.15

     bfgs converged in  10 scf cycles and   9 bfgs steps
     (criteria: energy <  1.0E+00, force <  1.9E-03)

     End of BFGS Geometry Optimization

     Final energy   =    -116.2327435470 Ry
Begin final coordinates

ATOMIC_POSITIONS (crystal)
Al1      0.166666667   0.166666667   0.405843214    0   0   0
Al1      0.666666667   0.166666667   0.405843214    0   0   0
Al1      0.166666667   0.666666667   0.405843214    0   0   0
Al1      0.666666667   0.666666667   0.405843214    0   0   0
Al1      0.833333333   0.333333333   0.500000000    0   0   0
Al1      0.333333333   0.333333333   0.500000000    0   0   0
Al1      0.833333333   0.833333333   0.500000000    0   0   0
Al1      0.333333333   0.833333333   0.500000000    0   0   0
Al1      0.000000005   0.000000002   0.589563628
Al1      0.505626114  -0.011252245   0.593643885
Al1     -0.011252248   0.505626125   0.593643883
Al1      0.505626128   0.505626130   0.593643886
O1       0.333333341   0.333333333   0.644649824
H1       0.333333343   0.333333340   0.684633804
End final coordinates

     Writing output data file calc.save

     General routines

     Parallel routines

   This run was terminated on:  11:27: 0  16Apr2018

   JOB DONE.