     Program PWSCF v.5.1rc2 (svn rev. 11289) starts on 24Apr2018 at  9:51:41

     Current dimensions of program PWSCF are:
     Max number of different atomic species (ntypx) = 10
     Max number of k-points (npk) =  40000
     Max angular momentum in pseudopotentials (lmaxx) =  3
     Presently stress not available with electric field

     IMPORTANT: XC functional enforced from input :
     Exchange-correlation      = BEEF-VDW ( 1  4 27 13 2)
     Any further DFT definition will be discarded
     Please, verify this is what you really want

     Subspace diagonalization in iterative solution of the eigenvalue problem:
     a serial algorithm will be used

     bravais-lattice index     =            0
     lattice parameter (alat)  =       1.8897  a.u.
     unit-cell volume          =    4158.3597 (a.u.)^3
     number of atoms/cell      =           14
     number of atomic types    =            3
     number of electrons       =       163.00
     number of Kohn-Sham states=           91
     kinetic-energy cutoff     =      36.7493  Ry
     charge density cutoff     =     367.4932  Ry
     convergence threshold     =      1.0E-05
     mixing beta               =       0.3000
     number of iterations used =           10  plain     mixing
     Exchange-correlation      = BEEF-VDW ( 1  4 27 13 2)
     nstep                     =           50

     celldm(1)=   1.889726  celldm(2)=   0.000000  celldm(3)=   0.000000
     celldm(4)=   0.000000  celldm(5)=   0.000000  celldm(6)=   0.000000

     crystal axes: (cart. coord. in units of alat)
               a(1) = (   5.399178   0.000000   0.000000 )
               a(2) = (   2.699589   4.675825   0.000000 )
               a(3) = (   0.000000   0.000000  24.408411 )

     reciprocal axes: (cart. coord. in units 2 pi/alat)
               b(1) = (  0.185213 -0.106933  0.000000 )
               b(2) = (  0.000000  0.213866  0.000000 )
               b(3) = (  0.000000  0.000000  0.040969 )

     PseudoPot. # 1 for V  read from file:
     /u/if/mamunm/psp/gbrv1.5pbe/V.UPF
     MD5 check sum: 22b79981416ebb76fdaf5b1b8640f6fb
     Pseudo is Ultrasoft + core correction, Zval = 13.0
     Generated by new atomic code, or converted to UPF format
     Using radial grid of  853 points,  6 beta functions with:
                l(1) =   0
                l(2) =   0
                l(3) =   1
                l(4) =   1
                l(5) =   2
                l(6) =   2
     Q(r) pseudized with  8 coefficients,  rinner =    1.100   1.100   1.100
                                                       1.100   1.100

     PseudoPot. # 2 for O  read from file:
     /u/if/mamunm/psp/gbrv1.5pbe/O.UPF
     MD5 check sum: 734c27235a0248c51dbae37a1fbe46ec
     Pseudo is Ultrasoft + core correction, Zval =  6.0
     Generated by new atomic code, or converted to UPF format
     Using radial grid of  737 points,  5 beta functions with:
                l(1) =   0
                l(2) =   0
                l(3) =   1
                l(4) =   1
                l(5) =   2
     Q(r) pseudized with  8 coefficients,  rinner =    0.900   0.900   0.900
                                                       0.900   0.900

     PseudoPot. # 3 for H  read from file:
     /u/if/mamunm/psp/gbrv1.5pbe/H.UPF
     MD5 check sum: 761ae9a214b05c3daf00ab9f6b793d6f
     Pseudo is Ultrasoft, Zval =  1.0
     Generated by new atomic code, or converted to UPF format
     Using radial grid of  615 points,  2 beta functions with:
                l(1) =   0
                l(2) =   0
     Q(r) pseudized with  8 coefficients,  rinner =    0.700

     vdW kernel table read from file vdW_kernel_table
     MD5 check sum: 095c7af220d748ca6e76c0b4c6cfb241

     atomic species   valence    mass     pseudopotential
        V1            13.00    50.94150     V ( 1.00)
        O1             6.00    15.99900     O ( 1.00)
        H1             1.00     1.00800     H ( 1.00)

     No symmetry found

   Cartesian axes

     site n.     atom                  positions (alat units)
         1           V1  tau(   1) = (   1.3497945   0.7793042  10.0000000  )
         2           V1  tau(   2) = (   4.0493836   0.7793042  10.0000000  )
         3           V1  tau(   3) = (   2.6995891   3.1172170  10.0000000  )
         4           V1  tau(   4) = (   5.3991782   3.1172170  10.0000000  )
         5           V1  tau(   5) = (   5.3991782   1.5586085  12.2042053  )
         6           V1  tau(   6) = (   2.6995891   1.5586085  12.2042053  )
         7           V1  tau(   7) = (   6.7489727   3.8965212  12.2042053  )
         8           V1  tau(   8) = (   4.0493836   3.8965212  12.2042053  )
         9           V1  tau(   9) = (   0.0000000   0.0000000  14.4084105  )
        10           V1  tau(  10) = (   2.6995891   0.0000000  14.4084105  )
        11           V1  tau(  11) = (   1.3497945   2.3379127  14.4084105  )
        12           V1  tau(  12) = (   4.0493836   2.3379127  14.4084105  )
        13           O1  tau(  13) = (   0.0000000   0.0000000  16.2699105  )
        14           H1  tau(  14) = (   0.0000000   0.0000000  17.2199105  )

     number of k points=    20  Fermi-Dirac smearing, width (Ry)=  0.0110
                       cart. coord. in units 2pi/alat
        k(    1) = (   0.0000000   0.0000000   0.0000000), wk =   0.0555556
        k(    2) = (   0.0000000   0.0356443   0.0000000), wk =   0.1111111
        k(    3) = (   0.0000000   0.0712887   0.0000000), wk =   0.1111111
        k(    4) = (   0.0000000  -0.1069330   0.0000000), wk =   0.0555556
        k(    5) = (   0.0308689  -0.0178222   0.0000000), wk =   0.1111111
        k(    6) = (   0.0308689   0.0178222   0.0000000), wk =   0.1111111
        k(    7) = (   0.0308689   0.0534665   0.0000000), wk =   0.1111111
        k(    8) = (   0.0308689  -0.1247552   0.0000000), wk =   0.1111111
        k(    9) = (   0.0308689  -0.0891108   0.0000000), wk =   0.1111111
        k(   10) = (   0.0308689  -0.0534665   0.0000000), wk =   0.1111111
        k(   11) = (   0.0617378  -0.0356443   0.0000000), wk =   0.1111111
        k(   12) = (   0.0617378   0.0000000   0.0000000), wk =   0.1111111
        k(   13) = (   0.0617378   0.0356443   0.0000000), wk =   0.1111111
        k(   14) = (   0.0617378  -0.1425773   0.0000000), wk =   0.1111111
        k(   15) = (   0.0617378  -0.1069330   0.0000000), wk =   0.1111111
        k(   16) = (   0.0617378  -0.0712887   0.0000000), wk =   0.1111111
        k(   17) = (  -0.0926067   0.0534665   0.0000000), wk =   0.0555556
        k(   18) = (  -0.0926067   0.0891108   0.0000000), wk =   0.1111111
        k(   19) = (  -0.0926067   0.1247552   0.0000000), wk =   0.1111111
        k(   20) = (  -0.0926067  -0.0534665   0.0000000), wk =   0.0555556

     Largest allocated arrays     est. size (Mb)     dimensions
     Largest temporary arrays     est. size (Mb)     dimensions

     Check: negative/imaginary core charge=   -0.000001    0.000000

     Initial potential from superposition of free atoms
     Check: negative starting charge=   -0.011531

     starting charge  162.98526, renormalised to  163.00000

     negative rho (up, down):  1.153E-02 0.000E+00

     *
     * You are using vdW-DF for exchange-correlation in this calculation.
     * Please cite the following three references that made this development
     * possible:
     *
     *   M. Dion, H. Rydberg, E. Schroder, D. C. Langreth, and
     *   B. I. Lundqvist, Phys. Rev. Lett. 92, 246401 (2004).
     *
     *   T. Thonhauser, V. R. Cooper, S. Li, A. Puzder, P. Hyldgaard, and
     *   D. C. Langreth, Phys. Rev. B 76, 125112 (2007).
     *
     *   G. Roman-Perez and J. M. Soler, Phys. Rev. Lett. 103, 096102 (2009).
     *
     *
     * If you are using vdW-DF2, please also cite:
     *
     *   K. Lee, E. D. Murray, L. Kong, B. I. Lundqvist, and
     *   D. C. Langreth, Phys. Rev. B 82, 081101(R) (2010).
     *
     *
     * If you are calculating the stress with vdW-DF, please also cite:
     *
     *   R. Sabatini, E. Kucukbenli, B. Kolb, T. Thonhauser, and
     *   S. de Gironcoli, J. Phys.: Condens. Matter 24, 424209 (2012).
     *

     Carrying out vdW-DF run using the following parameters:

     Nqs =      20    Nr_points =    1024   r_max =   100.000
     q_mesh =
               0.00001000     0.04494208     0.09755937     0.15916263
               0.23128650     0.31572767     0.41458969     0.53033537
               0.66584808     0.82450364     1.01025438     1.22772762
               1.48234092     1.78043706     2.12944203     2.53805004
               3.01644009     3.57652955     4.23227104     5.00000000

     Gradients computed in reciprocal space

     Adding external electric field

     Computed dipole along edir(3) :
        Dipole               -0.0049 Ry au,         -0.0125 Debye
        Dipole field         -0.0000 Ry au

        Potential amp.        0.0013 Ry
        Total length         44.9721 bohr

     Starting wfc are  125 randomized atomic wfcs

     Self-consistent Calculation

     iteration #  1     ecut=    36.75 Ry     beta=0.30
     Davidson diagonalization with overlap
     ethr =  1.00E-02,  avg # of iterations =  2.4

[...]

     total energy              =   -1777.25593293 Ry
     Harris-Foulkes estimate   =   -1783.54027360 Ry
     estimated scf accuracy    <      12.95122102 Ry

[...]

     End of self-consistent calculation

          k = 0.0000 0.0000 0.0000 ( 15569 PWs)   bands (ev):

   -62.7805 -62.5616 -62.4978 -62.4591 -62.4363 -62.4361 -62.4356 -62.4071
   -62.4066 -62.3798 -62.3797 -62.3794 -36.8802 -36.7314 -36.7313 -36.6481
   -36.6479 -36.6378 -36.6082 -36.5470 -36.5469 -36.5265 -36.5143 -36.3638
   -36.3009 -36.3008 -36.2597 -36.2595 -36.2544 -36.2176 -36.2176 -36.1834
   -36.1377 -36.1319 -36.1318 -36.1070 -36.1037 -36.1033 -36.0733 -36.0365
   -36.0365 -36.0297 -35.9981 -35.9979 -35.9640 -35.9639 -35.9082 -35.9082
   -18.7703  -6.9397  -4.3322  -2.8116  -2.6504  -2.6504  -1.7420  -1.3197
    -1.2929  -1.2928  -1.0976  -1.0976  -1.0553  -0.6470  -0.6469  -0.6170
    -0.5457  -0.5387  -0.5387   0.2728   0.4266   0.4266   1.2025   1.3132
     1.3952   1.3952   1.5614   1.5904   1.8544   1.8544   1.9390   1.9390
     2.0097   2.0097   2.0590   2.1026   2.1028   2.1127   2.1416   2.1416
     2.3817   2.5792   2.7948

[...]

          k =-0.0926 0.0535 0.0000 ( 15660 PWs)   bands (ev):

[...]

     the Fermi energy is     1.7239 ev

!    total energy              =   -1782.67905986 Ry
     Harris-Foulkes estimate   =   -1782.67906542 Ry
     estimated scf accuracy    <       0.00000579 Ry

     The total energy is the sum of the following terms:

     one-electron contribution =  -15353.23138277 Ry
     hartree contribution      =    7670.02688770 Ry
     xc contribution           =    -252.64557000 Ry
     ewald contribution        =    6153.31611873 Ry
     electric field correction =       0.00051714 Ry
     smearing contrib. (-TS)   =      -0.14563066 Ry

     convergence has been achieved in  30 iterations

 BEEF-vdW xc energy contributions
           1 :   -217.603781780586
           2 :    195.034942603023
           3 :   -157.860785001538
           4 :    117.844785374210
           5 :   -85.1135170991819
           6 :    64.3969008937562
           7 :   -54.4774939636167
           8 :    50.4805511304802
           9 :   -47.2968849365130
          10 :    42.1608421923799
          11 :   -35.2817261803153
          12 :    28.6765321779748
          13 :   -24.2871256941143
          14 :    22.6146729299328
          15 :   -22.5793955390150
          16 :    22.4498841979042
          17 :   -21.0620823778892
          18 :    18.4842295707654
          19 :   -15.7691594381884
          20 :    14.0727034683290
          21 :   -13.8140531068783
          22 :    14.4448171911317
          23 :   -14.9153990039769
          24 :    14.4354310851247
          25 :   -12.9781368539160
          26 :    11.2139146800910
          27 :   -9.98354604300243
          28 :    9.71416697256706
          29 :   -10.1722283958076
          30 :    10.6803251611400
          31 :   -22.6062707714844
          32 :   -16.2446103914995

     Forces acting on atoms (Ry/au):

     negative rho (up, down):  1.529E-02 0.000E+00
     atom    1 type  1   force =    -0.00010849   -0.00006244   -0.00067053
     atom    2 type  1   force =     0.00011068   -0.00004302   -0.00069990
     atom    3 type  1   force =     0.00002170    0.00011856   -0.00068433
     atom    4 type  1   force =    -0.00002145   -0.00001437   -0.00066747
     atom    5 type  1   force =     0.00001992    0.00245657   -0.00308606
     atom    6 type  1   force =    -0.00002121    0.00002345    0.00564666
     atom    7 type  1   force =    -0.00210466   -0.00125300   -0.00311614
     atom    8 type  1   force =     0.00211435   -0.00123503   -0.00314408
     atom    9 type  1   force =     0.00002413    0.00000940    0.08738054
     atom   10 type  1   force =    -0.00002362    0.00437843   -0.01996252
     atom   11 type  1   force =     0.00376681   -0.00219347   -0.01987437
     atom   12 type  1   force =    -0.00377663   -0.00217930   -0.01994271
     atom   13 type  2   force =    -0.00000266   -0.00000413   -0.05999270
     atom   14 type  3   force =     0.00000114   -0.00000165    0.03881363

     Total force =     0.118277     Total SCF correction =     0.005908

     entering subroutine stress ...

     negative rho (up, down):  1.529E-02 0.000E+00
          total   stress  (Ry/bohr**3)                   (kbar)     P=  -17.27
  -0.00017357  -0.00000003  -0.00000000        -25.53     -0.00     -0.00
  -0.00000003  -0.00017365   0.00000000         -0.00    -25.54      0.00
  -0.00000000   0.00000000  -0.00000488         -0.00      0.00     -0.72

     BFGS Geometry Optimization

     number of scf cycles    =   1
     number of bfgs steps    =   0

     energy   new            =   -1782.6790598573 Ry

     new trust radius        =       0.0873805390 bohr
     new conv_thr            =       0.0000099958 Ry

ATOMIC_POSITIONS (crystal)
V1       0.166666667   0.166666667   0.409694847    0   0   0
V1       0.666666667   0.166666667   0.409694847    0   0   0
V1       0.166666667   0.666666667   0.409694847    0   0   0
V1       0.666666667   0.666666667   0.409694847    0   0   0
V1       0.833333333   0.333333333   0.500000000    0   0   0
V1       0.333333333   0.333333333   0.500000000    0   0   0
V1       0.833333333   0.833333333   0.500000000    0   0   0
V1       0.333333333   0.833333333   0.500000000    0   0   0
V1       0.000001833   0.000001064   0.592199574
V1       0.499749925   0.000495520   0.589872364
V1       0.000493309   0.499751759   0.589874275
V1       0.499753169   0.499753362   0.589872793
O1      -0.000000027  -0.000000467   0.665269200
H1       0.000000205  -0.000000187   0.706332344

     Writing output data file calc.save
     Check: negative starting charge=   -0.011531
     NEW-OLD atomic charge density approx. for the potential

     Check: negative/imaginary core charge=   -0.000001    0.000000
     Check: negative starting charge=   -0.011511

[...]

     iteration #  1     ecut=    36.75 Ry     beta=0.30
     Davidson diagonalization with overlap
     c_bands:  1 eigenvalues not converged
     ethr =  1.00E-06,  avg # of iterations = 17.4

[...]

     energy   old            =   -1782.6790598573 Ry
     energy   new            =   -1782.6847222790 Ry

     CASE: energy  _new < energy  _old

[...]

     iteration #  1     ecut=    36.75 Ry     beta=0.30
     Davidson diagonalization with overlap
     c_bands:  1 eigenvalues not converged
     ethr =  1.00E-06,  avg # of iterations = 17.7

[...]

     Total force =     0.012068     Total SCF correction =     0.000508

[...]

     Total force =     0.005120     Total SCF correction =     0.001241
     SCF correction compared to forces is large: reduce conv_thr to get better values

[...]

     number of scf cycles    =  17
     number of bfgs steps    =  16

     energy   old            =   -1782.7271693207 Ry
     energy   new            =   -1782.7272390806 Ry

     CASE: energy  _new < energy  _old

     new trust radius        =       0.0036625395 bohr
     new conv_thr            =       0.0000001000 Ry

ATOMIC_POSITIONS (crystal)
V1       0.166666667   0.166666667   0.409694847    0   0   0
V1       0.666666667   0.166666667   0.409694847    0   0   0
V1       0.166666667   0.666666667   0.409694847    0   0   0
V1       0.666666667   0.666666667   0.409694847    0   0   0
V1       0.833333333   0.333333333   0.500000000    0   0   0
V1       0.333333333   0.333333333   0.500000000    0   0   0
V1       0.833333333   0.833333333   0.500000000    0   0   0
V1       0.333333333   0.833333333   0.500000000    0   0   0
V1      -0.000004665   0.000004959   0.608379597
V1       0.499857118   0.000309860   0.582585302
V1       0.000305751   0.499860168   0.582592146
V1       0.499854481   0.499854329   0.582585384
O1      -0.000002799  -0.000002302   0.680985744
H1       0.000000838  -0.000001363   0.720507116

     Writing output data file calc.save
     Check: negative starting charge=   -0.011199
     NEW-OLD atomic charge density approx. for the potential

     Check: negative/imaginary core charge=   -0.000001    0.000000
     Check: negative starting charge=   -0.011224

[...]

     Self-consistent Calculation

[...]

     Threshold (ethr) on eigenvalues was too large:
     Diagonalizing with lowered threshold

     Davidson diagonalization with overlap
     ethr =  5.29E-08,  avg # of iterations =  1.8

[...]

     total energy              =   -1782.72724777 Ry
     Harris-Foulkes estimate   =   -1782.72724780 Ry
     estimated scf accuracy    <       0.00000014 Ry

     iteration # 14     ecut=    36.75 Ry     beta=0.30
     Davidson diagonalization with overlap
     ethr =  7.23E-11,  avg # of iterations =  1.6

[...]

     negative rho (up, down):  1.532E-02 0.000E+00

     Adding external electric field

     Computed dipole along edir(3) :
        Dipole                0.3939 Ry au,          1.0011 Debye
        Dipole field          0.0012 Ry au

        Potential amp.       -0.1071 Ry
        Total length         44.9721 bohr

     End of self-consistent calculation

[...]

          k = 0.0617-0.0713 0.0000 ( 15642 PWs)   bands (ev):

[...]

          k =-0.0926-0.0535 0.0000 ( 15660 PWs)   bands (ev):

   -62.9094 -62.5790 -62.5595 -62.5034 -62.4995 -62.4899 -62.4809 -62.4512
   -62.4496 -62.4476 -62.4371 -62.4273 -37.0704 -36.6778 -36.6581 -36.6571
   -36.6339 -36.6070 -36.5645 -36.5578 -36.5365 -36.4938 -36.4930 -36.4706
   -36.4619 -36.3723 -36.3181 -36.3163 -36.3102 -36.2945 -36.2903 -36.2867
   -36.2538 -36.2406 -36.2232 -36.1995 -36.1913 -36.1883 -36.1656 -36.1602
   -36.1139 -36.1099 -36.0600 -36.0577 -36.0566 -36.0448 -36.0270 -36.0019
   -18.7107  -6.9938  -2.7622  -2.6662  -2.6529  -2.6037  -1.4645  -1.3634
    -0.8169  -0.7223  -0.7048  -0.6214  -0.6023  -0.4646  -0.0606  -0.0329
     0.0122   0.1671   0.2556   0.3168   0.5354   0.5649   0.6694   0.6964
     0.7265   0.7932   0.9255   1.1113   1.1337   1.2190   1.2655   1.2856
     1.3322   1.4554   1.5366   1.6072   1.6429   1.8218   1.8408   1.9874
     2.1351   2.1705   2.5554

     the Fermi energy is     1.6431 ev

!    total energy              =   -1782.72724768 Ry
     Harris-Foulkes estimate   =   -1782.72724947 Ry
     estimated scf accuracy    <       0.00000010 Ry

     The total energy is the sum of the following terms:

     one-electron contribution =  -15270.54408528 Ry
     hartree contribution      =    7628.39809478 Ry
     xc contribution           =    -252.68892735 Ry
     ewald contribution        =    6112.24770079 Ry
     electric field correction =       0.00046876 Ry
     smearing contrib. (-TS)   =      -0.14049937 Ry

     convergence has been achieved in  14 iterations

 BEEF-vdW xc energy contributions
           1 :   -217.654286958497
           2 :    195.099438409872
           3 :   -157.947704216577
           4 :    117.925859572352
           5 :   -85.1322944413404
           6 :    64.3181699097585
           7 :   -54.3150387073283
           8 :    50.2849814785531
           9 :   -47.1221335438156
          10 :    42.0359635133660
          11 :   -35.1987521613856
          12 :    28.5926605518241
          13 :   -24.1396711995335
          14 :    22.3536959895256
          15 :   -22.2081244661344
          16 :    22.0371121185027
          17 :   -20.7023005014058
          18 :    18.2298261374894
          19 :   -15.5871272549917
          20 :    13.8630973697343
          21 :   -13.4815624466657
          22 :    13.9717963651842
          23 :   -14.3804953359758
          24 :    13.9638230709285
          25 :   -12.6570097921452
          26 :    11.0322797539274
          27 :   -9.84248988326371
          28 :    9.49998415561313
          29 :   -9.83606039498002
          30 :    10.2699611904684
          31 :   -22.6090343050055
          32 :   -16.2477121924764

     Forces acting on atoms (Ry/au):

     negative rho (up, down):  1.532E-02 0.000E+00
     atom    1 type  1   force =    -0.00080887   -0.00046710    0.00325842
     atom    2 type  1   force =     0.00080671   -0.00046894    0.00325869
     atom    3 type  1   force =    -0.00000288    0.00093269    0.00325809
     atom    4 type  1   force =     0.00000052    0.00000037    0.00134582
     atom    5 type  1   force =     0.00000800   -0.02080371    0.00515451
     atom    6 type  1   force =    -0.00001040    0.00000393   -0.02652695
     atom    7 type  1   force =     0.01801852    0.01039333    0.00514881
     atom    8 type  1   force =    -0.01802202    0.01040392    0.00513755
     atom    9 type  1   force =     0.00000422   -0.00000007   -0.00022855
     atom   10 type  1   force =     0.00000094   -0.00014555   -0.00000158
     atom   11 type  1   force =    -0.00012593    0.00007450   -0.00000274
     atom   12 type  1   force =     0.00013059    0.00007594   -0.00000218
     atom   13 type  2   force =     0.00000146    0.00000099   -0.00063923
     atom   14 type  3   force =    -0.00000085   -0.00000031    0.00083933

     Total force =     0.001109     Total SCF correction =     0.000307
     SCF correction compared to forces is large: reduce conv_thr to get better values

     entering subroutine stress ...

     negative rho (up, down):  1.532E-02 0.000E+00
          total   stress  (Ry/bohr**3)                   (kbar)     P=  -13.06
  -0.00012454  -0.00000001   0.00000002        -18.32     -0.00      0.00
  -0.00000001  -0.00012454   0.00000001         -0.00    -18.32      0.00
   0.00000002   0.00000001  -0.00001730          0.00      0.00     -2.54

     bfgs converged in  18 scf cycles and  17 bfgs steps
     (criteria: energy <  1.0E+00, force <  1.9E-03)

     End of BFGS Geometry Optimization

     Final energy   =   -1782.7272476807 Ry
Begin final coordinates

ATOMIC_POSITIONS (crystal)
V1       0.166666667   0.166666667   0.409694847    0   0   0
V1       0.666666667   0.166666667   0.409694847    0   0   0
V1       0.166666667   0.666666667   0.409694847    0   0   0
V1       0.666666667   0.666666667   0.409694847    0   0   0
V1       0.833333333   0.333333333   0.500000000    0   0   0
V1       0.333333333   0.333333333   0.500000000    0   0   0
V1       0.833333333   0.833333333   0.500000000    0   0   0
V1       0.333333333   0.833333333   0.500000000    0   0   0
V1      -0.000004665   0.000004959   0.608379597
V1       0.499857118   0.000309860   0.582585302
V1       0.000305751   0.499860168   0.582592146
V1       0.499854481   0.499854329   0.582585384
O1      -0.000002799  -0.000002302   0.680985744
H1       0.000000838  -0.000001363   0.720507116
End final coordinates

     Writing output data file calc.save

     General routines

     Parallel routines

   This run was terminated on:  12:17:10  24Apr2018

   JOB DONE.
Job  /afs/slac/g/suncat/bin/suncat-tsmpirun -x LD_LIBRARY_PATH -wdir /scratch/qe719233_wwUG0 pw.x -npool 4 -in pw.inp

TID   HOST_NAME   COMMAND_LINE            STATUS            TERMINATION_TIME
00000 suncat0108 pw.x -npool 4 -i  Done                     04/24/2018 12:17:10
00001 suncat0108 pw.x -npool 4 -i  Done                     04/24/2018 12:17:10
00002 suncat0108 pw.x -npool 4 -i  Done                     04/24/2018 12:17:10
00003 suncat0108 pw.x -npool 4 -i  Done                     04/24/2018 12:17:10
00004 suncat0108 pw.x -npool 4 -i  Done                     04/24/2018 12:17:10
00005 suncat0108 pw.x -npool 4 -i  Done                     04/24/2018 12:17:10
00006 suncat0108 pw.x -npool 4 -i  Done                     04/24/2018 12:17:10
00007 suncat0108 pw.x -npool 4 -i  Done                     04/24/2018 12:17:10
00008 suncat0273 pw.x -npool 4 -i  Done                     04/24/2018 12:17:10
00009 suncat0273 pw.x -npool 4 -i  Done                     04/24/2018 12:17:10
00010 suncat0273 pw.x -npool 4 -i  Done                     04/24/2018 12:17:10
00011 suncat0273 pw.x -npool 4 -i  Done                     04/24/2018 12:17:10
00012 suncat0273 pw.x -npool 4 -i  Done                     04/24/2018 12:17:10
00013 suncat0273 pw.x -npool 4 -i  Done                     04/24/2018 12:17:10
00014 suncat0273 pw.x -npool 4 -i  Done                     04/24/2018 12:17:10
00015 suncat0273 pw.x -npool 4 -i  Done                     04/24/2018 12:17:10
00016 suncat0238 pw.x -npool 4 -i  Done                     04/24/2018 12:17:10
00017 suncat0238 pw.x -npool 4 -i  Done                     04/24/2018 12:17:10
00018 suncat0238 pw.x -npool 4 -i  Done                     04/24/2018 12:17:10
00019 suncat0238 pw.x -npool 4 -i  Done                     04/24/2018 12:17:10
00020 suncat0238 pw.x -npool 4 -i  Done                     04/24/2018 12:17:10
00021 suncat0238 pw.x -npool 4 -i  Done                     04/24/2018 12:17:10
00022 suncat0238 pw.x -npool 4 -i  Done                     04/24/2018 12:17:10
00023 suncat0238 pw.x -npool 4 -i  Done                     04/24/2018 12:17:10
00024 suncat0218 pw.x -npool 4 -i  Done                     04/24/2018 12:17:10
00025 suncat0218 pw.x -npool 4 -i  Done                     04/24/2018 12:17:10
00026 suncat0218 pw.x -npool 4 -i  Done                     04/24/2018 12:17:10
00027 suncat0218 pw.x -npool 4 -i  Done                     04/24/2018 12:17:10
00028 suncat0218 pw.x -npool 4 -i  Done                     04/24/2018 12:17:10
00029 suncat0218 pw.x -npool 4 -i  Done                     04/24/2018 12:17:10
00030 suncat0218 pw.x -npool 4 -i  Done                     04/24/2018 12:17:10
00031 suncat0218 pw.x -npool 4 -i  Done                     04/24/2018 12:17:10