     Program PWSCF v.5.1rc2 (svn rev. ) starts on 17Apr2018 at  9: 7:42

     Current dimensions of program PWSCF are:
     Max number of different atomic species (ntypx) = 10
     Max number of k-points (npk) =  40000
     Max angular momentum in pseudopotentials (lmaxx) =  3
     Presently stress not available with electric field

     IMPORTANT: XC functional enforced from input :
     Exchange-correlation      = BEEF-VDW ( 1  4 27 13 2)
     Any further DFT definition will be discarded
     Please, verify this is what you really want

     Subspace diagonalization in iterative solution of the eigenvalue problem:
     a serial algorithm will be used

     bravais-lattice index     =            0
     lattice parameter (alat)  =       1.8897  a.u.
     unit-cell volume          =    5174.6160 (a.u.)^3
     number of atoms/cell      =           16
     number of atomic types    =            3
     number of electrons       =       235.00
     number of Kohn-Sham states=          127
     kinetic-energy cutoff     =      36.7493  Ry
     charge density cutoff     =     367.4932  Ry
     convergence threshold     =      1.0E-05
     mixing beta               =       0.3000
     number of iterations used =           10  plain     mixing
     Exchange-correlation      = BEEF-VDW ( 1  4 27 13 2)
     nstep                     =           50

     celldm(1)=   1.889726  celldm(2)=   0.000000  celldm(3)=   0.000000
     celldm(4)=   0.000000  celldm(5)=   0.000000  celldm(6)=   0.000000

     crystal axes: (cart. coord. in units of alat)
               a(1) = (   5.966546   0.000000   0.000000 )
               a(2) = (   2.983273   5.167181   0.000000 )
               a(3) = (   0.000000   0.000000  24.871665 )

     reciprocal axes: (cart. coord. in units 2 pi/alat)
               b(1) = (  0.167601 -0.096765  0.000000 )
               b(2) = (  0.000000  0.193529  0.000000 )
               b(3) = (  0.000000  0.000000  0.040206 )

     PseudoPot. # 1 for Ag read from file:
     /home/mamunm/src/pseudo/gbrv1.5pbe/Ag.UPF
     MD5 check sum: d66d668201baa78d5eb5b04ef7011058
     Pseudo is Ultrasoft + core correction, Zval = 19.0
     Generated by new atomic code, or converted to UPF format
     Using radial grid of  887 points,  6 beta functions with:
                l(1) =   0
                l(2) =   0
                l(3) =   1
                l(4) =   1
                l(5) =   2
                l(6) =   2
     Q(r) pseudized with  6 coefficients,  rinner =    1.300   1.300   1.300
                                                       1.300   1.300

     PseudoPot. # 2 for C  read from file:
     /home/mamunm/src/pseudo/gbrv1.5pbe/C.UPF
     MD5 check sum: d1aef80898a10debaa0f26306b886e00
     Pseudo is Ultrasoft + core correction, Zval =  4.0
     Generated by new atomic code, or converted to UPF format
     Using radial grid of  721 points,  4 beta functions with:
                l(1) =   0
                l(2) =   0
                l(3) =   1
                l(4) =   1
     Q(r) pseudized with  8 coefficients,  rinner =    1.100   1.100   1.100

     PseudoPot. # 3 for H  read from file:
     /home/mamunm/src/pseudo/gbrv1.5pbe/H.UPF
     MD5 check sum: 761ae9a214b05c3daf00ab9f6b793d6f
     Pseudo is Ultrasoft, Zval =  1.0
     Generated by new atomic code, or converted to UPF format
     Using radial grid of  615 points,  2 beta functions with:
                l(1) =   0
                l(2) =   0
     Q(r) pseudized with  8 coefficients,  rinner =    0.700

     vdW kernel table read from file vdW_kernel_table
     MD5 check sum: 095c7af220d748ca6e76c0b4c6cfb241

     atomic species   valence    mass     pseudopotential
        Ag1           19.00   107.86820     Ag( 1.00)
        C1             4.00    12.01100     C ( 1.00)
        H1             1.00     1.00800     H ( 1.00)

     No symmetry found

   Cartesian axes

     site n.     atom                  positions (alat units)
         1           Ag1 tau(   1) = (   1.4916366   0.8611968  10.0000000  )
         2           Ag1 tau(   2) = (   4.4749098   0.8611968  10.0000000  )
         3           Ag1 tau(   3) = (   2.9832732   3.4447871  10.0000000  )
         4           Ag1 tau(   4) = (   5.9665464   3.4447871  10.0000000  )
         5           Ag1 tau(   5) = (   5.9665464   1.7223936  12.4358324  )
         6           Ag1 tau(   6) = (   2.9832732   1.7223936  12.4358324  )
         7           Ag1 tau(   7) = (   7.4581830   4.3059839  12.4358324  )
         8           Ag1 tau(   8) = (   4.4749098   4.3059839  12.4358324  )
         9           Ag1 tau(   9) = (   0.0000000   0.0000000  14.8716647  )
        10           Ag1 tau(  10) = (   2.9832732   0.0000000  14.8716647  )
        11           Ag1 tau(  11) = (   1.4916366   2.5835904  14.8716647  )
        12           Ag1 tau(  12) = (   4.4749098   2.5835904  14.8716647  )
        13           C1  tau(  13) = (   2.9832732   1.7223936  16.3081647  )
        14           H1  tau(  14) = (   4.0732732   1.7223936  16.9381647  )
        15           H1  tau(  15) = (   2.5332732   2.6118936  16.9381647  )
        16           H1  tau(  16) = (   2.5332732   0.8328936  16.9381647  )

     number of k points=    20  Fermi-Dirac smearing, width (Ry)=  0.0110
                       cart. coord. in units 2pi/alat
        k(    1) = (   0.0000000   0.0000000   0.0000000), wk =   0.0555556
        k(    2) = (   0.0000000   0.0322549   0.0000000), wk =   0.1111111
        k(    3) = (   0.0000000   0.0645097   0.0000000), wk =   0.1111111
        k(    4) = (   0.0000000  -0.0967646   0.0000000), wk =   0.0555556
        k(    5) = (   0.0279335  -0.0161274   0.0000000), wk =   0.1111111
        k(    6) = (   0.0279335   0.0161274   0.0000000), wk =   0.1111111
        k(    7) = (   0.0279335   0.0483823   0.0000000), wk =   0.1111111
        k(    8) = (   0.0279335  -0.1128920   0.0000000), wk =   0.1111111
        k(    9) = (   0.0279335  -0.0806371   0.0000000), wk =   0.1111111
        k(   10) = (   0.0279335  -0.0483823   0.0000000), wk =   0.1111111
        k(   11) = (   0.0558670  -0.0322549   0.0000000), wk =   0.1111111
        k(   12) = (   0.0558670   0.0000000   0.0000000), wk =   0.1111111
        k(   13) = (   0.0558670   0.0322549   0.0000000), wk =   0.1111111
        k(   14) = (   0.0558670  -0.1290194   0.0000000), wk =   0.1111111
        k(   15) = (   0.0558670  -0.0967646   0.0000000), wk =   0.1111111
        k(   16) = (   0.0558670  -0.0645097   0.0000000), wk =   0.1111111
        k(   17) = (  -0.0838006   0.0483823   0.0000000), wk =   0.0555556
        k(   18) = (  -0.0838006   0.0806371   0.0000000), wk =   0.1111111
        k(   19) = (  -0.0838006   0.1128920   0.0000000), wk =   0.1111111
        k(   20) = (  -0.0838006  -0.0483823   0.0000000), wk =   0.0555556

     Largest allocated arrays     est. size (Mb)     dimensions
     Largest temporary arrays     est. size (Mb)     dimensions

     Initial potential from superposition of free atoms
     Check: negative starting charge=   -0.002006

     starting charge  228.99936, renormalised to  235.00000

     negative rho (up, down):  2.059E-03 0.000E+00

     *
     * You are using vdW-DF for exchange-correlation in this calculation.
     * Please cite the following three references that made this development
     * possible:
     *
     *   M. Dion, H. Rydberg, E. Schroder, D. C. Langreth, and
     *   B. I. Lundqvist, Phys. Rev. Lett. 92, 246401 (2004).
     *
     *   T. Thonhauser, V. R. Cooper, S. Li, A. Puzder, P. Hyldgaard, and
     *   D. C. Langreth, Phys. Rev. B 76, 125112 (2007).
     *
     *   G. Roman-Perez and J. M. Soler, Phys. Rev. Lett. 103, 096102 (2009).
     *
     *
     * If you are using vdW-DF2, please also cite:
     *
     *   K. Lee, E. D. Murray, L. Kong, B. I. Lundqvist, and
     *   D. C. Langreth, Phys. Rev. B 82, 081101(R) (2010).
     *
     *
     * If you are calculating the stress with vdW-DF, please also cite:
     *
     *   R. Sabatini, E. Kucukbenli, B. Kolb, T. Thonhauser, and
     *   S. de Gironcoli, J. Phys.: Condens. Matter 24, 424209 (2012).
     *

     Carrying out vdW-DF run using the following parameters:

     Nqs =      20    Nr_points =    1024   r_max =   100.000
     q_mesh =
               0.00001000     0.04494208     0.09755937     0.15916263
               0.23128650     0.31572767     0.41458969     0.53033537
               0.66584808     0.82450364     1.01025438     1.22772762
               1.48234092     1.78043706     2.12944203     2.53805004
               3.01644009     3.57652955     4.23227104     5.00000000

     Gradients computed in reciprocal space

     Adding external electric field

     Computed dipole along edir(3) :
        Dipole               -1.4353 Ry au,         -3.6481 Debye
        Dipole field         -0.0035 Ry au

        Potential amp.        0.3195 Ry
        Total length         45.8256 bohr

     Starting wfc are  163 randomized atomic wfcs

     Self-consistent Calculation

     iteration #  1     ecut=    36.75 Ry     beta=0.30
     Davidson diagonalization with overlap
     ethr =  1.00E-02,  avg # of iterations =  5.3

[...]

     total energy              =   -3559.92248948 Ry
     Harris-Foulkes estimate   =   -3578.03642512 Ry
     estimated scf accuracy    <      38.92865866 Ry

[...]

     End of self-consistent calculation

          k = 0.0000 0.0000 0.0000 ( 19435 PWs)   bands (ev):

   -90.4396 -90.4332 -90.4308 -90.3518 -90.3467 -90.3458 -90.2892 -90.1799
   -90.1432 -90.1157 -90.1109 -90.1107 -53.9884 -53.9609 -53.9593 -53.9348
   -53.9332 -53.9315 -53.9168 -53.9019 -53.8982 -53.8884 -53.8712 -53.8706
   -53.8454 -53.8390 -53.8380 -53.8253 -53.8163 -53.8155 -53.7828 -53.7726
   -53.7723 -53.6805 -53.6802 -53.6739 -53.6738 -53.6707 -53.6579 -53.6222
   -53.6109 -53.6108 -53.6015 -53.5915 -53.5865 -53.5863 -53.5831 -53.5830
   -11.5794  -5.1319  -5.0082  -4.8646  -4.6692  -4.1467  -4.1201  -4.1196
    -4.0483  -3.9568  -3.9551  -3.9547  -3.9302  -3.8197  -3.7861  -3.7817
    -3.7334  -3.7311  -3.4062  -3.1378  -3.1260  -3.0277  -3.0261  -3.0239
    -2.9636  -2.9012  -2.8978  -2.8789  -2.8735  -2.7815  -2.7063  -2.6997
    -2.6581  -2.6560  -2.2583  -2.2553  -2.2451  -2.2034  -2.1912  -2.1175
    -2.1158  -1.9692  -1.9640  -1.9585  -1.9195  -1.9090  -1.8167  -1.7991
    -1.6396  -1.6129  -1.6119  -1.5640  -1.5639  -1.5377  -1.5370  -1.4737
    -1.4723  -1.4212  -1.3901  -1.3897  -1.3093  -1.2446  -1.2221  -1.2182
    -1.2139  -0.3952   0.7645   2.1315   2.1437   2.2195   2.4084   2.8473
     2.8655   3.1815   3.2960   3.3011   4.0484   5.1188   5.2830

[...]

          k =-0.0838 0.0484 0.0000 ( 19500 PWs)   bands (ev):

[...]

     the Fermi energy is     1.6909 ev

!    total energy              =   -3574.92320087 Ry
     Harris-Foulkes estimate   =   -3574.92322583 Ry
     estimated scf accuracy    <       0.00000570 Ry

     The total energy is the sum of the following terms:

     one-electron contribution =  -26301.59153788 Ry
     hartree contribution      =   13146.81353642 Ry
     xc contribution           =    -366.97083150 Ry
     ewald contribution        =    9946.84677116 Ry
     electric field correction =       0.00011279 Ry
     smearing contrib. (-TS)   =      -0.02125186 Ry

     convergence has been achieved in  15 iterations

 BEEF-vdW xc energy contributions
           1 :   -317.823005115326
           2 :    287.661012395415
           3 :   -237.376815496325
           4 :    182.161702672844
           5 :   -135.781620290595
           6 :    105.643970486472
           7 :   -91.4254967517103
           8 :    87.2558797912603
           9 :   -85.8231842159452
          10 :    82.0716573756922
          11 :   -74.7899514025252
          12 :    65.7890079455278
          13 :   -57.7274450956741
          14 :    52.1505201351702
          15 :   -48.8218188213438
          16 :    46.3911646750805
          17 :   -43.6226111373824
          18 :    40.2230291015717
          19 :   -36.7935797091317
          20 :    34.1242854084270
          21 :   -32.4753514712653
          22 :    31.3800122964310
          23 :   -30.0470190087345
          24 :    27.9921944271231
          25 :   -25.4085848483151
          26 :    23.0170111550987
          27 :   -21.5364286919286
          28 :    21.1731378728994
          29 :   -21.4913895495260
          30 :    21.7330886137564
          31 :   -31.8892932901930
          32 :   -23.1963907826363

     Forces acting on atoms (Ry/au):

     negative rho (up, down):  2.043E-03 0.000E+00
     atom    1 type  1   force =     0.00123667    0.00074785   -0.00003895
     atom    2 type  1   force =    -0.00125076    0.00072016   -0.00011508
     atom    3 type  1   force =     0.00000279   -0.00145252   -0.00009534
     atom    4 type  1   force =     0.00002507   -0.00001492   -0.00226743
     atom    5 type  1   force =     0.00029955    0.00069327    0.00243041
     atom    6 type  1   force =     0.00008964    0.00002945   -0.00898912
     atom    7 type  1   force =    -0.00076927   -0.00001452    0.00258413
     atom    8 type  1   force =     0.00038709   -0.00075683    0.00268430
     atom    9 type  1   force =     0.00028237   -0.00006857   -0.01061513
     atom   10 type  1   force =    -0.00196297   -0.02997085   -0.03133390
     atom   11 type  1   force =    -0.02433013    0.01511232   -0.02930281
     atom   12 type  1   force =     0.02645869    0.01268560   -0.02816169
     atom   13 type  2   force =     0.04476007    0.00219547    0.24095975
     atom   14 type  3   force =    -0.08217352    0.00355692   -0.05898965
     atom   15 type  3   force =     0.01554714   -0.05054812   -0.03984788
     atom   16 type  3   force =     0.02139758    0.04708529   -0.03890161

     Total force =     0.290202     Total SCF correction =     0.004708

     entering subroutine stress ...

     negative rho (up, down):  2.043E-03 0.000E+00
          total   stress  (Ry/bohr**3)                   (kbar)     P=   -4.88
  -0.00005693   0.00000018  -0.00001063         -8.38      0.03     -1.56
   0.00000018  -0.00005027   0.00000126          0.03     -7.39      0.19
  -0.00001063   0.00000126   0.00000766         -1.56      0.19      1.13

     BFGS Geometry Optimization

     number of scf cycles    =   1
     number of bfgs steps    =   0

     energy   new            =   -3574.9232008691 Ry

     new trust radius        =       0.2450915814 bohr
     new conv_thr            =       0.0000099958 Ry

ATOMIC_POSITIONS (crystal)
Ag1      0.166666667   0.166666667   0.402063960    0   0   0
Ag1      0.666666667   0.166666667   0.402063960    0   0   0
Ag1      0.166666667   0.666666667   0.402063960    0   0   0
Ag1      0.666666667   0.666666667   0.402063960    0   0   0
Ag1      0.833333333   0.333333333   0.500000000    0   0   0
Ag1      0.333333333   0.333333333   0.500000000    0   0   0
Ag1      0.833333333   0.833333333   0.500000000    0   0   0
Ag1      0.333333333   0.833333333   0.500000000    0   0   0
Ag1      0.000028555  -0.000007022   0.597710189
Ag1      0.501360578  -0.003069351   0.597269370
Ag1     -0.002931692   0.501547671   0.597312585
Ag1      0.501697065   0.501299148   0.597336863
C1       0.337190715   0.333558174   0.660819262
H1       0.508548420   0.333697601   0.679767475
H1       0.175807971   0.500300802   0.680174742
H1       0.343471635   0.166011231   0.680194875

     Writing output data file calc.save
     Check: negative starting charge=   -0.002006
     NEW-OLD atomic charge density approx. for the potential
     Check: negative starting charge=   -0.002005

[...]

     Total force =     0.098499     Total SCF correction =     0.010265
     SCF correction compared to forces is large: reduce conv_thr to get better values

[...]

     energy   old            =   -3574.9232008691 Ry
     energy   new            =   -3574.9789754274 Ry

     CASE: energy  _new < energy  _old

[...]

     Total force =     0.003893     Total SCF correction =     0.000283

[...]

     Threshold (ethr) on eigenvalues was too large:
     Diagonalizing with lowered threshold

     Davidson diagonalization with overlap
     ethr =  9.65E-08,  avg # of iterations =  1.0

[...]

     number of scf cycles    =  19
     number of bfgs steps    =  18

     energy   old            =   -3575.0075584759 Ry
     energy   new            =   -3575.0075831721 Ry

     CASE: energy  _new < energy  _old

     new trust radius        =       0.0120605707 bohr
     new conv_thr            =       0.0000001000 Ry

ATOMIC_POSITIONS (crystal)
Ag1      0.166666667   0.166666667   0.402063960    0   0   0
Ag1      0.666666667   0.166666667   0.402063960    0   0   0
Ag1      0.166666667   0.666666667   0.402063960    0   0   0
Ag1      0.666666667   0.666666667   0.402063960    0   0   0
Ag1      0.833333333   0.333333333   0.500000000    0   0   0
Ag1      0.333333333   0.333333333   0.500000000    0   0   0
Ag1      0.833333333   0.833333333   0.500000000    0   0   0
Ag1      0.333333333   0.833333333   0.500000000    0   0   0
Ag1      0.001061752   0.000046764   0.594384861
Ag1      0.498522499   0.003028659   0.597757147
Ag1      0.001897064   0.500023703   0.597413657
Ag1      0.498783782   0.496944582   0.598144448
C1       0.341267640   0.333709813   0.679356346
H1       0.506564067   0.345200173   0.694711070
H1       0.162320630   0.499112895   0.693847383
H1       0.352282488   0.155631448   0.693760726

     Writing output data file calc.save
     Check: negative starting charge=   -0.001935
     NEW-OLD atomic charge density approx. for the potential
     Check: negative starting charge=   -0.001935

[...]

     Self-consistent Calculation

[...]

     Threshold (ethr) on eigenvalues was too large:
     Diagonalizing with lowered threshold

     Davidson diagonalization with overlap
     ethr =  2.55E-08,  avg # of iterations =  1.0

[...]

     total energy              =   -3575.00761944 Ry
     Harris-Foulkes estimate   =   -3575.00761941 Ry
     estimated scf accuracy    <       0.00000031 Ry

     iteration #  6     ecut=    36.75 Ry     beta=0.30
     Davidson diagonalization with overlap
     ethr =  1.30E-10,  avg # of iterations =  2.0

[...]

     negative rho (up, down):  1.983E-03 0.000E+00

     Adding external electric field

     Computed dipole along edir(3) :
        Dipole                0.0561 Ry au,          0.1425 Debye
        Dipole field          0.0001 Ry au

        Potential amp.       -0.0125 Ry
        Total length         45.8256 bohr

     End of self-consistent calculation

[...]

          k = 0.0559-0.0645 0.0000 ( 19479 PWs)   bands (ev):

[...]

          k =-0.0838-0.0484 0.0000 ( 19500 PWs)   bands (ev):

   -90.5702 -90.5698 -90.5666 -90.4906 -90.3915 -90.3903 -90.3856 -90.3631
   -90.3596 -90.3333 -90.3320 -90.3281 -54.0955 -54.0749 -54.0729 -54.0703
   -54.0654 -54.0652 -54.0635 -54.0604 -54.0363 -53.9921 -53.9888 -53.9823
   -53.9177 -53.9175 -53.8963 -53.8948 -53.8867 -53.8798 -53.8734 -53.8674
   -53.8652 -53.8629 -53.8614 -53.8601 -53.8553 -53.8500 -53.8470 -53.8412
   -53.8370 -53.8350 -53.8325 -53.8201 -53.8109 -53.8093 -53.8065 -53.8037
   -11.1533  -4.6318  -4.5227  -4.0517  -4.0287  -3.9026  -3.8903  -3.8518
    -3.8374  -3.7516  -3.7394  -3.6715  -3.6255  -3.6098  -3.6008  -3.5359
    -3.5255  -3.4409  -3.4322  -3.2361  -3.2098  -3.1864  -3.1740  -3.1557
    -3.1207  -3.0776  -3.0478  -2.9828  -2.8549  -2.8415  -2.8378  -2.7981
    -2.7685  -2.7462  -2.7176  -2.6170  -2.5875  -2.5436  -2.5331  -2.5213
    -2.5141  -2.5012  -2.4855  -2.3713  -2.3354  -2.3239  -2.3177  -2.2886
    -2.2533  -2.2432  -2.2308  -2.1940  -2.1901  -2.1686  -2.1578  -2.0359
    -2.0268  -1.9809  -1.9174  -1.7139  -1.7075  -1.7018  -1.6768  -1.5603
    -1.5570  -1.0083  -0.6714   0.6369   1.2298   1.3054   1.8680   2.1889
     2.6123   3.1751   4.3413   4.4480   4.8835   5.3957   5.7275

     the Fermi energy is     1.4659 ev

!    total energy              =   -3575.00761947 Ry
     Harris-Foulkes estimate   =   -3575.00761948 Ry
     estimated scf accuracy    <       0.00000004 Ry

     The total energy is the sum of the following terms:

     one-electron contribution =  -26175.62150632 Ry
     hartree contribution      =   13082.82586986 Ry
     xc contribution           =    -367.03182653 Ry
     ewald contribution        =    9884.84177637 Ry
     electric field correction =       0.00000763 Ry
     smearing contrib. (-TS)   =      -0.02194048 Ry

     convergence has been achieved in   6 iterations

 BEEF-vdW xc energy contributions
           1 :   -317.834474425536
           2 :    287.517139523046
           3 :   -237.077472425909
           4 :    181.843080776189
           5 :   -135.593494355629
           6 :    105.654535084100
           7 :   -91.5978026969536
           8 :    87.4899843148789
           9 :   -86.0275204800230
          10 :    82.2136350741711
          11 :   -74.8973719238040
          12 :    65.9090026073697
          13 :   -57.8781309765746
          14 :    52.3007138243960
          15 :   -48.9116679627434
          16 :    46.3782525861478
          17 :   -43.5167778128388
          18 :    40.0825674891543
          19 :   -36.6881485356411
          20 :    34.0929786666063
          21 :   -32.5077136730967
          22 :    31.4302245180505
          23 :   -30.0684865486197
          24 :    27.9667306491129
          25 :   -25.3516718604326
          26 :    22.9601645948976
          27 :   -21.5035559039009
          28 :    21.1687376941482
          29 :   -21.5051358553175
          30 :    21.7522727172594
          31 :   -31.8866920799944
          32 :   -23.1605176338439

     Forces acting on atoms (Ry/au):

     negative rho (up, down):  1.983E-03 0.000E+00
     atom    1 type  1   force =     0.00178163    0.00100685    0.00082325
     atom    2 type  1   force =    -0.00178449    0.00106280    0.00086703
     atom    3 type  1   force =     0.00006017   -0.00206396    0.00085086
     atom    4 type  1   force =    -0.00006083   -0.00000624   -0.00080654
     atom    5 type  1   force =    -0.00029303    0.00297623    0.00075960
     atom    6 type  1   force =     0.00026366    0.00000248   -0.00640873
     atom    7 type  1   force =    -0.00251764   -0.00100019    0.00033381
     atom    8 type  1   force =     0.00262215   -0.00196238    0.00117188
     atom    9 type  1   force =    -0.00016380   -0.00000175    0.00190166
     atom   10 type  1   force =    -0.00008197    0.00016781    0.00025677
     atom   11 type  1   force =    -0.00017822   -0.00008400    0.00005773
     atom   12 type  1   force =    -0.00054155   -0.00014373    0.00055496
     atom   13 type  2   force =     0.00020635   -0.00033836   -0.00087778
     atom   14 type  3   force =    -0.00056032    0.00063361    0.00065414
     atom   15 type  3   force =    -0.00002768   -0.00032782    0.00000329
     atom   16 type  3   force =     0.00127556    0.00007865   -0.00014191

     Total force =     0.002871     Total SCF correction =     0.000566
     SCF correction compared to forces is large: reduce conv_thr to get better values

     entering subroutine stress ...

     negative rho (up, down):  1.983E-03 0.000E+00
          total   stress  (Ry/bohr**3)                   (kbar)     P=   -6.73
  -0.00005823  -0.00000083   0.00000067         -8.57     -0.12      0.10
  -0.00000083  -0.00005787   0.00000007         -0.12     -8.51      0.01
   0.00000067   0.00000007  -0.00002115          0.10      0.01     -3.11

     bfgs converged in  20 scf cycles and  19 bfgs steps
     (criteria: energy <  1.0E+00, force <  1.9E-03)

     End of BFGS Geometry Optimization

     Final energy   =   -3575.0076194671 Ry
Begin final coordinates

ATOMIC_POSITIONS (crystal)
Ag1      0.166666667   0.166666667   0.402063960    0   0   0
Ag1      0.666666667   0.166666667   0.402063960    0   0   0
Ag1      0.166666667   0.666666667   0.402063960    0   0   0
Ag1      0.666666667   0.666666667   0.402063960    0   0   0
Ag1      0.833333333   0.333333333   0.500000000    0   0   0
Ag1      0.333333333   0.333333333   0.500000000    0   0   0
Ag1      0.833333333   0.833333333   0.500000000    0   0   0
Ag1      0.333333333   0.833333333   0.500000000    0   0   0
Ag1      0.001061752   0.000046764   0.594384861
Ag1      0.498522499   0.003028659   0.597757147
Ag1      0.001897064   0.500023703   0.597413657
Ag1      0.498783782   0.496944582   0.598144448
C1       0.341267640   0.333709813   0.679356346
H1       0.506564067   0.345200173   0.694711070
H1       0.162320630   0.499112895   0.693847383
H1       0.352282488   0.155631448   0.693760726
End final coordinates

     Writing output data file calc.save

     General routines

     Parallel routines

   This run was terminated on:  10:24:54  17Apr2018

   JOB DONE.