     Program PWSCF v.5.1rc2 (svn rev. 11289) starts on  3May2018 at  8:46:20

     Current dimensions of program PWSCF are:
     Max number of different atomic species (ntypx) = 10
     Max number of k-points (npk) =  40000
     Max angular momentum in pseudopotentials (lmaxx) =  3
     Presently stress not available with electric field

     IMPORTANT: XC functional enforced from input :
     Exchange-correlation      = BEEF-VDW ( 1  4 27 13 2)
     Any further DFT definition will be discarded
     Please, verify this is what you really want

     Subspace diagonalization in iterative solution of the eigenvalue problem:
     a serial algorithm will be used

     bravais-lattice index     =            0
     lattice parameter (alat)  =       1.8897  a.u.
     unit-cell volume          =    4569.9960 (a.u.)^3
     number of atoms/cell      =           13
     number of atomic types    =            2
     number of electrons       =       198.00
     number of Kohn-Sham states=          109
     kinetic-energy cutoff     =      36.7493  Ry
     charge density cutoff     =     367.4932  Ry
     convergence threshold     =      1.0E-05
     mixing beta               =       0.3000
     number of iterations used =           10  plain     mixing
     Exchange-correlation      = BEEF-VDW ( 1  4 27 13 2)
     nstep                     =           50

     celldm(1)=   1.889726  celldm(2)=   0.000000  celldm(3)=   0.000000
     celldm(4)=   0.000000  celldm(5)=   0.000000  celldm(6)=   0.000000

     crystal axes: (cart. coord. in units of alat)
               a(1) = (   5.637663   0.000000   0.000000 )
               a(2) = (   2.818831   4.882359   0.000000 )
               a(3) = (   0.000000   0.000000  24.603132 )

     reciprocal axes: (cart. coord. in units 2 pi/alat)
               b(1) = (  0.177378 -0.102410  0.000000 )
               b(2) = (  0.000000  0.204819  0.000000 )
               b(3) = (  0.000000  0.000000  0.040645 )

     PseudoPot. # 1 for Pd read from file:
     /u/if/mamunm/psp/gbrv1.5pbe/Pd.UPF
     MD5 check sum: 2d733d2bc2cbfd217af676df1668a4bc
     Pseudo is Ultrasoft + core correction, Zval = 16.0
     Generated by new atomic code, or converted to UPF format
     Using radial grid of  887 points,  6 beta functions with:
                l(1) =   0
                l(2) =   0
                l(3) =   1
                l(4) =   1
                l(5) =   2
                l(6) =   2
     Q(r) pseudized with  8 coefficients,  rinner =    1.130   1.130   1.130
                                                       1.130   1.130

     PseudoPot. # 2 for S  read from file:
     /u/if/mamunm/psp/gbrv1.5pbe/S.UPF
     MD5 check sum: 88d86576ff6df21479756cfb9bdac1df
     Pseudo is Ultrasoft + core correction, Zval =  6.0
     Generated by new atomic code, or converted to UPF format
     Using radial grid of  907 points,  6 beta functions with:
                l(1) =   0
                l(2) =   0
                l(3) =   1
                l(4) =   1
                l(5) =   2
                l(6) =   2
     Q(r) pseudized with  8 coefficients,  rinner =    1.300   1.300   1.300
                                                       1.300   1.300

     vdW kernel table read from file vdW_kernel_table
     MD5 check sum: 095c7af220d748ca6e76c0b4c6cfb241

     atomic species   valence    mass     pseudopotential
        Pd1           16.00   106.42000     Pd( 1.00)
        S1             6.00    32.06000     S ( 1.00)

     No symmetry found

   Cartesian axes

     site n.     atom                  positions (alat units)
         1           Pd1 tau(   1) = (   1.4094157   0.8137265  10.0000000  )
         2           Pd1 tau(   2) = (   4.2282471   0.8137265  10.0000000  )
         3           Pd1 tau(   3) = (   2.8188314   3.2549061  10.0000000  )
         4           Pd1 tau(   4) = (   5.6376627   3.2549061  10.0000000  )
         5           Pd1 tau(   5) = (   5.6376627   1.6274531  12.3015662  )
         6           Pd1 tau(   6) = (   2.8188314   1.6274531  12.3015662  )
         7           Pd1 tau(   7) = (   7.0470784   4.0686326  12.3015662  )
         8           Pd1 tau(   8) = (   4.2282471   4.0686326  12.3015662  )
         9           Pd1 tau(   9) = (   0.0000000   0.0000000  14.6031324  )
        10           Pd1 tau(  10) = (   2.8188314   0.0000000  14.6031324  )
        11           Pd1 tau(  11) = (   1.4094157   2.4411796  14.6031324  )
        12           Pd1 tau(  12) = (   4.2282471   2.4411796  14.6031324  )
        13           S1  tau(  13) = (   0.0000000   0.0000000  16.6771324  )

     number of k points=    20  Fermi-Dirac smearing, width (Ry)=  0.0110
                       cart. coord. in units 2pi/alat
        k(    1) = (   0.0000000   0.0000000   0.0000000), wk =   0.0555556
        k(    2) = (   0.0000000   0.0341365   0.0000000), wk =   0.1111111
        k(    3) = (   0.0000000   0.0682730   0.0000000), wk =   0.1111111
        k(    4) = (   0.0000000  -0.1024095   0.0000000), wk =   0.0555556
        k(    5) = (   0.0295631  -0.0170683   0.0000000), wk =   0.1111111
        k(    6) = (   0.0295631   0.0170683   0.0000000), wk =   0.1111111
        k(    7) = (   0.0295631   0.0512048   0.0000000), wk =   0.1111111
        k(    8) = (   0.0295631  -0.1194778   0.0000000), wk =   0.1111111
        k(    9) = (   0.0295631  -0.0853413   0.0000000), wk =   0.1111111
        k(   10) = (   0.0295631  -0.0512048   0.0000000), wk =   0.1111111
        k(   11) = (   0.0591262  -0.0341365   0.0000000), wk =   0.1111111
        k(   12) = (   0.0591262  -0.0000000   0.0000000), wk =   0.1111111
        k(   13) = (   0.0591262   0.0341365   0.0000000), wk =   0.1111111
        k(   14) = (   0.0591262  -0.1365460   0.0000000), wk =   0.1111111
        k(   15) = (   0.0591262  -0.1024095   0.0000000), wk =   0.1111111
        k(   16) = (   0.0591262  -0.0682730   0.0000000), wk =   0.1111111
        k(   17) = (  -0.0886892   0.0512048   0.0000000), wk =   0.0555556
        k(   18) = (  -0.0886892   0.0853413   0.0000000), wk =   0.1111111
        k(   19) = (  -0.0886892   0.1194778   0.0000000), wk =   0.1111111
        k(   20) = (  -0.0886892  -0.0512048   0.0000000), wk =   0.0555556

     Largest allocated arrays     est. size (Mb)     dimensions
     Largest temporary arrays     est. size (Mb)     dimensions

     Initial potential from superposition of free atoms
     Check: negative starting charge=   -0.903997

     starting charge  191.99988, renormalised to  198.00000

     negative rho (up, down):  9.322E-01 0.000E+00

     *
     * You are using vdW-DF for exchange-correlation in this calculation.
     * Please cite the following three references that made this development
     * possible:
     *
     *   M. Dion, H. Rydberg, E. Schroder, D. C. Langreth, and
     *   B. I. Lundqvist, Phys. Rev. Lett. 92, 246401 (2004).
     *
     *   T. Thonhauser, V. R. Cooper, S. Li, A. Puzder, P. Hyldgaard, and
     *   D. C. Langreth, Phys. Rev. B 76, 125112 (2007).
     *
     *   G. Roman-Perez and J. M. Soler, Phys. Rev. Lett. 103, 096102 (2009).
     *
     *
     * If you are using vdW-DF2, please also cite:
     *
     *   K. Lee, E. D. Murray, L. Kong, B. I. Lundqvist, and
     *   D. C. Langreth, Phys. Rev. B 82, 081101(R) (2010).
     *
     *
     * If you are calculating the stress with vdW-DF, please also cite:
     *
     *   R. Sabatini, E. Kucukbenli, B. Kolb, T. Thonhauser, and
     *   S. de Gironcoli, J. Phys.: Condens. Matter 24, 424209 (2012).
     *

     Carrying out vdW-DF run using the following parameters:

     Nqs =      20    Nr_points =    1024   r_max =   100.000
     q_mesh =
               0.00001000     0.04494208     0.09755937     0.15916263
               0.23128650     0.31572767     0.41458969     0.53033537
               0.66584808     0.82450364     1.01025438     1.22772762
               1.48234092     1.78043706     2.12944203     2.53805004
               3.01644009     3.57652955     4.23227104     5.00000000

     Gradients computed in reciprocal space

     Adding external electric field

     Computed dipole along edir(3) :
        Dipole               -1.5501 Ry au,         -3.9399 Debye
        Dipole field         -0.0043 Ry au

        Potential amp.        0.3864 Ry
        Total length         45.3309 bohr

     Starting wfc are  148 randomized atomic wfcs

     Self-consistent Calculation

     iteration #  1     ecut=    36.75 Ry     beta=0.30
     Davidson diagonalization with overlap
     ethr =  1.00E-02,  avg # of iterations =  5.8

[...]

     total energy              =   -2372.66824327 Ry
     Harris-Foulkes estimate   =   -2424.43080991 Ry
     estimated scf accuracy    <     109.26250907 Ry

     iteration #  2     ecut=    36.75 Ry     beta=0.30
     Davidson diagonalization with overlap
     c_bands:  1 eigenvalues not converged
     ethr =  1.00E-02,  avg # of iterations = 17.8

[...]

     End of self-consistent calculation

          k = 0.0000 0.0000 0.0000 ( 17231 PWs)   bands (ev):

   -50.1395 -49.5764 -49.5764 -49.0545 -49.0261 -49.0261 -48.9493 -48.9219
   -48.9218 -48.9020 -48.8630 -48.8630 -48.8489 -48.7918 -48.7917 -48.7907
   -48.7703 -48.7700 -48.7597 -48.6836 -48.6835 -48.6164 -48.6028 -48.6025
   -48.5869 -48.5680 -48.5680 -48.5467 -48.5467 -48.4973 -48.4776 -48.4775
   -48.4638 -48.4507 -48.4501 -48.4150 -11.1921  -4.8570  -3.9597  -3.6807
    -3.6807  -3.5969  -3.5298  -3.4732  -3.4586  -3.4586  -3.3352  -3.3352
    -3.2088  -3.0430  -3.0429  -2.9885  -2.8145  -2.6771  -2.6771  -2.0227
    -1.8111  -1.8111  -1.7003  -1.5612  -1.5611  -1.5370  -1.4665  -1.4665
    -1.3293  -1.3292  -1.2438  -1.2438  -1.2281  -0.9708  -0.8470  -0.8470
    -0.5638  -0.5636  -0.2476  -0.2476  -0.1902  -0.1901  -0.1884  -0.0932
     0.1055   0.1549   0.1550   0.4777   0.4778   0.5964   0.6025   0.6026
     0.6692   0.6692   0.6997   0.6997   0.8099   0.8099   0.8222   0.8572
     0.9078   0.9078   1.0597   1.0905   1.0908   1.0991   1.9540   3.1170
     3.3555   3.3556   3.6250   4.4426   4.5647

[...]

          k =-0.0887 0.0512 0.0000 ( 17240 PWs)   bands (ev):

[...]

     the Fermi energy is     0.8631 ev

!    total energy              =   -2421.79973225 Ry
     Harris-Foulkes estimate   =   -2421.79971745 Ry
     estimated scf accuracy    <       0.00000880 Ry

     The total energy is the sum of the following terms:

     one-electron contribution =  -20500.20958850 Ry
     hartree contribution      =   10300.81545730 Ry
     xc contribution           =    -398.81486140 Ry
     ewald contribution        =    8176.53603032 Ry
     electric field correction =       0.00015431 Ry
     smearing contrib. (-TS)   =      -0.12692428 Ry

     convergence has been achieved in  19 iterations

 BEEF-vdW xc energy contributions
           1 :   -347.027198406309
           2 :    316.789510459413
           3 :   -265.259042450198
           4 :    206.334931296286
           5 :   -153.422749469000
           6 :    115.042627254904
           7 :   -93.0135230374945
           8 :    83.4966224023309
           9 :   -79.9980106690080
          10 :    76.7215386036041
          11 :   -70.7748737492879
          12 :    62.4880409082523
          13 :   -54.1270094274420
          14 :    47.9998626142350
          15 :   -45.0501433280666
          16 :    44.5411266069959
          17 :   -44.7518495313608
          18 :    44.0906324988860
          19 :   -41.9267793585911
          20 :    38.7257718788451
          21 :   -35.5443152036410
          22 :    33.2865567739892
          23 :   -32.1888354645708
          24 :    31.7877225401868
          25 :   -31.3113658607689
          26 :    30.1967790026676
          27 :   -28.4064598995940
          28 :    26.3774366488535
          29 :   -24.6803381883964
          30 :    23.6335843926338
          31 :   -33.9667254943140
          32 :   -25.0329659745120

     Forces acting on atoms (Ry/au):

     negative rho (up, down):  9.419E-01 0.000E+00
     atom    1 type  1   force =     0.00001163    0.00001420   -0.00013732
     atom    2 type  1   force =    -0.00001090    0.00000805   -0.00016348
     atom    3 type  1   force =    -0.00000228   -0.00001206   -0.00012707
     atom    4 type  1   force =    -0.00000718    0.00000008   -0.00313719
     atom    5 type  1   force =    -0.00001279   -0.00168118    0.00045800
     atom    6 type  1   force =     0.00001239   -0.00001557   -0.00181713
     atom    7 type  1   force =     0.00143887    0.00085467    0.00046046
     atom    8 type  1   force =    -0.00143784    0.00083545    0.00045904
     atom    9 type  1   force =    -0.00001305    0.00000895   -0.06822519
     atom   10 type  1   force =     0.00000916   -0.00199846    0.00686131
     atom   11 type  1   force =    -0.00172695    0.00099580    0.00684247
     atom   12 type  1   force =     0.00173669    0.00099131    0.00686166
     atom   13 type  2   force =     0.00000226   -0.00000124    0.05166445

     Total force =     0.086469     Total SCF correction =     0.005039

     entering subroutine stress ...

     negative rho (up, down):  9.419E-01 0.000E+00
          total   stress  (Ry/bohr**3)                   (kbar)     P=   -6.76
  -0.00008559  -0.00000000  -0.00000000        -12.59     -0.00     -0.00
  -0.00000000  -0.00008559   0.00000000         -0.00    -12.59      0.00
  -0.00000000   0.00000000   0.00003340         -0.00      0.00      4.91

     BFGS Geometry Optimization

     number of scf cycles    =   1
     number of bfgs steps    =   0

     energy   new            =   -2421.7997322494 Ry

     new trust radius        =       0.0682251890 bohr
     new conv_thr            =       0.0000099958 Ry

ATOMIC_POSITIONS (crystal)
Pd1      0.166666667   0.166666667   0.406452311    0   0   0
Pd1      0.666666667   0.166666667   0.406452311    0   0   0
Pd1      0.166666667   0.666666667   0.406452311    0   0   0
Pd1      0.666666667   0.666666667   0.406452311    0   0   0
Pd1      0.833333333   0.333333333   0.500000000    0   0   0
Pd1      0.333333333   0.333333333   0.500000000    0   0   0
Pd1      0.833333333   0.833333333   0.500000000    0   0   0
Pd1      0.333333333   0.833333333   0.500000000    0   0   0
Pd1     -0.000001710   0.000000970   0.592080266
Pd1      0.500109162  -0.000216605   0.593695266
Pd1     -0.000216065   0.500107930   0.593694860
Pd1      0.500109292   0.500107444   0.593695273
S1       0.000000280  -0.000000135   0.678957125

     Writing output data file calc.save
     Check: negative starting charge=   -0.903997
     NEW-OLD atomic charge density approx. for the potential
     Check: negative starting charge=   -0.906847

[...]

     Total force =     0.023286     Total SCF correction =     0.006641
     SCF correction compared to forces is large: reduce conv_thr to get better values

[...]

     energy   old            =   -2421.7997322494 Ry
     energy   new            =   -2421.8042292468 Ry

     CASE: energy  _new < energy  _old

[...]

     Total force =     0.010442     Total SCF correction =     0.000374

[...]

     number of scf cycles    =   8
     number of bfgs steps    =   7

     energy   old            =   -2421.8064640382 Ry
     energy   new            =   -2421.8065481725 Ry

     CASE: energy  _new < energy  _old

     new trust radius        =       0.0043474886 bohr
     new conv_thr            =       0.0000001000 Ry

ATOMIC_POSITIONS (crystal)
Pd1      0.166666667   0.166666667   0.406452311    0   0   0
Pd1      0.666666667   0.166666667   0.406452311    0   0   0
Pd1      0.166666667   0.666666667   0.406452311    0   0   0
Pd1      0.666666667   0.666666667   0.406452311    0   0   0
Pd1      0.833333333   0.333333333   0.500000000    0   0   0
Pd1      0.333333333   0.333333333   0.500000000    0   0   0
Pd1      0.833333333   0.833333333   0.500000000    0   0   0
Pd1      0.333333333   0.833333333   0.500000000    0   0   0
Pd1     -0.000000166   0.000001629   0.588892744
Pd1      0.500665514  -0.001332769   0.596238341
Pd1     -0.001333478   0.500664482   0.596236793
Pd1      0.500663856   0.500669071   0.596237656
S1       0.000001789   0.000000589   0.676360351

     Writing output data file calc.save
     Check: negative starting charge=   -0.908566
     NEW-OLD atomic charge density approx. for the potential
     Check: negative starting charge=   -0.908860

[...]

     Self-consistent Calculation

[...]

     Threshold (ethr) on eigenvalues was too large:
     Diagonalizing with lowered threshold

     Davidson diagonalization with overlap
     ethr =  9.02E-08,  avg # of iterations =  1.0

[...]

     total energy              =   -2421.80656854 Ry
     Harris-Foulkes estimate   =   -2421.80656858 Ry
     estimated scf accuracy    <       0.00000020 Ry

     iteration #  9     ecut=    36.75 Ry     beta=0.30
     Davidson diagonalization with overlap
     ethr =  1.02E-10,  avg # of iterations =  1.0

[...]

     negative rho (up, down):  9.472E-01 0.000E+00

     Adding external electric field

     Computed dipole along edir(3) :
        Dipole               -0.2241 Ry au,         -0.5695 Debye
        Dipole field         -0.0006 Ry au

        Potential amp.        0.0559 Ry
        Total length         45.3309 bohr

     End of self-consistent calculation

[...]

          k = 0.0591-0.0683 0.0000 ( 17183 PWs)   bands (ev):

[...]

          k =-0.0887-0.0512 0.0000 ( 17240 PWs)   bands (ev):

   -49.9938 -49.5231 -49.5169 -49.0263 -48.9713 -48.9653 -48.9415 -48.9409
   -48.9213 -48.9192 -48.9054 -48.8653 -48.8514 -48.8477 -48.8011 -48.7447
   -48.7418 -48.7019 -48.6801 -48.6724 -48.6663 -48.6540 -48.6304 -48.6206
   -48.6099 -48.6035 -48.5921 -48.5863 -48.5437 -48.4677 -48.4643 -48.4570
   -48.4464 -48.4407 -48.4356 -48.4303 -11.0195  -3.7328  -3.4765  -3.3870
    -3.2281  -3.0690  -2.9978  -2.8881  -2.8497  -2.7641  -2.6677  -2.6150
    -2.5476  -2.5310  -2.4138  -2.3785  -2.3076  -2.2182  -2.1813  -2.1779
    -1.8829  -1.8245  -1.8071  -1.8027  -1.7169  -1.6253  -1.5223  -1.4795
    -1.2900  -1.2575  -1.1960  -1.1832  -1.0792  -1.0713  -1.0617  -0.9906
    -0.9342  -0.9336  -0.9034  -0.8903  -0.8725  -0.7222  -0.6440  -0.5506
    -0.5006  -0.4518  -0.4500  -0.3405  -0.2997  -0.2168  -0.2049  -0.1684
    -0.1046  -0.0916  -0.0433   0.1080   0.1348   0.2057   0.2659   0.5486
     0.6303   0.6393   0.6960   0.8579   0.8739   0.8836   1.3585   1.8605
     3.2808   3.4412   3.5106   3.8234   4.6200

     the Fermi energy is     0.8528 ev

!    total energy              =   -2421.80656855 Ry
     Harris-Foulkes estimate   =   -2421.80656856 Ry
     estimated scf accuracy    <       0.00000003 Ry

     The total energy is the sum of the following terms:

     one-electron contribution =  -20451.22564377 Ry
     hartree contribution      =   10276.38377048 Ry
     xc contribution           =    -398.77333321 Ry
     ewald contribution        =    8151.93455732 Ry
     electric field correction =       0.00013806 Ry
     smearing contrib. (-TS)   =      -0.12605743 Ry

     convergence has been achieved in   9 iterations

 BEEF-vdW xc energy contributions
           1 :   -346.980648024317
           2 :    316.718019698241
           3 :   -265.155649380882
           4 :    206.220187571071
           5 :   -153.335117812778
           6 :    115.013297619752
           7 :   -93.0437472806359
           8 :    83.5545348188909
           9 :   -80.0366943875749
          10 :    76.7071196825493
          11 :   -70.7062603266154
          12 :    62.3961482682146
          13 :   -54.0552631065846
          14 :    47.9792254243560
          15 :   -45.0834994081650
          16 :    44.6053120957591
          17 :   -44.8144341935243
          18 :    44.1296422047147
          19 :   -41.9414237401289
          20 :    38.7325974738160
          21 :   -35.5627129777708
          22 :    33.3244033180196
          23 :   -32.2376321554150
          24 :    31.8297282814939
          25 :   -31.3327752033259
          26 :    30.1980422691929
          27 :   -28.4024145905669
          28 :    26.3870051288364
          29 :   -24.7125593448042
          30 :    23.6793231271310
          31 :   -33.9635349741843
          32 :   -25.0247183970963

     Forces acting on atoms (Ry/au):

     negative rho (up, down):  9.472E-01 0.000E+00
     atom    1 type  1   force =     0.00014752    0.00008081   -0.00042868
     atom    2 type  1   force =    -0.00014789    0.00008703   -0.00042879
     atom    3 type  1   force =     0.00000530   -0.00016861   -0.00043113
     atom    4 type  1   force =    -0.00000554    0.00000181   -0.00169902
     atom    5 type  1   force =     0.00000008    0.00615727   -0.00046041
     atom    6 type  1   force =    -0.00000016   -0.00000101    0.00848724
     atom    7 type  1   force =    -0.00533351   -0.00307836   -0.00045907
     atom    8 type  1   force =     0.00533368   -0.00307809   -0.00046015
     atom    9 type  1   force =     0.00000482   -0.00000449   -0.00166147
     atom   10 type  1   force =    -0.00000458    0.00089832   -0.00070810
     atom   11 type  1   force =     0.00078055   -0.00044735   -0.00070252
     atom   12 type  1   force =    -0.00078131   -0.00044735   -0.00070668
     atom   13 type  2   force =     0.00000104    0.00000002   -0.00034122

     Total force =     0.002607     Total SCF correction =     0.000451
     SCF correction compared to forces is large: reduce conv_thr to get better values

     entering subroutine stress ...

     negative rho (up, down):  9.472E-01 0.000E+00
          total   stress  (Ry/bohr**3)                   (kbar)     P=  -10.07
  -0.00009400  -0.00000000  -0.00000000        -13.83     -0.00     -0.00
  -0.00000000  -0.00009400  -0.00000000         -0.00    -13.83     -0.00
  -0.00000000  -0.00000000  -0.00001738         -0.00     -0.00     -2.56

     bfgs converged in   9 scf cycles and   8 bfgs steps
     (criteria: energy <  1.0E+00, force <  1.9E-03)

     End of BFGS Geometry Optimization

     Final energy   =   -2421.8065685510 Ry
Begin final coordinates

ATOMIC_POSITIONS (crystal)
Pd1      0.166666667   0.166666667   0.406452311    0   0   0
Pd1      0.666666667   0.166666667   0.406452311    0   0   0
Pd1      0.166666667   0.666666667   0.406452311    0   0   0
Pd1      0.666666667   0.666666667   0.406452311    0   0   0
Pd1      0.833333333   0.333333333   0.500000000    0   0   0
Pd1      0.333333333   0.333333333   0.500000000    0   0   0
Pd1      0.833333333   0.833333333   0.500000000    0   0   0
Pd1      0.333333333   0.833333333   0.500000000    0   0   0
Pd1     -0.000000166   0.000001629   0.588892744
Pd1      0.500665514  -0.001332769   0.596238341
Pd1     -0.001333478   0.500664482   0.596236793
Pd1      0.500663856   0.500669071   0.596237656
S1       0.000001789   0.000000589   0.676360351
End final coordinates

     Writing output data file calc.save

     General routines

     Parallel routines

   This run was terminated on:   9:47:56   3May2018

   JOB DONE.
Job  /afs/slac/g/suncat/bin/suncat-tsmpirun -x LD_LIBRARY_PATH -wdir /scratch/qe692835_2oeK4 pw.x -npool 4 -in pw.inp

TID   HOST_NAME   COMMAND_LINE            STATUS            TERMINATION_TIME
00000 suncat0124 pw.x -npool 4 -i  Done                     05/03/2018 09:47:56
00001 suncat0124 pw.x -npool 4 -i  Done                     05/03/2018 09:47:56
00002 suncat0124 pw.x -npool 4 -i  Done                     05/03/2018 09:47:56
00003 suncat0124 pw.x -npool 4 -i  Done                     05/03/2018 09:47:56
00004 suncat0124 pw.x -npool 4 -i  Done                     05/03/2018 09:47:56
00005 suncat0124 pw.x -npool 4 -i  Done                     05/03/2018 09:47:56
00006 suncat0124 pw.x -npool 4 -i  Done                     05/03/2018 09:47:56
00007 suncat0124 pw.x -npool 4 -i  Done                     05/03/2018 09:47:56
00008 suncat0279 pw.x -npool 4 -i  Done                     05/03/2018 09:47:56
00009 suncat0279 pw.x -npool 4 -i  Done                     05/03/2018 09:47:56
00010 suncat0279 pw.x -npool 4 -i  Done                     05/03/2018 09:47:56
00011 suncat0279 pw.x -npool 4 -i  Done                     05/03/2018 09:47:56
00012 suncat0279 pw.x -npool 4 -i  Done                     05/03/2018 09:47:56
00013 suncat0279 pw.x -npool 4 -i  Done                     05/03/2018 09:47:56
00014 suncat0279 pw.x -npool 4 -i  Done                     05/03/2018 09:47:56
00015 suncat0279 pw.x -npool 4 -i  Done                     05/03/2018 09:47:56
00016 suncat0212 pw.x -npool 4 -i  Done                     05/03/2018 09:47:56
00017 suncat0212 pw.x -npool 4 -i  Done                     05/03/2018 09:47:56
00018 suncat0212 pw.x -npool 4 -i  Done                     05/03/2018 09:47:56
00019 suncat0212 pw.x -npool 4 -i  Done                     05/03/2018 09:47:56
00020 suncat0212 pw.x -npool 4 -i  Done                     05/03/2018 09:47:56
00021 suncat0212 pw.x -npool 4 -i  Done                     05/03/2018 09:47:56
00022 suncat0212 pw.x -npool 4 -i  Done                     05/03/2018 09:47:56
00023 suncat0212 pw.x -npool 4 -i  Done                     05/03/2018 09:47:56
00024 suncat0211 pw.x -npool 4 -i  Done                     05/03/2018 09:47:56
00025 suncat0211 pw.x -npool 4 -i  Done                     05/03/2018 09:47:56
00026 suncat0211 pw.x -npool 4 -i  Done                     05/03/2018 09:47:56
00027 suncat0211 pw.x -npool 4 -i  Done                     05/03/2018 09:47:56
00028 suncat0211 pw.x -npool 4 -i  Done                     05/03/2018 09:47:56
00029 suncat0211 pw.x -npool 4 -i  Done                     05/03/2018 09:47:56
00030 suncat0211 pw.x -npool 4 -i  Done                     05/03/2018 09:47:56
00031 suncat0211 pw.x -npool 4 -i  Done                     05/03/2018 09:47:56