     Program PWSCF v.5.1rc2 (svn rev. 11289) starts on  3May2018 at 14:28: 0

     Current dimensions of program PWSCF are:
     Max number of different atomic species (ntypx) = 10
     Max number of k-points (npk) =  40000
     Max angular momentum in pseudopotentials (lmaxx) =  3
     Presently stress not available with electric field

     IMPORTANT: XC functional enforced from input :
     Exchange-correlation      = BEEF-VDW ( 1  4 27 13 2)
     Any further DFT definition will be discarded
     Please, verify this is what you really want

     Subspace diagonalization in iterative solution of the eigenvalue problem:
     a serial algorithm will be used

     bravais-lattice index     =            0
     lattice parameter (alat)  =       1.8897  a.u.
     unit-cell volume          =    6024.3322 (a.u.)^3
     number of atoms/cell      =           13
     number of atomic types    =            2
     number of electrons       =       149.00
     number of Kohn-Sham states=           84
     kinetic-energy cutoff     =      36.7493  Ry
     charge density cutoff     =     367.4932  Ry
     convergence threshold     =      1.0E-05
     mixing beta               =       0.3000
     number of iterations used =           10  plain     mixing
     Exchange-correlation      = BEEF-VDW ( 1  4 27 13 2)
     nstep                     =           50

     celldm(1)=   1.889726  celldm(2)=   0.000000  celldm(3)=   0.000000
     celldm(4)=   0.000000  celldm(5)=   0.000000  celldm(6)=   0.000000

     crystal axes: (cart. coord. in units of alat)
               a(1) = (   6.393197   0.000000   0.000000 )
               a(2) = (   3.196599   5.536671   0.000000 )
               a(3) = (   0.000000   0.000000  25.220024 )

     reciprocal axes: (cart. coord. in units 2 pi/alat)
               b(1) = (  0.156416 -0.090307  0.000000 )
               b(2) = (  0.000000  0.180614  0.000000 )
               b(3) = (  0.000000  0.000000  0.039651 )

     PseudoPot. # 1 for Hf read from file:
     /u/if/mamunm/psp/gbrv1.5pbe/Hf.UPF
     MD5 check sum: 8ee9378dfe14276e333edf04c5e4aa26
     Pseudo is Ultrasoft + core correction, Zval = 12.0
     Generated by new atomic code, or converted to UPF format
     Using radial grid of  921 points,  8 beta functions with:
                l(1) =   0
                l(2) =   0
                l(3) =   0
                l(4) =   1
                l(5) =   1
                l(6) =   2
                l(7) =   2
                l(8) =   3
     Q(r) pseudized with  6 coefficients,  rinner =    1.200   1.200   1.200
                                                       1.200   1.200   1.200
                                                       1.200

     PseudoPot. # 2 for N  read from file:
     /u/if/mamunm/psp/gbrv1.5pbe/N.UPF
     MD5 check sum: 95339753478d7afb44899504a8723017
     Pseudo is Ultrasoft + core correction, Zval =  5.0
     Generated by new atomic code, or converted to UPF format
     Using radial grid of  729 points,  4 beta functions with:
                l(1) =   0
                l(2) =   0
                l(3) =   1
                l(4) =   1
     Q(r) pseudized with  8 coefficients,  rinner =    0.900   0.900   0.900

     vdW kernel table read from file vdW_kernel_table
     MD5 check sum: 095c7af220d748ca6e76c0b4c6cfb241

     atomic species   valence    mass     pseudopotential
        Hf1           12.00   178.49000     Hf( 1.00)
        N1             5.00    14.00700     N ( 1.00)

     No symmetry found

   Cartesian axes

     site n.     atom                  positions (alat units)
         1           Hf1 tau(   1) = (   1.5982993   0.9227785  10.0000000  )
         2           Hf1 tau(   2) = (   4.7948978   0.9227785  10.0000000  )
         3           Hf1 tau(   3) = (   3.1965986   3.6911141  10.0000000  )
         4           Hf1 tau(   4) = (   6.3931971   3.6911141  10.0000000  )
         5           Hf1 tau(   5) = (   6.3931971   1.8455570  12.6100118  )
         6           Hf1 tau(   6) = (   3.1965986   1.8455570  12.6100118  )
         7           Hf1 tau(   7) = (   7.9914964   4.6138926  12.6100118  )
         8           Hf1 tau(   8) = (   4.7948978   4.6138926  12.6100118  )
         9           Hf1 tau(   9) = (   0.0000000   0.0000000  15.2200236  )
        10           Hf1 tau(  10) = (   3.1965986   0.0000000  15.2200236  )
        11           Hf1 tau(  11) = (   1.5982993   2.7683356  15.2200236  )
        12           Hf1 tau(  12) = (   4.7948978   2.7683356  15.2200236  )
        13           N1  tau(  13) = (   0.0000000   0.0000000  17.3110236  )

     number of k points=    20  Fermi-Dirac smearing, width (Ry)=  0.0110
                       cart. coord. in units 2pi/alat
        k(    1) = (   0.0000000   0.0000000   0.0000000), wk =   0.0555556
        k(    2) = (   0.0000000   0.0301023   0.0000000), wk =   0.1111111
        k(    3) = (   0.0000000   0.0602046   0.0000000), wk =   0.1111111
        k(    4) = (   0.0000000  -0.0903070   0.0000000), wk =   0.0555556
        k(    5) = (   0.0260694  -0.0150512   0.0000000), wk =   0.1111111
        k(    6) = (   0.0260694   0.0150512   0.0000000), wk =   0.1111111
        k(    7) = (   0.0260694   0.0451535   0.0000000), wk =   0.1111111
        k(    8) = (   0.0260694  -0.1053581   0.0000000), wk =   0.1111111
        k(    9) = (   0.0260694  -0.0752558   0.0000000), wk =   0.1111111
        k(   10) = (   0.0260694  -0.0451535   0.0000000), wk =   0.1111111
        k(   11) = (   0.0521388  -0.0301023   0.0000000), wk =   0.1111111
        k(   12) = (   0.0521388   0.0000000   0.0000000), wk =   0.1111111
        k(   13) = (   0.0521388   0.0301023   0.0000000), wk =   0.1111111
        k(   14) = (   0.0521388  -0.1204093   0.0000000), wk =   0.1111111
        k(   15) = (   0.0521388  -0.0903070   0.0000000), wk =   0.1111111
        k(   16) = (   0.0521388  -0.0602046   0.0000000), wk =   0.1111111
        k(   17) = (  -0.0782081   0.0451535   0.0000000), wk =   0.0555556
        k(   18) = (  -0.0782081   0.0752558   0.0000000), wk =   0.1111111
        k(   19) = (  -0.0782081   0.1053581   0.0000000), wk =   0.1111111
        k(   20) = (  -0.0782081  -0.0451535   0.0000000), wk =   0.0555556

     Largest allocated arrays     est. size (Mb)     dimensions
     Largest temporary arrays     est. size (Mb)     dimensions

     Check: negative/imaginary core charge=   -0.000003    0.000000

     Initial potential from superposition of free atoms
     Check: negative starting charge=   -1.301358

     starting charge  124.99997, renormalised to  149.00000

     negative rho (up, down):  1.551E+00 0.000E+00

     *
     * You are using vdW-DF for exchange-correlation in this calculation.
     * Please cite the following three references that made this development
     * possible:
     *
     *   M. Dion, H. Rydberg, E. Schroder, D. C. Langreth, and
     *   B. I. Lundqvist, Phys. Rev. Lett. 92, 246401 (2004).
     *
     *   T. Thonhauser, V. R. Cooper, S. Li, A. Puzder, P. Hyldgaard, and
     *   D. C. Langreth, Phys. Rev. B 76, 125112 (2007).
     *
     *   G. Roman-Perez and J. M. Soler, Phys. Rev. Lett. 103, 096102 (2009).
     *
     *
     * If you are using vdW-DF2, please also cite:
     *
     *   K. Lee, E. D. Murray, L. Kong, B. I. Lundqvist, and
     *   D. C. Langreth, Phys. Rev. B 82, 081101(R) (2010).
     *
     *
     * If you are calculating the stress with vdW-DF, please also cite:
     *
     *   R. Sabatini, E. Kucukbenli, B. Kolb, T. Thonhauser, and
     *   S. de Gironcoli, J. Phys.: Condens. Matter 24, 424209 (2012).
     *

     Carrying out vdW-DF run using the following parameters:

     Nqs =      20    Nr_points =    1024   r_max =   100.000
     q_mesh =
               0.00001000     0.04494208     0.09755937     0.15916263
               0.23128650     0.31572767     0.41458969     0.53033537
               0.66584808     0.82450364     1.01025438     1.22772762
               1.48234092     1.78043706     2.12944203     2.53805004
               3.01644009     3.57652955     4.23227104     5.00000000

     Gradients computed in reciprocal space

     Adding external electric field

     Computed dipole along edir(3) :
        Dipole               -8.5282 Ry au,        -21.6765 Debye
        Dipole field         -0.0178 Ry au

        Potential amp.        1.6532 Ry
        Total length         46.4675 bohr

     Starting wfc are  160 randomized atomic wfcs

     Self-consistent Calculation

     iteration #  1     ecut=    36.75 Ry     beta=0.30
     Davidson diagonalization with overlap
     ethr =  1.00E-02,  avg # of iterations =  9.7

[...]

     total energy              =   -1333.50471830 Ry
     Harris-Foulkes estimate   =   -1935.88580803 Ry
     estimated scf accuracy    <    1296.06399172 Ry

[...]

     End of self-consistent calculation

          k = 0.0000 0.0000 0.0000 ( 22729 PWs)   bands (ev):

   -61.9351 -61.9095 -61.9093 -61.7965 -61.7666 -61.7581 -61.7576 -61.4287
   -61.4002 -61.4000 -61.3586 -60.9132 -30.6276 -30.6013 -30.5692 -30.5690
   -30.5386 -30.5374 -30.5372 -30.5269 -30.5268 -30.4335 -30.3715 -30.3414
   -30.3410 -30.2795 -30.1672 -30.1533 -30.1532 -30.1332 -30.1330 -30.1301
   -30.1109 -30.1107 -30.0041 -30.0040 -29.9155 -29.8929 -29.8927 -29.8465
   -29.7847 -29.7846 -29.7762 -29.6525 -29.6525 -29.5060 -29.5059 -29.3097
   -10.7461  -5.6555  -4.3080  -3.0530  -2.2191  -2.2034  -2.2034  -1.9403
    -1.9403  -1.9328  -1.5100  -1.4980  -1.4980  -0.9387  -0.9072  -0.9072
    -0.4650  -0.4649  -0.1583   0.0538   0.3515   0.3516   0.8471   1.0528
     1.1859   1.2697   1.2697   1.4893   1.5873   1.5873   1.6140   1.9137
     1.9818   2.0547   2.0549   2.1210

[...]

          k =-0.0782 0.0452 0.0000 ( 22668 PWs)   bands (ev):

[...]

     the Fermi energy is     0.8424 ev

!    total energy              =   -1946.81778989 Ry
     Harris-Foulkes estimate   =   -1946.81779290 Ry
     estimated scf accuracy    <       0.00000138 Ry

     The total energy is the sum of the following terms:

     one-electron contribution =   -8471.29689771 Ry
     hartree contribution      =    4218.31843582 Ry
     xc contribution           =    -932.97460635 Ry
     ewald contribution        =    3239.24572764 Ry
     electric field correction =       0.00066952 Ry
     smearing contrib. (-TS)   =      -0.11111880 Ry

     convergence has been achieved in  36 iterations

 BEEF-vdW xc energy contributions
           1 :   -843.465443638291
           2 :    783.737567497594
           3 :   -677.991033986925
           4 :    548.166233659082
           5 :   -416.859596615662
           6 :    301.018268750187
           7 :   -209.235652849160
           8 :    142.686740701357
           9 :   -98.1438484830869
          10 :    70.9269739661445
          11 :   -56.4839579273147
          12 :    50.5253289690027
          13 :   -48.6329675383463
          14 :    46.3066723131016
          15 :   -39.8363755495125
          16 :    27.5325085885672
          17 :   -10.4630916715196
          18 :   -7.94294859851175
          19 :    23.3489260414227
          20 :   -32.3262705843892
          21 :    33.6294439168822
          22 :   -28.3946806949986
          23 :    19.3385197141329
          24 :   -9.54874478474801
          25 :    1.52043829168429
          26 :    3.22136802546117
          27 :   -4.03142451172857
          28 :   0.943133181448843
          29 :    5.37011902031327
          30 :   -13.5090853627919
          31 :   -60.7422284972798
          32 :   -43.6432944680931

     Forces acting on atoms (Ry/au):

     negative rho (up, down):  1.379E+00 0.000E+00
     atom    1 type  1   force =     0.00117528    0.00064886    0.02578516
     atom    2 type  1   force =    -0.00117508    0.00068185    0.02573747
     atom    3 type  1   force =     0.00002942   -0.00134131    0.02579773
     atom    4 type  1   force =    -0.00002976    0.00001425    0.02678430
     atom    5 type  1   force =     0.00002730    0.01601143   -0.01116169
     atom    6 type  1   force =    -0.00002461    0.00003316    0.00063368
     atom    7 type  1   force =    -0.01383707   -0.00803937   -0.01116261
     atom    8 type  1   force =     0.01383958   -0.00800780   -0.01119520
     atom    9 type  1   force =     0.00002818   -0.00002080    0.09669617
     atom   10 type  1   force =    -0.00002855   -0.00382827   -0.00686064
     atom   11 type  1   force =    -0.00330152    0.00190869   -0.00682902
     atom   12 type  1   force =     0.00329698    0.00193982   -0.00684860
     atom   13 type  2   force =    -0.00000015   -0.00000050   -0.14737675

     Total force =     0.176789     Total SCF correction =     0.001589

     entering subroutine stress ...

     negative rho (up, down):  1.379E+00 0.000E+00
          total   stress  (Ry/bohr**3)                   (kbar)     P=  -27.79
  -0.00014975  -0.00000000   0.00000000        -22.03     -0.00      0.00
  -0.00000000  -0.00014974  -0.00000000         -0.00    -22.03     -0.00
   0.00000000  -0.00000000  -0.00026734          0.00     -0.00    -39.33

     BFGS Geometry Optimization

     number of scf cycles    =   1
     number of bfgs steps    =   0

     energy   new            =   -1946.8177898872 Ry

     new trust radius        =       0.1473767505 bohr
     new conv_thr            =       0.0000099958 Ry

ATOMIC_POSITIONS (crystal)
Hf1      0.166666667   0.166666667   0.396510335    0   0   0
Hf1      0.666666667   0.166666667   0.396510335    0   0   0
Hf1      0.166666667   0.666666667   0.396510335    0   0   0
Hf1      0.666666667   0.666666667   0.396510335    0   0   0
Hf1      0.833333333   0.333333333   0.500000000    0   0   0
Hf1      0.333333333   0.333333333   0.500000000    0   0   0
Hf1      0.833333333   0.833333333   0.500000000    0   0   0
Hf1      0.333333333   0.833333333   0.500000000    0   0   0
Hf1      0.000003326  -0.000001988   0.605518585
Hf1      0.500180584  -0.000365894   0.603345712
Hf1     -0.000364487   0.500182427   0.603346376
Hf1      0.500180197   0.500185402   0.603345965
N1       0.000000011  -0.000000047   0.683307655

     Writing output data file calc.save
     Check: negative starting charge=   -1.301358
     NEW-OLD atomic charge density approx. for the potential

     Check: negative/imaginary core charge=   -0.000003    0.000000
     Check: negative starting charge=   -1.301494

[...]

     energy   old            =   -1946.8177898872 Ry
     energy   new            =   -1946.8429070352 Ry

     CASE: energy  _new < energy  _old

[...]

     WARNING: bfgs curvature condition failed, Theta= 0.840
     new trust radius        =       0.0581748586 bohr
     new conv_thr            =       0.0000001000 Ry

[...]

     iteration #  1     ecut=    36.75 Ry     beta=0.30
     Davidson diagonalization with overlap
     c_bands:  1 eigenvalues not converged
     c_bands:  1 eigenvalues not converged
     ethr =  1.00E-06,  avg # of iterations = 15.8

[...]

     iteration #  1     ecut=    36.75 Ry     beta=0.30
     Davidson diagonalization with overlap
     c_bands:  1 eigenvalues not converged
     ethr =  1.00E-06,  avg # of iterations = 16.8

[...]

     Total force =     0.007596     Total SCF correction =     0.000200

[...]

     Total force =     0.003408     Total SCF correction =     0.000381
     SCF correction compared to forces is large: reduce conv_thr to get better values

[...]

     number of scf cycles    =  10
     number of bfgs steps    =   9

     energy   old            =   -1946.8717696016 Ry
     energy   new            =   -1946.8721226534 Ry

     CASE: energy  _new < energy  _old

     new trust radius        =       0.0139462210 bohr
     new conv_thr            =       0.0000001000 Ry

ATOMIC_POSITIONS (crystal)
Hf1      0.166666667   0.166666667   0.396510335    0   0   0
Hf1      0.666666667   0.166666667   0.396510335    0   0   0
Hf1      0.166666667   0.666666667   0.396510335    0   0   0
Hf1      0.666666667   0.666666667   0.396510335    0   0   0
Hf1      0.833333333   0.333333333   0.500000000    0   0   0
Hf1      0.333333333   0.333333333   0.500000000    0   0   0
Hf1      0.833333333   0.833333333   0.500000000    0   0   0
Hf1      0.333333333   0.833333333   0.500000000    0   0   0
Hf1     -0.000002899   0.000001402   0.594436734
Hf1      0.503463579  -0.006927535   0.599583680
Hf1     -0.006927918   0.503463771   0.599584933
Hf1      0.503463672   0.503463678   0.599583711
N1       0.000002780  -0.000001368   0.668008921

     Writing output data file calc.save
     Check: negative starting charge=   -1.300286
     NEW-OLD atomic charge density approx. for the potential

     Check: negative/imaginary core charge=   -0.000003    0.000000
     Check: negative starting charge=   -1.300590

[...]

     Self-consistent Calculation

[...]

     total energy              =   -1946.87214343 Ry
     Harris-Foulkes estimate   =   -1946.87214333 Ry
     estimated scf accuracy    <       0.00000071 Ry

     iteration # 12     ecut=    36.75 Ry     beta=0.30
     Davidson diagonalization with overlap
     ethr =  4.77E-10,  avg # of iterations =  4.4

[...]

     negative rho (up, down):  1.376E+00 0.000E+00

     Adding external electric field

     Computed dipole along edir(3) :
        Dipole               -0.3147 Ry au,         -0.8000 Debye
        Dipole field         -0.0007 Ry au

        Potential amp.        0.0610 Ry
        Total length         46.4675 bohr

     End of self-consistent calculation

[...]

          k = 0.0521-0.0602 0.0000 ( 22643 PWs)   bands (ev):

[...]

          k =-0.0782-0.0452 0.0000 ( 22668 PWs)   bands (ev):

   -61.6563 -61.6452 -61.6374 -61.5457 -61.5403 -61.5265 -61.5232 -61.0944
   -61.0832 -61.0710 -61.0660 -60.1844 -30.3306 -30.3005 -30.2999 -30.2745
   -30.2213 -30.2030 -30.1923 -30.1810 -30.1565 -30.1373 -30.1270 -30.1084
   -30.0904 -30.0584 -30.0419 -30.0384 -30.0034 -29.9996 -29.8942 -29.8318
   -29.8283 -29.8138 -29.7288 -29.6763 -29.6103 -29.6030 -29.5835 -29.5769
   -29.5708 -29.5511 -29.5378 -29.4191 -29.4000 -28.9224 -28.8896 -28.8620
   -10.8365  -3.8705  -3.8453  -2.6695  -2.5018  -1.6751  -1.6344  -1.5199
    -1.2788  -1.0745  -1.0443  -1.0044  -0.6593  -0.4478  -0.0642   0.0293
     0.0320   0.0910   0.2190   0.2882   0.4368   0.5338   0.5922   0.6318
     0.6923   0.7774   0.8602   1.0016   1.0407   1.0773   1.2343   1.4430
     1.4745   1.5199   1.6567   1.9719

     the Fermi energy is     1.0811 ev

!    total energy              =   -1946.87214346 Ry
     Harris-Foulkes estimate   =   -1946.87214372 Ry
     estimated scf accuracy    <       0.00000010 Ry

     The total energy is the sum of the following terms:

     one-electron contribution =   -8699.89174285 Ry
     hartree contribution      =    4334.06617568 Ry
     xc contribution           =    -933.42964104 Ry
     ewald contribution        =    3352.48892137 Ry
     electric field correction =       0.00020663 Ry
     smearing contrib. (-TS)   =      -0.10606324 Ry

     convergence has been achieved in  12 iterations

 BEEF-vdW xc energy contributions
           1 :   -843.916640631893
           2 :    784.297331636912
           3 :   -678.652160796014
           4 :    548.794608150504
           5 :   -417.279398157735
           6 :    301.125064073347
           7 :   -209.065047468861
           8 :    142.396603725007
           9 :   -97.9194939118770
          10 :    70.8711939511794
          11 :   -56.5657709185067
          12 :    50.6216864729138
          13 :   -48.6320994915548
          14 :    46.1955579380642
          15 :   -39.7049079276662
          16 :    27.4938639423037
          17 :   -10.5563567034042
          18 :   -7.78760953900087
          19 :    23.2570379240708
          20 :   -32.3820848887926
          21 :    33.8097278948637
          22 :   -28.5833977570687
          23 :    19.4111917987364
          24 :   -9.46167298364367
          25 :    1.33877822807949
          26 :    3.37623353708591
          27 :   -4.07370437620909
          28 :   0.883512891377222
          29 :    5.43991804529401
          30 :   -13.4943676135005
          31 :   -60.7728891908671
          32 :   -43.6913282027525

     Forces acting on atoms (Ry/au):

     negative rho (up, down):  1.376E+00 0.000E+00
     atom    1 type  1   force =     0.00191493    0.00110689    0.02250013
     atom    2 type  1   force =    -0.00191500    0.00110541    0.02250189
     atom    3 type  1   force =    -0.00000126   -0.00221168    0.02250028
     atom    4 type  1   force =     0.00000110   -0.00000045    0.02313373
     atom    5 type  1   force =     0.00000072    0.03178797   -0.03101179
     atom    6 type  1   force =    -0.00000002   -0.00000042    0.00490322
     atom    7 type  1   force =    -0.02752915   -0.01589453   -0.03101142
     atom    8 type  1   force =     0.02752850   -0.01589339   -0.03101249
     atom    9 type  1   force =     0.00000165   -0.00000120    0.00054824
     atom   10 type  1   force =    -0.00000122   -0.00030572   -0.00119547
     atom   11 type  1   force =    -0.00026577    0.00015365   -0.00120285
     atom   12 type  1   force =     0.00026414    0.00015416   -0.00119554
     atom   13 type  2   force =     0.00000140   -0.00000070    0.00054206

     Total force =     0.002276     Total SCF correction =     0.000359
     SCF correction compared to forces is large: reduce conv_thr to get better values

     entering subroutine stress ...

     negative rho (up, down):  1.376E+00 0.000E+00
          total   stress  (Ry/bohr**3)                   (kbar)     P=  -16.83
  -0.00012048   0.00000000   0.00000000        -17.72      0.00      0.00
   0.00000000  -0.00012048  -0.00000000          0.00    -17.72     -0.00
   0.00000000  -0.00000000  -0.00010227          0.00     -0.00    -15.04

     bfgs converged in  11 scf cycles and  10 bfgs steps
     (criteria: energy <  1.0E+00, force <  1.9E-03)

     End of BFGS Geometry Optimization

     Final energy   =   -1946.8721434623 Ry
Begin final coordinates

ATOMIC_POSITIONS (crystal)
Hf1      0.166666667   0.166666667   0.396510335    0   0   0
Hf1      0.666666667   0.166666667   0.396510335    0   0   0
Hf1      0.166666667   0.666666667   0.396510335    0   0   0
Hf1      0.666666667   0.666666667   0.396510335    0   0   0
Hf1      0.833333333   0.333333333   0.500000000    0   0   0
Hf1      0.333333333   0.333333333   0.500000000    0   0   0
Hf1      0.833333333   0.833333333   0.500000000    0   0   0
Hf1      0.333333333   0.833333333   0.500000000    0   0   0
Hf1     -0.000002899   0.000001402   0.594436734
Hf1      0.503463579  -0.006927535   0.599583680
Hf1     -0.006927918   0.503463771   0.599584933
Hf1      0.503463672   0.503463678   0.599583711
N1       0.000002780  -0.000001368   0.668008921
End final coordinates

     Writing output data file calc.save

     General routines

     Parallel routines

   This run was terminated on:  17:37: 4   3May2018

   JOB DONE.

TID   HOST_NAME   COMMAND_LINE            STATUS            TERMINATION_TIME
00000 suncat0170 pw.x -npool 4 -i  Done                     05/03/2018 17:37:04
00001 suncat0170 pw.x -npool 4 -i  Done                     05/03/2018 17:37:04
00002 suncat0170 pw.x -npool 4 -i  Done                     05/03/2018 17:37:04
00003 suncat0170 pw.x -npool 4 -i  Done                     05/03/2018 17:37:04
00004 suncat0170 pw.x -npool 4 -i  Done                     05/03/2018 17:37:04
00005 suncat0170 pw.x -npool 4 -i  Done                     05/03/2018 17:37:04
00006 suncat0170 pw.x -npool 4 -i  Done                     05/03/2018 17:37:04
00007 suncat0170 pw.x -npool 4 -i  Done                     05/03/2018 17:37:04
00008 suncat0169 pw.x -npool 4 -i  Done                     05/03/2018 17:37:04
00009 suncat0169 pw.x -npool 4 -i  Done                     05/03/2018 17:37:04
00010 suncat0169 pw.x -npool 4 -i  Done                     05/03/2018 17:37:04
00011 suncat0169 pw.x -npool 4 -i  Done                     05/03/2018 17:37:04
00012 suncat0169 pw.x -npool 4 -i  Done                     05/03/2018 17:37:04
00013 suncat0169 pw.x -npool 4 -i  Done                     05/03/2018 17:37:04
00014 suncat0169 pw.x -npool 4 -i  Done                     05/03/2018 17:37:04
00015 suncat0169 pw.x -npool 4 -i  Done                     05/03/2018 17:37:04
00016 suncat0273 pw.x -npool 4 -i  Done                     05/03/2018 17:37:04
00017 suncat0273 pw.x -npool 4 -i  Done                     05/03/2018 17:37:04
00018 suncat0273 pw.x -npool 4 -i  Done                     05/03/2018 17:37:04
00019 suncat0273 pw.x -npool 4 -i  Done                     05/03/2018 17:37:04
00020 suncat0273 pw.x -npool 4 -i  Done                     05/03/2018 17:37:04
00021 suncat0273 pw.x -npool 4 -i  Done                     05/03/2018 17:37:04
00022 suncat0273 pw.x -npool 4 -i  Done                     05/03/2018 17:37:04
00023 suncat0273 pw.x -npool 4 -i  Done                     05/03/2018 17:37:04
00024 suncat0272 pw.x -npool 4 -i  Done                     05/03/2018 17:37:04
00025 suncat0272 pw.x -npool 4 -i  Done                     05/03/2018 17:37:04
00026 suncat0272 pw.x -npool 4 -i  Done                     05/03/2018 17:37:04
00027 suncat0272 pw.x -npool 4 -i  Done                     05/03/2018 17:37:04
00028 suncat0272 pw.x -npool 4 -i  Done                     05/03/2018 17:37:04
00029 suncat0272 pw.x -npool 4 -i  Done                     05/03/2018 17:37:04
00030 suncat0272 pw.x -npool 4 -i  Done                     05/03/2018 17:37:04
00031 suncat0272 pw.x -npool 4 -i  Done                     05/03/2018 17:37:04