     Program PWSCF v.5.1rc2 (svn rev. 11289) starts on  2May2018 at 11:35:14

     Current dimensions of program PWSCF are:
     Max number of different atomic species (ntypx) = 10
     Max number of k-points (npk) =  40000
     Max angular momentum in pseudopotentials (lmaxx) =  3
     Presently stress not available with electric field

     IMPORTANT: XC functional enforced from input :
     Exchange-correlation      = BEEF-VDW ( 1  4 27 13 2)
     Any further DFT definition will be discarded
     Please, verify this is what you really want

     Subspace diagonalization in iterative solution of the eigenvalue problem:
     a serial algorithm will be used

     bravais-lattice index     =            0
     lattice parameter (alat)  =       1.8897  a.u.
     unit-cell volume          =    3807.2308 (a.u.)^3
     number of atoms/cell      =           13
     number of atomic types    =            2
     number of electrons       =       233.00
     number of Kohn-Sham states=          126
     kinetic-energy cutoff     =      36.7493  Ry
     charge density cutoff     =     367.4932  Ry
     convergence threshold     =      1.0E-05
     mixing beta               =       0.3000
     number of iterations used =           10  plain     mixing
     Exchange-correlation      = BEEF-VDW ( 1  4 27 13 2)
     nstep                     =           50

     celldm(1)=   1.889726  celldm(2)=   0.000000  celldm(3)=   0.000000
     celldm(4)=   0.000000  celldm(5)=   0.000000  celldm(6)=   0.000000

     crystal axes: (cart. coord. in units of alat)
               a(1) = (   5.184823   0.000000   0.000000 )
               a(2) = (   2.592411   4.490188   0.000000 )
               a(3) = (   0.000000   0.000000  24.233390 )

     reciprocal axes: (cart. coord. in units 2 pi/alat)
               b(1) = (  0.192871 -0.111354  0.000000 )
               b(2) = (  0.000000  0.222708  0.000000 )
               b(3) = (  0.000000  0.000000  0.041265 )

     PseudoPot. # 1 for Cu read from file:
     /u/if/mamunm/psp/gbrv1.5pbe/Cu.UPF
     MD5 check sum: 6e991ff952a84172a2a52a1c1e996048
     Pseudo is Ultrasoft + core correction, Zval = 19.0
     Generated by new atomic code, or converted to UPF format
     Using radial grid of  867 points,  6 beta functions with:
                l(1) =   0
                l(2) =   0
                l(3) =   1
                l(4) =   1
                l(5) =   2
                l(6) =   2
     Q(r) pseudized with  8 coefficients,  rinner =    1.150   1.150   1.150
                                                       1.150   1.150

     PseudoPot. # 2 for N  read from file:
     /u/if/mamunm/psp/gbrv1.5pbe/N.UPF
     MD5 check sum: 95339753478d7afb44899504a8723017
     Pseudo is Ultrasoft + core correction, Zval =  5.0
     Generated by new atomic code, or converted to UPF format
     Using radial grid of  729 points,  4 beta functions with:
                l(1) =   0
                l(2) =   0
                l(3) =   1
                l(4) =   1
     Q(r) pseudized with  8 coefficients,  rinner =    0.900   0.900   0.900

     vdW kernel table read from file vdW_kernel_table
     MD5 check sum: 095c7af220d748ca6e76c0b4c6cfb241

     atomic species   valence    mass     pseudopotential
        Cu1           19.00    63.54600     Cu( 1.00)
        N1             5.00    14.00700     N ( 1.00)

     No symmetry found

   Cartesian axes

     site n.     atom                  positions (alat units)
         1           Cu1 tau(   1) = (   1.2962057   0.7483647  10.0000000  )
         2           Cu1 tau(   2) = (   3.8886170   0.7483647  10.0000000  )
         3           Cu1 tau(   3) = (   2.5924113   2.9934587  10.0000000  )
         4           Cu1 tau(   4) = (   5.1848226   2.9934587  10.0000000  )
         5           Cu1 tau(   5) = (   5.1848226   1.4967294  12.1166950  )
         6           Cu1 tau(   6) = (   2.5924113   1.4967294  12.1166950  )
         7           Cu1 tau(   7) = (   6.4810283   3.7418234  12.1166950  )
         8           Cu1 tau(   8) = (   3.8886170   3.7418234  12.1166950  )
         9           Cu1 tau(   9) = (   0.0000000   0.0000000  14.2333899  )
        10           Cu1 tau(  10) = (   2.5924113   0.0000000  14.2333899  )
        11           Cu1 tau(  11) = (   1.2962057   2.2450940  14.2333899  )
        12           Cu1 tau(  12) = (   3.8886170   2.2450940  14.2333899  )
        13           N1  tau(  13) = (   0.0000000   0.0000000  15.9588899  )

     number of k points=    20  Fermi-Dirac smearing, width (Ry)=  0.0110
                       cart. coord. in units 2pi/alat
        k(    1) = (   0.0000000   0.0000000   0.0000000), wk =   0.0555556
        k(    2) = (   0.0000000   0.0371180   0.0000000), wk =   0.1111111
        k(    3) = (   0.0000000   0.0742359   0.0000000), wk =   0.1111111
        k(    4) = (   0.0000000  -0.1113539   0.0000000), wk =   0.0555556
        k(    5) = (   0.0321451  -0.0185590   0.0000000), wk =   0.1111111
        k(    6) = (   0.0321451   0.0185590   0.0000000), wk =   0.1111111
        k(    7) = (   0.0321451   0.0556770   0.0000000), wk =   0.1111111
        k(    8) = (   0.0321451  -0.1299129   0.0000000), wk =   0.1111111
        k(    9) = (   0.0321451  -0.0927949   0.0000000), wk =   0.1111111
        k(   10) = (   0.0321451  -0.0556770   0.0000000), wk =   0.1111111
        k(   11) = (   0.0642902  -0.0371180   0.0000000), wk =   0.1111111
        k(   12) = (   0.0642902  -0.0000000   0.0000000), wk =   0.1111111
        k(   13) = (   0.0642902   0.0371180   0.0000000), wk =   0.1111111
        k(   14) = (   0.0642902  -0.1484719   0.0000000), wk =   0.1111111
        k(   15) = (   0.0642902  -0.1113539   0.0000000), wk =   0.1111111
        k(   16) = (   0.0642902  -0.0742359   0.0000000), wk =   0.1111111
        k(   17) = (  -0.0964353   0.0556770   0.0000000), wk =   0.0555556
        k(   18) = (  -0.0964353   0.0927949   0.0000000), wk =   0.1111111
        k(   19) = (  -0.0964353   0.1299129   0.0000000), wk =   0.1111111
        k(   20) = (  -0.0964353  -0.0556770   0.0000000), wk =   0.0555556

     Largest allocated arrays     est. size (Mb)     dimensions
     Largest temporary arrays     est. size (Mb)     dimensions

     Initial potential from superposition of free atoms
     Check: negative starting charge=   -0.000119

     starting charge  220.99997, renormalised to  233.00000

     negative rho (up, down):  1.254E-04 0.000E+00

     *
     * You are using vdW-DF for exchange-correlation in this calculation.
     * Please cite the following three references that made this development
     * possible:
     *
     *   M. Dion, H. Rydberg, E. Schroder, D. C. Langreth, and
     *   B. I. Lundqvist, Phys. Rev. Lett. 92, 246401 (2004).
     *
     *   T. Thonhauser, V. R. Cooper, S. Li, A. Puzder, P. Hyldgaard, and
     *   D. C. Langreth, Phys. Rev. B 76, 125112 (2007).
     *
     *   G. Roman-Perez and J. M. Soler, Phys. Rev. Lett. 103, 096102 (2009).
     *
     *
     * If you are using vdW-DF2, please also cite:
     *
     *   K. Lee, E. D. Murray, L. Kong, B. I. Lundqvist, and
     *   D. C. Langreth, Phys. Rev. B 82, 081101(R) (2010).
     *
     *
     * If you are calculating the stress with vdW-DF, please also cite:
     *
     *   R. Sabatini, E. Kucukbenli, B. Kolb, T. Thonhauser, and
     *   S. de Gironcoli, J. Phys.: Condens. Matter 24, 424209 (2012).
     *

     Carrying out vdW-DF run using the following parameters:

     Nqs =      20    Nr_points =    1024   r_max =   100.000
     q_mesh =
               0.00001000     0.04494208     0.09755937     0.15916263
               0.23128650     0.31572767     0.41458969     0.53033537
               0.66584808     0.82450364     1.01025438     1.22772762
               1.48234092     1.78043706     2.12944203     2.53805004
               3.01644009     3.57652955     4.23227104     5.00000000

     Gradients computed in reciprocal space

     Adding external electric field

     Computed dipole along edir(3) :
        Dipole               -1.9712 Ry au,         -5.0102 Debye
        Dipole field         -0.0065 Ry au

        Potential amp.        0.5810 Ry
        Total length         44.6496 bohr

     Starting wfc are  160 randomized atomic wfcs

     Self-consistent Calculation

     iteration #  1     ecut=    36.75 Ry     beta=0.30
     Davidson diagonalization with overlap
     ethr =  1.00E-02,  avg # of iterations =  7.5

[...]

     total energy              =   -4658.57936512 Ry
     Harris-Foulkes estimate   =   -4884.03566446 Ry
     estimated scf accuracy    <     472.19444853 Ry

     iteration #  2     ecut=    36.75 Ry     beta=0.30
     Davidson diagonalization with overlap
     c_bands:  3 eigenvalues not converged
     c_bands:  4 eigenvalues not converged
     ethr =  1.00E-02,  avg # of iterations = 19.9

[...]

     End of self-consistent calculation

          k = 0.0000 0.0000 0.0000 ( 14321 PWs)   bands (ev):

  -113.8732-112.8710-112.8652-112.8652-112.8230-112.6039-112.5973-112.5970
  -112.5934-112.4429-112.4373-112.4373 -71.5010 -71.1043 -71.1043 -70.3077
   -70.2901 -70.2901 -70.2620 -70.2582 -70.2582 -70.2470 -70.2426 -70.2425
   -70.2249 -70.2054 -70.2054 -70.0583 -70.0549 -70.0547 -70.0061 -70.0048
   -70.0047 -69.9870 -69.9869 -69.9552 -69.9491 -69.9474 -69.9471 -69.9318
   -69.8832 -69.8832 -69.8345 -69.8345 -69.8190 -69.8078 -69.8024 -69.8023
   -13.1904  -8.4981  -6.5552  -5.2886  -4.9146  -4.9146  -4.8305  -4.7112
    -4.7112  -4.6094  -4.4482  -4.4482  -4.3956  -4.3108  -4.3107  -4.1723
    -4.0632  -4.0631  -3.9856  -3.4996  -3.3660  -3.3659  -3.2122  -3.1687
    -3.1660  -3.1660  -3.0927  -3.0927  -2.9982  -2.9982  -2.9509  -2.9275
    -2.9031  -2.9031  -2.7975  -2.7974  -2.6334  -2.6333  -2.3968  -2.3968
    -2.3353  -2.3285  -2.3285  -2.2640  -2.1985  -2.1158  -2.1157  -1.9985
    -1.9984  -1.9401  -1.8986  -1.8986  -1.8965  -1.8964  -1.8519  -1.8446
    -1.8446  -1.7801  -1.7801  -1.6670  -1.6648  -1.6646  -1.5648  -1.5311
    -1.0844  -1.0844  -0.5144  -0.0961   0.1859   0.1859   0.9491   1.0584
     1.1473   1.1473   1.3310   2.0051   2.0051   3.7701

[...]

          k =-0.0964 0.0557 0.0000 ( 14294 PWs)   bands (ev):

[...]

     the Fermi energy is    -0.2490 ev

!    total energy              =   -4879.27942147 Ry
     Harris-Foulkes estimate   =   -4879.27945309 Ry
     estimated scf accuracy    <       0.00000619 Ry

     The total energy is the sum of the following terms:

     one-electron contribution =  -37649.96120021 Ry
     hartree contribution      =   18835.82413961 Ry
     xc contribution           =    -485.25397167 Ry
     ewald contribution        =   14420.14480691 Ry
     electric field correction =       0.00068675 Ry
     smearing contrib. (-TS)   =      -0.03388287 Ry

     convergence has been achieved in  23 iterations

 BEEF-vdW xc energy contributions
           1 :   -429.924947365755
           2 :    389.639215893357
           3 :   -321.457352028672
           4 :    244.186663507218
           5 :   -174.874475168255
           6 :    122.724444175413
           7 :   -87.7110148706471
           8 :    63.7718198824974
           9 :   -44.0875629592283
          10 :    25.2027139768788
          11 :   -7.95083044208081
          12 :   -4.64425852129364
          13 :    10.5228531942384
          14 :   -10.5161692152097
          15 :    7.92737322982282
          16 :   -6.38183457868632
          17 :    7.62853612868821
          18 :   -10.7908010930543
          19 :    13.4187090925662
          20 :   -13.4591176971450
          21 :    10.7275139723393
          22 :   -6.93405112655722
          23 :    4.37679388006705
          24 :   -4.31714683200460
          25 :    6.18784401382345
          26 :   -8.12376016479482
          27 :    8.35585653314513
          28 :   -6.44919100214543
          29 :    3.53363358238414
          30 :   -1.42092981394666
          31 :   -34.3884360990180
          32 :   -23.4800714535223

     Forces acting on atoms (Ry/au):

     negative rho (up, down):  1.208E-03 0.000E+00
     atom    1 type  1   force =    -0.00059266   -0.00033593    0.00564218
     atom    2 type  1   force =     0.00059449   -0.00034453    0.00553228
     atom    3 type  1   force =    -0.00000117    0.00068596    0.00557614
     atom    4 type  1   force =     0.00000617   -0.00000305    0.00720463
     atom    5 type  1   force =    -0.00002625    0.00088086   -0.00044690
     atom    6 type  1   force =     0.00002206    0.00000627    0.00037916
     atom    7 type  1   force =    -0.00075918   -0.00043118   -0.00046304
     atom    8 type  1   force =     0.00076242   -0.00045975   -0.00044910
     atom    9 type  1   force =    -0.00000938    0.00000154   -0.01160018
     atom   10 type  1   force =     0.00000368   -0.00119497    0.00102416
     atom   11 type  1   force =    -0.00103963    0.00060080    0.00102500
     atom   12 type  1   force =     0.00104036    0.00059363    0.00102310
     atom   13 type  2   force =    -0.00000092    0.00000036   -0.01444741

     Total force =     0.018728     Total SCF correction =     0.009247
     SCF correction compared to forces is large: reduce conv_thr to get better values

     entering subroutine stress ...

     negative rho (up, down):  1.208E-03 0.000E+00
          total   stress  (Ry/bohr**3)                   (kbar)     P=  -37.29
  -0.00027287  -0.00000000   0.00000000        -40.14     -0.00      0.00
  -0.00000000  -0.00027287  -0.00000000         -0.00    -40.14     -0.00
   0.00000000  -0.00000000  -0.00021481          0.00     -0.00    -31.60

     BFGS Geometry Optimization

     number of scf cycles    =   1
     number of bfgs steps    =   0

     energy   new            =   -4879.2794214689 Ry

     new trust radius        =       0.0144474095 bohr
     new conv_thr            =       0.0000099958 Ry

ATOMIC_POSITIONS (crystal)
Cu1      0.166666667   0.166666667   0.412653782    0   0   0
Cu1      0.666666667   0.166666667   0.412653782    0   0   0
Cu1      0.166666667   0.666666667   0.412653782    0   0   0
Cu1      0.666666667   0.666666667   0.412653782    0   0   0
Cu1      0.833333333   0.333333333   0.500000000    0   0   0
Cu1      0.333333333   0.333333333   0.500000000    0   0   0
Cu1      0.833333333   0.833333333   0.500000000    0   0   0
Cu1      0.333333333   0.833333333   0.500000000    0   0   0
Cu1     -0.000001047   0.000000181   0.587092909
Cu1      0.500070790  -0.000140829   0.587368582
Cu1     -0.000141511   0.500070805   0.587368601
Cu1      0.500071201   0.500069961   0.587368559
N1      -0.000000115   0.000000043   0.658234145

     Writing output data file calc.save
     Check: negative starting charge=   -0.000119
     NEW-OLD atomic charge density approx. for the potential
     Check: negative starting charge=   -0.000120

[...]

     energy   old            =   -4879.2794214689 Ry
     energy   new            =   -4879.2797119444 Ry

     CASE: energy  _new < energy  _old

[...]

     Total force =     0.019831     Total SCF correction =     0.000803

[...]

     Total force =     0.015786     Total SCF correction =     0.000830

[...]

     number of scf cycles    =  10
     number of bfgs steps    =   9

     energy   old            =   -4879.2824707508 Ry
     energy   new            =   -4879.2824845470 Ry

     CASE: energy  _new < energy  _old

     new trust radius        =       0.0018075006 bohr
     new conv_thr            =       0.0000001000 Ry

ATOMIC_POSITIONS (crystal)
Cu1      0.166666667   0.166666667   0.412653782    0   0   0
Cu1      0.666666667   0.166666667   0.412653782    0   0   0
Cu1      0.166666667   0.666666667   0.412653782    0   0   0
Cu1      0.666666667   0.666666667   0.412653782    0   0   0
Cu1      0.833333333   0.333333333   0.500000000    0   0   0
Cu1      0.333333333   0.333333333   0.500000000    0   0   0
Cu1      0.833333333   0.833333333   0.500000000    0   0   0
Cu1      0.333333333   0.833333333   0.500000000    0   0   0
Cu1      0.000002776   0.000002444   0.582655457
Cu1      0.500347879  -0.000701856   0.590039021
Cu1     -0.000694971   0.500346533   0.590037879
Cu1      0.500340989   0.500354975   0.590040940
N1       0.000000803  -0.000000943   0.653803791

     Writing output data file calc.save
     Check: negative starting charge=   -0.000129
     NEW-OLD atomic charge density approx. for the potential
     Check: negative starting charge=   -0.000129

[...]

     Self-consistent Calculation

[...]

     total energy              =   -4879.28249831 Ry
     Harris-Foulkes estimate   =   -4879.28249793 Ry
     estimated scf accuracy    <       0.00000025 Ry

     iteration #  7     ecut=    36.75 Ry     beta=0.30
     Davidson diagonalization with overlap
     ethr =  1.08E-10,  avg # of iterations =  3.0

[...]

     negative rho (up, down):  1.230E-03 0.000E+00

     Adding external electric field

     Computed dipole along edir(3) :
        Dipole               -0.4165 Ry au,         -1.0587 Debye
        Dipole field         -0.0014 Ry au

        Potential amp.        0.1228 Ry
        Total length         44.6496 bohr

     End of self-consistent calculation

[...]

          k = 0.0643-0.0742 0.0000 ( 14299 PWs)   bands (ev):

[...]

          k =-0.0964-0.0557 0.0000 ( 14294 PWs)   bands (ev):

  -113.8260-112.8059-112.8041-112.8021-112.7303-112.5312-112.5303-112.5275
  -112.5258-112.3601-112.3582-112.3564 -71.4568 -71.0595 -71.0592 -70.2354
   -70.2172 -70.2071 -70.2039 -70.2022 -70.1908 -70.1899 -70.1870 -70.1751
   -70.1297 -70.1283 -70.1207 -69.9767 -69.9730 -69.9545 -69.9542 -69.9506
   -69.9460 -69.9298 -69.9256 -69.8846 -69.8796 -69.8774 -69.8761 -69.8393
   -69.8198 -69.8030 -69.7600 -69.7532 -69.7446 -69.7223 -69.7203 -69.7185
   -13.2037  -6.6613  -6.6271  -5.0898  -5.0714  -4.7438  -4.6922  -4.5557
    -4.3914  -4.2852  -4.1669  -4.0853  -4.0739  -4.0448  -3.9802  -3.7834
    -3.7832  -3.7213  -3.6218  -3.5412  -3.4941  -3.4234  -3.3703  -3.3243
    -3.2965  -3.2210  -3.1804  -3.0651  -2.9882  -2.9497  -2.9289  -2.8759
    -2.8534  -2.8514  -2.7839  -2.7763  -2.7737  -2.7698  -2.7449  -2.7039
    -2.6820  -2.6181  -2.5545  -2.5207  -2.4422  -2.3961  -2.3776  -2.3375
    -2.3133  -2.2744  -2.2385  -2.2247  -2.1971  -2.1890  -2.0873  -2.0779
    -2.0419  -2.0124  -1.9500  -1.8753  -1.8221  -1.8156  -1.7919  -1.7506
    -1.7240  -0.7720  -0.6217  -0.5672  -0.2868   0.0031   0.6381   0.8337
     1.4690   1.6037   3.0922   3.1476   3.9040   4.5537

     the Fermi energy is    -0.1788 ev

!    total energy              =   -4879.28249829 Ry
     Harris-Foulkes estimate   =   -4879.28249890 Ry
     estimated scf accuracy    <       0.00000009 Ry

     The total energy is the sum of the following terms:

     one-electron contribution =  -37597.30000934 Ry
     hartree contribution      =   18810.15764296 Ry
     xc contribution           =    -485.27727875 Ry
     ewald contribution        =   14393.16893582 Ry
     electric field correction =       0.00057267 Ry
     smearing contrib. (-TS)   =      -0.03236166 Ry

     convergence has been achieved in   7 iterations

 BEEF-vdW xc energy contributions
           1 :   -429.945739109126
           2 :    389.656213066263
           3 :   -321.467568476268
           4 :    244.194169064362
           5 :   -174.888122321187
           6 :    122.744976514406
           7 :   -87.7240721261165
           8 :    63.7570261413349
           9 :   -44.0365149464038
          10 :    25.1298354117674
          11 :   -7.88583315772036
          12 :   -4.67701314900899
          13 :    10.5210811488733
          14 :   -10.5000990829503
          15 :    7.92390066708606
          16 :   -6.40382079802600
          17 :    7.66461496101306
          18 :   -10.8138840412277
          19 :    13.4073292666315
          20 :   -13.4153889979275
          21 :    10.6774651362465
          22 :   -6.90959391457881
          23 :    4.39316708735163
          24 :   -4.36225284547470
          25 :    6.22988192920815
          26 :   -8.13190535505822
          27 :    8.32113650678650
          28 :   -6.39040919055492
          29 :    3.48316086903844
          30 :   -1.40143816580041
          31 :   -34.3892187271977
          32 :   -23.4802816389068

     Forces acting on atoms (Ry/au):

     negative rho (up, down):  1.230E-03 0.000E+00
     atom    1 type  1   force =    -0.00052218   -0.00030145    0.00197653
     atom    2 type  1   force =     0.00052271   -0.00030168    0.00197683
     atom    3 type  1   force =     0.00000006    0.00060322    0.00197671
     atom    4 type  1   force =     0.00000037   -0.00000009    0.00280769
     atom    5 type  1   force =    -0.00000197    0.00625524   -0.00253058
     atom    6 type  1   force =     0.00000199   -0.00000044    0.00741019
     atom    7 type  1   force =    -0.00541554   -0.00312599   -0.00253043
     atom    8 type  1   force =     0.00541681   -0.00312824   -0.00253349
     atom    9 type  1   force =    -0.00001016    0.00000266   -0.00189677
     atom   10 type  1   force =     0.00000668   -0.00004241   -0.00192917
     atom   11 type  1   force =    -0.00004119    0.00002494   -0.00192792
     atom   12 type  1   force =     0.00004231    0.00001575   -0.00193148
     atom   13 type  2   force =     0.00000010   -0.00000150   -0.00086812

     Total force =     0.003940     Total SCF correction =     0.000431
     SCF correction compared to forces is large: reduce conv_thr to get better values

     entering subroutine stress ...

     negative rho (up, down):  1.230E-03 0.000E+00
          total   stress  (Ry/bohr**3)                   (kbar)     P=  -24.55
  -0.00019320   0.00000000   0.00000000        -28.42      0.00      0.00
   0.00000000  -0.00019320  -0.00000000          0.00    -28.42     -0.00
   0.00000000  -0.00000000  -0.00011419          0.00     -0.00    -16.80

     bfgs converged in  11 scf cycles and  10 bfgs steps
     (criteria: energy <  1.0E+00, force <  1.9E-03)

     End of BFGS Geometry Optimization

     Final energy   =   -4879.2824982937 Ry
Begin final coordinates

ATOMIC_POSITIONS (crystal)
Cu1      0.166666667   0.166666667   0.412653782    0   0   0
Cu1      0.666666667   0.166666667   0.412653782    0   0   0
Cu1      0.166666667   0.666666667   0.412653782    0   0   0
Cu1      0.666666667   0.666666667   0.412653782    0   0   0
Cu1      0.833333333   0.333333333   0.500000000    0   0   0
Cu1      0.333333333   0.333333333   0.500000000    0   0   0
Cu1      0.833333333   0.833333333   0.500000000    0   0   0
Cu1      0.333333333   0.833333333   0.500000000    0   0   0
Cu1      0.000002776   0.000002444   0.582655457
Cu1      0.500347879  -0.000701856   0.590039021
Cu1     -0.000694971   0.500346533   0.590037879
Cu1      0.500340989   0.500354975   0.590040940
N1       0.000000803  -0.000000943   0.653803791
End final coordinates

     Writing output data file calc.save

     General routines

     Parallel routines

   This run was terminated on:  12:26:13   2May2018

   JOB DONE.
Job  /afs/slac/g/suncat/bin/suncat-tsmpirun -x LD_LIBRARY_PATH -wdir /scratch/qe583926_1JJ45 pw.x -npool 4 -in pw.inp

TID   HOST_NAME   COMMAND_LINE            STATUS            TERMINATION_TIME
00000 suncat0028 pw.x -npool 4 -i  Done                     05/02/2018 12:26:13
00001 suncat0028 pw.x -npool 4 -i  Done                     05/02/2018 12:26:13
00002 suncat0028 pw.x -npool 4 -i  Done                     05/02/2018 12:26:13
00003 suncat0028 pw.x -npool 4 -i  Done                     05/02/2018 12:26:13
00004 suncat0028 pw.x -npool 4 -i  Done                     05/02/2018 12:26:13
00005 suncat0028 pw.x -npool 4 -i  Done                     05/02/2018 12:26:13
00006 suncat0028 pw.x -npool 4 -i  Done                     05/02/2018 12:26:13
00007 suncat0028 pw.x -npool 4 -i  Done                     05/02/2018 12:26:13
00008 suncat0016 pw.x -npool 4 -i  Done                     05/02/2018 12:26:13
00009 suncat0016 pw.x -npool 4 -i  Done                     05/02/2018 12:26:13
00010 suncat0016 pw.x -npool 4 -i  Done                     05/02/2018 12:26:13
00011 suncat0016 pw.x -npool 4 -i  Done                     05/02/2018 12:26:13
00012 suncat0016 pw.x -npool 4 -i  Done                     05/02/2018 12:26:13
00013 suncat0016 pw.x -npool 4 -i  Done                     05/02/2018 12:26:13
00014 suncat0016 pw.x -npool 4 -i  Done                     05/02/2018 12:26:13
00015 suncat0016 pw.x -npool 4 -i  Done                     05/02/2018 12:26:13
00016 suncat0233 pw.x -npool 4 -i  Done                     05/02/2018 12:26:13
00017 suncat0233 pw.x -npool 4 -i  Done                     05/02/2018 12:26:13
00018 suncat0233 pw.x -npool 4 -i  Done                     05/02/2018 12:26:13
00019 suncat0233 pw.x -npool 4 -i  Done                     05/02/2018 12:26:13
00020 suncat0233 pw.x -npool 4 -i  Done                     05/02/2018 12:26:13
00021 suncat0233 pw.x -npool 4 -i  Done                     05/02/2018 12:26:13
00022 suncat0233 pw.x -npool 4 -i  Done                     05/02/2018 12:26:13
00023 suncat0233 pw.x -npool 4 -i  Done                     05/02/2018 12:26:13
00024 suncat0223 pw.x -npool 4 -i  Done                     05/02/2018 12:26:13
00025 suncat0223 pw.x -npool 4 -i  Done                     05/02/2018 12:26:13
00026 suncat0223 pw.x -npool 4 -i  Done                     05/02/2018 12:26:13
00027 suncat0223 pw.x -npool 4 -i  Done                     05/02/2018 12:26:13
00028 suncat0223 pw.x -npool 4 -i  Done                     05/02/2018 12:26:13
00029 suncat0223 pw.x -npool 4 -i  Done                     05/02/2018 12:26:13
00030 suncat0223 pw.x -npool 4 -i  Done                     05/02/2018 12:26:13
00031 suncat0223 pw.x -npool 4 -i  Done                     05/02/2018 12:26:13