     Program PWSCF v.5.1rc2 (svn rev. ) starts on  4Feb2018 at 13:26:27

     Current dimensions of program PWSCF are:
     Max number of different atomic species (ntypx) = 10
     Max number of k-points (npk) =  40000
     Max angular momentum in pseudopotentials (lmaxx) =  3
     Presently stress not available with electric field

     IMPORTANT: XC functional enforced from input :
     Exchange-correlation      = BEEF-VDW ( 1  4 27 13 2)
     Any further DFT definition will be discarded
     Please, verify this is what you really want

     Subspace diagonalization in iterative solution of the eigenvalue problem:
     a serial algorithm will be used

     bravais-lattice index     =            0
     lattice parameter (alat)  =       1.8897  a.u.
     unit-cell volume          =    5739.2980 (a.u.)^3
     number of atoms/cell      =           13
     number of atomic types    =            2
     number of electrons       =       148.00
     number of Kohn-Sham states=           84
     kinetic-energy cutoff     =      36.7493  Ry
     charge density cutoff     =     367.4932  Ry
     convergence threshold     =      1.0E-05
     mixing beta               =       0.3000
     number of iterations used =           10  plain     mixing
     Exchange-correlation      = BEEF-VDW ( 1  4 27 13 2)
     nstep                     =           50

     celldm(1)=   1.889726  celldm(2)=   0.000000  celldm(3)=   0.000000
     celldm(4)=   0.000000  celldm(5)=   0.000000  celldm(6)=   0.000000

     crystal axes: (cart. coord. in units of alat)
               a(1) = (   6.254208   0.000000   0.000000 )
               a(2) = (   3.127104   5.416303   0.000000 )
               a(3) = (   0.000000   0.000000  25.106540 )

     reciprocal axes: (cart. coord. in units 2 pi/alat)
               b(1) = (  0.159892 -0.092314  0.000000 )
               b(2) = (  0.000000  0.184628  0.000000 )
               b(3) = (  0.000000  0.000000  0.039830 )

     PseudoPot. # 1 for Cd read from file:
     /home/mamunm/src/pseudo/gbrv1.5pbe/Cd.UPF
     MD5 check sum: 17164a7926edb8e0dc231208abae86a6
     Pseudo is Ultrasoft + core correction, Zval = 12.0
     Generated by new atomic code, or converted to UPF format
     Using radial grid of  889 points,  6 beta functions with:
                l(1) =   0
                l(2) =   0
                l(3) =   1
                l(4) =   1
                l(5) =   2
                l(6) =   2
     Q(r) pseudized with  6 coefficients,  rinner =    1.000   1.000   1.000
                                                       1.000   1.000

     PseudoPot. # 2 for C  read from file:
     /home/mamunm/src/pseudo/gbrv1.5pbe/C.UPF
     MD5 check sum: d1aef80898a10debaa0f26306b886e00
     Pseudo is Ultrasoft + core correction, Zval =  4.0
     Generated by new atomic code, or converted to UPF format
     Using radial grid of  721 points,  4 beta functions with:
                l(1) =   0
                l(2) =   0
                l(3) =   1
                l(4) =   1
     Q(r) pseudized with  8 coefficients,  rinner =    1.100   1.100   1.100

     vdW kernel table read from file vdW_kernel_table
     MD5 check sum: 095c7af220d748ca6e76c0b4c6cfb241

     atomic species   valence    mass     pseudopotential
        Cd1           12.00   112.41400     Cd( 1.00)
        C1             4.00    12.01100     C ( 1.00)

     No symmetry found

   Cartesian axes

     site n.     atom                  positions (alat units)
         1           Cd1 tau(   1) = (   1.5635521   0.9027172  10.0000000  )
         2           Cd1 tau(   2) = (   4.6906562   0.9027172  10.0000000  )
         3           Cd1 tau(   3) = (   3.1271041   3.6108688  10.0000000  )
         4           Cd1 tau(   4) = (   6.2542083   3.6108688  10.0000000  )
         5           Cd1 tau(   5) = (   6.2542083   1.8054344  12.5532698  )
         6           Cd1 tau(   6) = (   3.1271041   1.8054344  12.5532698  )
         7           Cd1 tau(   7) = (   7.8177603   4.5135860  12.5532698  )
         8           Cd1 tau(   8) = (   4.6906562   4.5135860  12.5532698  )
         9           Cd1 tau(   9) = (   0.0000000   0.0000000  15.1065397  )
        10           Cd1 tau(  10) = (   3.1271041   0.0000000  15.1065397  )
        11           Cd1 tau(  11) = (   1.5635521   2.7081516  15.1065397  )
        12           Cd1 tau(  12) = (   4.6906562   2.7081516  15.1065397  )
        13           C1  tau(  13) = (   1.5635521   0.0000000  16.7565397  )

     number of k points=    20  Fermi-Dirac smearing, width (Ry)=  0.0110
                       cart. coord. in units 2pi/alat
        k(    1) = (   0.0000000   0.0000000   0.0000000), wk =   0.0555556
        k(    2) = (   0.0000000   0.0307713   0.0000000), wk =   0.1111111
        k(    3) = (   0.0000000   0.0615426   0.0000000), wk =   0.1111111
        k(    4) = (   0.0000000  -0.0923139   0.0000000), wk =   0.0555556
        k(    5) = (   0.0266487  -0.0153856   0.0000000), wk =   0.1111111
        k(    6) = (   0.0266487   0.0153856   0.0000000), wk =   0.1111111
        k(    7) = (   0.0266487   0.0461569   0.0000000), wk =   0.1111111
        k(    8) = (   0.0266487  -0.1076995   0.0000000), wk =   0.1111111
        k(    9) = (   0.0266487  -0.0769282   0.0000000), wk =   0.1111111
        k(   10) = (   0.0266487  -0.0461569   0.0000000), wk =   0.1111111
        k(   11) = (   0.0532974  -0.0307713   0.0000000), wk =   0.1111111
        k(   12) = (   0.0532974   0.0000000   0.0000000), wk =   0.1111111
        k(   13) = (   0.0532974   0.0307713   0.0000000), wk =   0.1111111
        k(   14) = (   0.0532974  -0.1230852   0.0000000), wk =   0.1111111
        k(   15) = (   0.0532974  -0.0923139   0.0000000), wk =   0.1111111
        k(   16) = (   0.0532974  -0.0615426   0.0000000), wk =   0.1111111
        k(   17) = (  -0.0799462   0.0461569   0.0000000), wk =   0.0555556
        k(   18) = (  -0.0799462   0.0769282   0.0000000), wk =   0.1111111
        k(   19) = (  -0.0799462   0.1076995   0.0000000), wk =   0.1111111
        k(   20) = (  -0.0799462  -0.0461569   0.0000000), wk =   0.0555556

     Largest allocated arrays     est. size (Mb)     dimensions
     Largest temporary arrays     est. size (Mb)     dimensions

     Initial potential from superposition of free atoms
     Check: negative starting charge=   -0.257849

     starting charge  141.99946, renormalised to  148.00000

     negative rho (up, down):  2.687E-01 0.000E+00

     *
     * You are using vdW-DF for exchange-correlation in this calculation.
     * Please cite the following three references that made this development
     * possible:
     *
     *   M. Dion, H. Rydberg, E. Schroder, D. C. Langreth, and
     *   B. I. Lundqvist, Phys. Rev. Lett. 92, 246401 (2004).
     *
     *   T. Thonhauser, V. R. Cooper, S. Li, A. Puzder, P. Hyldgaard, and
     *   D. C. Langreth, Phys. Rev. B 76, 125112 (2007).
     *
     *   G. Roman-Perez and J. M. Soler, Phys. Rev. Lett. 103, 096102 (2009).
     *
     *
     * If you are using vdW-DF2, please also cite:
     *
     *   K. Lee, E. D. Murray, L. Kong, B. I. Lundqvist, and
     *   D. C. Langreth, Phys. Rev. B 82, 081101(R) (2010).
     *
     *
     * If you are calculating the stress with vdW-DF, please also cite:
     *
     *   R. Sabatini, E. Kucukbenli, B. Kolb, T. Thonhauser, and
     *   S. de Gironcoli, J. Phys.: Condens. Matter 24, 424209 (2012).
     *

     Carrying out vdW-DF run using the following parameters:

     Nqs =      20    Nr_points =    1024   r_max =   100.000
     q_mesh =
               0.00001000     0.04494208     0.09755937     0.15916263
               0.23128650     0.31572767     0.41458969     0.53033537
               0.66584808     0.82450364     1.01025438     1.22772762
               1.48234092     1.78043706     2.12944203     2.53805004
               3.01644009     3.57652955     4.23227104     5.00000000

     Gradients computed in reciprocal space

     Adding external electric field

     Computed dipole along edir(3) :
        Dipole               -1.3423 Ry au,         -3.4117 Debye
        Dipole field         -0.0029 Ry au

        Potential amp.        0.2719 Ry
        Total length         46.2584 bohr

     Starting wfc are  112 randomized atomic wfcs

     Self-consistent Calculation

     iteration #  1     ecut=    36.75 Ry     beta=0.30
     Davidson diagonalization with overlap
     ethr =  1.00E-02,  avg # of iterations =  4.1

[...]

     total energy              =   -1402.87308690 Ry
     Harris-Foulkes estimate   =   -1404.73046254 Ry
     estimated scf accuracy    <       3.90831288 Ry

[...]

     End of self-consistent calculation

          k = 0.0000 0.0000 0.0000 ( 21643 PWs)   bands (ev):

   -10.2261  -9.7562  -9.7547  -9.7532  -9.6184  -9.6175  -9.6083  -9.5799
    -9.4991  -9.4969  -9.4711  -9.4019  -9.3875  -9.3358  -9.2788  -9.2248
    -9.2248  -9.1868  -9.1785  -9.1781  -9.1292  -9.1024  -9.0946  -9.0824
    -9.0699  -9.0676  -9.0524  -9.0504  -8.9426  -8.9261  -8.7881  -8.7425
    -8.7263  -8.6547  -8.6346  -8.6215  -8.6063  -8.5843  -8.5764  -8.5384
    -8.5372  -8.5271  -8.5188  -8.4826  -8.4737  -8.4507  -8.4314  -8.4133
    -8.4044  -8.3638  -8.3618  -8.3511  -8.3420  -8.2826  -8.2569  -8.2523
    -8.2431  -8.1656  -8.1583  -8.1319  -8.1055  -7.4987  -5.9357  -3.2063
    -2.1160  -2.1072  -2.0563  -1.8765  -1.7919  -1.7859  -1.1648  -1.1243
    -0.9802  -0.6635  -0.5347  -0.3145   0.0938   0.5057   0.6881   1.0134
     1.6716   1.9027   2.0935   2.6440

[...]

          k =-0.0799 0.0462 0.0000 ( 21576 PWs)   bands (ev):

[...]

     the Fermi energy is     0.1553 ev

!    total energy              =   -1404.23996972 Ry
     Harris-Foulkes estimate   =   -1404.23997923 Ry
     estimated scf accuracy    <       0.00000164 Ry

     The total energy is the sum of the following terms:

     one-electron contribution =   -8934.64658050 Ry
     hartree contribution      =    4559.53703438 Ry
     xc contribution           =    -493.07193373 Ry
     ewald contribution        =    3463.97346634 Ry
     electric field correction =       0.00054776 Ry
     smearing contrib. (-TS)   =      -0.03250398 Ry

     convergence has been achieved in  11 iterations

 BEEF-vdW xc energy contributions
           1 :   -431.983841939451
           2 :    395.183079480959
           3 :   -333.079707125272
           4 :    263.290420732156
           5 :   -202.082165492185
           6 :    158.586675474117
           7 :   -133.062272519496
           8 :    119.366524746070
           9 :   -109.710661324615
          10 :    98.9172264619585
          11 :   -86.1406723472771
          12 :    73.7410880584337
          13 :   -64.6271045573409
          14 :    59.9757853308265
          15 :   -58.6110564896303
          16 :    58.0512633519502
          17 :   -56.2137330650098
          18 :    52.5706986858183
          19 :   -48.1310393768891
          20 :    44.4710238421756
          21 :   -42.5926176914915
          22 :    42.3542275626063
          23 :   -42.7248856660463
          24 :    42.5527444564106
          25 :   -41.2763077043126
          26 :    39.1512461401289
          27 :   -36.9449873703396
          28 :    35.3832189079149
          29 :   -34.7267154415388
          30 :    34.7041752555881
          31 :   -39.0199720095773
          32 :   -28.5033905314704

     Forces acting on atoms (Ry/au):

     negative rho (up, down):  2.665E-01 0.000E+00
     atom    1 type  1   force =    -0.00000012    0.00194505   -0.01773171
     atom    2 type  1   force =    -0.00000369   -0.00019530   -0.01689716
     atom    3 type  1   force =    -0.00139086   -0.00034077   -0.01747402
     atom    4 type  1   force =     0.00139581   -0.00034284   -0.01747970
     atom    5 type  1   force =    -0.00099657    0.00023506    0.00072617
     atom    6 type  1   force =     0.00100301    0.00023726    0.00072294
     atom    7 type  1   force =    -0.00000182    0.00235915    0.00804751
     atom    8 type  1   force =    -0.00000443    0.00057815   -0.00052334
     atom    9 type  1   force =    -0.01427024   -0.00120333    0.02763611
     atom   10 type  1   force =     0.01425363   -0.00122203    0.02764202
     atom   11 type  1   force =     0.00000616   -0.00302138    0.02132206
     atom   12 type  1   force =     0.00001033    0.00406018    0.02258983
     atom   13 type  2   force =    -0.00000120   -0.00308920   -0.03858070

     Total force =     0.066529     Total SCF correction =     0.001159

     entering subroutine stress ...

     negative rho (up, down):  2.665E-01 0.000E+00
          total   stress  (Ry/bohr**3)                   (kbar)     P=    3.02
   0.00001013  -0.00000000   0.00000000          1.49     -0.00      0.00
  -0.00000000  -0.00000845  -0.00000623         -0.00     -1.24     -0.92
   0.00000000  -0.00000623   0.00005989          0.00     -0.92      8.81

     BFGS Geometry Optimization

     number of scf cycles    =   1
     number of bfgs steps    =   0

     energy   new            =   -1404.2399697237 Ry

     new trust radius        =       0.0387041850 bohr
     new conv_thr            =       0.0000099958 Ry

ATOMIC_POSITIONS (crystal)
Cd1      0.166666667   0.166666667   0.398302599    0   0   0
Cd1      0.666666667   0.166666667   0.398302599    0   0   0
Cd1      0.166666667   0.666666667   0.398302599    0   0   0
Cd1      0.666666667   0.666666667   0.398302599    0   0   0
Cd1      0.833333333   0.333333333   0.500000000    0   0   0
Cd1      0.333333333   0.333333333   0.500000000    0   0   0
Cd1      0.833333333   0.833333333   0.500000000    0   0   0
Cd1      0.333333333   0.833333333   0.500000000    0   0   0
Cd1     -0.001148642  -0.000117566   0.602279895
Cd1      0.501265716  -0.000119393   0.602280019
Cd1      0.000148117   0.499704809   0.602146812
Cd1      0.499802533   0.500396683   0.602173533
C1       0.250150807  -0.000301817   0.666604154

     Writing output data file calc.save
     Check: negative starting charge=   -0.257849
     NEW-OLD atomic charge density approx. for the potential
     Check: negative starting charge=   -0.259197

[...]

     Total force =     0.057891     Total SCF correction =     0.009774
     SCF correction compared to forces is large: reduce conv_thr to get better values

[...]

     energy   old            =   -1404.2399697237 Ry
     energy   new            =   -1404.2442453250 Ry

     CASE: energy  _new < energy  _old

     WARNING: bfgs curvature condition failed, Theta= 0.928
     new trust radius        =       0.0425746034 bohr
     new conv_thr            =       0.0000001000 Ry

[...]

     WARNING: bfgs curvature condition failed, Theta= 0.910
     new trust radius        =       0.0638619052 bohr
     new conv_thr            =       0.0000001000 Ry

[...]

     Total force =     0.005513     Total SCF correction =     0.000336

[...]

     number of scf cycles    =  37
     number of bfgs steps    =  36

     energy   old            =   -1404.3249428239 Ry
     energy   new            =   -1404.3250867593 Ry

     CASE: energy  _new < energy  _old

     new trust radius        =       0.0934572979 bohr
     new conv_thr            =       0.0000001000 Ry

ATOMIC_POSITIONS (crystal)
Cd1      0.166666667   0.166666667   0.398302599    0   0   0
Cd1      0.666666667   0.166666667   0.398302599    0   0   0
Cd1      0.166666667   0.666666667   0.398302599    0   0   0
Cd1      0.666666667   0.666666667   0.398302599    0   0   0
Cd1      0.833333333   0.333333333   0.500000000    0   0   0
Cd1      0.333333333   0.333333333   0.500000000    0   0   0
Cd1      0.833333333   0.833333333   0.500000000    0   0   0
Cd1      0.333333333   0.833333333   0.500000000    0   0   0
Cd1     -0.043108503   0.030010952   0.619024551
Cd1      0.513033052   0.030150410   0.619033355
Cd1     -0.005138393   0.510135379   0.606456368
Cd1      0.512858880   0.474401091   0.622768118
C1       0.325858137  -0.151639127   0.644431551

     Writing output data file calc.save
     Check: negative starting charge=   -0.259741
     NEW-OLD atomic charge density approx. for the potential
     Check: negative starting charge=   -0.259941

[...]

     Self-consistent Calculation

[...]

     total energy              =   -1404.32513523 Ry
     Harris-Foulkes estimate   =   -1404.32513484 Ry
     estimated scf accuracy    <       0.00000028 Ry

     iteration #  9     ecut=    36.75 Ry     beta=0.30
     Davidson diagonalization with overlap
     ethr =  1.89E-10,  avg # of iterations =  3.1

[...]

     negative rho (up, down):  2.687E-01 0.000E+00

     Adding external electric field

     Computed dipole along edir(3) :
        Dipole               -0.2497 Ry au,         -0.6348 Debye
        Dipole field         -0.0005 Ry au

        Potential amp.        0.0506 Ry
        Total length         46.2584 bohr

     End of self-consistent calculation

[...]

          k = 0.0533-0.0615 0.0000 ( 21571 PWs)   bands (ev):

[...]

          k =-0.0799-0.0462 0.0000 ( 21576 PWs)   bands (ev):

   -10.5752  -9.1218  -9.1049  -9.0548  -9.0325  -8.9955  -8.9876  -8.9713
    -8.9368  -8.9285  -8.9114  -8.9102  -8.8242  -8.8035  -8.7890  -8.7805
    -8.7559  -8.7479  -8.7264  -8.6753  -8.6681  -8.6501  -8.6425  -8.5890
    -8.5836  -8.5702  -8.5507  -8.5478  -8.5243  -8.5113  -8.4925  -8.4398
    -8.4285  -8.4104  -8.4033  -8.3911  -8.3872  -8.3854  -8.3564  -8.3350
    -8.3086  -8.3066  -8.2997  -8.2906  -8.2748  -8.2531  -8.2052  -8.1744
    -8.1593  -8.1465  -8.1430  -8.1296  -8.0868  -8.0315  -8.0052  -7.9961
    -7.9899  -7.9361  -7.9018  -7.7034  -6.8045  -5.9893  -5.7205  -4.6753
    -3.5871  -2.9346  -2.7467  -2.5375  -2.1427  -1.9577  -0.5184  -0.1326
    -0.0874   0.2857   1.2625   1.6281   1.9221   2.4822   2.8837   3.0107
     3.2514   3.4294   3.6077   3.7825

     the Fermi energy is     0.5187 ev

!    total energy              =   -1404.32513585 Ry
     Harris-Foulkes estimate   =   -1404.32513624 Ry
     estimated scf accuracy    <       0.00000005 Ry

     The total energy is the sum of the following terms:

     one-electron contribution =   -8569.13321468 Ry
     hartree contribution      =    4378.78025849 Ry
     xc contribution           =    -493.19843236 Ry
     ewald contribution        =    3279.24850414 Ry
     electric field correction =       0.00013657 Ry
     smearing contrib. (-TS)   =      -0.02238801 Ry

     convergence has been achieved in   9 iterations

 BEEF-vdW xc energy contributions
           1 :   -432.111608484949
           2 :    395.279731774998
           3 :   -333.104522308980
           4 :    263.217069398497
           5 :   -201.911033894089
           6 :    158.329284823815
           7 :   -132.731910298754
           8 :    118.990695068074
           9 :   -109.347007286989
          10 :    98.6437250931382
          11 :   -86.0136354734908
          12 :    73.7494568942166
          13 :   -64.6856081376665
          14 :    59.9751551449505
          15 :   -58.4953015373879
          16 :    57.8659915101707
          17 :   -56.0863942808759
          18 :    52.6264269415251
          19 :   -48.3961787835839
          20 :    44.8371147273500
          21 :   -42.8774426887178
          22 :    42.4247332519149
          23 :   -42.5936911734692
          24 :    42.3716261122865
          25 :   -41.2255738651080
          26 :    39.3047601587725
          27 :   -37.2120700193504
          28 :    35.5736140843197
          29 :   -34.6929833884632
          30 :    34.4556545651658
          31 :   -39.0269338825531
          32 :   -28.4917445326803

     Forces acting on atoms (Ry/au):

     negative rho (up, down):  2.687E-01 0.000E+00
     atom    1 type  1   force =     0.00000062   -0.00085677   -0.01818463
     atom    2 type  1   force =     0.00000075   -0.00011763   -0.01785491
     atom    3 type  1   force =     0.00066290    0.00048500   -0.01828216
     atom    4 type  1   force =    -0.00066042    0.00048592   -0.01828128
     atom    5 type  1   force =    -0.00212433   -0.00075945    0.01574992
     atom    6 type  1   force =     0.00212427   -0.00075665    0.01575897
     atom    7 type  1   force =     0.00000200    0.00266055    0.01553862
     atom    8 type  1   force =     0.00000223   -0.00000190    0.02719228
     atom    9 type  1   force =     0.00085931   -0.00095308   -0.00068803
     atom   10 type  1   force =    -0.00086255   -0.00095762   -0.00069575
     atom   11 type  1   force =     0.00003620    0.00043876   -0.00110933
     atom   12 type  1   force =    -0.00001460    0.00119742   -0.00041397
     atom   13 type  2   force =    -0.00002638   -0.00086454    0.00127026

     Total force =     0.003108     Total SCF correction =     0.000929
     SCF correction compared to forces is large: reduce conv_thr to get better values

     entering subroutine stress ...

     negative rho (up, down):  2.687E-01 0.000E+00
          total   stress  (Ry/bohr**3)                   (kbar)     P=    6.37
   0.00005024   0.00000003  -0.00000001          7.39      0.00     -0.00
   0.00000003   0.00004838  -0.00000152          0.00      7.12     -0.22
  -0.00000001  -0.00000152   0.00003124         -0.00     -0.22      4.60

     bfgs converged in  38 scf cycles and  37 bfgs steps
     (criteria: energy <  1.0E+00, force <  1.9E-03)

     End of BFGS Geometry Optimization

     Final energy   =   -1404.3251358536 Ry
Begin final coordinates

ATOMIC_POSITIONS (crystal)
Cd1      0.166666667   0.166666667   0.398302599    0   0   0
Cd1      0.666666667   0.166666667   0.398302599    0   0   0
Cd1      0.166666667   0.666666667   0.398302599    0   0   0
Cd1      0.666666667   0.666666667   0.398302599    0   0   0
Cd1      0.833333333   0.333333333   0.500000000    0   0   0
Cd1      0.333333333   0.333333333   0.500000000    0   0   0
Cd1      0.833333333   0.833333333   0.500000000    0   0   0
Cd1      0.333333333   0.833333333   0.500000000    0   0   0
Cd1     -0.043108503   0.030010952   0.619024551
Cd1      0.513033052   0.030150410   0.619033355
Cd1     -0.005138393   0.510135379   0.606456368
Cd1      0.512858880   0.474401091   0.622768118
C1       0.325858137  -0.151639127   0.644431551
End final coordinates

     Writing output data file calc.save

     General routines

     Parallel routines

   This run was terminated on:  15:34:27   4Feb2018

   JOB DONE.