     Program PWSCF v.5.1rc2 (svn rev. ) starts on 19Apr2018 at  9:14:17

     Current dimensions of program PWSCF are:
     Max number of different atomic species (ntypx) = 10
     Max number of k-points (npk) =  40000
     Max angular momentum in pseudopotentials (lmaxx) =  3
     Presently stress not available with electric field

     IMPORTANT: XC functional enforced from input :
     Exchange-correlation      = BEEF-VDW ( 1  4 27 13 2)
     Any further DFT definition will be discarded
     Please, verify this is what you really want

     Subspace diagonalization in iterative solution of the eigenvalue problem:
     a serial algorithm will be used

     bravais-lattice index     =            0
     lattice parameter (alat)  =       1.8897  a.u.
     unit-cell volume          =    5182.3421 (a.u.)^3
     number of atoms/cell      =           14
     number of atomic types    =            3
     number of electrons       =       162.00
     number of Kohn-Sham states=           91
     kinetic-energy cutoff     =      36.7493  Ry
     charge density cutoff     =     367.4932  Ry
     convergence threshold     =      1.0E-05
     mixing beta               =       0.3000
     number of iterations used =           10  plain     mixing
     Exchange-correlation      = BEEF-VDW ( 1  4 27 13 2)
     nstep                     =           50

     celldm(1)=   1.889726  celldm(2)=   0.000000  celldm(3)=   0.000000
     celldm(4)=   0.000000  celldm(5)=   0.000000  celldm(6)=   0.000000

     crystal axes: (cart. coord. in units of alat)
               a(1) = (   5.970602   0.000000   0.000000 )
               a(2) = (   2.985301   5.170693   0.000000 )
               a(3) = (   0.000000   0.000000  24.874976 )

     reciprocal axes: (cart. coord. in units 2 pi/alat)
               b(1) = (  0.167487 -0.096699  0.000000 )
               b(2) = (  0.000000  0.193398  0.000000 )
               b(3) = (  0.000000  0.000000  0.040201 )

     PseudoPot. # 1 for Nb read from file:
     /home/mamunm/src/pseudo/gbrv1.5pbe/Nb.UPF
     MD5 check sum: 573aab8a2fa660278ed4a62cd769473f
     Pseudo is Ultrasoft + core correction, Zval = 13.0
     Generated by new atomic code, or converted to UPF format
     Using radial grid of  887 points,  6 beta functions with:
                l(1) =   0
                l(2) =   0
                l(3) =   1
                l(4) =   1
                l(5) =   2
                l(6) =   2
     Q(r) pseudized with  6 coefficients,  rinner =    1.000   1.000   1.000
                                                       1.000   1.000

     PseudoPot. # 2 for N  read from file:
     /home/mamunm/src/pseudo/gbrv1.5pbe/N.UPF
     MD5 check sum: 95339753478d7afb44899504a8723017
     Pseudo is Ultrasoft + core correction, Zval =  5.0
     Generated by new atomic code, or converted to UPF format
     Using radial grid of  729 points,  4 beta functions with:
                l(1) =   0
                l(2) =   0
                l(3) =   1
                l(4) =   1
     Q(r) pseudized with  8 coefficients,  rinner =    0.900   0.900   0.900

     PseudoPot. # 3 for H  read from file:
     /home/mamunm/src/pseudo/gbrv1.5pbe/H.UPF
     MD5 check sum: 761ae9a214b05c3daf00ab9f6b793d6f
     Pseudo is Ultrasoft, Zval =  1.0
     Generated by new atomic code, or converted to UPF format
     Using radial grid of  615 points,  2 beta functions with:
                l(1) =   0
                l(2) =   0
     Q(r) pseudized with  8 coefficients,  rinner =    0.700

     vdW kernel table read from file vdW_kernel_table
     MD5 check sum: 095c7af220d748ca6e76c0b4c6cfb241

     atomic species   valence    mass     pseudopotential
        Nb1           13.00    92.90637     Nb( 1.00)
        N1             5.00    14.00700     N ( 1.00)
        H1             1.00     1.00800     H ( 1.00)

     No symmetry found

   Cartesian axes

     site n.     atom                  positions (alat units)
         1           Nb1 tau(   1) = (   1.4926504   0.8617821  10.0000000  )
         2           Nb1 tau(   2) = (   4.4779512   0.8617821  10.0000000  )
         3           Nb1 tau(   3) = (   2.9853008   3.4471284  10.0000000  )
         4           Nb1 tau(   4) = (   5.9706016   3.4471284  10.0000000  )
         5           Nb1 tau(   5) = (   5.9706016   1.7235642  12.4374879  )
         6           Nb1 tau(   6) = (   2.9853008   1.7235642  12.4374879  )
         7           Nb1 tau(   7) = (   7.4632520   4.3089105  12.4374879  )
         8           Nb1 tau(   8) = (   4.4779512   4.3089105  12.4374879  )
         9           Nb1 tau(   9) = (   0.0000000   0.0000000  14.8749758  )
        10           Nb1 tau(  10) = (   2.9853008   0.0000000  14.8749758  )
        11           Nb1 tau(  11) = (   1.4926504   2.5853463  14.8749758  )
        12           Nb1 tau(  12) = (   4.4779512   2.5853463  14.8749758  )
        13           N1  tau(  13) = (   0.0000000   0.0000000  16.8724758  )
        14           H1  tau(  14) = (   0.0000000   0.0000000  17.9224758  )

     number of k points=    20  Fermi-Dirac smearing, width (Ry)=  0.0110
                       cart. coord. in units 2pi/alat
        k(    1) = (   0.0000000   0.0000000   0.0000000), wk =   0.0555556
        k(    2) = (   0.0000000   0.0322329   0.0000000), wk =   0.1111111
        k(    3) = (   0.0000000   0.0644659   0.0000000), wk =   0.1111111
        k(    4) = (   0.0000000  -0.0966988   0.0000000), wk =   0.0555556
        k(    5) = (   0.0279146  -0.0161165   0.0000000), wk =   0.1111111
        k(    6) = (   0.0279146   0.0161165   0.0000000), wk =   0.1111111
        k(    7) = (   0.0279146   0.0483494   0.0000000), wk =   0.1111111
        k(    8) = (   0.0279146  -0.1128153   0.0000000), wk =   0.1111111
        k(    9) = (   0.0279146  -0.0805824   0.0000000), wk =   0.1111111
        k(   10) = (   0.0279146  -0.0483494   0.0000000), wk =   0.1111111
        k(   11) = (   0.0558291  -0.0322329   0.0000000), wk =   0.1111111
        k(   12) = (   0.0558291   0.0000000   0.0000000), wk =   0.1111111
        k(   13) = (   0.0558291   0.0322329   0.0000000), wk =   0.1111111
        k(   14) = (   0.0558291  -0.1289318   0.0000000), wk =   0.1111111
        k(   15) = (   0.0558291  -0.0966988   0.0000000), wk =   0.1111111
        k(   16) = (   0.0558291  -0.0644659   0.0000000), wk =   0.1111111
        k(   17) = (  -0.0837437   0.0483494   0.0000000), wk =   0.0555556
        k(   18) = (  -0.0837437   0.0805824   0.0000000), wk =   0.1111111
        k(   19) = (  -0.0837437   0.1128153   0.0000000), wk =   0.1111111
        k(   20) = (  -0.0837437  -0.0483494   0.0000000), wk =   0.0555556

     Largest allocated arrays     est. size (Mb)     dimensions
     Largest temporary arrays     est. size (Mb)     dimensions

     Initial potential from superposition of free atoms
     Check: negative starting charge=   -0.004769

     starting charge  161.96718, renormalised to  162.00000

     negative rho (up, down):  4.770E-03 0.000E+00

     *
     * You are using vdW-DF for exchange-correlation in this calculation.
     * Please cite the following three references that made this development
     * possible:
     *
     *   M. Dion, H. Rydberg, E. Schroder, D. C. Langreth, and
     *   B. I. Lundqvist, Phys. Rev. Lett. 92, 246401 (2004).
     *
     *   T. Thonhauser, V. R. Cooper, S. Li, A. Puzder, P. Hyldgaard, and
     *   D. C. Langreth, Phys. Rev. B 76, 125112 (2007).
     *
     *   G. Roman-Perez and J. M. Soler, Phys. Rev. Lett. 103, 096102 (2009).
     *
     *
     * If you are using vdW-DF2, please also cite:
     *
     *   K. Lee, E. D. Murray, L. Kong, B. I. Lundqvist, and
     *   D. C. Langreth, Phys. Rev. B 82, 081101(R) (2010).
     *
     *
     * If you are calculating the stress with vdW-DF, please also cite:
     *
     *   R. Sabatini, E. Kucukbenli, B. Kolb, T. Thonhauser, and
     *   S. de Gironcoli, J. Phys.: Condens. Matter 24, 424209 (2012).
     *

     Carrying out vdW-DF run using the following parameters:

     Nqs =      20    Nr_points =    1024   r_max =   100.000
     q_mesh =
               0.00001000     0.04494208     0.09755937     0.15916263
               0.23128650     0.31572767     0.41458969     0.53033537
               0.66584808     0.82450364     1.01025438     1.22772762
               1.48234092     1.78043706     2.12944203     2.53805004
               3.01644009     3.57652955     4.23227104     5.00000000

     Gradients computed in reciprocal space

     Adding external electric field

     Computed dipole along edir(3) :
        Dipole               -0.0104 Ry au,         -0.0265 Debye
        Dipole field         -0.0000 Ry au

        Potential amp.        0.0023 Ry
        Total length         45.8317 bohr

     Starting wfc are  161 randomized atomic wfcs

     Self-consistent Calculation

     iteration #  1     ecut=    36.75 Ry     beta=0.30
     Davidson diagonalization with overlap
     ethr =  1.00E-02,  avg # of iterations =  2.0

[...]

     total energy              =   -1441.51351960 Ry
     Harris-Foulkes estimate   =   -1444.36086245 Ry
     estimated scf accuracy    <       6.34454760 Ry

[...]

     End of self-consistent calculation

          k = 0.0000 0.0000 0.0000 ( 19435 PWs)   bands (ev):

   -53.0329 -52.9226 -52.9030 -52.9026 -52.8959 -52.8079 -52.7851 -52.7850
   -52.7809 -52.7208 -52.6796 -52.6796 -29.4467 -29.4466 -29.4081 -29.3765
   -29.3471 -29.3471 -29.3347 -29.2883 -29.2873 -29.2873 -29.0611 -28.9795
   -28.9529 -28.9526 -28.8227 -28.8225 -28.8225 -28.7784 -28.7276 -28.7276
   -28.6377 -28.6356 -28.6356 -28.6224 -28.5794 -28.5794 -28.5335 -28.5241
   -28.5241 -28.5014 -28.5013 -28.4943 -28.4203 -28.4203 -28.3302 -28.3302
   -12.2970  -3.8716  -3.1556  -2.0020  -1.5378  -1.4167  -1.4167  -1.3383
    -1.0736  -1.0736  -1.0062  -0.7538  -0.7538  -0.6363  -0.6027  -0.6027
    -0.5731  -0.1654  -0.1654   0.5094   1.0533   1.0533   1.5575   1.6354
     1.8259   1.8260   1.9514   2.2910   2.2910   2.3033   2.5189   2.5189
     2.5602   2.5603   2.6296   2.6614   2.6614   2.6707   2.6707   2.9198
     3.3421   3.4805   3.7192

[...]

          k =-0.0837 0.0483 0.0000 ( 19524 PWs)   bands (ev):

[...]

     the Fermi energy is     2.1962 ev

!    total energy              =   -1443.66879908 Ry
     Harris-Foulkes estimate   =   -1443.66881261 Ry
     estimated scf accuracy    <       0.00000283 Ry

     The total energy is the sum of the following terms:

     one-electron contribution =  -11658.66948086 Ry
     hartree contribution      =    5825.21458131 Ry
     xc contribution           =    -234.39084918 Ry
     ewald contribution        =    4624.29359417 Ry
     electric field correction =       0.00004428 Ry
     smearing contrib. (-TS)   =      -0.11668881 Ry

     convergence has been achieved in  18 iterations

 BEEF-vdW xc energy contributions
           1 :   -200.887397591513
           2 :    182.457780220261
           3 :   -151.150817591941
           4 :    115.440574048107
           5 :   -83.3466377710823
           6 :    59.8067736911130
           7 :   -45.7052535535080
           8 :    38.5916082412758
           9 :   -34.5092752519876
          10 :    29.9642393640008
          11 :   -23.2285948287511
          12 :    14.5791925382680
          13 :   -5.61544831293952
          14 :   -1.87114306966157
          15 :    6.87338382280649
          16 :   -9.56111100820908
          17 :    10.9858800904049
          18 :   -12.3684820360371
          19 :    14.3985139677507
          20 :   -16.9207505887208
          21 :    19.1237484078848
          22 :   -20.0735295520489
          23 :    19.2602270319016
          24 :   -16.8670346906843
          25 :    13.6497516856653
          26 :   -10.5392668073247
          27 :    8.20080163899269
          28 :   -6.78445197815063
          29 :    5.96652466961260
          30 :   -5.22449029157008
          31 :   -23.2250890147168
          32 :   -17.5000669347005

     Forces acting on atoms (Ry/au):

     negative rho (up, down):  4.701E-03 0.000E+00
     atom    1 type  1   force =    -0.00007053   -0.00004741   -0.00620832
     atom    2 type  1   force =     0.00007166   -0.00003737   -0.00621739
     atom    3 type  1   force =     0.00000802    0.00008214   -0.00620038
     atom    4 type  1   force =    -0.00000876    0.00000027   -0.00336445
     atom    5 type  1   force =    -0.00000138    0.00692055   -0.00691524
     atom    6 type  1   force =    -0.00000234   -0.00001214    0.01386661
     atom    7 type  1   force =    -0.00600455   -0.00345130   -0.00689686
     atom    8 type  1   force =     0.00600603   -0.00345237   -0.00690050
     atom    9 type  1   force =     0.00000549    0.00000066    0.16081218
     atom   10 type  1   force =    -0.00000744    0.00361462   -0.00362337
     atom   11 type  1   force =     0.00313456   -0.00181267   -0.00365062
     atom   12 type  1   force =    -0.00313020   -0.00180420   -0.00363166
     atom   13 type  2   force =    -0.00000049   -0.00000064   -0.07490829
     atom   14 type  3   force =    -0.00000006   -0.00000013   -0.04616169

     Total force =     0.183525     Total SCF correction =     0.001300

     entering subroutine stress ...

     negative rho (up, down):  4.701E-03 0.000E+00
          total   stress  (Ry/bohr**3)                   (kbar)     P=  -23.42
  -0.00020849  -0.00000000   0.00000000        -30.67     -0.00      0.00
  -0.00000000  -0.00020850   0.00000000         -0.00    -30.67      0.00
   0.00000000   0.00000000  -0.00006057          0.00      0.00     -8.91

     BFGS Geometry Optimization

     number of scf cycles    =   1
     number of bfgs steps    =   0

     energy   new            =   -1443.6687990819 Ry

     new trust radius        =       0.1608121839 bohr
     new conv_thr            =       0.0000099958 Ry

ATOMIC_POSITIONS (crystal)
Nb1      0.166666667   0.166666667   0.402010442    0   0   0
Nb1      0.666666667   0.166666667   0.402010442    0   0   0
Nb1      0.166666667   0.666666667   0.402010442    0   0   0
Nb1      0.666666667   0.666666667   0.402010442    0   0   0
Nb1      0.833333333   0.333333333   0.500000000    0   0   0
Nb1      0.333333333   0.333333333   0.500000000    0   0   0
Nb1      0.833333333   0.833333333   0.500000000    0   0   0
Nb1      0.333333333   0.833333333   0.500000000    0   0   0
Nb1      0.000000453   0.000000068   0.601410592
Nb1      0.499814377   0.000369926   0.597912476
Nb1      0.000370573   0.499814488   0.597911897
Nb1      0.499814891   0.499815355   0.597912300
N1      -0.000000011  -0.000000066   0.676697584
H1       0.000000001  -0.000000014   0.719520221

     Writing output data file calc.save
     Check: negative starting charge=   -0.004769
     NEW-OLD atomic charge density approx. for the potential
     Check: negative starting charge=   -0.004776

[...]

     energy   old            =   -1443.6687990819 Ry
     energy   new            =   -1443.6932363312 Ry

     CASE: energy  _new < energy  _old

[...]

     Threshold (ethr) on eigenvalues was too large:
     Diagonalizing with lowered threshold

     Davidson diagonalization with overlap
     ethr =  7.19E-08,  avg # of iterations =  2.8

[...]

     WARNING: bfgs curvature condition failed, Theta= 0.923
     new trust radius        =       0.0170916326 bohr
     new conv_thr            =       0.0000001000 Ry

[...]

     number of scf cycles    =  14
     number of bfgs steps    =  13

     energy   old            =   -1443.7086088188 Ry
     energy   new            =   -1443.7088511783 Ry

     CASE: energy  _new < energy  _old

     new trust radius        =       0.0170570528 bohr
     new conv_thr            =       0.0000001000 Ry

ATOMIC_POSITIONS (crystal)
Nb1      0.166666667   0.166666667   0.402010442    0   0   0
Nb1      0.666666667   0.166666667   0.402010442    0   0   0
Nb1      0.166666667   0.666666667   0.402010442    0   0   0
Nb1      0.666666667   0.666666667   0.402010442    0   0   0
Nb1      0.833333333   0.333333333   0.500000000    0   0   0
Nb1      0.333333333   0.333333333   0.500000000    0   0   0
Nb1      0.833333333   0.833333333   0.500000000    0   0   0
Nb1      0.333333333   0.833333333   0.500000000    0   0   0
Nb1      0.000001701   0.000002145   0.612506729
Nb1      0.500374481  -0.000744242   0.593572704
Nb1     -0.000738413   0.500370833   0.593572575
Nb1      0.500374079   0.500372193   0.593570179
N1      -0.000001753   0.000002082   0.685088070
H1      -0.000001588   0.000000442   0.725985944

     Writing output data file calc.save
     Check: negative starting charge=   -0.004772
     NEW-OLD atomic charge density approx. for the potential
     Check: negative starting charge=   -0.004785

[...]

     Self-consistent Calculation

[...]

     total energy              =   -1443.70892293 Ry
     Harris-Foulkes estimate   =   -1443.70892295 Ry
     estimated scf accuracy    <       0.00000018 Ry

     iteration # 10     ecut=    36.75 Ry     beta=0.30
     Davidson diagonalization with overlap
     ethr =  1.08E-10,  avg # of iterations =  3.9

[...]

     negative rho (up, down):  4.856E-03 0.000E+00

     Adding external electric field

     Computed dipole along edir(3) :
        Dipole                0.0914 Ry au,          0.2323 Debye
        Dipole field          0.0002 Ry au

        Potential amp.       -0.0203 Ry
        Total length         45.8317 bohr

     End of self-consistent calculation

[...]

          k = 0.0558-0.0645 0.0000 ( 19505 PWs)   bands (ev):

[...]

          k =-0.0837-0.0483 0.0000 ( 19524 PWs)   bands (ev):

   -52.9997 -52.9720 -52.9502 -52.9455 -52.9204 -52.8863 -52.8784 -52.8451
   -52.8341 -52.8083 -52.7961 -52.7884 -29.3721 -29.3539 -29.3462 -29.3414
   -29.2801 -29.2766 -29.2066 -29.1746 -29.1625 -29.1620 -29.1380 -29.1229
   -28.9963 -28.9808 -28.9625 -28.9501 -28.9360 -28.9328 -28.8993 -28.8448
   -28.8116 -28.8036 -28.7844 -28.7809 -28.7660 -28.7525 -28.6932 -28.6495
   -28.6443 -28.6229 -28.6153 -28.5963 -28.5827 -28.5754 -28.5037 -28.4969
   -12.3805  -3.9805  -1.8445  -1.7618  -0.9395  -0.8059  -0.7647  -0.6879
    -0.4922  -0.4734  -0.4334  -0.3500  -0.2283  -0.0830   0.2101   0.2426
     0.2928   0.3723   0.4420   0.5651   0.8197   0.8696   0.9918   1.0051
     1.1049   1.1444   1.3241   1.5456   1.6164   1.6436   1.7414   1.7535
     1.8226   1.8859   1.9129   2.0163   2.1898   2.2569   2.3475   2.4120
     2.5697   2.8453   3.2943

     the Fermi energy is     2.0921 ev

!    total energy              =   -1443.70892295 Ry
     Harris-Foulkes estimate   =   -1443.70892271 Ry
     estimated scf accuracy    <       0.00000006 Ry

     The total energy is the sum of the following terms:

     one-electron contribution =  -11604.38665644 Ry
     hartree contribution      =    5797.72800709 Ry
     xc contribution           =    -234.56287174 Ry
     ewald contribution        =    4597.62928381 Ry
     electric field correction =       0.00002026 Ry
     smearing contrib. (-TS)   =      -0.11670592 Ry

     convergence has been achieved in  10 iterations

 BEEF-vdW xc energy contributions
           1 :   -201.055227637562
           2 :    182.635428609455
           3 :   -151.345706974448
           4 :    115.637321959473
           5 :   -83.5049673091727
           6 :    59.8853811090514
           7 :   -45.6837304541019
           8 :    38.4753835447760
           9 :   -34.3214065541757
          10 :    29.7350221495927
          11 :   -22.9883339740923
          12 :    14.3526062909456
          13 :   -5.41267515541861
          14 :   -2.06383849640721
          15 :    7.08985884920381
          16 :   -9.83276876566828
          17 :    11.3163704477097
          18 :   -12.7255790231773
          19 :    14.7291919945915
          20 :   -17.1812134853386
          21 :    19.3065138071567
          22 :   -20.2130300852834
          23 :    19.4121213457611
          24 :   -17.0754661577713
          25 :    13.9221609594641
          26 :   -10.8427812465520
          27 :    8.48378798626675
          28 :   -7.00949423549542
          29 :    6.13289012138722
          30 :   -5.36579394300580
          31 :   -23.2342090921103
          32 :   -17.5098038365678

     Forces acting on atoms (Ry/au):

     negative rho (up, down):  4.856E-03 0.000E+00
     atom    1 type  1   force =    -0.00239299   -0.00138166   -0.00277249
     atom    2 type  1   force =     0.00239260   -0.00138258   -0.00277263
     atom    3 type  1   force =    -0.00000097    0.00276386   -0.00277181
     atom    4 type  1   force =     0.00000022    0.00000083   -0.00076108
     atom    5 type  1   force =     0.00000329   -0.01094576    0.00288486
     atom    6 type  1   force =    -0.00000495   -0.00000561   -0.00562371
     atom    7 type  1   force =     0.00947514    0.00547331    0.00289342
     atom    8 type  1   force =    -0.00947628    0.00547782    0.00288685
     atom    9 type  1   force =    -0.00000016   -0.00000223    0.00021884
     atom   10 type  1   force =     0.00000194    0.00173476    0.00153764
     atom   11 type  1   force =     0.00150352   -0.00086628    0.00154051
     atom   12 type  1   force =    -0.00150146   -0.00086721    0.00154311
     atom   13 type  2   force =     0.00000040    0.00000037    0.00055968
     atom   14 type  3   force =    -0.00000031    0.00000038    0.00063681

     Total force =     0.004112     Total SCF correction =     0.000346

     entering subroutine stress ...

     negative rho (up, down):  4.856E-03 0.000E+00
          total   stress  (Ry/bohr**3)                   (kbar)     P=  -16.44
  -0.00017407  -0.00000000   0.00000000        -25.61     -0.00      0.00
  -0.00000000  -0.00017407  -0.00000000         -0.00    -25.61     -0.00
   0.00000000  -0.00000000   0.00001281          0.00     -0.00      1.88

     bfgs converged in  15 scf cycles and  14 bfgs steps
     (criteria: energy <  1.0E+00, force <  1.9E-03)

     End of BFGS Geometry Optimization

     Final energy   =   -1443.7089229451 Ry
Begin final coordinates

ATOMIC_POSITIONS (crystal)
Nb1      0.166666667   0.166666667   0.402010442    0   0   0
Nb1      0.666666667   0.166666667   0.402010442    0   0   0
Nb1      0.166666667   0.666666667   0.402010442    0   0   0
Nb1      0.666666667   0.666666667   0.402010442    0   0   0
Nb1      0.833333333   0.333333333   0.500000000    0   0   0
Nb1      0.333333333   0.333333333   0.500000000    0   0   0
Nb1      0.833333333   0.833333333   0.500000000    0   0   0
Nb1      0.333333333   0.833333333   0.500000000    0   0   0
Nb1      0.000001701   0.000002145   0.612506729
Nb1      0.500374481  -0.000744242   0.593572704
Nb1     -0.000738413   0.500370833   0.593572575
Nb1      0.500374079   0.500372193   0.593570179
N1      -0.000001753   0.000002082   0.685088070
H1      -0.000001588   0.000000442   0.725985944
End final coordinates

     Writing output data file calc.save

     General routines

     Parallel routines

   This run was terminated on:  10:20:30  19Apr2018

   JOB DONE.