     Program PWSCF v.5.1rc2 (svn rev. 11289) starts on 23Apr2018 at  5: 4: 0

     Current dimensions of program PWSCF are:
     Max number of different atomic species (ntypx) = 10
     Max number of k-points (npk) =  40000
     Max angular momentum in pseudopotentials (lmaxx) =  3
     Presently stress not available with electric field

     IMPORTANT: XC functional enforced from input :
     Exchange-correlation      = BEEF-VDW ( 1  4 27 13 2)
     Any further DFT definition will be discarded
     Please, verify this is what you really want

     Subspace diagonalization in iterative solution of the eigenvalue problem:
     a serial algorithm will be used

     bravais-lattice index     =            0
     lattice parameter (alat)  =       1.8897  a.u.
     unit-cell volume          =    6741.9070 (a.u.)^3
     number of atoms/cell      =           14
     number of atomic types    =            3
     number of electrons       =       175.00
     number of Kohn-Sham states=           97
     kinetic-energy cutoff     =      36.7493  Ry
     charge density cutoff     =     367.4932  Ry
     convergence threshold     =      1.0E-05
     mixing beta               =       0.3000
     number of iterations used =           10  plain     mixing
     Exchange-correlation      = BEEF-VDW ( 1  4 27 13 2)
     nstep                     =           50

     celldm(1)=   1.889726  celldm(2)=   0.000000  celldm(3)=   0.000000
     celldm(4)=   0.000000  celldm(5)=   0.000000  celldm(6)=   0.000000

     crystal axes: (cart. coord. in units of alat)
               a(1) = (   6.726993   0.000000   0.000000 )
               a(2) = (   3.363497   5.825747   0.000000 )
               a(3) = (   0.000000   0.000000  25.492567 )

     reciprocal axes: (cart. coord. in units 2 pi/alat)
               b(1) = (  0.148655 -0.085826  0.000000 )
               b(2) = (  0.000000  0.171652  0.000000 )
               b(3) = (  0.000000  0.000000  0.039227 )

     PseudoPot. # 1 for Sn read from file:
     /u/if/mamunm/psp/gbrv1.5pbe/Sn.UPF
     MD5 check sum: 469debedee59599fedebd795477fea03
     Pseudo is Ultrasoft + core correction, Zval = 14.0
     Generated by new atomic code, or converted to UPF format
     Using radial grid of  891 points,  6 beta functions with:
                l(1) =   0
                l(2) =   0
                l(3) =   1
                l(4) =   1
                l(5) =   2
                l(6) =   2
     Q(r) pseudized with  8 coefficients,  rinner =    1.350   1.350   1.350
                                                       1.350   1.350

     PseudoPot. # 2 for S  read from file:
     /u/if/mamunm/psp/gbrv1.5pbe/S.UPF
     MD5 check sum: 88d86576ff6df21479756cfb9bdac1df
     Pseudo is Ultrasoft + core correction, Zval =  6.0
     Generated by new atomic code, or converted to UPF format
     Using radial grid of  907 points,  6 beta functions with:
                l(1) =   0
                l(2) =   0
                l(3) =   1
                l(4) =   1
                l(5) =   2
                l(6) =   2
     Q(r) pseudized with  8 coefficients,  rinner =    1.300   1.300   1.300
                                                       1.300   1.300

     PseudoPot. # 3 for H  read from file:
     /u/if/mamunm/psp/gbrv1.5pbe/H.UPF
     MD5 check sum: 761ae9a214b05c3daf00ab9f6b793d6f
     Pseudo is Ultrasoft, Zval =  1.0
     Generated by new atomic code, or converted to UPF format
     Using radial grid of  615 points,  2 beta functions with:
                l(1) =   0
                l(2) =   0
     Q(r) pseudized with  8 coefficients,  rinner =    0.700

     vdW kernel table read from file vdW_kernel_table
     MD5 check sum: 095c7af220d748ca6e76c0b4c6cfb241

     atomic species   valence    mass     pseudopotential
        Sn1           14.00   118.71000     Sn( 1.00)
        S1             6.00    32.06000     S ( 1.00)
        H1             1.00     1.00800     H ( 1.00)

     No symmetry found

   Cartesian axes

     site n.     atom                  positions (alat units)
         1           Sn1 tau(   1) = (   1.6817483   0.9709578  10.0000000  )
         2           Sn1 tau(   2) = (   5.0452448   0.9709578  10.0000000  )
         3           Sn1 tau(   3) = (   3.3634965   3.8838312  10.0000000  )
         4           Sn1 tau(   4) = (   6.7269931   3.8838312  10.0000000  )
         5           Sn1 tau(   5) = (   6.7269931   1.9419156  12.7462834  )
         6           Sn1 tau(   6) = (   3.3634965   1.9419156  12.7462834  )
         7           Sn1 tau(   7) = (   8.4087413   4.8547891  12.7462834  )
         8           Sn1 tau(   8) = (   5.0452448   4.8547891  12.7462834  )
         9           Sn1 tau(   9) = (   0.0000000   0.0000000  15.4925668  )
        10           Sn1 tau(  10) = (   3.3634965   0.0000000  15.4925668  )
        11           Sn1 tau(  11) = (   1.6817483   2.9128734  15.4925668  )
        12           Sn1 tau(  12) = (   5.0452448   2.9128734  15.4925668  )
        13           S1  tau(  13) = (   3.3634965   1.9419156  17.0785668  )
        14           H1  tau(  14) = (   3.3634965   1.9419156  18.3285668  )

     number of k points=    20  Fermi-Dirac smearing, width (Ry)=  0.0110
                       cart. coord. in units 2pi/alat
        k(    1) = (   0.0000000   0.0000000   0.0000000), wk =   0.0555556
        k(    2) = (   0.0000000   0.0286086   0.0000000), wk =   0.1111111
        k(    3) = (   0.0000000   0.0572173   0.0000000), wk =   0.1111111
        k(    4) = (   0.0000000  -0.0858259   0.0000000), wk =   0.0555556
        k(    5) = (   0.0247758  -0.0143043   0.0000000), wk =   0.1111111
        k(    6) = (   0.0247758   0.0143043   0.0000000), wk =   0.1111111
        k(    7) = (   0.0247758   0.0429130   0.0000000), wk =   0.1111111
        k(    8) = (   0.0247758  -0.1001302   0.0000000), wk =   0.1111111
        k(    9) = (   0.0247758  -0.0715216   0.0000000), wk =   0.1111111
        k(   10) = (   0.0247758  -0.0429130   0.0000000), wk =   0.1111111
        k(   11) = (   0.0495516  -0.0286086   0.0000000), wk =   0.1111111
        k(   12) = (   0.0495516   0.0000000   0.0000000), wk =   0.1111111
        k(   13) = (   0.0495516   0.0286086   0.0000000), wk =   0.1111111
        k(   14) = (   0.0495516  -0.1144345   0.0000000), wk =   0.1111111
        k(   15) = (   0.0495516  -0.0858259   0.0000000), wk =   0.1111111
        k(   16) = (   0.0495516  -0.0572173   0.0000000), wk =   0.1111111
        k(   17) = (  -0.0743274   0.0429130   0.0000000), wk =   0.0555556
        k(   18) = (  -0.0743274   0.0715216   0.0000000), wk =   0.1111111
        k(   19) = (  -0.0743274   0.1001302   0.0000000), wk =   0.1111111
        k(   20) = (  -0.0743274  -0.0429130   0.0000000), wk =   0.0555556

     Largest allocated arrays     est. size (Mb)     dimensions
     Largest temporary arrays     est. size (Mb)     dimensions

     Initial potential from superposition of free atoms
     Check: negative starting charge=   -0.001325

     starting charge  162.99941, renormalised to  175.00000

     negative rho (up, down):  1.422E-03 0.000E+00

     *
     * You are using vdW-DF for exchange-correlation in this calculation.
     * Please cite the following three references that made this development
     * possible:
     *
     *   M. Dion, H. Rydberg, E. Schroder, D. C. Langreth, and
     *   B. I. Lundqvist, Phys. Rev. Lett. 92, 246401 (2004).
     *
     *   T. Thonhauser, V. R. Cooper, S. Li, A. Puzder, P. Hyldgaard, and
     *   D. C. Langreth, Phys. Rev. B 76, 125112 (2007).
     *
     *   G. Roman-Perez and J. M. Soler, Phys. Rev. Lett. 103, 096102 (2009).
     *
     *
     * If you are using vdW-DF2, please also cite:
     *
     *   K. Lee, E. D. Murray, L. Kong, B. I. Lundqvist, and
     *   D. C. Langreth, Phys. Rev. B 82, 081101(R) (2010).
     *
     *
     * If you are calculating the stress with vdW-DF, please also cite:
     *
     *   R. Sabatini, E. Kucukbenli, B. Kolb, T. Thonhauser, and
     *   S. de Gironcoli, J. Phys.: Condens. Matter 24, 424209 (2012).
     *

     Carrying out vdW-DF run using the following parameters:

     Nqs =      20    Nr_points =    1024   r_max =   100.000
     q_mesh =
               0.00001000     0.04494208     0.09755937     0.15916263
               0.23128650     0.31572767     0.41458969     0.53033537
               0.66584808     0.82450364     1.01025438     1.22772762
               1.48234092     1.78043706     2.12944203     2.53805004
               3.01644009     3.57652955     4.23227104     5.00000000

     Gradients computed in reciprocal space

     Adding external electric field

     Computed dipole along edir(3) :
        Dipole               -4.3927 Ry au,        -11.1651 Debye
        Dipole field         -0.0082 Ry au

        Potential amp.        0.7691 Ry
        Total length         46.9696 bohr

     Starting wfc are  113 randomized atomic wfcs

     Self-consistent Calculation

     iteration #  1     ecut=    36.75 Ry     beta=0.30
     Davidson diagonalization with overlap
     ethr =  1.00E-02,  avg # of iterations =  8.5

[...]

     total energy              =   -1881.74436429 Ry
     Harris-Foulkes estimate   =   -1957.52358316 Ry
     estimated scf accuracy    <     160.99286410 Ry

[...]

     End of self-consistent calculation

          k = 0.0000 0.0000 0.0000 ( 25377 PWs)   bands (ev):

   -21.0832 -20.9861 -20.9852 -20.9852 -20.9583 -20.9583 -20.8904 -20.8887
   -20.8887 -20.8836 -20.8584 -20.8584 -20.8439 -20.8439 -20.8187 -20.8151
   -20.8150 -20.7793 -20.7745 -20.7708 -20.7708 -20.7697 -20.7696 -20.7606
   -20.7605 -20.7532 -20.7531 -20.7418 -20.7380 -20.7380 -20.7355 -20.7287
   -20.7287 -20.7269 -20.7159 -20.7158 -20.6932 -20.6932 -20.6689 -20.6689
   -20.6627 -20.6537 -20.6536 -20.6458 -20.6430 -20.6430 -20.6269 -20.6269
   -20.6257 -20.6242 -20.6242 -20.6233 -20.6106 -20.6106 -20.6048 -20.6047
   -20.6001 -20.5996 -20.5848 -20.5848 -14.4378  -9.6009  -8.6853  -7.3366
    -6.0238  -5.9615  -5.9615  -5.3475  -5.3474  -5.2417  -4.7438  -4.5095
    -4.5095  -4.0541  -2.8234  -2.8234  -2.6808  -2.6808  -2.5439  -2.0049
    -1.4883  -1.4076  -1.4076  -0.6410  -0.6410  -0.4147   0.9623   2.1214
     2.1214   2.2198   2.7582   2.7582   2.8755   3.2497   3.7307   3.7308
     3.7454

[...]

          k =-0.0743 0.0429 0.0000 ( 25386 PWs)   bands (ev):

[...]

     the Fermi energy is     1.2580 ev

!    total energy              =   -1953.83804884 Ry
     Harris-Foulkes estimate   =   -1953.83802837 Ry
     estimated scf accuracy    <       0.00000515 Ry

     The total energy is the sum of the following terms:

     one-electron contribution =  -10678.70620449 Ry
     hartree contribution      =    5406.78011792 Ry
     xc contribution           =    -543.69454334 Ry
     ewald contribution        =    3861.82601164 Ry
     electric field correction =       0.00016401 Ry
     smearing contrib. (-TS)   =      -0.04359459 Ry

     convergence has been achieved in  18 iterations

 BEEF-vdW xc energy contributions
           1 :   -477.489406550264
           2 :    436.883119241248
           3 :   -367.984464590294
           4 :    289.896256749645
           5 :   -220.768077769098
           6 :    171.476429792040
           7 :   -143.196398570927
           8 :    129.390019150705
           9 :   -120.728504754892
          10 :    110.199603094136
          11 :   -95.9016019457678
          12 :    80.5228092798150
          13 :   -68.4130533955426
          14 :    62.3112083464903
          15 :   -61.6608679290269
          16 :    63.2290431876100
          17 :   -63.3119054056209
          18 :    59.9732325034412
          19 :   -53.9525264107770
          20 :    47.8389554860630
          21 :   -44.2097480600946
          22 :    43.9842791827990
          23 :   -45.9891666591786
          24 :    47.8766635776834
          25 :   -47.6896517824376
          26 :    45.0303177909948
          27 :   -41.1422705133886
          28 :    37.9584088289341
          29 :   -36.8126668515804
          30 :    37.6556272856756
          31 :   -42.0337044904007
          32 :   -30.5762854325477

     Forces acting on atoms (Ry/au):

     negative rho (up, down):  3.794E-04 0.000E+00
     atom    1 type  1   force =    -0.00010035   -0.00005480    0.00280444
     atom    2 type  1   force =     0.00009932   -0.00008341    0.00323115
     atom    3 type  1   force =    -0.00000332    0.00014517    0.00326339
     atom    4 type  1   force =    -0.00000683   -0.00000834    0.00538468
     atom    5 type  1   force =     0.00005954   -0.00023684   -0.01418772
     atom    6 type  1   force =    -0.00005565   -0.00003682   -0.00136298
     atom    7 type  1   force =     0.00016707    0.00009277   -0.01413981
     atom    8 type  1   force =    -0.00017771    0.00017733   -0.01417556
     atom    9 type  1   force =     0.00000226   -0.00000864   -0.00555762
     atom   10 type  1   force =     0.00000818   -0.05240607   -0.03837942
     atom   11 type  1   force =    -0.04537887    0.02621756   -0.03838359
     atom   12 type  1   force =     0.04537958    0.02620219   -0.03837965
     atom   13 type  2   force =     0.00000335    0.00000014    0.00522429
     atom   14 type  3   force =     0.00000343   -0.00000025    0.14465841

     Total force =     0.183419     Total SCF correction =     0.001301

     entering subroutine stress ...

     negative rho (up, down):  3.794E-04 0.000E+00
          total   stress  (Ry/bohr**3)                   (kbar)     P=    9.66
   0.00004783   0.00000000  -0.00000000          7.04      0.00     -0.00
   0.00000000   0.00004783  -0.00000000          0.00      7.04     -0.00
  -0.00000000  -0.00000000   0.00010131         -0.00     -0.00     14.90

     BFGS Geometry Optimization

     number of scf cycles    =   1
     number of bfgs steps    =   0

     energy   new            =   -1953.8380488449 Ry

     new trust radius        =       0.1446584149 bohr
     new conv_thr            =       0.0000099958 Ry

ATOMIC_POSITIONS (crystal)
Sn1      0.166666667   0.166666667   0.392271209    0   0   0
Sn1      0.666666667   0.166666667   0.392271209    0   0   0
Sn1      0.166666667   0.666666667   0.392271209    0   0   0
Sn1      0.666666667   0.666666667   0.392271209    0   0   0
Sn1      0.833333333   0.333333333   0.500000000    0   0   0
Sn1      0.333333333   0.333333333   0.500000000    0   0   0
Sn1      0.833333333   0.833333333   0.500000000    0   0   0
Sn1      0.333333333   0.833333333   0.500000000    0   0   0
Sn1      0.000000570  -0.000000785   0.607613426
Sn1      0.502380776  -0.004760264   0.606932108
Sn1     -0.004760444   0.502381452   0.606932021
Sn1      0.502379745   0.502380056   0.606932103
S1       0.333333590   0.333333346   0.670051451
H1       0.333333614   0.333333310   0.721979740

     Writing output data file calc.save
     Check: negative starting charge=   -0.001325
     NEW-OLD atomic charge density approx. for the potential
     Check: negative starting charge=   -0.001321

[...]

     energy   old            =   -1953.8380488449 Ry
     energy   new            =   -1953.8632526432 Ry

     CASE: energy  _new < energy  _old

[...]

     iteration #  1     ecut=    36.75 Ry     beta=0.30
     Davidson diagonalization with overlap
     c_bands:  1 eigenvalues not converged
     ethr =  1.00E-06,  avg # of iterations = 13.8

[...]

     Total force =     0.017913     Total SCF correction =     0.002023
     SCF correction compared to forces is large: reduce conv_thr to get better values

[...]

     iteration #  1     ecut=    36.75 Ry     beta=0.30
     Davidson diagonalization with overlap
     c_bands:  2 eigenvalues not converged
     c_bands:  2 eigenvalues not converged
     ethr =  1.00E-06,  avg # of iterations =  7.5

[...]

     Total force =     0.003236     Total SCF correction =     0.000926
     SCF correction compared to forces is large: reduce conv_thr to get better values

[...]

     number of scf cycles    =  17
     number of bfgs steps    =  16

     energy   old            =   -1953.9408224828 Ry
     energy   new            =   -1953.9411788743 Ry

     CASE: energy  _new < energy  _old

     new trust radius        =       0.0158229601 bohr
     new conv_thr            =       0.0000001000 Ry

ATOMIC_POSITIONS (crystal)
Sn1      0.166666667   0.166666667   0.392271209    0   0   0
Sn1      0.666666667   0.166666667   0.392271209    0   0   0
Sn1      0.166666667   0.666666667   0.392271209    0   0   0
Sn1      0.666666667   0.666666667   0.392271209    0   0   0
Sn1      0.833333333   0.333333333   0.500000000    0   0   0
Sn1      0.333333333   0.333333333   0.500000000    0   0   0
Sn1      0.833333333   0.833333333   0.500000000    0   0   0
Sn1      0.333333333   0.833333333   0.500000000    0   0   0
Sn1     -0.000000253   0.000002379   0.604403801
Sn1      0.501235248  -0.002469470   0.614807658
Sn1     -0.002466589   0.501232582   0.614807137
Sn1      0.501232370   0.501228650   0.614807053
S1       0.333333168   0.333334595   0.701854084
H1       0.333336192   0.333332583   0.755164600

     Writing output data file calc.save
     Check: negative starting charge=   -0.001179
     NEW-OLD atomic charge density approx. for the potential
     Check: negative starting charge=   -0.001179

[...]

     Self-consistent Calculation

[...]

     total energy              =   -1953.94120909 Ry
     Harris-Foulkes estimate   =   -1953.94120930 Ry
     estimated scf accuracy    <       0.00000017 Ry

     iteration #  8     ecut=    36.75 Ry     beta=0.30
     Davidson diagonalization with overlap
     ethr =  9.87E-11,  avg # of iterations =  3.1

[...]

     negative rho (up, down):  3.590E-04 0.000E+00

     Adding external electric field

     Computed dipole along edir(3) :
        Dipole               -0.1530 Ry au,         -0.3888 Debye
        Dipole field         -0.0003 Ry au

        Potential amp.        0.0268 Ry
        Total length         46.9696 bohr

     End of self-consistent calculation

[...]

          k = 0.0496-0.0572 0.0000 ( 25368 PWs)   bands (ev):

[...]

          k =-0.0743-0.0429 0.0000 ( 25386 PWs)   bands (ev):

   -21.3060 -21.2810 -21.2727 -21.2612 -21.2574 -21.2532 -21.2531 -21.2487
   -21.2348 -21.2310 -21.2267 -21.2250 -21.2107 -21.2072 -21.2037 -21.1862
   -21.1740 -21.1720 -21.1692 -21.1667 -21.1651 -21.1650 -21.1574 -21.1531
   -21.1494 -21.1488 -21.1450 -21.1443 -21.1402 -21.1401 -21.1352 -21.1334
   -21.1264 -21.1242 -21.1182 -21.1151 -21.1055 -21.1027 -21.1010 -21.0998
   -21.0931 -21.0838 -21.0833 -21.0765 -21.0736 -21.0657 -21.0652 -21.0635
   -21.0632 -21.0616 -21.0582 -21.0565 -21.0550 -21.0427 -21.0411 -21.0384
   -21.0376 -21.0233 -21.0050 -21.0045 -12.3785  -8.7339  -8.6525  -7.6317
    -7.5810  -6.5445  -6.4597  -6.2002  -6.0035  -5.5245  -5.5135  -4.5341
    -4.3214  -3.9505  -2.0888  -1.5647  -1.3716  -1.2305  -1.1818  -1.0709
    -1.0200  -0.8254  -0.1792  -0.0428   0.0567   0.3304   0.8708   0.9838
     1.2318   1.3147   1.5586   1.6976   1.8772   1.9079   2.0798   2.1235
     2.1301

     the Fermi energy is     0.8688 ev

!    total energy              =   -1953.94120911 Ry
     Harris-Foulkes estimate   =   -1953.94120920 Ry
     estimated scf accuracy    <          8.5E-09 Ry

     The total energy is the sum of the following terms:

     one-electron contribution =  -10325.30955988 Ry
     hartree contribution      =    5228.42623019 Ry
     xc contribution           =    -543.29464301 Ry
     ewald contribution        =    3686.27995466 Ry
     electric field correction =       0.00004361 Ry
     smearing contrib. (-TS)   =      -0.04323468 Ry

     convergence has been achieved in   8 iterations

 BEEF-vdW xc energy contributions
           1 :   -477.076706271453
           2 :    436.290264773747
           3 :   -367.196147449382
           4 :    289.073432358796
           5 :   -220.140635960554
           6 :    171.208086350728
           7 :   -143.292462805913
           8 :    129.698837864496
           9 :   -121.031246439947
          10 :    110.334061296099
          11 :   -95.8454916366798
          12 :    80.3864975459677
          13 :   -68.3499705393136
          14 :    62.4074361693242
          15 :   -61.8767719065382
          16 :    63.4299684509957
          17 :   -63.3638180028809
          18 :    59.8373556718543
          19 :   -53.7156477804768
          20 :    47.6591687597308
          21 :   -44.2130780494517
          22 :    44.1807828190693
          23 :   -46.2641491930726
          24 :    48.0629533708290
          25 :   -47.6730299792090
          26 :    44.8199081866385
          27 :   -40.8620826397137
          28 :    37.7678315471001
          29 :   -36.8087087682308
          30 :    37.8190838406317
          31 :   -42.0014295042007
          32 :   -30.5001774535634

     Forces acting on atoms (Ry/au):

     negative rho (up, down):  3.590E-04 0.000E+00
     atom    1 type  1   force =     0.00119247    0.00068803    0.00291584
     atom    2 type  1   force =    -0.00119223    0.00068812    0.00291597
     atom    3 type  1   force =     0.00000036   -0.00137679    0.00291592
     atom    4 type  1   force =    -0.00000018    0.00000023    0.00401846
     atom    5 type  1   force =    -0.00000029    0.00440005   -0.00392188
     atom    6 type  1   force =    -0.00000001    0.00000015   -0.00211113
     atom    7 type  1   force =    -0.00381096   -0.00219999   -0.00392214
     atom    8 type  1   force =     0.00381058   -0.00219959   -0.00392377
     atom    9 type  1   force =    -0.00000036   -0.00000186    0.00191093
     atom   10 type  1   force =     0.00000016   -0.00020473   -0.00066689
     atom   11 type  1   force =    -0.00017806    0.00010383   -0.00066720
     atom   12 type  1   force =     0.00017838    0.00010370   -0.00066692
     atom   13 type  2   force =    -0.00000059   -0.00000129    0.00041073
     atom   14 type  3   force =     0.00000072    0.00000012    0.00079207

     Total force =     0.002431     Total SCF correction =     0.000206

     entering subroutine stress ...

     negative rho (up, down):  3.590E-04 0.000E+00
          total   stress  (Ry/bohr**3)                   (kbar)     P=   -0.18
   0.00001050   0.00000000   0.00000000          1.54      0.00      0.00
   0.00000000   0.00001050  -0.00000000          0.00      1.54     -0.00
   0.00000000  -0.00000000  -0.00002469          0.00     -0.00     -3.63

     bfgs converged in  18 scf cycles and  17 bfgs steps
     (criteria: energy <  1.0E+00, force <  1.9E-03)

     End of BFGS Geometry Optimization

     Final energy   =   -1953.9412091056 Ry
Begin final coordinates

ATOMIC_POSITIONS (crystal)
Sn1      0.166666667   0.166666667   0.392271209    0   0   0
Sn1      0.666666667   0.166666667   0.392271209    0   0   0
Sn1      0.166666667   0.666666667   0.392271209    0   0   0
Sn1      0.666666667   0.666666667   0.392271209    0   0   0
Sn1      0.833333333   0.333333333   0.500000000    0   0   0
Sn1      0.333333333   0.333333333   0.500000000    0   0   0
Sn1      0.833333333   0.833333333   0.500000000    0   0   0
Sn1      0.333333333   0.833333333   0.500000000    0   0   0
Sn1     -0.000000253   0.000002379   0.604403801
Sn1      0.501235248  -0.002469470   0.614807658
Sn1     -0.002466589   0.501232582   0.614807137
Sn1      0.501232370   0.501228650   0.614807053
S1       0.333333168   0.333334595   0.701854084
H1       0.333336192   0.333332583   0.755164600
End final coordinates

     Writing output data file calc.save

     General routines

     Parallel routines

   This run was terminated on:   7:53:22  23Apr2018

   JOB DONE.
Job  /afs/slac/g/suncat/bin/suncat-tsmpirun -x LD_LIBRARY_PATH -wdir /scratch/qe419196_o5LNH pw.x -npool 4 -in pw.inp

TID   HOST_NAME   COMMAND_LINE            STATUS            TERMINATION_TIME
00000 suncat0012 pw.x -npool 4 -i  Done                     04/23/2018 07:53:22
00001 suncat0012 pw.x -npool 4 -i  Done                     04/23/2018 07:53:22
00002 suncat0012 pw.x -npool 4 -i  Done                     04/23/2018 07:53:22
00003 suncat0012 pw.x -npool 4 -i  Done                     04/23/2018 07:53:22
00004 suncat0012 pw.x -npool 4 -i  Done                     04/23/2018 07:53:22
00005 suncat0012 pw.x -npool 4 -i  Done                     04/23/2018 07:53:22
00006 suncat0012 pw.x -npool 4 -i  Done                     04/23/2018 07:53:22
00007 suncat0012 pw.x -npool 4 -i  Done                     04/23/2018 07:53:22
00008 suncat0172 pw.x -npool 4 -i  Done                     04/23/2018 07:53:22
00009 suncat0172 pw.x -npool 4 -i  Done                     04/23/2018 07:53:22
00010 suncat0172 pw.x -npool 4 -i  Done                     04/23/2018 07:53:22
00011 suncat0172 pw.x -npool 4 -i  Done                     04/23/2018 07:53:22
00012 suncat0172 pw.x -npool 4 -i  Done                     04/23/2018 07:53:22
00013 suncat0172 pw.x -npool 4 -i  Done                     04/23/2018 07:53:22
00014 suncat0172 pw.x -npool 4 -i  Done                     04/23/2018 07:53:22
00015 suncat0172 pw.x -npool 4 -i  Done                     04/23/2018 07:53:22
00016 suncat0152 pw.x -npool 4 -i  Done                     04/23/2018 07:53:22
00017 suncat0152 pw.x -npool 4 -i  Done                     04/23/2018 07:53:22
00018 suncat0152 pw.x -npool 4 -i  Done                     04/23/2018 07:53:22
00019 suncat0152 pw.x -npool 4 -i  Done                     04/23/2018 07:53:22
00020 suncat0152 pw.x -npool 4 -i  Done                     04/23/2018 07:53:22
00021 suncat0152 pw.x -npool 4 -i  Done                     04/23/2018 07:53:22
00022 suncat0152 pw.x -npool 4 -i  Done                     04/23/2018 07:53:22
00023 suncat0152 pw.x -npool 4 -i  Done                     04/23/2018 07:53:22
00024 suncat0113 pw.x -npool 4 -i  Done                     04/23/2018 07:53:22
00025 suncat0113 pw.x -npool 4 -i  Done                     04/23/2018 07:53:22
00026 suncat0113 pw.x -npool 4 -i  Done                     04/23/2018 07:53:22
00027 suncat0113 pw.x -npool 4 -i  Done                     04/23/2018 07:53:22
00028 suncat0113 pw.x -npool 4 -i  Done                     04/23/2018 07:53:22
00029 suncat0113 pw.x -npool 4 -i  Done                     04/23/2018 07:53:22
00030 suncat0113 pw.x -npool 4 -i  Done                     04/23/2018 07:53:22
00031 suncat0113 pw.x -npool 4 -i  Done                     04/23/2018 07:53:22