     Program PWSCF v.5.1rc2 (svn rev. 11289) starts on 17Jan2018 at 19:40:40

     Current dimensions of program PWSCF are:
     Max number of different atomic species (ntypx) = 10
     Max number of k-points (npk) =  40000
     Max angular momentum in pseudopotentials (lmaxx) =  3
     Presently stress not available with electric field

     IMPORTANT: XC functional enforced from input :
     Exchange-correlation      = BEEF-VDW ( 1  4 27 13 2)
     Any further DFT definition will be discarded
     Please, verify this is what you really want

     Subspace diagonalization in iterative solution of the eigenvalue problem:
     a serial algorithm will be used

     bravais-lattice index     =            0
     lattice parameter (alat)  =       1.8897  a.u.
     unit-cell volume          =    4806.0858 (a.u.)^3
     number of atoms/cell      =           13
     number of atomic types    =            2
     number of electrons       =       150.00
     number of Kohn-Sham states=           85
     kinetic-energy cutoff     =      36.7493  Ry
     charge density cutoff     =     367.4932  Ry
     convergence threshold     =      1.0E-05
     mixing beta               =       0.3000
     number of iterations used =           10  plain     mixing
     Exchange-correlation      = BEEF-VDW ( 1  4 27 13 2)
     nstep                     =           50

     celldm(1)=   1.889726  celldm(2)=   0.000000  celldm(3)=   0.000000
     celldm(4)=   0.000000  celldm(5)=   0.000000  celldm(6)=   0.000000

     crystal axes: (cart. coord. in units of alat)
               a(1) = (   5.768903   0.000000   0.000000 )
               a(2) = (   2.884451   4.996016   0.000000 )
               a(3) = (   0.000000   0.000000  24.710289 )

     reciprocal axes: (cart. coord. in units 2 pi/alat)
               b(1) = (  0.173343 -0.100080  0.000000 )
               b(2) = (  0.000000  0.200159  0.000000 )
               b(3) = (  0.000000  0.000000  0.040469 )

     PseudoPot. # 1 for Ti read from file:
     /afs/slac.stanford.edu/u/if/mamunm/psp/gbrv1.5pbe/Ti.UPF
     MD5 check sum: 88a00a6731bd790ddea75d31a80cb452
     Pseudo is Ultrasoft + core correction, Zval = 12.0
     Generated by new atomic code, or converted to UPF format
     Using radial grid of  851 points,  6 beta functions with:
                l(1) =   0
                l(2) =   0
                l(3) =   1
                l(4) =   1
                l(5) =   2
                l(6) =   2
     Q(r) pseudized with  6 coefficients,  rinner =    1.000   1.000   1.000
                                                       1.000   1.000

     PseudoPot. # 2 for O  read from file:
     /afs/slac.stanford.edu/u/if/mamunm/psp/gbrv1.5pbe/O.UPF
     MD5 check sum: 734c27235a0248c51dbae37a1fbe46ec
     Pseudo is Ultrasoft + core correction, Zval =  6.0
     Generated by new atomic code, or converted to UPF format
     Using radial grid of  737 points,  5 beta functions with:
                l(1) =   0
                l(2) =   0
                l(3) =   1
                l(4) =   1
                l(5) =   2
     Q(r) pseudized with  8 coefficients,  rinner =    0.900   0.900   0.900
                                                       0.900   0.900

     vdW kernel table read from file vdW_kernel_table
     MD5 check sum: 095c7af220d748ca6e76c0b4c6cfb241

     atomic species   valence    mass     pseudopotential
        Ti1           12.00    47.86700     Ti( 1.00)
        O1             6.00    15.99900     O ( 1.00)

     No symmetry found

   Cartesian axes

     site n.     atom                  positions (alat units)
         1           Ti1 tau(   1) = (   1.4422257   0.8326694  10.0000000  )
         2           Ti1 tau(   2) = (   4.3266771   0.8326694  10.0000000  )
         3           Ti1 tau(   3) = (   2.8844514   3.3306776  10.0000000  )
         4           Ti1 tau(   4) = (   5.7689029   3.3306776  10.0000000  )
         5           Ti1 tau(   5) = (   5.7689029   1.6653388  12.3551447  )
         6           Ti1 tau(   6) = (   2.8844514   1.6653388  12.3551447  )
         7           Ti1 tau(   7) = (   7.2111286   4.1633470  12.3551447  )
         8           Ti1 tau(   8) = (   4.3266771   4.1633470  12.3551447  )
         9           Ti1 tau(   9) = (   0.0000000   0.0000000  14.7102895  )
        10           Ti1 tau(  10) = (   2.8844514   0.0000000  14.7102895  )
        11           Ti1 tau(  11) = (   1.4422257   2.4980082  14.7102895  )
        12           Ti1 tau(  12) = (   4.3266771   2.4980082  14.7102895  )
        13           O1  tau(  13) = (   1.4422257   0.8326694  16.9702895  )

     number of k points=    20  Fermi-Dirac smearing, width (Ry)=  0.0110
                       cart. coord. in units 2pi/alat
        k(    1) = (   0.0000000   0.0000000   0.0000000), wk =   0.0555556
        k(    2) = (   0.0000000   0.0333599   0.0000000), wk =   0.1111111
        k(    3) = (   0.0000000   0.0667198   0.0000000), wk =   0.1111111
        k(    4) = (   0.0000000  -0.1000797   0.0000000), wk =   0.0555556
        k(    5) = (   0.0288905  -0.0166800   0.0000000), wk =   0.1111111
        k(    6) = (   0.0288905   0.0166800   0.0000000), wk =   0.1111111
        k(    7) = (   0.0288905   0.0500399   0.0000000), wk =   0.1111111
        k(    8) = (   0.0288905  -0.1167597   0.0000000), wk =   0.1111111
        k(    9) = (   0.0288905  -0.0833998   0.0000000), wk =   0.1111111
        k(   10) = (   0.0288905  -0.0500399   0.0000000), wk =   0.1111111
        k(   11) = (   0.0577811  -0.0333599   0.0000000), wk =   0.1111111
        k(   12) = (   0.0577811  -0.0000000   0.0000000), wk =   0.1111111
        k(   13) = (   0.0577811   0.0333599   0.0000000), wk =   0.1111111
        k(   14) = (   0.0577811  -0.1334396   0.0000000), wk =   0.1111111
        k(   15) = (   0.0577811  -0.1000797   0.0000000), wk =   0.1111111
        k(   16) = (   0.0577811  -0.0667198   0.0000000), wk =   0.1111111
        k(   17) = (  -0.0866716   0.0500399   0.0000000), wk =   0.0555556
        k(   18) = (  -0.0866716   0.0833998   0.0000000), wk =   0.1111111
        k(   19) = (  -0.0866716   0.1167597   0.0000000), wk =   0.1111111
        k(   20) = (  -0.0866716  -0.0500399   0.0000000), wk =   0.0555556

     Largest allocated arrays     est. size (Mb)     dimensions
     Largest temporary arrays     est. size (Mb)     dimensions

     Check: negative/imaginary core charge=   -0.000006    0.000000

     Initial potential from superposition of free atoms
     Check: negative starting charge=   -0.012820

     starting charge  137.99947, renormalised to  150.00000

     negative rho (up, down):  1.393E-02 0.000E+00

     *
     * You are using vdW-DF for exchange-correlation in this calculation.
     * Please cite the following three references that made this development
     * possible:
     *
     *   M. Dion, H. Rydberg, E. Schroder, D. C. Langreth, and
     *   B. I. Lundqvist, Phys. Rev. Lett. 92, 246401 (2004).
     *
     *   T. Thonhauser, V. R. Cooper, S. Li, A. Puzder, P. Hyldgaard, and
     *   D. C. Langreth, Phys. Rev. B 76, 125112 (2007).
     *
     *   G. Roman-Perez and J. M. Soler, Phys. Rev. Lett. 103, 096102 (2009).
     *
     *
     * If you are using vdW-DF2, please also cite:
     *
     *   K. Lee, E. D. Murray, L. Kong, B. I. Lundqvist, and
     *   D. C. Langreth, Phys. Rev. B 82, 081101(R) (2010).
     *
     *
     * If you are calculating the stress with vdW-DF, please also cite:
     *
     *   R. Sabatini, E. Kucukbenli, B. Kolb, T. Thonhauser, and
     *   S. de Gironcoli, J. Phys.: Condens. Matter 24, 424209 (2012).
     *

     Carrying out vdW-DF run using the following parameters:

     Nqs =      20    Nr_points =    1024   r_max =   100.000
     q_mesh =
               0.00001000     0.04494208     0.09755937     0.15916263
               0.23128650     0.31572767     0.41458969     0.53033537
               0.66584808     0.82450364     1.01025438     1.22772762
               1.48234092     1.78043706     2.12944203     2.53805004
               3.01644009     3.57652955     4.23227104     5.00000000

     Gradients computed in reciprocal space

     Adding external electric field

     Computed dipole along edir(3) :
        Dipole               -4.5505 Ry au,        -11.5662 Debye
        Dipole field         -0.0119 Ry au

        Potential amp.        1.0834 Ry
        Total length         45.5283 bohr

     Starting wfc are  124 randomized atomic wfcs

     Self-consistent Calculation

     iteration #  1     ecut=    36.75 Ry     beta=0.30
     Davidson diagonalization with overlap
     ethr =  1.00E-02,  avg # of iterations =  6.3

[...]

     total energy              =   -1315.24809864 Ry
     Harris-Foulkes estimate   =   -1474.56093757 Ry
     estimated scf accuracy    <     329.90372081 Ry

[...]

     iteration # 38     ecut=    36.75 Ry     beta=0.30
     Davidson diagonalization with overlap
     c_bands:  1 eigenvalues not converged
     ethr =  3.35E-06,  avg # of iterations =  9.4

[...]

     End of self-consistent calculation

          k = 0.0000 0.0000 0.0000 ( 18103 PWs)   bands (ev):

   -57.2086 -57.1211 -57.1194 -57.1159 -57.0856 -56.9948 -56.9941 -56.9921
   -56.8910 -56.8174 -56.8164 -56.7978 -33.6442 -33.6437 -33.6429 -33.5790
   -33.5357 -33.5354 -33.5339 -33.5018 -33.4867 -33.4860 -33.3961 -33.3408
   -33.3298 -33.3292 -33.2230 -33.2195 -33.2186 -33.1929 -33.1909 -33.1906
   -33.1173 -33.1145 -33.1141 -33.0942 -33.0942 -33.0160 -33.0151 -33.0075
   -32.9874 -32.9874 -32.9816 -32.9185 -32.9132 -32.9127 -32.7998 -32.7998
   -15.4482  -5.5467  -4.2188  -3.0052  -2.4177  -2.4057  -2.4055  -2.3158
    -2.3072  -2.3071  -1.9270  -1.9040  -1.9039  -1.6724  -1.6429  -1.6428
    -1.3372  -1.1206  -1.1204  -0.7670  -0.7668  -0.6908  -0.1803   0.0976
     0.1689   0.1690   0.2203   0.4229   0.4783   0.4785   0.4860   0.6698
     0.6698   0.8532   0.8536   0.8947   0.8956

[...]

          k =-0.0867 0.0500 0.0000 ( 18044 PWs)   bands (ev):

[...]

     the Fermi energy is    -0.0843 ev

!    total energy              =   -1471.00321588 Ry
     Harris-Foulkes estimate   =   -1471.00315662 Ry
     estimated scf accuracy    <       0.00000671 Ry

     The total energy is the sum of the following terms:

     one-electron contribution =  -11099.07299318 Ry
     hartree contribution      =    5533.96894072 Ry
     xc contribution           =    -232.12576189 Ry
     ewald contribution        =    4326.35559714 Ry
     electric field correction =       0.00147782 Ry
     smearing contrib. (-TS)   =      -0.13047650 Ry

     convergence has been achieved in  46 iterations

 BEEF-vdW xc energy contributions
           1 :   -199.425369434298
           2 :    177.907277460160
           3 :   -142.765694699227
           4 :    105.304885007430
           5 :   -74.6400136710296
           6 :    54.2522372249259
           7 :   -42.1305388589113
           8 :    33.6164889801158
           9 :   -24.7846199354786
          10 :    14.3698310538055
          11 :   -3.58078463179294
          12 :   -5.52381598811291
          13 :    11.7390698381394
[...]
     SCF correction compared to forces is large: reduce conv_thr to get better values

[...]

     Program PWSCF v.5.1rc2 (svn rev. 11289) starts on 17Jan2018 at 22:16: 2

[...]

     Program PWSCF v.5.1rc2 (svn rev. 11289) starts on 17Jan2018 at 23:18:50

[...]

     Program PWSCF v.5.1rc2 (svn rev. 11289) starts on 17Jan2018 at 23:40: 1

[...]

     iteration #  2     ecut=    36.75 Ry     beta=0.30
     Davidson diagonalization with overlap
     c_bands:  1 eigenvalues not converged
     ethr =  1.00E-02,  avg # of iterations = 18.4

[...]

   This run was terminated on:   0: 0:24  18Jan2018

[...]

     Program PWSCF v.5.1rc2 (svn rev. 11289) starts on 18Jan2018 at  0: 0:30

     Current dimensions of program PWSCF are:
     Max number of different atomic species (ntypx) = 10
     Max number of k-points (npk) =  40000
     Max angular momentum in pseudopotentials (lmaxx) =  3
     Presently stress not available with electric field

     IMPORTANT: XC functional enforced from input :
     Exchange-correlation      = BEEF-VDW ( 1  4 27 13 2)
     Any further DFT definition will be discarded
     Please, verify this is what you really want

     Subspace diagonalization in iterative solution of the eigenvalue problem:
     a serial algorithm will be used

     bravais-lattice index     =            0
     lattice parameter (alat)  =       1.8897  a.u.
     unit-cell volume          =    4806.0858 (a.u.)^3
     number of atoms/cell      =           13
     number of atomic types    =            2
     number of electrons       =       150.00
     number of Kohn-Sham states=           85
     kinetic-energy cutoff     =      36.7493  Ry
     charge density cutoff     =     367.4932  Ry
     convergence threshold     =      1.0E-05
     mixing beta               =       0.3000
     number of iterations used =           10  plain     mixing
     Exchange-correlation      = BEEF-VDW ( 1  4 27 13 2)
     nstep                     =           50

     celldm(1)=   1.889726  celldm(2)=   0.000000  celldm(3)=   0.000000
     celldm(4)=   0.000000  celldm(5)=   0.000000  celldm(6)=   0.000000

     crystal axes: (cart. coord. in units of alat)
               a(1) = (   5.768903   0.000000   0.000000 )
               a(2) = (   2.884451   4.996016   0.000000 )
               a(3) = (   0.000000   0.000000  24.710289 )

     reciprocal axes: (cart. coord. in units 2 pi/alat)
               b(1) = (  0.173343 -0.100080  0.000000 )
               b(2) = (  0.000000  0.200159  0.000000 )
               b(3) = (  0.000000  0.000000  0.040469 )

     PseudoPot. # 1 for Ti read from file:
     /afs/slac.stanford.edu/u/if/mamunm/psp/gbrv1.5pbe/Ti.UPF
     MD5 check sum: 88a00a6731bd790ddea75d31a80cb452
     Pseudo is Ultrasoft + core correction, Zval = 12.0
     Generated by new atomic code, or converted to UPF format
     Using radial grid of  851 points,  6 beta functions with:
                l(1) =   0
                l(2) =   0
                l(3) =   1
                l(4) =   1
                l(5) =   2
                l(6) =   2
     Q(r) pseudized with  6 coefficients,  rinner =    1.000   1.000   1.000
                                                       1.000   1.000

     PseudoPot. # 2 for O  read from file:
     /afs/slac.stanford.edu/u/if/mamunm/psp/gbrv1.5pbe/O.UPF
     MD5 check sum: 734c27235a0248c51dbae37a1fbe46ec
     Pseudo is Ultrasoft + core correction, Zval =  6.0
     Generated by new atomic code, or converted to UPF format
     Using radial grid of  737 points,  5 beta functions with:
                l(1) =   0
                l(2) =   0
                l(3) =   1
                l(4) =   1
                l(5) =   2
     Q(r) pseudized with  8 coefficients,  rinner =    0.900   0.900   0.900
                                                       0.900   0.900

     vdW kernel table read from file vdW_kernel_table
     MD5 check sum: 095c7af220d748ca6e76c0b4c6cfb241

     atomic species   valence    mass     pseudopotential
        Ti1           12.00    47.86700     Ti( 1.00)
        O1             6.00    15.99900     O ( 1.00)

     No symmetry found

   Cartesian axes

     site n.     atom                  positions (alat units)
         1           Ti1 tau(   1) = (   1.4422257   0.8326694  10.0000000  )
         2           Ti1 tau(   2) = (   4.3266771   0.8326694  10.0000000  )
         3           Ti1 tau(   3) = (   2.8844514   3.3306776  10.0000000  )
         4           Ti1 tau(   4) = (   5.7689029   3.3306776  10.0000000  )
         5           Ti1 tau(   5) = (   5.7689029   1.6653388  12.3551447  )
         6           Ti1 tau(   6) = (   2.8844514   1.6653388  12.3551447  )
         7           Ti1 tau(   7) = (   7.2111286   4.1633470  12.3551447  )
         8           Ti1 tau(   8) = (   4.3266771   4.1633470  12.3551447  )
         9           Ti1 tau(   9) = (   8.6501356   4.9943121  14.7364837  )
        10           Ti1 tau(  10) = (   5.7719390   4.9941522  14.7365828  )
        11           Ti1 tau(  11) = (   7.2108997   2.5013204  14.7366517  )
        12           Ti1 tau(  12) = (   4.3264983   2.4979906  14.5045820  )
        13           O1  tau(  13) = (   1.4421137   0.8326701  15.7219896  )

     number of k points=    20  Fermi-Dirac smearing, width (Ry)=  0.0110
                       cart. coord. in units 2pi/alat
        k(    1) = (   0.0000000   0.0000000   0.0000000), wk =   0.0555556
        k(    2) = (   0.0000000   0.0333599   0.0000000), wk =   0.1111111
        k(    3) = (   0.0000000   0.0667198   0.0000000), wk =   0.1111111
        k(    4) = (   0.0000000  -0.1000797   0.0000000), wk =   0.0555556
        k(    5) = (   0.0288905  -0.0166800   0.0000000), wk =   0.1111111
        k(    6) = (   0.0288905   0.0166800   0.0000000), wk =   0.1111111
        k(    7) = (   0.0288905   0.0500399   0.0000000), wk =   0.1111111
        k(    8) = (   0.0288905  -0.1167597   0.0000000), wk =   0.1111111
        k(    9) = (   0.0288905  -0.0833998   0.0000000), wk =   0.1111111
        k(   10) = (   0.0288905  -0.0500399   0.0000000), wk =   0.1111111
        k(   11) = (   0.0577811  -0.0333599   0.0000000), wk =   0.1111111
        k(   12) = (   0.0577811  -0.0000000   0.0000000), wk =   0.1111111
        k(   13) = (   0.0577811   0.0333599   0.0000000), wk =   0.1111111
        k(   14) = (   0.0577811  -0.1334396   0.0000000), wk =   0.1111111
        k(   15) = (   0.0577811  -0.1000797   0.0000000), wk =   0.1111111
        k(   16) = (   0.0577811  -0.0667198   0.0000000), wk =   0.1111111
        k(   17) = (  -0.0866716   0.0500399   0.0000000), wk =   0.0555556
        k(   18) = (  -0.0866716   0.0833998   0.0000000), wk =   0.1111111
        k(   19) = (  -0.0866716   0.1167597   0.0000000), wk =   0.1111111
        k(   20) = (  -0.0866716  -0.0500399   0.0000000), wk =   0.0555556

     Largest allocated arrays     est. size (Mb)     dimensions
     Largest temporary arrays     est. size (Mb)     dimensions

     Check: negative/imaginary core charge=   -0.000006    0.000000

     Initial potential from superposition of free atoms
     Check: negative starting charge=   -0.012681

     starting charge  137.99947, renormalised to  150.00000

[...]

     *
     * You are using vdW-DF for exchange-correlation in this calculation.
     * Please cite the following three references that made this development
     * possible:
     *
     *   M. Dion, H. Rydberg, E. Schroder, D. C. Langreth, and
     *   B. I. Lundqvist, Phys. Rev. Lett. 92, 246401 (2004).
     *
     *   T. Thonhauser, V. R. Cooper, S. Li, A. Puzder, P. Hyldgaard, and
     *   D. C. Langreth, Phys. Rev. B 76, 125112 (2007).
     *
     *   G. Roman-Perez and J. M. Soler, Phys. Rev. Lett. 103, 096102 (2009).
     *
     *
     * If you are using vdW-DF2, please also cite:
     *
     *   K. Lee, E. D. Murray, L. Kong, B. I. Lundqvist, and
     *   D. C. Langreth, Phys. Rev. B 82, 081101(R) (2010).
     *
     *
     * If you are calculating the stress with vdW-DF, please also cite:
     *
     *   R. Sabatini, E. Kucukbenli, B. Kolb, T. Thonhauser, and
     *   S. de Gironcoli, J. Phys.: Condens. Matter 24, 424209 (2012).
     *

     Carrying out vdW-DF run using the following parameters:

     Nqs =      20    Nr_points =    1024   r_max =   100.000
     q_mesh =
               0.00001000     0.04494208     0.09755937     0.15916263
               0.23128650     0.31572767     0.41458969     0.53033537
               0.66584808     0.82450364     1.01025438     1.22772762
               1.48234092     1.78043706     2.12944203     2.53805004
               3.01644009     3.57652955     4.23227104     5.00000000

     Gradients computed in reciprocal space

[...]

     Starting wfc are  124 randomized atomic wfcs

     Self-consistent Calculation

[...]

     total energy              =   -1471.37277295 Ry
     Harris-Foulkes estimate   =   -1471.37277435 Ry
     estimated scf accuracy    <       0.00003716 Ry

     iteration # 31     ecut=    36.75 Ry     beta=0.30
     Davidson diagonalization with overlap
     ethr =  2.48E-08,  avg # of iterations =  1.2

[...]

     negative rho (up, down):  8.339E-03 0.000E+00

     Adding external electric field

     Computed dipole along edir(3) :
        Dipole                0.0079 Ry au,          0.0200 Debye
        Dipole field          0.0000 Ry au

        Potential amp.       -0.0019 Ry
        Total length         45.5283 bohr

     End of self-consistent calculation

[...]

          k = 0.0578-0.0667 0.0000 ( 18031 PWs)   bands (ev):

[...]

          k =-0.0867-0.0500 0.0000 ( 18044 PWs)   bands (ev):

   -56.2168 -56.1955 -56.1685 -56.1110 -56.1103 -56.0653 -56.0643 -55.9932
   -55.8699 -55.8623 -55.8329 -55.8215 -32.7051 -32.5649 -32.5410 -32.5395
   -32.5098 -32.5000 -32.4906 -32.4840 -32.4631 -32.4432 -32.4150 -32.4078
   -32.4062 -32.3812 -32.3690 -32.3357 -32.3326 -32.2977 -32.2896 -32.2546
   -32.2269 -32.1801 -32.1471 -32.1392 -32.1221 -32.1199 -32.0700 -32.0572
   -32.0441 -32.0280 -32.0011 -31.9918 -31.9829 -31.9541 -31.8813 -31.8765
   -18.1651  -4.6429  -4.4276  -4.1012  -2.9773  -2.8856  -1.8008  -1.6003
    -1.0501  -1.0339  -0.7862  -0.7832  -0.7285  -0.6218  -0.1449  -0.0979
    -0.0260   0.0102   0.0782   0.0869   0.3765   0.4221   0.4335   0.4608
     0.4906   0.5447   0.6401   0.6933   0.7740   0.8537   0.8545   0.9699
     1.0801   1.1306   1.2529   1.5133   1.5237

     the Fermi energy is     0.8430 ev

!    total energy              =   -1471.37277162 Ry
     Harris-Foulkes estimate   =   -1471.37277498 Ry
     estimated scf accuracy    <       0.00000305 Ry

     The total energy is the sum of the following terms:

     one-electron contribution =  -11477.71273728 Ry
     hartree contribution      =    5727.13469369 Ry
     xc contribution           =    -232.63502558 Ry
     ewald contribution        =    4511.96509804 Ry
     electric field correction =       0.00000016 Ry
     smearing contrib. (-TS)   =      -0.12480065 Ry

     convergence has been achieved in  31 iterations

 BEEF-vdW xc energy contributions
           1 :   -199.963524068149
           2 :    178.654666981763
           3 :   -143.662190222282
           4 :    106.068611084880
           5 :   -75.0164769086586
           6 :    54.1955693077191
           7 :   -41.8018345847380
           8 :    33.2486216376526
           9 :   -24.5440263571063
          10 :    14.3042890253765
          11 :   -3.64922158677260
          12 :   -5.39269207542779
          13 :    11.6011155878054
          14 :   -15.2886269380343
          15 :    17.7691674500622
          16 :   -20.1949681505988
          17 :    22.7005632314769
          18 :   -24.4406728152079
          19 :    24.3785963982081
          20 :   -22.1572447559712
          21 :    18.3895138043837
          22 :   -14.2130956479379
          23 :    10.5120413696861
          24 :   -7.41640105783776
          25 :    4.41093519297416
          26 :  -0.902522099067795
          27 :   -3.22559442110182
          28 :    7.47463216303041
          29 :   -11.0662646936719
          30 :    13.4596708258227
          31 :   -21.2551894456917
          32 :   -15.1201053721408

     Forces acting on atoms (Ry/au):

     negative rho (up, down):  8.339E-03 0.000E+00
     atom    1 type  1   force =    -0.00000840   -0.00001097    0.00670568
     atom    2 type  1   force =    -0.00000085    0.00118061    0.00919341
     atom    3 type  1   force =     0.00101843   -0.00057335    0.00921477
     atom    4 type  1   force =    -0.00101970   -0.00058041    0.00927102
     atom    5 type  1   force =     0.00481396   -0.00279157   -0.01042592
     atom    6 type  1   force =    -0.00483095   -0.00281248   -0.01041088
     atom    7 type  1   force =    -0.00001446    0.00002628   -0.00434457
     atom    8 type  1   force =     0.00000760    0.00558802   -0.01036964
     atom    9 type  1   force =     0.00001458   -0.00002597    0.00020234
     atom   10 type  1   force =    -0.00003145    0.00000133    0.00019748
     atom   11 type  1   force =     0.00001891    0.00009370    0.00014848
     atom   12 type  1   force =     0.00001121    0.00001679    0.00014520
     atom   13 type  2   force =     0.00002112   -0.00011198    0.00047263

     Total force =     0.027236     Total SCF correction =     0.008527
     SCF correction compared to forces is large: reduce conv_thr to get better values

     entering subroutine stress ...

     negative rho (up, down):  8.339E-03 0.000E+00
          total   stress  (Ry/bohr**3)                   (kbar)     P=    1.41
   0.00003085   0.00000004   0.00000002          4.54      0.01      0.00
   0.00000004   0.00003085   0.00000001          0.01      4.54      0.00
   0.00000002   0.00000001  -0.00003290          0.00      0.00     -4.84

 !ASE

     Writing output data file calc.save

     General routines

     Parallel routines

   This run was terminated on:   0:21:19  18Jan2018

   JOB DONE.
Job  /afs/slac/g/suncat/bin/suncat-tsmpirun -x LD_LIBRARY_PATH -wdir /scratch/qe842487_fZuL0 pw.x -in pw.inp

TID   HOST_NAME   COMMAND_LINE            STATUS            TERMINATION_TIME
00000 suncat0267 pw.x -in pw.inp   Done                     01/18/2018 00:21:19
00001 suncat0267 pw.x -in pw.inp   Done                     01/18/2018 00:21:19
00002 suncat0267 pw.x -in pw.inp   Done                     01/18/2018 00:21:19
00003 suncat0267 pw.x -in pw.inp   Done                     01/18/2018 00:21:19
00004 suncat0267 pw.x -in pw.inp   Done                     01/18/2018 00:21:19
00005 suncat0267 pw.x -in pw.inp   Done                     01/18/2018 00:21:19
00006 suncat0267 pw.x -in pw.inp   Done                     01/18/2018 00:21:19
00007 suncat0267 pw.x -in pw.inp   Done                     01/18/2018 00:21:19
00008 suncat0220 pw.x -in pw.inp   Done                     01/18/2018 00:21:19
00009 suncat0220 pw.x -in pw.inp   Done                     01/18/2018 00:21:19
00010 suncat0220 pw.x -in pw.inp   Done                     01/18/2018 00:21:19
00011 suncat0220 pw.x -in pw.inp   Done                     01/18/2018 00:21:19
00012 suncat0220 pw.x -in pw.inp   Done                     01/18/2018 00:21:19
00013 suncat0220 pw.x -in pw.inp   Done                     01/18/2018 00:21:19
00014 suncat0220 pw.x -in pw.inp   Done                     01/18/2018 00:21:19
00015 suncat0220 pw.x -in pw.inp   Done                     01/18/2018 00:21:19
00016 suncat0209 pw.x -in pw.inp   Done                     01/18/2018 00:21:19
00017 suncat0209 pw.x -in pw.inp   Done                     01/18/2018 00:21:19
00018 suncat0209 pw.x -in pw.inp   Done                     01/18/2018 00:21:19
00019 suncat0209 pw.x -in pw.inp   Done                     01/18/2018 00:21:19
00020 suncat0209 pw.x -in pw.inp   Done                     01/18/2018 00:21:19
00021 suncat0209 pw.x -in pw.inp   Done                     01/18/2018 00:21:19
00022 suncat0209 pw.x -in pw.inp   Done                     01/18/2018 00:21:19
00023 suncat0209 pw.x -in pw.inp   Done                     01/18/2018 00:21:19
00024 suncat0205 pw.x -in pw.inp   Done                     01/18/2018 00:21:19
00025 suncat0205 pw.x -in pw.inp   Done                     01/18/2018 00:21:19
00026 suncat0205 pw.x -in pw.inp   Done                     01/18/2018 00:21:19
00027 suncat0205 pw.x -in pw.inp   Done                     01/18/2018 00:21:19
00028 suncat0205 pw.x -in pw.inp   Done                     01/18/2018 00:21:19
00029 suncat0205 pw.x -in pw.inp   Done                     01/18/2018 00:21:19
00030 suncat0205 pw.x -in pw.inp   Done                     01/18/2018 00:21:19
00031 suncat0205 pw.x -in pw.inp   Done                     01/18/2018 00:21:19