     Program PWSCF v.5.1rc2 (svn rev. 11289) starts on  2May2018 at 17:36:11

     Current dimensions of program PWSCF are:
     Max number of different atomic species (ntypx) = 10
     Max number of k-points (npk) =  40000
     Max angular momentum in pseudopotentials (lmaxx) =  3
     Presently stress not available with electric field

     IMPORTANT: XC functional enforced from input :
     Exchange-correlation      = BEEF-VDW ( 1  4 27 13 2)
     Any further DFT definition will be discarded
     Please, verify this is what you really want

     Subspace diagonalization in iterative solution of the eigenvalue problem:
     a serial algorithm will be used

     bravais-lattice index     =            0
     lattice parameter (alat)  =       1.8897  a.u.
     unit-cell volume          =    4158.3597 (a.u.)^3
     number of atoms/cell      =           13
     number of atomic types    =            2
     number of electrons       =       161.00
     number of Kohn-Sham states=           90
     kinetic-energy cutoff     =      36.7493  Ry
     charge density cutoff     =     367.4932  Ry
     convergence threshold     =      1.0E-05
     mixing beta               =       0.3000
     number of iterations used =           10  plain     mixing
     Exchange-correlation      = BEEF-VDW ( 1  4 27 13 2)
     nstep                     =           50

     celldm(1)=   1.889726  celldm(2)=   0.000000  celldm(3)=   0.000000
     celldm(4)=   0.000000  celldm(5)=   0.000000  celldm(6)=   0.000000

     crystal axes: (cart. coord. in units of alat)
               a(1) = (   5.399178   0.000000   0.000000 )
               a(2) = (   2.699589   4.675825   0.000000 )
               a(3) = (   0.000000   0.000000  24.408411 )

     reciprocal axes: (cart. coord. in units 2 pi/alat)
               b(1) = (  0.185213 -0.106933  0.000000 )
               b(2) = (  0.000000  0.213866  0.000000 )
               b(3) = (  0.000000  0.000000  0.040969 )

     PseudoPot. # 1 for V  read from file:
     /u/if/mamunm/psp/gbrv1.5pbe/V.UPF
     MD5 check sum: 22b79981416ebb76fdaf5b1b8640f6fb
     Pseudo is Ultrasoft + core correction, Zval = 13.0
     Generated by new atomic code, or converted to UPF format
     Using radial grid of  853 points,  6 beta functions with:
                l(1) =   0
                l(2) =   0
                l(3) =   1
                l(4) =   1
                l(5) =   2
                l(6) =   2
     Q(r) pseudized with  8 coefficients,  rinner =    1.100   1.100   1.100
                                                       1.100   1.100

     PseudoPot. # 2 for N  read from file:
     /u/if/mamunm/psp/gbrv1.5pbe/N.UPF
     MD5 check sum: 95339753478d7afb44899504a8723017
     Pseudo is Ultrasoft + core correction, Zval =  5.0
     Generated by new atomic code, or converted to UPF format
     Using radial grid of  729 points,  4 beta functions with:
                l(1) =   0
                l(2) =   0
                l(3) =   1
                l(4) =   1
     Q(r) pseudized with  8 coefficients,  rinner =    0.900   0.900   0.900

     vdW kernel table read from file vdW_kernel_table
     MD5 check sum: 095c7af220d748ca6e76c0b4c6cfb241

     atomic species   valence    mass     pseudopotential
        V1            13.00    50.94150     V ( 1.00)
        N1             5.00    14.00700     N ( 1.00)

     No symmetry found

   Cartesian axes

     site n.     atom                  positions (alat units)
         1           V1  tau(   1) = (   1.3497945   0.7793042  10.0000000  )
         2           V1  tau(   2) = (   4.0493836   0.7793042  10.0000000  )
         3           V1  tau(   3) = (   2.6995891   3.1172170  10.0000000  )
         4           V1  tau(   4) = (   5.3991782   3.1172170  10.0000000  )
         5           V1  tau(   5) = (   5.3991782   1.5586085  12.2042053  )
         6           V1  tau(   6) = (   2.6995891   1.5586085  12.2042053  )
         7           V1  tau(   7) = (   6.7489727   3.8965212  12.2042053  )
         8           V1  tau(   8) = (   4.0493836   3.8965212  12.2042053  )
         9           V1  tau(   9) = (   0.0000000   0.0000000  14.4084105  )
        10           V1  tau(  10) = (   2.6995891   0.0000000  14.4084105  )
        11           V1  tau(  11) = (   1.3497945   2.3379127  14.4084105  )
        12           V1  tau(  12) = (   4.0493836   2.3379127  14.4084105  )
        13           N1  tau(  13) = (   0.0000000   0.0000000  16.3124105  )

     number of k points=    20  Fermi-Dirac smearing, width (Ry)=  0.0110
                       cart. coord. in units 2pi/alat
        k(    1) = (   0.0000000   0.0000000   0.0000000), wk =   0.0555556
        k(    2) = (   0.0000000   0.0356443   0.0000000), wk =   0.1111111
        k(    3) = (   0.0000000   0.0712887   0.0000000), wk =   0.1111111
        k(    4) = (   0.0000000  -0.1069330   0.0000000), wk =   0.0555556
        k(    5) = (   0.0308689  -0.0178222   0.0000000), wk =   0.1111111
        k(    6) = (   0.0308689   0.0178222   0.0000000), wk =   0.1111111
        k(    7) = (   0.0308689   0.0534665   0.0000000), wk =   0.1111111
        k(    8) = (   0.0308689  -0.1247552   0.0000000), wk =   0.1111111
        k(    9) = (   0.0308689  -0.0891108   0.0000000), wk =   0.1111111
        k(   10) = (   0.0308689  -0.0534665   0.0000000), wk =   0.1111111
        k(   11) = (   0.0617378  -0.0356443   0.0000000), wk =   0.1111111
        k(   12) = (   0.0617378   0.0000000   0.0000000), wk =   0.1111111
        k(   13) = (   0.0617378   0.0356443   0.0000000), wk =   0.1111111
        k(   14) = (   0.0617378  -0.1425773   0.0000000), wk =   0.1111111
        k(   15) = (   0.0617378  -0.1069330   0.0000000), wk =   0.1111111
        k(   16) = (   0.0617378  -0.0712887   0.0000000), wk =   0.1111111
        k(   17) = (  -0.0926067   0.0534665   0.0000000), wk =   0.0555556
        k(   18) = (  -0.0926067   0.0891108   0.0000000), wk =   0.1111111
        k(   19) = (  -0.0926067   0.1247552   0.0000000), wk =   0.1111111
        k(   20) = (  -0.0926067  -0.0534665   0.0000000), wk =   0.0555556

     Largest allocated arrays     est. size (Mb)     dimensions
     Largest temporary arrays     est. size (Mb)     dimensions

     Check: negative/imaginary core charge=   -0.000001    0.000000

     Initial potential from superposition of free atoms
     Check: negative starting charge=   -0.011649

     starting charge  160.98526, renormalised to  161.00000

     negative rho (up, down):  1.165E-02 0.000E+00

     *
     * You are using vdW-DF for exchange-correlation in this calculation.
     * Please cite the following three references that made this development
     * possible:
     *
     *   M. Dion, H. Rydberg, E. Schroder, D. C. Langreth, and
     *   B. I. Lundqvist, Phys. Rev. Lett. 92, 246401 (2004).
     *
     *   T. Thonhauser, V. R. Cooper, S. Li, A. Puzder, P. Hyldgaard, and
     *   D. C. Langreth, Phys. Rev. B 76, 125112 (2007).
     *
     *   G. Roman-Perez and J. M. Soler, Phys. Rev. Lett. 103, 096102 (2009).
     *
     *
     * If you are using vdW-DF2, please also cite:
     *
     *   K. Lee, E. D. Murray, L. Kong, B. I. Lundqvist, and
     *   D. C. Langreth, Phys. Rev. B 82, 081101(R) (2010).
     *
     *
     * If you are calculating the stress with vdW-DF, please also cite:
     *
     *   R. Sabatini, E. Kucukbenli, B. Kolb, T. Thonhauser, and
     *   S. de Gironcoli, J. Phys.: Condens. Matter 24, 424209 (2012).
     *

     Carrying out vdW-DF run using the following parameters:

     Nqs =      20    Nr_points =    1024   r_max =   100.000
     q_mesh =
               0.00001000     0.04494208     0.09755937     0.15916263
               0.23128650     0.31572767     0.41458969     0.53033537
               0.66584808     0.82450364     1.01025438     1.22772762
               1.48234092     1.78043706     2.12944203     2.53805004
               3.01644009     3.57652955     4.23227104     5.00000000

     Gradients computed in reciprocal space

     Adding external electric field

     Computed dipole along edir(3) :
        Dipole               -0.0035 Ry au,         -0.0089 Debye
        Dipole field         -0.0000 Ry au

        Potential amp.        0.0009 Ry
        Total length         44.9721 bohr

     Starting wfc are  124 randomized atomic wfcs

     Self-consistent Calculation

     iteration #  1     ecut=    36.75 Ry     beta=0.30
     Davidson diagonalization with overlap
     ethr =  1.00E-02,  avg # of iterations =  2.2

[...]

     total energy              =   -1763.87791144 Ry
     Harris-Foulkes estimate   =   -1769.71254854 Ry
     estimated scf accuracy    <      12.06003679 Ry

[...]

     iteration # 22     ecut=    36.75 Ry     beta=0.30
     Davidson diagonalization with overlap
     c_bands:  1 eigenvalues not converged
     ethr =  4.39E-06,  avg # of iterations =  7.0

[...]

     End of self-consistent calculation

          k = 0.0000 0.0000 0.0000 ( 15569 PWs)   bands (ev):

   -63.9027 -63.8249 -63.8010 -63.8007 -63.7518 -63.7276 -63.7007 -63.7000
   -63.6676 -63.6649 -63.6645 -63.5701 -37.9665 -37.9662 -37.9498 -37.9360
   -37.9171 -37.9171 -37.8867 -37.8290 -37.8289 -37.8265 -37.7043 -37.6700
   -37.6698 -37.5427 -37.5400 -37.5397 -37.5214 -37.4703 -37.4521 -37.4518
   -37.4076 -37.4054 -37.4049 -37.4010 -37.3571 -37.3570 -37.3158 -37.3138
   -37.3137 -37.2865 -37.2860 -37.2860 -37.2350 -37.2350 -37.1943 -37.1942
   -11.5247  -5.6291  -4.0335  -2.9769  -2.6547  -2.6546  -2.6041  -2.4079
    -2.3612  -2.3611  -1.8996  -1.8996  -1.8993  -1.8758  -1.8702  -1.8702
    -1.3821  -1.3820  -1.0405  -0.8706  -0.4205  -0.4205  -0.0503   0.0886
     0.2752   0.2752   0.2949   0.5102   0.5842   0.5842   0.6784   0.6785
     0.7470   0.7470   0.8118   0.8637   0.8639   0.8719   0.8719   1.0807
     1.3484   1.6505

[...]

          k =-0.0926 0.0535 0.0000 ( 15660 PWs)   bands (ev):

[...]

     the Fermi energy is     0.4359 ev

!    total energy              =   -1769.07666440 Ry
     Harris-Foulkes estimate   =   -1769.07665322 Ry
     estimated scf accuracy    <       0.00000617 Ry

     The total energy is the sum of the following terms:

     one-electron contribution =  -15202.48709898 Ry
     hartree contribution      =    7587.59859561 Ry
     xc contribution           =    -249.47948329 Ry
     ewald contribution        =    6095.43369550 Ry
     electric field correction =       0.00064820 Ry
     smearing contrib. (-TS)   =      -0.14302145 Ry

     convergence has been achieved in  33 iterations

 BEEF-vdW xc energy contributions
           1 :   -214.892960281914
           2 :    192.703153440068
           3 :   -156.137257194361
           4 :    116.748835771448
           5 :   -84.4987462680082
           6 :    64.0502122353832
           7 :   -54.2199048984274
           8 :    50.2251295434108
           9 :   -47.0394771102266
          10 :    41.9296120096180
          11 :   -35.0956626172439
          12 :    28.5392969618326
          13 :   -24.1983662629145
          14 :    22.5741220816990
          15 :   -22.5823913289951
          16 :    22.4862063033321
          17 :   -21.1225513882842
          18 :    18.5674773191303
          19 :   -15.8778796391179
          20 :    14.2028463318752
          21 :   -13.9497486085400
          22 :    14.5644467203455
          23 :   -15.0032193473822
          24 :    14.4926214486026
          25 :   -13.0277076351142
          26 :    11.2938446345550
          27 :   -10.1265651682768
          28 :    9.92236038986448
          29 :   -10.4050903383490
          30 :    10.8729166931660
          31 :   -22.3369143894678
          32 :   -16.0816589518000

     Forces acting on atoms (Ry/au):

     negative rho (up, down):  1.555E-02 0.000E+00
     atom    1 type  1   force =    -0.00000839   -0.00001976   -0.00193803
     atom    2 type  1   force =     0.00000027   -0.00000245   -0.00195315
     atom    3 type  1   force =     0.00002190    0.00001100   -0.00189548
     atom    4 type  1   force =    -0.00001025    0.00000786   -0.00114349
     atom    5 type  1   force =    -0.00000777    0.00743380   -0.00616650
     atom    6 type  1   force =     0.00001000   -0.00002685    0.01144043
     atom    7 type  1   force =    -0.00645528   -0.00369917   -0.00612125
     atom    8 type  1   force =     0.00645423   -0.00370521   -0.00610049
     atom    9 type  1   force =     0.00001432   -0.00000899    0.17210492
     atom   10 type  1   force =    -0.00001101    0.00212674    0.01078810
     atom   11 type  1   force =     0.00183473   -0.00106262    0.01076846
     atom   12 type  1   force =    -0.00184321   -0.00105227    0.01079685
     atom   13 type  2   force =     0.00000046   -0.00000208   -0.19058038

     Total force =     0.257495     Total SCF correction =     0.010422

     entering subroutine stress ...

     negative rho (up, down):  1.555E-02 0.000E+00
          total   stress  (Ry/bohr**3)                   (kbar)     P=  -25.89
  -0.00018425   0.00000001  -0.00000000        -27.10      0.00     -0.00
   0.00000001  -0.00018423  -0.00000001          0.00    -27.10     -0.00
  -0.00000000  -0.00000001  -0.00015960         -0.00     -0.00    -23.48

     BFGS Geometry Optimization

     number of scf cycles    =   1
     number of bfgs steps    =   0

     energy   new            =   -1769.0766644021 Ry

     new trust radius        =       0.1905803833 bohr
     new conv_thr            =       0.0000099958 Ry

ATOMIC_POSITIONS (crystal)
V1       0.166666667   0.166666667   0.409694847    0   0   0
V1       0.666666667   0.166666667   0.409694847    0   0   0
V1       0.166666667   0.666666667   0.409694847    0   0   0
V1       0.666666667   0.666666667   0.409694847    0   0   0
V1       0.833333333   0.333333333   0.500000000    0   0   0
V1       0.333333333   0.333333333   0.500000000    0   0   0
V1       0.833333333   0.833333333   0.500000000    0   0   0
V1       0.333333333   0.833333333   0.500000000    0   0   0
V1       0.000001912  -0.000001017   0.594036408
V1       0.499878576   0.000240690   0.590539041
V1       0.000239954   0.499879740   0.590538615
V1       0.499878890   0.499880911   0.590539230
N1       0.000000162  -0.000000235   0.664179247

     Writing output data file calc.save
     Check: negative starting charge=   -0.011649
     NEW-OLD atomic charge density approx. for the potential

     Check: negative/imaginary core charge=   -0.000001    0.000000
     Check: negative starting charge=   -0.011649

[...]

     Total force =     0.103825     Total SCF correction =     0.011493
     SCF correction compared to forces is large: reduce conv_thr to get better values

[...]

     energy   old            =   -1769.0766644021 Ry
     energy   new            =   -1769.1267042247 Ry

     CASE: energy  _new < energy  _old

[...]

     CASE: energy  _new > energy  _old

[...]

     iteration #  5     ecut=    36.75 Ry     beta=0.30
     Davidson diagonalization with overlap
     c_bands:  1 eigenvalues not converged
     ethr =  2.04E-07,  avg # of iterations =  8.7

[...]

     WARNING: bfgs curvature condition failed, Theta= 0.926
     new trust radius        =       0.0262567100 bohr
     new conv_thr            =       0.0000001000 Ry

[...]

     Total force =     0.011691     Total SCF correction =     0.000882

[...]

     number of scf cycles    =   9
     number of bfgs steps    =   7

     energy   old            =   -1769.1346282771 Ry
     energy   new            =   -1769.1353087891 Ry

     CASE: energy  _new < energy  _old

     new trust radius        =       0.0200988060 bohr
     new conv_thr            =       0.0000001000 Ry

ATOMIC_POSITIONS (crystal)
V1       0.166666667   0.166666667   0.409694847    0   0   0
V1       0.666666667   0.166666667   0.409694847    0   0   0
V1       0.166666667   0.666666667   0.409694847    0   0   0
V1       0.666666667   0.666666667   0.409694847    0   0   0
V1       0.833333333   0.333333333   0.500000000    0   0   0
V1       0.333333333   0.333333333   0.500000000    0   0   0
V1       0.833333333   0.833333333   0.500000000    0   0   0
V1       0.333333333   0.833333333   0.500000000    0   0   0
V1      -0.000003653   0.000002035   0.589924172
V1       0.496736211   0.006528317   0.591496820
V1       0.006527449   0.496735802   0.591494217
V1       0.496737360   0.496734619   0.591495978
N1       0.000000269  -0.000000472   0.657376432

     Writing output data file calc.save
     Check: negative starting charge=   -0.010699
     NEW-OLD atomic charge density approx. for the potential

     Check: negative/imaginary core charge=   -0.000001    0.000000
     Check: negative starting charge=   -0.010584

[...]

     Self-consistent Calculation

[...]

     total energy              =   -1769.13534365 Ry
     Harris-Foulkes estimate   =   -1769.13534367 Ry
     estimated scf accuracy    <       0.00000027 Ry

     iteration # 20     ecut=    36.75 Ry     beta=0.30
     Davidson diagonalization with overlap
     ethr =  7.84E-11,  avg # of iterations =  1.3

[...]

     negative rho (up, down):  1.465E-02 0.000E+00

     Adding external electric field

     Computed dipole along edir(3) :
        Dipole               -0.2676 Ry au,         -0.6801 Debye
        Dipole field         -0.0008 Ry au

        Potential amp.        0.0727 Ry
        Total length         44.9721 bohr

     End of self-consistent calculation

[...]

          k = 0.0617-0.0713 0.0000 ( 15642 PWs)   bands (ev):

[...]

          k =-0.0926-0.0535 0.0000 ( 15660 PWs)   bands (ev):

   -63.5935 -63.5607 -63.5289 -63.5179 -63.4998 -63.4576 -63.4376 -63.4375
   -63.4363 -63.3997 -63.3971 -63.1778 -37.6050 -37.5883 -37.5697 -37.5656
   -37.5492 -37.5256 -37.4720 -37.4623 -37.4573 -37.4534 -37.4250 -37.3879
   -37.3770 -37.3451 -37.2995 -37.2936 -37.2869 -37.2542 -37.2318 -37.2203
   -37.2130 -37.2042 -37.2007 -37.1983 -37.1726 -37.1303 -37.1230 -37.1081
   -37.1072 -37.0799 -37.0632 -37.0517 -36.9924 -36.9891 -36.9779 -36.8994
   -11.7172  -3.6726  -3.6447  -2.6235  -2.3293  -2.1877  -2.0256  -1.8581
    -1.6405  -1.6208  -1.5385  -1.4939  -1.3411  -1.1946  -0.8589  -0.7913
    -0.7543  -0.7343  -0.6424  -0.5206  -0.2525  -0.2465  -0.1955  -0.1905
    -0.0827   0.0142   0.1230   0.2327   0.2599   0.2988   0.4143   0.4923
     0.5529   0.6259   0.6608   0.7491   0.8643   0.8841   0.8920   1.0666
     1.3226   1.4116

     the Fermi energy is     0.7042 ev

!    total energy              =   -1769.13534357 Ry
     Harris-Foulkes estimate   =   -1769.13534546 Ry
     estimated scf accuracy    <       0.00000010 Ry

     The total energy is the sum of the following terms:

     one-electron contribution =  -15242.33478662 Ry
     hartree contribution      =    7608.94173339 Ry
     xc contribution           =    -249.72197559 Ry
     ewald contribution        =    6114.12122920 Ry
     electric field correction =       0.00021634 Ry
     smearing contrib. (-TS)   =      -0.14176030 Ry

     convergence has been achieved in  20 iterations

 BEEF-vdW xc energy contributions
           1 :   -215.129626572900
           2 :    192.974171770548
           3 :   -156.442763286989
           4 :    117.054348679396
           5 :   -84.7536231051181
           6 :    64.2089454011471
           7 :   -54.2641111795772
           8 :    50.1753451538309
           9 :   -46.9463797991155
          10 :    41.8483447063668
          11 :   -35.0582718418669
          12 :    28.5419589293933
          13 :   -24.2104204513225
          14 :    22.5596165744494
          15 :   -22.5189762485565
          16 :    22.3740205640297
          17 :   -20.9826843732303
          18 :    18.4315503451633
          19 :   -15.7733654869589
          20 :    14.1417401293942
          21 :   -13.9261111196107
          22 :    14.5614594955852
          23 :   -15.0043867957543
          24 :    14.4895800237269
          25 :   -13.0212227654341
          26 :    11.2896397070905
          27 :   -10.1293254783921
          28 :    9.93169111375042
          29 :   -10.4159683360805
          30 :    10.8786962001281
          31 :   -22.3505815967035
          32 :   -16.1014879785648

     Forces acting on atoms (Ry/au):

     negative rho (up, down):  1.465E-02 0.000E+00
     atom    1 type  1   force =    -0.00026842   -0.00015246   -0.00272849
     atom    2 type  1   force =     0.00026755   -0.00015223   -0.00272914
     atom    3 type  1   force =    -0.00000039    0.00030762   -0.00272850
     atom    4 type  1   force =    -0.00000088   -0.00000143   -0.00218395
     atom    5 type  1   force =    -0.00000746    0.01506336   -0.00187965
     atom    6 type  1   force =     0.00000918   -0.00000624    0.01619650
     atom    7 type  1   force =    -0.01304901   -0.00752418   -0.00188005
     atom    8 type  1   force =     0.01304666   -0.00753216   -0.00186449
     atom    9 type  1   force =     0.00000235   -0.00000008   -0.00084574
     atom   10 type  1   force =    -0.00000176   -0.00183468    0.00028390
     atom   11 type  1   force =    -0.00158592    0.00091491    0.00027622
     atom   12 type  1   force =     0.00158811    0.00091789    0.00028152
     atom   13 type  2   force =    -0.00000003   -0.00000032   -0.00019812

     Total force =     0.003328     Total SCF correction =     0.000939
     SCF correction compared to forces is large: reduce conv_thr to get better values

     entering subroutine stress ...

     negative rho (up, down):  1.465E-02 0.000E+00
          total   stress  (Ry/bohr**3)                   (kbar)     P=  -16.49
  -0.00016973   0.00000001  -0.00000000        -24.97      0.00     -0.00
   0.00000001  -0.00016972   0.00000000          0.00    -24.97      0.00
  -0.00000000   0.00000000   0.00000316         -0.00      0.00      0.46

     bfgs converged in  10 scf cycles and   8 bfgs steps
     (criteria: energy <  1.0E+00, force <  1.9E-03)

     End of BFGS Geometry Optimization

     Final energy   =   -1769.1353435667 Ry
Begin final coordinates

ATOMIC_POSITIONS (crystal)
V1       0.166666667   0.166666667   0.409694847    0   0   0
V1       0.666666667   0.166666667   0.409694847    0   0   0
V1       0.166666667   0.666666667   0.409694847    0   0   0
V1       0.666666667   0.666666667   0.409694847    0   0   0
V1       0.833333333   0.333333333   0.500000000    0   0   0
V1       0.333333333   0.333333333   0.500000000    0   0   0
V1       0.833333333   0.833333333   0.500000000    0   0   0
V1       0.333333333   0.833333333   0.500000000    0   0   0
V1      -0.000003653   0.000002035   0.589924172
V1       0.496736211   0.006528317   0.591496820
V1       0.006527449   0.496735802   0.591494217
V1       0.496737360   0.496734619   0.591495978
N1       0.000000269  -0.000000472   0.657376432
End final coordinates

     Writing output data file calc.save

     General routines

     Parallel routines

   This run was terminated on:  19: 4:56   2May2018

   JOB DONE.
Job  /afs/slac/g/suncat/bin/suncat-tsmpirun -x LD_LIBRARY_PATH -wdir /scratch/qe815855_3jR1e pw.x -npool 4 -in pw.inp

TID   HOST_NAME   COMMAND_LINE            STATUS            TERMINATION_TIME
00000 suncat0188 pw.x -npool 4 -i  Done                     05/02/2018 19:04:56
00001 suncat0188 pw.x -npool 4 -i  Done                     05/02/2018 19:04:56
00002 suncat0188 pw.x -npool 4 -i  Done                     05/02/2018 19:04:56
00003 suncat0188 pw.x -npool 4 -i  Done                     05/02/2018 19:04:56
00004 suncat0188 pw.x -npool 4 -i  Done                     05/02/2018 19:04:56
00005 suncat0188 pw.x -npool 4 -i  Done                     05/02/2018 19:04:56
00006 suncat0188 pw.x -npool 4 -i  Done                     05/02/2018 19:04:56
00007 suncat0188 pw.x -npool 4 -i  Done                     05/02/2018 19:04:56
00008 suncat0147 pw.x -npool 4 -i  Done                     05/02/2018 19:04:56
00009 suncat0147 pw.x -npool 4 -i  Done                     05/02/2018 19:04:56
00010 suncat0147 pw.x -npool 4 -i  Done                     05/02/2018 19:04:56
00011 suncat0147 pw.x -npool 4 -i  Done                     05/02/2018 19:04:56
00012 suncat0147 pw.x -npool 4 -i  Done                     05/02/2018 19:04:56
00013 suncat0147 pw.x -npool 4 -i  Done                     05/02/2018 19:04:56
00014 suncat0147 pw.x -npool 4 -i  Done                     05/02/2018 19:04:56
00015 suncat0147 pw.x -npool 4 -i  Done                     05/02/2018 19:04:56
00016 suncat0239 pw.x -npool 4 -i  Done                     05/02/2018 19:04:56
00017 suncat0239 pw.x -npool 4 -i  Done                     05/02/2018 19:04:56
00018 suncat0239 pw.x -npool 4 -i  Done                     05/02/2018 19:04:56
00019 suncat0239 pw.x -npool 4 -i  Done                     05/02/2018 19:04:56
00020 suncat0239 pw.x -npool 4 -i  Done                     05/02/2018 19:04:56
00021 suncat0239 pw.x -npool 4 -i  Done                     05/02/2018 19:04:56
00022 suncat0239 pw.x -npool 4 -i  Done                     05/02/2018 19:04:56
00023 suncat0239 pw.x -npool 4 -i  Done                     05/02/2018 19:04:56
00024 suncat0221 pw.x -npool 4 -i  Done                     05/02/2018 19:04:56
00025 suncat0221 pw.x -npool 4 -i  Done                     05/02/2018 19:04:56
00026 suncat0221 pw.x -npool 4 -i  Done                     05/02/2018 19:04:56
00027 suncat0221 pw.x -npool 4 -i  Done                     05/02/2018 19:04:56
00028 suncat0221 pw.x -npool 4 -i  Done                     05/02/2018 19:04:56
00029 suncat0221 pw.x -npool 4 -i  Done                     05/02/2018 19:04:56
00030 suncat0221 pw.x -npool 4 -i  Done                     05/02/2018 19:04:56
00031 suncat0221 pw.x -npool 4 -i  Done                     05/02/2018 19:04:56