     Program PWSCF v.5.1rc2 (svn rev. 11289) starts on 23Apr2018 at  8:36: 5

     Current dimensions of program PWSCF are:
     Max number of different atomic species (ntypx) = 10
     Max number of k-points (npk) =  40000
     Max angular momentum in pseudopotentials (lmaxx) =  3
     Presently stress not available with electric field

     IMPORTANT: XC functional enforced from input :
     Exchange-correlation      = BEEF-VDW ( 1  4 27 13 2)
     Any further DFT definition will be discarded
     Please, verify this is what you really want

     Subspace diagonalization in iterative solution of the eigenvalue problem:
     a serial algorithm will be used

     bravais-lattice index     =            0
     lattice parameter (alat)  =       1.8897  a.u.
     unit-cell volume          =    5185.0501 (a.u.)^3
     number of atoms/cell      =           14
     number of atomic types    =            3
     number of electrons       =       162.00
     number of Kohn-Sham states=           91
     kinetic-energy cutoff     =      36.7493  Ry
     charge density cutoff     =     367.4932  Ry
     convergence threshold     =      1.0E-05
     mixing beta               =       0.3000
     number of iterations used =           10  plain     mixing
     Exchange-correlation      = BEEF-VDW ( 1  4 27 13 2)
     nstep                     =           50

     celldm(1)=   1.889726  celldm(2)=   0.000000  celldm(3)=   0.000000
     celldm(4)=   0.000000  celldm(5)=   0.000000  celldm(6)=   0.000000

     crystal axes: (cart. coord. in units of alat)
               a(1) = (   5.972022   0.000000   0.000000 )
               a(2) = (   2.986011   5.171923   0.000000 )
               a(3) = (   0.000000   0.000000  24.876136 )

     reciprocal axes: (cart. coord. in units 2 pi/alat)
               b(1) = (  0.167447 -0.096676  0.000000 )
               b(2) = (  0.000000  0.193352  0.000000 )
               b(3) = (  0.000000  0.000000  0.040199 )

     PseudoPot. # 1 for Ta read from file:
     /u/if/mamunm/psp/gbrv1.5pbe/Ta.UPF
     MD5 check sum: f8bbe9446314a3b8ea5d9f3e3836c939
     Pseudo is Ultrasoft + core correction, Zval = 13.0
     Generated by new atomic code, or converted to UPF format
     Using radial grid of  921 points,  7 beta functions with:
                l(1) =   0
                l(2) =   0
                l(3) =   1
                l(4) =   1
                l(5) =   2
                l(6) =   2
                l(7) =   3
     Q(r) pseudized with  6 coefficients,  rinner =    1.300   1.300   1.300
                                                       1.300   1.300   1.300
                                                       1.300

     PseudoPot. # 2 for N  read from file:
     /u/if/mamunm/psp/gbrv1.5pbe/N.UPF
     MD5 check sum: 95339753478d7afb44899504a8723017
     Pseudo is Ultrasoft + core correction, Zval =  5.0
     Generated by new atomic code, or converted to UPF format
     Using radial grid of  729 points,  4 beta functions with:
                l(1) =   0
                l(2) =   0
                l(3) =   1
                l(4) =   1
     Q(r) pseudized with  8 coefficients,  rinner =    0.900   0.900   0.900

     PseudoPot. # 3 for H  read from file:
     /u/if/mamunm/psp/gbrv1.5pbe/H.UPF
     MD5 check sum: 761ae9a214b05c3daf00ab9f6b793d6f
     Pseudo is Ultrasoft, Zval =  1.0
     Generated by new atomic code, or converted to UPF format
     Using radial grid of  615 points,  2 beta functions with:
                l(1) =   0
                l(2) =   0
     Q(r) pseudized with  8 coefficients,  rinner =    0.700

     vdW kernel table read from file vdW_kernel_table
     MD5 check sum: 095c7af220d748ca6e76c0b4c6cfb241

     atomic species   valence    mass     pseudopotential
        Ta1           13.00   180.94788     Ta( 1.00)
        N1             5.00    14.00700     N ( 1.00)
        H1             1.00     1.00800     H ( 1.00)

     No symmetry found

   Cartesian axes

     site n.     atom                  positions (alat units)
         1           Ta1 tau(   1) = (   1.4930055   0.8619871  10.0000000  )
         2           Ta1 tau(   2) = (   4.4790165   0.8619871  10.0000000  )
         3           Ta1 tau(   3) = (   2.9860110   3.4479485  10.0000000  )
         4           Ta1 tau(   4) = (   5.9720221   3.4479485  10.0000000  )
         5           Ta1 tau(   5) = (   5.9720221   1.7239743  12.4380678  )
         6           Ta1 tau(   6) = (   2.9860110   1.7239743  12.4380678  )
         7           Ta1 tau(   7) = (   7.4650276   4.3099357  12.4380678  )
         8           Ta1 tau(   8) = (   4.4790165   4.3099357  12.4380678  )
         9           Ta1 tau(   9) = (   0.0000000   0.0000000  14.8761356  )
        10           Ta1 tau(  10) = (   2.9860110   0.0000000  14.8761356  )
        11           Ta1 tau(  11) = (   1.4930055   2.5859614  14.8761356  )
        12           Ta1 tau(  12) = (   4.4790165   2.5859614  14.8761356  )
        13           N1  tau(  13) = (   2.9860110   1.7239743  16.4426356  )
        14           H1  tau(  14) = (   2.9860110   1.7239743  17.4926356  )

     number of k points=    20  Fermi-Dirac smearing, width (Ry)=  0.0110
                       cart. coord. in units 2pi/alat
        k(    1) = (   0.0000000   0.0000000   0.0000000), wk =   0.0555556
        k(    2) = (   0.0000000   0.0322253   0.0000000), wk =   0.1111111
        k(    3) = (   0.0000000   0.0644506   0.0000000), wk =   0.1111111
        k(    4) = (   0.0000000  -0.0966758   0.0000000), wk =   0.0555556
        k(    5) = (   0.0279079  -0.0161126   0.0000000), wk =   0.1111111
        k(    6) = (   0.0279079   0.0161126   0.0000000), wk =   0.1111111
        k(    7) = (   0.0279079   0.0483379   0.0000000), wk =   0.1111111
        k(    8) = (   0.0279079  -0.1127885   0.0000000), wk =   0.1111111
        k(    9) = (   0.0279079  -0.0805632   0.0000000), wk =   0.1111111
        k(   10) = (   0.0279079  -0.0483379   0.0000000), wk =   0.1111111
        k(   11) = (   0.0558158  -0.0322253   0.0000000), wk =   0.1111111
        k(   12) = (   0.0558158   0.0000000   0.0000000), wk =   0.1111111
        k(   13) = (   0.0558158   0.0322253   0.0000000), wk =   0.1111111
        k(   14) = (   0.0558158  -0.1289011   0.0000000), wk =   0.1111111
        k(   15) = (   0.0558158  -0.0966758   0.0000000), wk =   0.1111111
        k(   16) = (   0.0558158  -0.0644506   0.0000000), wk =   0.1111111
        k(   17) = (  -0.0837237   0.0483379   0.0000000), wk =   0.0555556
        k(   18) = (  -0.0837237   0.0805632   0.0000000), wk =   0.1111111
        k(   19) = (  -0.0837237   0.1127885   0.0000000), wk =   0.1111111
        k(   20) = (  -0.0837237  -0.0483379   0.0000000), wk =   0.0555556

     Largest allocated arrays     est. size (Mb)     dimensions
     Largest temporary arrays     est. size (Mb)     dimensions

     Initial potential from superposition of free atoms
     Check: negative starting charge=   -1.121572

     starting charge  161.98664, renormalised to  162.00000

     negative rho (up, down):  1.122E+00 0.000E+00

     *
     * You are using vdW-DF for exchange-correlation in this calculation.
     * Please cite the following three references that made this development
     * possible:
     *
     *   M. Dion, H. Rydberg, E. Schroder, D. C. Langreth, and
     *   B. I. Lundqvist, Phys. Rev. Lett. 92, 246401 (2004).
     *
     *   T. Thonhauser, V. R. Cooper, S. Li, A. Puzder, P. Hyldgaard, and
     *   D. C. Langreth, Phys. Rev. B 76, 125112 (2007).
     *
     *   G. Roman-Perez and J. M. Soler, Phys. Rev. Lett. 103, 096102 (2009).
     *
     *
     * If you are using vdW-DF2, please also cite:
     *
     *   K. Lee, E. D. Murray, L. Kong, B. I. Lundqvist, and
     *   D. C. Langreth, Phys. Rev. B 82, 081101(R) (2010).
     *
     *
     * If you are calculating the stress with vdW-DF, please also cite:
     *
     *   R. Sabatini, E. Kucukbenli, B. Kolb, T. Thonhauser, and
     *   S. de Gironcoli, J. Phys.: Condens. Matter 24, 424209 (2012).
     *

     Carrying out vdW-DF run using the following parameters:

     Nqs =      20    Nr_points =    1024   r_max =   100.000
     q_mesh =
               0.00001000     0.04494208     0.09755937     0.15916263
               0.23128650     0.31572767     0.41458969     0.53033537
               0.66584808     0.82450364     1.01025438     1.22772762
               1.48234092     1.78043706     2.12944203     2.53805004
               3.01644009     3.57652955     4.23227104     5.00000000

     Gradients computed in reciprocal space

     Adding external electric field

     Computed dipole along edir(3) :
        Dipole               -0.0038 Ry au,         -0.0096 Debye
        Dipole field         -0.0000 Ry au

        Potential amp.        0.0008 Ry
        Total length         45.8339 bohr

     Starting wfc are  161 randomized atomic wfcs

     Self-consistent Calculation

     iteration #  1     ecut=    36.75 Ry     beta=0.30
     Davidson diagonalization with overlap
     ethr =  1.00E-02,  avg # of iterations =  2.0

[...]

     total energy              =   -1738.00164812 Ry
     Harris-Foulkes estimate   =   -1740.45312599 Ry
     estimated scf accuracy    <       5.34203539 Ry

[...]

     End of self-consistent calculation

          k = 0.0000 0.0000 0.0000 ( 19447 PWs)   bands (ev):

   -66.0675 -66.0161 -66.0161 -65.9902 -65.9838 -65.9333 -65.9333 -65.9263
   -65.8928 -65.8475 -65.8410 -65.8409 -32.7799 -32.7547 -32.7547 -32.7023
   -32.6936 -32.6936 -32.6871 -32.6359 -32.6350 -32.6349 -32.4500 -32.3456
   -32.3456 -32.3443 -32.2692 -32.2692 -32.2663 -32.1853 -32.1743 -32.1743
   -32.0922 -32.0868 -32.0868 -32.0481 -32.0407 -32.0406 -31.9969 -31.9876
   -31.9876 -31.9855 -31.9791 -31.9791 -31.9043 -31.9043 -31.8368 -31.8368
   -12.5827  -5.2890  -4.4550  -3.1739  -2.3474  -1.9495  -1.9495  -1.7689
    -1.6534  -1.6534  -1.3437  -1.1250  -1.1250  -0.6587  -0.6587  -0.6503
    -0.5095  -0.1454  -0.1454   0.7745   0.7745   0.8016   1.6516   1.8937
     1.8937   2.0352   2.2415   2.3025   2.5062   2.5193   2.5193   2.7136
     2.7136   2.9165   2.9604   2.9604   3.0531   3.0843   3.0844   3.1579
     3.1579   3.5084   3.5084

[...]

          k =-0.0837 0.0483 0.0000 ( 19532 PWs)   bands (ev):

[...]

     the Fermi energy is     2.3302 ev

!    total energy              =   -1739.93417898 Ry
     Harris-Foulkes estimate   =   -1739.93417129 Ry
     estimated scf accuracy    <       0.00000680 Ry

     The total energy is the sum of the following terms:

     one-electron contribution =  -11743.68497655 Ry
     hartree contribution      =    5858.05437267 Ry
     xc contribution           =    -529.00415686 Ry
     ewald contribution        =    4674.80578390 Ry
     electric field correction =       0.00013314 Ry
     smearing contrib. (-TS)   =      -0.10533529 Ry

     convergence has been achieved in  13 iterations

 BEEF-vdW xc energy contributions
           1 :   -465.588200056280
           2 :    429.626800135540
           3 :   -366.883731391701
           4 :    291.902188787177
           5 :   -219.237595225934
           6 :    158.995842652269
           7 :   -114.829955118277
           8 :    84.7595701253538
           9 :   -63.9137710045738
          10 :    47.5832932424925
          11 :   -33.1536875816815
          12 :    20.3367091803953
          13 :   -10.1013488567688
          14 :    3.25708237056028
          15 :   0.426911146795362
          16 :   -2.18971901885510
          17 :    3.55004314713449
          18 :   -5.46007195320317
          19 :    7.88247704520484
          20 :   -10.0006578170663
          21 :    10.8753297867231
          22 :   -10.1188927897963
          23 :    8.18133664265775
          24 :   -6.10222117018731
          25 :    4.91142719254071
          26 :   -5.05990486743144
          27 :    6.21503408064160
          28 :   -7.51730282314935
          29 :    8.11517380136104
          30 :   -7.64274710281160
          31 :   -41.7270928129825
          32 :   -30.9444368411097

     Forces acting on atoms (Ry/au):

     negative rho (up, down):  1.177E+00 0.000E+00
     atom    1 type  1   force =    -0.00043532   -0.00026030    0.00409041
     atom    2 type  1   force =     0.00043421   -0.00025720    0.00407829
     atom    3 type  1   force =     0.00000430    0.00051140    0.00409185
     atom    4 type  1   force =    -0.00000134    0.00000457    0.00244915
     atom    5 type  1   force =     0.00000573    0.00091706   -0.00485694
     atom    6 type  1   force =    -0.00000901    0.00000854    0.00520288
     atom    7 type  1   force =    -0.00079023   -0.00046497   -0.00485930
     atom    8 type  1   force =     0.00078914   -0.00046017   -0.00485946
     atom    9 type  1   force =     0.00000460   -0.00000613   -0.04342977
     atom   10 type  1   force =    -0.00000396    0.00826705    0.06407247
     atom   11 type  1   force =     0.00716779   -0.00413266    0.06408135
     atom   12 type  1   force =    -0.00716581   -0.00412779    0.06407652
     atom   13 type  2   force =     0.00000013    0.00000075   -0.10522698
     atom   14 type  3   force =    -0.00000023   -0.00000013   -0.04891045

     Total force =     0.166954     Total SCF correction =     0.004867

     entering subroutine stress ...

     negative rho (up, down):  1.177E+00 0.000E+00
          total   stress  (Ry/bohr**3)                   (kbar)     P=  -37.63
  -0.00029741   0.00000001   0.00000000        -43.75      0.00      0.00
   0.00000001  -0.00029741   0.00000000          0.00    -43.75      0.00
   0.00000000   0.00000000  -0.00017256          0.00      0.00    -25.38

     BFGS Geometry Optimization

     number of scf cycles    =   1
     number of bfgs steps    =   0

     energy   new            =   -1739.9341789821 Ry

     new trust radius        =       0.1052269837 bohr
     new conv_thr            =       0.0000099958 Ry

ATOMIC_POSITIONS (crystal)
Ta1      0.166666667   0.166666667   0.401991699    0   0   0
Ta1      0.666666667   0.166666667   0.401991699    0   0   0
Ta1      0.166666667   0.666666667   0.401991699    0   0   0
Ta1      0.666666667   0.666666667   0.401991699    0   0   0
Ta1      0.833333333   0.333333333   0.500000000    0   0   0
Ta1      0.333333333   0.333333333   0.500000000    0   0   0
Ta1      0.833333333   0.833333333   0.500000000    0   0   0
Ta1      0.333333333   0.833333333   0.500000000    0   0   0
Ta1      0.000000722  -0.000000628   0.597084442
Ta1      0.499576718   0.000845862   0.599371282
Ta1      0.000846554   0.499577157   0.599371471
Ta1      0.499576215   0.499577655   0.599371368
N1       0.333333306   0.333333410   0.658741862
H1       0.333333319   0.333333320   0.702148982

     Writing output data file calc.save
     Check: negative starting charge=   -1.121572
     NEW-OLD atomic charge density approx. for the potential
     Check: negative starting charge=   -1.119663

[...]

     energy   old            =   -1739.9341789821 Ry
     energy   new            =   -1739.9583071494 Ry

     CASE: energy  _new < energy  _old

[...]

     Threshold (ethr) on eigenvalues was too large:
     Diagonalizing with lowered threshold

     Davidson diagonalization with overlap
     ethr =  5.79E-08,  avg # of iterations =  2.1

[...]

     Total force =     0.008443     Total SCF correction =     0.000210

[...]

     Total force =     0.003966     Total SCF correction =     0.000650
     SCF correction compared to forces is large: reduce conv_thr to get better values

[...]

     number of scf cycles    =  14
     number of bfgs steps    =  13

     energy   old            =   -1740.0145946465 Ry
     energy   new            =   -1740.0146947461 Ry

     CASE: energy  _new < energy  _old

     new trust radius        =       0.0033410851 bohr
     new conv_thr            =       0.0000001000 Ry

ATOMIC_POSITIONS (crystal)
Ta1      0.166666667   0.166666667   0.401991699    0   0   0
Ta1      0.666666667   0.166666667   0.401991699    0   0   0
Ta1      0.166666667   0.666666667   0.401991699    0   0   0
Ta1      0.666666667   0.666666667   0.401991699    0   0   0
Ta1      0.833333333   0.333333333   0.500000000    0   0   0
Ta1      0.333333333   0.333333333   0.500000000    0   0   0
Ta1      0.833333333   0.833333333   0.500000000    0   0   0
Ta1      0.333333333   0.833333333   0.500000000    0   0   0
Ta1     -0.000000152   0.000000284   0.585774227
Ta1      0.501581829  -0.003163316   0.600745064
Ta1     -0.003163690   0.501582369   0.600745078
Ta1      0.501581630   0.501582363   0.600745071
N1       0.333333197   0.333333604   0.649265620
H1       0.333333547   0.333333149   0.690468296

     Writing output data file calc.save
     Check: negative starting charge=   -1.122165
     NEW-OLD atomic charge density approx. for the potential
     Check: negative starting charge=   -1.122415

[...]

     Self-consistent Calculation

[...]

     Threshold (ethr) on eigenvalues was too large:
     Diagonalizing with lowered threshold

     Davidson diagonalization with overlap
     ethr =  1.40E-08,  avg # of iterations =  3.5

[...]

     total energy              =   -1740.01470632 Ry
     Harris-Foulkes estimate   =   -1740.01470633 Ry
     estimated scf accuracy    <       0.00000013 Ry

     iteration #  8     ecut=    36.75 Ry     beta=0.30
     Davidson diagonalization with overlap
     ethr =  8.03E-11,  avg # of iterations =  3.6

[...]

     negative rho (up, down):  1.178E+00 0.000E+00

     Adding external electric field

     Computed dipole along edir(3) :
        Dipole                0.3350 Ry au,          0.8515 Debye
        Dipole field          0.0008 Ry au

        Potential amp.       -0.0744 Ry
        Total length         45.8339 bohr

     End of self-consistent calculation

[...]

          k = 0.0558-0.0645 0.0000 ( 19521 PWs)   bands (ev):

[...]

          k =-0.0837-0.0483 0.0000 ( 19532 PWs)   bands (ev):

   -65.8883 -65.8740 -65.8590 -65.8074 -65.7993 -65.7759 -65.7701 -65.7637
   -65.6653 -65.6473 -65.6337 -65.4842 -32.4919 -32.4576 -32.4405 -32.4324
   -32.4151 -32.4114 -32.3623 -32.3255 -32.3208 -32.3097 -32.2710 -32.2628
   -32.2252 -32.2033 -32.1612 -32.1328 -32.1249 -32.1189 -32.0600 -32.0528
   -32.0432 -32.0312 -31.9765 -31.9734 -31.9487 -31.9258 -31.9257 -31.8830
   -31.8823 -31.8468 -31.8359 -31.7641 -31.7499 -31.6727 -31.6040 -31.5749
   -13.6243  -5.2210  -3.3383  -3.0615  -2.3851  -2.0543  -1.5956  -1.2616
    -0.8277  -0.7883  -0.6115  -0.4550  -0.4160  -0.2671   0.2877   0.3555
     0.5601   0.5811   0.7207   0.8334   0.9667   1.1725   1.1786   1.2178
     1.3928   1.4353   1.6482   1.7261   1.7937   1.8779   1.9041   1.9919
     2.0718   2.1234   2.3360   2.5697   2.7372   2.7508   2.8372   3.1958
     3.2421   3.5224   3.8243

     the Fermi energy is     2.4778 ev

!    total energy              =   -1740.01470628 Ry
     Harris-Foulkes estimate   =   -1740.01470670 Ry
     estimated scf accuracy    <       0.00000008 Ry

     The total energy is the sum of the following terms:

     one-electron contribution =  -11857.14110270 Ry
     hartree contribution      =    5915.49511988 Ry
     xc contribution           =    -529.33686837 Ry
     ewald contribution        =    4731.06568398 Ry
     electric field correction =       0.00027200 Ry
     smearing contrib. (-TS)   =      -0.09781107 Ry

     convergence has been achieved in   8 iterations

 BEEF-vdW xc energy contributions
           1 :   -465.920531986752
           2 :    430.036361125760
           3 :   -367.375724811622
           4 :    292.401194297326
           5 :   -219.628200374186
           6 :    159.180195938533
           7 :   -114.777461092185
           8 :    84.5233044972225
           9 :   -63.6053119986885
          10 :    47.3183827343049
          11 :   -32.9969973169257
          12 :    20.2766772746725
          13 :   -10.0685216412866
          14 :    3.17478184334442
          15 :   0.589967319839218
          16 :   -2.39944778904788
          17 :    3.73244898044948
          18 :   -5.55331165374560
          19 :    7.88060161079841
          20 :   -9.96054058717004
          21 :    10.8828777030147
          22 :   -10.2372552747083
          23 :    8.41399195098256
          24 :   -6.39197652482108
          25 :    5.17249812736213
          26 :   -5.22232798663680
          27 :    6.25766210162476
          28 :   -7.47422027789730
          29 :    8.05486974826863
          30 :   -7.63296718378768
          31 :   -41.7473738324165
          32 :   -30.9797292854386

     Forces acting on atoms (Ry/au):

     negative rho (up, down):  1.178E+00 0.000E+00
     atom    1 type  1   force =     0.00204518    0.00118080    0.00451835
     atom    2 type  1   force =    -0.00204518    0.00118082    0.00451837
     atom    3 type  1   force =     0.00000002   -0.00236158    0.00451839
     atom    4 type  1   force =    -0.00000006   -0.00000014    0.00165694
     atom    5 type  1   force =     0.00000005    0.02780314   -0.01534015
     atom    6 type  1   force =    -0.00000003   -0.00000004    0.03115149
     atom    7 type  1   force =    -0.02407839   -0.01390162   -0.01534035
     atom    8 type  1   force =     0.02407831   -0.01390153   -0.01534021
     atom    9 type  1   force =     0.00000006   -0.00000009   -0.00019611
     atom   10 type  1   force =     0.00000005   -0.00033192   -0.00024775
     atom   11 type  1   force =    -0.00028790    0.00016627   -0.00024788
     atom   12 type  1   force =     0.00028786    0.00016618   -0.00024792
     atom   13 type  2   force =     0.00000005   -0.00000040   -0.00013839
     atom   14 type  3   force =    -0.00000003    0.00000012    0.00073524

     Total force =     0.001055     Total SCF correction =     0.000392
     SCF correction compared to forces is large: reduce conv_thr to get better values

     entering subroutine stress ...

     negative rho (up, down):  1.178E+00 0.000E+00
          total   stress  (Ry/bohr**3)                   (kbar)     P=  -25.12
  -0.00022527  -0.00000000   0.00000000        -33.14     -0.00      0.00
  -0.00000000  -0.00022527   0.00000000         -0.00    -33.14      0.00
   0.00000000   0.00000000  -0.00006176          0.00      0.00     -9.09

     bfgs converged in  15 scf cycles and  14 bfgs steps
     (criteria: energy <  1.0E+00, force <  1.9E-03)

     End of BFGS Geometry Optimization

     Final energy   =   -1740.0147062794 Ry
Begin final coordinates

ATOMIC_POSITIONS (crystal)
Ta1      0.166666667   0.166666667   0.401991699    0   0   0
Ta1      0.666666667   0.166666667   0.401991699    0   0   0
Ta1      0.166666667   0.666666667   0.401991699    0   0   0
Ta1      0.666666667   0.666666667   0.401991699    0   0   0
Ta1      0.833333333   0.333333333   0.500000000    0   0   0
Ta1      0.333333333   0.333333333   0.500000000    0   0   0
Ta1      0.833333333   0.833333333   0.500000000    0   0   0
Ta1      0.333333333   0.833333333   0.500000000    0   0   0
Ta1     -0.000000152   0.000000284   0.585774227
Ta1      0.501581829  -0.003163316   0.600745064
Ta1     -0.003163690   0.501582369   0.600745078
Ta1      0.501581630   0.501582363   0.600745071
N1       0.333333197   0.333333604   0.649265620
H1       0.333333547   0.333333149   0.690468296
End final coordinates

     Writing output data file calc.save

     General routines

     Parallel routines

   This run was terminated on:  10: 4:10  23Apr2018

   JOB DONE.
Job  /afs/slac/g/suncat/bin/suncat-tsmpirun -x LD_LIBRARY_PATH -wdir /scratch/qe986205_VBmhb pw.x -npool 3 -in pw.inp

TID   HOST_NAME   COMMAND_LINE            STATUS            TERMINATION_TIME
00000 suncat2073 pw.x -npool 3 -i  Done                     04/23/2018 10:04:10
00001 suncat2073 pw.x -npool 3 -i  Done                     04/23/2018 10:04:10
00002 suncat2073 pw.x -npool 3 -i  Done                     04/23/2018 10:04:10
00003 suncat2073 pw.x -npool 3 -i  Done                     04/23/2018 10:04:10
00004 suncat2045 pw.x -npool 3 -i  Done                     04/23/2018 10:04:10
00005 suncat2045 pw.x -npool 3 -i  Done                     04/23/2018 10:04:10
00006 suncat2045 pw.x -npool 3 -i  Done                     04/23/2018 10:04:10
00007 suncat2045 pw.x -npool 3 -i  Done                     04/23/2018 10:04:10
00008 suncat2045 pw.x -npool 3 -i  Done                     04/23/2018 10:04:10
00009 suncat2045 pw.x -npool 3 -i  Done                     04/23/2018 10:04:10
00010 suncat2045 pw.x -npool 3 -i  Done                     04/23/2018 10:04:10
00011 suncat2045 pw.x -npool 3 -i  Done                     04/23/2018 10:04:10
00012 suncat2045 pw.x -npool 3 -i  Done                     04/23/2018 10:04:10
00013 suncat2045 pw.x -npool 3 -i  Done                     04/23/2018 10:04:10
00014 suncat2045 pw.x -npool 3 -i  Done                     04/23/2018 10:04:10
00015 suncat2045 pw.x -npool 3 -i  Done                     04/23/2018 10:04:10
00016 suncat2045 pw.x -npool 3 -i  Done                     04/23/2018 10:04:10
00017 suncat2045 pw.x -npool 3 -i  Done                     04/23/2018 10:04:10
00018 suncat2045 pw.x -npool 3 -i  Done                     04/23/2018 10:04:10
00019 suncat2045 pw.x -npool 3 -i  Done                     04/23/2018 10:04:10
00020 suncat2032 pw.x -npool 3 -i  Done                     04/23/2018 10:04:10
00021 suncat2032 pw.x -npool 3 -i  Done                     04/23/2018 10:04:10
00022 suncat2032 pw.x -npool 3 -i  Done                     04/23/2018 10:04:10
00023 suncat2032 pw.x -npool 3 -i  Done                     04/23/2018 10:04:10
00024 suncat2032 pw.x -npool 3 -i  Done                     04/23/2018 10:04:10
00025 suncat2032 pw.x -npool 3 -i  Done                     04/23/2018 10:04:10
00026 suncat2032 pw.x -npool 3 -i  Done                     04/23/2018 10:04:10
00027 suncat2032 pw.x -npool 3 -i  Done                     04/23/2018 10:04:10
00028 suncat2032 pw.x -npool 3 -i  Done                     04/23/2018 10:04:10
00029 suncat2032 pw.x -npool 3 -i  Done                     04/23/2018 10:04:10
00030 suncat2032 pw.x -npool 3 -i  Done                     04/23/2018 10:04:10
00031 suncat2032 pw.x -npool 3 -i  Done                     04/23/2018 10:04:10
00032 suncat2032 pw.x -npool 3 -i  Done                     04/23/2018 10:04:10
00033 suncat2032 pw.x -npool 3 -i  Done                     04/23/2018 10:04:10
00034 suncat2032 pw.x -npool 3 -i  Done                     04/23/2018 10:04:10
00035 suncat2032 pw.x -npool 3 -i  Done                     04/23/2018 10:04:10