     Program PWSCF v.5.1rc2 (svn rev. 11289) starts on  2May2018 at 17:23:12

     Current dimensions of program PWSCF are:
     Max number of different atomic species (ntypx) = 10
     Max number of k-points (npk) =  40000
     Max angular momentum in pseudopotentials (lmaxx) =  3
     Presently stress not available with electric field

     IMPORTANT: XC functional enforced from input :
     Exchange-correlation      = BEEF-VDW ( 1  4 27 13 2)
     Any further DFT definition will be discarded
     Please, verify this is what you really want

     Subspace diagonalization in iterative solution of the eigenvalue problem:
     a serial algorithm will be used

     bravais-lattice index     =            0
     lattice parameter (alat)  =       1.8897  a.u.
     unit-cell volume          =    4301.6107 (a.u.)^3
     number of atoms/cell      =           13
     number of atomic types    =            2
     number of electrons       =       186.00
     number of Kohn-Sham states=          103
     kinetic-energy cutoff     =      36.7493  Ry
     charge density cutoff     =     367.4932  Ry
     convergence threshold     =      1.0E-05
     mixing beta               =       0.3000
     number of iterations used =           10  plain     mixing
     Exchange-correlation      = BEEF-VDW ( 1  4 27 13 2)
     nstep                     =           50

     celldm(1)=   1.889726  celldm(2)=   0.000000  celldm(3)=   0.000000
     celldm(4)=   0.000000  celldm(5)=   0.000000  celldm(6)=   0.000000

     crystal axes: (cart. coord. in units of alat)
               a(1) = (   5.483647   0.000000   0.000000 )
               a(2) = (   2.741823   4.748977   0.000000 )
               a(3) = (   0.000000   0.000000  24.477379 )

     reciprocal axes: (cart. coord. in units 2 pi/alat)
               b(1) = (  0.182360 -0.105286  0.000000 )
               b(2) = (  0.000000  0.210572  0.000000 )
               b(3) = (  0.000000  0.000000  0.040854 )

     PseudoPot. # 1 for Tc read from file:
     /u/if/mamunm/psp/gbrv1.5pbe/Tc.UPF
     MD5 check sum: 9eb49e5b028550b2339a02317eb7b844
     Pseudo is Ultrasoft + core correction, Zval = 15.0
     Generated by new atomic code, or converted to UPF format
     Using radial grid of  965 points,  6 beta functions with:
                l(1) =   0
                l(2) =   0
                l(3) =   1
                l(4) =   1
                l(5) =   2
                l(6) =   2
     Q(r) pseudized with  8 coefficients,  rinner =    1.300   1.300   1.300
                                                       1.300   1.300

     PseudoPot. # 2 for S  read from file:
     /u/if/mamunm/psp/gbrv1.5pbe/S.UPF
     MD5 check sum: 88d86576ff6df21479756cfb9bdac1df
     Pseudo is Ultrasoft + core correction, Zval =  6.0
     Generated by new atomic code, or converted to UPF format
     Using radial grid of  907 points,  6 beta functions with:
                l(1) =   0
                l(2) =   0
                l(3) =   1
                l(4) =   1
                l(5) =   2
                l(6) =   2
     Q(r) pseudized with  8 coefficients,  rinner =    1.300   1.300   1.300
                                                       1.300   1.300

     vdW kernel table read from file vdW_kernel_table
     MD5 check sum: 095c7af220d748ca6e76c0b4c6cfb241

     atomic species   valence    mass     pseudopotential
        Tc1           15.00    97.90721     Tc( 1.00)
        S1             6.00    32.06000     S ( 1.00)

     No symmetry found

   Cartesian axes

     site n.     atom                  positions (alat units)
         1           Tc1 tau(   1) = (   1.3709117   0.7914962  10.0000000  )
         2           Tc1 tau(   2) = (   4.1127351   0.7914962  10.0000000  )
         3           Tc1 tau(   3) = (   2.7418234   3.1659850  10.0000000  )
         4           Tc1 tau(   4) = (   5.4836469   3.1659850  10.0000000  )
         5           Tc1 tau(   5) = (   5.4836469   1.5829925  12.2386895  )
         6           Tc1 tau(   6) = (   2.7418234   1.5829925  12.2386895  )
         7           Tc1 tau(   7) = (   6.8545586   3.9574812  12.2386895  )
         8           Tc1 tau(   8) = (   4.1127351   3.9574812  12.2386895  )
         9           Tc1 tau(   9) = (   0.0000000   0.0000000  14.4773789  )
        10           Tc1 tau(  10) = (   2.7418234   0.0000000  14.4773789  )
        11           Tc1 tau(  11) = (   1.3709117   2.3744887  14.4773789  )
        12           Tc1 tau(  12) = (   4.1127351   2.3744887  14.4773789  )
        13           S1  tau(  13) = (   1.3709117   0.0000000  16.3673789  )

     number of k points=    20  Fermi-Dirac smearing, width (Ry)=  0.0110
                       cart. coord. in units 2pi/alat
        k(    1) = (   0.0000000   0.0000000   0.0000000), wk =   0.0555556
        k(    2) = (   0.0000000   0.0350953   0.0000000), wk =   0.1111111
        k(    3) = (   0.0000000   0.0701905   0.0000000), wk =   0.1111111
        k(    4) = (   0.0000000  -0.1052858   0.0000000), wk =   0.0555556
        k(    5) = (   0.0303934  -0.0175476   0.0000000), wk =   0.1111111
        k(    6) = (   0.0303934   0.0175476   0.0000000), wk =   0.1111111
        k(    7) = (   0.0303934   0.0526429   0.0000000), wk =   0.1111111
        k(    8) = (   0.0303934  -0.1228335   0.0000000), wk =   0.1111111
        k(    9) = (   0.0303934  -0.0877382   0.0000000), wk =   0.1111111
        k(   10) = (   0.0303934  -0.0526429   0.0000000), wk =   0.1111111
        k(   11) = (   0.0607868  -0.0350953   0.0000000), wk =   0.1111111
        k(   12) = (   0.0607868   0.0000000   0.0000000), wk =   0.1111111
        k(   13) = (   0.0607868   0.0350953   0.0000000), wk =   0.1111111
        k(   14) = (   0.0607868  -0.1403811   0.0000000), wk =   0.1111111
        k(   15) = (   0.0607868  -0.1052858   0.0000000), wk =   0.1111111
        k(   16) = (   0.0607868  -0.0701905   0.0000000), wk =   0.1111111
        k(   17) = (  -0.0911802   0.0526429   0.0000000), wk =   0.0555556
        k(   18) = (  -0.0911802   0.0877382   0.0000000), wk =   0.1111111
        k(   19) = (  -0.0911802   0.1228335   0.0000000), wk =   0.1111111
        k(   20) = (  -0.0911802  -0.0526429   0.0000000), wk =   0.0555556

     Largest allocated arrays     est. size (Mb)     dimensions
     Largest temporary arrays     est. size (Mb)     dimensions

     Check: negative/imaginary core charge=   -0.000022    0.000000

     Initial potential from superposition of free atoms
     Check: negative starting charge=   -1.504819

     starting charge  173.99963, renormalised to  186.00000

     negative rho (up, down):  1.609E+00 0.000E+00

     *
     * You are using vdW-DF for exchange-correlation in this calculation.
     * Please cite the following three references that made this development
     * possible:
     *
     *   M. Dion, H. Rydberg, E. Schroder, D. C. Langreth, and
     *   B. I. Lundqvist, Phys. Rev. Lett. 92, 246401 (2004).
     *
     *   T. Thonhauser, V. R. Cooper, S. Li, A. Puzder, P. Hyldgaard, and
     *   D. C. Langreth, Phys. Rev. B 76, 125112 (2007).
     *
     *   G. Roman-Perez and J. M. Soler, Phys. Rev. Lett. 103, 096102 (2009).
     *
     *
     * If you are using vdW-DF2, please also cite:
     *
     *   K. Lee, E. D. Murray, L. Kong, B. I. Lundqvist, and
     *   D. C. Langreth, Phys. Rev. B 82, 081101(R) (2010).
     *
     *
     * If you are calculating the stress with vdW-DF, please also cite:
     *
     *   R. Sabatini, E. Kucukbenli, B. Kolb, T. Thonhauser, and
     *   S. de Gironcoli, J. Phys.: Condens. Matter 24, 424209 (2012).
     *

     Carrying out vdW-DF run using the following parameters:

     Nqs =      20    Nr_points =    1024   r_max =   100.000
     q_mesh =
               0.00001000     0.04494208     0.09755937     0.15916263
               0.23128650     0.31572767     0.41458969     0.53033537
               0.66584808     0.82450364     1.01025438     1.22772762
               1.48234092     1.78043706     2.12944203     2.53805004
               3.01644009     3.57652955     4.23227104     5.00000000

     Gradients computed in reciprocal space

     Adding external electric field

     Computed dipole along edir(3) :
        Dipole               -3.2283 Ry au,         -8.2054 Debye
        Dipole field         -0.0094 Ry au

        Potential amp.        0.8506 Ry
        Total length         45.0992 bohr

     Starting wfc are  160 randomized atomic wfcs

     Self-consistent Calculation

     iteration #  1     ecut=    36.75 Ry     beta=0.30
     Davidson diagonalization with overlap
     ethr =  1.00E-02,  avg # of iterations =  8.2

[...]

     total energy              =   -1872.46131844 Ry
     Harris-Foulkes estimate   =   -2122.20891591 Ry
     estimated scf accuracy    <     525.97357115 Ry

[...]

     End of self-consistent calculation

          k = 0.0000 0.0000 0.0000 ( 16073 PWs)   bands (ev):

   -64.6779 -64.5503 -64.5283 -64.5162 -64.4968 -64.4617 -64.4300 -64.3912
   -64.3578 -64.3157 -64.3075 -64.2982 -37.1203 -37.1110 -37.1002 -37.0474
   -36.9900 -36.9820 -36.9616 -36.8432 -36.8318 -36.8244 -36.5536 -36.5287
   -36.4706 -36.4504 -36.4356 -36.4058 -36.3834 -36.3783 -36.3780 -36.3656
   -36.2562 -36.2445 -36.2197 -36.2140 -36.2059 -36.1919 -36.1625 -36.1448
   -36.1394 -36.0995 -36.0939 -36.0894 -36.0108 -35.9927 -35.9025 -35.8951
   -10.2494  -3.8844  -2.8374  -2.6764  -2.6112  -2.6092  -2.4934  -2.4177
    -2.3003  -2.2276  -2.1207  -2.0046  -2.0012  -1.8495  -1.7241  -1.6797
    -1.0084  -0.9020  -0.7847  -0.4894   0.0638   0.2404   0.3897   0.5926
     0.6299   0.8762   0.9186   0.9226   1.0840   1.1813   1.2505   1.2953
     1.3290   1.3840   1.4420   1.4915   1.8407   1.9753   2.2813   2.6658
     2.8619   2.9067   2.9392   3.0327   3.2908   3.3099   3.3578   3.4741
     3.7554   3.7559   4.0358   4.4111   4.5819   4.5853   4.5921

[...]

          k =-0.0912 0.0526 0.0000 ( 16164 PWs)   bands (ev):

[...]

     the Fermi energy is     2.6018 ev

!    total energy              =   -2127.90674986 Ry
     Harris-Foulkes estimate   =   -2127.90675536 Ry
     estimated scf accuracy    <       0.00000367 Ry

     The total energy is the sum of the following terms:

     one-electron contribution =  -19032.01722421 Ry
     hartree contribution      =    9517.83508946 Ry
     xc contribution           =    -405.77506025 Ry
     ewald contribution        =    7792.14043822 Ry
     electric field correction =       0.00001652 Ry
     smearing contrib. (-TS)   =      -0.09000961 Ry

     convergence has been achieved in  35 iterations

 BEEF-vdW xc energy contributions
           1 :   -355.330195030424
           2 :    326.465387909113
           3 :   -275.176771730221
           4 :    211.817988380066
           5 :   -147.413184173912
           6 :    90.6293330623776
           7 :   -46.0765259300346
           8 :    14.1756283638368
           9 :    7.55805658028248
          10 :   -22.5981967984039
          11 :    33.6545700489035
          12 :   -41.7688191515475
          13 :    46.3929143458145
          14 :   -46.2411991421386
          15 :    40.3897449162238
          16 :   -29.1273413642658
          17 :    14.1986791871678
          18 :    1.60295488019011
          19 :   -15.2888953554046
          20 :    24.5751919312660
          21 :   -28.4724623623885
          22 :    27.3511440656312
          23 :   -22.5322581195177
          24 :    15.6359532335152
          25 :   -8.00774581815131
          26 :   0.446306838647502
          27 :    6.71236525403987
          28 :   -13.2883052235037
          29 :    18.9454665509878
          30 :   -23.0663772434459
          31 :   -33.9748919813525
          32 :   -24.9057919346969

     Forces acting on atoms (Ry/au):

     negative rho (up, down):  1.590E+00 0.000E+00
     atom    1 type  1   force =    -0.00000334    0.00246818    0.02765871
     atom    2 type  1   force =     0.00000446   -0.00415170    0.02869742
     atom    3 type  1   force =    -0.00426048    0.00052472    0.03123004
     atom    4 type  1   force =     0.00426299    0.00052103    0.03122335
     atom    5 type  1   force =     0.00376439    0.00568644   -0.00048487
     atom    6 type  1   force =    -0.00376151    0.00571123   -0.00051468
     atom    7 type  1   force =     0.00001915   -0.01207671   -0.04152245
     atom    8 type  1   force =    -0.00002051   -0.00363338    0.01138658
     atom    9 type  1   force =    -0.03063971    0.01198872   -0.00489506
     atom   10 type  1   force =     0.03064226    0.01198136   -0.00489177
     atom   11 type  1   force =    -0.00000473   -0.00434372   -0.02203553
     atom   12 type  1   force =     0.00000750   -0.01463268   -0.02681890
     atom   13 type  2   force =    -0.00001046   -0.00004347   -0.02903284

     Total force =     0.067034     Total SCF correction =     0.007884
     SCF correction compared to forces is large: reduce conv_thr to get better values

     entering subroutine stress ...

     negative rho (up, down):  1.590E+00 0.000E+00
          total   stress  (Ry/bohr**3)                   (kbar)     P=  -31.47
  -0.00017058  -0.00000001  -0.00000002        -25.09     -0.00     -0.00
  -0.00000001  -0.00023360   0.00000547         -0.00    -34.36      0.80
  -0.00000002   0.00000547  -0.00023765         -0.00      0.80    -34.96

     BFGS Geometry Optimization

     number of scf cycles    =   1
     number of bfgs steps    =   0

     energy   new            =   -2127.9067498586 Ry

     new trust radius        =       0.0332638332 bohr
     new conv_thr            =       0.0000099958 Ry

ATOMIC_POSITIONS (crystal)
Tc1      0.166666667   0.166666667   0.408540475    0   0   0
Tc1      0.666666667   0.166666667   0.408540475    0   0   0
Tc1      0.166666667   0.666666667   0.408540475    0   0   0
Tc1      0.666666667   0.666666667   0.408540475    0   0   0
Tc1      0.833333333   0.333333333   0.500000000    0   0   0
Tc1      0.333333333   0.333333333   0.500000000    0   0   0
Tc1      0.833333333   0.833333333   0.500000000    0   0   0
Tc1      0.333333333   0.833333333   0.500000000    0   0   0
Tc1     -0.003624711   0.001335900   0.591353699
Tc1      0.502289468   0.001335079   0.591353770
Tc1      0.000241554   0.499515980   0.590983138
Tc1      0.500815981   0.498369484   0.590879727
S1       0.250001413  -0.000004844   0.668046013

     Writing output data file calc.save
     Check: negative starting charge=   -1.504819
     NEW-OLD atomic charge density approx. for the potential

     Check: negative/imaginary core charge=   -0.000022    0.000000
     Check: negative starting charge=   -1.506233

[...]

     Total force =     0.058023     Total SCF correction =     0.002515

[...]

     energy   old            =   -2127.9067498586 Ry
     energy   new            =   -2127.9109312378 Ry

     CASE: energy  _new < energy  _old

     WARNING: bfgs curvature condition failed, Theta= 0.930
     new trust radius        =       0.0365902165 bohr
     new conv_thr            =       0.0000001000 Ry

[...]

     iteration #  1     ecut=    36.75 Ry     beta=0.30
     Davidson diagonalization with overlap
     c_bands:  1 eigenvalues not converged
     ethr =  1.00E-06,  avg # of iterations = 11.8

[...]

     iteration #  1     ecut=    36.75 Ry     beta=0.30
     Davidson diagonalization with overlap
     c_bands:  1 eigenvalues not converged
     ethr =  1.00E-06,  avg # of iterations = 13.9

[...]

     WARNING: bfgs curvature condition failed, Theta= 0.889
     new trust radius        =       0.0275575079 bohr
     new conv_thr            =       0.0000001000 Ry

[...]

     Total force =     0.005845     Total SCF correction =     0.000120

[...]

     number of scf cycles    =  29
     number of bfgs steps    =  28

     energy   old            =   -2127.9580352172 Ry
     energy   new            =   -2127.9580532496 Ry

     CASE: energy  _new < energy  _old

     new trust radius        =       0.0062509153 bohr
     new conv_thr            =       0.0000001000 Ry

ATOMIC_POSITIONS (crystal)
Tc1      0.166666667   0.166666667   0.408540475    0   0   0
Tc1      0.666666667   0.166666667   0.408540475    0   0   0
Tc1      0.166666667   0.666666667   0.408540475    0   0   0
Tc1      0.666666667   0.666666667   0.408540475    0   0   0
Tc1      0.833333333   0.333333333   0.500000000    0   0   0
Tc1      0.333333333   0.333333333   0.500000000    0   0   0
Tc1      0.833333333   0.833333333   0.500000000    0   0   0
Tc1      0.333333333   0.833333333   0.500000000    0   0   0
Tc1     -0.017381928   0.008902478   0.589239380
Tc1      0.508479459   0.008902085   0.589239354
Tc1     -0.000411413   0.500823271   0.586330992
Tc1      0.509000292   0.481999645   0.589200608
S1       0.333460222  -0.166920832   0.657733380

     Writing output data file calc.save
     Check: negative starting charge=   -1.502709
     NEW-OLD atomic charge density approx. for the potential

     Check: negative/imaginary core charge=   -0.000022    0.000000
     Check: negative starting charge=   -1.502414

[...]

     Self-consistent Calculation

[...]

     total energy              =   -2127.95806542 Ry
     Harris-Foulkes estimate   =   -2127.95806543 Ry
     estimated scf accuracy    <       0.00000015 Ry

     iteration # 11     ecut=    36.75 Ry     beta=0.30
     Davidson diagonalization with overlap
     ethr =  8.03E-11,  avg # of iterations =  3.7

[...]

     negative rho (up, down):  1.588E+00 0.000E+00

     Adding external electric field

     Computed dipole along edir(3) :
        Dipole               -0.0409 Ry au,         -0.1039 Debye
        Dipole field         -0.0001 Ry au

        Potential amp.        0.0108 Ry
        Total length         45.0992 bohr

     End of self-consistent calculation

[...]

          k = 0.0608-0.0702 0.0000 ( 16203 PWs)   bands (ev):

[...]

          k =-0.0912-0.0526 0.0000 ( 16164 PWs)   bands (ev):

   -64.5787 -64.5695 -64.4939 -64.4810 -64.4464 -64.3922 -64.3640 -64.3637
   -64.3614 -64.3048 -64.3011 -64.2597 -36.9864 -36.9392 -36.9328 -36.9003
   -36.8635 -36.8412 -36.7236 -36.6984 -36.6939 -36.6418 -36.6239 -36.6224
   -36.5552 -36.4023 -36.3824 -36.3769 -36.3655 -36.3517 -36.3385 -36.3160
   -36.3121 -36.2938 -36.2935 -36.2685 -36.2644 -36.2548 -36.2459 -36.2344
   -36.1673 -36.1303 -36.0966 -36.0696 -36.0586 -36.0002 -35.9882 -35.9550
   -10.4809  -2.7312  -2.3487  -2.1114  -1.9082  -1.7498  -1.7417  -1.5990
    -1.5738  -1.3599  -1.3422  -1.2639  -1.0727  -0.9778  -0.8601  -0.8456
    -0.7673  -0.6610  -0.6107  -0.3111  -0.1255   0.0085   0.0379   0.0883
     0.2137   0.3512   0.5773   0.7061   0.8414   0.8653   1.0556   1.1965
     1.2144   1.2634   1.2724   1.3006   1.3509   1.4517   1.4950   1.5346
     1.6281   1.8906   1.9216   2.3970   2.4263   2.4840   2.5533   2.7448
     2.8553   2.9460   3.0216   3.1005   3.2640   3.3012   3.5380

     the Fermi energy is     2.6223 ev

!    total energy              =   -2127.95806542 Ry
     Harris-Foulkes estimate   =   -2127.95806545 Ry
     estimated scf accuracy    <       0.00000002 Ry

     The total energy is the sum of the following terms:

     one-electron contribution =  -19310.20147466 Ry
     hartree contribution      =    9657.01680134 Ry
     xc contribution           =    -406.07301668 Ry
     ewald contribution        =    7931.38663230 Ry
     electric field correction =       0.00000488 Ry
     smearing contrib. (-TS)   =      -0.08701258 Ry

     convergence has been achieved in  11 iterations

 BEEF-vdW xc energy contributions
           1 :   -355.635890332359
           2 :    326.883188625402
           3 :   -275.736087793710
           4 :    212.441091878951
           5 :   -147.953951746641
           6 :    90.9483024612659
           7 :   -46.1115666285004
           8 :    13.9728687703018
           9 :    7.86691822231876
          10 :   -22.8573797774942
          11 :    33.7552737780057
          12 :   -41.6927895360408
          13 :    46.2119983440845
          14 :   -46.0782958960716
          15 :    40.3588854552332
          16 :   -29.2808100983312
          17 :    14.5016545582829
          18 :    1.25960704170490
          19 :   -15.0422524513402
          20 :    24.5287462455802
          21 :   -28.6466094076370
          22 :    27.6712497653645
          23 :   -22.8608974748483
          24 :    15.8345368689853
          25 :   -7.99950643330624
          26 :   0.249842377503228
          27 :    6.99529702462218
          28 :   -13.5233282801656
          29 :    19.0278066465294
          30 :   -22.9651721139612
          31 :   -33.9958119026650
          32 :   -24.9518118651374

     Forces acting on atoms (Ry/au):

     negative rho (up, down):  1.588E+00 0.000E+00
     atom    1 type  1   force =     0.00000000   -0.00032451    0.02174429
     atom    2 type  1   force =     0.00000005    0.00010858    0.02167455
     atom    3 type  1   force =     0.00020151    0.00015516    0.02173160
     atom    4 type  1   force =    -0.00020161    0.00015522    0.02173157
     atom    5 type  1   force =     0.00365385    0.00211304   -0.02655902
     atom    6 type  1   force =    -0.00365369    0.00211287   -0.02655889
     atom    7 type  1   force =     0.00000005   -0.00387069   -0.02639795
     atom    8 type  1   force =     0.00000007    0.00008874   -0.00660879
     atom    9 type  1   force =    -0.00047556    0.00007965   -0.00018886
     atom   10 type  1   force =     0.00047568    0.00008012   -0.00018867
     atom   11 type  1   force =    -0.00000024   -0.00093703   -0.00109219
     atom   12 type  1   force =    -0.00000019    0.00040466    0.00054924
     atom   13 type  2   force =     0.00000008   -0.00016583    0.00016312

     Total force =     0.001768     Total SCF correction =     0.000385
     SCF correction compared to forces is large: reduce conv_thr to get better values

     entering subroutine stress ...

     negative rho (up, down):  1.588E+00 0.000E+00
          total   stress  (Ry/bohr**3)                   (kbar)     P=  -17.89
  -0.00013138  -0.00000000  -0.00000000        -19.33     -0.00     -0.00
  -0.00000000  -0.00013130  -0.00000067         -0.00    -19.32     -0.10
  -0.00000000  -0.00000067  -0.00010214         -0.00     -0.10    -15.02

     bfgs converged in  30 scf cycles and  29 bfgs steps
     (criteria: energy <  1.0E+00, force <  1.9E-03)

     End of BFGS Geometry Optimization

     Final energy   =   -2127.9580654154 Ry
Begin final coordinates

ATOMIC_POSITIONS (crystal)
Tc1      0.166666667   0.166666667   0.408540475    0   0   0
Tc1      0.666666667   0.166666667   0.408540475    0   0   0
Tc1      0.166666667   0.666666667   0.408540475    0   0   0
Tc1      0.666666667   0.666666667   0.408540475    0   0   0
Tc1      0.833333333   0.333333333   0.500000000    0   0   0
Tc1      0.333333333   0.333333333   0.500000000    0   0   0
Tc1      0.833333333   0.833333333   0.500000000    0   0   0
Tc1      0.333333333   0.833333333   0.500000000    0   0   0
Tc1     -0.017381928   0.008902478   0.589239380
Tc1      0.508479459   0.008902085   0.589239354
Tc1     -0.000411413   0.500823271   0.586330992
Tc1      0.509000292   0.481999645   0.589200608
S1       0.333460222  -0.166920832   0.657733380
End final coordinates

     Writing output data file calc.save

     General routines

     Parallel routines

   This run was terminated on:  21:12:35   2May2018

   JOB DONE.
Job  /afs/slac/g/suncat/bin/suncat-tsmpirun -x LD_LIBRARY_PATH -wdir /scratch/qe807589_BtUTW pw.x -npool 4 -in pw.inp

TID   HOST_NAME   COMMAND_LINE            STATUS            TERMINATION_TIME
00000 suncat0177 pw.x -npool 4 -i  Done                     05/02/2018 21:12:35
00001 suncat0177 pw.x -npool 4 -i  Done                     05/02/2018 21:12:35
00002 suncat0177 pw.x -npool 4 -i  Done                     05/02/2018 21:12:35
00003 suncat0177 pw.x -npool 4 -i  Done                     05/02/2018 21:12:35
00004 suncat0177 pw.x -npool 4 -i  Done                     05/02/2018 21:12:35
00005 suncat0177 pw.x -npool 4 -i  Done                     05/02/2018 21:12:35
00006 suncat0177 pw.x -npool 4 -i  Done                     05/02/2018 21:12:35
00007 suncat0177 pw.x -npool 4 -i  Done                     05/02/2018 21:12:35
00008 suncat0149 pw.x -npool 4 -i  Done                     05/02/2018 21:12:35
00009 suncat0149 pw.x -npool 4 -i  Done                     05/02/2018 21:12:35
00010 suncat0149 pw.x -npool 4 -i  Done                     05/02/2018 21:12:35
00011 suncat0149 pw.x -npool 4 -i  Done                     05/02/2018 21:12:35
00012 suncat0149 pw.x -npool 4 -i  Done                     05/02/2018 21:12:35
00013 suncat0149 pw.x -npool 4 -i  Done                     05/02/2018 21:12:35
00014 suncat0149 pw.x -npool 4 -i  Done                     05/02/2018 21:12:35
00015 suncat0149 pw.x -npool 4 -i  Done                     05/02/2018 21:12:35
00016 suncat0201 pw.x -npool 4 -i  Done                     05/02/2018 21:12:35
00017 suncat0201 pw.x -npool 4 -i  Done                     05/02/2018 21:12:35
00018 suncat0201 pw.x -npool 4 -i  Done                     05/02/2018 21:12:35
00019 suncat0201 pw.x -npool 4 -i  Done                     05/02/2018 21:12:35
00020 suncat0201 pw.x -npool 4 -i  Done                     05/02/2018 21:12:35
00021 suncat0201 pw.x -npool 4 -i  Done                     05/02/2018 21:12:35
00022 suncat0201 pw.x -npool 4 -i  Done                     05/02/2018 21:12:35
00023 suncat0201 pw.x -npool 4 -i  Done                     05/02/2018 21:12:35
00024 suncat0099 pw.x -npool 4 -i  Done                     05/02/2018 21:12:35
00025 suncat0099 pw.x -npool 4 -i  Done                     05/02/2018 21:12:35
00026 suncat0099 pw.x -npool 4 -i  Done                     05/02/2018 21:12:35
00027 suncat0099 pw.x -npool 4 -i  Done                     05/02/2018 21:12:35
00028 suncat0099 pw.x -npool 4 -i  Done                     05/02/2018 21:12:35
00029 suncat0099 pw.x -npool 4 -i  Done                     05/02/2018 21:12:35
00030 suncat0099 pw.x -npool 4 -i  Done                     05/02/2018 21:12:35
00031 suncat0099 pw.x -npool 4 -i  Done                     05/02/2018 21:12:35