     Program PWSCF v.5.1rc2 (svn rev. 11289) starts on 24Apr2018 at 19:34:11

     Current dimensions of program PWSCF are:
     Max number of different atomic species (ntypx) = 10
     Max number of k-points (npk) =  40000
     Max angular momentum in pseudopotentials (lmaxx) =  3
     Presently stress not available with electric field

     IMPORTANT: XC functional enforced from input :
     Exchange-correlation      = BEEF-VDW ( 1  4 27 13 2)
     Any further DFT definition will be discarded
     Please, verify this is what you really want

     Subspace diagonalization in iterative solution of the eigenvalue problem:
     a serial algorithm will be used

     bravais-lattice index     =            0
     lattice parameter (alat)  =       1.8897  a.u.
     unit-cell volume          =    7725.1200 (a.u.)^3
     number of atoms/cell      =           14
     number of atomic types    =            3
     number of electrons       =       138.00
     number of Kohn-Sham states=           79
     kinetic-energy cutoff     =      36.7493  Ry
     charge density cutoff     =     367.4932  Ry
     convergence threshold     =      1.0E-05
     mixing beta               =       0.3000
     number of iterations used =           10  plain     mixing
     Exchange-correlation      = BEEF-VDW ( 1  4 27 13 2)
     nstep                     =           50

     celldm(1)=   1.889726  celldm(2)=   0.000000  celldm(3)=   0.000000
     celldm(4)=   0.000000  celldm(5)=   0.000000  celldm(6)=   0.000000

     crystal axes: (cart. coord. in units of alat)
               a(1) = (   7.152277   0.000000   0.000000 )
               a(2) = (   3.576139   6.194054   0.000000 )
               a(3) = (   0.000000   0.000000  25.839810 )

     reciprocal axes: (cart. coord. in units 2 pi/alat)
               b(1) = (  0.139816 -0.080723  0.000000 )
               b(2) = (  0.000000  0.161445  0.000000 )
               b(3) = (  0.000000  0.000000  0.038700 )

     PseudoPot. # 1 for Y  read from file:
     /u/if/mamunm/psp/gbrv1.5pbe/Y.UPF
     MD5 check sum: d034151ed7554c50b6e82763ed42c788
     Pseudo is Ultrasoft + core correction, Zval = 11.0
     Generated by new atomic code, or converted to UPF format
     Using radial grid of  885 points,  6 beta functions with:
                l(1) =   0
                l(2) =   0
                l(3) =   1
                l(4) =   1
                l(5) =   2
                l(6) =   2
     Q(r) pseudized with  8 coefficients,  rinner =    1.200   1.200   1.200
                                                       1.200   1.200

     PseudoPot. # 2 for N  read from file:
     /u/if/mamunm/psp/gbrv1.5pbe/N.UPF
     MD5 check sum: 95339753478d7afb44899504a8723017
     Pseudo is Ultrasoft + core correction, Zval =  5.0
     Generated by new atomic code, or converted to UPF format
     Using radial grid of  729 points,  4 beta functions with:
                l(1) =   0
                l(2) =   0
                l(3) =   1
                l(4) =   1
     Q(r) pseudized with  8 coefficients,  rinner =    0.900   0.900   0.900

     PseudoPot. # 3 for H  read from file:
     /u/if/mamunm/psp/gbrv1.5pbe/H.UPF
     MD5 check sum: 761ae9a214b05c3daf00ab9f6b793d6f
     Pseudo is Ultrasoft, Zval =  1.0
     Generated by new atomic code, or converted to UPF format
     Using radial grid of  615 points,  2 beta functions with:
                l(1) =   0
                l(2) =   0
     Q(r) pseudized with  8 coefficients,  rinner =    0.700

     vdW kernel table read from file vdW_kernel_table
     MD5 check sum: 095c7af220d748ca6e76c0b4c6cfb241

     atomic species   valence    mass     pseudopotential
        Y1            11.00    88.90584     Y ( 1.00)
        N1             5.00    14.00700     N ( 1.00)
        H1             1.00     1.00800     H ( 1.00)

     No symmetry found

   Cartesian axes

     site n.     atom                  positions (alat units)
         1           Y1  tau(   1) = (   1.7880693   1.0323423  10.0000000  )
         2           Y1  tau(   2) = (   5.3642080   1.0323423  10.0000000  )
         3           Y1  tau(   3) = (   3.5761386   4.1293692  10.0000000  )
         4           Y1  tau(   4) = (   7.1522773   4.1293692  10.0000000  )
         5           Y1  tau(   5) = (   7.1522773   2.0646846  12.9199050  )
         6           Y1  tau(   6) = (   3.5761386   2.0646846  12.9199050  )
         7           Y1  tau(   7) = (   8.9403466   5.1617115  12.9199050  )
         8           Y1  tau(   8) = (   5.3642080   5.1617115  12.9199050  )
         9           Y1  tau(   9) = (   0.0000000   0.0000000  15.8398100  )
        10           Y1  tau(  10) = (   3.5761386   0.0000000  15.8398100  )
        11           Y1  tau(  11) = (   1.7880693   3.0970269  15.8398100  )
        12           Y1  tau(  12) = (   5.3642080   3.0970269  15.8398100  )
        13           N1  tau(  13) = (   0.0000000   0.0000000  18.0583100  )
        14           H1  tau(  14) = (   0.0000000   0.0000000  19.1083100  )

     number of k points=    20  Fermi-Dirac smearing, width (Ry)=  0.0110
                       cart. coord. in units 2pi/alat
        k(    1) = (   0.0000000   0.0000000   0.0000000), wk =   0.0555556
        k(    2) = (   0.0000000   0.0269075   0.0000000), wk =   0.1111111
        k(    3) = (   0.0000000   0.0538151   0.0000000), wk =   0.1111111
        k(    4) = (   0.0000000  -0.0807226   0.0000000), wk =   0.0555556
        k(    5) = (   0.0233026  -0.0134538   0.0000000), wk =   0.1111111
        k(    6) = (   0.0233026   0.0134538   0.0000000), wk =   0.1111111
        k(    7) = (   0.0233026   0.0403613   0.0000000), wk =   0.1111111
        k(    8) = (   0.0233026  -0.0941763   0.0000000), wk =   0.1111111
        k(    9) = (   0.0233026  -0.0672688   0.0000000), wk =   0.1111111
        k(   10) = (   0.0233026  -0.0403613   0.0000000), wk =   0.1111111
        k(   11) = (   0.0466052  -0.0269075   0.0000000), wk =   0.1111111
        k(   12) = (   0.0466052   0.0000000   0.0000000), wk =   0.1111111
        k(   13) = (   0.0466052   0.0269075   0.0000000), wk =   0.1111111
        k(   14) = (   0.0466052  -0.1076301   0.0000000), wk =   0.1111111
        k(   15) = (   0.0466052  -0.0807226   0.0000000), wk =   0.1111111
        k(   16) = (   0.0466052  -0.0538151   0.0000000), wk =   0.1111111
        k(   17) = (  -0.0699078   0.0403613   0.0000000), wk =   0.0555556
        k(   18) = (  -0.0699078   0.0672688   0.0000000), wk =   0.1111111
        k(   19) = (  -0.0699078   0.0941763   0.0000000), wk =   0.1111111
        k(   20) = (  -0.0699078  -0.0403613   0.0000000), wk =   0.0555556

     Largest allocated arrays     est. size (Mb)     dimensions
     Largest temporary arrays     est. size (Mb)     dimensions

     Initial potential from superposition of free atoms
     Check: negative starting charge=   -0.000492

     starting charge  137.94635, renormalised to  138.00000

     negative rho (up, down):  4.927E-04 0.000E+00

     *
     * You are using vdW-DF for exchange-correlation in this calculation.
     * Please cite the following three references that made this development
     * possible:
     *
     *   M. Dion, H. Rydberg, E. Schroder, D. C. Langreth, and
     *   B. I. Lundqvist, Phys. Rev. Lett. 92, 246401 (2004).
     *
     *   T. Thonhauser, V. R. Cooper, S. Li, A. Puzder, P. Hyldgaard, and
     *   D. C. Langreth, Phys. Rev. B 76, 125112 (2007).
     *
     *   G. Roman-Perez and J. M. Soler, Phys. Rev. Lett. 103, 096102 (2009).
     *
     *
     * If you are using vdW-DF2, please also cite:
     *
     *   K. Lee, E. D. Murray, L. Kong, B. I. Lundqvist, and
     *   D. C. Langreth, Phys. Rev. B 82, 081101(R) (2010).
     *
     *
     * If you are calculating the stress with vdW-DF, please also cite:
     *
     *   R. Sabatini, E. Kucukbenli, B. Kolb, T. Thonhauser, and
     *   S. de Gironcoli, J. Phys.: Condens. Matter 24, 424209 (2012).
     *

     Carrying out vdW-DF run using the following parameters:

     Nqs =      20    Nr_points =    1024   r_max =   100.000
     q_mesh =
               0.00001000     0.04494208     0.09755937     0.15916263
               0.23128650     0.31572767     0.41458969     0.53033537
               0.66584808     0.82450364     1.01025438     1.22772762
               1.48234092     1.78043706     2.12944203     2.53805004
               3.01644009     3.57652955     4.23227104     5.00000000

     Gradients computed in reciprocal space

     Adding external electric field

     Computed dipole along edir(3) :
        Dipole               -0.0232 Ry au,         -0.0591 Debye
        Dipole field         -0.0000 Ry au

        Potential amp.        0.0036 Ry
        Total length         47.6094 bohr

     Starting wfc are  161 randomized atomic wfcs

     Self-consistent Calculation

     iteration #  1     ecut=    36.75 Ry     beta=0.30
     Davidson diagonalization with overlap
     ethr =  1.00E-02,  avg # of iterations =  2.0

[...]

     total energy              =   -1143.78298482 Ry
     Harris-Foulkes estimate   =   -1146.44434679 Ry
     estimated scf accuracy    <       5.80301267 Ry

[...]

     End of self-consistent calculation

          k = 0.0000 0.0000 0.0000 ( 28997 PWs)   bands (ev):

   -42.6596 -42.6277 -42.6274 -42.5402 -42.4988 -42.4985 -42.4946 -41.9963
   -41.9557 -41.9554 -41.9480 -41.6480 -22.7247 -22.7141 -22.6654 -22.6652
   -22.6580 -22.6578 -22.6428 -22.6423 -22.6422 -22.5704 -22.5019 -22.5016
   -22.4976 -22.4486 -22.3502 -22.3499 -22.3225 -22.3190 -22.3189 -22.2211
   -22.2211 -22.1409 -22.1121 -22.1119 -21.9296 -21.8911 -21.8909 -21.8824
   -21.8170 -21.8168 -21.8124 -21.7169 -21.7169 -21.6386 -21.6386 -21.5274
   -12.6639  -3.7860  -3.3536  -2.4727  -1.4888  -0.8142  -0.8142  -0.7738
    -0.7025  -0.7025  -0.6741  -0.3707  -0.3707  -0.3489  -0.2532  -0.2531
     0.1410   0.1544   0.1544   0.5261   0.7322   0.7322   0.9955   1.3979
     1.4548   1.5139   1.5139   1.5562   1.7352   1.9408   1.9409

[...]

          k =-0.0699 0.0404 0.0000 ( 29048 PWs)   bands (ev):

[...]

     the Fermi energy is     0.8088 ev

!    total energy              =   -1145.80166358 Ry
     Harris-Foulkes estimate   =   -1145.80168770 Ry
     estimated scf accuracy    <       0.00000622 Ry

     The total energy is the sum of the following terms:

     one-electron contribution =   -5487.03222213 Ry
     hartree contribution      =    2737.35986689 Ry
     xc contribution           =    -345.03754351 Ry
     ewald contribution        =    1949.03026076 Ry
     electric field correction =       0.00012582 Ry
     smearing contrib. (-TS)   =      -0.12215141 Ry

     convergence has been achieved in  17 iterations

 BEEF-vdW xc energy contributions
           1 :   -300.810491236330
           2 :    269.981081725087
           3 :   -216.996631037581
           4 :    154.945593505027
           5 :   -95.9151048598050
           6 :    47.4483438117596
           7 :   -12.0697076712278
           8 :   -10.9339346590953
           9 :    23.2703752636408
          10 :   -26.3974821950861
          11 :    21.6280422349145
          12 :   -10.9507060246391
          13 :   -2.44874942033925
          14 :    14.6193792613329
          15 :   -22.0959812749811
          16 :    23.1790288734057
          17 :   -18.4213564141352
          18 :    10.0538065852521
          19 :  -0.798680459582954
          20 :   -7.17085721220366
          21 :    12.6376133854232
          22 :   -15.1721829299082
          23 :    14.7944307188887
          24 :   -11.8216208554047
          25 :    6.94495422214402
          26 :   -1.30569412940457
          27 :   -3.68097567490167
          28 :    6.78022101023760
          29 :   -7.42795069126532
          30 :    5.93400600133816
          31 :   -28.9088801818970
          32 :   -19.7530137201094

     Forces acting on atoms (Ry/au):

     negative rho (up, down):  5.345E-04 0.000E+00
     atom    1 type  1   force =    -0.00041554   -0.00026982    0.00467421
     atom    2 type  1   force =     0.00040925   -0.00025173    0.00466499
     atom    3 type  1   force =     0.00001329    0.00048727    0.00468803
     atom    4 type  1   force =    -0.00001269    0.00002350    0.00559015
     atom    5 type  1   force =     0.00000158    0.00768221   -0.00266253
     atom    6 type  1   force =     0.00000982    0.00001132    0.00460955
     atom    7 type  1   force =    -0.00664814   -0.00383090   -0.00261862
     atom    8 type  1   force =     0.00665291   -0.00383616   -0.00262047
     atom    9 type  1   force =     0.00001009   -0.00002718    0.08254518
     atom   10 type  1   force =    -0.00001455   -0.00146913    0.00191289
     atom   11 type  1   force =    -0.00124690    0.00073598    0.00193348
     atom   12 type  1   force =     0.00124096    0.00074853    0.00191919
     atom   13 type  2   force =     0.00000008   -0.00000187   -0.06359740
     atom   14 type  3   force =    -0.00000016   -0.00000203   -0.04103866

     Total force =     0.112071     Total SCF correction =     0.002099

     entering subroutine stress ...

     negative rho (up, down):  5.345E-04 0.000E+00
          total   stress  (Ry/bohr**3)                   (kbar)     P=   -6.29
  -0.00001535   0.00000000  -0.00000000         -2.26      0.00     -0.00
   0.00000000  -0.00001535   0.00000000          0.00     -2.26      0.00
  -0.00000000   0.00000000  -0.00009758         -0.00      0.00    -14.35

     BFGS Geometry Optimization

     number of scf cycles    =   1
     number of bfgs steps    =   0

     energy   new            =   -1145.8016635819 Ry

     new trust radius        =       0.0825451886 bohr
     new conv_thr            =       0.0000099958 Ry

ATOMIC_POSITIONS (crystal)
Y1       0.166666667   0.166666667   0.386999750    0   0   0
Y1       0.666666667   0.166666667   0.386999750    0   0   0
Y1       0.166666667   0.666666667   0.386999750    0   0   0
Y1       0.666666667   0.666666667   0.386999750    0   0   0
Y1       0.833333333   0.333333333   0.500000000    0   0   0
Y1       0.333333333   0.333333333   0.500000000    0   0   0
Y1       0.833333333   0.833333333   0.500000000    0   0   0
Y1       0.333333333   0.833333333   0.500000000    0   0   0
Y1       0.000001907  -0.000002322   0.614690704
Y1       0.500061680  -0.000125512   0.613039424
Y1      -0.000123694   0.500062877   0.613039846
Y1       0.500059840   0.500063949   0.613039553
N1       0.000000086  -0.000000160   0.697553724
H1       0.000000075  -0.000000173   0.738650681

     Writing output data file calc.save
     Check: negative starting charge=   -0.000492
     NEW-OLD atomic charge density approx. for the potential
     Check: negative starting charge=   -0.000495

[...]

     energy   old            =   -1145.8016635819 Ry
     energy   new            =   -1145.8122404365 Ry

     CASE: energy  _new < energy  _old

[...]

     Threshold (ethr) on eigenvalues was too large:
     Diagonalizing with lowered threshold

     Davidson diagonalization with overlap
     ethr =  5.55E-08,  avg # of iterations =  9.3

[...]

     WARNING: bfgs curvature condition failed, Theta= 0.852
     new trust radius        =       0.0155226287 bohr
     new conv_thr            =       0.0000001000 Ry

[...]

     Threshold (ethr) on eigenvalues was too large:
     Diagonalizing with lowered threshold

     Davidson diagonalization with overlap
     ethr =  9.89E-08,  avg # of iterations =  7.5

[...]

     number of scf cycles    =  12
     number of bfgs steps    =  11

     energy   old            =   -1145.8291683907 Ry
     energy   new            =   -1145.8304626872 Ry

     CASE: energy  _new < energy  _old

     new trust radius        =       0.0421913752 bohr
     new conv_thr            =       0.0000001000 Ry

ATOMIC_POSITIONS (crystal)
Y1       0.166666667   0.166666667   0.386999750    0   0   0
Y1       0.666666667   0.166666667   0.386999750    0   0   0
Y1       0.166666667   0.666666667   0.386999750    0   0   0
Y1       0.666666667   0.666666667   0.386999750    0   0   0
Y1       0.833333333   0.333333333   0.500000000    0   0   0
Y1       0.333333333   0.333333333   0.500000000    0   0   0
Y1       0.833333333   0.833333333   0.500000000    0   0   0
Y1       0.333333333   0.833333333   0.500000000    0   0   0
Y1      -0.000008283   0.000007400   0.606852476
Y1       0.501553578  -0.003103276   0.613860886
Y1      -0.003105740   0.501549185   0.613860056
Y1       0.501559847   0.501544765   0.613860118
N1       0.000002768  -0.000003079   0.684765866
H1       0.000000822  -0.000001374   0.724366623

     Writing output data file calc.save
     Check: negative starting charge=   -0.000518
     NEW-OLD atomic charge density approx. for the potential
     Check: negative starting charge=   -0.000520

[...]

     Self-consistent Calculation

[...]

     total energy              =   -1145.83052032 Ry
     Harris-Foulkes estimate   =   -1145.83052029 Ry
     estimated scf accuracy    <       0.00000028 Ry

     iteration # 11     ecut=    36.75 Ry     beta=0.30
     Davidson diagonalization with overlap
     ethr =  2.04E-10,  avg # of iterations =  7.6

[...]

     negative rho (up, down):  5.430E-04 0.000E+00

     Adding external electric field

     Computed dipole along edir(3) :
        Dipole               -0.0584 Ry au,         -0.1485 Debye
        Dipole field         -0.0001 Ry au

        Potential amp.        0.0090 Ry
        Total length         47.6094 bohr

     End of self-consistent calculation

[...]

          k = 0.0466-0.0538 0.0000 ( 29098 PWs)   bands (ev):

[...]

          k =-0.0699-0.0404 0.0000 ( 29048 PWs)   bands (ev):

   -42.4818 -42.4707 -42.4603 -42.3259 -42.3241 -42.3045 -42.3024 -41.7891
   -41.7646 -41.7506 -41.7429 -41.0262 -22.5219 -22.5037 -22.4897 -22.4858
   -22.4057 -22.3847 -22.3718 -22.3710 -22.3579 -22.3430 -22.3406 -22.3186
   -22.3052 -22.3008 -22.2448 -22.2422 -22.2118 -22.2091 -22.1857 -22.0775
   -22.0763 -21.8632 -21.8464 -21.7518 -21.7248 -21.7157 -21.7095 -21.6999
   -21.6973 -21.6779 -21.6708 -21.5664 -21.5621 -21.1831 -21.0849 -21.0673
   -12.8377  -3.8555  -2.0868  -2.0056  -1.3343  -1.1014  -0.7220  -0.7199
    -0.3792  -0.3712  -0.1383  -0.0383   0.0389   0.0823   0.7364   0.7410
     0.7887   0.7900   0.8714   0.8988   0.9578   1.0506   1.1130   1.1386
     1.1926   1.2820   1.2956   1.4843   1.5162   1.5190   1.5860

     the Fermi energy is     1.0054 ev

!    total energy              =   -1145.83052108 Ry
     Harris-Foulkes estimate   =   -1145.83051994 Ry
     estimated scf accuracy    <       0.00000007 Ry

     The total energy is the sum of the following terms:

     one-electron contribution =   -5555.97061276 Ry
     hartree contribution      =    2772.73909549 Ry
     xc contribution           =    -345.21721230 Ry
     ewald contribution        =    1982.74035603 Ry
     electric field correction =       0.00000555 Ry
     smearing contrib. (-TS)   =      -0.12215308 Ry

     convergence has been achieved in  11 iterations

 BEEF-vdW xc energy contributions
           1 :   -300.986137191695
           2 :    270.192546396842
           3 :   -217.239591019416
           4 :    155.176109964964
           5 :   -96.0795022995609
           6 :    47.5159123898716
           7 :   -12.0489494007850
           8 :   -11.0043695207982
           9 :    23.3475570567894
          10 :   -26.4575980435549
          11 :    21.6713003426621
          12 :   -10.9875733271692
          13 :   -2.41442911170873
          14 :    14.5945304187265
          15 :   -22.0888330076170
          16 :    23.1886095200026
          17 :   -18.4372640500877
          18 :    10.0654792949607
          19 :  -0.804519253539866
          20 :   -7.16303576986400
          21 :    12.6191321703758
          22 :   -15.1434159041879
          23 :    14.7665525692045
          24 :   -11.8079545065299
          25 :    6.94930060491265
          26 :   -1.31843304557549
          27 :   -3.67508926286740
          28 :    6.78988013619107
          29 :   -7.44985944520931
          30 :    5.95820797411238
          31 :   -28.9211631655568
          32 :   -19.7723223981345

     Forces acting on atoms (Ry/au):

     negative rho (up, down):  5.430E-04 0.000E+00
     atom    1 type  1   force =    -0.00007427   -0.00004310    0.00502021
     atom    2 type  1   force =     0.00007446   -0.00004263    0.00501912
     atom    3 type  1   force =     0.00000052    0.00008627    0.00501956
     atom    4 type  1   force =    -0.00000068    0.00000013    0.00680650
     atom    5 type  1   force =     0.00000051    0.01372076   -0.00827538
     atom    6 type  1   force =     0.00000027   -0.00000122    0.00879864
     atom    7 type  1   force =    -0.01188286   -0.00685987   -0.00827343
     atom    8 type  1   force =     0.01188199   -0.00685978   -0.00827291
     atom    9 type  1   force =     0.00000770   -0.00001313    0.00146219
     atom   10 type  1   force =    -0.00000491    0.00104621   -0.00182963
     atom   11 type  1   force =     0.00091271   -0.00052109   -0.00182802
     atom   12 type  1   force =    -0.00091488   -0.00051444   -0.00182839
     atom   13 type  2   force =    -0.00000148    0.00000302   -0.00069701
     atom   14 type  3   force =     0.00000092   -0.00000114   -0.00112146

     Total force =     0.004149     Total SCF correction =     0.000376

     entering subroutine stress ...

     negative rho (up, down):  5.430E-04 0.000E+00
          total   stress  (Ry/bohr**3)                   (kbar)     P=   -2.59
  -0.00001500   0.00000000  -0.00000000         -2.21      0.00     -0.00
   0.00000000  -0.00001500   0.00000000          0.00     -2.21      0.00
  -0.00000000   0.00000000  -0.00002283         -0.00      0.00     -3.36

     bfgs converged in  13 scf cycles and  12 bfgs steps
     (criteria: energy <  1.0E+00, force <  1.9E-03)

     End of BFGS Geometry Optimization

     Final energy   =   -1145.8305210819 Ry
Begin final coordinates

ATOMIC_POSITIONS (crystal)
Y1       0.166666667   0.166666667   0.386999750    0   0   0
Y1       0.666666667   0.166666667   0.386999750    0   0   0
Y1       0.166666667   0.666666667   0.386999750    0   0   0
Y1       0.666666667   0.666666667   0.386999750    0   0   0
Y1       0.833333333   0.333333333   0.500000000    0   0   0
Y1       0.333333333   0.333333333   0.500000000    0   0   0
Y1       0.833333333   0.833333333   0.500000000    0   0   0
Y1       0.333333333   0.833333333   0.500000000    0   0   0
Y1      -0.000008283   0.000007400   0.606852476
Y1       0.501553578  -0.003103276   0.613860886
Y1      -0.003105740   0.501549185   0.613860056
Y1       0.501559847   0.501544765   0.613860118
N1       0.000002768  -0.000003079   0.684765866
H1       0.000000822  -0.000001374   0.724366623
End final coordinates

     Writing output data file calc.save

     General routines

     Parallel routines

   This run was terminated on:  21:54:45  24Apr2018

   JOB DONE.
Job  /afs/slac/g/suncat/bin/suncat-tsmpirun -x LD_LIBRARY_PATH -wdir /scratch/qe207129_nqb63 pw.x -npool 4 -in pw.inp

TID   HOST_NAME   COMMAND_LINE            STATUS            TERMINATION_TIME
00000 suncat0022 pw.x -npool 4 -i  Done                     04/24/2018 21:54:45
00001 suncat0022 pw.x -npool 4 -i  Done                     04/24/2018 21:54:45
00002 suncat0022 pw.x -npool 4 -i  Done                     04/24/2018 21:54:45
00003 suncat0022 pw.x -npool 4 -i  Done                     04/24/2018 21:54:45
00004 suncat0022 pw.x -npool 4 -i  Done                     04/24/2018 21:54:45
00005 suncat0022 pw.x -npool 4 -i  Done                     04/24/2018 21:54:45
00006 suncat0022 pw.x -npool 4 -i  Done                     04/24/2018 21:54:45
00007 suncat0022 pw.x -npool 4 -i  Done                     04/24/2018 21:54:45
00008 suncat0015 pw.x -npool 4 -i  Done                     04/24/2018 21:54:45
00009 suncat0015 pw.x -npool 4 -i  Done                     04/24/2018 21:54:45
00010 suncat0015 pw.x -npool 4 -i  Done                     04/24/2018 21:54:45
00011 suncat0015 pw.x -npool 4 -i  Done                     04/24/2018 21:54:45
00012 suncat0015 pw.x -npool 4 -i  Done                     04/24/2018 21:54:45
00013 suncat0015 pw.x -npool 4 -i  Done                     04/24/2018 21:54:45
00014 suncat0015 pw.x -npool 4 -i  Done                     04/24/2018 21:54:45
00015 suncat0015 pw.x -npool 4 -i  Done                     04/24/2018 21:54:45
00016 suncat0173 pw.x -npool 4 -i  Done                     04/24/2018 21:54:45
00017 suncat0173 pw.x -npool 4 -i  Done                     04/24/2018 21:54:45
00018 suncat0173 pw.x -npool 4 -i  Done                     04/24/2018 21:54:45
00019 suncat0173 pw.x -npool 4 -i  Done                     04/24/2018 21:54:45
00020 suncat0173 pw.x -npool 4 -i  Done                     04/24/2018 21:54:45
00021 suncat0173 pw.x -npool 4 -i  Done                     04/24/2018 21:54:45
00022 suncat0173 pw.x -npool 4 -i  Done                     04/24/2018 21:54:45
00023 suncat0173 pw.x -npool 4 -i  Done                     04/24/2018 21:54:45
00024 suncat0160 pw.x -npool 4 -i  Done                     04/24/2018 21:54:45
00025 suncat0160 pw.x -npool 4 -i  Done                     04/24/2018 21:54:45
00026 suncat0160 pw.x -npool 4 -i  Done                     04/24/2018 21:54:45
00027 suncat0160 pw.x -npool 4 -i  Done                     04/24/2018 21:54:45
00028 suncat0160 pw.x -npool 4 -i  Done                     04/24/2018 21:54:45
00029 suncat0160 pw.x -npool 4 -i  Done                     04/24/2018 21:54:45
00030 suncat0160 pw.x -npool 4 -i  Done                     04/24/2018 21:54:45
00031 suncat0160 pw.x -npool 4 -i  Done                     04/24/2018 21:54:45