     Program PWSCF v.5.1rc2 (svn rev. 11289) starts on 24Apr2018 at 13:45:12

     Current dimensions of program PWSCF are:
     Max number of different atomic species (ntypx) = 10
     Max number of k-points (npk) =  40000
     Max angular momentum in pseudopotentials (lmaxx) =  3
     Presently stress not available with electric field

     IMPORTANT: XC functional enforced from input :
     Exchange-correlation      = BEEF-VDW ( 1  4 27 13 2)
     Any further DFT definition will be discarded
     Please, verify this is what you really want

     Subspace diagonalization in iterative solution of the eigenvalue problem:
     a serial algorithm will be used

     bravais-lattice index     =            0
     lattice parameter (alat)  =       1.8897  a.u.
     unit-cell volume          =    4704.3541 (a.u.)^3
     number of atoms/cell      =           14
     number of atomic types    =            3
     number of electrons       =       173.00
     number of Kohn-Sham states=           96
     kinetic-energy cutoff     =      36.7493  Ry
     charge density cutoff     =     367.4932  Ry
     convergence threshold     =      1.0E-05
     mixing beta               =       0.3000
     number of iterations used =           10  plain     mixing
     Exchange-correlation      = BEEF-VDW ( 1  4 27 13 2)
     nstep                     =           50

     celldm(1)=   1.889726  celldm(2)=   0.000000  celldm(3)=   0.000000
     celldm(4)=   0.000000  celldm(5)=   0.000000  celldm(6)=   0.000000

     crystal axes: (cart. coord. in units of alat)
               a(1) = (   5.712816   0.000000   0.000000 )
               a(2) = (   2.856408   4.947444   0.000000 )
               a(3) = (   0.000000   0.000000  24.664495 )

     reciprocal axes: (cart. coord. in units 2 pi/alat)
               b(1) = (  0.175045 -0.101062  0.000000 )
               b(2) = (  0.000000  0.202125  0.000000 )
               b(3) = (  0.000000  0.000000  0.040544 )

     PseudoPot. # 1 for W  read from file:
     /u/if/mamunm/psp/gbrv1.5pbe/W.UPF
     MD5 check sum: 9c083fa34c2a2ea0f02f1f893e16e1c8
     Pseudo is Ultrasoft + core correction, Zval = 14.0
     Generated by new atomic code, or converted to UPF format
     Using radial grid of  923 points,  8 beta functions with:
                l(1) =   0
                l(2) =   0
                l(3) =   0
                l(4) =   1
                l(5) =   1
                l(6) =   2
                l(7) =   2
                l(8) =   3
     Q(r) pseudized with  6 coefficients,  rinner =    1.350   1.350   1.350
                                                       1.350   1.350   1.350
                                                       1.350

     PseudoPot. # 2 for C  read from file:
     /u/if/mamunm/psp/gbrv1.5pbe/C.UPF
     MD5 check sum: d1aef80898a10debaa0f26306b886e00
     Pseudo is Ultrasoft + core correction, Zval =  4.0
     Generated by new atomic code, or converted to UPF format
     Using radial grid of  721 points,  4 beta functions with:
                l(1) =   0
                l(2) =   0
                l(3) =   1
                l(4) =   1
     Q(r) pseudized with  8 coefficients,  rinner =    1.100   1.100   1.100

     PseudoPot. # 3 for H  read from file:
     /u/if/mamunm/psp/gbrv1.5pbe/H.UPF
     MD5 check sum: 761ae9a214b05c3daf00ab9f6b793d6f
     Pseudo is Ultrasoft, Zval =  1.0
     Generated by new atomic code, or converted to UPF format
     Using radial grid of  615 points,  2 beta functions with:
                l(1) =   0
                l(2) =   0
     Q(r) pseudized with  8 coefficients,  rinner =    0.700

     vdW kernel table read from file vdW_kernel_table
     MD5 check sum: 095c7af220d748ca6e76c0b4c6cfb241

     atomic species   valence    mass     pseudopotential
        W1            14.00   183.84000     W ( 1.00)
        C1             4.00    12.01100     C ( 1.00)
        H1             1.00     1.00800     H ( 1.00)

     No symmetry found

   Cartesian axes

     site n.     atom                  positions (alat units)
         1           W1  tau(   1) = (   1.4282041   0.8245740  10.0000000  )
         2           W1  tau(   2) = (   4.2846123   0.8245740  10.0000000  )
         3           W1  tau(   3) = (   2.8564082   3.2982961  10.0000000  )
         4           W1  tau(   4) = (   5.7128165   3.2982961  10.0000000  )
         5           W1  tau(   5) = (   5.7128165   1.6491481  12.3322476  )
         6           W1  tau(   6) = (   2.8564082   1.6491481  12.3322476  )
         7           W1  tau(   7) = (   7.1410206   4.1228701  12.3322476  )
         8           W1  tau(   8) = (   4.2846123   4.1228701  12.3322476  )
         9           W1  tau(   9) = (   0.0000000   0.0000000  14.6644951  )
        10           W1  tau(  10) = (   2.8564082   0.0000000  14.6644951  )
        11           W1  tau(  11) = (   1.4282041   2.4737221  14.6644951  )
        12           W1  tau(  12) = (   4.2846123   2.4737221  14.6644951  )
        13           C1  tau(  13) = (   0.0000000   0.0000000  16.6874951  )
        14           H1  tau(  14) = (   0.0000000   0.0000000  17.7874951  )

     number of k points=    20  Fermi-Dirac smearing, width (Ry)=  0.0110
                       cart. coord. in units 2pi/alat
        k(    1) = (   0.0000000   0.0000000   0.0000000), wk =   0.0555556
        k(    2) = (   0.0000000   0.0336874   0.0000000), wk =   0.1111111
        k(    3) = (   0.0000000   0.0673749   0.0000000), wk =   0.1111111
        k(    4) = (   0.0000000  -0.1010623   0.0000000), wk =   0.0555556
        k(    5) = (   0.0291742  -0.0168437   0.0000000), wk =   0.1111111
        k(    6) = (   0.0291742   0.0168437   0.0000000), wk =   0.1111111
        k(    7) = (   0.0291742   0.0505311   0.0000000), wk =   0.1111111
        k(    8) = (   0.0291742  -0.1179060   0.0000000), wk =   0.1111111
        k(    9) = (   0.0291742  -0.0842186   0.0000000), wk =   0.1111111
        k(   10) = (   0.0291742  -0.0505311   0.0000000), wk =   0.1111111
        k(   11) = (   0.0583483  -0.0336874   0.0000000), wk =   0.1111111
        k(   12) = (   0.0583483  -0.0000000   0.0000000), wk =   0.1111111
        k(   13) = (   0.0583483   0.0336874   0.0000000), wk =   0.1111111
        k(   14) = (   0.0583483  -0.1347497   0.0000000), wk =   0.1111111
        k(   15) = (   0.0583483  -0.1010623   0.0000000), wk =   0.1111111
        k(   16) = (   0.0583483  -0.0673749   0.0000000), wk =   0.1111111
        k(   17) = (  -0.0875225   0.0505311   0.0000000), wk =   0.0555556
        k(   18) = (  -0.0875225   0.0842186   0.0000000), wk =   0.1111111
        k(   19) = (  -0.0875225   0.1179060   0.0000000), wk =   0.1111111
        k(   20) = (  -0.0875225  -0.0505311   0.0000000), wk =   0.0555556

     Largest allocated arrays     est. size (Mb)     dimensions
     Largest temporary arrays     est. size (Mb)     dimensions

     Initial potential from superposition of free atoms
     Check: negative starting charge=   -0.760288

     starting charge  171.79587, renormalised to  173.00000

     negative rho (up, down):  7.656E-01 0.000E+00

     *
     * You are using vdW-DF for exchange-correlation in this calculation.
     * Please cite the following three references that made this development
     * possible:
     *
     *   M. Dion, H. Rydberg, E. Schroder, D. C. Langreth, and
     *   B. I. Lundqvist, Phys. Rev. Lett. 92, 246401 (2004).
     *
     *   T. Thonhauser, V. R. Cooper, S. Li, A. Puzder, P. Hyldgaard, and
     *   D. C. Langreth, Phys. Rev. B 76, 125112 (2007).
     *
     *   G. Roman-Perez and J. M. Soler, Phys. Rev. Lett. 103, 096102 (2009).
     *
     *
     * If you are using vdW-DF2, please also cite:
     *
     *   K. Lee, E. D. Murray, L. Kong, B. I. Lundqvist, and
     *   D. C. Langreth, Phys. Rev. B 82, 081101(R) (2010).
     *
     *
     * If you are calculating the stress with vdW-DF, please also cite:
     *
     *   R. Sabatini, E. Kucukbenli, B. Kolb, T. Thonhauser, and
     *   S. de Gironcoli, J. Phys.: Condens. Matter 24, 424209 (2012).
     *

     Carrying out vdW-DF run using the following parameters:

     Nqs =      20    Nr_points =    1024   r_max =   100.000
     q_mesh =
               0.00001000     0.04494208     0.09755937     0.15916263
               0.23128650     0.31572767     0.41458969     0.53033537
               0.66584808     0.82450364     1.01025438     1.22772762
               1.48234092     1.78043706     2.12944203     2.53805004
               3.01644009     3.57652955     4.23227104     5.00000000

     Gradients computed in reciprocal space

     Adding external electric field

     Computed dipole along edir(3) :
        Dipole               -0.3026 Ry au,         -0.7691 Debye
        Dipole field         -0.0008 Ry au

        Potential amp.        0.0735 Ry
        Total length         45.4439 bohr

     Starting wfc are  161 randomized atomic wfcs

     Self-consistent Calculation

     iteration #  1     ecut=    36.75 Ry     beta=0.30
     Davidson diagonalization with overlap
     ethr =  1.00E-02,  avg # of iterations =  2.0

[...]

     total energy              =   -1935.79448839 Ry
     Harris-Foulkes estimate   =   -1937.84235860 Ry
     estimated scf accuracy    <       4.49633055 Ry

[...]

     End of self-consistent calculation

          k = 0.0000 0.0000 0.0000 ( 17753 PWs)   bands (ev):

   -71.5041 -71.4468 -71.4467 -71.3984 -71.3554 -71.3144 -71.2989 -71.2988
   -71.2948 -71.2821 -71.2723 -71.2723 -35.9975 -35.9975 -35.9752 -35.9628
   -35.9272 -35.9272 -35.9061 -35.8032 -35.8032 -35.8014 -35.6372 -35.5700
   -35.5700 -35.4624 -35.4318 -35.4271 -35.4270 -35.3551 -35.3113 -35.3113
   -35.2510 -35.2252 -35.2107 -35.2107 -35.1931 -35.1931 -35.1451 -35.1071
   -35.1071 -35.1042 -35.0842 -35.0842 -35.0145 -35.0144 -34.9331 -34.9331
    -8.1260  -5.3890  -3.6760  -2.7880  -2.5246  -2.2274  -2.2274  -2.1615
    -2.0044  -2.0044  -1.6292  -1.2402  -1.2402  -1.2232  -1.1958  -1.1958
    -1.0012   0.0113   0.0113   0.2651   1.2642   1.2642   1.4374   1.5607
     1.8237   2.0774   2.0774   2.2308   2.2308   2.2992   2.4147   2.4147
     2.5580   2.5580   2.6366   2.7245   2.7245   2.8094   2.8094   3.0149
     3.5288   3.7887   4.0512   4.0512   4.4198   4.4802   4.4802   4.7056

[...]

          k =-0.0875 0.0505 0.0000 ( 17668 PWs)   bands (ev):

[...]

     the Fermi energy is     2.8111 ev

!    total energy              =   -1937.42117683 Ry
     Harris-Foulkes estimate   =   -1937.42116155 Ry
     estimated scf accuracy    <       0.00000371 Ry

     The total energy is the sum of the following terms:

     one-electron contribution =  -14848.42297694 Ry
     hartree contribution      =    7411.04312618 Ry
     xc contribution           =    -514.53684418 Ry
     ewald contribution        =    6014.58829136 Ry
     electric field correction =       0.00017725 Ry
     smearing contrib. (-TS)   =      -0.09295050 Ry

     convergence has been achieved in  17 iterations

 BEEF-vdW xc energy contributions
           1 :   -452.589324395728
           2 :    418.630866107664
           3 :   -358.885176094714
           4 :    286.484846373304
           5 :   -215.034968225890
           6 :    154.700391779476
           7 :   -110.063923583680
           8 :    80.2448724648624
           9 :   -60.8540906764763
          10 :    46.6954140045691
          11 :   -34.0015530205641
          12 :    21.4141456250806
          13 :   -9.62431504350195
          14 :   0.183947988409614
          15 :    5.76039814875264
          16 :   -8.20312969556619
          17 :    8.25681592469493
          18 :   -7.53503025947629
          19 :    7.34951126218573
          20 :   -8.16022975149014
          21 :    9.53186277040908
          22 :   -10.5613326636978
          23 :    10.4989144998194
          24 :   -9.20870862735734
          25 :    7.23561883607772
          26 :   -5.47915227563254
          27 :    4.68453383100541
          28 :   -5.04460849540249
          29 :    6.12444928496836
          30 :   -7.13099018498542
          31 :   -41.1022118493729
          32 :   -30.7797439120640

     Forces acting on atoms (Ry/au):

     negative rho (up, down):  7.926E-01 0.000E+00
     atom    1 type  1   force =     0.00146469    0.00084659   -0.00317861
     atom    2 type  1   force =    -0.00146481    0.00084811   -0.00317943
     atom    3 type  1   force =     0.00000208   -0.00169444   -0.00317138
     atom    4 type  1   force =    -0.00000216   -0.00000051   -0.00361412
     atom    5 type  1   force =    -0.00000323    0.00204249   -0.00535977
     atom    6 type  1   force =     0.00000303    0.00001121    0.01660710
     atom    7 type  1   force =    -0.00176144   -0.00102543   -0.00537202
     atom    8 type  1   force =     0.00176191   -0.00102761   -0.00537202
     atom    9 type  1   force =    -0.00000029   -0.00000045    0.17439680
     atom   10 type  1   force =     0.00000018    0.00434257   -0.00955820
     atom   11 type  1   force =     0.00376204   -0.00217187   -0.00955411
     atom   12 type  1   force =    -0.00376146   -0.00217110   -0.00955432
     atom   13 type  2   force =    -0.00000051    0.00000008   -0.12181208
     atom   14 type  3   force =    -0.00000004    0.00000035   -0.01127784

     Total force =     0.213799     Total SCF correction =     0.000999

     entering subroutine stress ...

     negative rho (up, down):  7.926E-01 0.000E+00
          total   stress  (Ry/bohr**3)                   (kbar)     P=  -49.94
  -0.00042086   0.00000000   0.00000000        -61.91      0.00      0.00
   0.00000000  -0.00042086  -0.00000000          0.00    -61.91     -0.00
   0.00000000  -0.00000000  -0.00017675          0.00     -0.00    -26.00

     BFGS Geometry Optimization

     number of scf cycles    =   1
     number of bfgs steps    =   0

     energy   new            =   -1937.4211768287 Ry

     new trust radius        =       0.1743968005 bohr
     new conv_thr            =       0.0000099958 Ry

ATOMIC_POSITIONS (crystal)
W1       0.166666667   0.166666667   0.405441099    0   0   0
W1       0.666666667   0.166666667   0.405441099    0   0   0
W1       0.166666667   0.666666667   0.405441099    0   0   0
W1       0.666666667   0.666666667   0.405441099    0   0   0
W1       0.833333333   0.333333333   0.500000000    0   0   0
W1       0.333333333   0.333333333   0.500000000    0   0   0
W1       0.833333333   0.833333333   0.500000000    0   0   0
W1       0.333333333   0.833333333   0.500000000    0   0   0
W1      -0.000000003  -0.000000048   0.598300588
W1       0.499767777   0.000464480   0.594353830
W1       0.000464629   0.499767697   0.594353917
W1       0.499767686   0.499767779   0.594353913
C1      -0.000000051   0.000000009   0.673966155
H1      -0.000000023   0.000000037   0.720936190

     Writing output data file calc.save
     Check: negative starting charge=   -0.760288
     NEW-OLD atomic charge density approx. for the potential
     Check: negative starting charge=   -0.760414

[...]

     energy   old            =   -1937.4211768287 Ry
     energy   new            =   -1937.4457324195 Ry

     CASE: energy  _new < energy  _old

[...]

     Threshold (ethr) on eigenvalues was too large:
     Diagonalizing with lowered threshold

     Davidson diagonalization with overlap
     ethr =  4.66E-08,  avg # of iterations =  2.3

[...]

     Total force =     0.006052     Total SCF correction =     0.000838
     SCF correction compared to forces is large: reduce conv_thr to get better values

[...]

     Threshold (ethr) on eigenvalues was too large:
     Diagonalizing with lowered threshold

     Davidson diagonalization with overlap
     ethr =  6.32E-08,  avg # of iterations =  1.4

[...]

     Total force =     0.005167     Total SCF correction =     0.000328

[...]

     number of scf cycles    =  12
     number of bfgs steps    =  11

     energy   old            =   -1937.4561840102 Ry
     energy   new            =   -1937.4562824916 Ry

     CASE: energy  _new < energy  _old

     new trust radius        =       0.0270872240 bohr
     new conv_thr            =       0.0000001000 Ry

ATOMIC_POSITIONS (crystal)
W1       0.166666667   0.166666667   0.405441099    0   0   0
W1       0.666666667   0.166666667   0.405441099    0   0   0
W1       0.166666667   0.666666667   0.405441099    0   0   0
W1       0.666666667   0.666666667   0.405441099    0   0   0
W1       0.833333333   0.333333333   0.500000000    0   0   0
W1       0.333333333   0.333333333   0.500000000    0   0   0
W1       0.833333333   0.833333333   0.500000000    0   0   0
W1       0.333333333   0.833333333   0.500000000    0   0   0
W1      -0.000000098   0.000000395   0.603086841
W1       0.500859528  -0.001719905   0.591340210
W1      -0.001719819   0.500859668   0.591339592
W1       0.500860216   0.500860744   0.591338777
C1      -0.000000125   0.000000087   0.677929562
H1      -0.000000134  -0.000000280   0.722022993

     Writing output data file calc.save
     Check: negative starting charge=   -0.759717
     NEW-OLD atomic charge density approx. for the potential
     Check: negative starting charge=   -0.759676

[...]

     Self-consistent Calculation

[...]

     total energy              =   -1937.45635094 Ry
     Harris-Foulkes estimate   =   -1937.45635085 Ry
     estimated scf accuracy    <       0.00000011 Ry

     iteration # 11     ecut=    36.75 Ry     beta=0.30
     Davidson diagonalization with overlap
     ethr =  6.33E-11,  avg # of iterations =  2.8

[...]

     negative rho (up, down):  7.919E-01 0.000E+00

     Adding external electric field

     Computed dipole along edir(3) :
        Dipole                0.1501 Ry au,          0.3814 Debye
        Dipole field          0.0004 Ry au

        Potential amp.       -0.0364 Ry
        Total length         45.4439 bohr

     End of self-consistent calculation

[...]

          k = 0.0583-0.0674 0.0000 ( 17692 PWs)   bands (ev):

[...]

          k =-0.0875-0.0505 0.0000 ( 17668 PWs)   bands (ev):

   -71.5219 -71.5036 -71.4822 -71.4700 -71.4693 -71.4328 -71.4307 -71.4241
   -71.4164 -71.3986 -71.3914 -71.0696 -35.9678 -35.9657 -35.9648 -35.9056
   -35.8825 -35.8497 -35.7957 -35.7846 -35.7557 -35.7369 -35.7103 -35.6530
   -35.5872 -35.5504 -35.5330 -35.5250 -35.5162 -35.5021 -35.4516 -35.4456
   -35.4290 -35.4275 -35.4210 -35.4143 -35.3406 -35.3126 -35.2825 -35.2758
   -35.2512 -35.2362 -35.2297 -35.2002 -35.1539 -35.1338 -35.1327 -35.0093
    -7.8733  -3.6267  -3.5887  -2.5293  -2.0820  -1.7185  -1.3414  -1.3206
    -1.2291  -1.1565  -1.1156  -0.9831  -0.3927  -0.2724  -0.1449  -0.0450
     0.0495   0.1660   0.2473   0.3254   0.4424   0.7110   0.8124   0.8201
     0.9812   1.0313   1.1867   1.3904   1.5358   1.5727   1.5945   1.6455
     1.8060   1.8133   1.8437   1.9604   2.2249   2.2501   2.4172   2.5782
     2.6897   2.9537   3.4919   3.5227   3.7125   3.8057   3.8932   3.9383

     the Fermi energy is     2.6829 ev

!    total energy              =   -1937.45635095 Ry
     Harris-Foulkes estimate   =   -1937.45635102 Ry
     estimated scf accuracy    <       0.00000003 Ry

     The total energy is the sum of the following terms:

     one-electron contribution =  -14854.04572362 Ry
     hartree contribution      =    7413.61280330 Ry
     xc contribution           =    -514.73294168 Ry
     ewald contribution        =    6017.80409870 Ry
     electric field correction =       0.00006015 Ry
     smearing contrib. (-TS)   =      -0.09464780 Ry

     convergence has been achieved in  11 iterations

 BEEF-vdW xc energy contributions
           1 :   -452.779138902918
           2 :    418.832227553862
           3 :   -359.102730731993
           4 :    286.699139582157
           5 :   -215.199997728306
           6 :    154.765599857534
           7 :   -110.005745417594
           8 :    80.0869135790542
           9 :   -60.6605213647326
          10 :    46.5399415106872
          11 :   -33.9304988307836
          12 :    21.4254652045735
          13 :   -9.67259421227709
          14 :   0.205214295359440
          15 :    5.81834676030525
          16 :   -8.35998037505163
          17 :    8.49631183352238
          18 :   -7.81573194197063
          19 :    7.62224710242805
          20 :   -8.38534825088465
          21 :    9.69173779968327
          22 :   -10.6654695604209
          23 :    10.5780333793896
          24 :   -9.29797262316748
          25 :    7.35481619671566
          26 :   -5.62104135195278
          27 :    4.81901997618962
          28 :   -5.13736106609610
          29 :    6.15936221185973
          30 :   -7.12246605058209
          31 :   -41.1134959791431
          32 :   -30.7910093931808

     Forces acting on atoms (Ry/au):

     negative rho (up, down):  7.919E-01 0.000E+00
     atom    1 type  1   force =     0.00075392    0.00043357    0.00172927
     atom    2 type  1   force =    -0.00075448    0.00042651    0.00173492
     atom    3 type  1   force =    -0.00000635   -0.00086587    0.00173578
     atom    4 type  1   force =     0.00000956    0.00000829   -0.00176076
     atom    5 type  1   force =     0.00000519   -0.02021287   -0.00112151
     atom    6 type  1   force =    -0.00000511   -0.00000510   -0.00317077
     atom    7 type  1   force =     0.01749950    0.01010459   -0.00110651
     atom    8 type  1   force =    -0.01750047    0.01011132   -0.00111811
     atom    9 type  1   force =    -0.00000643   -0.00000505    0.00023611
     atom   10 type  1   force =     0.00000792    0.00174247    0.00062207
     atom   11 type  1   force =     0.00151459   -0.00086352    0.00062635
     atom   12 type  1   force =    -0.00151733   -0.00087411    0.00064161
     atom   13 type  2   force =    -0.00000018    0.00000007    0.00096040
     atom   14 type  3   force =    -0.00000032   -0.00000030   -0.00000885

     Total force =     0.003363     Total SCF correction =     0.000338
     SCF correction compared to forces is large: reduce conv_thr to get better values

     entering subroutine stress ...

     negative rho (up, down):  7.919E-01 0.000E+00
          total   stress  (Ry/bohr**3)                   (kbar)     P=  -41.33
  -0.00038079  -0.00000000   0.00000000        -56.02     -0.00      0.00
  -0.00000000  -0.00038079   0.00000000         -0.00    -56.02      0.00
   0.00000000   0.00000000  -0.00008134          0.00      0.00    -11.97

     bfgs converged in  13 scf cycles and  12 bfgs steps
     (criteria: energy <  1.0E+00, force <  1.9E-03)

     End of BFGS Geometry Optimization

     Final energy   =   -1937.4563509539 Ry
Begin final coordinates

ATOMIC_POSITIONS (crystal)
W1       0.166666667   0.166666667   0.405441099    0   0   0
W1       0.666666667   0.166666667   0.405441099    0   0   0
W1       0.166666667   0.666666667   0.405441099    0   0   0
W1       0.666666667   0.666666667   0.405441099    0   0   0
W1       0.833333333   0.333333333   0.500000000    0   0   0
W1       0.333333333   0.333333333   0.500000000    0   0   0
W1       0.833333333   0.833333333   0.500000000    0   0   0
W1       0.333333333   0.833333333   0.500000000    0   0   0
W1      -0.000000098   0.000000395   0.603086841
W1       0.500859528  -0.001719905   0.591340210
W1      -0.001719819   0.500859668   0.591339592
W1       0.500860216   0.500860744   0.591338777
C1      -0.000000125   0.000000087   0.677929562
H1      -0.000000134  -0.000000280   0.722022993
End final coordinates

     Writing output data file calc.save

     General routines

     Parallel routines

   This run was terminated on:  15:35: 1  24Apr2018

   JOB DONE.
Job  /afs/slac/g/suncat/bin/suncat-tsmpirun -x LD_LIBRARY_PATH -wdir /scratch/qe846993_grcKk pw.x -npool 4 -in pw.inp

TID   HOST_NAME   COMMAND_LINE            STATUS            TERMINATION_TIME
00000 suncat0249 pw.x -npool 4 -i  Done                     04/24/2018 15:35:01
00001 suncat0249 pw.x -npool 4 -i  Done                     04/24/2018 15:35:01
00002 suncat0249 pw.x -npool 4 -i  Done                     04/24/2018 15:35:01
00003 suncat0249 pw.x -npool 4 -i  Done                     04/24/2018 15:35:01
00004 suncat0249 pw.x -npool 4 -i  Done                     04/24/2018 15:35:01
00005 suncat0249 pw.x -npool 4 -i  Done                     04/24/2018 15:35:01
00006 suncat0249 pw.x -npool 4 -i  Done                     04/24/2018 15:35:01
00007 suncat0249 pw.x -npool 4 -i  Done                     04/24/2018 15:35:01
00008 suncat0240 pw.x -npool 4 -i  Done                     04/24/2018 15:35:01
00009 suncat0240 pw.x -npool 4 -i  Done                     04/24/2018 15:35:01
00010 suncat0240 pw.x -npool 4 -i  Done                     04/24/2018 15:35:01
00011 suncat0240 pw.x -npool 4 -i  Done                     04/24/2018 15:35:01
00012 suncat0240 pw.x -npool 4 -i  Done                     04/24/2018 15:35:01
00013 suncat0240 pw.x -npool 4 -i  Done                     04/24/2018 15:35:01
00014 suncat0240 pw.x -npool 4 -i  Done                     04/24/2018 15:35:01
00015 suncat0240 pw.x -npool 4 -i  Done                     04/24/2018 15:35:01
00016 suncat0224 pw.x -npool 4 -i  Done                     04/24/2018 15:35:01
00017 suncat0224 pw.x -npool 4 -i  Done                     04/24/2018 15:35:01
00018 suncat0224 pw.x -npool 4 -i  Done                     04/24/2018 15:35:01
00019 suncat0224 pw.x -npool 4 -i  Done                     04/24/2018 15:35:01
00020 suncat0224 pw.x -npool 4 -i  Done                     04/24/2018 15:35:01
00021 suncat0224 pw.x -npool 4 -i  Done                     04/24/2018 15:35:01
00022 suncat0224 pw.x -npool 4 -i  Done                     04/24/2018 15:35:01
00023 suncat0224 pw.x -npool 4 -i  Done                     04/24/2018 15:35:01
00024 suncat0210 pw.x -npool 4 -i  Done                     04/24/2018 15:35:01
00025 suncat0210 pw.x -npool 4 -i  Done                     04/24/2018 15:35:01
00026 suncat0210 pw.x -npool 4 -i  Done                     04/24/2018 15:35:01
00027 suncat0210 pw.x -npool 4 -i  Done                     04/24/2018 15:35:01
00028 suncat0210 pw.x -npool 4 -i  Done                     04/24/2018 15:35:01
00029 suncat0210 pw.x -npool 4 -i  Done                     04/24/2018 15:35:01
00030 suncat0210 pw.x -npool 4 -i  Done                     04/24/2018 15:35:01
00031 suncat0210 pw.x -npool 4 -i  Done                     04/24/2018 15:35:01