     Program PWSCF v.5.1rc2 (svn rev. 11289) starts on  2May2018 at 17:41:38

     Current dimensions of program PWSCF are:
     Max number of different atomic species (ntypx) = 10
     Max number of k-points (npk) =  40000
     Max angular momentum in pseudopotentials (lmaxx) =  3
     Presently stress not available with electric field

     IMPORTANT: XC functional enforced from input :
     Exchange-correlation      = BEEF-VDW ( 1  4 27 13 2)
     Any further DFT definition will be discarded
     Please, verify this is what you really want

     Subspace diagonalization in iterative solution of the eigenvalue problem:
     a serial algorithm will be used

     bravais-lattice index     =            0
     lattice parameter (alat)  =       1.8897  a.u.
     unit-cell volume          =    4158.3597 (a.u.)^3
     number of atoms/cell      =           13
     number of atomic types    =            2
     number of electrons       =       161.00
     number of Kohn-Sham states=           90
     kinetic-energy cutoff     =      36.7493  Ry
     charge density cutoff     =     367.4932  Ry
     convergence threshold     =      1.0E-05
     mixing beta               =       0.3000
     number of iterations used =           10  plain     mixing
     Exchange-correlation      = BEEF-VDW ( 1  4 27 13 2)
     nstep                     =           50

     celldm(1)=   1.889726  celldm(2)=   0.000000  celldm(3)=   0.000000
     celldm(4)=   0.000000  celldm(5)=   0.000000  celldm(6)=   0.000000

     crystal axes: (cart. coord. in units of alat)
               a(1) = (   5.399178   0.000000   0.000000 )
               a(2) = (   2.699589   4.675825   0.000000 )
               a(3) = (   0.000000   0.000000  24.408411 )

     reciprocal axes: (cart. coord. in units 2 pi/alat)
               b(1) = (  0.185213 -0.106933  0.000000 )
               b(2) = (  0.000000  0.213866  0.000000 )
               b(3) = (  0.000000  0.000000  0.040969 )

     PseudoPot. # 1 for V  read from file:
     /u/if/mamunm/psp/gbrv1.5pbe/V.UPF
     MD5 check sum: 22b79981416ebb76fdaf5b1b8640f6fb
     Pseudo is Ultrasoft + core correction, Zval = 13.0
     Generated by new atomic code, or converted to UPF format
     Using radial grid of  853 points,  6 beta functions with:
                l(1) =   0
                l(2) =   0
                l(3) =   1
                l(4) =   1
                l(5) =   2
                l(6) =   2
     Q(r) pseudized with  8 coefficients,  rinner =    1.100   1.100   1.100
                                                       1.100   1.100

     PseudoPot. # 2 for N  read from file:
     /u/if/mamunm/psp/gbrv1.5pbe/N.UPF
     MD5 check sum: 95339753478d7afb44899504a8723017
     Pseudo is Ultrasoft + core correction, Zval =  5.0
     Generated by new atomic code, or converted to UPF format
     Using radial grid of  729 points,  4 beta functions with:
                l(1) =   0
                l(2) =   0
                l(3) =   1
                l(4) =   1
     Q(r) pseudized with  8 coefficients,  rinner =    0.900   0.900   0.900

     vdW kernel table read from file vdW_kernel_table
     MD5 check sum: 095c7af220d748ca6e76c0b4c6cfb241

     atomic species   valence    mass     pseudopotential
        V1            13.00    50.94150     V ( 1.00)
        N1             5.00    14.00700     N ( 1.00)

     No symmetry found

   Cartesian axes

     site n.     atom                  positions (alat units)
         1           V1  tau(   1) = (   1.3497945   0.7793042  10.0000000  )
         2           V1  tau(   2) = (   4.0493836   0.7793042  10.0000000  )
         3           V1  tau(   3) = (   2.6995891   3.1172170  10.0000000  )
         4           V1  tau(   4) = (   5.3991782   3.1172170  10.0000000  )
         5           V1  tau(   5) = (   5.3991782   1.5586085  12.2042053  )
         6           V1  tau(   6) = (   2.6995891   1.5586085  12.2042053  )
         7           V1  tau(   7) = (   6.7489727   3.8965212  12.2042053  )
         8           V1  tau(   8) = (   4.0493836   3.8965212  12.2042053  )
         9           V1  tau(   9) = (   0.0000000   0.0000000  14.4084105  )
        10           V1  tau(  10) = (   2.6995891   0.0000000  14.4084105  )
        11           V1  tau(  11) = (   1.3497945   2.3379127  14.4084105  )
        12           V1  tau(  12) = (   4.0493836   2.3379127  14.4084105  )
        13           N1  tau(  13) = (   2.6995891   1.5586085  15.8644105  )

     number of k points=    20  Fermi-Dirac smearing, width (Ry)=  0.0110
                       cart. coord. in units 2pi/alat
        k(    1) = (   0.0000000   0.0000000   0.0000000), wk =   0.0555556
        k(    2) = (   0.0000000   0.0356443   0.0000000), wk =   0.1111111
        k(    3) = (   0.0000000   0.0712887   0.0000000), wk =   0.1111111
        k(    4) = (   0.0000000  -0.1069330   0.0000000), wk =   0.0555556
        k(    5) = (   0.0308689  -0.0178222   0.0000000), wk =   0.1111111
        k(    6) = (   0.0308689   0.0178222   0.0000000), wk =   0.1111111
        k(    7) = (   0.0308689   0.0534665   0.0000000), wk =   0.1111111
        k(    8) = (   0.0308689  -0.1247552   0.0000000), wk =   0.1111111
        k(    9) = (   0.0308689  -0.0891108   0.0000000), wk =   0.1111111
        k(   10) = (   0.0308689  -0.0534665   0.0000000), wk =   0.1111111
        k(   11) = (   0.0617378  -0.0356443   0.0000000), wk =   0.1111111
        k(   12) = (   0.0617378   0.0000000   0.0000000), wk =   0.1111111
        k(   13) = (   0.0617378   0.0356443   0.0000000), wk =   0.1111111
        k(   14) = (   0.0617378  -0.1425773   0.0000000), wk =   0.1111111
        k(   15) = (   0.0617378  -0.1069330   0.0000000), wk =   0.1111111
        k(   16) = (   0.0617378  -0.0712887   0.0000000), wk =   0.1111111
        k(   17) = (  -0.0926067   0.0534665   0.0000000), wk =   0.0555556
        k(   18) = (  -0.0926067   0.0891108   0.0000000), wk =   0.1111111
        k(   19) = (  -0.0926067   0.1247552   0.0000000), wk =   0.1111111
        k(   20) = (  -0.0926067  -0.0534665   0.0000000), wk =   0.0555556

     Largest allocated arrays     est. size (Mb)     dimensions
     Largest temporary arrays     est. size (Mb)     dimensions

     Check: negative/imaginary core charge=   -0.000001    0.000000

     Initial potential from superposition of free atoms
     Check: negative starting charge=   -0.011689

     starting charge  160.98526, renormalised to  161.00000

     negative rho (up, down):  1.169E-02 0.000E+00

     *
     * You are using vdW-DF for exchange-correlation in this calculation.
     * Please cite the following three references that made this development
     * possible:
     *
     *   M. Dion, H. Rydberg, E. Schroder, D. C. Langreth, and
     *   B. I. Lundqvist, Phys. Rev. Lett. 92, 246401 (2004).
     *
     *   T. Thonhauser, V. R. Cooper, S. Li, A. Puzder, P. Hyldgaard, and
     *   D. C. Langreth, Phys. Rev. B 76, 125112 (2007).
     *
     *   G. Roman-Perez and J. M. Soler, Phys. Rev. Lett. 103, 096102 (2009).
     *
     *
     * If you are using vdW-DF2, please also cite:
     *
     *   K. Lee, E. D. Murray, L. Kong, B. I. Lundqvist, and
     *   D. C. Langreth, Phys. Rev. B 82, 081101(R) (2010).
     *
     *
     * If you are calculating the stress with vdW-DF, please also cite:
     *
     *   R. Sabatini, E. Kucukbenli, B. Kolb, T. Thonhauser, and
     *   S. de Gironcoli, J. Phys.: Condens. Matter 24, 424209 (2012).
     *

     Carrying out vdW-DF run using the following parameters:

     Nqs =      20    Nr_points =    1024   r_max =   100.000
     q_mesh =
               0.00001000     0.04494208     0.09755937     0.15916263
               0.23128650     0.31572767     0.41458969     0.53033537
               0.66584808     0.82450364     1.01025438     1.22772762
               1.48234092     1.78043706     2.12944203     2.53805004
               3.01644009     3.57652955     4.23227104     5.00000000

     Gradients computed in reciprocal space

     Adding external electric field

     Computed dipole along edir(3) :
        Dipole               -0.0031 Ry au,         -0.0079 Debye
        Dipole field         -0.0000 Ry au

        Potential amp.        0.0008 Ry
        Total length         44.9721 bohr

     Starting wfc are  124 randomized atomic wfcs

     Self-consistent Calculation

     iteration #  1     ecut=    36.75 Ry     beta=0.30
     Davidson diagonalization with overlap
     ethr =  1.00E-02,  avg # of iterations =  2.4

[...]

     total energy              =   -1764.07504264 Ry
     Harris-Foulkes estimate   =   -1769.88451580 Ry
     estimated scf accuracy    <      12.03720609 Ry

[...]

     iteration # 17     ecut=    36.75 Ry     beta=0.30
     Davidson diagonalization with overlap
     c_bands:  1 eigenvalues not converged
     ethr =  8.50E-06,  avg # of iterations =  6.4

[...]

     End of self-consistent calculation

          k = 0.0000 0.0000 0.0000 ( 15569 PWs)   bands (ev):

   -63.6743 -63.5937 -63.5554 -63.5547 -63.5424 -63.5190 -63.4850 -63.4843
   -63.4769 -63.4413 -63.4403 -63.4343 -37.7452 -37.7449 -37.7422 -37.6990
   -37.6988 -37.6967 -37.6915 -37.6031 -37.6018 -37.6013 -37.4564 -37.3939
   -37.3804 -37.3798 -37.3149 -37.3143 -37.3079 -37.2725 -37.2512 -37.2509
   -37.1856 -37.1754 -37.1750 -37.1694 -37.1691 -37.1665 -37.1271 -37.0993
   -37.0993 -37.0927 -37.0895 -37.0891 -37.0413 -37.0413 -36.9672 -36.9672
   -12.0977  -5.3662  -3.7563  -2.7603  -2.4973  -2.4789  -2.4788  -2.3903
    -2.3901  -2.2476  -1.8813  -1.8380  -1.8379  -1.6258  -1.6257  -1.6087
    -1.1977  -1.1977  -0.9135  -0.5123  -0.5122  -0.3242   0.1684   0.3215
     0.3216   0.4966   0.7406   0.8053   0.8053   0.8110   0.9447   0.9447
     0.9945   0.9947   1.0532   1.0793   1.0794   1.0926   1.2501   1.2503
     1.7064   1.7065

[...]

          k =-0.0926 0.0535 0.0000 ( 15660 PWs)   bands (ev):

[...]

     the Fermi energy is     0.6658 ev

!    total energy              =   -1769.23012457 Ry
     Harris-Foulkes estimate   =   -1769.23014373 Ry
     estimated scf accuracy    <       0.00000746 Ry

     The total energy is the sum of the following terms:

     one-electron contribution =  -15325.30783104 Ry
     hartree contribution      =    7649.99888141 Ry
     xc contribution           =    -249.59886769 Ry
     ewald contribution        =    6155.81737714 Ry
     electric field correction =       0.00025194 Ry
     smearing contrib. (-TS)   =      -0.13993633 Ry

     convergence has been achieved in  27 iterations

 BEEF-vdW xc energy contributions
           1 :   -215.019391059470
           2 :    192.889900542291
           3 :   -156.369124342668
           4 :    116.959053672843
           5 :   -84.6396312263404
           6 :    64.1233201407061
           7 :   -54.2527167236242
           8 :    50.2352145792885
           9 :   -47.0274390072590
          10 :    41.9000207034127
          11 :   -35.0710864002855
          12 :    28.5470232153068
          13 :   -24.2499324061565
          14 :    22.6629931494203
          15 :   -22.6951603441813
          16 :    22.6084511049193
          17 :   -21.2347140685753
          18 :    18.6422842469426
          19 :   -15.8909925062328
          20 :    14.1515888784260
          21 :   -13.8606207621232
          22 :    14.4795105874511
          23 :   -14.9561950837886
          24 :    14.4929746914431
          25 :   -13.0615017158996
          26 :    11.3373173764464
          27 :   -10.1616028934531
          28 :    9.94494888495893
          29 :   -10.4240493311952
          30 :    10.9008594747147
          31 :   -22.3475487938387
          32 :   -16.1042822088545

     Forces acting on atoms (Ry/au):

     negative rho (up, down):  1.566E-02 0.000E+00
     atom    1 type  1   force =     0.00013918    0.00008672   -0.00106129
     atom    2 type  1   force =    -0.00015168    0.00009889   -0.00113842
     atom    3 type  1   force =     0.00000953   -0.00017095   -0.00116071
     atom    4 type  1   force =    -0.00001466    0.00000616   -0.00306387
     atom    5 type  1   force =    -0.00000787   -0.00078931   -0.00135979
     atom    6 type  1   force =    -0.00000181    0.00001311    0.00112608
     atom    7 type  1   force =     0.00066790    0.00039175   -0.00133122
     atom    8 type  1   force =    -0.00066886    0.00038170   -0.00139560
     atom    9 type  1   force =     0.00001920   -0.00001209   -0.01990828
     atom   10 type  1   force =    -0.00001633    0.04485894    0.07442195
     atom   11 type  1   force =     0.03884817   -0.02243063    0.07441541
     atom   12 type  1   force =    -0.03884268   -0.02241631    0.07436097
     atom   13 type  2   force =     0.00001991   -0.00001797   -0.19390523

     Total force =     0.246246     Total SCF correction =     0.003382

     entering subroutine stress ...

     negative rho (up, down):  1.566E-02 0.000E+00
          total   stress  (Ry/bohr**3)                   (kbar)     P=  -26.12
  -0.00020517  -0.00000000  -0.00000003        -30.18     -0.00     -0.00
  -0.00000000  -0.00020512   0.00000003         -0.00    -30.17      0.00
  -0.00000003   0.00000003  -0.00012249         -0.00      0.00    -18.02

     BFGS Geometry Optimization

     number of scf cycles    =   1
     number of bfgs steps    =   0

     energy   new            =   -1769.2301245740 Ry

     new trust radius        =       0.1939052306 bohr
     new conv_thr            =       0.0000099958 Ry

ATOMIC_POSITIONS (crystal)
V1       0.166666667   0.166666667   0.409694847    0   0   0
V1       0.666666667   0.166666667   0.409694847    0   0   0
V1       0.166666667   0.666666667   0.409694847    0   0   0
V1       0.666666667   0.666666667   0.409694847    0   0   0
V1       0.833333333   0.333333333   0.500000000    0   0   0
V1       0.333333333   0.333333333   0.500000000    0   0   0
V1       0.833333333   0.833333333   0.500000000    0   0   0
V1       0.333333333   0.833333333   0.500000000    0   0   0
V1       0.000002566  -0.000001369   0.589873540
V1       0.497459989   0.005076821   0.591918630
V1       0.005076807   0.497461458   0.591918488
V1       0.497461462   0.497463079   0.591917308
N1       0.333336302   0.333331299   0.645752835

     Writing output data file calc.save
     Check: negative starting charge=   -0.011689
     NEW-OLD atomic charge density approx. for the potential

     Check: negative/imaginary core charge=   -0.000001    0.000000
     Check: negative starting charge=   -0.011172

[...]

     energy   old            =   -1769.2301245740 Ry
     energy   new            =   -1769.2840911470 Ry

     CASE: energy  _new < energy  _old

[...]

     iteration #  1     ecut=    36.75 Ry     beta=0.30
     Davidson diagonalization with overlap
     c_bands:  1 eigenvalues not converged
     c_bands:  1 eigenvalues not converged
     ethr =  1.00E-06,  avg # of iterations = 16.6

[...]

     WARNING: bfgs curvature condition failed, Theta= 0.908
     new trust radius        =       0.0320730005 bohr
     new conv_thr            =       0.0000001000 Ry

[...]

     number of scf cycles    =  11
     number of bfgs steps    =  10

     energy   old            =   -1769.3492809555 Ry
     energy   new            =   -1769.3501673798 Ry

     CASE: energy  _new < energy  _old

     new trust radius        =       0.0721642512 bohr
     new conv_thr            =       0.0000001000 Ry

ATOMIC_POSITIONS (crystal)
V1       0.166666667   0.166666667   0.409694847    0   0   0
V1       0.666666667   0.166666667   0.409694847    0   0   0
V1       0.166666667   0.666666667   0.409694847    0   0   0
V1       0.666666667   0.666666667   0.409694847    0   0   0
V1       0.833333333   0.333333333   0.500000000    0   0   0
V1       0.333333333   0.333333333   0.500000000    0   0   0
V1       0.833333333   0.833333333   0.500000000    0   0   0
V1       0.333333333   0.833333333   0.500000000    0   0   0
V1       0.000003866  -0.000002081   0.573866325
V1       0.504211274  -0.008421048   0.595746008
V1      -0.008420331   0.504209079   0.595746021
V1       0.504212761   0.504208574   0.595745430
N1       0.333337168   0.333328017   0.634931071

     Writing output data file calc.save
     Check: negative starting charge=   -0.011033
     NEW-OLD atomic charge density approx. for the potential

     Check: negative/imaginary core charge=   -0.000001    0.000000
     Check: negative starting charge=   -0.009897

[...]

     Self-consistent Calculation

[...]

     total energy              =   -1769.35081421 Ry
     Harris-Foulkes estimate   =   -1769.35081421 Ry
     estimated scf accuracy    <       0.00000016 Ry

     iteration # 21     ecut=    36.75 Ry     beta=0.30
     Davidson diagonalization with overlap
     ethr =  9.86E-11,  avg # of iterations =  1.2

[...]

     negative rho (up, down):  1.483E-02 0.000E+00

     Adding external electric field

     Computed dipole along edir(3) :
        Dipole               -0.1126 Ry au,         -0.2862 Debye
        Dipole field         -0.0003 Ry au

        Potential amp.        0.0306 Ry
        Total length         44.9721 bohr

     End of self-consistent calculation

[...]

          k = 0.0617-0.0713 0.0000 ( 15642 PWs)   bands (ev):

[...]

          k =-0.0926-0.0535 0.0000 ( 15660 PWs)   bands (ev):

   -63.4083 -63.3768 -63.3470 -63.3056 -63.2724 -63.2418 -63.2193 -63.2021
   -63.2006 -63.1793 -63.1620 -62.9492 -37.4544 -37.4163 -37.3534 -37.3480
   -37.3268 -37.3244 -37.2788 -37.2513 -37.2457 -37.2213 -37.2211 -37.2045
   -37.2044 -37.1753 -37.1386 -37.0980 -37.0785 -37.0769 -37.0298 -37.0130
   -37.0128 -37.0110 -36.9943 -36.9759 -36.9716 -36.9500 -36.9296 -36.9053
   -36.9022 -36.8620 -36.8499 -36.7834 -36.7770 -36.6331 -36.5856 -36.5191
   -13.0280  -3.8036  -3.4149  -3.0317  -2.9691  -2.7052  -2.0248  -1.7685
    -1.4476  -1.4041  -1.3283  -1.3071  -1.1979  -0.9298  -0.7690  -0.7253
    -0.5819  -0.5648  -0.3608  -0.3043  -0.2200   0.0067   0.0559   0.0750
     0.1745   0.1978   0.2214   0.3170   0.4681   0.4934   0.5347   0.5855
     0.6814   0.7738   0.9536   1.0811   1.0887   1.1812   1.2143   1.3261
     1.5238   1.7761

     the Fermi energy is     0.9004 ev

!    total energy              =   -1769.35081414 Ry
     Harris-Foulkes estimate   =   -1769.35081421 Ry
     estimated scf accuracy    <       0.00000008 Ry

     The total energy is the sum of the following terms:

     one-electron contribution =  -15417.69235979 Ry
     hartree contribution      =    7697.50750953 Ry
     xc contribution           =    -249.94706737 Ry
     ewald contribution        =    6200.90886566 Ry
     electric field correction =       0.00003832 Ry
     smearing contrib. (-TS)   =      -0.12780049 Ry

     convergence has been achieved in  21 iterations

 BEEF-vdW xc energy contributions
           1 :   -215.376112880562
           2 :    193.332002061890
           3 :   -156.880577976386
           4 :    117.422040598161
           5 :   -84.9098978760486
           6 :    64.1087922386098
           7 :   -53.9554117292931
           8 :    49.7478852966314
           9 :   -46.4941987520853
          10 :    41.4554756504052
          11 :   -34.7779701424590
          12 :    28.3646496734693
          13 :   -24.0634407185952
          14 :    22.3650110345866
          15 :   -22.2656080620292
          16 :    22.1339948198686
          17 :   -20.8523285996509
          18 :    18.4458220634876
          19 :   -15.8643172082067
          20 :    14.1719859611073
          21 :   -13.7704556597412
          22 :    14.1818413909152
          23 :   -14.4763423221431
          24 :    13.9671861950845
          25 :   -12.6564136263266
          26 :    11.1485705346403
          27 :   -10.1574409007048
          28 :    9.99331070199187
          29 :   -10.3858820739596
          30 :    10.7242704974085
          31 :   -22.3684752806299
          32 :   -16.1375916817647

     Forces acting on atoms (Ry/au):

     negative rho (up, down):  1.483E-02 0.000E+00
     atom    1 type  1   force =    -0.00031583   -0.00018267   -0.00227908
     atom    2 type  1   force =     0.00031704   -0.00018335   -0.00227728
     atom    3 type  1   force =     0.00000008    0.00036600   -0.00227242
     atom    4 type  1   force =     0.00000038    0.00000060    0.00146765
     atom    5 type  1   force =     0.00000158    0.02774285   -0.00837204
     atom    6 type  1   force =    -0.00000210   -0.00000150    0.03403279
     atom    7 type  1   force =    -0.02402756   -0.01387331   -0.00837065
     atom    8 type  1   force =     0.02402560   -0.01387048   -0.00837402
     atom    9 type  1   force =    -0.00000191    0.00000058    0.00054778
     atom   10 type  1   force =     0.00000036    0.00093319   -0.00107466
     atom   11 type  1   force =     0.00081791   -0.00047044   -0.00107416
     atom   12 type  1   force =    -0.00081593   -0.00047070   -0.00107050
     atom   13 type  2   force =     0.00000040    0.00000924   -0.00088341

     Total force =     0.002680     Total SCF correction =     0.000259

     entering subroutine stress ...

     negative rho (up, down):  1.483E-02 0.000E+00
          total   stress  (Ry/bohr**3)                   (kbar)     P=  -11.30
  -0.00011215  -0.00000000   0.00000000        -16.50     -0.00      0.00
  -0.00000000  -0.00011212   0.00000001         -0.00    -16.49      0.00
   0.00000000   0.00000001  -0.00000612          0.00      0.00     -0.90

     bfgs converged in  12 scf cycles and  11 bfgs steps
     (criteria: energy <  1.0E+00, force <  1.9E-03)

     End of BFGS Geometry Optimization

     Final energy   =   -1769.3508141444 Ry
Begin final coordinates

ATOMIC_POSITIONS (crystal)
V1       0.166666667   0.166666667   0.409694847    0   0   0
V1       0.666666667   0.166666667   0.409694847    0   0   0
V1       0.166666667   0.666666667   0.409694847    0   0   0
V1       0.666666667   0.666666667   0.409694847    0   0   0
V1       0.833333333   0.333333333   0.500000000    0   0   0
V1       0.333333333   0.333333333   0.500000000    0   0   0
V1       0.833333333   0.833333333   0.500000000    0   0   0
V1       0.333333333   0.833333333   0.500000000    0   0   0
V1       0.000003866  -0.000002081   0.573866325
V1       0.504211274  -0.008421048   0.595746008
V1      -0.008420331   0.504209079   0.595746021
V1       0.504212761   0.504208574   0.595745430
N1       0.333337168   0.333328017   0.634931071
End final coordinates

     Writing output data file calc.save

     General routines

     Parallel routines

   This run was terminated on:  19:17:24   2May2018

   JOB DONE.
Job  /afs/slac/g/suncat/bin/suncat-tsmpirun -x LD_LIBRARY_PATH -wdir /scratch/qe818536_shKHg pw.x -npool 4 -in pw.inp

TID   HOST_NAME   COMMAND_LINE            STATUS            TERMINATION_TIME
00000 suncat0082 pw.x -npool 4 -i  Done                     05/02/2018 19:17:24
00001 suncat0082 pw.x -npool 4 -i  Done                     05/02/2018 19:17:24
00002 suncat0082 pw.x -npool 4 -i  Done                     05/02/2018 19:17:24
00003 suncat0082 pw.x -npool 4 -i  Done                     05/02/2018 19:17:24
00004 suncat0082 pw.x -npool 4 -i  Done                     05/02/2018 19:17:24
00005 suncat0082 pw.x -npool 4 -i  Done                     05/02/2018 19:17:24
00006 suncat0082 pw.x -npool 4 -i  Done                     05/02/2018 19:17:24
00007 suncat0082 pw.x -npool 4 -i  Done                     05/02/2018 19:17:24
00008 suncat0081 pw.x -npool 4 -i  Done                     05/02/2018 19:17:24
00009 suncat0081 pw.x -npool 4 -i  Done                     05/02/2018 19:17:24
00010 suncat0081 pw.x -npool 4 -i  Done                     05/02/2018 19:17:24
00011 suncat0081 pw.x -npool 4 -i  Done                     05/02/2018 19:17:24
00012 suncat0081 pw.x -npool 4 -i  Done                     05/02/2018 19:17:24
00013 suncat0081 pw.x -npool 4 -i  Done                     05/02/2018 19:17:24
00014 suncat0081 pw.x -npool 4 -i  Done                     05/02/2018 19:17:24
00015 suncat0081 pw.x -npool 4 -i  Done                     05/02/2018 19:17:24
00016 suncat0122 pw.x -npool 4 -i  Done                     05/02/2018 19:17:24
00017 suncat0122 pw.x -npool 4 -i  Done                     05/02/2018 19:17:24
00018 suncat0122 pw.x -npool 4 -i  Done                     05/02/2018 19:17:24
00019 suncat0122 pw.x -npool 4 -i  Done                     05/02/2018 19:17:24
00020 suncat0122 pw.x -npool 4 -i  Done                     05/02/2018 19:17:24
00021 suncat0122 pw.x -npool 4 -i  Done                     05/02/2018 19:17:24
00022 suncat0122 pw.x -npool 4 -i  Done                     05/02/2018 19:17:24
00023 suncat0122 pw.x -npool 4 -i  Done                     05/02/2018 19:17:24
00024 suncat0262 pw.x -npool 4 -i  Done                     05/02/2018 19:17:24
00025 suncat0262 pw.x -npool 4 -i  Done                     05/02/2018 19:17:24
00026 suncat0262 pw.x -npool 4 -i  Done                     05/02/2018 19:17:24
00027 suncat0262 pw.x -npool 4 -i  Done                     05/02/2018 19:17:24
00028 suncat0262 pw.x -npool 4 -i  Done                     05/02/2018 19:17:24
00029 suncat0262 pw.x -npool 4 -i  Done                     05/02/2018 19:17:24
00030 suncat0262 pw.x -npool 4 -i  Done                     05/02/2018 19:17:24
00031 suncat0262 pw.x -npool 4 -i  Done                     05/02/2018 19:17:24