     Program PWSCF v.5.1rc2 (svn rev. 11289) starts on 17Jan2018 at 22:41:40

     Current dimensions of program PWSCF are:
     Max number of different atomic species (ntypx) = 10
     Max number of k-points (npk) =  40000
     Max angular momentum in pseudopotentials (lmaxx) =  3
     Presently stress not available with electric field

     IMPORTANT: XC functional enforced from input :
     Exchange-correlation      = BEEF-VDW ( 1  4 27 13 2)
     Any further DFT definition will be discarded
     Please, verify this is what you really want

     Subspace diagonalization in iterative solution of the eigenvalue problem:
     a serial algorithm will be used

     bravais-lattice index     =            0
     lattice parameter (alat)  =       1.8897  a.u.
     unit-cell volume          =    4481.2752 (a.u.)^3
     number of atoms/cell      =           13
     number of atomic types    =            2
     number of electrons       =       196.00
     number of Kohn-Sham states=          108
     kinetic-energy cutoff     =      36.7493  Ry
     charge density cutoff     =     367.4932  Ry
     convergence threshold     =      1.0E-05
     mixing beta               =       0.3000
     number of iterations used =           10  plain     mixing
     Exchange-correlation      = BEEF-VDW ( 1  4 27 13 2)
     nstep                     =           50

     celldm(1)=   1.889726  celldm(2)=   0.000000  celldm(3)=   0.000000
     celldm(4)=   0.000000  celldm(5)=   0.000000  celldm(6)=   0.000000

     crystal axes: (cart. coord. in units of alat)
               a(1) = (   5.587338   0.000000   0.000000 )
               a(2) = (   2.793669   4.838777   0.000000 )
               a(3) = (   0.000000   0.000000  24.562042 )

     reciprocal axes: (cart. coord. in units 2 pi/alat)
               b(1) = (  0.178976 -0.103332  0.000000 )
               b(2) = (  0.000000  0.206664  0.000000 )
               b(3) = (  0.000000  0.000000  0.040713 )

     PseudoPot. # 1 for Pt read from file:
     /afs/slac.stanford.edu/u/if/mamunm/psp/gbrv1.5pbe/Pt.UPF
     MD5 check sum: f09d6de1a584b5a045c4fc126da2d0c4
     Pseudo is Ultrasoft + core correction, Zval = 16.0
     Generated by new atomic code, or converted to UPF format
     Using radial grid of  985 points,  6 beta functions with:
                l(1) =   0
                l(2) =   0
                l(3) =   1
                l(4) =   1
                l(5) =   2
                l(6) =   2
     Q(r) pseudized with  8 coefficients,  rinner =    1.300   1.300   1.300
                                                       1.300   1.300

     PseudoPot. # 2 for C  read from file:
     /afs/slac.stanford.edu/u/if/mamunm/psp/gbrv1.5pbe/C.UPF
     MD5 check sum: d1aef80898a10debaa0f26306b886e00
     Pseudo is Ultrasoft + core correction, Zval =  4.0
     Generated by new atomic code, or converted to UPF format
     Using radial grid of  721 points,  4 beta functions with:
                l(1) =   0
                l(2) =   0
                l(3) =   1
                l(4) =   1
     Q(r) pseudized with  8 coefficients,  rinner =    1.100   1.100   1.100

     vdW kernel table read from file vdW_kernel_table
     MD5 check sum: 095c7af220d748ca6e76c0b4c6cfb241

     atomic species   valence    mass     pseudopotential
        Pt1           16.00   195.08400     Pt( 1.00)
        C1             4.00    12.01100     C ( 1.00)

     No symmetry found

   Cartesian axes

     site n.     atom                  positions (alat units)
         1           Pt1 tau(   1) = (   1.3968345   0.8064628  10.0000000  )
         2           Pt1 tau(   2) = (   4.1905036   0.8064628  10.0000000  )
         3           Pt1 tau(   3) = (   2.7936691   3.2258512  10.0000000  )
         4           Pt1 tau(   4) = (   5.5873381   3.2258512  10.0000000  )
         5           Pt1 tau(   5) = (   5.5873381   1.6129256  12.2810212  )
         6           Pt1 tau(   6) = (   2.7936691   1.6129256  12.2810212  )
         7           Pt1 tau(   7) = (   6.9841727   4.0323140  12.2810212  )
         8           Pt1 tau(   8) = (   4.1905036   4.0323140  12.2810212  )
         9           Pt1 tau(   9) = (   0.0000000   0.0000000  14.5620425  )
        10           Pt1 tau(  10) = (   2.7936691   0.0000000  14.5620425  )
        11           Pt1 tau(  11) = (   1.3968345   2.4193884  14.5620425  )
        12           Pt1 tau(  12) = (   4.1905036   2.4193884  14.5620425  )
        13           C1  tau(  13) = (   0.0000000   0.0000000  16.6820425  )

     number of k points=    20  Fermi-Dirac smearing, width (Ry)=  0.0110
                       cart. coord. in units 2pi/alat
        k(    1) = (   0.0000000   0.0000000   0.0000000), wk =   0.0555556
        k(    2) = (   0.0000000   0.0344440   0.0000000), wk =   0.1111111
        k(    3) = (   0.0000000   0.0688879   0.0000000), wk =   0.1111111
        k(    4) = (   0.0000000  -0.1033319   0.0000000), wk =   0.0555556
        k(    5) = (   0.0298294  -0.0172220   0.0000000), wk =   0.1111111
        k(    6) = (   0.0298294   0.0172220   0.0000000), wk =   0.1111111
        k(    7) = (   0.0298294   0.0516660   0.0000000), wk =   0.1111111
        k(    8) = (   0.0298294  -0.1205539   0.0000000), wk =   0.1111111
        k(    9) = (   0.0298294  -0.0861099   0.0000000), wk =   0.1111111
        k(   10) = (   0.0298294  -0.0516660   0.0000000), wk =   0.1111111
        k(   11) = (   0.0596587  -0.0344440   0.0000000), wk =   0.1111111
        k(   12) = (   0.0596587   0.0000000   0.0000000), wk =   0.1111111
        k(   13) = (   0.0596587   0.0344440   0.0000000), wk =   0.1111111
        k(   14) = (   0.0596587  -0.1377759   0.0000000), wk =   0.1111111
        k(   15) = (   0.0596587  -0.1033319   0.0000000), wk =   0.1111111
        k(   16) = (   0.0596587  -0.0688879   0.0000000), wk =   0.1111111
        k(   17) = (  -0.0894881   0.0516660   0.0000000), wk =   0.0555556
        k(   18) = (  -0.0894881   0.0861099   0.0000000), wk =   0.1111111
        k(   19) = (  -0.0894881   0.1205539   0.0000000), wk =   0.1111111
        k(   20) = (  -0.0894881  -0.0516660   0.0000000), wk =   0.0555556

     Largest allocated arrays     est. size (Mb)     dimensions
     Largest temporary arrays     est. size (Mb)     dimensions

     Initial potential from superposition of free atoms
     Check: negative starting charge=   -2.200642

     starting charge  189.99982, renormalised to  196.00000

     negative rho (up, down):  2.270E+00 0.000E+00

     *
     * You are using vdW-DF for exchange-correlation in this calculation.
     * Please cite the following three references that made this development
     * possible:
     *
     *   M. Dion, H. Rydberg, E. Schroder, D. C. Langreth, and
     *   B. I. Lundqvist, Phys. Rev. Lett. 92, 246401 (2004).
     *
     *   T. Thonhauser, V. R. Cooper, S. Li, A. Puzder, P. Hyldgaard, and
     *   D. C. Langreth, Phys. Rev. B 76, 125112 (2007).
     *
     *   G. Roman-Perez and J. M. Soler, Phys. Rev. Lett. 103, 096102 (2009).
     *
     *
     * If you are using vdW-DF2, please also cite:
     *
     *   K. Lee, E. D. Murray, L. Kong, B. I. Lundqvist, and
     *   D. C. Langreth, Phys. Rev. B 82, 081101(R) (2010).
     *
     *
     * If you are calculating the stress with vdW-DF, please also cite:
     *
     *   R. Sabatini, E. Kucukbenli, B. Kolb, T. Thonhauser, and
     *   S. de Gironcoli, J. Phys.: Condens. Matter 24, 424209 (2012).
     *

     Carrying out vdW-DF run using the following parameters:

     Nqs =      20    Nr_points =    1024   r_max =   100.000
     q_mesh =
               0.00001000     0.04494208     0.09755937     0.15916263
               0.23128650     0.31572767     0.41458969     0.53033537
               0.66584808     0.82450364     1.01025438     1.22772762
               1.48234092     1.78043706     2.12944203     2.53805004
               3.01644009     3.57652955     4.23227104     5.00000000

     Gradients computed in reciprocal space

     Adding external electric field

     Computed dipole along edir(3) :
        Dipole               -1.0502 Ry au,         -2.6694 Debye
        Dipole field         -0.0029 Ry au

        Potential amp.        0.2666 Ry
        Total length         45.2551 bohr

     Starting wfc are  148 randomized atomic wfcs

     Self-consistent Calculation

     iteration #  1     ecut=    36.75 Ry     beta=0.30
     Davidson diagonalization with overlap
     ethr =  1.00E-02,  avg # of iterations =  2.9

[...]

     total energy              =   -2545.25340891 Ry
     Harris-Foulkes estimate   =   -2562.92049983 Ry
     estimated scf accuracy    <      37.78295749 Ry

[...]

     End of self-consistent calculation

          k = 0.0000 0.0000 0.0000 ( 16787 PWs)   bands (ev):

   -51.8667 -51.6048 -51.6048 -51.1863 -51.1527 -51.1521 -51.0407 -51.0051
   -51.0040 -50.9773 -50.9265 -50.9257 -50.9115 -50.8377 -50.8302 -50.8299
   -50.8005 -50.7999 -50.7917 -50.6946 -50.6942 -50.5961 -50.5730 -50.5723
   -50.5682 -50.5381 -50.5377 -50.4931 -50.4929 -50.4087 -50.3774 -50.3764
   -50.3754 -50.3636 -50.3627 -50.2986  -7.8718  -6.8411  -5.2289  -4.8306
    -4.4661  -4.4660  -4.4480  -4.2843  -4.2843  -4.2202  -3.8567  -3.8567
    -3.7978  -3.6637  -3.6635  -3.6096  -2.5217  -2.5214  -2.1990  -2.0130
    -1.8667  -1.8666  -1.6975  -1.5687  -1.5687  -1.3549  -1.3472  -1.3470
    -1.1814  -1.1814  -1.1009  -1.0640  -1.0640  -0.9235  -0.4885  -0.4879
    -0.0765  -0.0763   0.4123   0.4125   0.4219   0.4464   0.4465   0.5024
     0.7218   0.9738   0.9739   1.3517   1.4941   1.4944   1.6174   1.6313
     1.6319   1.7350   1.7353   1.9529   1.9530   1.9998   2.0390   2.0390
     2.1323   2.1324   2.3178   2.3793   2.3795   2.3797   2.4952   3.0983
     3.5437   3.5437   4.0171   4.8396

[...]

          k =-0.0895 0.0517 0.0000 ( 16880 PWs)   bands (ev):

[...]

     the Fermi energy is     1.8370 ev

!    total energy              =   -2559.44135461 Ry
     Harris-Foulkes estimate   =   -2559.43707030 Ry
     estimated scf accuracy    <       0.00000410 Ry

     The total energy is the sum of the following terms:

     one-electron contribution =  -20400.31165538 Ry
     hartree contribution      =   10238.39641285 Ry
     xc contribution           =    -706.68558662 Ry
     ewald contribution        =    8309.26513609 Ry
     electric field correction =       0.00000980 Ry
     smearing contrib. (-TS)   =      -0.10567134 Ry

     convergence has been achieved in  17 iterations

 BEEF-vdW xc energy contributions
           1 :   -629.132275743752
           2 :    585.568121181478
           3 :   -507.435381854233
           4 :    409.557916552470
           5 :   -308.155581492563
           6 :    216.742460310088
           7 :   -143.451518638293
           8 :    90.3148018435091
           9 :   -54.4530836443860
          10 :    30.4723872405807
          11 :   -13.0462725136952
          12 :   -1.28072769963785
          13 :    13.5461107703643
          14 :   -22.9807820304823
          15 :    28.2456211206369
          16 :   -28.6443892351803
          17 :    24.7785978815264
          18 :   -18.4488800667514
[...]

[...]

     Program PWSCF v.5.1rc2 (svn rev. 11289) starts on 17Jan2018 at 23: 9:38

[...]

   This run was terminated on:  23:23:53  17Jan2018

[...]

   This run was terminated on:   0:35:37  18Jan2018

[...]

     Program PWSCF v.5.1rc2 (svn rev. 11289) starts on 18Jan2018 at  0:35:43

[...]

     Program PWSCF v.5.1rc2 (svn rev. 11289) starts on 18Jan2018 at  0:50: 8

[...]

   This run was terminated on:   1: 4:23  18Jan2018

[...]

     Program PWSCF v.5.1rc2 (svn rev. 11289) starts on 18Jan2018 at  1: 4:29

     Current dimensions of program PWSCF are:
     Max number of different atomic species (ntypx) = 10
     Max number of k-points (npk) =  40000
     Max angular momentum in pseudopotentials (lmaxx) =  3
     Presently stress not available with electric field

     IMPORTANT: XC functional enforced from input :
     Exchange-correlation      = BEEF-VDW ( 1  4 27 13 2)
     Any further DFT definition will be discarded
     Please, verify this is what you really want

     Subspace diagonalization in iterative solution of the eigenvalue problem:
     a serial algorithm will be used

     bravais-lattice index     =            0
     lattice parameter (alat)  =       1.8897  a.u.
     unit-cell volume          =    4481.2752 (a.u.)^3
     number of atoms/cell      =           13
     number of atomic types    =            2
     number of electrons       =       196.00
     number of Kohn-Sham states=          108
     kinetic-energy cutoff     =      36.7493  Ry
     charge density cutoff     =     367.4932  Ry
     convergence threshold     =      1.0E-05
     mixing beta               =       0.3000
     number of iterations used =           10  plain     mixing
     Exchange-correlation      = BEEF-VDW ( 1  4 27 13 2)
     nstep                     =           50

     celldm(1)=   1.889726  celldm(2)=   0.000000  celldm(3)=   0.000000
     celldm(4)=   0.000000  celldm(5)=   0.000000  celldm(6)=   0.000000

     crystal axes: (cart. coord. in units of alat)
               a(1) = (   5.587338   0.000000   0.000000 )
               a(2) = (   2.793669   4.838777   0.000000 )
               a(3) = (   0.000000   0.000000  24.562042 )

     reciprocal axes: (cart. coord. in units 2 pi/alat)
               b(1) = (  0.178976 -0.103332  0.000000 )
               b(2) = (  0.000000  0.206664  0.000000 )
               b(3) = (  0.000000  0.000000  0.040713 )

     PseudoPot. # 1 for Pt read from file:
     /afs/slac.stanford.edu/u/if/mamunm/psp/gbrv1.5pbe/Pt.UPF
     MD5 check sum: f09d6de1a584b5a045c4fc126da2d0c4
     Pseudo is Ultrasoft + core correction, Zval = 16.0
     Generated by new atomic code, or converted to UPF format
     Using radial grid of  985 points,  6 beta functions with:
                l(1) =   0
                l(2) =   0
                l(3) =   1
                l(4) =   1
                l(5) =   2
                l(6) =   2
     Q(r) pseudized with  8 coefficients,  rinner =    1.300   1.300   1.300
                                                       1.300   1.300

     PseudoPot. # 2 for C  read from file:
     /afs/slac.stanford.edu/u/if/mamunm/psp/gbrv1.5pbe/C.UPF
     MD5 check sum: d1aef80898a10debaa0f26306b886e00
     Pseudo is Ultrasoft + core correction, Zval =  4.0
     Generated by new atomic code, or converted to UPF format
     Using radial grid of  721 points,  4 beta functions with:
                l(1) =   0
                l(2) =   0
                l(3) =   1
                l(4) =   1
     Q(r) pseudized with  8 coefficients,  rinner =    1.100   1.100   1.100

     vdW kernel table read from file vdW_kernel_table
     MD5 check sum: 095c7af220d748ca6e76c0b4c6cfb241

     atomic species   valence    mass     pseudopotential
        Pt1           16.00   195.08400     Pt( 1.00)
        C1             4.00    12.01100     C ( 1.00)

     No symmetry found

   Cartesian axes

     site n.     atom                  positions (alat units)
         1           Pt1 tau(   1) = (   1.3968345   0.8064628  10.0000000  )
         2           Pt1 tau(   2) = (   4.1905036   0.8064628  10.0000000  )
         3           Pt1 tau(   3) = (   2.7936691   3.2258512  10.0000000  )
         4           Pt1 tau(   4) = (   5.5873381   3.2258512  10.0000000  )
         5           Pt1 tau(   5) = (   5.5873381   1.6129256  12.2810212  )
         6           Pt1 tau(   6) = (   2.7936691   1.6129256  12.2810212  )
         7           Pt1 tau(   7) = (   6.9841727   4.0323140  12.2810212  )
         8           Pt1 tau(   8) = (   4.1905036   4.0323140  12.2810212  )
         9           Pt1 tau(   9) = (   2.7937386   4.8387200  15.0375265  )
        10           Pt1 tau(  10) = (   5.5872719   4.8361112  14.5834021  )
        11           Pt1 tau(  11) = (   6.9819831   2.4207426  14.5836775  )
        12           Pt1 tau(  12) = (   4.1927472   2.4208641  14.5833353  )
        13           C1  tau(  13) = (   8.3809907   4.8387743  16.7522937  )

     number of k points=    20  Fermi-Dirac smearing, width (Ry)=  0.0110
                       cart. coord. in units 2pi/alat
        k(    1) = (   0.0000000   0.0000000   0.0000000), wk =   0.0555556
        k(    2) = (   0.0000000   0.0344440   0.0000000), wk =   0.1111111
        k(    3) = (   0.0000000   0.0688879   0.0000000), wk =   0.1111111
        k(    4) = (   0.0000000  -0.1033319   0.0000000), wk =   0.0555556
        k(    5) = (   0.0298294  -0.0172220   0.0000000), wk =   0.1111111
        k(    6) = (   0.0298294   0.0172220   0.0000000), wk =   0.1111111
        k(    7) = (   0.0298294   0.0516660   0.0000000), wk =   0.1111111
        k(    8) = (   0.0298294  -0.1205539   0.0000000), wk =   0.1111111
        k(    9) = (   0.0298294  -0.0861099   0.0000000), wk =   0.1111111
        k(   10) = (   0.0298294  -0.0516660   0.0000000), wk =   0.1111111
        k(   11) = (   0.0596587  -0.0344440   0.0000000), wk =   0.1111111
        k(   12) = (   0.0596587   0.0000000   0.0000000), wk =   0.1111111
        k(   13) = (   0.0596587   0.0344440   0.0000000), wk =   0.1111111
        k(   14) = (   0.0596587  -0.1377759   0.0000000), wk =   0.1111111
        k(   15) = (   0.0596587  -0.1033319   0.0000000), wk =   0.1111111
        k(   16) = (   0.0596587  -0.0688879   0.0000000), wk =   0.1111111
        k(   17) = (  -0.0894881   0.0516660   0.0000000), wk =   0.0555556
        k(   18) = (  -0.0894881   0.0861099   0.0000000), wk =   0.1111111
        k(   19) = (  -0.0894881   0.1205539   0.0000000), wk =   0.1111111
        k(   20) = (  -0.0894881  -0.0516660   0.0000000), wk =   0.0555556

     Largest allocated arrays     est. size (Mb)     dimensions
     Largest temporary arrays     est. size (Mb)     dimensions

     Check: negative/imaginary core charge=   -0.000001    0.000000

     Initial potential from superposition of free atoms
     Check: negative starting charge=   -2.192442

     starting charge  189.99982, renormalised to  196.00000

[...]

     *
     * You are using vdW-DF for exchange-correlation in this calculation.
     * Please cite the following three references that made this development
     * possible:
     *
     *   M. Dion, H. Rydberg, E. Schroder, D. C. Langreth, and
     *   B. I. Lundqvist, Phys. Rev. Lett. 92, 246401 (2004).
     *
     *   T. Thonhauser, V. R. Cooper, S. Li, A. Puzder, P. Hyldgaard, and
     *   D. C. Langreth, Phys. Rev. B 76, 125112 (2007).
     *
     *   G. Roman-Perez and J. M. Soler, Phys. Rev. Lett. 103, 096102 (2009).
     *
     *
     * If you are using vdW-DF2, please also cite:
     *
     *   K. Lee, E. D. Murray, L. Kong, B. I. Lundqvist, and
     *   D. C. Langreth, Phys. Rev. B 82, 081101(R) (2010).
     *
     *
     * If you are calculating the stress with vdW-DF, please also cite:
     *
     *   R. Sabatini, E. Kucukbenli, B. Kolb, T. Thonhauser, and
     *   S. de Gironcoli, J. Phys.: Condens. Matter 24, 424209 (2012).
     *

     Carrying out vdW-DF run using the following parameters:

     Nqs =      20    Nr_points =    1024   r_max =   100.000
     q_mesh =
               0.00001000     0.04494208     0.09755937     0.15916263
               0.23128650     0.31572767     0.41458969     0.53033537
               0.66584808     0.82450364     1.01025438     1.22772762
               1.48234092     1.78043706     2.12944203     2.53805004
               3.01644009     3.57652955     4.23227104     5.00000000

     Gradients computed in reciprocal space

[...]

     Starting wfc are  148 randomized atomic wfcs

     Self-consistent Calculation

[...]

     total energy              =   -2559.54548421 Ry
     Harris-Foulkes estimate   =   -2559.54549497 Ry
     estimated scf accuracy    <       0.00009734 Ry

     iteration # 17     ecut=    36.75 Ry     beta=0.30
     Davidson diagonalization with overlap
     ethr =  4.97E-08,  avg # of iterations =  1.4

[...]

     negative rho (up, down):  2.106E+00 0.000E+00

     Adding external electric field

     Computed dipole along edir(3) :
        Dipole               -0.0196 Ry au,         -0.0498 Debye
        Dipole field         -0.0001 Ry au

        Potential amp.        0.0050 Ry
        Total length         45.2551 bohr

     End of self-consistent calculation

[...]

          k = 0.0597-0.0689 0.0000 ( 16875 PWs)   bands (ev):

[...]

          k =-0.0895-0.0517 0.0000 ( 16880 PWs)   bands (ev):

   -53.1095 -52.1528 -52.1483 -50.9938 -50.9762 -50.9042 -50.8874 -50.8785
   -50.8763 -50.8567 -50.8293 -50.8241 -50.8106 -50.7635 -50.7372 -50.7050
   -50.6720 -50.6616 -50.6102 -50.5976 -50.5911 -50.5889 -50.5589 -50.5488
   -50.5347 -50.5055 -50.4908 -50.4637 -50.4370 -50.3264 -50.3194 -50.3111
   -50.3002 -50.2957 -50.2891 -50.1877  -9.3879  -5.0427  -4.9172  -3.8402
    -3.8003  -3.7506  -3.5422  -3.4509  -3.3169  -3.2635  -3.1945  -3.1480
    -2.9154  -2.8595  -2.7290  -2.6154  -2.5287  -2.4790  -2.3980  -2.2977
    -2.1006  -2.0886  -1.9864  -1.8618  -1.8547  -1.8269  -1.6571  -1.4312
    -1.3336  -1.1977  -1.1085  -1.0058  -0.9294  -0.9147  -0.8587  -0.8089
    -0.7859  -0.7692  -0.7490  -0.6107  -0.5970  -0.5563  -0.2164  -0.1205
    -0.0455  -0.0257   0.1780   0.2380   0.2638   0.3253   0.4657   0.5036
     0.5955   0.7092   0.7999   1.1022   1.1348   1.1639   1.2318   1.4195
     1.6638   1.7217   1.8908   1.9866   2.1587   2.9099   2.9437   3.0324
     3.7867   3.8910   4.2356   4.5667

     the Fermi energy is     1.8928 ev

!    total energy              =   -2559.54548070 Ry
     Harris-Foulkes estimate   =   -2559.54548778 Ry
     estimated scf accuracy    <       0.00000816 Ry

     The total energy is the sum of the following terms:

     one-electron contribution =  -20003.66322350 Ry
     hartree contribution      =   10040.02190672 Ry
     xc contribution           =    -706.74221873 Ry
     ewald contribution        =    8110.93852945 Ry
     electric field correction =       0.00000107 Ry
     smearing contrib. (-TS)   =      -0.10047572 Ry

     convergence has been achieved in  17 iterations

 BEEF-vdW xc energy contributions
           1 :   -629.174764768220
           2 :    585.538801581872
           3 :   -507.312909580048
           4 :    409.379975801852
           5 :   -307.997280623608
           6 :    216.677545523149
           7 :   -143.507790143891
           8 :    90.4478779434771
           9 :   -54.5606300682643
          10 :    30.4477501004310
          11 :   -12.8433445277897
          12 :   -1.61121349341806
          13 :    13.8721068365703
          14 :   -23.1503093470949
          15 :    28.1647432898221
          16 :   -28.3321976343816
          17 :    24.3665006035177
          18 :   -18.1214952922346
          19 :    11.8757661508032
          20 :   -7.47636719046091
          21 :    5.73934231486044
          22 :   -6.33619101198042
          23 :    8.14579756290539
          24 :   -9.86083691464671
          25 :    10.5542725352316
          26 :   -9.97949935163717
          27 :    8.52426954021894
          28 :   -6.90285155255651
          29 :    5.76501361035093
          30 :   -5.41025115353193
          31 :   -51.6912102655789
          32 :   -38.2284453600079

     Forces acting on atoms (Ry/au):

     negative rho (up, down):  2.106E+00 0.000E+00
     atom    1 type  1   force =    -0.00086383   -0.00051375   -0.01463787
     atom    2 type  1   force =     0.00086593   -0.00049354   -0.01466597
     atom    3 type  1   force =     0.00001854    0.00100242   -0.01463815
     atom    4 type  1   force =    -0.00001341    0.00000219   -0.02876979
     atom    5 type  1   force =     0.00004427   -0.01289394    0.02147150
     atom    6 type  1   force =    -0.00004031    0.00002537    0.00800626
     atom    7 type  1   force =     0.01118967    0.00641254    0.02145184
     atom    8 type  1   force =    -0.01119803    0.00646570    0.02139773
     atom    9 type  1   force =    -0.00002545    0.00004390   -0.00000696
     atom   10 type  1   force =     0.00003367   -0.00024055    0.00011899
     atom   11 type  1   force =    -0.00027129    0.00011439    0.00005561
     atom   12 type  1   force =     0.00026435    0.00006828    0.00012898
     atom   13 type  2   force =    -0.00000413    0.00000699    0.00008782

     Total force =     0.058460     Total SCF correction =     0.022219
     SCF correction compared to forces is large: reduce conv_thr to get better values

     entering subroutine stress ...

     negative rho (up, down):  2.106E+00 0.000E+00
          total   stress  (Ry/bohr**3)                   (kbar)     P=  -11.50
  -0.00014116   0.00000001   0.00000001        -20.77      0.00      0.00
   0.00000001  -0.00014115   0.00000001          0.00    -20.76      0.00
   0.00000001   0.00000001   0.00004786          0.00      0.00      7.04

 !ASE

     Writing output data file calc.save

     General routines

     Parallel routines

   This run was terminated on:   1:18: 8  18Jan2018

   JOB DONE.
Job  /afs/slac/g/suncat/bin/suncat-tsmpirun -x LD_LIBRARY_PATH -wdir /scratch/qe842471_TCHOV pw.x -in pw.inp

TID   HOST_NAME   COMMAND_LINE            STATUS            TERMINATION_TIME
00000 suncat0264 pw.x -in pw.inp   Done                     01/18/2018 01:18:08
00001 suncat0264 pw.x -in pw.inp   Done                     01/18/2018 01:18:08
00002 suncat0264 pw.x -in pw.inp   Done                     01/18/2018 01:18:08
00003 suncat0264 pw.x -in pw.inp   Done                     01/18/2018 01:18:08
00004 suncat0264 pw.x -in pw.inp   Done                     01/18/2018 01:18:08
00005 suncat0264 pw.x -in pw.inp   Done                     01/18/2018 01:18:08
00006 suncat0264 pw.x -in pw.inp   Done                     01/18/2018 01:18:08
00007 suncat0264 pw.x -in pw.inp   Done                     01/18/2018 01:18:08
00008 suncat0259 pw.x -in pw.inp   Done                     01/18/2018 01:18:08
00009 suncat0259 pw.x -in pw.inp   Done                     01/18/2018 01:18:08
00010 suncat0259 pw.x -in pw.inp   Done                     01/18/2018 01:18:08
00011 suncat0259 pw.x -in pw.inp   Done                     01/18/2018 01:18:08
00012 suncat0259 pw.x -in pw.inp   Done                     01/18/2018 01:18:08
00013 suncat0259 pw.x -in pw.inp   Done                     01/18/2018 01:18:08
00014 suncat0259 pw.x -in pw.inp   Done                     01/18/2018 01:18:08
00015 suncat0259 pw.x -in pw.inp   Done                     01/18/2018 01:18:08
00016 suncat0258 pw.x -in pw.inp   Done                     01/18/2018 01:18:08
00017 suncat0258 pw.x -in pw.inp   Done                     01/18/2018 01:18:08
00018 suncat0258 pw.x -in pw.inp   Done                     01/18/2018 01:18:08
00019 suncat0258 pw.x -in pw.inp   Done                     01/18/2018 01:18:08
00020 suncat0258 pw.x -in pw.inp   Done                     01/18/2018 01:18:08
00021 suncat0258 pw.x -in pw.inp   Done                     01/18/2018 01:18:08
00022 suncat0258 pw.x -in pw.inp   Done                     01/18/2018 01:18:08
00023 suncat0258 pw.x -in pw.inp   Done                     01/18/2018 01:18:08
00024 suncat0256 pw.x -in pw.inp   Done                     01/18/2018 01:18:08
00025 suncat0256 pw.x -in pw.inp   Done                     01/18/2018 01:18:08
00026 suncat0256 pw.x -in pw.inp   Done                     01/18/2018 01:18:08
00027 suncat0256 pw.x -in pw.inp   Done                     01/18/2018 01:18:08
00028 suncat0256 pw.x -in pw.inp   Done                     01/18/2018 01:18:08
00029 suncat0256 pw.x -in pw.inp   Done                     01/18/2018 01:18:08
00030 suncat0256 pw.x -in pw.inp   Done                     01/18/2018 01:18:08
00031 suncat0256 pw.x -in pw.inp   Done                     01/18/2018 01:18:08