     Program PWSCF v.5.1rc2 (svn rev. 11289) starts on  1May2018 at 15: 2:55

     Current dimensions of program PWSCF are:
     Max number of different atomic species (ntypx) = 10
     Max number of k-points (npk) =  40000
     Max angular momentum in pseudopotentials (lmaxx) =  3
     Presently stress not available with electric field

     IMPORTANT: XC functional enforced from input :
     Exchange-correlation      = BEEF-VDW ( 1  4 27 13 2)
     Any further DFT definition will be discarded
     Please, verify this is what you really want

     Subspace diagonalization in iterative solution of the eigenvalue problem:
     a serial algorithm will be used

     bravais-lattice index     =            0
     lattice parameter (alat)  =       1.8897  a.u.
     unit-cell volume          =    3807.2308 (a.u.)^3
     number of atoms/cell      =           13
     number of atomic types    =            2
     number of electrons       =       232.00
     number of Kohn-Sham states=          126
     kinetic-energy cutoff     =      36.7493  Ry
     charge density cutoff     =     367.4932  Ry
     convergence threshold     =      1.0E-05
     mixing beta               =       0.3000
     number of iterations used =           10  plain     mixing
     Exchange-correlation      = BEEF-VDW ( 1  4 27 13 2)
     nstep                     =           50

     celldm(1)=   1.889726  celldm(2)=   0.000000  celldm(3)=   0.000000
     celldm(4)=   0.000000  celldm(5)=   0.000000  celldm(6)=   0.000000

     crystal axes: (cart. coord. in units of alat)
               a(1) = (   5.184823   0.000000   0.000000 )
               a(2) = (   2.592411   4.490188   0.000000 )
               a(3) = (   0.000000   0.000000  24.233390 )

     reciprocal axes: (cart. coord. in units 2 pi/alat)
               b(1) = (  0.192871 -0.111354  0.000000 )
               b(2) = (  0.000000  0.222708  0.000000 )
               b(3) = (  0.000000  0.000000  0.041265 )

     PseudoPot. # 1 for Cu read from file:
     /u/if/mamunm/psp/gbrv1.5pbe/Cu.UPF
     MD5 check sum: 6e991ff952a84172a2a52a1c1e996048
     Pseudo is Ultrasoft + core correction, Zval = 19.0
     Generated by new atomic code, or converted to UPF format
     Using radial grid of  867 points,  6 beta functions with:
                l(1) =   0
                l(2) =   0
                l(3) =   1
                l(4) =   1
                l(5) =   2
                l(6) =   2
     Q(r) pseudized with  8 coefficients,  rinner =    1.150   1.150   1.150
                                                       1.150   1.150

     PseudoPot. # 2 for C  read from file:
     /u/if/mamunm/psp/gbrv1.5pbe/C.UPF
     MD5 check sum: d1aef80898a10debaa0f26306b886e00
     Pseudo is Ultrasoft + core correction, Zval =  4.0
     Generated by new atomic code, or converted to UPF format
     Using radial grid of  721 points,  4 beta functions with:
                l(1) =   0
                l(2) =   0
                l(3) =   1
                l(4) =   1
     Q(r) pseudized with  8 coefficients,  rinner =    1.100   1.100   1.100

     vdW kernel table read from file vdW_kernel_table
     MD5 check sum: 095c7af220d748ca6e76c0b4c6cfb241

     atomic species   valence    mass     pseudopotential
        Cu1           19.00    63.54600     Cu( 1.00)
        C1             4.00    12.01100     C ( 1.00)

     No symmetry found

   Cartesian axes

     site n.     atom                  positions (alat units)
         1           Cu1 tau(   1) = (   1.2962057   0.7483647  10.0000000  )
         2           Cu1 tau(   2) = (   3.8886170   0.7483647  10.0000000  )
         3           Cu1 tau(   3) = (   2.5924113   2.9934587  10.0000000  )
         4           Cu1 tau(   4) = (   5.1848226   2.9934587  10.0000000  )
         5           Cu1 tau(   5) = (   5.1848226   1.4967294  12.1166950  )
         6           Cu1 tau(   6) = (   2.5924113   1.4967294  12.1166950  )
         7           Cu1 tau(   7) = (   6.4810283   3.7418234  12.1166950  )
         8           Cu1 tau(   8) = (   3.8886170   3.7418234  12.1166950  )
         9           Cu1 tau(   9) = (   0.0000000   0.0000000  14.2333899  )
        10           Cu1 tau(  10) = (   2.5924113   0.0000000  14.2333899  )
        11           Cu1 tau(  11) = (   1.2962057   2.2450940  14.2333899  )
        12           Cu1 tau(  12) = (   3.8886170   2.2450940  14.2333899  )
        13           C1  tau(  13) = (   2.5924113   1.4967294  15.5853899  )

     number of k points=    20  Fermi-Dirac smearing, width (Ry)=  0.0110
                       cart. coord. in units 2pi/alat
        k(    1) = (   0.0000000   0.0000000   0.0000000), wk =   0.0555556
        k(    2) = (   0.0000000   0.0371180   0.0000000), wk =   0.1111111
        k(    3) = (   0.0000000   0.0742359   0.0000000), wk =   0.1111111
        k(    4) = (   0.0000000  -0.1113539   0.0000000), wk =   0.0555556
        k(    5) = (   0.0321451  -0.0185590   0.0000000), wk =   0.1111111
        k(    6) = (   0.0321451   0.0185590   0.0000000), wk =   0.1111111
        k(    7) = (   0.0321451   0.0556770   0.0000000), wk =   0.1111111
        k(    8) = (   0.0321451  -0.1299129   0.0000000), wk =   0.1111111
        k(    9) = (   0.0321451  -0.0927949   0.0000000), wk =   0.1111111
        k(   10) = (   0.0321451  -0.0556770   0.0000000), wk =   0.1111111
        k(   11) = (   0.0642902  -0.0371180   0.0000000), wk =   0.1111111
        k(   12) = (   0.0642902  -0.0000000   0.0000000), wk =   0.1111111
        k(   13) = (   0.0642902   0.0371180   0.0000000), wk =   0.1111111
        k(   14) = (   0.0642902  -0.1484719   0.0000000), wk =   0.1111111
        k(   15) = (   0.0642902  -0.1113539   0.0000000), wk =   0.1111111
        k(   16) = (   0.0642902  -0.0742359   0.0000000), wk =   0.1111111
        k(   17) = (  -0.0964353   0.0556770   0.0000000), wk =   0.0555556
        k(   18) = (  -0.0964353   0.0927949   0.0000000), wk =   0.1111111
        k(   19) = (  -0.0964353   0.1299129   0.0000000), wk =   0.1111111
        k(   20) = (  -0.0964353  -0.0556770   0.0000000), wk =   0.0555556

     Largest allocated arrays     est. size (Mb)     dimensions
     Largest temporary arrays     est. size (Mb)     dimensions

     Initial potential from superposition of free atoms
     Check: negative starting charge=   -0.000144

     starting charge  219.99994, renormalised to  232.00000

     negative rho (up, down):  1.523E-04 0.000E+00

     *
     * You are using vdW-DF for exchange-correlation in this calculation.
     * Please cite the following three references that made this development
     * possible:
     *
     *   M. Dion, H. Rydberg, E. Schroder, D. C. Langreth, and
     *   B. I. Lundqvist, Phys. Rev. Lett. 92, 246401 (2004).
     *
     *   T. Thonhauser, V. R. Cooper, S. Li, A. Puzder, P. Hyldgaard, and
     *   D. C. Langreth, Phys. Rev. B 76, 125112 (2007).
     *
     *   G. Roman-Perez and J. M. Soler, Phys. Rev. Lett. 103, 096102 (2009).
     *
     *
     * If you are using vdW-DF2, please also cite:
     *
     *   K. Lee, E. D. Murray, L. Kong, B. I. Lundqvist, and
     *   D. C. Langreth, Phys. Rev. B 82, 081101(R) (2010).
     *
     *
     * If you are calculating the stress with vdW-DF, please also cite:
     *
     *   R. Sabatini, E. Kucukbenli, B. Kolb, T. Thonhauser, and
     *   S. de Gironcoli, J. Phys.: Condens. Matter 24, 424209 (2012).
     *

     Carrying out vdW-DF run using the following parameters:

     Nqs =      20    Nr_points =    1024   r_max =   100.000
     q_mesh =
               0.00001000     0.04494208     0.09755937     0.15916263
               0.23128650     0.31572767     0.41458969     0.53033537
               0.66584808     0.82450364     1.01025438     1.22772762
               1.48234092     1.78043706     2.12944203     2.53805004
               3.01644009     3.57652955     4.23227104     5.00000000

     Gradients computed in reciprocal space

     Adding external electric field

     Computed dipole along edir(3) :
        Dipole               -1.4299 Ry au,         -3.6344 Debye
        Dipole field         -0.0047 Ry au

        Potential amp.        0.4215 Ry
        Total length         44.6496 bohr

     Starting wfc are  160 randomized atomic wfcs

     Self-consistent Calculation

     iteration #  1     ecut=    36.75 Ry     beta=0.30
     Davidson diagonalization with overlap
     ethr =  1.00E-02,  avg # of iterations =  7.2

[...]

     total energy              =   -4712.75099904 Ry
     Harris-Foulkes estimate   =   -4878.09437515 Ry
     estimated scf accuracy    <     346.54207112 Ry

     iteration #  2     ecut=    36.75 Ry     beta=0.30
     Davidson diagonalization with overlap
     c_bands:  5 eigenvalues not converged
     ethr =  1.00E-02,  avg # of iterations = 19.6

[...]

     End of self-consistent calculation

          k = 0.0000 0.0000 0.0000 ( 14321 PWs)   bands (ev):

  -112.9040-112.8986-112.8981-112.6305-112.6248-112.6246-112.5868-112.3787
  -112.3730-112.3728-112.3311-112.2346 -70.4452 -70.4119 -70.4114 -70.2452
   -70.2448 -70.2199 -70.2137 -70.1835 -70.1831 -70.0622 -70.0543 -70.0542
   -70.0200 -70.0145 -70.0144 -70.0133 -70.0008 -70.0007 -69.9853 -69.9722
   -69.9722 -69.8366 -69.8193 -69.8192 -69.7767 -69.7765 -69.7762 -69.7403
   -69.7403 -69.7310 -69.7258 -69.7255 -69.6783 -69.6582 -69.6582 -69.5984
   -10.3191  -8.1062  -6.0522  -4.9180  -4.7024  -4.7023  -4.6227  -4.4823
    -4.4777  -4.4776  -4.2084  -4.2084  -4.2063  -4.0165  -4.0164  -4.0057
    -3.5901  -3.5901  -3.4759  -3.2732  -3.2731  -3.2246  -3.0837  -3.0837
    -3.0324  -2.9239  -2.9239  -2.8866  -2.8865  -2.8786  -2.8726  -2.7563
    -2.7562  -2.6851  -2.6851  -2.4863  -2.4596  -2.4595  -2.3360  -2.2325
    -2.2324  -2.1771  -2.1356  -2.1356  -1.9802  -1.9801  -1.8866  -1.8866
    -1.8654  -1.8080  -1.7828  -1.7827  -1.7029  -1.7029  -1.6713  -1.6702
    -1.6701  -1.6557  -1.5978  -1.5977  -1.4411  -1.4262  -1.4261  -1.0182
    -0.6355  -0.2992  -0.2992   0.3491   0.3492   0.5192   0.9287   1.3547
     1.3547   1.4167   1.7125   1.7125   4.0129   4.0939

[...]

          k =-0.0964 0.0557 0.0000 ( 14294 PWs)   bands (ev):

[...]

     the Fermi energy is    -0.0250 ev

!    total energy              =   -4870.56570383 Ry
     Harris-Foulkes estimate   =   -4870.56573704 Ry
     estimated scf accuracy    <       0.00000758 Ry

     The total energy is the sum of the following terms:

     one-electron contribution =  -37642.14602444 Ry
     hartree contribution      =   18832.61672270 Ry
     xc contribution           =    -483.39273593 Ry
     ewald contribution        =   14422.38162587 Ry
     electric field correction =       0.00027109 Ry
     smearing contrib. (-TS)   =      -0.02556313 Ry

     convergence has been achieved in  26 iterations

 BEEF-vdW xc energy contributions
           1 :   -428.360529308280
           2 :    388.422984960996
           3 :   -320.729136424275
           4 :    243.863942993966
           5 :   -174.788111265306
           6 :    122.752721929207
           7 :   -87.8187968506516
           8 :    63.9619343063048
           9 :   -44.3344350860122
          10 :    25.4354507047397
          11 :   -8.09537030468937
          12 :   -4.60735704423900
          13 :    10.5370630106412
          14 :   -10.4843214397389
          15 :    7.77841834821771
          16 :   -6.11619724877835
          17 :    7.30822613188462
          18 :   -10.4890085244013
          19 :    13.1731057390231
          20 :   -13.2606926468154
          21 :    10.5447345237940
          22 :   -6.74678278472402
          23 :    4.19321730722658
          24 :   -4.16587977321245
          25 :    6.09538439316037
          26 :   -8.09474066059954
          27 :    8.37004460480364
          28 :   -6.47361389482012
          29 :    3.53814691030192
          30 :   -1.39057603377177
          31 :   -34.2349287103920
          32 :   -23.4198058138883

     Forces acting on atoms (Ry/au):

     negative rho (up, down):  1.051E-03 0.000E+00
     atom    1 type  1   force =    -0.00124689   -0.00074077    0.00266294
     atom    2 type  1   force =     0.00124256   -0.00071410    0.00259927
     atom    3 type  1   force =     0.00001406    0.00143874    0.00255903
     atom    4 type  1   force =    -0.00001250    0.00000884    0.00153699
     atom    5 type  1   force =     0.00002196    0.00233187    0.00249621
     atom    6 type  1   force =    -0.00002397   -0.00004745   -0.00638298
     atom    7 type  1   force =    -0.00206750   -0.00115634    0.00257608
     atom    8 type  1   force =     0.00206474   -0.00112567    0.00251847
     atom    9 type  1   force =     0.00001352    0.00000913    0.00104351
     atom   10 type  1   force =    -0.00000556    0.01059046    0.02693372
     atom   11 type  1   force =     0.00917595   -0.00530303    0.02688933
     atom   12 type  1   force =    -0.00917228   -0.00528568    0.02685337
     atom   13 type  2   force =    -0.00000409   -0.00000600   -0.09228594

     Total force =     0.104995     Total SCF correction =     0.003406

     entering subroutine stress ...

     negative rho (up, down):  1.051E-03 0.000E+00
          total   stress  (Ry/bohr**3)                   (kbar)     P=  -14.65
  -0.00010394   0.00000000   0.00000001        -15.29      0.00      0.00
   0.00000000  -0.00010394   0.00000002          0.00    -15.29      0.00
   0.00000001   0.00000002  -0.00009087          0.00      0.00    -13.37

     BFGS Geometry Optimization

     number of scf cycles    =   1
     number of bfgs steps    =   0

     energy   new            =   -4870.5657038318 Ry

     new trust radius        =       0.0922859436 bohr
     new conv_thr            =       0.0000099958 Ry

ATOMIC_POSITIONS (crystal)
Cu1      0.166666667   0.166666667   0.412653782    0   0   0
Cu1      0.666666667   0.166666667   0.412653782    0   0   0
Cu1      0.166666667   0.666666667   0.412653782    0   0   0
Cu1      0.666666667   0.666666667   0.412653782    0   0   0
Cu1      0.833333333   0.333333333   0.500000000    0   0   0
Cu1      0.333333333   0.333333333   0.500000000    0   0   0
Cu1      0.833333333   0.833333333   0.500000000    0   0   0
Cu1      0.333333333   0.833333333   0.500000000    0   0   0
Cu1      0.000000842   0.000001076   0.587369005
Cu1      0.499375380   0.001248106   0.587934362
Cu1      0.001249009   0.499375027   0.587933392
Cu1      0.499375316   0.499377073   0.587932607
C1       0.333333269   0.333332626   0.641121789

     Writing output data file calc.save
     Check: negative starting charge=   -0.000144
     NEW-OLD atomic charge density approx. for the potential
     Check: negative starting charge=   -0.000146

[...]

     Total force =     0.075097     Total SCF correction =     0.025376
     SCF correction compared to forces is large: reduce conv_thr to get better values

[...]

     energy   old            =   -4870.5657038318 Ry
     energy   new            =   -4870.5754912776 Ry

     CASE: energy  _new < energy  _old

[...]

     iteration #  1     ecut=    36.75 Ry     beta=0.30
     Davidson diagonalization with overlap
     c_bands:  1 eigenvalues not converged
     ethr =  1.00E-06,  avg # of iterations =  7.7

[...]

     Total force =     0.008332     Total SCF correction =     0.000833

[...]

     number of scf cycles    =  12
     number of bfgs steps    =  11

     energy   old            =   -4870.5942390210 Ry
     energy   new            =   -4870.5943539888 Ry

     CASE: energy  _new < energy  _old

     new trust radius        =       0.0066986043 bohr
     new conv_thr            =       0.0000001000 Ry

ATOMIC_POSITIONS (crystal)
Cu1      0.166666667   0.166666667   0.412653782    0   0   0
Cu1      0.666666667   0.166666667   0.412653782    0   0   0
Cu1      0.166666667   0.666666667   0.412653782    0   0   0
Cu1      0.666666667   0.666666667   0.412653782    0   0   0
Cu1      0.833333333   0.333333333   0.500000000    0   0   0
Cu1      0.333333333   0.333333333   0.500000000    0   0   0
Cu1      0.833333333   0.833333333   0.500000000    0   0   0
Cu1      0.333333333   0.833333333   0.500000000    0   0   0
Cu1      0.000000669  -0.000002414   0.587499581
Cu1      0.506162232  -0.012322723   0.587521432
Cu1     -0.012330161   0.506166085   0.587524808
Cu1      0.506165430   0.506164739   0.587523489
C1       0.333334275   0.333339804   0.629621090

     Writing output data file calc.save
     Check: negative starting charge=   -0.000156
     NEW-OLD atomic charge density approx. for the potential
     Check: negative starting charge=   -0.000156

[...]

     Self-consistent Calculation

[...]

     total energy              =   -4870.59438071 Ry
     Harris-Foulkes estimate   =   -4870.59438094 Ry
     estimated scf accuracy    <       0.00000023 Ry

     iteration #  7     ecut=    36.75 Ry     beta=0.30
     Davidson diagonalization with overlap
     ethr =  9.91E-11,  avg # of iterations =  3.0

[...]

     negative rho (up, down):  1.103E-03 0.000E+00

     Adding external electric field

     Computed dipole along edir(3) :
        Dipole               -0.2067 Ry au,         -0.5255 Debye
        Dipole field         -0.0007 Ry au

        Potential amp.        0.0609 Ry
        Total length         44.6496 bohr

     End of self-consistent calculation

[...]

          k = 0.0643-0.0742 0.0000 ( 14299 PWs)   bands (ev):

[...]

          k =-0.0964-0.0557 0.0000 ( 14294 PWs)   bands (ev):

  -113.0753-113.0717-113.0702-112.5261-112.5243-112.5224-112.4407-112.2632
  -112.2615-112.2595-112.2199-112.1435 -70.6782 -70.6567 -70.6445 -70.3781
   -70.3726 -70.3594 -70.3387 -70.3278 -70.3214 -69.9488 -69.9324 -69.9278
   -69.9252 -69.9236 -69.9154 -69.9127 -69.9118 -69.8999 -69.8460 -69.8394
   -69.8323 -69.7095 -69.6899 -69.6882 -69.6817 -69.6796 -69.6610 -69.6441
   -69.6320 -69.6139 -69.6123 -69.6106 -69.5708 -69.5700 -69.5655 -69.5094
   -10.7784  -6.5838  -6.2858  -5.2424  -4.6992  -4.5377  -4.4871  -4.2300
    -4.2293  -4.0960  -4.0004  -3.9269  -3.8884  -3.7386  -3.7125  -3.6752
    -3.6169  -3.5873  -3.5348  -3.3834  -3.3307  -3.2695  -3.2413  -3.2298
    -3.2245  -3.1701  -3.0615  -3.0238  -2.9517  -2.9194  -2.8649  -2.8000
    -2.7830  -2.7362  -2.6643  -2.6407  -2.6186  -2.5855  -2.5598  -2.5179
    -2.5073  -2.5044  -2.3917  -2.3349  -2.3227  -2.2904  -2.2357  -2.2199
    -2.2077  -2.0916  -2.0897  -2.0070  -1.9757  -1.9303  -1.9012  -1.8656
    -1.8570  -1.8435  -1.7694  -1.6292  -1.6005  -1.5965  -1.5301  -1.4884
    -1.2235  -0.6340  -0.5365  -0.0950   0.3675   0.7140   0.8245   1.7696
     2.0652   2.9088   3.4505   3.9390   4.5500   5.8075

     the Fermi energy is     0.1041 ev

!    total energy              =   -4870.59438074 Ry
     Harris-Foulkes estimate   =   -4870.59438118 Ry
     estimated scf accuracy    <       0.00000004 Ry

     The total energy is the sum of the following terms:

     one-electron contribution =  -37738.63405430 Ry
     hartree contribution      =   18881.00311756 Ry
     xc contribution           =    -483.52094256 Ry
     ewald contribution        =   14470.58110825 Ry
     electric field correction =       0.00014108 Ry
     smearing contrib. (-TS)   =      -0.02375076 Ry

     convergence has been achieved in   7 iterations

 BEEF-vdW xc energy contributions
           1 :   -428.500162988138
           2 :    388.631844161616
           3 :   -321.007189261259
           4 :    244.137851476385
           5 :   -174.963358118928
           6 :    122.776463597717
           7 :   -87.7145647637364
           8 :    63.8147541112477
           9 :   -44.2368449375458
          10 :    25.4306000054250
          11 :   -8.15472868062039
          12 :   -4.55745480279785
          13 :    10.5589040967918
          14 :   -10.5829493639175
          15 :    7.89884138582590
          16 :   -6.18281022910065
          17 :    7.27738337522817
          18 :   -10.3790589932732
          19 :    13.0513928255023
          20 :   -13.1976243797874
          21 :    10.5675135712523
          22 :   -6.82423175605624
          23 :    4.26053268642767
          24 :   -4.17034175074690
          25 :    6.03114037321660
          26 :   -8.00436057093987
          27 :    8.31331537934835
          28 :   -6.48517864232798
          29 :    3.60312633260588
          30 :   -1.45533890486257
          31 :   -34.2458178417647
          32 :   -23.4440992624920

     Forces acting on atoms (Ry/au):

     negative rho (up, down):  1.103E-03 0.000E+00
     atom    1 type  1   force =    -0.00108837   -0.00062798    0.00251321
     atom    2 type  1   force =     0.00108863   -0.00062811    0.00251298
     atom    3 type  1   force =     0.00000017    0.00125751    0.00251315
     atom    4 type  1   force =     0.00000022    0.00000070    0.00082805
     atom    5 type  1   force =     0.00000122    0.00208915   -0.00083975
     atom    6 type  1   force =    -0.00000073    0.00000359   -0.00680556
     atom    7 type  1   force =    -0.00180627   -0.00104581   -0.00084490
     atom    8 type  1   force =     0.00180677   -0.00104484   -0.00084522
     atom    9 type  1   force =     0.00000209    0.00000388    0.00014825
     atom   10 type  1   force =    -0.00000228    0.00094727    0.00080933
     atom   11 type  1   force =     0.00081723   -0.00047387    0.00079674
     atom   12 type  1   force =    -0.00081512   -0.00046965    0.00079899
     atom   13 type  2   force =    -0.00000355   -0.00001183   -0.00158528

     Total force =     0.002672     Total SCF correction =     0.000312
     SCF correction compared to forces is large: reduce conv_thr to get better values

     entering subroutine stress ...

     negative rho (up, down):  1.103E-03 0.000E+00
          total   stress  (Ry/bohr**3)                   (kbar)     P=  -17.66
  -0.00013226   0.00000000  -0.00000000        -19.46      0.00     -0.00
   0.00000000  -0.00013228  -0.00000001          0.00    -19.46     -0.00
  -0.00000000  -0.00000001  -0.00009552         -0.00     -0.00    -14.05

     bfgs converged in  13 scf cycles and  12 bfgs steps
     (criteria: energy <  1.0E+00, force <  1.9E-03)

     End of BFGS Geometry Optimization

     Final energy   =   -4870.5943807357 Ry
Begin final coordinates

ATOMIC_POSITIONS (crystal)
Cu1      0.166666667   0.166666667   0.412653782    0   0   0
Cu1      0.666666667   0.166666667   0.412653782    0   0   0
Cu1      0.166666667   0.666666667   0.412653782    0   0   0
Cu1      0.666666667   0.666666667   0.412653782    0   0   0
Cu1      0.833333333   0.333333333   0.500000000    0   0   0
Cu1      0.333333333   0.333333333   0.500000000    0   0   0
Cu1      0.833333333   0.833333333   0.500000000    0   0   0
Cu1      0.333333333   0.833333333   0.500000000    0   0   0
Cu1      0.000000669  -0.000002414   0.587499581
Cu1      0.506162232  -0.012322723   0.587521432
Cu1     -0.012330161   0.506166085   0.587524808
Cu1      0.506165430   0.506164739   0.587523489
C1       0.333334275   0.333339804   0.629621090
End final coordinates

     Writing output data file calc.save

     General routines

     Parallel routines

   This run was terminated on:  16:10:16   1May2018

   JOB DONE.
Job  /afs/slac/g/suncat/bin/suncat-tsmpirun -x LD_LIBRARY_PATH -wdir /scratch/qe572269_AKF0Q pw.x -npool 4 -in pw.inp

TID   HOST_NAME   COMMAND_LINE            STATUS            TERMINATION_TIME
00000 suncat0131 pw.x -npool 4 -i  Done                     05/01/2018 16:10:16
00001 suncat0131 pw.x -npool 4 -i  Done                     05/01/2018 16:10:16
00002 suncat0131 pw.x -npool 4 -i  Done                     05/01/2018 16:10:16
00003 suncat0131 pw.x -npool 4 -i  Done                     05/01/2018 16:10:16
00004 suncat0131 pw.x -npool 4 -i  Done                     05/01/2018 16:10:16
00005 suncat0131 pw.x -npool 4 -i  Done                     05/01/2018 16:10:16
00006 suncat0131 pw.x -npool 4 -i  Done                     05/01/2018 16:10:16
00007 suncat0131 pw.x -npool 4 -i  Done                     05/01/2018 16:10:16
00008 suncat0130 pw.x -npool 4 -i  Done                     05/01/2018 16:10:16
00009 suncat0130 pw.x -npool 4 -i  Done                     05/01/2018 16:10:16
00010 suncat0130 pw.x -npool 4 -i  Done                     05/01/2018 16:10:16
00011 suncat0130 pw.x -npool 4 -i  Done                     05/01/2018 16:10:16
00012 suncat0130 pw.x -npool 4 -i  Done                     05/01/2018 16:10:16
00013 suncat0130 pw.x -npool 4 -i  Done                     05/01/2018 16:10:16
00014 suncat0130 pw.x -npool 4 -i  Done                     05/01/2018 16:10:16
00015 suncat0130 pw.x -npool 4 -i  Done                     05/01/2018 16:10:16
00016 suncat0207 pw.x -npool 4 -i  Done                     05/01/2018 16:10:16
00017 suncat0207 pw.x -npool 4 -i  Done                     05/01/2018 16:10:16
00018 suncat0207 pw.x -npool 4 -i  Done                     05/01/2018 16:10:16
00019 suncat0207 pw.x -npool 4 -i  Done                     05/01/2018 16:10:16
00020 suncat0207 pw.x -npool 4 -i  Done                     05/01/2018 16:10:16
00021 suncat0207 pw.x -npool 4 -i  Done                     05/01/2018 16:10:16
00022 suncat0207 pw.x -npool 4 -i  Done                     05/01/2018 16:10:16
00023 suncat0207 pw.x -npool 4 -i  Done                     05/01/2018 16:10:16
00024 suncat0200 pw.x -npool 4 -i  Done                     05/01/2018 16:10:16
00025 suncat0200 pw.x -npool 4 -i  Done                     05/01/2018 16:10:16
00026 suncat0200 pw.x -npool 4 -i  Done                     05/01/2018 16:10:16
00027 suncat0200 pw.x -npool 4 -i  Done                     05/01/2018 16:10:16
00028 suncat0200 pw.x -npool 4 -i  Done                     05/01/2018 16:10:16
00029 suncat0200 pw.x -npool 4 -i  Done                     05/01/2018 16:10:16
00030 suncat0200 pw.x -npool 4 -i  Done                     05/01/2018 16:10:16
00031 suncat0200 pw.x -npool 4 -i  Done                     05/01/2018 16:10:16