     Program PWSCF v.5.1rc2 (svn rev. 11289) starts on 24Apr2018 at 15:45:46

     Current dimensions of program PWSCF are:
     Max number of different atomic species (ntypx) = 10
     Max number of k-points (npk) =  40000
     Max angular momentum in pseudopotentials (lmaxx) =  3
     Presently stress not available with electric field

     IMPORTANT: XC functional enforced from input :
     Exchange-correlation      = BEEF-VDW ( 1  4 27 13 2)
     Any further DFT definition will be discarded
     Please, verify this is what you really want

     Subspace diagonalization in iterative solution of the eigenvalue problem:
     a serial algorithm will be used

     bravais-lattice index     =            0
     lattice parameter (alat)  =       1.8897  a.u.
     unit-cell volume          =    4704.3541 (a.u.)^3
     number of atoms/cell      =           14
     number of atomic types    =            3
     number of electrons       =       175.00
     number of Kohn-Sham states=           97
     kinetic-energy cutoff     =      36.7493  Ry
     charge density cutoff     =     367.4932  Ry
     convergence threshold     =      1.0E-05
     mixing beta               =       0.3000
     number of iterations used =           10  plain     mixing
     Exchange-correlation      = BEEF-VDW ( 1  4 27 13 2)
     nstep                     =           50

     celldm(1)=   1.889726  celldm(2)=   0.000000  celldm(3)=   0.000000
     celldm(4)=   0.000000  celldm(5)=   0.000000  celldm(6)=   0.000000

     crystal axes: (cart. coord. in units of alat)
               a(1) = (   5.712816   0.000000   0.000000 )
               a(2) = (   2.856408   4.947444   0.000000 )
               a(3) = (   0.000000   0.000000  24.664495 )

     reciprocal axes: (cart. coord. in units 2 pi/alat)
               b(1) = (  0.175045 -0.101062  0.000000 )
               b(2) = (  0.000000  0.202125  0.000000 )
               b(3) = (  0.000000  0.000000  0.040544 )

     PseudoPot. # 1 for W  read from file:
     /u/if/mamunm/psp/gbrv1.5pbe/W.UPF
     MD5 check sum: 9c083fa34c2a2ea0f02f1f893e16e1c8
     Pseudo is Ultrasoft + core correction, Zval = 14.0
     Generated by new atomic code, or converted to UPF format
     Using radial grid of  923 points,  8 beta functions with:
                l(1) =   0
                l(2) =   0
                l(3) =   0
                l(4) =   1
                l(5) =   1
                l(6) =   2
                l(7) =   2
                l(8) =   3
     Q(r) pseudized with  6 coefficients,  rinner =    1.350   1.350   1.350
                                                       1.350   1.350   1.350
                                                       1.350

     PseudoPot. # 2 for O  read from file:
     /u/if/mamunm/psp/gbrv1.5pbe/O.UPF
     MD5 check sum: 734c27235a0248c51dbae37a1fbe46ec
     Pseudo is Ultrasoft + core correction, Zval =  6.0
     Generated by new atomic code, or converted to UPF format
     Using radial grid of  737 points,  5 beta functions with:
                l(1) =   0
                l(2) =   0
                l(3) =   1
                l(4) =   1
                l(5) =   2
     Q(r) pseudized with  8 coefficients,  rinner =    0.900   0.900   0.900
                                                       0.900   0.900

     PseudoPot. # 3 for H  read from file:
     /u/if/mamunm/psp/gbrv1.5pbe/H.UPF
     MD5 check sum: 761ae9a214b05c3daf00ab9f6b793d6f
     Pseudo is Ultrasoft, Zval =  1.0
     Generated by new atomic code, or converted to UPF format
     Using radial grid of  615 points,  2 beta functions with:
                l(1) =   0
                l(2) =   0
     Q(r) pseudized with  8 coefficients,  rinner =    0.700

     vdW kernel table read from file vdW_kernel_table
     MD5 check sum: 095c7af220d748ca6e76c0b4c6cfb241

     atomic species   valence    mass     pseudopotential
        W1            14.00   183.84000     W ( 1.00)
        O1             6.00    15.99900     O ( 1.00)
        H1             1.00     1.00800     H ( 1.00)

     No symmetry found

   Cartesian axes

     site n.     atom                  positions (alat units)
         1           W1  tau(   1) = (   1.4282041   0.8245740  10.0000000  )
         2           W1  tau(   2) = (   4.2846123   0.8245740  10.0000000  )
         3           W1  tau(   3) = (   2.8564082   3.2982961  10.0000000  )
         4           W1  tau(   4) = (   5.7128165   3.2982961  10.0000000  )
         5           W1  tau(   5) = (   5.7128165   1.6491481  12.3322476  )
         6           W1  tau(   6) = (   2.8564082   1.6491481  12.3322476  )
         7           W1  tau(   7) = (   7.1410206   4.1228701  12.3322476  )
         8           W1  tau(   8) = (   4.2846123   4.1228701  12.3322476  )
         9           W1  tau(   9) = (   0.0000000   0.0000000  14.6644951  )
        10           W1  tau(  10) = (   2.8564082   0.0000000  14.6644951  )
        11           W1  tau(  11) = (   1.4282041   2.4737221  14.6644951  )
        12           W1  tau(  12) = (   4.2846123   2.4737221  14.6644951  )
        13           O1  tau(  13) = (   2.8564082   1.6491481  16.1464951  )
        14           H1  tau(  14) = (   2.8564082   1.6491481  17.0964951  )

     number of k points=    20  Fermi-Dirac smearing, width (Ry)=  0.0110
                       cart. coord. in units 2pi/alat
        k(    1) = (   0.0000000   0.0000000   0.0000000), wk =   0.0555556
        k(    2) = (   0.0000000   0.0336874   0.0000000), wk =   0.1111111
        k(    3) = (   0.0000000   0.0673749   0.0000000), wk =   0.1111111
        k(    4) = (   0.0000000  -0.1010623   0.0000000), wk =   0.0555556
        k(    5) = (   0.0291742  -0.0168437   0.0000000), wk =   0.1111111
        k(    6) = (   0.0291742   0.0168437   0.0000000), wk =   0.1111111
        k(    7) = (   0.0291742   0.0505311   0.0000000), wk =   0.1111111
        k(    8) = (   0.0291742  -0.1179060   0.0000000), wk =   0.1111111
        k(    9) = (   0.0291742  -0.0842186   0.0000000), wk =   0.1111111
        k(   10) = (   0.0291742  -0.0505311   0.0000000), wk =   0.1111111
        k(   11) = (   0.0583483  -0.0336874   0.0000000), wk =   0.1111111
        k(   12) = (   0.0583483  -0.0000000   0.0000000), wk =   0.1111111
        k(   13) = (   0.0583483   0.0336874   0.0000000), wk =   0.1111111
        k(   14) = (   0.0583483  -0.1347497   0.0000000), wk =   0.1111111
        k(   15) = (   0.0583483  -0.1010623   0.0000000), wk =   0.1111111
        k(   16) = (   0.0583483  -0.0673749   0.0000000), wk =   0.1111111
        k(   17) = (  -0.0875225   0.0505311   0.0000000), wk =   0.0555556
        k(   18) = (  -0.0875225   0.0842186   0.0000000), wk =   0.1111111
        k(   19) = (  -0.0875225   0.1179060   0.0000000), wk =   0.1111111
        k(   20) = (  -0.0875225  -0.0505311   0.0000000), wk =   0.0555556

     Largest allocated arrays     est. size (Mb)     dimensions
     Largest temporary arrays     est. size (Mb)     dimensions

     Initial potential from superposition of free atoms
     Check: negative starting charge=   -0.760453

     starting charge  173.79591, renormalised to  175.00000

     negative rho (up, down):  7.657E-01 0.000E+00

     *
     * You are using vdW-DF for exchange-correlation in this calculation.
     * Please cite the following three references that made this development
     * possible:
     *
     *   M. Dion, H. Rydberg, E. Schroder, D. C. Langreth, and
     *   B. I. Lundqvist, Phys. Rev. Lett. 92, 246401 (2004).
     *
     *   T. Thonhauser, V. R. Cooper, S. Li, A. Puzder, P. Hyldgaard, and
     *   D. C. Langreth, Phys. Rev. B 76, 125112 (2007).
     *
     *   G. Roman-Perez and J. M. Soler, Phys. Rev. Lett. 103, 096102 (2009).
     *
     *
     * If you are using vdW-DF2, please also cite:
     *
     *   K. Lee, E. D. Murray, L. Kong, B. I. Lundqvist, and
     *   D. C. Langreth, Phys. Rev. B 82, 081101(R) (2010).
     *
     *
     * If you are calculating the stress with vdW-DF, please also cite:
     *
     *   R. Sabatini, E. Kucukbenli, B. Kolb, T. Thonhauser, and
     *   S. de Gironcoli, J. Phys.: Condens. Matter 24, 424209 (2012).
     *

     Carrying out vdW-DF run using the following parameters:

     Nqs =      20    Nr_points =    1024   r_max =   100.000
     q_mesh =
               0.00001000     0.04494208     0.09755937     0.15916263
               0.23128650     0.31572767     0.41458969     0.53033537
               0.66584808     0.82450364     1.01025438     1.22772762
               1.48234092     1.78043706     2.12944203     2.53805004
               3.01644009     3.57652955     4.23227104     5.00000000

     Gradients computed in reciprocal space

     Adding external electric field

     Computed dipole along edir(3) :
        Dipole               -0.3619 Ry au,         -0.9199 Debye
        Dipole field         -0.0010 Ry au

        Potential amp.        0.0879 Ry
        Total length         45.4439 bohr

     Starting wfc are  161 randomized atomic wfcs

     Self-consistent Calculation

     iteration #  1     ecut=    36.75 Ry     beta=0.30
     Davidson diagonalization with overlap
     ethr =  1.00E-02,  avg # of iterations =  2.0

[...]

     total energy              =   -1954.26302760 Ry
     Harris-Foulkes estimate   =   -1959.02950632 Ry
     estimated scf accuracy    <      10.07798793 Ry

[...]

     End of self-consistent calculation

          k = 0.0000 0.0000 0.0000 ( 17753 PWs)   bands (ev):

   -71.2508 -71.1953 -71.1944 -71.0740 -71.0223 -71.0042 -70.9907 -70.9906
   -70.9862 -70.9716 -70.9693 -70.9691 -35.8556 -35.6744 -35.6742 -35.6445
   -35.6381 -35.6379 -35.6378 -35.4952 -35.4824 -35.4823 -35.3332 -35.2989
   -35.2983 -35.1488 -35.1171 -35.1099 -35.1097 -35.0643 -35.0637 -35.0322
   -34.9357 -34.9356 -34.9164 -34.9118 -34.9084 -34.9083 -34.8494 -34.7960
   -34.7959 -34.7865 -34.7719 -34.7718 -34.7105 -34.7104 -34.6128 -34.6128
   -18.7281  -7.2030  -4.9414  -3.2219  -3.2219  -3.1158  -2.3882  -1.8755
    -1.8430  -1.8429  -1.5101  -1.5100  -1.4999  -0.9306  -0.8580  -0.8579
    -0.7640  -0.7640  -0.6632   0.6692   0.6693   0.8236   1.6526   1.8098
     1.8098   2.0459   2.1122   2.5356   2.5356   2.6298   2.7140   2.7141
     2.8233   2.8700   2.8701   2.9451   3.0206   3.0207   3.1535   3.1536
     3.5961   3.9165   3.9167   4.3147   4.7313   4.8342   4.8343   4.9253
     4.9254

[...]

          k =-0.0875 0.0505 0.0000 ( 17668 PWs)   bands (ev):

[...]

     the Fermi energy is     3.1349 ev

!    total energy              =   -1958.60690244 Ry
     Harris-Foulkes estimate   =   -1958.60687185 Ry
     estimated scf accuracy    <       0.00000297 Ry

     The total energy is the sum of the following terms:

     one-electron contribution =  -15202.42777977 Ry
     hartree contribution      =    7590.93213824 Ry
     xc contribution           =    -518.75377844 Ry
     ewald contribution        =    6171.73575203 Ry
     electric field correction =       0.00064111 Ry
     smearing contrib. (-TS)   =      -0.09387562 Ry

     convergence has been achieved in  18 iterations

 BEEF-vdW xc energy contributions
           1 :   -456.249556714565
           2 :    421.848368494884
           3 :   -361.333447126113
           4 :    288.049302130643
           5 :   -215.823438212142
           6 :    154.968815651409
           7 :   -110.107684695213
           8 :    80.2900137717660
           9 :   -60.9957264751350
          10 :    46.9055746497400
          11 :   -34.1934947847239
          12 :    21.5187477059404
          13 :   -9.62807926468264
          14 :   0.112034679741612
          15 :    5.88546038541398
          16 :   -8.38468476406030
          17 :    8.50991323628904
          18 :   -7.85237028204966
          19 :    7.68194729541955
          20 :   -8.43295302772759
          21 :    9.68663155481835
          22 :   -10.5931431627250
          23 :    10.4577204881384
          24 :   -9.16503011960236
          25 :    7.23469719873282
          26 :   -5.51628851757192
          27 :    4.71744017016641
          28 :   -5.03019122338304
          29 :    6.05187741539754
          30 :   -7.02889530825775
          31 :   -41.4317224070360
          32 :   -30.9818959474159

     Forces acting on atoms (Ry/au):

     negative rho (up, down):  7.927E-01 0.000E+00
     atom    1 type  1   force =    -0.00110086   -0.00064051   -0.00352820
     atom    2 type  1   force =     0.00110838   -0.00063998   -0.00353084
     atom    3 type  1   force =     0.00000868    0.00126557   -0.00351404
     atom    4 type  1   force =     0.00000012    0.00000351   -0.00333682
     atom    5 type  1   force =    -0.00000546   -0.00319217   -0.00218676
     atom    6 type  1   force =     0.00000233   -0.00000276    0.01425467
     atom    7 type  1   force =     0.00278089    0.00158915   -0.00217848
     atom    8 type  1   force =    -0.00278209    0.00158686   -0.00217949
     atom    9 type  1   force =    -0.00000395   -0.00000528   -0.02612770
     atom   10 type  1   force =    -0.00000437   -0.05556872    0.01995297
     atom   11 type  1   force =    -0.04811481    0.02778598    0.02006527
     atom   12 type  1   force =     0.04812492    0.02778779    0.02000641
     atom   13 type  2   force =    -0.00001804    0.00003321   -0.07563587
     atom   14 type  3   force =     0.00000425   -0.00000265    0.04793889

     Total force =     0.138440     Total SCF correction =     0.010642

     entering subroutine stress ...

     negative rho (up, down):  7.927E-01 0.000E+00
          total   stress  (Ry/bohr**3)                   (kbar)     P=  -45.35
  -0.00043148  -0.00000000   0.00000001        -63.47     -0.00      0.00
  -0.00000000  -0.00043149  -0.00000000         -0.00    -63.47     -0.00
   0.00000001  -0.00000000  -0.00006192          0.00     -0.00     -9.11

     BFGS Geometry Optimization

     number of scf cycles    =   1
     number of bfgs steps    =   0

     energy   new            =   -1958.6069024353 Ry

     new trust radius        =       0.0756358770 bohr
     new conv_thr            =       0.0000099958 Ry

ATOMIC_POSITIONS (crystal)
W1       0.166666667   0.166666667   0.405441099    0   0   0
W1       0.666666667   0.166666667   0.405441099    0   0   0
W1       0.166666667   0.666666667   0.405441099    0   0   0
W1       0.666666667   0.666666667   0.405441099    0   0   0
W1       0.833333333   0.333333333   0.500000000    0   0   0
W1       0.333333333   0.333333333   0.500000000    0   0   0
W1       0.833333333   0.833333333   0.500000000    0   0   0
W1       0.333333333   0.833333333   0.500000000    0   0   0
W1      -0.000000084  -0.000000565   0.593998331
W1       0.502971403  -0.005943614   0.594986992
W1      -0.005942858   0.502971981   0.594989402
W1       0.502971716   0.502972174   0.594988139
O1       0.333329886   0.333336885   0.653022503
H1       0.333333869   0.333333050   0.694190706

     Writing output data file calc.save
     Check: negative starting charge=   -0.760453
     NEW-OLD atomic charge density approx. for the potential
     Check: negative starting charge=   -0.761669

[...]

     iteration #  1     ecut=    36.75 Ry     beta=0.30
     Davidson diagonalization with overlap
     c_bands:  1 eigenvalues not converged
     c_bands:  1 eigenvalues not converged
     ethr =  1.00E-06,  avg # of iterations = 12.1

[...]

     energy   old            =   -1958.6069024353 Ry
     energy   new            =   -1958.6157686202 Ry

     CASE: energy  _new < energy  _old

[...]

     number of scf cycles    =   9
     number of bfgs steps    =   8

     energy   old            =   -1958.6279773862 Ry
     energy   new            =   -1958.6280399455 Ry

     CASE: energy  _new < energy  _old

     new trust radius        =       0.0067929118 bohr
     new conv_thr            =       0.0000001000 Ry

ATOMIC_POSITIONS (crystal)
W1       0.166666667   0.166666667   0.405441099    0   0   0
W1       0.666666667   0.166666667   0.405441099    0   0   0
W1       0.166666667   0.666666667   0.405441099    0   0   0
W1       0.666666667   0.666666667   0.405441099    0   0   0
W1       0.833333333   0.333333333   0.500000000    0   0   0
W1       0.333333333   0.333333333   0.500000000    0   0   0
W1       0.833333333   0.833333333   0.500000000    0   0   0
W1       0.333333333   0.833333333   0.500000000    0   0   0
W1      -0.000001575   0.000001310   0.589114819
W1       0.507864226  -0.015730537   0.596428765
W1      -0.015734797   0.507868416   0.596428382
W1       0.507865179   0.507868116   0.596428571
O1       0.333332786   0.333334314   0.651678355
H1       0.333334224   0.333332918   0.691164844

     Writing output data file calc.save
     Check: negative starting charge=   -0.759292
     NEW-OLD atomic charge density approx. for the potential
     Check: negative starting charge=   -0.759433

[...]

     Self-consistent Calculation

[...]

     total energy              =   -1958.62806156 Ry
     Harris-Foulkes estimate   =   -1958.62806180 Ry
     estimated scf accuracy    <       0.00000012 Ry

     iteration #  9     ecut=    36.75 Ry     beta=0.30
     Davidson diagonalization with overlap
     ethr =  6.68E-11,  avg # of iterations =  3.0

[...]

     negative rho (up, down):  7.923E-01 0.000E+00

     Adding external electric field

     Computed dipole along edir(3) :
        Dipole                0.4888 Ry au,          1.2424 Debye
        Dipole field          0.0013 Ry au

        Potential amp.       -0.1187 Ry
        Total length         45.4439 bohr

     End of self-consistent calculation

[...]

          k = 0.0583-0.0674 0.0000 ( 17692 PWs)   bands (ev):

[...]

          k =-0.0875-0.0505 0.0000 ( 17668 PWs)   bands (ev):

   -71.2114 -71.1767 -71.1627 -71.0871 -70.9935 -70.9814 -70.9591 -70.9515
   -70.9514 -70.9369 -70.9295 -70.9059 -35.7023 -35.5322 -35.5241 -35.4880
   -35.4842 -35.4767 -35.3668 -35.3532 -35.3372 -35.3345 -35.3258 -35.2988
   -35.2557 -35.1894 -35.1487 -35.1126 -35.1072 -35.0728 -35.0434 -35.0248
   -35.0110 -34.9777 -34.9768 -34.9689 -34.9484 -34.9416 -34.9371 -34.8710
   -34.8657 -34.8229 -34.8141 -34.7741 -34.7274 -34.7221 -34.6788 -34.6573
   -18.8157  -7.0280  -3.7580  -3.3080  -3.0393  -2.8201  -1.5351  -1.3299
    -0.8938  -0.8244  -0.7396  -0.6568  -0.6398  -0.5187   0.1464   0.1964
     0.3480   0.4563   0.4642   0.6082   0.9195   0.9570   1.0414   1.0937
     1.2067   1.2903   1.6627   1.7579   1.7929   1.9081   2.0280   2.0710
     2.1106   2.1716   2.2608   2.3948   2.6787   2.6905   2.7217   2.8716
     2.9146   3.3959   3.6262   3.7569   3.9470   4.2391   4.3359   4.3934
     4.5294

     the Fermi energy is     3.1645 ev

!    total energy              =   -1958.62806157 Ry
     Harris-Foulkes estimate   =   -1958.62806093 Ry
     estimated scf accuracy    <          8.4E-09 Ry

     The total energy is the sum of the following terms:

     one-electron contribution =  -15222.53342857 Ry
     hartree contribution      =    7601.01912606 Ry
     xc contribution           =    -518.78803753 Ry
     ewald contribution        =    6181.76603377 Ry
     electric field correction =       0.00063817 Ry
     smearing contrib. (-TS)   =      -0.09239348 Ry

     convergence has been achieved in   9 iterations

 BEEF-vdW xc energy contributions
           1 :   -456.287782910093
           2 :    421.900050378377
           3 :   -361.392896645958
           4 :    288.094107800568
           5 :   -215.829559957791
           6 :    154.922793603227
           7 :   -110.011657912606
           8 :    80.1606896364496
           9 :   -60.8587966974737
          10 :    46.7873436255413
          11 :   -34.1118294961300
          12 :    21.4767795863934
          13 :   -9.61400167089494
          14 :   0.104279205665819
          15 :    5.91069755569146
          16 :   -8.44435601292071
          17 :    8.60499424900451
          18 :   -7.96461006058234
          19 :    7.78081425844732
          20 :   -8.49025125940784
          21 :    9.69183857605685
          22 :   -10.5610546190135
          23 :    10.4225808330016
          24 :   -9.16316748840666
          25 :    7.28474959837649
          26 :   -5.60775840468341
          27 :    4.81505238518099
          28 :   -5.09292963552798
          29 :    6.05572338015185
          30 :   -6.98077717685692
          31 :   -41.4340061198194
          32 :   -30.9849321421628

     Forces acting on atoms (Ry/au):

     negative rho (up, down):  7.923E-01 0.000E+00
     atom    1 type  1   force =    -0.00156911   -0.00090634   -0.00454633
     atom    2 type  1   force =     0.00156934   -0.00090627   -0.00454620
     atom    3 type  1   force =     0.00000015    0.00181198   -0.00454648
     atom    4 type  1   force =     0.00000002   -0.00000008    0.00118676
     atom    5 type  1   force =    -0.00000011    0.00552838   -0.01128228
     atom    6 type  1   force =     0.00000047   -0.00000089    0.04805929
     atom    7 type  1   force =    -0.00478786   -0.00276391   -0.01128183
     atom    8 type  1   force =     0.00478790   -0.00276408   -0.01128131
     atom    9 type  1   force =    -0.00000010    0.00000050    0.00090712
     atom   10 type  1   force =     0.00000010   -0.00060208   -0.00028143
     atom   11 type  1   force =    -0.00052013    0.00030038   -0.00027716
     atom   12 type  1   force =     0.00052043    0.00030087   -0.00027935
     atom   13 type  2   force =    -0.00000083    0.00000113   -0.00012332
     atom   14 type  3   force =    -0.00000028    0.00000042   -0.00170749

     Total force =     0.002252     Total SCF correction =     0.000079

     entering subroutine stress ...

     negative rho (up, down):  7.923E-01 0.000E+00
          total   stress  (Ry/bohr**3)                   (kbar)     P=  -43.45
  -0.00040592   0.00000000  -0.00000000        -59.71      0.00     -0.00
   0.00000000  -0.00040592   0.00000000          0.00    -59.71      0.00
  -0.00000000   0.00000000  -0.00007418         -0.00      0.00    -10.91

     bfgs converged in  10 scf cycles and   9 bfgs steps
     (criteria: energy <  1.0E+00, force <  1.9E-03)

     End of BFGS Geometry Optimization

     Final energy   =   -1958.6280615718 Ry
Begin final coordinates

ATOMIC_POSITIONS (crystal)
W1       0.166666667   0.166666667   0.405441099    0   0   0
W1       0.666666667   0.166666667   0.405441099    0   0   0
W1       0.166666667   0.666666667   0.405441099    0   0   0
W1       0.666666667   0.666666667   0.405441099    0   0   0
W1       0.833333333   0.333333333   0.500000000    0   0   0
W1       0.333333333   0.333333333   0.500000000    0   0   0
W1       0.833333333   0.833333333   0.500000000    0   0   0
W1       0.333333333   0.833333333   0.500000000    0   0   0
W1      -0.000001575   0.000001310   0.589114819
W1       0.507864226  -0.015730537   0.596428765
W1      -0.015734797   0.507868416   0.596428382
W1       0.507865179   0.507868116   0.596428571
O1       0.333332786   0.333334314   0.651678355
H1       0.333334224   0.333332918   0.691164844
End final coordinates

     Writing output data file calc.save

     General routines

     Parallel routines

   This run was terminated on:  17:14:27  24Apr2018

   JOB DONE.
Job  /afs/slac/g/suncat/bin/suncat-tsmpirun -x LD_LIBRARY_PATH -wdir /scratch/qe915915_dNsEK pw.x -npool 4 -in pw.inp

TID   HOST_NAME   COMMAND_LINE            STATUS            TERMINATION_TIME
00000 suncat0229 pw.x -npool 4 -i  Done                     04/24/2018 17:14:27
00001 suncat0229 pw.x -npool 4 -i  Done                     04/24/2018 17:14:27
00002 suncat0229 pw.x -npool 4 -i  Done                     04/24/2018 17:14:27
00003 suncat0229 pw.x -npool 4 -i  Done                     04/24/2018 17:14:27
00004 suncat0229 pw.x -npool 4 -i  Done                     04/24/2018 17:14:27
00005 suncat0229 pw.x -npool 4 -i  Done                     04/24/2018 17:14:27
00006 suncat0229 pw.x -npool 4 -i  Done                     04/24/2018 17:14:27
00007 suncat0229 pw.x -npool 4 -i  Done                     04/24/2018 17:14:27
00008 suncat0227 pw.x -npool 4 -i  Done                     04/24/2018 17:14:27
00009 suncat0227 pw.x -npool 4 -i  Done                     04/24/2018 17:14:27
00010 suncat0227 pw.x -npool 4 -i  Done                     04/24/2018 17:14:27
00011 suncat0227 pw.x -npool 4 -i  Done                     04/24/2018 17:14:27
00012 suncat0227 pw.x -npool 4 -i  Done                     04/24/2018 17:14:27
00013 suncat0227 pw.x -npool 4 -i  Done                     04/24/2018 17:14:27
00014 suncat0227 pw.x -npool 4 -i  Done                     04/24/2018 17:14:27
00015 suncat0227 pw.x -npool 4 -i  Done                     04/24/2018 17:14:27
00016 suncat0224 pw.x -npool 4 -i  Done                     04/24/2018 17:14:27
00017 suncat0224 pw.x -npool 4 -i  Done                     04/24/2018 17:14:27
00018 suncat0224 pw.x -npool 4 -i  Done                     04/24/2018 17:14:27
00019 suncat0224 pw.x -npool 4 -i  Done                     04/24/2018 17:14:27
00020 suncat0224 pw.x -npool 4 -i  Done                     04/24/2018 17:14:27
00021 suncat0224 pw.x -npool 4 -i  Done                     04/24/2018 17:14:27
00022 suncat0224 pw.x -npool 4 -i  Done                     04/24/2018 17:14:27
00023 suncat0224 pw.x -npool 4 -i  Done                     04/24/2018 17:14:27
00024 suncat0223 pw.x -npool 4 -i  Done                     04/24/2018 17:14:27
00025 suncat0223 pw.x -npool 4 -i  Done                     04/24/2018 17:14:27
00026 suncat0223 pw.x -npool 4 -i  Done                     04/24/2018 17:14:27
00027 suncat0223 pw.x -npool 4 -i  Done                     04/24/2018 17:14:27
00028 suncat0223 pw.x -npool 4 -i  Done                     04/24/2018 17:14:27
00029 suncat0223 pw.x -npool 4 -i  Done                     04/24/2018 17:14:27
00030 suncat0223 pw.x -npool 4 -i  Done                     04/24/2018 17:14:27
00031 suncat0223 pw.x -npool 4 -i  Done                     04/24/2018 17:14:27