     Program PWSCF v.5.1rc2 (svn rev. ) starts on 23Apr2018 at  3:18:59

     Current dimensions of program PWSCF are:
     Max number of different atomic species (ntypx) = 10
     Max number of k-points (npk) =  40000
     Max angular momentum in pseudopotentials (lmaxx) =  3
     Presently stress not available with electric field

     IMPORTANT: XC functional enforced from input :
     Exchange-correlation      = BEEF-VDW ( 1  4 27 13 2)
     Any further DFT definition will be discarded
     Please, verify this is what you really want

     Subspace diagonalization in iterative solution of the eigenvalue problem:
     a serial algorithm will be used

     bravais-lattice index     =            0
     lattice parameter (alat)  =       1.8897  a.u.
     unit-cell volume          =    6741.9070 (a.u.)^3
     number of atoms/cell      =           14
     number of atomic types    =            3
     number of electrons       =       173.00
     number of Kohn-Sham states=           96
     kinetic-energy cutoff     =      36.7493  Ry
     charge density cutoff     =     367.4932  Ry
     convergence threshold     =      1.0E-05
     mixing beta               =       0.3000
     number of iterations used =           10  plain     mixing
     Exchange-correlation      = BEEF-VDW ( 1  4 27 13 2)
     nstep                     =           50

     celldm(1)=   1.889726  celldm(2)=   0.000000  celldm(3)=   0.000000
     celldm(4)=   0.000000  celldm(5)=   0.000000  celldm(6)=   0.000000

     crystal axes: (cart. coord. in units of alat)
               a(1) = (   6.726993   0.000000   0.000000 )
               a(2) = (   3.363497   5.825747   0.000000 )
               a(3) = (   0.000000   0.000000  25.492567 )

     reciprocal axes: (cart. coord. in units 2 pi/alat)
               b(1) = (  0.148655 -0.085826  0.000000 )
               b(2) = (  0.000000  0.171652  0.000000 )
               b(3) = (  0.000000  0.000000  0.039227 )

     PseudoPot. # 1 for Sn read from file:
     /home/mamunm/src/pseudo/gbrv1.5pbe/Sn.UPF
     MD5 check sum: 469debedee59599fedebd795477fea03
     Pseudo is Ultrasoft + core correction, Zval = 14.0
     Generated by new atomic code, or converted to UPF format
     Using radial grid of  891 points,  6 beta functions with:
                l(1) =   0
                l(2) =   0
                l(3) =   1
                l(4) =   1
                l(5) =   2
                l(6) =   2
     Q(r) pseudized with  8 coefficients,  rinner =    1.350   1.350   1.350
                                                       1.350   1.350

     PseudoPot. # 2 for C  read from file:
     /home/mamunm/src/pseudo/gbrv1.5pbe/C.UPF
     MD5 check sum: d1aef80898a10debaa0f26306b886e00
     Pseudo is Ultrasoft + core correction, Zval =  4.0
     Generated by new atomic code, or converted to UPF format
     Using radial grid of  721 points,  4 beta functions with:
                l(1) =   0
                l(2) =   0
                l(3) =   1
                l(4) =   1
     Q(r) pseudized with  8 coefficients,  rinner =    1.100   1.100   1.100

     PseudoPot. # 3 for H  read from file:
     /home/mamunm/src/pseudo/gbrv1.5pbe/H.UPF
     MD5 check sum: 761ae9a214b05c3daf00ab9f6b793d6f
     Pseudo is Ultrasoft, Zval =  1.0
     Generated by new atomic code, or converted to UPF format
     Using radial grid of  615 points,  2 beta functions with:
                l(1) =   0
                l(2) =   0
     Q(r) pseudized with  8 coefficients,  rinner =    0.700

     vdW kernel table read from file vdW_kernel_table
     MD5 check sum: 095c7af220d748ca6e76c0b4c6cfb241

     atomic species   valence    mass     pseudopotential
        Sn1           14.00   118.71000     Sn( 1.00)
        C1             4.00    12.01100     C ( 1.00)
        H1             1.00     1.00800     H ( 1.00)

     No symmetry found

   Cartesian axes

     site n.     atom                  positions (alat units)
         1           Sn1 tau(   1) = (   1.6817483   0.9709578  10.0000000  )
         2           Sn1 tau(   2) = (   5.0452448   0.9709578  10.0000000  )
         3           Sn1 tau(   3) = (   3.3634965   3.8838312  10.0000000  )
         4           Sn1 tau(   4) = (   6.7269931   3.8838312  10.0000000  )
         5           Sn1 tau(   5) = (   6.7269931   1.9419156  12.7462834  )
         6           Sn1 tau(   6) = (   3.3634965   1.9419156  12.7462834  )
         7           Sn1 tau(   7) = (   8.4087413   4.8547891  12.7462834  )
         8           Sn1 tau(   8) = (   5.0452448   4.8547891  12.7462834  )
         9           Sn1 tau(   9) = (   0.0000000   0.0000000  15.4925668  )
        10           Sn1 tau(  10) = (   3.3634965   0.0000000  15.4925668  )
        11           Sn1 tau(  11) = (   1.6817483   2.9128734  15.4925668  )
        12           Sn1 tau(  12) = (   5.0452448   2.9128734  15.4925668  )
        13           C1  tau(  13) = (   3.3634965   1.9419156  16.8900668  )
        14           H1  tau(  14) = (   3.3634965   1.9419156  17.9900668  )

     number of k points=    20  Fermi-Dirac smearing, width (Ry)=  0.0110
                       cart. coord. in units 2pi/alat
        k(    1) = (   0.0000000   0.0000000   0.0000000), wk =   0.0555556
        k(    2) = (   0.0000000   0.0286086   0.0000000), wk =   0.1111111
        k(    3) = (   0.0000000   0.0572173   0.0000000), wk =   0.1111111
        k(    4) = (   0.0000000  -0.0858259   0.0000000), wk =   0.0555556
        k(    5) = (   0.0247758  -0.0143043   0.0000000), wk =   0.1111111
        k(    6) = (   0.0247758   0.0143043   0.0000000), wk =   0.1111111
        k(    7) = (   0.0247758   0.0429130   0.0000000), wk =   0.1111111
        k(    8) = (   0.0247758  -0.1001302   0.0000000), wk =   0.1111111
        k(    9) = (   0.0247758  -0.0715216   0.0000000), wk =   0.1111111
        k(   10) = (   0.0247758  -0.0429130   0.0000000), wk =   0.1111111
        k(   11) = (   0.0495516  -0.0286086   0.0000000), wk =   0.1111111
        k(   12) = (   0.0495516   0.0000000   0.0000000), wk =   0.1111111
        k(   13) = (   0.0495516   0.0286086   0.0000000), wk =   0.1111111
        k(   14) = (   0.0495516  -0.1144345   0.0000000), wk =   0.1111111
        k(   15) = (   0.0495516  -0.0858259   0.0000000), wk =   0.1111111
        k(   16) = (   0.0495516  -0.0572173   0.0000000), wk =   0.1111111
        k(   17) = (  -0.0743274   0.0429130   0.0000000), wk =   0.0555556
        k(   18) = (  -0.0743274   0.0715216   0.0000000), wk =   0.1111111
        k(   19) = (  -0.0743274   0.1001302   0.0000000), wk =   0.1111111
        k(   20) = (  -0.0743274  -0.0429130   0.0000000), wk =   0.0555556

     Largest allocated arrays     est. size (Mb)     dimensions
     Largest temporary arrays     est. size (Mb)     dimensions

     Initial potential from superposition of free atoms
     Check: negative starting charge=   -0.001382

     starting charge  160.99941, renormalised to  173.00000

     negative rho (up, down):  1.485E-03 0.000E+00

     *
     * You are using vdW-DF for exchange-correlation in this calculation.
     * Please cite the following three references that made this development
     * possible:
     *
     *   M. Dion, H. Rydberg, E. Schroder, D. C. Langreth, and
     *   B. I. Lundqvist, Phys. Rev. Lett. 92, 246401 (2004).
     *
     *   T. Thonhauser, V. R. Cooper, S. Li, A. Puzder, P. Hyldgaard, and
     *   D. C. Langreth, Phys. Rev. B 76, 125112 (2007).
     *
     *   G. Roman-Perez and J. M. Soler, Phys. Rev. Lett. 103, 096102 (2009).
     *
     *
     * If you are using vdW-DF2, please also cite:
     *
     *   K. Lee, E. D. Murray, L. Kong, B. I. Lundqvist, and
     *   D. C. Langreth, Phys. Rev. B 82, 081101(R) (2010).
     *
     *
     * If you are calculating the stress with vdW-DF, please also cite:
     *
     *   R. Sabatini, E. Kucukbenli, B. Kolb, T. Thonhauser, and
     *   S. de Gironcoli, J. Phys.: Condens. Matter 24, 424209 (2012).
     *

     Carrying out vdW-DF run using the following parameters:

     Nqs =      20    Nr_points =    1024   r_max =   100.000
     q_mesh =
               0.00001000     0.04494208     0.09755937     0.15916263
               0.23128650     0.31572767     0.41458969     0.53033537
               0.66584808     0.82450364     1.01025438     1.22772762
               1.48234092     1.78043706     2.12944203     2.53805004
               3.01644009     3.57652955     4.23227104     5.00000000

     Gradients computed in reciprocal space

     Adding external electric field

     Computed dipole along edir(3) :
        Dipole               -3.0729 Ry au,         -7.8105 Debye
        Dipole field         -0.0057 Ry au

        Potential amp.        0.5381 Ry
        Total length         46.9696 bohr

     Starting wfc are  113 randomized atomic wfcs

     Self-consistent Calculation

     iteration #  1     ecut=    36.75 Ry     beta=0.30
     Davidson diagonalization with overlap
     ethr =  1.00E-02,  avg # of iterations =  7.7

[...]

     total energy              =   -1911.58350232 Ry
     Harris-Foulkes estimate   =   -1945.93701065 Ry
     estimated scf accuracy    <      72.79875311 Ry

[...]

     End of self-consistent calculation

          k = 0.0000 0.0000 0.0000 ( 25377 PWs)   bands (ev):

   -21.3120 -21.3119 -21.3119 -21.2809 -21.2723 -21.2703 -21.2703 -21.2594
   -21.2594 -21.2560 -21.2518 -21.2518 -21.2475 -21.2433 -21.2414 -21.2414
   -21.2356 -21.2356 -21.2272 -21.2272 -21.2244 -21.2227 -21.2227 -21.2192
   -21.1937 -21.1937 -21.1708 -21.1708 -21.1708 -21.1684 -21.1683 -21.1545
   -21.1470 -21.1470 -21.1405 -21.1291 -21.1291 -21.1263 -21.1263 -21.1065
   -21.1020 -21.0967 -21.0967 -21.0931 -21.0869 -21.0868 -21.0778 -21.0734
   -21.0734 -21.0683 -21.0659 -21.0659 -21.0586 -21.0586 -21.0512 -21.0030
   -21.0030 -20.9910 -20.9910 -20.9810 -10.7476  -9.8174  -8.4831  -6.8919
    -5.9795  -5.9455  -5.9455  -5.5443  -5.5443  -5.4733  -4.7095  -4.7095
    -4.5500  -4.1199  -3.2135  -3.2135  -2.7870  -2.3813  -2.2999  -2.2999
    -1.9440  -1.8012  -1.8012  -0.0033   0.2849   0.2849   0.7864   1.7455
     1.7455   1.8235   2.6357   2.6357   3.1452   3.3050   3.3262   3.4221

[...]

          k =-0.0743 0.0429 0.0000 ( 25386 PWs)   bands (ev):

[...]

     the Fermi energy is     0.7833 ev

!    total energy              =   -1940.92414080 Ry
     Harris-Foulkes estimate   =   -1940.92414879 Ry
     estimated scf accuracy    <       0.00000419 Ry

     The total energy is the sum of the following terms:

     one-electron contribution =  -10598.21378447 Ry
     hartree contribution      =    5364.17655916 Ry
     xc contribution           =    -538.26181173 Ry
     ewald contribution        =    3831.41960432 Ry
     electric field correction =       0.00000029 Ry
     smearing contrib. (-TS)   =      -0.04470836 Ry

     convergence has been achieved in  15 iterations

 BEEF-vdW xc energy contributions
           1 :   -472.857981670256
           2 :    432.835321352931
           3 :   -364.959177009569
           4 :    288.098618904061
           5 :   -220.146110129957
           6 :    171.751348852932
           7 :   -143.949502762945
           8 :    130.197642486988
           9 :   -121.300236943317
          10 :    110.460971679716
          11 :   -95.9799042282229
          12 :    80.6422245761205
          13 :   -68.7550228083156
          14 :    62.9118847615632
          15 :   -62.3940568362793
          16 :    63.8805556970233
          17 :   -63.7014302239456
          18 :    60.0504364803555
          19 :   -53.8121177136298
          20 :    47.6521304348971
          21 :   -44.1186176491419
          22 :    44.0247146263666
          23 :   -46.0863586334135
          24 :    47.9099290515137
          25 :   -47.5801395531194
          26 :    44.7944978916076
          27 :   -40.8801079640068
          28 :    37.7888548201441
          29 :   -36.8019519320915
          30 :    37.7842592259134
          31 :   -41.5128606731769
          32 :   -30.2298574858020

     Forces acting on atoms (Ry/au):

     negative rho (up, down):  4.720E-04 0.000E+00
     atom    1 type  1   force =     0.00118760    0.00070841   -0.00019145
     atom    2 type  1   force =    -0.00120040    0.00072238   -0.00016997
     atom    3 type  1   force =    -0.00001781   -0.00141727   -0.00016501
     atom    4 type  1   force =     0.00002761    0.00000176   -0.00626012
     atom    5 type  1   force =    -0.00000416   -0.00489513   -0.00815124
     atom    6 type  1   force =     0.00001073    0.00001432    0.00221205
     atom    7 type  1   force =     0.00425993    0.00245356   -0.00815576
     atom    8 type  1   force =    -0.00426197    0.00243186   -0.00813810
     atom    9 type  1   force =    -0.00000894    0.00000187   -0.00741402
     atom   10 type  1   force =     0.00000040    0.02402779    0.03497816
     atom   11 type  1   force =     0.02082844   -0.01202350    0.03498738
     atom   12 type  1   force =    -0.02081956   -0.01202024    0.03497741
     atom   13 type  2   force =    -0.00000090   -0.00000306   -0.06220899
     atom   14 type  3   force =    -0.00000100   -0.00000275   -0.00630034

     Total force =     0.096795     Total SCF correction =     0.003853

     entering subroutine stress ...

     negative rho (up, down):  4.720E-04 0.000E+00
          total   stress  (Ry/bohr**3)                   (kbar)     P=    4.24
   0.00003771   0.00000000   0.00000000          5.55      0.00      0.00
   0.00000000   0.00003771   0.00000000          0.00      5.55      0.00
   0.00000000   0.00000000   0.00001099          0.00      0.00      1.62

     BFGS Geometry Optimization

     number of scf cycles    =   1
     number of bfgs steps    =   0

     energy   new            =   -1940.9241407958 Ry

     new trust radius        =       0.0622089940 bohr
     new conv_thr            =       0.0000099958 Ry

ATOMIC_POSITIONS (crystal)
Sn1      0.166666667   0.166666667   0.392271209    0   0   0
Sn1      0.666666667   0.166666667   0.392271209    0   0   0
Sn1      0.166666667   0.666666667   0.392271209    0   0   0
Sn1      0.666666667   0.666666667   0.392271209    0   0   0
Sn1      0.833333333   0.333333333   0.500000000    0   0   0
Sn1      0.333333333   0.333333333   0.500000000    0   0   0
Sn1      0.833333333   0.833333333   0.500000000    0   0   0
Sn1      0.333333333   0.833333333   0.500000000    0   0   0
Sn1     -0.000000788   0.000000170   0.607574890
Sn1      0.498908759   0.002182546   0.608454872
Sn1      0.002184537   0.498907855   0.608455063
Sn1      0.498908159   0.498908151   0.608454856
C1       0.333333401   0.333333056   0.661257352
H1       0.333333380   0.333333084   0.705567743

     Writing output data file calc.save
     Check: negative starting charge=   -0.001382
     NEW-OLD atomic charge density approx. for the potential
     Check: negative starting charge=   -0.001373

[...]

     energy   old            =   -1940.9241407958 Ry
     energy   new            =   -1940.9316648543 Ry

     CASE: energy  _new < energy  _old

[...]

     iteration #  1     ecut=    36.75 Ry     beta=0.30
     Davidson diagonalization with overlap
     c_bands:  1 eigenvalues not converged
     c_bands:  1 eigenvalues not converged
     c_bands:  1 eigenvalues not converged
     ethr =  1.00E-06,  avg # of iterations = 10.2

[...]

     Total force =     0.010957     Total SCF correction =     0.001260
     SCF correction compared to forces is large: reduce conv_thr to get better values

[...]

     WARNING: bfgs curvature condition failed, Theta= 0.989
     new trust radius        =       0.0293204980 bohr
     new conv_thr            =       0.0000001000 Ry

[...]

     Total force =     0.006523     Total SCF correction =     0.001412
     SCF correction compared to forces is large: reduce conv_thr to get better values

[...]

     number of scf cycles    =  24
     number of bfgs steps    =  23

     energy   old            =   -1940.9577275812 Ry
     energy   new            =   -1940.9579374589 Ry

     CASE: energy  _new < energy  _old

     new trust radius        =       0.0672189017 bohr
     new conv_thr            =       0.0000001000 Ry

ATOMIC_POSITIONS (crystal)
Sn1      0.166666667   0.166666667   0.392271209    0   0   0
Sn1      0.666666667   0.166666667   0.392271209    0   0   0
Sn1      0.166666667   0.666666667   0.392271209    0   0   0
Sn1      0.666666667   0.666666667   0.392271209    0   0   0
Sn1      0.833333333   0.333333333   0.500000000    0   0   0
Sn1      0.333333333   0.333333333   0.500000000    0   0   0
Sn1      0.833333333   0.833333333   0.500000000    0   0   0
Sn1      0.333333333   0.833333333   0.500000000    0   0   0
Sn1      0.000003303  -0.000006288   0.603753203
Sn1      0.497751961   0.004495315   0.625619171
Sn1      0.004478671   0.497756696   0.625615992
Sn1      0.497761623   0.497745732   0.625618846
C1       0.333352275   0.333314845   0.670926553
H1       0.333335791   0.333326791   0.713779524

     Writing output data file calc.save
     Check: negative starting charge=   -0.001328
     NEW-OLD atomic charge density approx. for the potential
     Check: negative starting charge=   -0.001332

[...]

     Self-consistent Calculation

[...]

     iteration #  5     ecut=    36.75 Ry     beta=0.30
     Davidson diagonalization with overlap
     c_bands:  1 eigenvalues not converged
     c_bands:  1 eigenvalues not converged
     ethr =  5.97E-07,  avg # of iterations =  7.2

[...]

     total energy              =   -1940.95794451 Ry
     Harris-Foulkes estimate   =   -1940.95794452 Ry
     estimated scf accuracy    <       0.00000015 Ry

     iteration # 11     ecut=    36.75 Ry     beta=0.30
     Davidson diagonalization with overlap
     ethr =  8.92E-11,  avg # of iterations =  2.0

[...]

     negative rho (up, down):  4.540E-04 0.000E+00

     Adding external electric field

     Computed dipole along edir(3) :
        Dipole                0.0232 Ry au,          0.0590 Debye
        Dipole field          0.0000 Ry au

        Potential amp.       -0.0041 Ry
        Total length         46.9696 bohr

     End of self-consistent calculation

[...]

          k = 0.0496-0.0572 0.0000 ( 25368 PWs)   bands (ev):

[...]

          k =-0.0743-0.0429 0.0000 ( 25386 PWs)   bands (ev):

   -21.2432 -21.2302 -21.2134 -21.2098 -21.2053 -21.2040 -21.1980 -21.1944
   -21.1938 -21.1855 -21.1824 -21.1802 -21.1764 -21.1716 -21.1709 -21.1669
   -21.1609 -21.1586 -21.1578 -21.1572 -21.1422 -21.1389 -21.1348 -21.1320
   -21.1268 -21.1231 -21.1202 -21.1180 -21.1113 -21.1055 -21.1042 -21.0993
   -21.0932 -21.0873 -21.0868 -21.0837 -21.0817 -21.0802 -21.0746 -21.0743
   -21.0675 -21.0666 -21.0539 -21.0461 -21.0382 -21.0313 -21.0185 -21.0110
   -20.9966 -20.9911 -20.9893 -20.9878 -20.9295 -20.9082 -20.9051 -20.9014
   -20.8833 -20.8802 -20.8670 -20.8428 -11.0356  -8.6614  -8.5019  -7.4568
    -7.0694  -6.4061  -6.3787  -6.1396  -6.0724  -5.6131  -5.4115  -4.4833
    -4.3201  -2.7674  -1.8489  -1.3677  -1.3553  -1.1859  -0.9804  -0.8203
    -0.7000  -0.5708  -0.0647   0.0511   0.6135   0.6907   0.9029   1.1997
     1.3318   1.4211   1.5606   1.6645   1.9795   2.1277   2.2623   2.4114

     the Fermi energy is     0.8137 ev

!    total energy              =   -1940.95794450 Ry
     Harris-Foulkes estimate   =   -1940.95794451 Ry
     estimated scf accuracy    <       0.00000001 Ry

     The total energy is the sum of the following terms:

     one-electron contribution =  -10134.40432599 Ry
     hartree contribution      =    5132.62800769 Ry
     xc contribution           =    -538.21917004 Ry
     ewald contribution        =    3599.07986711 Ry
     electric field correction =       0.00000100 Ry
     smearing contrib. (-TS)   =      -0.04232428 Ry

     convergence has been achieved in  11 iterations

 BEEF-vdW xc energy contributions
           1 :   -472.804064338144
           2 :    432.681358747252
           3 :   -364.661185808444
           4 :    287.699864060659
           5 :   -219.759348457821
           6 :    171.496833252232
           7 :   -143.886776878731
           8 :    130.294742842046
           9 :   -121.456311968540
          10 :    110.564873699681
          11 :   -95.9675017610206
          12 :    80.5210262784712
          13 :   -68.5870857607239
          14 :    62.7715541482555
          15 :   -62.3288236436931
          16 :    63.8961832529507
          17 :   -63.7736579360791
          18 :    60.1495509262031
          19 :   -53.9223615912763
          20 :    47.7738995845930
          21 :   -44.2554637805077
          22 :    44.1690582735520
          23 :   -46.2166004644615
          24 :    48.0013108175267
          25 :   -47.6205838589018
          26 :    44.7932252923434
          27 :   -40.8625392651362
          28 :    37.7818049416828
          29 :   -36.8192170141805
          30 :    37.8219735604335
          31 :   -41.5042652233992
          32 :   -30.1897523122445

     Forces acting on atoms (Ry/au):

     negative rho (up, down):  4.540E-04 0.000E+00
     atom    1 type  1   force =     0.00045324    0.00026138    0.00207417
     atom    2 type  1   force =    -0.00045416    0.00026148    0.00207488
     atom    3 type  1   force =     0.00000046   -0.00052231    0.00207499
     atom    4 type  1   force =    -0.00000068   -0.00000038   -0.00425743
     atom    5 type  1   force =    -0.00000071    0.00471013   -0.00326499
     atom    6 type  1   force =     0.00000048   -0.00000006    0.00915526
     atom    7 type  1   force =    -0.00407972   -0.00235410   -0.00326840
     atom    8 type  1   force =     0.00407984   -0.00235503   -0.00326739
     atom    9 type  1   force =     0.00000194   -0.00000211   -0.00114650
     atom   10 type  1   force =    -0.00000329    0.00007967   -0.00018225
     atom   11 type  1   force =     0.00012146   -0.00006709   -0.00015539
     atom   12 type  1   force =    -0.00008983   -0.00004595   -0.00017610
     atom   13 type  2   force =    -0.00002875    0.00003431   -0.00087840
     atom   14 type  3   force =    -0.00000028    0.00000005    0.00121753

     Total force =     0.001922     Total SCF correction =     0.000166

     entering subroutine stress ...

     negative rho (up, down):  4.540E-04 0.000E+00
          total   stress  (Ry/bohr**3)                   (kbar)     P=   -0.70
   0.00000229   0.00000001  -0.00000001          0.34      0.00     -0.00
   0.00000001   0.00000231   0.00000001          0.00      0.34      0.00
  -0.00000001   0.00000001  -0.00001896         -0.00      0.00     -2.79

     bfgs converged in  25 scf cycles and  24 bfgs steps
     (criteria: energy <  1.0E+00, force <  1.9E-03)

     End of BFGS Geometry Optimization

     Final energy   =   -1940.9579445036 Ry
Begin final coordinates

ATOMIC_POSITIONS (crystal)
Sn1      0.166666667   0.166666667   0.392271209    0   0   0
Sn1      0.666666667   0.166666667   0.392271209    0   0   0
Sn1      0.166666667   0.666666667   0.392271209    0   0   0
Sn1      0.666666667   0.666666667   0.392271209    0   0   0
Sn1      0.833333333   0.333333333   0.500000000    0   0   0
Sn1      0.333333333   0.333333333   0.500000000    0   0   0
Sn1      0.833333333   0.833333333   0.500000000    0   0   0
Sn1      0.333333333   0.833333333   0.500000000    0   0   0
Sn1      0.000003303  -0.000006288   0.603753203
Sn1      0.497751961   0.004495315   0.625619171
Sn1      0.004478671   0.497756696   0.625615992
Sn1      0.497761623   0.497745732   0.625618846
C1       0.333352275   0.333314845   0.670926553
H1       0.333335791   0.333326791   0.713779524
End final coordinates

     Writing output data file calc.save

     General routines

     Parallel routines

   This run was terminated on:   5:28: 9  23Apr2018

   JOB DONE.