     Program PWSCF v.5.1rc2 (svn rev. 11289) starts on 15Jan2018 at 13:32: 0

     Current dimensions of program PWSCF are:
     Max number of different atomic species (ntypx) = 10
     Max number of k-points (npk) =  40000
     Max angular momentum in pseudopotentials (lmaxx) =  3
     Presently stress not available with electric field

     IMPORTANT: XC functional enforced from input :
     Exchange-correlation      = BEEF-VDW ( 1  4 27 13 2)
     Any further DFT definition will be discarded
     Please, verify this is what you really want

     Subspace diagonalization in iterative solution of the eigenvalue problem:
     a serial algorithm will be used

     bravais-lattice index     =            0
     lattice parameter (alat)  =       1.8897  a.u.
     unit-cell volume          =    4299.0717 (a.u.)^3
     number of atoms/cell      =           13
     number of atomic types    =            2
     number of electrons       =       184.00
     number of Kohn-Sham states=          102
     kinetic-energy cutoff     =      36.7493  Ry
     charge density cutoff     =     367.4932  Ry
     convergence threshold     =      1.0E-05
     mixing beta               =       0.3000
     number of iterations used =           10  plain     mixing
     Exchange-correlation      = BEEF-VDW ( 1  4 27 13 2)
     nstep                     =           50

     celldm(1)=   1.889726  celldm(2)=   0.000000  celldm(3)=   0.000000
     celldm(4)=   0.000000  celldm(5)=   0.000000  celldm(6)=   0.000000

     crystal axes: (cart. coord. in units of alat)
               a(1) = (   5.482164   0.000000   0.000000 )
               a(2) = (   2.741082   4.747693   0.000000 )
               a(3) = (   0.000000   0.000000  24.476168 )

     reciprocal axes: (cart. coord. in units 2 pi/alat)
               b(1) = (  0.182410 -0.105314  0.000000 )
               b(2) = (  0.000000  0.210629  0.000000 )
               b(3) = (  0.000000  0.000000  0.040856 )

     PseudoPot. # 1 for Ir read from file:
     /afs/slac.stanford.edu/u/if/mamunm/psp/gbrv1.5pbe/Ir.UPF
     MD5 check sum: 8836f839c3459d2b385c504ce6d91f2c
     Pseudo is Ultrasoft + core correction, Zval = 15.0
     Generated by new atomic code, or converted to UPF format
     Using radial grid of  983 points,  7 beta functions with:
                l(1) =   0
                l(2) =   0
                l(3) =   1
                l(4) =   1
                l(5) =   1
                l(6) =   2
                l(7) =   2
     Q(r) pseudized with  8 coefficients,  rinner =    1.400   1.400   1.400
                                                       1.400   1.400

     PseudoPot. # 2 for C  read from file:
     /afs/slac.stanford.edu/u/if/mamunm/psp/gbrv1.5pbe/C.UPF
     MD5 check sum: d1aef80898a10debaa0f26306b886e00
     Pseudo is Ultrasoft + core correction, Zval =  4.0
     Generated by new atomic code, or converted to UPF format
     Using radial grid of  721 points,  4 beta functions with:
                l(1) =   0
                l(2) =   0
                l(3) =   1
                l(4) =   1
     Q(r) pseudized with  8 coefficients,  rinner =    1.100   1.100   1.100

     vdW kernel table read from file vdW_kernel_table
     MD5 check sum: 095c7af220d748ca6e76c0b4c6cfb241

     atomic species   valence    mass     pseudopotential
        Ir1           15.00   192.21700     Ir( 1.00)
        C1             4.00    12.01100     C ( 1.00)

     No symmetry found

   Cartesian axes

     site n.     atom                  positions (alat units)
         1           Ir1 tau(   1) = (   1.3705410   0.7912822  10.0000000  )
         2           Ir1 tau(   2) = (   4.1116229   0.7912822  10.0000000  )
         3           Ir1 tau(   3) = (   2.7410819   3.1651288  10.0000000  )
         4           Ir1 tau(   4) = (   5.4821639   3.1651288  10.0000000  )
         5           Ir1 tau(   5) = (   5.4821639   1.5825644  12.2380840  )
         6           Ir1 tau(   6) = (   2.7410819   1.5825644  12.2380840  )
         7           Ir1 tau(   7) = (   6.8527049   3.9564110  12.2380840  )
         8           Ir1 tau(   8) = (   4.1116229   3.9564110  12.2380840  )
         9           Ir1 tau(   9) = (   0.0000000   0.0000000  14.4761681  )
        10           Ir1 tau(  10) = (   2.7410819   0.0000000  14.4761681  )
        11           Ir1 tau(  11) = (   1.3705410   2.3738466  14.4761681  )
        12           Ir1 tau(  12) = (   4.1116229   2.3738466  14.4761681  )
        13           C1  tau(  13) = (   1.3705410   0.7912822  16.6461681  )

     number of k points=    20  Fermi-Dirac smearing, width (Ry)=  0.0110
                       cart. coord. in units 2pi/alat
        k(    1) = (   0.0000000   0.0000000   0.0000000), wk =   0.0555556
        k(    2) = (   0.0000000   0.0351048   0.0000000), wk =   0.1111111
        k(    3) = (   0.0000000   0.0702095   0.0000000), wk =   0.1111111
        k(    4) = (   0.0000000  -0.1053143   0.0000000), wk =   0.0555556
        k(    5) = (   0.0304016  -0.0175524   0.0000000), wk =   0.1111111
        k(    6) = (   0.0304016   0.0175524   0.0000000), wk =   0.1111111
        k(    7) = (   0.0304016   0.0526572   0.0000000), wk =   0.1111111
        k(    8) = (   0.0304016  -0.1228667   0.0000000), wk =   0.1111111
        k(    9) = (   0.0304016  -0.0877619   0.0000000), wk =   0.1111111
        k(   10) = (   0.0304016  -0.0526572   0.0000000), wk =   0.1111111
        k(   11) = (   0.0608032  -0.0351048   0.0000000), wk =   0.1111111
        k(   12) = (   0.0608032   0.0000000   0.0000000), wk =   0.1111111
        k(   13) = (   0.0608032   0.0351048   0.0000000), wk =   0.1111111
        k(   14) = (   0.0608032  -0.1404191   0.0000000), wk =   0.1111111
        k(   15) = (   0.0608032  -0.1053143   0.0000000), wk =   0.1111111
        k(   16) = (   0.0608032  -0.0702095   0.0000000), wk =   0.1111111
        k(   17) = (  -0.0912049   0.0526572   0.0000000), wk =   0.0555556
        k(   18) = (  -0.0912049   0.0877619   0.0000000), wk =   0.1111111
        k(   19) = (  -0.0912049   0.1228667   0.0000000), wk =   0.1111111
        k(   20) = (  -0.0912049  -0.0526572   0.0000000), wk =   0.0555556

     Largest allocated arrays     est. size (Mb)     dimensions
     Largest temporary arrays     est. size (Mb)     dimensions

     Initial potential from superposition of free atoms
     Check: negative starting charge=   -4.361538

     starting charge  177.99958, renormalised to  184.00000

     negative rho (up, down):  4.509E+00 0.000E+00

     *
     * You are using vdW-DF for exchange-correlation in this calculation.
     * Please cite the following three references that made this development
     * possible:
     *
     *   M. Dion, H. Rydberg, E. Schroder, D. C. Langreth, and
     *   B. I. Lundqvist, Phys. Rev. Lett. 92, 246401 (2004).
     *
     *   T. Thonhauser, V. R. Cooper, S. Li, A. Puzder, P. Hyldgaard, and
     *   D. C. Langreth, Phys. Rev. B 76, 125112 (2007).
     *
     *   G. Roman-Perez and J. M. Soler, Phys. Rev. Lett. 103, 096102 (2009).
     *
     *
     * If you are using vdW-DF2, please also cite:
     *
     *   K. Lee, E. D. Murray, L. Kong, B. I. Lundqvist, and
     *   D. C. Langreth, Phys. Rev. B 82, 081101(R) (2010).
     *
     *
     * If you are calculating the stress with vdW-DF, please also cite:
     *
     *   R. Sabatini, E. Kucukbenli, B. Kolb, T. Thonhauser, and
     *   S. de Gironcoli, J. Phys.: Condens. Matter 24, 424209 (2012).
     *

     Carrying out vdW-DF run using the following parameters:

     Nqs =      20    Nr_points =    1024   r_max =   100.000
     q_mesh =
               0.00001000     0.04494208     0.09755937     0.15916263
               0.23128650     0.31572767     0.41458969     0.53033537
               0.66584808     0.82450364     1.01025438     1.22772762
               1.48234092     1.78043706     2.12944203     2.53805004
               3.01644009     3.57652955     4.23227104     5.00000000

     Gradients computed in reciprocal space

     Adding external electric field

     Computed dipole along edir(3) :
        Dipole               -1.1229 Ry au,         -2.8541 Debye
        Dipole field         -0.0033 Ry au

        Potential amp.        0.2960 Ry
        Total length         45.0969 bohr

     Starting wfc are  148 randomized atomic wfcs

     Self-consistent Calculation

     iteration #  1     ecut=    36.75 Ry     beta=0.30
     Davidson diagonalization with overlap
     ethr =  1.00E-02,  avg # of iterations =  2.0

[...]

     total energy              =   -2194.63921359 Ry
     Harris-Foulkes estimate   =   -2214.36142263 Ry
     estimated scf accuracy    <      42.15992541 Ry

[...]

     End of self-consistent calculation

          k = 0.0000 0.0000 0.0000 ( 16073 PWs)   bands (ev):

   -47.8627 -47.8218 -47.8215 -47.7090 -47.6401 -47.6397 -47.5567 -47.4487
   -47.4131 -47.4127 -47.3889 -47.3592 -47.3587 -47.2764 -47.2762 -47.2655
   -47.2654 -47.2518 -47.0183 -47.0175 -47.0159 -47.0149 -46.9560 -46.9551
   -46.9162 -46.9160 -46.9134 -46.9110 -46.8731 -46.8646 -46.8557 -46.8553
   -46.8474 -46.8472 -46.7882 -46.7882  -7.3477  -6.4573  -5.1726  -4.9128
    -4.6467  -4.6466  -4.6385  -4.3633  -4.3632  -4.3605  -3.8593  -3.8592
    -3.8331  -3.5872  -3.5870  -3.5846  -2.1061  -2.1059  -2.0736  -1.5405
    -1.5405  -1.5265  -1.3393  -1.1944  -1.1943  -0.9476  -0.7580  -0.7579
    -0.7016  -0.6911  -0.6909  -0.4563  -0.4563  -0.1827  -0.1823  -0.1250
     0.9548   1.0028   1.0029   1.1551   1.1859   1.1861   1.2511   1.2511
     1.4638   1.9301   1.9302   2.0788   2.0789   2.3160   2.6769   2.6819
     2.6821   2.7106   2.8641   2.8641   3.0948   3.0949   3.1925   3.2363
     3.2365   3.3283   3.6468   3.6780   3.6787   3.7663

[...]

          k =-0.0912 0.0527 0.0000 ( 16164 PWs)   bands (ev):

[...]

     the Fermi energy is     2.2387 ev

!    total energy              =   -2210.99936659 Ry
     Harris-Foulkes estimate   =   -2210.99936285 Ry
     estimated scf accuracy    <       0.00000227 Ry

     The total energy is the sum of the following terms:

     one-electron contribution =  -18609.03552893 Ry
     hartree contribution      =    9334.70337947 Ry
     xc contribution           =    -626.71959315 Ry
     ewald contribution        =    7690.15157375 Ry
     electric field correction =       0.00011955 Ry
     smearing contrib. (-TS)   =      -0.09931729 Ry

     convergence has been achieved in  17 iterations

 BEEF-vdW xc energy contributions
           1 :   -555.003608759142
           2 :    516.251088060871
           3 :   -446.983562699972
           4 :    360.824738045036
           5 :   -272.730258327416
           6 :    195.160222538796
           7 :   -135.447963719447
           8 :    94.9693580441212
           9 :   -70.1691043359442
          10 :    54.8753459887608
          11 :   -42.9552177065389
          12 :    30.3523054837558
          13 :   -15.9274360520997
          14 :    1.05236076692063
          15 :    11.6508961097334
          16 :   -19.8135539173106
          17 :    22.4538316579510
          18 :   -20.3598056230037
[...]

[...]

     Total force =     0.181207     Total SCF correction =     0.028551
     SCF correction compared to forces is large: reduce conv_thr to get better values

[...]

   This run was terminated on:  14: 8: 9  15Jan2018

[...]

     Program PWSCF v.5.1rc2 (svn rev. 11289) starts on 15Jan2018 at 14: 8:19

[...]

     Total force =     0.141330     Total SCF correction =     0.008314

[...]

   This run was terminated on:  14:58: 1  15Jan2018

[...]

     Program PWSCF v.5.1rc2 (svn rev. 11289) starts on 15Jan2018 at 14:58: 7

[...]

     Program PWSCF v.5.1rc2 (svn rev. 11289) starts on 15Jan2018 at 15:33:54

     Current dimensions of program PWSCF are:
     Max number of different atomic species (ntypx) = 10
     Max number of k-points (npk) =  40000
     Max angular momentum in pseudopotentials (lmaxx) =  3
     Presently stress not available with electric field

     IMPORTANT: XC functional enforced from input :
     Exchange-correlation      = BEEF-VDW ( 1  4 27 13 2)
     Any further DFT definition will be discarded
     Please, verify this is what you really want

     Subspace diagonalization in iterative solution of the eigenvalue problem:
     a serial algorithm will be used

     bravais-lattice index     =            0
     lattice parameter (alat)  =       1.8897  a.u.
     unit-cell volume          =    4299.0717 (a.u.)^3
     number of atoms/cell      =           13
     number of atomic types    =            2
     number of electrons       =       184.00
     number of Kohn-Sham states=          102
     kinetic-energy cutoff     =      36.7493  Ry
     charge density cutoff     =     367.4932  Ry
     convergence threshold     =      1.0E-05
     mixing beta               =       0.3000
     number of iterations used =           10  plain     mixing
     Exchange-correlation      = BEEF-VDW ( 1  4 27 13 2)
     nstep                     =           50

     celldm(1)=   1.889726  celldm(2)=   0.000000  celldm(3)=   0.000000
     celldm(4)=   0.000000  celldm(5)=   0.000000  celldm(6)=   0.000000

     crystal axes: (cart. coord. in units of alat)
               a(1) = (   5.482164   0.000000   0.000000 )
               a(2) = (   2.741082   4.747693   0.000000 )
               a(3) = (   0.000000   0.000000  24.476168 )

     reciprocal axes: (cart. coord. in units 2 pi/alat)
               b(1) = (  0.182410 -0.105314  0.000000 )
               b(2) = (  0.000000  0.210629  0.000000 )
               b(3) = (  0.000000  0.000000  0.040856 )

     PseudoPot. # 1 for Ir read from file:
     /afs/slac.stanford.edu/u/if/mamunm/psp/gbrv1.5pbe/Ir.UPF
     MD5 check sum: 8836f839c3459d2b385c504ce6d91f2c
     Pseudo is Ultrasoft + core correction, Zval = 15.0
     Generated by new atomic code, or converted to UPF format
     Using radial grid of  983 points,  7 beta functions with:
                l(1) =   0
                l(2) =   0
                l(3) =   1
                l(4) =   1
                l(5) =   1
                l(6) =   2
                l(7) =   2
     Q(r) pseudized with  8 coefficients,  rinner =    1.400   1.400   1.400
                                                       1.400   1.400

     PseudoPot. # 2 for C  read from file:
     /afs/slac.stanford.edu/u/if/mamunm/psp/gbrv1.5pbe/C.UPF
     MD5 check sum: d1aef80898a10debaa0f26306b886e00
     Pseudo is Ultrasoft + core correction, Zval =  4.0
     Generated by new atomic code, or converted to UPF format
     Using radial grid of  721 points,  4 beta functions with:
                l(1) =   0
                l(2) =   0
                l(3) =   1
                l(4) =   1
     Q(r) pseudized with  8 coefficients,  rinner =    1.100   1.100   1.100

     vdW kernel table read from file vdW_kernel_table
     MD5 check sum: 095c7af220d748ca6e76c0b4c6cfb241

     atomic species   valence    mass     pseudopotential
        Ir1           15.00   192.21700     Ir( 1.00)
        C1             4.00    12.01100     C ( 1.00)

     No symmetry found

   Cartesian axes

     site n.     atom                  positions (alat units)
         1           Ir1 tau(   1) = (   1.3705410   0.7912822  10.0000000  )
         2           Ir1 tau(   2) = (   4.1116229   0.7912822  10.0000000  )
         3           Ir1 tau(   3) = (   2.7410819   3.1651288  10.0000000  )
         4           Ir1 tau(   4) = (   5.4821639   3.1651288  10.0000000  )
         5           Ir1 tau(   5) = (   5.4821639   1.5825644  12.2380840  )
         6           Ir1 tau(   6) = (   2.7410819   1.5825644  12.2380840  )
         7           Ir1 tau(   7) = (   6.8527049   3.9564110  12.2380840  )
         8           Ir1 tau(   8) = (   4.1116229   3.9564110  12.2380840  )
         9           Ir1 tau(   9) = (   8.1817456   4.7236876  14.5396345  )
        10           Ir1 tau(  10) = (   5.5236396   4.7236736  14.5395129  )
        11           Ir1 tau(  11) = (   6.8526432   2.4218499  14.5396806  )
        12           Ir1 tau(  12) = (   4.1115410   2.3740575  14.4112661  )
        13           C1  tau(  13) = (   1.3705068   0.7912635  15.6132307  )

     number of k points=    20  Fermi-Dirac smearing, width (Ry)=  0.0110
                       cart. coord. in units 2pi/alat
        k(    1) = (   0.0000000   0.0000000   0.0000000), wk =   0.0555556
        k(    2) = (   0.0000000   0.0351048   0.0000000), wk =   0.1111111
        k(    3) = (   0.0000000   0.0702095   0.0000000), wk =   0.1111111
        k(    4) = (   0.0000000  -0.1053143   0.0000000), wk =   0.0555556
        k(    5) = (   0.0304016  -0.0175524   0.0000000), wk =   0.1111111
        k(    6) = (   0.0304016   0.0175524   0.0000000), wk =   0.1111111
        k(    7) = (   0.0304016   0.0526572   0.0000000), wk =   0.1111111
        k(    8) = (   0.0304016  -0.1228667   0.0000000), wk =   0.1111111
        k(    9) = (   0.0304016  -0.0877619   0.0000000), wk =   0.1111111
        k(   10) = (   0.0304016  -0.0526572   0.0000000), wk =   0.1111111
        k(   11) = (   0.0608032  -0.0351048   0.0000000), wk =   0.1111111
        k(   12) = (   0.0608032   0.0000000   0.0000000), wk =   0.1111111
        k(   13) = (   0.0608032   0.0351048   0.0000000), wk =   0.1111111
        k(   14) = (   0.0608032  -0.1404191   0.0000000), wk =   0.1111111
        k(   15) = (   0.0608032  -0.1053143   0.0000000), wk =   0.1111111
        k(   16) = (   0.0608032  -0.0702095   0.0000000), wk =   0.1111111
        k(   17) = (  -0.0912049   0.0526572   0.0000000), wk =   0.0555556
        k(   18) = (  -0.0912049   0.0877619   0.0000000), wk =   0.1111111
        k(   19) = (  -0.0912049   0.1228667   0.0000000), wk =   0.1111111
        k(   20) = (  -0.0912049  -0.0526572   0.0000000), wk =   0.0555556

     Largest allocated arrays     est. size (Mb)     dimensions
     Largest temporary arrays     est. size (Mb)     dimensions

     Initial potential from superposition of free atoms
     Check: negative starting charge=   -4.368090

     starting charge  177.99958, renormalised to  184.00000

[...]

     *
     * You are using vdW-DF for exchange-correlation in this calculation.
     * Please cite the following three references that made this development
     * possible:
     *
     *   M. Dion, H. Rydberg, E. Schroder, D. C. Langreth, and
     *   B. I. Lundqvist, Phys. Rev. Lett. 92, 246401 (2004).
     *
     *   T. Thonhauser, V. R. Cooper, S. Li, A. Puzder, P. Hyldgaard, and
     *   D. C. Langreth, Phys. Rev. B 76, 125112 (2007).
     *
     *   G. Roman-Perez and J. M. Soler, Phys. Rev. Lett. 103, 096102 (2009).
     *
     *
     * If you are using vdW-DF2, please also cite:
     *
     *   K. Lee, E. D. Murray, L. Kong, B. I. Lundqvist, and
     *   D. C. Langreth, Phys. Rev. B 82, 081101(R) (2010).
     *
     *
     * If you are calculating the stress with vdW-DF, please also cite:
     *
     *   R. Sabatini, E. Kucukbenli, B. Kolb, T. Thonhauser, and
     *   S. de Gironcoli, J. Phys.: Condens. Matter 24, 424209 (2012).
     *

     Carrying out vdW-DF run using the following parameters:

     Nqs =      20    Nr_points =    1024   r_max =   100.000
     q_mesh =
               0.00001000     0.04494208     0.09755937     0.15916263
               0.23128650     0.31572767     0.41458969     0.53033537
               0.66584808     0.82450364     1.01025438     1.22772762
               1.48234092     1.78043706     2.12944203     2.53805004
               3.01644009     3.57652955     4.23227104     5.00000000

     Gradients computed in reciprocal space

[...]

     Starting wfc are  148 randomized atomic wfcs

     Self-consistent Calculation

[...]

     total energy              =   -2211.26487392 Ry
     Harris-Foulkes estimate   =   -2211.26487959 Ry
     estimated scf accuracy    <       0.00001177 Ry

     iteration # 18     ecut=    36.75 Ry     beta=0.30
     Davidson diagonalization with overlap
     ethr =  6.40E-09,  avg # of iterations =  3.4

[...]

     negative rho (up, down):  3.887E+00 0.000E+00

     Adding external electric field

     Computed dipole along edir(3) :
        Dipole               -0.0687 Ry au,         -0.1747 Debye
        Dipole field         -0.0002 Ry au

        Potential amp.        0.0181 Ry
        Total length         45.0969 bohr

     End of self-consistent calculation

[...]

          k = 0.0608-0.0702 0.0000 ( 16191 PWs)   bands (ev):

[...]

          k =-0.0912-0.0527 0.0000 ( 16164 PWs)   bands (ev):

   -47.5783 -47.5540 -47.4825 -47.4587 -47.4499 -47.4212 -47.3911 -47.3867
   -47.3713 -47.3523 -47.2543 -47.1909 -47.1884 -47.1663 -47.1470 -47.1188
   -47.0583 -47.0464 -47.0390 -46.9908 -46.9523 -46.9265 -46.9069 -46.8953
   -46.8913 -46.8767 -46.8625 -46.8181 -46.7693 -46.7497 -46.7456 -46.7371
   -46.7272 -46.7166 -46.7106 -46.7080  -9.3800  -5.2989  -5.1141  -4.1557
    -3.7026  -3.5436  -3.4565  -3.4227  -3.3315  -3.3170  -3.2634  -2.8951
    -2.8285  -2.5914  -2.5121  -2.5024  -2.3828  -2.2494  -2.0255  -1.9625
    -1.9035  -1.8272  -1.8155  -1.5355  -1.5323  -1.3927  -1.1287  -1.0629
    -0.8805  -0.8522  -0.7058  -0.5135  -0.5012  -0.4173  -0.3510  -0.3254
    -0.2288  -0.1838  -0.1734  -0.0987   0.0587   0.4126   0.5956   0.6234
     0.6359   0.8016   0.8961   1.0486   1.1045   1.2198   1.2983   1.4533
     1.5186   1.7108   1.8395   1.9031   1.9308   2.1317   2.5002   2.6101
     2.7167   2.8549   3.0737   3.0950   3.3488   3.8290

     the Fermi energy is     2.3893 ev

!    total energy              =   -2211.26487290 Ry
     Harris-Foulkes estimate   =   -2211.26487875 Ry
     estimated scf accuracy    <       0.00000225 Ry

     The total energy is the sum of the following terms:

     one-electron contribution =  -18780.28032867 Ry
     hartree contribution      =    9420.84916382 Ry
     xc contribution           =    -627.37452417 Ry
     ewald contribution        =    7775.64000493 Ry
     electric field correction =       0.00001381 Ry
     smearing contrib. (-TS)   =      -0.09920262 Ry

     convergence has been achieved in  18 iterations

 BEEF-vdW xc energy contributions
           1 :   -555.660871546313
           2 :    517.090440678434
           3 :   -448.046453587666
           4 :    361.996638783320
           5 :   -273.811999102307
           6 :    195.952777176054
           7 :   -135.825485013702
           8 :    94.9230661418904
           9 :   -69.8077583280167
          10 :    54.3804206013790
          11 :   -42.5086465779552
          12 :    30.0714448893116
          13 :   -15.8348273859158
          14 :    1.08501578755431
          15 :    11.6014472811082
          16 :   -19.8466786788624
          17 :    22.6152997338608
          18 :   -20.6255860743804
          19 :    15.9724367305646
          20 :   -11.2247540629330
          21 :    8.42378078679690
          22 :   -8.39220220013829
          23 :    10.5938038561012
          24 :   -13.5469923805147
          25 :    15.5717268506891
          26 :   -15.5367140727435
          27 :    13.2987973881430
          28 :   -9.68169861600768
          29 :    6.04446555000425
          30 :   -3.65826505102632
          31 :   -47.7129704600366
          32 :   -35.8201681991507

     Forces acting on atoms (Ry/au):

     negative rho (up, down):  3.887E+00 0.000E+00
     atom    1 type  1   force =     0.00001936   -0.00001802    0.01580173
     atom    2 type  1   force =    -0.00001813    0.00256986    0.01888765
     atom    3 type  1   force =     0.00224071   -0.00129195    0.01888170
     atom    4 type  1   force =    -0.00224369   -0.00126687    0.01887261
     atom    5 type  1   force =    -0.00120483    0.00067875   -0.01633236
     atom    6 type  1   force =     0.00119480    0.00069305   -0.01636598
     atom    7 type  1   force =     0.00001163    0.00000152   -0.02175527
     atom    8 type  1   force =    -0.00001442   -0.00135788   -0.01638754
     atom    9 type  1   force =    -0.00080087   -0.00041320   -0.00057300
     atom   10 type  1   force =     0.00077445   -0.00036720   -0.00055493
     atom   11 type  1   force =     0.00002884    0.00085423   -0.00057646
     atom   12 type  1   force =    -0.00000043   -0.00009090   -0.00083604
     atom   13 type  2   force =     0.00001257    0.00000861    0.00093790

     Total force =     0.051244     Total SCF correction =     0.010624
     SCF correction compared to forces is large: reduce conv_thr to get better values

     entering subroutine stress ...

     negative rho (up, down):  3.887E+00 0.000E+00
          total   stress  (Ry/bohr**3)                   (kbar)     P=  -23.82
  -0.00018306   0.00000002   0.00000003        -26.93      0.00      0.01
   0.00000002  -0.00018305   0.00000001          0.00    -26.93      0.00
   0.00000003   0.00000001  -0.00011964          0.01      0.00    -17.60

 !ASE

     Writing output data file calc.save

     General routines

     Parallel routines

   This run was terminated on:  15:45:46  15Jan2018

   JOB DONE.
Job  /afs/slac/g/suncat/bin/suncat-tsmpirun -x LD_LIBRARY_PATH -wdir /scratch/qe842452_llXu7 pw.x -in pw.inp

TID   HOST_NAME   COMMAND_LINE            STATUS            TERMINATION_TIME
00000 suncat0253 pw.x -in pw.inp   Done                     01/15/2018 15:45:46
00001 suncat0253 pw.x -in pw.inp   Done                     01/15/2018 15:45:46
00002 suncat0253 pw.x -in pw.inp   Done                     01/15/2018 15:45:46
00003 suncat0253 pw.x -in pw.inp   Done                     01/15/2018 15:45:46
00004 suncat0253 pw.x -in pw.inp   Done                     01/15/2018 15:45:46
00005 suncat0253 pw.x -in pw.inp   Done                     01/15/2018 15:45:46
00006 suncat0253 pw.x -in pw.inp   Done                     01/15/2018 15:45:46
00007 suncat0253 pw.x -in pw.inp   Done                     01/15/2018 15:45:46
00008 suncat0249 pw.x -in pw.inp   Done                     01/15/2018 15:45:46
00009 suncat0249 pw.x -in pw.inp   Done                     01/15/2018 15:45:46
00010 suncat0249 pw.x -in pw.inp   Done                     01/15/2018 15:45:46
00011 suncat0249 pw.x -in pw.inp   Done                     01/15/2018 15:45:46
00012 suncat0249 pw.x -in pw.inp   Done                     01/15/2018 15:45:46
00013 suncat0249 pw.x -in pw.inp   Done                     01/15/2018 15:45:46
00014 suncat0249 pw.x -in pw.inp   Done                     01/15/2018 15:45:46
00015 suncat0249 pw.x -in pw.inp   Done                     01/15/2018 15:45:46
00016 suncat0248 pw.x -in pw.inp   Done                     01/15/2018 15:45:46
00017 suncat0248 pw.x -in pw.inp   Done                     01/15/2018 15:45:46
00018 suncat0248 pw.x -in pw.inp   Done                     01/15/2018 15:45:46
00019 suncat0248 pw.x -in pw.inp   Done                     01/15/2018 15:45:46
00020 suncat0248 pw.x -in pw.inp   Done                     01/15/2018 15:45:46
00021 suncat0248 pw.x -in pw.inp   Done                     01/15/2018 15:45:46
00022 suncat0248 pw.x -in pw.inp   Done                     01/15/2018 15:45:46
00023 suncat0248 pw.x -in pw.inp   Done                     01/15/2018 15:45:46
00024 suncat0247 pw.x -in pw.inp   Done                     01/15/2018 15:45:46
00025 suncat0247 pw.x -in pw.inp   Done                     01/15/2018 15:45:46
00026 suncat0247 pw.x -in pw.inp   Done                     01/15/2018 15:45:46
00027 suncat0247 pw.x -in pw.inp   Done                     01/15/2018 15:45:46
00028 suncat0247 pw.x -in pw.inp   Done                     01/15/2018 15:45:46
00029 suncat0247 pw.x -in pw.inp   Done                     01/15/2018 15:45:46
00030 suncat0247 pw.x -in pw.inp   Done                     01/15/2018 15:45:46
00031 suncat0247 pw.x -in pw.inp   Done                     01/15/2018 15:45:46