     Program PWSCF v.5.1rc2 (svn rev. 11289) starts on 17Jan2019 at  1: 5:55

     Current dimensions of program PWSCF are:
     Max number of different atomic species (ntypx) = 10
     Max number of k-points (npk) =  40000
     Max angular momentum in pseudopotentials (lmaxx) =  3

     IMPORTANT: XC functional enforced from input :
     Exchange-correlation      = BEEF-VDW ( 1  4 27 13 2)
     Any further DFT definition will be discarded
     Please, verify this is what you really want

     Subspace diagonalization in iterative solution of the eigenvalue problem:
     a serial algorithm will be used

     bravais-lattice index     =            0
     lattice parameter (alat)  =      12.7122  a.u.
     unit-cell volume          =    6741.9071 (a.u.)^3
     number of atoms/cell      =           13
     number of atomic types    =            2
     number of electrons       =       172.00
     number of Kohn-Sham states=           96
     kinetic-energy cutoff     =      36.7493  Ry
     charge density cutoff     =     367.4933  Ry
     convergence threshold     =      1.0E-04
     mixing beta               =       0.2000
     number of iterations used =            8  plain     mixing
     Exchange-correlation      = BEEF-VDW ( 1  4 27 13 2)
     nstep                     =           50

     celldm(1)=  12.712175  celldm(2)=   0.000000  celldm(3)=   0.000000
     celldm(4)=   0.000000  celldm(5)=   0.000000  celldm(6)=   0.000000

     crystal axes: (cart. coord. in units of alat)
               a(1) = (   1.000000   0.000000   0.000000 )
               a(2) = (   0.500000   0.866025   0.000000 )
               a(3) = (   0.000000   0.000000   3.789593 )

     reciprocal axes: (cart. coord. in units 2 pi/alat)
               b(1) = (  1.000000 -0.577350  0.000000 )
               b(2) = (  0.000000  1.154701  0.000000 )
               b(3) = (  0.000000  0.000000  0.263881 )

     PseudoPot. # 1 for Sn read from file:
     /nfs/slac/g/suncatfs/mamunm/src/decaf-espresso/gbrv15pbe/Sn.UPF
     MD5 check sum: 469debedee59599fedebd795477fea03
     Pseudo is Ultrasoft + core correction, Zval = 14.0
     Generated by new atomic code, or converted to UPF format
     Using radial grid of  891 points,  6 beta functions with:
                l(1) =   0
                l(2) =   0
                l(3) =   1
                l(4) =   1
                l(5) =   2
                l(6) =   2
     Q(r) pseudized with  8 coefficients,  rinner =    1.350   1.350   1.350
                                                       1.350   1.350

     PseudoPot. # 2 for C  read from file:
     /nfs/slac/g/suncatfs/mamunm/src/decaf-espresso/gbrv15pbe/C.UPF
     MD5 check sum: d1aef80898a10debaa0f26306b886e00
     Pseudo is Ultrasoft + core correction, Zval =  4.0
     Generated by new atomic code, or converted to UPF format
     Using radial grid of  721 points,  4 beta functions with:
                l(1) =   0
                l(2) =   0
                l(3) =   1
                l(4) =   1
     Q(r) pseudized with  8 coefficients,  rinner =    1.100   1.100   1.100

     vdW kernel table read from file vdW_kernel_table
     MD5 check sum: 095c7af220d748ca6e76c0b4c6cfb241

     atomic species   valence    mass     pseudopotential
        Sn            14.00   118.71000     Sn( 1.00)
        C              4.00    12.01100     C ( 1.00)

     No symmetry found

   Cartesian axes

     site n.     atom                  positions (alat units)
         1           Sn  tau(   1) = (   0.2500000   0.1443376   1.4865483  )
         2           Sn  tau(   2) = (   0.7500000   0.1443376   1.4865483  )
         3           Sn  tau(   3) = (   0.5000000   0.5773503   1.4865483  )
         4           Sn  tau(   4) = (   1.0000000   0.5773503   1.4865483  )
         5           Sn  tau(   5) = (   1.0000000   0.2886751   1.8947966  )
         6           Sn  tau(   6) = (   0.5000000   0.2886751   1.8947966  )
         7           Sn  tau(   7) = (   1.2500000   0.7216878   1.8947966  )
         8           Sn  tau(   8) = (   0.7500000   0.7216878   1.8947966  )
         9           Sn  tau(   9) = (   0.0000047   0.0000039   2.2743357  )
        10           Sn  tau(  10) = (   0.4999970  -0.0027190   2.3622914  )
        11           Sn  tau(  11) = (   0.2476424   0.4343695   2.3622990  )
        12           Sn  tau(  12) = (   0.7523496   0.4343811   2.3622997  )
        13           C   tau(  13) = (   0.4999982   0.2886742   2.4936263  )

     number of k points=    20  Fermi-Dirac smearing, width (Ry)=  0.0110
                       cart. coord. in units 2pi/alat
        k(    1) = (   0.0000000   0.0000000   0.0000000), wk =   0.0555556
        k(    2) = (   0.0000000   0.1924501   0.0000000), wk =   0.1111111
        k(    3) = (   0.0000000   0.3849002   0.0000000), wk =   0.1111111
        k(    4) = (   0.0000000  -0.5773503   0.0000000), wk =   0.0555556
        k(    5) = (   0.1666667  -0.0962250   0.0000000), wk =   0.1111111
        k(    6) = (   0.1666667   0.0962250   0.0000000), wk =   0.1111111
        k(    7) = (   0.1666667   0.2886751   0.0000000), wk =   0.1111111
        k(    8) = (   0.1666667  -0.6735753   0.0000000), wk =   0.1111111
        k(    9) = (   0.1666667  -0.4811252   0.0000000), wk =   0.1111111
        k(   10) = (   0.1666667  -0.2886751   0.0000000), wk =   0.1111111
        k(   11) = (   0.3333333  -0.1924501   0.0000000), wk =   0.1111111
        k(   12) = (   0.3333333   0.0000000   0.0000000), wk =   0.1111111
        k(   13) = (   0.3333333   0.1924501   0.0000000), wk =   0.1111111
        k(   14) = (   0.3333333  -0.7698004   0.0000000), wk =   0.1111111
        k(   15) = (   0.3333333  -0.5773503   0.0000000), wk =   0.1111111
        k(   16) = (   0.3333333  -0.3849002   0.0000000), wk =   0.1111111
        k(   17) = (  -0.5000000   0.2886751   0.0000000), wk =   0.0555556
        k(   18) = (  -0.5000000   0.4811252   0.0000000), wk =   0.1111111
        k(   19) = (  -0.5000000   0.6735753   0.0000000), wk =   0.1111111
        k(   20) = (  -0.5000000  -0.2886751   0.0000000), wk =   0.0555556

     Largest allocated arrays     est. size (Mb)     dimensions
     Largest temporary arrays     est. size (Mb)     dimensions

     Initial potential from superposition of free atoms
     Check: negative starting charge=   -0.001444

     starting charge  159.99942, renormalised to  172.00000

     negative rho (up, down):  1.552E-03 0.000E+00

     *
     * You are using vdW-DF for exchange-correlation in this calculation.
     * Please cite the following three references that made this development
     * possible:
     *
     *   M. Dion, H. Rydberg, E. Schroder, D. C. Langreth, and
     *   B. I. Lundqvist, Phys. Rev. Lett. 92, 246401 (2004).
     *
     *   T. Thonhauser, V. R. Cooper, S. Li, A. Puzder, P. Hyldgaard, and
     *   D. C. Langreth, Phys. Rev. B 76, 125112 (2007).
     *
     *   G. Roman-Perez and J. M. Soler, Phys. Rev. Lett. 103, 096102 (2009).
     *
     *
     * If you are using vdW-DF2, please also cite:
     *
     *   K. Lee, E. D. Murray, L. Kong, B. I. Lundqvist, and
     *   D. C. Langreth, Phys. Rev. B 82, 081101(R) (2010).
     *
     *
     * If you are calculating the stress with vdW-DF, please also cite:
     *
     *   R. Sabatini, E. Kucukbenli, B. Kolb, T. Thonhauser, and
     *   S. de Gironcoli, J. Phys.: Condens. Matter 24, 424209 (2012).
     *

     Carrying out vdW-DF run using the following parameters:

     Nqs =      20    Nr_points =    1024   r_max =   100.000
     q_mesh =
               0.00001000     0.04494208     0.09755937     0.15916263
               0.23128650     0.31572767     0.41458969     0.53033537
               0.66584808     0.82450364     1.01025438     1.22772762
               1.48234092     1.78043706     2.12944203     2.53805004
               3.01644009     3.57652955     4.23227104     5.00000000

     Gradients computed in reciprocal space

     Adding external electric field

     Computed dipole along edir(3) :
        Dipole               -2.2362 Ry au,         -5.6837 Debye
        Dipole field         -0.0042 Ry au

        Potential amp.        0.3614 Ry
        Total length         43.3566 bohr

     Starting wfc are  112 randomized atomic wfcs

     Self-consistent Calculation

     iteration #  1     ecut=    36.75 Ry     beta=0.20
     Davidson diagonalization with overlap
     ethr =  1.00E-02,  avg # of iterations =  7.2

[...]

     total energy              =   -1929.02547958 Ry
     Harris-Foulkes estimate   =   -1945.61589056 Ry
     estimated scf accuracy    <      49.01480005 Ry

[...]

     End of self-consistent calculation

          k = 0.0000 0.0000 0.0000 ( 25377 PWs)   bands (ev):

   -21.4228 -21.4181 -21.4181 -21.3813 -21.3800 -21.3800 -21.3723 -21.3723
   -21.3675 -21.3629 -21.3495 -21.3495 -21.3452 -21.3431 -21.3431 -21.3300
   -21.3284 -21.3284 -21.3187 -21.3187 -21.3092 -21.2911 -21.2911 -21.2786
   -21.2786 -21.2768 -21.2640 -21.2639 -21.2486 -21.2386 -21.2386 -21.2364
   -21.2357 -21.2311 -21.2310 -21.2193 -21.2188 -21.2188 -21.2157 -21.2157
   -21.2103 -21.2102 -21.2070 -21.2017 -21.2017 -21.1993 -21.1850 -21.1850
   -21.1824 -21.1734 -21.1576 -21.1576 -21.1241 -21.1241 -21.1135 -21.0556
   -21.0555 -21.0171 -21.0171 -20.9888 -10.7996  -9.8060  -8.1002  -6.5770
    -5.9357  -5.9357  -5.8012  -5.7211  -5.7211  -5.2653  -4.9397  -4.9397
    -4.5071  -3.2034  -3.2034  -2.8667  -2.6424  -2.3974  -2.3973  -2.0740
    -1.9481  -1.9481  -1.4036   0.2542   0.2543   0.6572   1.3778   1.4608
     1.4609   1.8243   2.4091   2.4091   2.9097   3.4281   3.4504   3.4505

[...]

          k =-0.5000 0.2887 0.0000 ( 25386 PWs)   bands (ev):

[...]

     the Fermi energy is     0.6782 ev

!    total energy              =   -1939.65679415 Ry
     Harris-Foulkes estimate   =   -1939.65687857 Ry
     estimated scf accuracy    <       0.00007119 Ry

     The total energy is the sum of the following terms:

     one-electron contribution =  -10239.17759622 Ry
     hartree contribution      =    5183.91186550 Ry
     xc contribution           =    -537.45558517 Ry
     ewald contribution        =    3653.10894032 Ry
     electric field correction =       0.00005272 Ry
     smearing contrib. (-TS)   =      -0.04447131 Ry

     convergence has been achieved in  12 iterations

     Forces acting on atoms (Ry/au):

     negative rho (up, down):  4.406E-04 0.000E+00
     atom    1 type  1   force =     0.00633657    0.00368846    0.00481044
     atom    2 type  1   force =    -0.00631910    0.00369229    0.00481363
     atom    3 type  1   force =     0.00004281   -0.00731379    0.00471271
     atom    4 type  1   force =     0.00001355   -0.00003480    0.00201013
     atom    5 type  1   force =    -0.00000233    0.00522304   -0.00074892
     atom    6 type  1   force =     0.00002871   -0.00000783   -0.00864556
     atom    7 type  1   force =    -0.00459534   -0.00260411   -0.00074759
     atom    8 type  1   force =     0.00454936   -0.00261930   -0.00074653
     atom    9 type  1   force =    -0.00000585    0.00003263   -0.00446654
     atom   10 type  1   force =    -0.00002227    0.00387029    0.00083241
     atom   11 type  1   force =     0.00334293   -0.00197194    0.00082605
     atom   12 type  1   force =    -0.00336793   -0.00196521    0.00082522
     atom   13 type  2   force =    -0.00000111    0.00001027   -0.00347546

     Total force =     0.008907     Total SCF correction =     0.009333
     SCF correction compared to forces is large: reduce conv_thr to get better values

     BFGS Geometry Optimization

     number of scf cycles    =   1
     number of bfgs steps    =   0

     energy   new            =   -1939.6567941458 Ry

     new trust radius        =       0.0044666670 bohr
     new conv_thr            =       0.0001000000 Ry

ATOMIC_POSITIONS (angstrom)
Sn       1.681748263   0.970957812  10.000000000    0   0   0
Sn       5.045244789   0.970957812  10.000000000    0   0   0
Sn       3.363496526   3.883831250  10.000000000    0   0   0
Sn       6.726993052   3.883831250  10.000000000    0   0   0
Sn       6.726993052   1.941915625  12.746283414    0   0   0
Sn       3.363496526   1.941915625  12.746283414    0   0   0
Sn       8.408741315   4.854789062  12.746283414    0   0   0
Sn       5.045244789   4.854789062  12.746283414    0   0   0
Sn       0.000028764   0.000043586  15.297076560
Sn       3.363464554  -0.016242572  15.891558508
Sn       1.667658036   2.920957069  15.891605950
Sn       5.059268205   2.921038377  15.891610352
C        3.363483837   1.941914609  16.772767451

     Writing output data file calc.save
     Check: negative starting charge=   -0.001444
     NEW-OLD atomic charge density approx. for the potential
     Check: negative starting charge=   -0.001444

[...]

     Self-consistent Calculation

[...]

     total energy              =   -1939.65678966 Ry
     Harris-Foulkes estimate   =   -1939.65690932 Ry
     estimated scf accuracy    <       0.00078617 Ry

     iteration #  4     ecut=    36.75 Ry     beta=0.20
     Davidson diagonalization with overlap
     ethr =  4.57E-07,  avg # of iterations =  3.0

     negative rho (up, down):  4.437E-04 0.000E+00

     Adding external electric field

     Computed dipole along edir(3) :
        Dipole               -0.2512 Ry au,         -0.6385 Debye
        Dipole field         -0.0005 Ry au

        Potential amp.        0.0406 Ry
        Total length         43.3566 bohr

     End of self-consistent calculation

[...]

          k = 0.3333-0.3849 0.0000 ( 25368 PWs)   bands (ev):

[...]

          k =-0.5000-0.2887 0.0000 ( 25386 PWs)   bands (ev):

   -21.3973 -21.3894 -21.3742 -21.3721 -21.3666 -21.3595 -21.3503 -21.3497
   -21.3438 -21.3420 -21.3407 -21.3359 -21.3316 -21.3258 -21.3175 -21.3167
   -21.3149 -21.3091 -21.3071 -21.3038 -21.3020 -21.2963 -21.2887 -21.2860
   -21.2808 -21.2774 -21.2717 -21.2709 -21.2651 -21.2612 -21.2587 -21.2574
   -21.2556 -21.2516 -21.2466 -21.2426 -21.2385 -21.2346 -21.2339 -21.2294
   -21.2287 -21.2236 -21.2171 -21.2112 -21.2070 -21.2043 -21.2008 -21.1946
   -21.1857 -21.1835 -21.1800 -21.1665 -21.1220 -21.0973 -21.0921 -21.0845
   -21.0789 -21.0717 -21.0617 -21.0159 -10.6287  -8.8806  -8.6496  -7.7194
    -7.0259  -6.5940  -6.5205  -6.3214  -5.9104  -5.6950  -4.6662  -4.6635
    -3.8235  -2.4013  -1.6102  -1.5403  -1.4376  -1.2239  -1.0941  -0.8812
    -0.8521  -0.4836  -0.2213  -0.0903   0.5703   0.7039   0.7753   1.0657
     1.1328   1.2472   1.4277   1.7623   1.8382   2.0689   2.1730   2.4314

     the Fermi energy is     0.6781 ev

!    total energy              =   -1939.65685283 Ry
     Harris-Foulkes estimate   =   -1939.65683392 Ry
     estimated scf accuracy    <       0.00001018 Ry

     The total energy is the sum of the following terms:

     one-electron contribution =  -10240.14671982 Ry
     hartree contribution      =    5184.57602289 Ry
     xc contribution           =    -537.46207173 Ry
     ewald contribution        =    3653.42016769 Ry
     electric field correction =       0.00011760 Ry
     smearing contrib. (-TS)   =      -0.04436946 Ry

     convergence has been achieved in   4 iterations

     Forces acting on atoms (Ry/au):

     negative rho (up, down):  4.437E-04 0.000E+00
     atom    1 type  1   force =     0.00576905    0.00332304    0.00835697
     atom    2 type  1   force =    -0.00577636    0.00332492    0.00834600
     atom    3 type  1   force =    -0.00001560   -0.00666560    0.00839641
     atom    4 type  1   force =    -0.00000329    0.00000882    0.00317035
     atom    5 type  1   force =    -0.00000247    0.00393111   -0.00270468
     atom    6 type  1   force =    -0.00001059   -0.00000435   -0.01335838
     atom    7 type  1   force =    -0.00336042   -0.00196414   -0.00271624
     atom    8 type  1   force =     0.00338372   -0.00196172   -0.00272430
     atom    9 type  1   force =    -0.00000830   -0.00001898   -0.00142818
     atom   10 type  1   force =     0.00001660    0.00061821   -0.00176281
     atom   11 type  1   force =     0.00053801   -0.00027963   -0.00177561
     atom   12 type  1   force =    -0.00053513   -0.00030023   -0.00177049
     atom   13 type  2   force =     0.00000479   -0.00001147   -0.00002905

     Total force =     0.003544     Total SCF correction =     0.008165
     SCF correction compared to forces is large: reduce conv_thr to get better values

     bfgs converged in   2 scf cycles and   1 bfgs steps
     (criteria: energy <  1.0E+12, force <  1.9E-03)

     End of BFGS Geometry Optimization

     Final energy   =   -1939.6568528342 Ry
Begin final coordinates

ATOMIC_POSITIONS (angstrom)
Sn       1.681748263   0.970957812  10.000000000    0   0   0
Sn       5.045244789   0.970957812  10.000000000    0   0   0
Sn       3.363496526   3.883831250  10.000000000    0   0   0
Sn       6.726993052   3.883831250  10.000000000    0   0   0
Sn       6.726993052   1.941915625  12.746283414    0   0   0
Sn       3.363496526   1.941915625  12.746283414    0   0   0
Sn       8.408741315   4.854789062  12.746283414    0   0   0
Sn       5.045244789   4.854789062  12.746283414    0   0   0
Sn       0.000028764   0.000043586  15.297076560
Sn       3.363464554  -0.016242572  15.891558508
Sn       1.667658036   2.920957069  15.891605950
Sn       5.059268205   2.921038377  15.891610352
C        3.363483837   1.941914609  16.772767451
End final coordinates

     Writing output data file calc.save

     General routines

     Parallel routines

   This run was terminated on:   1:14:57  17Jan2019

   JOB DONE.
Job  /afs/slac/g/suncat/bin/suncat-tsmpirun -x LD_LIBRARY_PATH -wdir /tmp/qe_3791195pm_1d9m_scratch pw.x -npool 3 -in pw.pwi

TID   HOST_NAME   COMMAND_LINE            STATUS            TERMINATION_TIME
00000 suncat1054 pw.x -npool 3 -i  Done                     01/17/2019 01:14:57
00001 suncat1054 pw.x -npool 3 -i  Done                     01/17/2019 01:14:57
00002 suncat1054 pw.x -npool 3 -i  Done                     01/17/2019 01:14:57
00003 suncat1054 pw.x -npool 3 -i  Done                     01/17/2019 01:14:57
00004 suncat1054 pw.x -npool 3 -i  Done                     01/17/2019 01:14:57
00005 suncat1054 pw.x -npool 3 -i  Done                     01/17/2019 01:14:57
00006 suncat1054 pw.x -npool 3 -i  Done                     01/17/2019 01:14:57
00007 suncat1054 pw.x -npool 3 -i  Done                     01/17/2019 01:14:57
00008 suncat1054 pw.x -npool 3 -i  Done                     01/17/2019 01:14:57
00009 suncat1054 pw.x -npool 3 -i  Done                     01/17/2019 01:14:57
00010 suncat1054 pw.x -npool 3 -i  Done                     01/17/2019 01:14:57
00011 suncat1054 pw.x -npool 3 -i  Done                     01/17/2019 01:14:57
00012 suncat1004 pw.x -npool 3 -i  Done                     01/17/2019 01:14:57
00013 suncat1004 pw.x -npool 3 -i  Done                     01/17/2019 01:14:57
00014 suncat1004 pw.x -npool 3 -i  Done                     01/17/2019 01:14:57
00015 suncat1004 pw.x -npool 3 -i  Done                     01/17/2019 01:14:57
00016 suncat1004 pw.x -npool 3 -i  Done                     01/17/2019 01:14:57
00017 suncat1004 pw.x -npool 3 -i  Done                     01/17/2019 01:14:57
00018 suncat1004 pw.x -npool 3 -i  Done                     01/17/2019 01:14:57
00019 suncat1004 pw.x -npool 3 -i  Done                     01/17/2019 01:14:57
00020 suncat1004 pw.x -npool 3 -i  Done                     01/17/2019 01:14:57
00021 suncat1004 pw.x -npool 3 -i  Done                     01/17/2019 01:14:57
00022 suncat1004 pw.x -npool 3 -i  Done                     01/17/2019 01:14:57
00023 suncat1004 pw.x -npool 3 -i  Done                     01/17/2019 01:14:57
00024 suncat1001 pw.x -npool 3 -i  Done                     01/17/2019 01:14:57
00025 suncat1001 pw.x -npool 3 -i  Done                     01/17/2019 01:14:57
00026 suncat1001 pw.x -npool 3 -i  Done                     01/17/2019 01:14:57
00027 suncat1001 pw.x -npool 3 -i  Done                     01/17/2019 01:14:57
00028 suncat1001 pw.x -npool 3 -i  Done                     01/17/2019 01:14:57
00029 suncat1001 pw.x -npool 3 -i  Done                     01/17/2019 01:14:57
00030 suncat1001 pw.x -npool 3 -i  Done                     01/17/2019 01:14:57
00031 suncat1001 pw.x -npool 3 -i  Done                     01/17/2019 01:14:57
00032 suncat1001 pw.x -npool 3 -i  Done                     01/17/2019 01:14:57
00033 suncat1001 pw.x -npool 3 -i  Done                     01/17/2019 01:14:57
00034 suncat1001 pw.x -npool 3 -i  Done                     01/17/2019 01:14:57
00035 suncat1001 pw.x -npool 3 -i  Done                     01/17/2019 01:14:57