     Program PWSCF v.5.1rc2 (svn rev. 11289) starts on 24Apr2018 at 17:34:45

     Current dimensions of program PWSCF are:
     Max number of different atomic species (ntypx) = 10
     Max number of k-points (npk) =  40000
     Max angular momentum in pseudopotentials (lmaxx) =  3
     Presently stress not available with electric field

     IMPORTANT: XC functional enforced from input :
     Exchange-correlation      = BEEF-VDW ( 1  4 27 13 2)
     Any further DFT definition will be discarded
     Please, verify this is what you really want

     Subspace diagonalization in iterative solution of the eigenvalue problem:
     a serial algorithm will be used

     bravais-lattice index     =            0
     lattice parameter (alat)  =       1.8897  a.u.
     unit-cell volume          =    4704.3541 (a.u.)^3
     number of atoms/cell      =           14
     number of atomic types    =            3
     number of electrons       =       175.00
     number of Kohn-Sham states=           97
     kinetic-energy cutoff     =      36.7493  Ry
     charge density cutoff     =     367.4932  Ry
     convergence threshold     =      1.0E-05
     mixing beta               =       0.3000
     number of iterations used =           10  plain     mixing
     Exchange-correlation      = BEEF-VDW ( 1  4 27 13 2)
     nstep                     =           50

     celldm(1)=   1.889726  celldm(2)=   0.000000  celldm(3)=   0.000000
     celldm(4)=   0.000000  celldm(5)=   0.000000  celldm(6)=   0.000000

     crystal axes: (cart. coord. in units of alat)
               a(1) = (   5.712816   0.000000   0.000000 )
               a(2) = (   2.856408   4.947444   0.000000 )
               a(3) = (   0.000000   0.000000  24.664495 )

     reciprocal axes: (cart. coord. in units 2 pi/alat)
               b(1) = (  0.175045 -0.101062  0.000000 )
               b(2) = (  0.000000  0.202125  0.000000 )
               b(3) = (  0.000000  0.000000  0.040544 )

     PseudoPot. # 1 for W  read from file:
     /u/if/mamunm/psp/gbrv1.5pbe/W.UPF
     MD5 check sum: 9c083fa34c2a2ea0f02f1f893e16e1c8
     Pseudo is Ultrasoft + core correction, Zval = 14.0
     Generated by new atomic code, or converted to UPF format
     Using radial grid of  923 points,  8 beta functions with:
                l(1) =   0
                l(2) =   0
                l(3) =   0
                l(4) =   1
                l(5) =   1
                l(6) =   2
                l(7) =   2
                l(8) =   3
     Q(r) pseudized with  6 coefficients,  rinner =    1.350   1.350   1.350
                                                       1.350   1.350   1.350
                                                       1.350

     PseudoPot. # 2 for S  read from file:
     /u/if/mamunm/psp/gbrv1.5pbe/S.UPF
     MD5 check sum: 88d86576ff6df21479756cfb9bdac1df
     Pseudo is Ultrasoft + core correction, Zval =  6.0
     Generated by new atomic code, or converted to UPF format
     Using radial grid of  907 points,  6 beta functions with:
                l(1) =   0
                l(2) =   0
                l(3) =   1
                l(4) =   1
                l(5) =   2
                l(6) =   2
     Q(r) pseudized with  8 coefficients,  rinner =    1.300   1.300   1.300
                                                       1.300   1.300

     PseudoPot. # 3 for H  read from file:
     /u/if/mamunm/psp/gbrv1.5pbe/H.UPF
     MD5 check sum: 761ae9a214b05c3daf00ab9f6b793d6f
     Pseudo is Ultrasoft, Zval =  1.0
     Generated by new atomic code, or converted to UPF format
     Using radial grid of  615 points,  2 beta functions with:
                l(1) =   0
                l(2) =   0
     Q(r) pseudized with  8 coefficients,  rinner =    0.700

     vdW kernel table read from file vdW_kernel_table
     MD5 check sum: 095c7af220d748ca6e76c0b4c6cfb241

     atomic species   valence    mass     pseudopotential
        W1            14.00   183.84000     W ( 1.00)
        S1             6.00    32.06000     S ( 1.00)
        H1             1.00     1.00800     H ( 1.00)

     No symmetry found

   Cartesian axes

     site n.     atom                  positions (alat units)
         1           W1  tau(   1) = (   1.4282041   0.8245740  10.0000000  )
         2           W1  tau(   2) = (   4.2846123   0.8245740  10.0000000  )
         3           W1  tau(   3) = (   2.8564082   3.2982961  10.0000000  )
         4           W1  tau(   4) = (   5.7128165   3.2982961  10.0000000  )
         5           W1  tau(   5) = (   5.7128165   1.6491481  12.3322476  )
         6           W1  tau(   6) = (   2.8564082   1.6491481  12.3322476  )
         7           W1  tau(   7) = (   7.1410206   4.1228701  12.3322476  )
         8           W1  tau(   8) = (   4.2846123   4.1228701  12.3322476  )
         9           W1  tau(   9) = (   0.0000000   0.0000000  14.6644951  )
        10           W1  tau(  10) = (   2.8564082   0.0000000  14.6644951  )
        11           W1  tau(  11) = (   1.4282041   2.4737221  14.6644951  )
        12           W1  tau(  12) = (   4.2846123   2.4737221  14.6644951  )
        13           S1  tau(  13) = (   1.4282041   0.8245740  16.3999951  )
        14           H1  tau(  14) = (   1.4282041   0.8245740  17.6499951  )

     number of k points=    20  Fermi-Dirac smearing, width (Ry)=  0.0110
                       cart. coord. in units 2pi/alat
        k(    1) = (   0.0000000   0.0000000   0.0000000), wk =   0.0555556
        k(    2) = (   0.0000000   0.0336874   0.0000000), wk =   0.1111111
        k(    3) = (   0.0000000   0.0673749   0.0000000), wk =   0.1111111
        k(    4) = (   0.0000000  -0.1010623   0.0000000), wk =   0.0555556
        k(    5) = (   0.0291742  -0.0168437   0.0000000), wk =   0.1111111
        k(    6) = (   0.0291742   0.0168437   0.0000000), wk =   0.1111111
        k(    7) = (   0.0291742   0.0505311   0.0000000), wk =   0.1111111
        k(    8) = (   0.0291742  -0.1179060   0.0000000), wk =   0.1111111
        k(    9) = (   0.0291742  -0.0842186   0.0000000), wk =   0.1111111
        k(   10) = (   0.0291742  -0.0505311   0.0000000), wk =   0.1111111
        k(   11) = (   0.0583483  -0.0336874   0.0000000), wk =   0.1111111
        k(   12) = (   0.0583483  -0.0000000   0.0000000), wk =   0.1111111
        k(   13) = (   0.0583483   0.0336874   0.0000000), wk =   0.1111111
        k(   14) = (   0.0583483  -0.1347497   0.0000000), wk =   0.1111111
        k(   15) = (   0.0583483  -0.1010623   0.0000000), wk =   0.1111111
        k(   16) = (   0.0583483  -0.0673749   0.0000000), wk =   0.1111111
        k(   17) = (  -0.0875225   0.0505311   0.0000000), wk =   0.0555556
        k(   18) = (  -0.0875225   0.0842186   0.0000000), wk =   0.1111111
        k(   19) = (  -0.0875225   0.1179060   0.0000000), wk =   0.1111111
        k(   20) = (  -0.0875225  -0.0505311   0.0000000), wk =   0.0555556

     Largest allocated arrays     est. size (Mb)     dimensions
     Largest temporary arrays     est. size (Mb)     dimensions

     Initial potential from superposition of free atoms
     Check: negative starting charge=   -0.760178

     starting charge  173.79588, renormalised to  175.00000

     negative rho (up, down):  7.654E-01 0.000E+00

     *
     * You are using vdW-DF for exchange-correlation in this calculation.
     * Please cite the following three references that made this development
     * possible:
     *
     *   M. Dion, H. Rydberg, E. Schroder, D. C. Langreth, and
     *   B. I. Lundqvist, Phys. Rev. Lett. 92, 246401 (2004).
     *
     *   T. Thonhauser, V. R. Cooper, S. Li, A. Puzder, P. Hyldgaard, and
     *   D. C. Langreth, Phys. Rev. B 76, 125112 (2007).
     *
     *   G. Roman-Perez and J. M. Soler, Phys. Rev. Lett. 103, 096102 (2009).
     *
     *
     * If you are using vdW-DF2, please also cite:
     *
     *   K. Lee, E. D. Murray, L. Kong, B. I. Lundqvist, and
     *   D. C. Langreth, Phys. Rev. B 82, 081101(R) (2010).
     *
     *
     * If you are calculating the stress with vdW-DF, please also cite:
     *
     *   R. Sabatini, E. Kucukbenli, B. Kolb, T. Thonhauser, and
     *   S. de Gironcoli, J. Phys.: Condens. Matter 24, 424209 (2012).
     *

     Carrying out vdW-DF run using the following parameters:

     Nqs =      20    Nr_points =    1024   r_max =   100.000
     q_mesh =
               0.00001000     0.04494208     0.09755937     0.15916263
               0.23128650     0.31572767     0.41458969     0.53033537
               0.66584808     0.82450364     1.01025438     1.22772762
               1.48234092     1.78043706     2.12944203     2.53805004
               3.01644009     3.57652955     4.23227104     5.00000000

     Gradients computed in reciprocal space

     Adding external electric field

     Computed dipole along edir(3) :
        Dipole               -0.3888 Ry au,         -0.9882 Debye
        Dipole field         -0.0010 Ry au

        Potential amp.        0.0944 Ry
        Total length         45.4439 bohr

     Starting wfc are  161 randomized atomic wfcs

     Self-consistent Calculation

     iteration #  1     ecut=    36.75 Ry     beta=0.30
     Davidson diagonalization with overlap
     ethr =  1.00E-02,  avg # of iterations =  2.0

[...]

     total energy              =   -1946.12503552 Ry
     Harris-Foulkes estimate   =   -1950.76972226 Ry
     estimated scf accuracy    <       9.78996014 Ry

[...]

     End of self-consistent calculation

          k = 0.0000 0.0000 0.0000 ( 17753 PWs)   bands (ev):

   -71.0759 -71.0197 -71.0096 -70.9891 -70.9884 -70.9692 -70.9408 -70.9406
   -70.9355 -70.9241 -70.9239 -70.9193 -35.6539 -35.6093 -35.6091 -35.6055
   -35.5501 -35.5309 -35.5308 -35.4447 -35.4357 -35.4354 -35.2379 -35.1383
   -35.1376 -35.1370 -35.0643 -35.0640 -35.0578 -34.9507 -34.9507 -34.9258
   -34.8646 -34.8645 -34.8628 -34.8316 -34.8315 -34.8213 -34.7875 -34.7436
   -34.7434 -34.7334 -34.7104 -34.7104 -34.6447 -34.6447 -34.5690 -34.5690
   -12.1708  -5.8533  -4.7252  -2.9647  -2.3562  -2.3562  -2.3063  -1.8280
    -1.8280  -1.7985  -1.5265  -1.2378  -1.2377  -0.8547  -0.8547  -0.8320
    -0.6305  -0.3730  -0.3730   0.8455   0.8457   0.9076   1.7444   1.7746
     1.7746   1.8967   2.1297   2.5679   2.5679   2.6366   2.6990   2.6992
     2.9233   2.9233   2.9768   3.0090   3.0256   3.0256   3.1569   3.1569
     3.6232   4.0203   4.0205   4.6421   4.7639   4.7641   4.7974   5.1080
     5.1081

[...]

          k =-0.0875 0.0505 0.0000 ( 17668 PWs)   bands (ev):

[...]

     the Fermi energy is     3.1678 ev

!    total energy              =   -1950.45320691 Ry
     Harris-Foulkes estimate   =   -1950.45322059 Ry
     estimated scf accuracy    <       0.00000316 Ry

     The total energy is the sum of the following terms:

     one-electron contribution =  -15073.62703757 Ry
     hartree contribution      =    7526.24846703 Ry
     xc contribution           =    -520.13694614 Ry
     ewald contribution        =    6117.15731117 Ry
     electric field correction =       0.00037948 Ry
     smearing contrib. (-TS)   =      -0.09538088 Ry

     convergence has been achieved in  18 iterations

 BEEF-vdW xc energy contributions
           1 :   -457.390763473786
           2 :    422.941178078602
           3 :   -362.289056488784
           4 :    288.733489888474
           5 :   -216.119784567280
           6 :    154.862933990898
           7 :   -109.710386389109
           8 :    79.7868895907528
           9 :   -60.5529596399312
          10 :    46.5917235139686
          11 :   -33.9625592993744
          12 :    21.2606812164707
          13 :   -9.25611335178615
          14 :  -0.363299145699216
          15 :    6.34543857540928
          16 :   -8.66652056120347
          17 :    8.50372014206135
          18 :   -7.56608341830378
          19 :    7.23678660098466
          20 :   -7.99563895138141
          21 :    9.38296860737512
          22 :   -10.4543960626436
          23 :    10.4257082711468
          24 :   -9.14397624323800
          25 :    7.15361889420126
          26 :   -5.36458802093949
          27 :    4.53886755945626
          28 :   -4.88798090053541
          29 :    5.99102108840799
          30 :   -7.05577486801809
          31 :   -41.6369741468420
          32 :   -31.1658270863006

     Forces acting on atoms (Ry/au):

     negative rho (up, down):  7.929E-01 0.000E+00
     atom    1 type  1   force =     0.00000509   -0.00002020   -0.00205390
     atom    2 type  1   force =    -0.00000364   -0.00110857   -0.00454034
     atom    3 type  1   force =    -0.00095065    0.00056772   -0.00446341
     atom    4 type  1   force =     0.00094740    0.00056620   -0.00451146
     atom    5 type  1   force =     0.00685778   -0.00397385    0.00280356
     atom    6 type  1   force =    -0.00686478   -0.00396788    0.00277222
     atom    7 type  1   force =     0.00000352   -0.00000236   -0.01841858
     atom    8 type  1   force =    -0.00000195    0.00793801    0.00278477
     atom    9 type  1   force =    -0.03192354   -0.01846718    0.01597427
     atom   10 type  1   force =     0.03192450   -0.01845393    0.01595549
     atom   11 type  1   force =     0.00001322    0.03690165    0.01599743
     atom   12 type  1   force =    -0.00001095    0.00002642   -0.04247741
     atom   13 type  2   force =     0.00000292   -0.00000780   -0.12041349
     atom   14 type  3   force =     0.00000107    0.00000176    0.14059085

     Total force =     0.202279     Total SCF correction =     0.001536

     entering subroutine stress ...

     negative rho (up, down):  7.929E-01 0.000E+00
          total   stress  (Ry/bohr**3)                   (kbar)     P=  -36.49
  -0.00039398  -0.00000000   0.00000001        -57.96     -0.00      0.00
  -0.00000000  -0.00039395  -0.00000003         -0.00    -57.95     -0.00
   0.00000001  -0.00000003   0.00004371          0.00     -0.00      6.43

     BFGS Geometry Optimization

     number of scf cycles    =   1
     number of bfgs steps    =   0

     energy   new            =   -1950.4532069129 Ry

     new trust radius        =       0.1405908499 bohr
     new conv_thr            =       0.0000099958 Ry

ATOMIC_POSITIONS (crystal)
W1       0.166666667   0.166666667   0.405441099    0   0   0
W1       0.666666667   0.166666667   0.405441099    0   0   0
W1       0.166666667   0.666666667   0.405441099    0   0   0
W1       0.666666667   0.666666667   0.405441099    0   0   0
W1       0.833333333   0.333333333   0.500000000    0   0   0
W1       0.333333333   0.333333333   0.500000000    0   0   0
W1       0.833333333   0.833333333   0.500000000    0   0   0
W1       0.333333333   0.833333333   0.500000000    0   0   0
W1      -0.001969450  -0.001975244   0.594901629
W1       0.503944074  -0.001973827   0.594901226
W1      -0.001972270   0.503946990   0.594902126
W1       0.499997573   0.500002826   0.593647547
S1       0.166667355   0.166665832   0.662339730
H1       0.166666672   0.166666855   0.718619720

     Writing output data file calc.save
     Check: negative starting charge=   -0.760178
     NEW-OLD atomic charge density approx. for the potential
     Check: negative starting charge=   -0.760682

[...]

     energy   old            =   -1950.4532069130 Ry
     energy   new            =   -1950.4708540855 Ry

     CASE: energy  _new < energy  _old

[...]

     Threshold (ethr) on eigenvalues was too large:
     Diagonalizing with lowered threshold

     Davidson diagonalization with overlap
     ethr =  2.21E-08,  avg # of iterations =  4.2

[...]

     Total force =     0.005478     Total SCF correction =     0.000276

[...]

     Total force =     0.003764     Total SCF correction =     0.000392
     SCF correction compared to forces is large: reduce conv_thr to get better values

[...]

     number of scf cycles    =  12
     number of bfgs steps    =  11

     energy   old            =   -1950.4897865816 Ry
     energy   new            =   -1950.4898422117 Ry

     CASE: energy  _new < energy  _old

     new trust radius        =       0.0147029472 bohr
     new conv_thr            =       0.0000001000 Ry

ATOMIC_POSITIONS (crystal)
W1       0.166666667   0.166666667   0.405441099    0   0   0
W1       0.666666667   0.166666667   0.405441099    0   0   0
W1       0.166666667   0.666666667   0.405441099    0   0   0
W1       0.666666667   0.666666667   0.405441099    0   0   0
W1       0.833333333   0.333333333   0.500000000    0   0   0
W1       0.333333333   0.333333333   0.500000000    0   0   0
W1       0.833333333   0.833333333   0.500000000    0   0   0
W1       0.333333333   0.833333333   0.500000000    0   0   0
W1      -0.005645606  -0.005621014   0.597840186
W1       0.511266263  -0.005621701   0.597840220
W1      -0.005637407   0.511272257   0.597841291
W1       0.499994917   0.500009540   0.584634049
S1       0.166666680   0.166666790   0.667168639
H1       0.166667346   0.166664581   0.723214464

     Writing output data file calc.save
     Check: negative starting charge=   -0.758637
     NEW-OLD atomic charge density approx. for the potential
     Check: negative starting charge=   -0.758690

[...]

     Self-consistent Calculation

[...]

     Threshold (ethr) on eigenvalues was too large:
     Diagonalizing with lowered threshold

     Davidson diagonalization with overlap
     ethr =  2.05E-08,  avg # of iterations =  4.0

[...]

     total energy              =   -1950.48987145 Ry
     Harris-Foulkes estimate   =   -1950.48987084 Ry
     estimated scf accuracy    <       0.00000034 Ry

     iteration #  8     ecut=    36.75 Ry     beta=0.30
     Davidson diagonalization with overlap
     ethr =  1.94E-10,  avg # of iterations =  3.0

[...]

     negative rho (up, down):  7.920E-01 0.000E+00

     Adding external electric field

     Computed dipole along edir(3) :
        Dipole                0.3742 Ry au,          0.9511 Debye
        Dipole field          0.0010 Ry au

        Potential amp.       -0.0909 Ry
        Total length         45.4439 bohr

     End of self-consistent calculation

[...]

          k = 0.0583-0.0674 0.0000 ( 17692 PWs)   bands (ev):

[...]

          k =-0.0875-0.0505 0.0000 ( 17668 PWs)   bands (ev):

   -71.1566 -71.1289 -71.1134 -71.0705 -70.9946 -70.9831 -70.9617 -70.9535
   -70.9498 -70.9348 -70.9220 -70.8887 -35.6162 -35.5508 -35.5161 -35.4697
   -35.4549 -35.4463 -35.3833 -35.3577 -35.3104 -35.3052 -35.2985 -35.2757
   -35.2435 -35.1761 -35.1685 -35.1147 -35.0940 -35.0747 -35.0450 -35.0251
   -35.0101 -34.9851 -34.9744 -34.9743 -34.9384 -34.9270 -34.9035 -34.8761
   -34.8619 -34.8180 -34.8005 -34.7444 -34.7127 -34.6797 -34.6608 -34.6477
   -11.7996  -5.0111  -3.2828  -2.9973  -2.2187  -1.8682  -1.4390  -1.1770
    -0.8761  -0.8390  -0.7217  -0.7079  -0.6749  -0.2718   0.0255   0.2475
     0.3304   0.4277   0.4359   0.6340   0.7968   0.9993   1.0686   1.1131
     1.2568   1.3095   1.5095   1.7497   1.7674   1.8890   1.9854   2.0641
     2.0713   2.1172   2.2594   2.5718   2.5884   2.7015   2.7153   3.0866
     3.1033   3.2752   3.3626   3.6153   4.0597   4.1240   4.2313   4.3775
     4.4324

     the Fermi energy is     3.1571 ev

!    total energy              =   -1950.48987143 Ry
     Harris-Foulkes estimate   =   -1950.48987185 Ry
     estimated scf accuracy    <       0.00000006 Ry

     The total energy is the sum of the following terms:

     one-electron contribution =  -15042.83223860 Ry
     hartree contribution      =    7510.59888029 Ry
     xc contribution           =    -520.06638440 Ry
     ewald contribution        =    6101.90348667 Ry
     electric field correction =       0.00037405 Ry
     smearing contrib. (-TS)   =      -0.09398944 Ry

     convergence has been achieved in   8 iterations

 BEEF-vdW xc energy contributions
           1 :   -457.326673133382
           2 :    422.865260376007
           3 :   -362.197049208191
           4 :    288.626879693028
           5 :   -216.000838030607
           6 :    154.731417510323
           7 :   -109.562329491006
           8 :    79.6168308779099
           9 :   -60.3600690474691
          10 :    46.3863257817384
          11 :   -33.7671468284268
          12 :    21.1015747417873
          13 :   -9.14837550921243
          14 :  -0.428706046888067
          15 :    6.40161641802513
          16 :   -8.75442168088028
          17 :    8.64819354939141
          18 :   -7.75854781666521
          19 :    7.43617671693704
          20 :   -8.14953377794637
          21 :    9.45769313324251
          22 :   -10.4562009923517
          23 :    10.3995802305924
          24 :   -9.14974390104112
          25 :    7.23283788821789
          26 :   -5.51679271450081
          27 :    4.72086586418925
          28 :   -5.03760326407007
          29 :    6.06235995914278
          30 :   -7.04596944270736
          31 :   -41.6322765230760
          32 :   -31.1559778007243

     Forces acting on atoms (Ry/au):

     negative rho (up, down):  7.920E-01 0.000E+00
     atom    1 type  1   force =     0.00000060   -0.00000282    0.00738321
     atom    2 type  1   force =    -0.00000035    0.00006677   -0.00608238
     atom    3 type  1   force =     0.00005918   -0.00003375   -0.00607565
     atom    4 type  1   force =    -0.00005924   -0.00003340   -0.00607681
     atom    5 type  1   force =     0.02612171   -0.01508001   -0.00122404
     atom    6 type  1   force =    -0.02612142   -0.01508003   -0.00122302
     atom    7 type  1   force =    -0.00000019   -0.00000399    0.00869721
     atom    8 type  1   force =     0.00000024    0.03016033   -0.00122351
     atom    9 type  1   force =    -0.00020550   -0.00013183    0.00141772
     atom   10 type  1   force =     0.00020489   -0.00012998    0.00141543
     atom   11 type  1   force =     0.00000154    0.00025849    0.00142021
     atom   12 type  1   force =    -0.00000145    0.00001285    0.00130459
     atom   13 type  2   force =    -0.00000011   -0.00000235    0.00041359
     atom   14 type  3   force =     0.00000011   -0.00000028   -0.00014654

     Total force =     0.002848     Total SCF correction =     0.000474
     SCF correction compared to forces is large: reduce conv_thr to get better values

     entering subroutine stress ...

     negative rho (up, down):  7.920E-01 0.000E+00
          total   stress  (Ry/bohr**3)                   (kbar)     P=  -39.45
  -0.00036936   0.00000000  -0.00000000        -54.33      0.00     -0.00
   0.00000000  -0.00036933   0.00000000          0.00    -54.33      0.00
  -0.00000000   0.00000000  -0.00006576         -0.00      0.00     -9.67

     bfgs converged in  13 scf cycles and  12 bfgs steps
     (criteria: energy <  1.0E+00, force <  1.9E-03)

     End of BFGS Geometry Optimization

     Final energy   =   -1950.4898714321 Ry
Begin final coordinates

ATOMIC_POSITIONS (crystal)
W1       0.166666667   0.166666667   0.405441099    0   0   0
W1       0.666666667   0.166666667   0.405441099    0   0   0
W1       0.166666667   0.666666667   0.405441099    0   0   0
W1       0.666666667   0.666666667   0.405441099    0   0   0
W1       0.833333333   0.333333333   0.500000000    0   0   0
W1       0.333333333   0.333333333   0.500000000    0   0   0
W1       0.833333333   0.833333333   0.500000000    0   0   0
W1       0.333333333   0.833333333   0.500000000    0   0   0
W1      -0.005645606  -0.005621014   0.597840186
W1       0.511266263  -0.005621701   0.597840220
W1      -0.005637407   0.511272257   0.597841291
W1       0.499994917   0.500009540   0.584634049
S1       0.166666680   0.166666790   0.667168639
H1       0.166667346   0.166664581   0.723214464
End final coordinates

     Writing output data file calc.save

     General routines

     Parallel routines

   This run was terminated on:  19:27:40  24Apr2018

   JOB DONE.
Job  /afs/slac/g/suncat/bin/suncat-tsmpirun -x LD_LIBRARY_PATH -wdir /scratch/qe986609_S7tnT pw.x -npool 4 -in pw.inp

TID   HOST_NAME   COMMAND_LINE            STATUS            TERMINATION_TIME
00000 suncat0160 pw.x -npool 4 -i  Done                     04/24/2018 19:27:40
00001 suncat0160 pw.x -npool 4 -i  Done                     04/24/2018 19:27:40
00002 suncat0160 pw.x -npool 4 -i  Done                     04/24/2018 19:27:40
00003 suncat0160 pw.x -npool 4 -i  Done                     04/24/2018 19:27:40
00004 suncat0160 pw.x -npool 4 -i  Done                     04/24/2018 19:27:40
00005 suncat0160 pw.x -npool 4 -i  Done                     04/24/2018 19:27:40
00006 suncat0160 pw.x -npool 4 -i  Done                     04/24/2018 19:27:40
00007 suncat0160 pw.x -npool 4 -i  Done                     04/24/2018 19:27:40
00008 suncat0156 pw.x -npool 4 -i  Done                     04/24/2018 19:27:40
00009 suncat0156 pw.x -npool 4 -i  Done                     04/24/2018 19:27:40
00010 suncat0156 pw.x -npool 4 -i  Done                     04/24/2018 19:27:40
00011 suncat0156 pw.x -npool 4 -i  Done                     04/24/2018 19:27:40
00012 suncat0156 pw.x -npool 4 -i  Done                     04/24/2018 19:27:40
00013 suncat0156 pw.x -npool 4 -i  Done                     04/24/2018 19:27:40
00014 suncat0156 pw.x -npool 4 -i  Done                     04/24/2018 19:27:40
00015 suncat0156 pw.x -npool 4 -i  Done                     04/24/2018 19:27:40
00016 suncat0151 pw.x -npool 4 -i  Done                     04/24/2018 19:27:40
00017 suncat0151 pw.x -npool 4 -i  Done                     04/24/2018 19:27:40
00018 suncat0151 pw.x -npool 4 -i  Done                     04/24/2018 19:27:40
00019 suncat0151 pw.x -npool 4 -i  Done                     04/24/2018 19:27:40
00020 suncat0151 pw.x -npool 4 -i  Done                     04/24/2018 19:27:40
00021 suncat0151 pw.x -npool 4 -i  Done                     04/24/2018 19:27:40
00022 suncat0151 pw.x -npool 4 -i  Done                     04/24/2018 19:27:40
00023 suncat0151 pw.x -npool 4 -i  Done                     04/24/2018 19:27:40
00024 suncat0258 pw.x -npool 4 -i  Done                     04/24/2018 19:27:40
00025 suncat0258 pw.x -npool 4 -i  Done                     04/24/2018 19:27:40
00026 suncat0258 pw.x -npool 4 -i  Done                     04/24/2018 19:27:40
00027 suncat0258 pw.x -npool 4 -i  Done                     04/24/2018 19:27:40
00028 suncat0258 pw.x -npool 4 -i  Done                     04/24/2018 19:27:40
00029 suncat0258 pw.x -npool 4 -i  Done                     04/24/2018 19:27:40
00030 suncat0258 pw.x -npool 4 -i  Done                     04/24/2018 19:27:40
00031 suncat0258 pw.x -npool 4 -i  Done                     04/24/2018 19:27:40