     Program PWSCF v.5.1rc2 (svn rev. 11289) starts on  3May2018 at  8: 5:44

     Current dimensions of program PWSCF are:
     Max number of different atomic species (ntypx) = 10
     Max number of k-points (npk) =  40000
     Max angular momentum in pseudopotentials (lmaxx) =  3
     Presently stress not available with electric field

     IMPORTANT: XC functional enforced from input :
     Exchange-correlation      = BEEF-VDW ( 1  4 27 13 2)
     Any further DFT definition will be discarded
     Please, verify this is what you really want

     Subspace diagonalization in iterative solution of the eigenvalue problem:
     a serial algorithm will be used

     bravais-lattice index     =            0
     lattice parameter (alat)  =       1.8897  a.u.
     unit-cell volume          =    4569.9960 (a.u.)^3
     number of atoms/cell      =           13
     number of atomic types    =            2
     number of electrons       =       193.00
     number of Kohn-Sham states=          106
     kinetic-energy cutoff     =      36.7493  Ry
     charge density cutoff     =     367.4932  Ry
     convergence threshold     =      1.0E-05
     mixing beta               =       0.3000
     number of iterations used =           10  plain     mixing
     Exchange-correlation      = BEEF-VDW ( 1  4 27 13 2)
     nstep                     =           50

     celldm(1)=   1.889726  celldm(2)=   0.000000  celldm(3)=   0.000000
     celldm(4)=   0.000000  celldm(5)=   0.000000  celldm(6)=   0.000000

     crystal axes: (cart. coord. in units of alat)
               a(1) = (   5.637663   0.000000   0.000000 )
               a(2) = (   2.818831   4.882359   0.000000 )
               a(3) = (   0.000000   0.000000  24.603132 )

     reciprocal axes: (cart. coord. in units 2 pi/alat)
               b(1) = (  0.177378 -0.102410  0.000000 )
               b(2) = (  0.000000  0.204819  0.000000 )
               b(3) = (  0.000000  0.000000  0.040645 )

     PseudoPot. # 1 for Pd read from file:
     /u/if/mamunm/psp/gbrv1.5pbe/Pd.UPF
     MD5 check sum: 2d733d2bc2cbfd217af676df1668a4bc
     Pseudo is Ultrasoft + core correction, Zval = 16.0
     Generated by new atomic code, or converted to UPF format
     Using radial grid of  887 points,  6 beta functions with:
                l(1) =   0
                l(2) =   0
                l(3) =   1
                l(4) =   1
                l(5) =   2
                l(6) =   2
     Q(r) pseudized with  8 coefficients,  rinner =    1.130   1.130   1.130
                                                       1.130   1.130

     PseudoPot. # 2 for H  read from file:
     /u/if/mamunm/psp/gbrv1.5pbe/H.UPF
     MD5 check sum: 761ae9a214b05c3daf00ab9f6b793d6f
     Pseudo is Ultrasoft, Zval =  1.0
     Generated by new atomic code, or converted to UPF format
     Using radial grid of  615 points,  2 beta functions with:
                l(1) =   0
                l(2) =   0
     Q(r) pseudized with  8 coefficients,  rinner =    0.700

     vdW kernel table read from file vdW_kernel_table
     MD5 check sum: 095c7af220d748ca6e76c0b4c6cfb241

     atomic species   valence    mass     pseudopotential
        Pd1           16.00   106.42000     Pd( 1.00)
        H1             1.00     1.00800     H ( 1.00)

     No symmetry found

   Cartesian axes

     site n.     atom                  positions (alat units)
         1           Pd1 tau(   1) = (   1.4094157   0.8137265  10.0000000  )
         2           Pd1 tau(   2) = (   4.2282471   0.8137265  10.0000000  )
         3           Pd1 tau(   3) = (   2.8188314   3.2549061  10.0000000  )
         4           Pd1 tau(   4) = (   5.6376627   3.2549061  10.0000000  )
         5           Pd1 tau(   5) = (   5.6376627   1.6274531  12.3015662  )
         6           Pd1 tau(   6) = (   2.8188314   1.6274531  12.3015662  )
         7           Pd1 tau(   7) = (   7.0470784   4.0686326  12.3015662  )
         8           Pd1 tau(   8) = (   4.2282471   4.0686326  12.3015662  )
         9           Pd1 tau(   9) = (   0.0000000   0.0000000  14.6031324  )
        10           Pd1 tau(  10) = (   2.8188314   0.0000000  14.6031324  )
        11           Pd1 tau(  11) = (   1.4094157   2.4411796  14.6031324  )
        12           Pd1 tau(  12) = (   4.2282471   2.4411796  14.6031324  )
        13           H1  tau(  13) = (   2.8188314   1.6274531  15.7081324  )

     number of k points=    20  Fermi-Dirac smearing, width (Ry)=  0.0110
                       cart. coord. in units 2pi/alat
        k(    1) = (   0.0000000   0.0000000   0.0000000), wk =   0.0555556
        k(    2) = (   0.0000000   0.0341365   0.0000000), wk =   0.1111111
        k(    3) = (   0.0000000   0.0682730   0.0000000), wk =   0.1111111
        k(    4) = (   0.0000000  -0.1024095   0.0000000), wk =   0.0555556
        k(    5) = (   0.0295631  -0.0170683   0.0000000), wk =   0.1111111
        k(    6) = (   0.0295631   0.0170683   0.0000000), wk =   0.1111111
        k(    7) = (   0.0295631   0.0512048   0.0000000), wk =   0.1111111
        k(    8) = (   0.0295631  -0.1194778   0.0000000), wk =   0.1111111
        k(    9) = (   0.0295631  -0.0853413   0.0000000), wk =   0.1111111
        k(   10) = (   0.0295631  -0.0512048   0.0000000), wk =   0.1111111
        k(   11) = (   0.0591262  -0.0341365   0.0000000), wk =   0.1111111
        k(   12) = (   0.0591262  -0.0000000   0.0000000), wk =   0.1111111
        k(   13) = (   0.0591262   0.0341365   0.0000000), wk =   0.1111111
        k(   14) = (   0.0591262  -0.1365460   0.0000000), wk =   0.1111111
        k(   15) = (   0.0591262  -0.1024095   0.0000000), wk =   0.1111111
        k(   16) = (   0.0591262  -0.0682730   0.0000000), wk =   0.1111111
        k(   17) = (  -0.0886892   0.0512048   0.0000000), wk =   0.0555556
        k(   18) = (  -0.0886892   0.0853413   0.0000000), wk =   0.1111111
        k(   19) = (  -0.0886892   0.1194778   0.0000000), wk =   0.1111111
        k(   20) = (  -0.0886892  -0.0512048   0.0000000), wk =   0.0555556

     Largest allocated arrays     est. size (Mb)     dimensions
     Largest temporary arrays     est. size (Mb)     dimensions

     Initial potential from superposition of free atoms
     Check: negative starting charge=   -0.904216

     starting charge  186.99991, renormalised to  193.00000

     negative rho (up, down):  9.332E-01 0.000E+00

     *
     * You are using vdW-DF for exchange-correlation in this calculation.
     * Please cite the following three references that made this development
     * possible:
     *
     *   M. Dion, H. Rydberg, E. Schroder, D. C. Langreth, and
     *   B. I. Lundqvist, Phys. Rev. Lett. 92, 246401 (2004).
     *
     *   T. Thonhauser, V. R. Cooper, S. Li, A. Puzder, P. Hyldgaard, and
     *   D. C. Langreth, Phys. Rev. B 76, 125112 (2007).
     *
     *   G. Roman-Perez and J. M. Soler, Phys. Rev. Lett. 103, 096102 (2009).
     *
     *
     * If you are using vdW-DF2, please also cite:
     *
     *   K. Lee, E. D. Murray, L. Kong, B. I. Lundqvist, and
     *   D. C. Langreth, Phys. Rev. B 82, 081101(R) (2010).
     *
     *
     * If you are calculating the stress with vdW-DF, please also cite:
     *
     *   R. Sabatini, E. Kucukbenli, B. Kolb, T. Thonhauser, and
     *   S. de Gironcoli, J. Phys.: Condens. Matter 24, 424209 (2012).
     *

     Carrying out vdW-DF run using the following parameters:

     Nqs =      20    Nr_points =    1024   r_max =   100.000
     q_mesh =
               0.00001000     0.04494208     0.09755937     0.15916263
               0.23128650     0.31572767     0.41458969     0.53033537
               0.66584808     0.82450364     1.01025438     1.22772762
               1.48234092     1.78043706     2.12944203     2.53805004
               3.01644009     3.57652955     4.23227104     5.00000000

     Gradients computed in reciprocal space

     Adding external electric field

     Computed dipole along edir(3) :
        Dipole               -0.2065 Ry au,         -0.5249 Debye
        Dipole field         -0.0006 Ry au

        Potential amp.        0.0515 Ry
        Total length         45.3309 bohr

     Starting wfc are  145 randomized atomic wfcs

     Self-consistent Calculation

     iteration #  1     ecut=    36.75 Ry     beta=0.30
     Davidson diagonalization with overlap
     ethr =  1.00E-02,  avg # of iterations =  3.0

[...]

     total energy              =   -2392.31919179 Ry
     Harris-Foulkes estimate   =   -2402.50863416 Ry
     estimated scf accuracy    <      23.04047743 Ry

[...]

     End of self-consistent calculation

          k = 0.0000 0.0000 0.0000 ( 17231 PWs)   bands (ev):

   -49.0973 -49.0917 -49.0917 -49.0553 -49.0172 -48.9875 -48.9874 -48.9544
   -48.9224 -48.9224 -48.9091 -48.9091 -48.8898 -48.8505 -48.8505 -48.8387
   -48.8360 -48.8359 -48.8272 -48.8272 -48.7760 -48.6812 -48.6812 -48.6794
   -48.6793 -48.6727 -48.6707 -48.6442 -48.6442 -48.6188 -48.6188 -48.5464
   -48.5303 -48.5162 -48.5058 -48.5056  -5.2472  -4.5083  -3.6222  -3.6152
    -3.5823  -3.5823  -3.4429  -3.4085  -3.4085  -3.2535  -3.2365  -3.2365
    -3.1856  -3.0509  -3.0509  -2.5718  -2.1217  -2.1217  -1.9103  -1.8167
    -1.8167  -1.6844  -1.6111  -1.6111  -1.4648  -1.4648  -1.3455  -1.3248
    -1.3248  -1.2965  -1.2965  -1.2931  -0.6872  -0.6872  -0.6838  -0.6029
    -0.3391  -0.3391  -0.2930  -0.2566  -0.2566  -0.0472  -0.0471   0.1199
     0.1199   0.3481   0.4942   0.4942   0.5281   0.5626   0.5626   0.6072
     0.6103   0.6103   0.7886   0.7886   0.7984   0.9059   0.9345   0.9345
     1.0184   1.0184   1.0209   1.7340   2.6981   3.1148   3.1148   3.8606
     4.3475   4.3475

[...]

          k =-0.0887 0.0512 0.0000 ( 17240 PWs)   bands (ev):

[...]

     the Fermi energy is     0.7986 ev

!    total energy              =   -2398.59866083 Ry
     Harris-Foulkes estimate   =   -2398.59865945 Ry
     estimated scf accuracy    <       0.00000202 Ry

     The total energy is the sum of the following terms:

     one-electron contribution =  -20216.20995554 Ry
     hartree contribution      =   10156.75846329 Ry
     xc contribution           =    -390.84005398 Ry
     ewald contribution        =    8051.81148514 Ry
     electric field correction =       0.00001083 Ry
     smearing contrib. (-TS)   =      -0.11861057 Ry

     convergence has been achieved in  17 iterations

 BEEF-vdW xc energy contributions
           1 :   -340.308244316187
           2 :    310.972184503494
           3 :   -260.924252712952
           4 :    203.647280903716
           5 :   -152.209945663893
           6 :    114.925216108197
           7 :   -93.5367572730298
           8 :    84.2418554166317
           9 :   -80.6634142493872
          10 :    77.1642501110095
          11 :   -71.0041388503070
          12 :    62.6135213632780
          13 :   -54.2838993488780
          14 :    48.2760375850111
          15 :   -45.4421339191073
          16 :    44.9584038976507
          17 :   -45.0665579913662
          18 :    44.2058138420687
          19 :   -41.8274550038881
          20 :    38.4854801350798
          21 :   -35.2846016908637
          22 :    33.1142406674805
          23 :   -32.1474879962676
          24 :    31.8483951163082
          25 :   -31.4034718476269
          26 :    30.2571928114222
          27 :   -28.4165319367523
          28 :    26.3679492125896
          29 :   -24.7057042804705
          30 :    23.7347927003129
          31 :   -33.1246889245290
          32 :   -24.4636393439182

     Forces acting on atoms (Ry/au):

     negative rho (up, down):  9.415E-01 0.000E+00
     atom    1 type  1   force =     0.00060007    0.00034603   -0.00144706
     atom    2 type  1   force =    -0.00059666    0.00034983   -0.00155252
     atom    3 type  1   force =     0.00000146   -0.00069023   -0.00158014
     atom    4 type  1   force =    -0.00000424   -0.00000193    0.00001988
     atom    5 type  1   force =     0.00000387    0.00116976   -0.00092149
     atom    6 type  1   force =    -0.00000187   -0.00000183   -0.00287763
     atom    7 type  1   force =    -0.00101278   -0.00058168   -0.00092525
     atom    8 type  1   force =     0.00101772   -0.00058350   -0.00093109
     atom    9 type  1   force =    -0.00000186   -0.00000414   -0.00381411
     atom   10 type  1   force =     0.00000497    0.00845268    0.01615962
     atom   11 type  1   force =     0.00732387   -0.00422265    0.01615455
     atom   12 type  1   force =    -0.00733581   -0.00423365    0.01611886
     atom   13 type  2   force =     0.00000126    0.00000132   -0.03440362

     Total force =     0.046848     Total SCF correction =     0.001578

     entering subroutine stress ...

     negative rho (up, down):  9.415E-01 0.000E+00
          total   stress  (Ry/bohr**3)                   (kbar)     P=   -9.80
  -0.00009272   0.00000000   0.00000000        -13.64      0.00      0.00
   0.00000000  -0.00009272   0.00000000          0.00    -13.64      0.00
   0.00000000   0.00000000  -0.00001439          0.00      0.00     -2.12

     BFGS Geometry Optimization

     number of scf cycles    =   1
     number of bfgs steps    =   0

     energy   new            =   -2398.5986608306 Ry

     new trust radius        =       0.0344036166 bohr
     new conv_thr            =       0.0000099958 Ry

ATOMIC_POSITIONS (crystal)
Pd1      0.166666667   0.166666667   0.406452311    0   0   0
Pd1      0.666666667   0.166666667   0.406452311    0   0   0
Pd1      0.166666667   0.666666667   0.406452311    0   0   0
Pd1      0.666666667   0.666666667   0.406452311    0   0   0
Pd1      0.833333333   0.333333333   0.500000000    0   0   0
Pd1      0.333333333   0.333333333   0.500000000    0   0   0
Pd1      0.833333333   0.833333333   0.500000000    0   0   0
Pd1      0.333333333   0.833333333   0.500000000    0   0   0
Pd1      0.000000050  -0.000000449   0.593465653
Pd1      0.499542392   0.000916149   0.593895259
Pd1      0.000916290   0.499542325   0.593895150
Pd1      0.499540861   0.499541133   0.593894382
H1       0.333333380   0.333333477   0.637720698

     Writing output data file calc.save
     Check: negative starting charge=   -0.904216
     NEW-OLD atomic charge density approx. for the potential
     Check: negative starting charge=   -0.903886

[...]

     Total force =     0.040700     Total SCF correction =     0.004615
     SCF correction compared to forces is large: reduce conv_thr to get better values

[...]

     energy   old            =   -2398.5986608306 Ry
     energy   new            =   -2398.6006924183 Ry

     CASE: energy  _new < energy  _old

     WARNING: bfgs curvature condition failed, Theta= 0.926
     new trust radius        =       0.0378439783 bohr
     new conv_thr            =       0.0000001000 Ry

[...]

     Threshold (ethr) on eigenvalues was too large:
     Diagonalizing with lowered threshold

     Davidson diagonalization with overlap
     ethr =  9.42E-08,  avg # of iterations =  1.0

[...]

     Total force =     0.006540     Total SCF correction =     0.000170

[...]

     number of scf cycles    =  12
     number of bfgs steps    =  11

     energy   old            =   -2398.6087464083 Ry
     energy   new            =   -2398.6088889544 Ry

     CASE: energy  _new < energy  _old

     new trust radius        =       0.0368468277 bohr
     new conv_thr            =       0.0000001000 Ry

ATOMIC_POSITIONS (crystal)
Pd1      0.166666667   0.166666667   0.406452311    0   0   0
Pd1      0.666666667   0.166666667   0.406452311    0   0   0
Pd1      0.166666667   0.666666667   0.406452311    0   0   0
Pd1      0.666666667   0.666666667   0.406452311    0   0   0
Pd1      0.833333333   0.333333333   0.500000000    0   0   0
Pd1      0.333333333   0.333333333   0.500000000    0   0   0
Pd1      0.833333333   0.833333333   0.500000000    0   0   0
Pd1      0.333333333   0.833333333   0.500000000    0   0   0
Pd1      0.000000768  -0.000002328   0.592634255
Pd1      0.501787401  -0.003578191   0.595079761
Pd1     -0.003578227   0.501788101   0.595080593
Pd1      0.501787085   0.501787547   0.595079990
H1       0.333331982   0.333331256   0.627587247

     Writing output data file calc.save
     Check: negative starting charge=   -0.910511
     NEW-OLD atomic charge density approx. for the potential
     Check: negative starting charge=   -0.909702

[...]

     Self-consistent Calculation

[...]

     total energy              =   -2398.60899991 Ry
     Harris-Foulkes estimate   =   -2398.60899990 Ry
     estimated scf accuracy    <       0.00000035 Ry

     iteration # 12     ecut=    36.75 Ry     beta=0.30
     Davidson diagonalization with overlap
     ethr =  1.82E-10,  avg # of iterations =  1.0

[...]

     negative rho (up, down):  9.475E-01 0.000E+00

     Adding external electric field

     Computed dipole along edir(3) :
        Dipole               -0.0342 Ry au,         -0.0869 Debye
        Dipole field         -0.0001 Ry au

        Potential amp.        0.0085 Ry
        Total length         45.3309 bohr

     End of self-consistent calculation

[...]

          k = 0.0591-0.0683 0.0000 ( 17183 PWs)   bands (ev):

[...]

          k =-0.0887-0.0512 0.0000 ( 17240 PWs)   bands (ev):

   -49.0119 -49.0033 -49.0014 -48.9516 -48.9398 -48.9346 -48.9273 -48.9242
   -48.9204 -48.9110 -48.9022 -48.8987 -48.8644 -48.8411 -48.8325 -48.8292
   -48.8030 -48.7720 -48.7701 -48.7511 -48.7256 -48.7115 -48.7019 -48.6948
   -48.6882 -48.6713 -48.6220 -48.6185 -48.6121 -48.6034 -48.5947 -48.5386
   -48.5027 -48.4884 -48.4825 -48.4787  -5.1222  -3.5079  -3.4254  -2.9790
    -2.8942  -2.8680  -2.8434  -2.7426  -2.7401  -2.6355  -2.5832  -2.5107
    -2.5071  -2.3821  -2.3727  -2.2589  -2.1644  -1.9643  -1.9370  -1.9256
    -1.8621  -1.8458  -1.8358  -1.6332  -1.5848  -1.3832  -1.3386  -1.3024
    -1.2569  -1.2071  -1.1613  -1.0617  -1.0478  -1.0277  -0.9962  -0.9848
    -0.9696  -0.9400  -0.8917  -0.8541  -0.6367  -0.5908  -0.5007  -0.4843
    -0.4821  -0.4286  -0.3585  -0.2779  -0.2596  -0.2429  -0.1774  -0.1636
     0.0981   0.1098   0.1475   0.1828   0.5126   0.5604   0.5906   0.6416
     0.6798   0.7122   0.8569   0.8775   2.4599   3.0536   3.2899   3.3159
     3.9962   4.3048

     the Fermi energy is     0.8262 ev

!    total energy              =   -2398.60899991 Ry
     Harris-Foulkes estimate   =   -2398.60899973 Ry
     estimated scf accuracy    <       0.00000003 Ry

     The total energy is the sum of the following terms:

     one-electron contribution =  -20169.03846969 Ry
     hartree contribution      =   10133.32704554 Ry
     xc contribution           =    -390.89055773 Ry
     ewald contribution        =    8028.10971690 Ry
     electric field correction =       0.00000321 Ry
     smearing contrib. (-TS)   =      -0.11673814 Ry

     convergence has been achieved in  12 iterations

 BEEF-vdW xc energy contributions
           1 :   -340.357336090515
           2 :    311.020422424346
           3 :   -260.967880743019
           4 :    203.680069460340
           5 :   -152.223859166983
           6 :    114.911715973478
           7 :   -93.4913186436542
           8 :    84.1688622048991
           9 :   -80.5771828373759
          10 :    77.0847063670137
          11 :   -70.9488091045674
          12 :    62.5900640467046
          13 :   -54.2874156618094
          14 :    48.2924862791111
          15 :   -45.4558100480994
          16 :    44.9601603444862
          17 :   -45.0585507778201
          18 :    44.1997925727117
          19 :   -41.8373818234533
          20 :    38.5181587393313
          21 :   -35.3336886524271
          22 :    33.1619941933836
          23 :   -32.1737166335138
          24 :    31.8418679278857
          25 :   -31.3689252952584
          26 :    30.2135035103453
          27 :   -28.3866602738560
          28 :    26.3659165468423
          29 :   -24.7281900782304
          30 :    23.7622030652291
          31 :   -33.1277862797824
          32 :   -24.4654709235016

     Forces acting on atoms (Ry/au):

     negative rho (up, down):  9.475E-01 0.000E+00
     atom    1 type  1   force =     0.00061281    0.00034800   -0.00128420
     atom    2 type  1   force =    -0.00061269    0.00034874   -0.00128365
     atom    3 type  1   force =     0.00000053   -0.00070245   -0.00128067
     atom    4 type  1   force =    -0.00000051    0.00000556    0.00012019
     atom    5 type  1   force =    -0.00000162    0.00242068    0.00043697
     atom    6 type  1   force =     0.00000144    0.00000235    0.00267909
     atom    7 type  1   force =    -0.00209513   -0.00121088    0.00043579
     atom    8 type  1   force =     0.00209475   -0.00121232    0.00043692
     atom    9 type  1   force =    -0.00000079   -0.00000340    0.00014442
     atom   10 type  1   force =     0.00000023    0.00188775    0.00021449
     atom   11 type  1   force =     0.00163830   -0.00094209    0.00022028
     atom   12 type  1   force =    -0.00163859   -0.00094163    0.00021899
     atom   13 type  2   force =     0.00000127   -0.00000029   -0.00105863

     Total force =     0.003463     Total SCF correction =     0.000565
     SCF correction compared to forces is large: reduce conv_thr to get better values

     entering subroutine stress ...

     negative rho (up, down):  9.475E-01 0.000E+00
          total   stress  (Ry/bohr**3)                   (kbar)     P=   -8.96
  -0.00008456   0.00000000  -0.00000000        -12.44      0.00     -0.00
   0.00000000  -0.00008457   0.00000000          0.00    -12.44      0.00
  -0.00000000   0.00000000  -0.00001359         -0.00      0.00     -2.00

     bfgs converged in  13 scf cycles and  12 bfgs steps
     (criteria: energy <  1.0E+00, force <  1.9E-03)

     End of BFGS Geometry Optimization

     Final energy   =   -2398.6089999133 Ry
Begin final coordinates

ATOMIC_POSITIONS (crystal)
Pd1      0.166666667   0.166666667   0.406452311    0   0   0
Pd1      0.666666667   0.166666667   0.406452311    0   0   0
Pd1      0.166666667   0.666666667   0.406452311    0   0   0
Pd1      0.666666667   0.666666667   0.406452311    0   0   0
Pd1      0.833333333   0.333333333   0.500000000    0   0   0
Pd1      0.333333333   0.333333333   0.500000000    0   0   0
Pd1      0.833333333   0.833333333   0.500000000    0   0   0
Pd1      0.333333333   0.833333333   0.500000000    0   0   0
Pd1      0.000000768  -0.000002328   0.592634255
Pd1      0.501787401  -0.003578191   0.595079761
Pd1     -0.003578227   0.501788101   0.595080593
Pd1      0.501787085   0.501787547   0.595079990
H1       0.333331982   0.333331256   0.627587247
End final coordinates

     Writing output data file calc.save

     General routines

     Parallel routines

   This run was terminated on:   9:25:53   3May2018

   JOB DONE.
Job  /afs/slac/g/suncat/bin/suncat-tsmpirun -x LD_LIBRARY_PATH -wdir /scratch/qe678648_rp252 pw.x -npool 4 -in pw.inp

TID   HOST_NAME   COMMAND_LINE            STATUS            TERMINATION_TIME
00000 suncat0071 pw.x -npool 4 -i  Done                     05/03/2018 09:25:53
00001 suncat0071 pw.x -npool 4 -i  Done                     05/03/2018 09:25:53
00002 suncat0071 pw.x -npool 4 -i  Done                     05/03/2018 09:25:53
00003 suncat0071 pw.x -npool 4 -i  Done                     05/03/2018 09:25:53
00004 suncat0071 pw.x -npool 4 -i  Done                     05/03/2018 09:25:53
00005 suncat0071 pw.x -npool 4 -i  Done                     05/03/2018 09:25:53
00006 suncat0071 pw.x -npool 4 -i  Done                     05/03/2018 09:25:53
00007 suncat0071 pw.x -npool 4 -i  Done                     05/03/2018 09:25:53
00008 suncat0069 pw.x -npool 4 -i  Done                     05/03/2018 09:25:53
00009 suncat0069 pw.x -npool 4 -i  Done                     05/03/2018 09:25:53
00010 suncat0069 pw.x -npool 4 -i  Done                     05/03/2018 09:25:53
00011 suncat0069 pw.x -npool 4 -i  Done                     05/03/2018 09:25:53
00012 suncat0069 pw.x -npool 4 -i  Done                     05/03/2018 09:25:53
00013 suncat0069 pw.x -npool 4 -i  Done                     05/03/2018 09:25:53
00014 suncat0069 pw.x -npool 4 -i  Done                     05/03/2018 09:25:53
00015 suncat0069 pw.x -npool 4 -i  Done                     05/03/2018 09:25:53
00016 suncat0002 pw.x -npool 4 -i  Done                     05/03/2018 09:25:53
00017 suncat0002 pw.x -npool 4 -i  Done                     05/03/2018 09:25:53
00018 suncat0002 pw.x -npool 4 -i  Done                     05/03/2018 09:25:53
00019 suncat0002 pw.x -npool 4 -i  Done                     05/03/2018 09:25:53
00020 suncat0002 pw.x -npool 4 -i  Done                     05/03/2018 09:25:53
00021 suncat0002 pw.x -npool 4 -i  Done                     05/03/2018 09:25:53
00022 suncat0002 pw.x -npool 4 -i  Done                     05/03/2018 09:25:53
00023 suncat0002 pw.x -npool 4 -i  Done                     05/03/2018 09:25:53
00024 suncat0185 pw.x -npool 4 -i  Done                     05/03/2018 09:25:53
00025 suncat0185 pw.x -npool 4 -i  Done                     05/03/2018 09:25:53
00026 suncat0185 pw.x -npool 4 -i  Done                     05/03/2018 09:25:53
00027 suncat0185 pw.x -npool 4 -i  Done                     05/03/2018 09:25:53
00028 suncat0185 pw.x -npool 4 -i  Done                     05/03/2018 09:25:53
00029 suncat0185 pw.x -npool 4 -i  Done                     05/03/2018 09:25:53
00030 suncat0185 pw.x -npool 4 -i  Done                     05/03/2018 09:25:53
00031 suncat0185 pw.x -npool 4 -i  Done                     05/03/2018 09:25:53