     Program PWSCF v.5.1rc2 (svn rev. ) starts on 16Apr2018 at 11:32:27

     Current dimensions of program PWSCF are:
     Max number of different atomic species (ntypx) = 10
     Max number of k-points (npk) =  40000
     Max angular momentum in pseudopotentials (lmaxx) =  3
     Presently stress not available with electric field

     IMPORTANT: XC functional enforced from input :
     Exchange-correlation      = BEEF-VDW ( 1  4 27 13 2)
     Any further DFT definition will be discarded
     Please, verify this is what you really want

     Subspace diagonalization in iterative solution of the eigenvalue problem:
     a serial algorithm will be used

     bravais-lattice index     =            0
     lattice parameter (alat)  =       1.8897  a.u.
     unit-cell volume          =    4650.5773 (a.u.)^3
     number of atoms/cell      =           14
     number of atomic types    =            3
     number of electrons       =        43.00
     number of Kohn-Sham states=           31
     kinetic-energy cutoff     =      36.7493  Ry
     charge density cutoff     =     367.4932  Ry
     convergence threshold     =      1.0E-05
     mixing beta               =       0.3000
     number of iterations used =           10  plain     mixing
     Exchange-correlation      = BEEF-VDW ( 1  4 27 13 2)
     nstep                     =           50

     celldm(1)=   1.889726  celldm(2)=   0.000000  celldm(3)=   0.000000
     celldm(4)=   0.000000  celldm(5)=   0.000000  celldm(6)=   0.000000

     crystal axes: (cart. coord. in units of alat)
               a(1) = (   5.682886   0.000000   0.000000 )
               a(2) = (   2.841443   4.921524   0.000000 )
               a(3) = (   0.000000   0.000000  24.640057 )

     reciprocal axes: (cart. coord. in units 2 pi/alat)
               b(1) = (  0.175967 -0.101595  0.000000 )
               b(2) = (  0.000000  0.203189  0.000000 )
               b(3) = (  0.000000  0.000000  0.040584 )

     PseudoPot. # 1 for Al read from file:
     /home/mamunm/src/pseudo/gbrv1.5pbe/Al.UPF
     MD5 check sum: 0a6289f5291fc8f409219462bc851e1f
     Pseudo is Ultrasoft + core correction, Zval =  3.0
     Generated by new atomic code, or converted to UPF format
     Using radial grid of  893 points,  3 beta functions with:
                l(1) =   0
                l(2) =   1
                l(3) =   2
     Q(r) pseudized with  8 coefficients,  rinner =    0.900   0.900   0.900
                                                       0.900   0.900

     PseudoPot. # 2 for S  read from file:
     /home/mamunm/src/pseudo/gbrv1.5pbe/S.UPF
     MD5 check sum: 88d86576ff6df21479756cfb9bdac1df
     Pseudo is Ultrasoft + core correction, Zval =  6.0
     Generated by new atomic code, or converted to UPF format
     Using radial grid of  907 points,  6 beta functions with:
                l(1) =   0
                l(2) =   0
                l(3) =   1
                l(4) =   1
                l(5) =   2
                l(6) =   2
     Q(r) pseudized with  8 coefficients,  rinner =    1.300   1.300   1.300
                                                       1.300   1.300

     PseudoPot. # 3 for H  read from file:
     /home/mamunm/src/pseudo/gbrv1.5pbe/H.UPF
     MD5 check sum: 761ae9a214b05c3daf00ab9f6b793d6f
     Pseudo is Ultrasoft, Zval =  1.0
     Generated by new atomic code, or converted to UPF format
     Using radial grid of  615 points,  2 beta functions with:
                l(1) =   0
                l(2) =   0
     Q(r) pseudized with  8 coefficients,  rinner =    0.700

     vdW kernel table read from file vdW_kernel_table
     MD5 check sum: 095c7af220d748ca6e76c0b4c6cfb241

     atomic species   valence    mass     pseudopotential
        Al1            3.00    26.98154     Al( 1.00)
        S1             6.00    32.06000     S ( 1.00)
        H1             1.00     1.00800     H ( 1.00)

     No symmetry found

   Cartesian axes

     site n.     atom                  positions (alat units)
         1           Al1 tau(   1) = (   1.4207216   0.8202540  10.0000000  )
         2           Al1 tau(   2) = (   4.2621647   0.8202540  10.0000000  )
         3           Al1 tau(   3) = (   2.8414431   3.2810159  10.0000000  )
         4           Al1 tau(   4) = (   5.6828862   3.2810159  10.0000000  )
         5           Al1 tau(   5) = (   5.6828862   1.6405079  12.3200286  )
         6           Al1 tau(   6) = (   2.8414431   1.6405079  12.3200286  )
         7           Al1 tau(   7) = (   7.1036078   4.1012699  12.3200286  )
         8           Al1 tau(   8) = (   4.2621647   4.1012699  12.3200286  )
         9           Al1 tau(   9) = (   0.0000000   0.0000000  14.6400572  )
        10           Al1 tau(  10) = (   2.8414431   0.0000000  14.6400572  )
        11           Al1 tau(  11) = (   1.4207216   2.4607619  14.6400572  )
        12           Al1 tau(  12) = (   4.2621647   2.4607619  14.6400572  )
        13           S1  tau(  13) = (   2.8414431   1.6405079  16.1090572  )
        14           H1  tau(  14) = (   2.8414431   1.6405079  17.3590572  )

     number of k points=    20  Fermi-Dirac smearing, width (Ry)=  0.0110
                       cart. coord. in units 2pi/alat
        k(    1) = (   0.0000000   0.0000000   0.0000000), wk =   0.0555556
        k(    2) = (   0.0000000   0.0338648   0.0000000), wk =   0.1111111
        k(    3) = (   0.0000000   0.0677297   0.0000000), wk =   0.1111111
        k(    4) = (   0.0000000  -0.1015945   0.0000000), wk =   0.0555556
        k(    5) = (   0.0293278  -0.0169324   0.0000000), wk =   0.1111111
        k(    6) = (   0.0293278   0.0169324   0.0000000), wk =   0.1111111
        k(    7) = (   0.0293278   0.0507973   0.0000000), wk =   0.1111111
        k(    8) = (   0.0293278  -0.1185270   0.0000000), wk =   0.1111111
        k(    9) = (   0.0293278  -0.0846621   0.0000000), wk =   0.1111111
        k(   10) = (   0.0293278  -0.0507973   0.0000000), wk =   0.1111111
        k(   11) = (   0.0586556  -0.0338648   0.0000000), wk =   0.1111111
        k(   12) = (   0.0586556   0.0000000   0.0000000), wk =   0.1111111
        k(   13) = (   0.0586556   0.0338648   0.0000000), wk =   0.1111111
        k(   14) = (   0.0586556  -0.1354594   0.0000000), wk =   0.1111111
        k(   15) = (   0.0586556  -0.1015945   0.0000000), wk =   0.1111111
        k(   16) = (   0.0586556  -0.0677297   0.0000000), wk =   0.1111111
        k(   17) = (  -0.0879835   0.0507973   0.0000000), wk =   0.0555556
        k(   18) = (  -0.0879835   0.0846621   0.0000000), wk =   0.1111111
        k(   19) = (  -0.0879835   0.1185270   0.0000000), wk =   0.1111111
        k(   20) = (  -0.0879835  -0.0507973   0.0000000), wk =   0.0555556

     Largest allocated arrays     est. size (Mb)     dimensions
     Largest temporary arrays     est. size (Mb)     dimensions

     Initial potential from superposition of free atoms
     Check: negative starting charge=   -0.000139

     starting charge   42.97037, renormalised to   43.00000

     negative rho (up, down):  1.395E-04 0.000E+00

     *
     * You are using vdW-DF for exchange-correlation in this calculation.
     * Please cite the following three references that made this development
     * possible:
     *
     *   M. Dion, H. Rydberg, E. Schroder, D. C. Langreth, and
     *   B. I. Lundqvist, Phys. Rev. Lett. 92, 246401 (2004).
     *
     *   T. Thonhauser, V. R. Cooper, S. Li, A. Puzder, P. Hyldgaard, and
     *   D. C. Langreth, Phys. Rev. B 76, 125112 (2007).
     *
     *   G. Roman-Perez and J. M. Soler, Phys. Rev. Lett. 103, 096102 (2009).
     *
     *
     * If you are using vdW-DF2, please also cite:
     *
     *   K. Lee, E. D. Murray, L. Kong, B. I. Lundqvist, and
     *   D. C. Langreth, Phys. Rev. B 82, 081101(R) (2010).
     *
     *
     * If you are calculating the stress with vdW-DF, please also cite:
     *
     *   R. Sabatini, E. Kucukbenli, B. Kolb, T. Thonhauser, and
     *   S. de Gironcoli, J. Phys.: Condens. Matter 24, 424209 (2012).
     *

     Carrying out vdW-DF run using the following parameters:

     Nqs =      20    Nr_points =    1024   r_max =   100.000
     q_mesh =
               0.00001000     0.04494208     0.09755937     0.15916263
               0.23128650     0.31572767     0.41458969     0.53033537
               0.66584808     0.82450364     1.01025438     1.22772762
               1.48234092     1.78043706     2.12944203     2.53805004
               3.01644009     3.57652955     4.23227104     5.00000000

     Gradients computed in reciprocal space

     Adding external electric field

     Computed dipole along edir(3) :
        Dipole               -0.0358 Ry au,         -0.0911 Debye
        Dipole field         -0.0001 Ry au

        Potential amp.        0.0088 Ry
        Total length         45.3989 bohr

     Starting wfc are   53 randomized atomic wfcs

     Self-consistent Calculation

     iteration #  1     ecut=    36.75 Ry     beta=0.30
     Davidson diagonalization with overlap
     ethr =  1.00E-02,  avg # of iterations =  4.0

[...]

     total energy              =    -107.61282788 Ry
     Harris-Foulkes estimate   =    -108.13143224 Ry
     estimated scf accuracy    <       1.20441629 Ry

[...]

     End of self-consistent calculation

          k = 0.0000 0.0000 0.0000 ( 17579 PWs)   bands (ev):

   -16.6627 -10.8667  -9.9562  -8.2213  -6.5638  -6.5638  -5.8067  -4.6508
    -4.6284  -4.6284  -4.4863  -4.4863  -4.4145  -3.3926  -3.3570  -3.3570
    -2.7079  -2.2484  -2.2484  -2.1146  -0.4330  -0.3331  -0.3331  -0.1410
     0.4184   0.4184   0.8877   1.8854   2.3251   2.3251   2.4411

[...]

          k =-0.0880 0.0508 0.0000 ( 17464 PWs)   bands (ev):

[...]

     the Fermi energy is     0.0672 ev

!    total energy              =    -107.93378332 Ry
     Harris-Foulkes estimate   =    -107.93378398 Ry
     estimated scf accuracy    <       0.00000156 Ry

     The total energy is the sum of the following terms:

     one-electron contribution =    -787.76344879 Ry
     hartree contribution      =     403.03654070 Ry
     xc contribution           =     -63.00946819 Ry
     ewald contribution        =     339.83442271 Ry
     electric field correction =       0.00034032 Ry
     smearing contrib. (-TS)   =      -0.03217007 Ry

     convergence has been achieved in  10 iterations

 BEEF-vdW xc energy contributions
           1 :   -51.9105957543248
           2 :    44.6668639752785
           3 :   -33.4571465642725
           4 :    22.5761724987240
           5 :   -14.8512106801157
           6 :    10.6264893672998
           7 :   -8.48816324638499
           8 :    6.83867774441626
           9 :   -5.05387114101359
          10 :    3.50112932447896
          11 :   -2.72695602703577
          12 :    2.71729357225463
          13 :   -2.87870608088235
          14 :    2.61968525732012
          15 :   -1.88133137294992
          16 :    1.10922906708274
          17 :  -0.758721179093421
          18 :   0.855037068185332
          19 :   -1.01524260100045
          20 :   0.851776552574371
          21 :  -0.332635986113196
          22 :  -0.232681715066740
          23 :   0.519269172652308
          24 :  -0.481301427562201
          25 :   0.346096516726021
          26 :  -0.356076651307880
          27 :   0.535874117896384
          28 :  -0.704285247506924
          29 :   0.688659313038748
          30 :  -0.508246910902095
          31 :   -7.59686538208619
          32 :   -5.52057729725905

     Forces acting on atoms (Ry/au):

     negative rho (up, down):  3.340E-04 0.000E+00
     atom    1 type  1   force =    -0.00366435   -0.00211559   -0.00111503
     atom    2 type  1   force =     0.00366435   -0.00211575   -0.00111483
     atom    3 type  1   force =    -0.00000006    0.00423137   -0.00111458
     atom    4 type  1   force =     0.00000021   -0.00000009   -0.00642196
     atom    5 type  1   force =     0.00000057   -0.00008931   -0.00047681
     atom    6 type  1   force =     0.00000003   -0.00000019    0.01850166
     atom    7 type  1   force =     0.00007723    0.00004508   -0.00047663
     atom    8 type  1   force =    -0.00007678    0.00004510   -0.00047672
     atom    9 type  1   force =     0.00000022    0.00000011   -0.02195858
     atom   10 type  1   force =     0.00000004   -0.07957508   -0.05371047
     atom   11 type  1   force =    -0.06891417    0.03978774   -0.05371091
     atom   12 type  1   force =     0.06891416    0.03978789   -0.05371070
     atom   13 type  2   force =    -0.00000152   -0.00000085    0.00984032
     atom   14 type  3   force =     0.00000007   -0.00000043    0.16594523

     Total force =     0.236153     Total SCF correction =     0.001055

     entering subroutine stress ...

     negative rho (up, down):  3.340E-04 0.000E+00
          total   stress  (Ry/bohr**3)                   (kbar)     P=   10.40
   0.00001007   0.00000000  -0.00000000          1.48      0.00     -0.00
   0.00000000   0.00001007  -0.00000000          0.00      1.48     -0.00
  -0.00000000  -0.00000000   0.00019205         -0.00     -0.00     28.25

     BFGS Geometry Optimization

     number of scf cycles    =   1
     number of bfgs steps    =   0

     energy   new            =    -107.9337833153 Ry

     new trust radius        =       0.1659452292 bohr
     new conv_thr            =       0.0000099958 Ry

ATOMIC_POSITIONS (crystal)
Al1      0.166666667   0.166666667   0.405843214    0   0   0
Al1      0.666666667   0.166666667   0.405843214    0   0   0
Al1      0.166666667   0.666666667   0.405843214    0   0   0
Al1      0.666666667   0.666666667   0.405843214    0   0   0
Al1      0.833333333   0.333333333   0.500000000    0   0   0
Al1      0.333333333   0.333333333   0.500000000    0   0   0
Al1      0.833333333   0.833333333   0.500000000    0   0   0
Al1      0.333333333   0.833333333   0.500000000    0   0   0
Al1      0.000000014   0.000000012   0.593685197
Al1      0.504278081  -0.008556154   0.593003284
Al1     -0.008556177   0.504278099   0.593003274
Al1      0.504278070   0.504278115   0.593003279
S1       0.333333238   0.333333241   0.653986488
H1       0.333333362   0.333333287   0.708069445

     Writing output data file calc.save
     Check: negative starting charge=   -0.000139
     NEW-OLD atomic charge density approx. for the potential
     Check: negative starting charge=   -0.000140

[...]

     energy   old            =    -107.9337833153 Ry
     energy   new            =    -107.9761697894 Ry

     CASE: energy  _new < energy  _old

[...]

     number of scf cycles    =  14
     number of bfgs steps    =  13

     energy   old            =    -108.0425482314 Ry
     energy   new            =    -108.0433116147 Ry

     CASE: energy  _new < energy  _old

     new trust radius        =       0.0212583917 bohr
     new conv_thr            =       0.0000001000 Ry

ATOMIC_POSITIONS (crystal)
Al1      0.166666667   0.166666667   0.405843214    0   0   0
Al1      0.666666667   0.166666667   0.405843214    0   0   0
Al1      0.166666667   0.666666667   0.405843214    0   0   0
Al1      0.666666667   0.666666667   0.405843214    0   0   0
Al1      0.833333333   0.333333333   0.500000000    0   0   0
Al1      0.333333333   0.333333333   0.500000000    0   0   0
Al1      0.833333333   0.833333333   0.500000000    0   0   0
Al1      0.333333333   0.833333333   0.500000000    0   0   0
Al1     -0.000000099  -0.000000048   0.590055356
Al1      0.503488484  -0.006977580   0.597016746
Al1     -0.006977795   0.503488688   0.597016714
Al1      0.503488627   0.503488830   0.597016695
S1       0.333333219   0.333333327   0.680479055
H1       0.333333777   0.333332865   0.736395306

     Writing output data file calc.save
     Check: negative starting charge=   -0.000116
     NEW-OLD atomic charge density approx. for the potential
     Check: negative starting charge=   -0.000115

[...]

     Self-consistent Calculation

[...]

     total energy              =    -108.04339717 Ry
     Harris-Foulkes estimate   =    -108.04339703 Ry
     estimated scf accuracy    <       0.00000044 Ry

     iteration #  7     ecut=    36.75 Ry     beta=0.30
     Davidson diagonalization with overlap
     ethr =  1.01E-09,  avg # of iterations =  2.0

[...]

     negative rho (up, down):  3.125E-04 0.000E+00

     Adding external electric field

     Computed dipole along edir(3) :
        Dipole                0.0286 Ry au,          0.0728 Debye
        Dipole field          0.0001 Ry au

        Potential amp.       -0.0070 Ry
        Total length         45.3989 bohr

     End of self-consistent calculation

[...]

          k = 0.0587-0.0677 0.0000 ( 17495 PWs)   bands (ev):

[...]

          k =-0.0880-0.0508 0.0000 ( 17464 PWs)   bands (ev):

   -14.2407  -9.5611  -9.5261  -8.2967  -7.9330  -7.0475  -6.5525  -6.4089
    -5.4811  -5.1303  -5.0122  -4.3235  -3.6217  -3.5150  -2.4128  -1.9899
    -1.5915  -1.3726  -0.8317  -0.8062  -0.5559  -0.4239   0.5367   0.6537
     0.8664   1.2027   1.2582   1.3102   1.6522   1.7801   2.3627

     the Fermi energy is    -0.4061 ev

!    total energy              =    -108.04339720 Ry
     Harris-Foulkes estimate   =    -108.04339714 Ry
     estimated scf accuracy    <       0.00000004 Ry

     The total energy is the sum of the following terms:

     one-electron contribution =    -733.76161646 Ry
     hartree contribution      =     375.88398275 Ry
     xc contribution           =     -62.62674440 Ry
     ewald contribution        =     312.49131394 Ry
     electric field correction =       0.00000221 Ry
     smearing contrib. (-TS)   =      -0.03033525 Ry

     convergence has been achieved in   7 iterations

 BEEF-vdW xc energy contributions
           1 :   -51.5369382833315
           2 :    44.1980036555120
           3 :   -32.9010027807061
           4 :    22.0242489711343
           5 :   -14.3997054062770
           6 :    10.3200029846621
           7 :   -8.31433057553056
           8 :    6.76740845894328
           9 :   -5.06972014817636
          10 :    3.59696447064412
          11 :   -2.87615511680998
          12 :    2.86298824378138
          13 :   -2.95830100166126
          14 :    2.60340068466624
          15 :   -1.78809818901529
          16 :   0.985196372442935
          17 :  -0.639075915516273
          18 :   0.744871905197527
          19 :  -0.903432262824026
          20 :   0.738890673112131
          21 :  -0.242423033090176
          22 :  -0.268683916001230
          23 :   0.486926967642056
          24 :  -0.395216312114670
          25 :   0.239601784512537
          26 :  -0.261250681373134
          27 :   0.471102252205682
          28 :  -0.675807477010281
          29 :   0.697982542681409
          30 :  -0.554872514762067
          31 :   -7.56905500039289
          32 :   -5.47000121040807

     Forces acting on atoms (Ry/au):

     negative rho (up, down):  3.125E-04 0.000E+00
     atom    1 type  1   force =    -0.00149454   -0.00086287   -0.00073318
     atom    2 type  1   force =     0.00149456   -0.00086289   -0.00073319
     atom    3 type  1   force =    -0.00000001    0.00172576   -0.00073317
     atom    4 type  1   force =     0.00000004   -0.00000002   -0.00352542
     atom    5 type  1   force =     0.00000001    0.00422955   -0.00195736
     atom    6 type  1   force =     0.00000000   -0.00000004    0.01329905
     atom    7 type  1   force =    -0.00366293   -0.00211478   -0.00195731
     atom    8 type  1   force =     0.00366290   -0.00211477   -0.00195738
     atom    9 type  1   force =    -0.00000011   -0.00000001    0.00022370
     atom   10 type  1   force =     0.00000020   -0.00020353   -0.00090978
     atom   11 type  1   force =    -0.00017623    0.00010195   -0.00090984
     atom   12 type  1   force =     0.00017627    0.00010172   -0.00090972
     atom   13 type  2   force =    -0.00000010    0.00000002    0.00116545
     atom   14 type  3   force =    -0.00000004   -0.00000008   -0.00036185

     Total force =     0.002036     Total SCF correction =     0.000178

     entering subroutine stress ...

     negative rho (up, down):  3.125E-04 0.000E+00
          total   stress  (Ry/bohr**3)                   (kbar)     P=   -6.60
  -0.00006947   0.00000000   0.00000000        -10.22      0.00      0.00
   0.00000000  -0.00006947  -0.00000000          0.00    -10.22     -0.00
   0.00000000  -0.00000000   0.00000433          0.00     -0.00      0.64

     bfgs converged in  15 scf cycles and  14 bfgs steps
     (criteria: energy <  1.0E+00, force <  1.9E-03)

     End of BFGS Geometry Optimization

     Final energy   =    -108.0433971988 Ry
Begin final coordinates

ATOMIC_POSITIONS (crystal)
Al1      0.166666667   0.166666667   0.405843214    0   0   0
Al1      0.666666667   0.166666667   0.405843214    0   0   0
Al1      0.166666667   0.666666667   0.405843214    0   0   0
Al1      0.666666667   0.666666667   0.405843214    0   0   0
Al1      0.833333333   0.333333333   0.500000000    0   0   0
Al1      0.333333333   0.333333333   0.500000000    0   0   0
Al1      0.833333333   0.833333333   0.500000000    0   0   0
Al1      0.333333333   0.833333333   0.500000000    0   0   0
Al1     -0.000000099  -0.000000048   0.590055356
Al1      0.503488484  -0.006977580   0.597016746
Al1     -0.006977795   0.503488688   0.597016714
Al1      0.503488627   0.503488830   0.597016695
S1       0.333333219   0.333333327   0.680479055
H1       0.333333777   0.333332865   0.736395306
End final coordinates

     Writing output data file calc.save

     General routines

     Parallel routines

   This run was terminated on:  11:51:35  16Apr2018

   JOB DONE.