     Program PWSCF v.5.1rc2 (svn rev. 11289) starts on  3May2018 at  1: 8:30

     Current dimensions of program PWSCF are:
     Max number of different atomic species (ntypx) = 10
     Max number of k-points (npk) =  40000
     Max angular momentum in pseudopotentials (lmaxx) =  3
     Presently stress not available with electric field

     IMPORTANT: XC functional enforced from input :
     Exchange-correlation      = BEEF-VDW ( 1  4 27 13 2)
     Any further DFT definition will be discarded
     Please, verify this is what you really want

     Subspace diagonalization in iterative solution of the eigenvalue problem:
     a serial algorithm will be used

     bravais-lattice index     =            0
     lattice parameter (alat)  =       1.8897  a.u.
     unit-cell volume          =    7725.1200 (a.u.)^3
     number of atoms/cell      =           13
     number of atomic types    =            2
     number of electrons       =       138.00
     number of Kohn-Sham states=           79
     kinetic-energy cutoff     =      36.7493  Ry
     charge density cutoff     =     367.4932  Ry
     convergence threshold     =      1.0E-05
     mixing beta               =       0.3000
     number of iterations used =           10  plain     mixing
     Exchange-correlation      = BEEF-VDW ( 1  4 27 13 2)
     nstep                     =           50

     celldm(1)=   1.889726  celldm(2)=   0.000000  celldm(3)=   0.000000
     celldm(4)=   0.000000  celldm(5)=   0.000000  celldm(6)=   0.000000

     crystal axes: (cart. coord. in units of alat)
               a(1) = (   7.152277   0.000000   0.000000 )
               a(2) = (   3.576139   6.194054   0.000000 )
               a(3) = (   0.000000   0.000000  25.839810 )

     reciprocal axes: (cart. coord. in units 2 pi/alat)
               b(1) = (  0.139816 -0.080723  0.000000 )
               b(2) = (  0.000000  0.161445  0.000000 )
               b(3) = (  0.000000  0.000000  0.038700 )

     PseudoPot. # 1 for Y  read from file:
     /u/if/mamunm/psp/gbrv1.5pbe/Y.UPF
     MD5 check sum: d034151ed7554c50b6e82763ed42c788
     Pseudo is Ultrasoft + core correction, Zval = 11.0
     Generated by new atomic code, or converted to UPF format
     Using radial grid of  885 points,  6 beta functions with:
                l(1) =   0
                l(2) =   0
                l(3) =   1
                l(4) =   1
                l(5) =   2
                l(6) =   2
     Q(r) pseudized with  8 coefficients,  rinner =    1.200   1.200   1.200
                                                       1.200   1.200

     PseudoPot. # 2 for S  read from file:
     /u/if/mamunm/psp/gbrv1.5pbe/S.UPF
     MD5 check sum: 88d86576ff6df21479756cfb9bdac1df
     Pseudo is Ultrasoft + core correction, Zval =  6.0
     Generated by new atomic code, or converted to UPF format
     Using radial grid of  907 points,  6 beta functions with:
                l(1) =   0
                l(2) =   0
                l(3) =   1
                l(4) =   1
                l(5) =   2
                l(6) =   2
     Q(r) pseudized with  8 coefficients,  rinner =    1.300   1.300   1.300
                                                       1.300   1.300

     vdW kernel table read from file vdW_kernel_table
     MD5 check sum: 095c7af220d748ca6e76c0b4c6cfb241

     atomic species   valence    mass     pseudopotential
        Y1            11.00    88.90584     Y ( 1.00)
        S1             6.00    32.06000     S ( 1.00)

     No symmetry found

   Cartesian axes

     site n.     atom                  positions (alat units)
         1           Y1  tau(   1) = (   1.7880693   1.0323423  10.0000000  )
         2           Y1  tau(   2) = (   5.3642080   1.0323423  10.0000000  )
         3           Y1  tau(   3) = (   3.5761386   4.1293692  10.0000000  )
         4           Y1  tau(   4) = (   7.1522773   4.1293692  10.0000000  )
         5           Y1  tau(   5) = (   7.1522773   2.0646846  12.9199050  )
         6           Y1  tau(   6) = (   3.5761386   2.0646846  12.9199050  )
         7           Y1  tau(   7) = (   8.9403466   5.1617115  12.9199050  )
         8           Y1  tau(   8) = (   5.3642080   5.1617115  12.9199050  )
         9           Y1  tau(   9) = (   0.0000000   0.0000000  15.8398100  )
        10           Y1  tau(  10) = (   3.5761386   0.0000000  15.8398100  )
        11           Y1  tau(  11) = (   1.7880693   3.0970269  15.8398100  )
        12           Y1  tau(  12) = (   5.3642080   3.0970269  15.8398100  )
        13           S1  tau(  13) = (   0.0000000   0.0000000  18.3473100  )

     number of k points=    20  Fermi-Dirac smearing, width (Ry)=  0.0110
                       cart. coord. in units 2pi/alat
        k(    1) = (   0.0000000   0.0000000   0.0000000), wk =   0.0555556
        k(    2) = (   0.0000000   0.0269075   0.0000000), wk =   0.1111111
        k(    3) = (   0.0000000   0.0538151   0.0000000), wk =   0.1111111
        k(    4) = (   0.0000000  -0.0807226   0.0000000), wk =   0.0555556
        k(    5) = (   0.0233026  -0.0134538   0.0000000), wk =   0.1111111
        k(    6) = (   0.0233026   0.0134538   0.0000000), wk =   0.1111111
        k(    7) = (   0.0233026   0.0403613   0.0000000), wk =   0.1111111
        k(    8) = (   0.0233026  -0.0941763   0.0000000), wk =   0.1111111
        k(    9) = (   0.0233026  -0.0672688   0.0000000), wk =   0.1111111
        k(   10) = (   0.0233026  -0.0403613   0.0000000), wk =   0.1111111
        k(   11) = (   0.0466052  -0.0269075   0.0000000), wk =   0.1111111
        k(   12) = (   0.0466052   0.0000000   0.0000000), wk =   0.1111111
        k(   13) = (   0.0466052   0.0269075   0.0000000), wk =   0.1111111
        k(   14) = (   0.0466052  -0.1076301   0.0000000), wk =   0.1111111
        k(   15) = (   0.0466052  -0.0807226   0.0000000), wk =   0.1111111
        k(   16) = (   0.0466052  -0.0538151   0.0000000), wk =   0.1111111
        k(   17) = (  -0.0699078   0.0403613   0.0000000), wk =   0.0555556
        k(   18) = (  -0.0699078   0.0672688   0.0000000), wk =   0.1111111
        k(   19) = (  -0.0699078   0.0941763   0.0000000), wk =   0.1111111
        k(   20) = (  -0.0699078  -0.0403613   0.0000000), wk =   0.0555556

     Largest allocated arrays     est. size (Mb)     dimensions
     Largest temporary arrays     est. size (Mb)     dimensions

     Initial potential from superposition of free atoms
     Check: negative starting charge=   -0.000505

     starting charge  137.94633, renormalised to  138.00000

     negative rho (up, down):  5.052E-04 0.000E+00

     *
     * You are using vdW-DF for exchange-correlation in this calculation.
     * Please cite the following three references that made this development
     * possible:
     *
     *   M. Dion, H. Rydberg, E. Schroder, D. C. Langreth, and
     *   B. I. Lundqvist, Phys. Rev. Lett. 92, 246401 (2004).
     *
     *   T. Thonhauser, V. R. Cooper, S. Li, A. Puzder, P. Hyldgaard, and
     *   D. C. Langreth, Phys. Rev. B 76, 125112 (2007).
     *
     *   G. Roman-Perez and J. M. Soler, Phys. Rev. Lett. 103, 096102 (2009).
     *
     *
     * If you are using vdW-DF2, please also cite:
     *
     *   K. Lee, E. D. Murray, L. Kong, B. I. Lundqvist, and
     *   D. C. Langreth, Phys. Rev. B 82, 081101(R) (2010).
     *
     *
     * If you are calculating the stress with vdW-DF, please also cite:
     *
     *   R. Sabatini, E. Kucukbenli, B. Kolb, T. Thonhauser, and
     *   S. de Gironcoli, J. Phys.: Condens. Matter 24, 424209 (2012).
     *

     Carrying out vdW-DF run using the following parameters:

     Nqs =      20    Nr_points =    1024   r_max =   100.000
     q_mesh =
               0.00001000     0.04494208     0.09755937     0.15916263
               0.23128650     0.31572767     0.41458969     0.53033537
               0.66584808     0.82450364     1.01025438     1.22772762
               1.48234092     1.78043706     2.12944203     2.53805004
               3.01644009     3.57652955     4.23227104     5.00000000

     Gradients computed in reciprocal space

     Adding external electric field

     Computed dipole along edir(3) :
        Dipole               -0.0236 Ry au,         -0.0599 Debye
        Dipole field         -0.0000 Ry au

        Potential amp.        0.0037 Ry
        Total length         47.6094 bohr

     Starting wfc are  160 randomized atomic wfcs

     Self-consistent Calculation

     iteration #  1     ecut=    36.75 Ry     beta=0.30
     Davidson diagonalization with overlap
     ethr =  1.00E-02,  avg # of iterations =  2.0

[...]

     total energy              =   -1147.08135636 Ry
     Harris-Foulkes estimate   =   -1149.15555596 Ry
     estimated scf accuracy    <       4.51820648 Ry

[...]

     End of self-consistent calculation

          k = 0.0000 0.0000 0.0000 ( 28997 PWs)   bands (ev):

   -42.9494 -42.9176 -42.9171 -42.8219 -42.7817 -42.7816 -42.7720 -42.2858
   -42.2469 -42.2465 -42.2296 -41.9401 -23.0164 -23.0026 -22.9518 -22.9516
   -22.9465 -22.9462 -22.9261 -22.9236 -22.9235 -22.8519 -22.7848 -22.7847
   -22.7750 -22.7341 -22.6416 -22.6412 -22.6054 -22.5999 -22.5999 -22.5026
   -22.5026 -22.4328 -22.3988 -22.3986 -22.2183 -22.1804 -22.1800 -22.1627
   -22.1052 -22.1050 -22.1025 -22.0046 -22.0045 -21.9333 -21.9333 -21.8398
   -10.3643  -3.7497  -2.8142  -1.7788  -1.2858  -1.1550  -1.1549  -1.0296
    -1.0296  -0.9956  -0.8613  -0.8260  -0.8260  -0.6520  -0.6520  -0.4930
    -0.1392  -0.1392  -0.1085   0.2521   0.4222   0.4222   0.7129   1.1163
     1.1819   1.2313   1.2314   1.3230   1.5642   1.6482   1.6482

[...]

          k =-0.0699 0.0404 0.0000 ( 29048 PWs)   bands (ev):

[...]

     the Fermi energy is     0.5259 ev

!    total energy              =   -1148.79522911 Ry
     Harris-Foulkes estimate   =   -1148.79520867 Ry
     estimated scf accuracy    <       0.00000427 Ry

     The total energy is the sum of the following terms:

     one-electron contribution =   -5456.80033848 Ry
     hartree contribution      =    2720.69621227 Ry
     xc contribution           =    -347.58996668 Ry
     ewald contribution        =    1935.01893189 Ry
     electric field correction =       0.00116592 Ry
     smearing contrib. (-TS)   =      -0.12123403 Ry

     convergence has been achieved in  16 iterations

 BEEF-vdW xc energy contributions
           1 :   -302.984515192627
           2 :    271.867337034230
           3 :   -218.361536567595
           4 :    155.655619659203
           5 :   -95.9717653476369
           6 :    46.9980755860402
           7 :   -11.3609668550259
           8 :   -11.6392932158691
           9 :    23.7933449028741
          10 :   -26.6925605700743
          11 :    21.7642897559317
          12 :   -11.0430650424008
          13 :   -2.31207585782590
          14 :    14.4167504799834
          15 :   -21.8738355793271
          16 :    23.0248610061976
          17 :   -18.4155924914327
          18 :    10.2248980241660
          19 :   -1.11044422533928
          20 :   -6.79702757579832
          21 :    12.2864468162227
          22 :   -14.9035275497984
          23 :    14.6268800932473
          24 :   -11.7338496349286
          25 :    6.89462413864362
          26 :   -1.25665108702219
          27 :   -3.73892450519969
          28 :    6.82818257360839
          29 :   -7.43043598953284
          30 :    5.86124450504252
          31 :   -29.1549263286946
          32 :   -19.9161128542331

     Forces acting on atoms (Ry/au):

     negative rho (up, down):  1.919E-05 0.000E+00
     atom    1 type  1   force =    -0.00047219   -0.00021968    0.00397399
     atom    2 type  1   force =     0.00046962   -0.00020480    0.00392996
     atom    3 type  1   force =     0.00001231    0.00045983    0.00387011
     atom    4 type  1   force =    -0.00001769   -0.00004929    0.00466160
     atom    5 type  1   force =    -0.00002042    0.00731480    0.00008136
     atom    6 type  1   force =     0.00000851    0.00009411    0.00701223
     atom    7 type  1   force =    -0.00627284   -0.00369306    0.00010467
     atom    8 type  1   force =     0.00628828   -0.00371234    0.00008041
     atom    9 type  1   force =     0.00000146    0.00003616    0.00949348
     atom   10 type  1   force =    -0.00000693   -0.00114982    0.00421862
     atom   11 type  1   force =    -0.00105657    0.00055679    0.00414392
     atom   12 type  1   force =     0.00106512    0.00056440    0.00416214
     atom   13 type  2   force =     0.00000135    0.00000291   -0.04573247

     Total force =     0.047308     Total SCF correction =     0.003145

     entering subroutine stress ...

     negative rho (up, down):  1.919E-05 0.000E+00
          total   stress  (Ry/bohr**3)                   (kbar)     P=   -4.44
  -0.00001529   0.00000000   0.00000001         -2.25      0.00      0.00
   0.00000000  -0.00001527   0.00000000          0.00     -2.25      0.00
   0.00000001   0.00000000  -0.00005992          0.00      0.00     -8.81

     BFGS Geometry Optimization

     number of scf cycles    =   1
     number of bfgs steps    =   0

     energy   new            =   -1148.7952291065 Ry

     new trust radius        =       0.0457324730 bohr
     new conv_thr            =       0.0000099958 Ry

ATOMIC_POSITIONS (crystal)
Y1       0.166666667   0.166666667   0.386999750    0   0   0
Y1       0.666666667   0.166666667   0.386999750    0   0   0
Y1       0.166666667   0.666666667   0.386999750    0   0   0
Y1       0.666666667   0.666666667   0.386999750    0   0   0
Y1       0.833333333   0.333333333   0.500000000    0   0   0
Y1       0.333333333   0.333333333   0.500000000    0   0   0
Y1       0.833333333   0.833333333   0.500000000    0   0   0
Y1       0.333333333   0.833333333   0.500000000    0   0   0
Y1      -0.000001436   0.000003089   0.613194668
Y1       0.500048604  -0.000098233   0.613086643
Y1      -0.000101957   0.500047568   0.613085114
Y1       0.500054696   0.500048218   0.613085487
S1      -0.000000025   0.000000248   0.709103875

     Writing output data file calc.save
     Check: negative starting charge=   -0.000505
     NEW-OLD atomic charge density approx. for the potential
     Check: negative starting charge=   -0.000507

[...]

     energy   old            =   -1148.7952291065 Ry
     energy   new            =   -1148.7971755010 Ry

     CASE: energy  _new < energy  _old

[...]

     Total force =     0.004386     Total SCF correction =     0.000885
     SCF correction compared to forces is large: reduce conv_thr to get better values

[...]

     Threshold (ethr) on eigenvalues was too large:
     Diagonalizing with lowered threshold

     Davidson diagonalization with overlap
     ethr =  3.69E-08,  avg # of iterations =  3.8

[...]

     Threshold (ethr) on eigenvalues was too large:
     Diagonalizing with lowered threshold

     Davidson diagonalization with overlap
     ethr =  9.83E-08,  avg # of iterations =  2.9

[...]

     Total force =     0.002641     Total SCF correction =     0.000229

[...]

     number of scf cycles    =  14
     number of bfgs steps    =  13

     energy   old            =   -1148.8099000044 Ry
     energy   new            =   -1148.8099498328 Ry

     CASE: energy  _new < energy  _old

     new trust radius        =       0.0150536890 bohr
     new conv_thr            =       0.0000001000 Ry

ATOMIC_POSITIONS (crystal)
Y1       0.166666667   0.166666667   0.386999750    0   0   0
Y1       0.666666667   0.166666667   0.386999750    0   0   0
Y1       0.166666667   0.666666667   0.386999750    0   0   0
Y1       0.666666667   0.666666667   0.386999750    0   0   0
Y1       0.833333333   0.333333333   0.500000000    0   0   0
Y1       0.333333333   0.333333333   0.500000000    0   0   0
Y1       0.833333333   0.833333333   0.500000000    0   0   0
Y1       0.333333333   0.833333333   0.500000000    0   0   0
Y1       0.000011430  -0.000026520   0.602277420
Y1       0.500928703  -0.001853615   0.614151464
Y1      -0.001827634   0.500927590   0.614152751
Y1       0.500898521   0.500924310   0.614151975
S1      -0.000012483   0.000038254   0.696021647

     Writing output data file calc.save
     Check: negative starting charge=   -0.000533
     NEW-OLD atomic charge density approx. for the potential
     Check: negative starting charge=   -0.000533

[...]

     Self-consistent Calculation

[...]

     total energy              =   -1148.80996224 Ry
     Harris-Foulkes estimate   =   -1148.80996211 Ry
     estimated scf accuracy    <       0.00000073 Ry

     iteration #  9     ecut=    36.75 Ry     beta=0.30
     Davidson diagonalization with overlap
     ethr =  5.30E-10,  avg # of iterations =  4.1

[...]

     negative rho (up, down):  2.033E-05 0.000E+00

     Adding external electric field

     Computed dipole along edir(3) :
        Dipole               -0.5597 Ry au,         -1.4226 Debye
        Dipole field         -0.0009 Ry au

        Potential amp.        0.0867 Ry
        Total length         47.6094 bohr

     End of self-consistent calculation

[...]

          k = 0.0466-0.0538 0.0000 ( 29098 PWs)   bands (ev):

[...]

          k =-0.0699-0.0404 0.0000 ( 29048 PWs)   bands (ev):

   -42.7784 -42.7678 -42.7572 -42.6001 -42.6000 -42.5786 -42.5785 -42.0691
   -42.0271 -42.0138 -42.0048 -41.6017 -22.8129 -22.7952 -22.7838 -22.7774
   -22.6989 -22.6767 -22.6529 -22.6469 -22.6455 -22.6241 -22.6162 -22.6109
   -22.5794 -22.5771 -22.5192 -22.5185 -22.4861 -22.4852 -22.4832 -22.3538
   -22.3505 -22.1527 -22.1201 -22.0411 -22.0045 -21.9923 -21.9855 -21.9792
   -21.9664 -21.9429 -21.9356 -21.8375 -21.8281 -21.6094 -21.5952 -21.5890
   -10.5625  -2.3760  -2.3746  -1.7599  -1.5770  -1.3620  -1.1630  -1.0722
    -0.6577  -0.6125  -0.4237  -0.3288  -0.2350  -0.1741   0.4547   0.4782
     0.4834   0.5247   0.5916   0.6293   0.7071   0.7740   0.8363   0.8730
     0.9022   0.9999   1.0390   1.2163   1.2468   1.2557   1.3008

     the Fermi energy is     0.7305 ev

!    total energy              =   -1148.80996225 Ry
     Harris-Foulkes estimate   =   -1148.80996483 Ry
     estimated scf accuracy    <       0.00000008 Ry

     The total energy is the sum of the following terms:

     one-electron contribution =   -5537.83716700 Ry
     hartree contribution      =    2762.07330932 Ry
     xc contribution           =    -347.68991843 Ry
     ewald contribution        =    1974.76385678 Ry
     electric field correction =       0.00050954 Ry
     smearing contrib. (-TS)   =      -0.12055245 Ry

     convergence has been achieved in   9 iterations

 BEEF-vdW xc energy contributions
           1 :   -303.082683569570
           2 :    271.999207364561
           3 :   -218.522297453292
           4 :    155.806217336184
           5 :   -96.0695340783532
           6 :    47.0269406052250
           7 :   -11.3437584997235
           8 :   -11.6578199053058
           9 :    23.7810762416576
          10 :   -26.6536299826699
          11 :    21.7317739555345
          12 :   -11.0479589937801
          13 :   -2.26796329979015
          14 :    14.3612412354780
          15 :   -21.8393854798334
          16 :    23.0214533303800
          17 :   -18.4253541475910
          18 :    10.2218044019916
          19 :   -1.08682781845789
          20 :   -6.82119847003929
          21 :    12.2803801075679
          22 :   -14.8533676629861
          23 :    14.5492934118951
          24 :   -11.6635046600596
          25 :    6.85669837751379
          26 :   -1.24771060160913
          27 :   -3.74633818223367
          28 :    6.86189705449272
          29 :   -7.49556036941948
          30 :    5.93616756278880
          31 :   -29.1633211808157
          32 :   -19.9317475982162

     Forces acting on atoms (Ry/au):

     negative rho (up, down):  2.033E-05 0.000E+00
     atom    1 type  1   force =     0.00036395    0.00021060    0.00461290
     atom    2 type  1   force =    -0.00036339    0.00021008    0.00461272
     atom    3 type  1   force =    -0.00000042   -0.00042079    0.00461130
     atom    4 type  1   force =     0.00000057   -0.00000135    0.00678444
     atom    5 type  1   force =    -0.00000010    0.01536436   -0.01058400
     atom    6 type  1   force =    -0.00000010   -0.00000025    0.01106666
     atom    7 type  1   force =    -0.01330463   -0.00768390   -0.01058960
     atom    8 type  1   force =     0.01330493   -0.00768394   -0.01058957
     atom    9 type  1   force =     0.00000046    0.00003163    0.00038930
     atom   10 type  1   force =    -0.00000418   -0.00038156    0.00005038
     atom   11 type  1   force =    -0.00036993    0.00017308    0.00004721
     atom   12 type  1   force =     0.00037104    0.00017622    0.00004977
     atom   13 type  2   force =     0.00000182    0.00000580   -0.00046149

     Total force =     0.000924     Total SCF correction =     0.000564
     SCF correction compared to forces is large: reduce conv_thr to get better values

     entering subroutine stress ...

     negative rho (up, down):  2.033E-05 0.000E+00
          total   stress  (Ry/bohr**3)                   (kbar)     P=   -2.59
  -0.00001827   0.00000000   0.00000000         -2.69      0.00      0.00
   0.00000000  -0.00001827   0.00000000          0.00     -2.69      0.00
   0.00000000   0.00000000  -0.00001637          0.00      0.00     -2.41

     bfgs converged in  15 scf cycles and  14 bfgs steps
     (criteria: energy <  1.0E+00, force <  1.9E-03)

     End of BFGS Geometry Optimization

     Final energy   =   -1148.8099622469 Ry
Begin final coordinates

ATOMIC_POSITIONS (crystal)
Y1       0.166666667   0.166666667   0.386999750    0   0   0
Y1       0.666666667   0.166666667   0.386999750    0   0   0
Y1       0.166666667   0.666666667   0.386999750    0   0   0
Y1       0.666666667   0.666666667   0.386999750    0   0   0
Y1       0.833333333   0.333333333   0.500000000    0   0   0
Y1       0.333333333   0.333333333   0.500000000    0   0   0
Y1       0.833333333   0.833333333   0.500000000    0   0   0
Y1       0.333333333   0.833333333   0.500000000    0   0   0
Y1       0.000011430  -0.000026520   0.602277420
Y1       0.500928703  -0.001853615   0.614151464
Y1      -0.001827634   0.500927590   0.614152751
Y1       0.500898521   0.500924310   0.614151975
S1      -0.000012483   0.000038254   0.696021647
End final coordinates

     Writing output data file calc.save

     General routines

     Parallel routines

   This run was terminated on:   3:48:16   3May2018

   JOB DONE.
Job  /afs/slac/g/suncat/bin/suncat-tsmpirun -x LD_LIBRARY_PATH -wdir /scratch/qe576863_zmZtI pw.x -npool 4 -in pw.inp

TID   HOST_NAME   COMMAND_LINE            STATUS            TERMINATION_TIME
00000 suncat0030 pw.x -npool 4 -i  Done                     05/03/2018 03:48:16
00001 suncat0030 pw.x -npool 4 -i  Done                     05/03/2018 03:48:16
00002 suncat0030 pw.x -npool 4 -i  Done                     05/03/2018 03:48:16
00003 suncat0030 pw.x -npool 4 -i  Done                     05/03/2018 03:48:16
00004 suncat0030 pw.x -npool 4 -i  Done                     05/03/2018 03:48:16
00005 suncat0030 pw.x -npool 4 -i  Done                     05/03/2018 03:48:16
00006 suncat0030 pw.x -npool 4 -i  Done                     05/03/2018 03:48:16
00007 suncat0030 pw.x -npool 4 -i  Done                     05/03/2018 03:48:16
00008 suncat0019 pw.x -npool 4 -i  Done                     05/03/2018 03:48:16
00009 suncat0019 pw.x -npool 4 -i  Done                     05/03/2018 03:48:16
00010 suncat0019 pw.x -npool 4 -i  Done                     05/03/2018 03:48:16
00011 suncat0019 pw.x -npool 4 -i  Done                     05/03/2018 03:48:16
00012 suncat0019 pw.x -npool 4 -i  Done                     05/03/2018 03:48:16
00013 suncat0019 pw.x -npool 4 -i  Done                     05/03/2018 03:48:16
00014 suncat0019 pw.x -npool 4 -i  Done                     05/03/2018 03:48:16
00015 suncat0019 pw.x -npool 4 -i  Done                     05/03/2018 03:48:16
00016 suncat0278 pw.x -npool 4 -i  Done                     05/03/2018 03:48:16
00017 suncat0278 pw.x -npool 4 -i  Done                     05/03/2018 03:48:16
00018 suncat0278 pw.x -npool 4 -i  Done                     05/03/2018 03:48:16
00019 suncat0278 pw.x -npool 4 -i  Done                     05/03/2018 03:48:16
00020 suncat0278 pw.x -npool 4 -i  Done                     05/03/2018 03:48:16
00021 suncat0278 pw.x -npool 4 -i  Done                     05/03/2018 03:48:16
00022 suncat0278 pw.x -npool 4 -i  Done                     05/03/2018 03:48:16
00023 suncat0278 pw.x -npool 4 -i  Done                     05/03/2018 03:48:16
00024 suncat0264 pw.x -npool 4 -i  Done                     05/03/2018 03:48:16
00025 suncat0264 pw.x -npool 4 -i  Done                     05/03/2018 03:48:16
00026 suncat0264 pw.x -npool 4 -i  Done                     05/03/2018 03:48:16
00027 suncat0264 pw.x -npool 4 -i  Done                     05/03/2018 03:48:16
00028 suncat0264 pw.x -npool 4 -i  Done                     05/03/2018 03:48:16
00029 suncat0264 pw.x -npool 4 -i  Done                     05/03/2018 03:48:16
00030 suncat0264 pw.x -npool 4 -i  Done                     05/03/2018 03:48:16
00031 suncat0264 pw.x -npool 4 -i  Done                     05/03/2018 03:48:16