     Program PWSCF v.5.1rc2 (svn rev. 11289) starts on 19Apr2018 at 10:10:58

     Current dimensions of program PWSCF are:
     Max number of different atomic species (ntypx) = 10
     Max number of k-points (npk) =  40000
     Max angular momentum in pseudopotentials (lmaxx) =  3
     Presently stress not available with electric field

     IMPORTANT: XC functional enforced from input :
     Exchange-correlation      = BEEF-VDW ( 1  4 27 13 2)
     Any further DFT definition will be discarded
     Please, verify this is what you really want

     Subspace diagonalization in iterative solution of the eigenvalue problem:
     a serial algorithm will be used

     bravais-lattice index     =            0
     lattice parameter (alat)  =       1.8897  a.u.
     unit-cell volume          =    5182.3421 (a.u.)^3
     number of atoms/cell      =           14
     number of atomic types    =            3
     number of electrons       =       162.00
     number of Kohn-Sham states=           91
     kinetic-energy cutoff     =      36.7493  Ry
     charge density cutoff     =     367.4932  Ry
     convergence threshold     =      1.0E-05
     mixing beta               =       0.3000
     number of iterations used =           10  plain     mixing
     Exchange-correlation      = BEEF-VDW ( 1  4 27 13 2)
     nstep                     =           50

     celldm(1)=   1.889726  celldm(2)=   0.000000  celldm(3)=   0.000000
     celldm(4)=   0.000000  celldm(5)=   0.000000  celldm(6)=   0.000000

     crystal axes: (cart. coord. in units of alat)
               a(1) = (   5.970602   0.000000   0.000000 )
               a(2) = (   2.985301   5.170693   0.000000 )
               a(3) = (   0.000000   0.000000  24.874976 )

     reciprocal axes: (cart. coord. in units 2 pi/alat)
               b(1) = (  0.167487 -0.096699  0.000000 )
               b(2) = (  0.000000  0.193398  0.000000 )
               b(3) = (  0.000000  0.000000  0.040201 )

     PseudoPot. # 1 for Nb read from file:
     /u/if/mamunm/psp/gbrv1.5pbe/Nb.UPF
     MD5 check sum: 573aab8a2fa660278ed4a62cd769473f
     Pseudo is Ultrasoft + core correction, Zval = 13.0
     Generated by new atomic code, or converted to UPF format
     Using radial grid of  887 points,  6 beta functions with:
                l(1) =   0
                l(2) =   0
                l(3) =   1
                l(4) =   1
                l(5) =   2
                l(6) =   2
     Q(r) pseudized with  6 coefficients,  rinner =    1.000   1.000   1.000
                                                       1.000   1.000

     PseudoPot. # 2 for N  read from file:
     /u/if/mamunm/psp/gbrv1.5pbe/N.UPF
     MD5 check sum: 95339753478d7afb44899504a8723017
     Pseudo is Ultrasoft + core correction, Zval =  5.0
     Generated by new atomic code, or converted to UPF format
     Using radial grid of  729 points,  4 beta functions with:
                l(1) =   0
                l(2) =   0
                l(3) =   1
                l(4) =   1
     Q(r) pseudized with  8 coefficients,  rinner =    0.900   0.900   0.900

     PseudoPot. # 3 for H  read from file:
     /u/if/mamunm/psp/gbrv1.5pbe/H.UPF
     MD5 check sum: 761ae9a214b05c3daf00ab9f6b793d6f
     Pseudo is Ultrasoft, Zval =  1.0
     Generated by new atomic code, or converted to UPF format
     Using radial grid of  615 points,  2 beta functions with:
                l(1) =   0
                l(2) =   0
     Q(r) pseudized with  8 coefficients,  rinner =    0.700

     vdW kernel table read from file vdW_kernel_table
     MD5 check sum: 095c7af220d748ca6e76c0b4c6cfb241

     atomic species   valence    mass     pseudopotential
        Nb1           13.00    92.90637     Nb( 1.00)
        N1             5.00    14.00700     N ( 1.00)
        H1             1.00     1.00800     H ( 1.00)

     No symmetry found

   Cartesian axes

     site n.     atom                  positions (alat units)
         1           Nb1 tau(   1) = (   1.4926504   0.8617821  10.0000000  )
         2           Nb1 tau(   2) = (   4.4779512   0.8617821  10.0000000  )
         3           Nb1 tau(   3) = (   2.9853008   3.4471284  10.0000000  )
         4           Nb1 tau(   4) = (   5.9706016   3.4471284  10.0000000  )
         5           Nb1 tau(   5) = (   5.9706016   1.7235642  12.4374879  )
         6           Nb1 tau(   6) = (   2.9853008   1.7235642  12.4374879  )
         7           Nb1 tau(   7) = (   7.4632520   4.3089105  12.4374879  )
         8           Nb1 tau(   8) = (   4.4779512   4.3089105  12.4374879  )
         9           Nb1 tau(   9) = (   0.0000000   0.0000000  14.8749758  )
        10           Nb1 tau(  10) = (   2.9853008   0.0000000  14.8749758  )
        11           Nb1 tau(  11) = (   1.4926504   2.5853463  14.8749758  )
        12           Nb1 tau(  12) = (   4.4779512   2.5853463  14.8749758  )
        13           N1  tau(  13) = (   2.9853008   1.7235642  16.4024758  )
        14           H1  tau(  14) = (   2.9853008   1.7235642  17.4524758  )

     number of k points=    20  Fermi-Dirac smearing, width (Ry)=  0.0110
                       cart. coord. in units 2pi/alat
        k(    1) = (   0.0000000   0.0000000   0.0000000), wk =   0.0555556
        k(    2) = (   0.0000000   0.0322329   0.0000000), wk =   0.1111111
        k(    3) = (   0.0000000   0.0644659   0.0000000), wk =   0.1111111
        k(    4) = (   0.0000000  -0.0966988   0.0000000), wk =   0.0555556
        k(    5) = (   0.0279146  -0.0161165   0.0000000), wk =   0.1111111
        k(    6) = (   0.0279146   0.0161165   0.0000000), wk =   0.1111111
        k(    7) = (   0.0279146   0.0483494   0.0000000), wk =   0.1111111
        k(    8) = (   0.0279146  -0.1128153   0.0000000), wk =   0.1111111
        k(    9) = (   0.0279146  -0.0805824   0.0000000), wk =   0.1111111
        k(   10) = (   0.0279146  -0.0483494   0.0000000), wk =   0.1111111
        k(   11) = (   0.0558291  -0.0322329   0.0000000), wk =   0.1111111
        k(   12) = (   0.0558291   0.0000000   0.0000000), wk =   0.1111111
        k(   13) = (   0.0558291   0.0322329   0.0000000), wk =   0.1111111
        k(   14) = (   0.0558291  -0.1289318   0.0000000), wk =   0.1111111
        k(   15) = (   0.0558291  -0.0966988   0.0000000), wk =   0.1111111
        k(   16) = (   0.0558291  -0.0644659   0.0000000), wk =   0.1111111
        k(   17) = (  -0.0837437   0.0483494   0.0000000), wk =   0.0555556
        k(   18) = (  -0.0837437   0.0805824   0.0000000), wk =   0.1111111
        k(   19) = (  -0.0837437   0.1128153   0.0000000), wk =   0.1111111
        k(   20) = (  -0.0837437  -0.0483494   0.0000000), wk =   0.0555556

     Largest allocated arrays     est. size (Mb)     dimensions
     Largest temporary arrays     est. size (Mb)     dimensions

     Initial potential from superposition of free atoms
     Check: negative starting charge=   -0.004975

     starting charge  161.96718, renormalised to  162.00000

     negative rho (up, down):  4.976E-03 0.000E+00

     *
     * You are using vdW-DF for exchange-correlation in this calculation.
     * Please cite the following three references that made this development
     * possible:
     *
     *   M. Dion, H. Rydberg, E. Schroder, D. C. Langreth, and
     *   B. I. Lundqvist, Phys. Rev. Lett. 92, 246401 (2004).
     *
     *   T. Thonhauser, V. R. Cooper, S. Li, A. Puzder, P. Hyldgaard, and
     *   D. C. Langreth, Phys. Rev. B 76, 125112 (2007).
     *
     *   G. Roman-Perez and J. M. Soler, Phys. Rev. Lett. 103, 096102 (2009).
     *
     *
     * If you are using vdW-DF2, please also cite:
     *
     *   K. Lee, E. D. Murray, L. Kong, B. I. Lundqvist, and
     *   D. C. Langreth, Phys. Rev. B 82, 081101(R) (2010).
     *
     *
     * If you are calculating the stress with vdW-DF, please also cite:
     *
     *   R. Sabatini, E. Kucukbenli, B. Kolb, T. Thonhauser, and
     *   S. de Gironcoli, J. Phys.: Condens. Matter 24, 424209 (2012).
     *

     Carrying out vdW-DF run using the following parameters:

     Nqs =      20    Nr_points =    1024   r_max =   100.000
     q_mesh =
               0.00001000     0.04494208     0.09755937     0.15916263
               0.23128650     0.31572767     0.41458969     0.53033537
               0.66584808     0.82450364     1.01025438     1.22772762
               1.48234092     1.78043706     2.12944203     2.53805004
               3.01644009     3.57652955     4.23227104     5.00000000

     Gradients computed in reciprocal space

     Adding external electric field

     Computed dipole along edir(3) :
        Dipole               -0.0093 Ry au,         -0.0237 Debye
        Dipole field         -0.0000 Ry au

        Potential amp.        0.0021 Ry
        Total length         45.8317 bohr

     Starting wfc are  161 randomized atomic wfcs

     Self-consistent Calculation

     iteration #  1     ecut=    36.75 Ry     beta=0.30
     Davidson diagonalization with overlap
     ethr =  1.00E-02,  avg # of iterations =  2.0

[...]

     total energy              =   -1441.68241523 Ry
     Harris-Foulkes estimate   =   -1444.48369768 Ry
     estimated scf accuracy    <       6.23848638 Ry

[...]

     End of self-consistent calculation

          k = 0.0000 0.0000 0.0000 ( 19435 PWs)   bands (ev):

   -52.9820 -52.8917 -52.8554 -52.8552 -52.8161 -52.7811 -52.7538 -52.7537
   -52.7484 -52.6920 -52.6861 -52.6860 -29.4250 -29.3951 -29.3950 -29.3202
   -29.3183 -29.3182 -29.3089 -29.2570 -29.2531 -29.2530 -28.9944 -28.8724
   -28.8722 -28.8633 -28.7936 -28.7936 -28.7924 -28.7183 -28.7043 -28.7042
   -28.6123 -28.6063 -28.6063 -28.5680 -28.5608 -28.5607 -28.4998 -28.4921
   -28.4864 -28.4864 -28.4815 -28.4814 -28.3936 -28.3936 -28.3190 -28.3189
   -12.6007  -4.4018  -3.1426  -1.8600  -1.4749  -1.4230  -1.4230  -1.3348
    -1.3348  -1.1602  -0.9305  -0.7525  -0.7525  -0.6388  -0.6010  -0.6010
    -0.2305  -0.1223  -0.1223   0.7868   0.7869   0.8788   1.5584   1.6676
     1.6676   1.9486   1.9818   2.3283   2.3283   2.5071   2.5418   2.5418
     2.6145   2.6296   2.6296   2.6591   2.6851   2.6851   2.9462   2.9463
     3.2373   3.5610   3.5611

[...]

          k =-0.0837 0.0483 0.0000 ( 19524 PWs)   bands (ev):

[...]

     the Fermi energy is     2.2328 ev

!    total energy              =   -1443.78973618 Ry
     Harris-Foulkes estimate   =   -1443.78974738 Ry
     estimated scf accuracy    <       0.00000356 Ry

     The total energy is the sum of the following terms:

     one-electron contribution =  -11776.44776106 Ry
     hartree contribution      =    5884.24402841 Ry
     xc contribution           =    -234.47480068 Ry
     ewald contribution        =    4683.00564640 Ry
     electric field correction =       0.00006602 Ry
     smearing contrib. (-TS)   =      -0.11691527 Ry

     convergence has been achieved in  18 iterations

 BEEF-vdW xc energy contributions
           1 :   -200.979801765950
           2 :    182.611862894874
           3 :   -151.350649877883
           4 :    115.611757091555
           5 :   -83.4315114433842
           6 :    59.8095759045831
           7 :   -45.6768036008709
           8 :    38.5809288575359
           9 :   -34.5313311721797
          10 :    30.0063836505017
          11 :   -23.2775301934917
          12 :    14.6360604214325
          13 :   -5.68713990681573
          14 :   -1.78741565059278
          15 :    6.79199571213775
          16 :   -9.49741789232127
          17 :    10.9466221642184
          18 :   -12.3508960355208
          19 :    14.3952798427251
          20 :   -16.9238046548822
          21 :    19.1222686472385
          22 :   -20.0510166960865
          23 :    19.1986968225734
          24 :   -16.7586871407858
          25 :    13.5067550078959
          26 :   -10.3926449800157
          27 :    8.08705258270160
          28 :   -6.72649929569923
          29 :    5.96075221212971
          30 :   -5.24291100323003
          31 :   -23.2334094989519
          32 :   -17.5213312125739

     Forces acting on atoms (Ry/au):

     negative rho (up, down):  4.825E-03 0.000E+00
     atom    1 type  1   force =     0.00003818    0.00001714   -0.00300437
     atom    2 type  1   force =    -0.00003874    0.00002167   -0.00301248
     atom    3 type  1   force =     0.00000437   -0.00004104   -0.00300448
     atom    4 type  1   force =    -0.00000391    0.00000329   -0.00777598
     atom    5 type  1   force =    -0.00000905   -0.00159363   -0.00473856
     atom    6 type  1   force =     0.00001116   -0.00000574    0.00227965
     atom    7 type  1   force =     0.00137082    0.00081015   -0.00473567
     atom    8 type  1   force =    -0.00137575    0.00079484   -0.00473396
     atom    9 type  1   force =     0.00000664    0.00000136   -0.02615607
     atom   10 type  1   force =    -0.00000653    0.01239020    0.06129884
     atom   11 type  1   force =     0.01073548   -0.00620572    0.06130553
     atom   12 type  1   force =    -0.01073512   -0.00619697    0.06130664
     atom   13 type  2   force =     0.00000179    0.00000475   -0.08237510
     atom   14 type  3   force =     0.00000066   -0.00000031   -0.04665401

     Total force =     0.146225     Total SCF correction =     0.003056

     entering subroutine stress ...

     negative rho (up, down):  4.825E-03 0.000E+00
          total   stress  (Ry/bohr**3)                   (kbar)     P=  -25.26
  -0.00023296   0.00000003   0.00000000        -34.27      0.00      0.00
   0.00000003  -0.00023300  -0.00000000          0.00    -34.27     -0.00
   0.00000000  -0.00000000  -0.00004911          0.00     -0.00     -7.22

     BFGS Geometry Optimization

     number of scf cycles    =   1
     number of bfgs steps    =   0

     energy   new            =   -1443.7897361773 Ry

     new trust radius        =       0.0823751029 bohr
     new conv_thr            =       0.0000099958 Ry

ATOMIC_POSITIONS (crystal)
Nb1      0.166666667   0.166666667   0.402010442    0   0   0
Nb1      0.666666667   0.166666667   0.402010442    0   0   0
Nb1      0.166666667   0.666666667   0.402010442    0   0   0
Nb1      0.666666667   0.666666667   0.402010442    0   0   0
Nb1      0.833333333   0.333333333   0.500000000    0   0   0
Nb1      0.333333333   0.333333333   0.500000000    0   0   0
Nb1      0.833333333   0.833333333   0.500000000    0   0   0
Nb1      0.333333333   0.833333333   0.500000000    0   0   0
Nb1      0.000000519   0.000000139   0.597433128
Nb1      0.499365405   0.001268034   0.599293598
Nb1      0.001269042   0.499364896   0.599293740
Nb1      0.499365646   0.499365792   0.599293764
N1       0.333333249   0.333333820   0.657644248
H1       0.333333407   0.333333302   0.700615257

     Writing output data file calc.save
     Check: negative starting charge=   -0.004975
     NEW-OLD atomic charge density approx. for the potential
     Check: negative starting charge=   -0.004960

[...]

     energy   old            =   -1443.7897361773 Ry
     energy   new            =   -1443.8085112126 Ry

     CASE: energy  _new < energy  _old

[...]

     Total force =     0.017383     Total SCF correction =     0.000479

[...]

     Total force =     0.007429     Total SCF correction =     0.000819
     SCF correction compared to forces is large: reduce conv_thr to get better values

[...]

     number of scf cycles    =  13
     number of bfgs steps    =  12

     energy   old            =   -1443.8544385953 Ry
     energy   new            =   -1443.8548408673 Ry

     CASE: energy  _new < energy  _old

     new trust radius        =       0.0135280059 bohr
     new conv_thr            =       0.0000001000 Ry

ATOMIC_POSITIONS (crystal)
Nb1      0.166666667   0.166666667   0.402010442    0   0   0
Nb1      0.666666667   0.166666667   0.402010442    0   0   0
Nb1      0.166666667   0.666666667   0.402010442    0   0   0
Nb1      0.666666667   0.666666667   0.402010442    0   0   0
Nb1      0.833333333   0.333333333   0.500000000    0   0   0
Nb1      0.333333333   0.333333333   0.500000000    0   0   0
Nb1      0.833333333   0.833333333   0.500000000    0   0   0
Nb1      0.333333333   0.833333333   0.500000000    0   0   0
Nb1      0.000000099  -0.000001434   0.581733511
Nb1      0.500962682  -0.001925378   0.602516257
Nb1     -0.001926851   0.500963038   0.602515901
Nb1      0.500963174   0.500962663   0.602516202
N1       0.333334228   0.333332325   0.651910091
H1       0.333335738   0.333331100   0.693189642

     Writing output data file calc.save
     Check: negative starting charge=   -0.005076
     NEW-OLD atomic charge density approx. for the potential
     Check: negative starting charge=   -0.005067

[...]

     Self-consistent Calculation

[...]

     total energy              =   -1443.85492154 Ry
     Harris-Foulkes estimate   =   -1443.85492157 Ry
     estimated scf accuracy    <       0.00000030 Ry

     iteration # 10     ecut=    36.75 Ry     beta=0.30
     Davidson diagonalization with overlap
     ethr =  1.81E-10,  avg # of iterations =  3.4

[...]

     negative rho (up, down):  4.822E-03 0.000E+00

     Adding external electric field

     Computed dipole along edir(3) :
        Dipole                0.2842 Ry au,          0.7223 Debye
        Dipole field          0.0007 Ry au

        Potential amp.       -0.0632 Ry
        Total length         45.8317 bohr

     End of self-consistent calculation

[...]

          k = 0.0558-0.0645 0.0000 ( 19505 PWs)   bands (ev):

[...]

          k =-0.0837-0.0483 0.0000 ( 19524 PWs)   bands (ev):

   -52.8280 -52.7979 -52.7623 -52.7039 -52.6891 -52.6438 -52.6221 -52.6158
   -52.5835 -52.5273 -52.4987 -52.3240 -29.1749 -29.1543 -29.0780 -29.0760
   -29.0383 -29.0213 -29.0007 -28.9291 -28.9272 -28.9128 -28.8782 -28.8550
   -28.8317 -28.8126 -28.7587 -28.7180 -28.7097 -28.6867 -28.6373 -28.6275
   -28.6000 -28.5853 -28.5803 -28.5378 -28.5127 -28.4926 -28.4694 -28.4352
   -28.4217 -28.3807 -28.3705 -28.2843 -28.2677 -28.1423 -28.0676 -27.9997
   -13.3935  -4.8590  -2.1751  -1.6847  -1.5279  -1.3617  -0.6540  -0.4375
    -0.2993  -0.2329  -0.1541  -0.0643   0.0319   0.2268   0.3834   0.4698
     0.5285   0.6117   0.6886   0.9124   0.9607   1.1823   1.2498   1.2933
     1.3476   1.5006   1.6037   1.6928   1.7998   1.8823   1.9911   2.0017
     2.0443   2.1036   2.2791   2.4092   2.4902   2.5049   2.6967   2.8183
     3.0697   3.1333   3.3992

     the Fermi energy is     2.3518 ev

!    total energy              =   -1443.85492151 Ry
     Harris-Foulkes estimate   =   -1443.85492116 Ry
     estimated scf accuracy    <       0.00000008 Ry

     The total energy is the sum of the following terms:

     one-electron contribution =  -11845.35039074 Ry
     hartree contribution      =    5919.28676028 Ry
     xc contribution           =    -234.73801893 Ry
     ewald contribution        =    4717.05415854 Ry
     electric field correction =       0.00019583 Ry
     smearing contrib. (-TS)   =      -0.10762651 Ry

     convergence has been achieved in  10 iterations

 BEEF-vdW xc energy contributions
           1 :   -201.243461760692
           2 :    182.932574543384
           3 :   -151.735905167523
           4 :    116.009344100777
           5 :   -83.7517850483778
           6 :    59.9603107983100
           7 :   -45.6014801612995
           8 :    38.2879196951804
           9 :   -34.1003624669071
          10 :    29.5622472645181
          11 :   -22.9384077625597
          12 :    14.4591829858082
          13 :   -5.64245944688690
          14 :   -1.79741866889646
          15 :    6.87539811225491
          16 :   -9.71348629674821
          17 :    11.2782791794399
          18 :   -12.7198473323959
          19 :    14.7062997984966
          20 :   -17.1125121021255
          21 :    19.1851422620443
          22 :   -20.0463174306628
          23 :    19.2174012303024
          24 :   -16.8777538225850
          25 :    13.7466632648447
          26 :   -10.7013221128644
          27 :    8.36231621995839
          28 :   -6.86819134373664
          29 :    5.92542307940545
          30 :   -5.06828698704507
          31 :   -23.2494045549799
          32 :   -17.5487461891551

     Forces acting on atoms (Ry/au):

     negative rho (up, down):  4.822E-03 0.000E+00
     atom    1 type  1   force =     0.00172597    0.00099667   -0.00200962
     atom    2 type  1   force =    -0.00172592    0.00099655   -0.00200945
     atom    3 type  1   force =    -0.00000001   -0.00199304   -0.00200953
     atom    4 type  1   force =    -0.00000001   -0.00000001   -0.00028827
     atom    5 type  1   force =    -0.00000029    0.03043392   -0.01093888
     atom    6 type  1   force =     0.00000047   -0.00000010    0.04290156
     atom    7 type  1   force =    -0.02635739   -0.01521706   -0.01093996
     atom    8 type  1   force =     0.02635736   -0.01521735   -0.01093865
     atom    9 type  1   force =     0.00000043    0.00000104    0.00049999
     atom   10 type  1   force =    -0.00000066   -0.00029356   -0.00053088
     atom   11 type  1   force =    -0.00025088    0.00014482   -0.00052699
     atom   12 type  1   force =     0.00025233    0.00014629   -0.00052973
     atom   13 type  2   force =    -0.00000085    0.00000130   -0.00137523
     atom   14 type  3   force =    -0.00000053    0.00000053   -0.00130438

     Total force =     0.002222     Total SCF correction =     0.000439
     SCF correction compared to forces is large: reduce conv_thr to get better values

     entering subroutine stress ...

     negative rho (up, down):  4.822E-03 0.000E+00
          total   stress  (Ry/bohr**3)                   (kbar)     P=  -15.66
  -0.00015883   0.00000000  -0.00000000        -23.36      0.00     -0.00
   0.00000000  -0.00015883   0.00000000          0.00    -23.36      0.00
  -0.00000000   0.00000000  -0.00000176         -0.00      0.00     -0.26

     bfgs converged in  14 scf cycles and  13 bfgs steps
     (criteria: energy <  1.0E+00, force <  1.9E-03)

     End of BFGS Geometry Optimization

     Final energy   =   -1443.8549215143 Ry
Begin final coordinates

ATOMIC_POSITIONS (crystal)
Nb1      0.166666667   0.166666667   0.402010442    0   0   0
Nb1      0.666666667   0.166666667   0.402010442    0   0   0
Nb1      0.166666667   0.666666667   0.402010442    0   0   0
Nb1      0.666666667   0.666666667   0.402010442    0   0   0
Nb1      0.833333333   0.333333333   0.500000000    0   0   0
Nb1      0.333333333   0.333333333   0.500000000    0   0   0
Nb1      0.833333333   0.833333333   0.500000000    0   0   0
Nb1      0.333333333   0.833333333   0.500000000    0   0   0
Nb1      0.000000099  -0.000001434   0.581733511
Nb1      0.500962682  -0.001925378   0.602516257
Nb1     -0.001926851   0.500963038   0.602515901
Nb1      0.500963174   0.500962663   0.602516202
N1       0.333334228   0.333332325   0.651910091
H1       0.333335738   0.333331100   0.693189642
End final coordinates

     Writing output data file calc.save

     General routines

     Parallel routines

   This run was terminated on:  11:53: 8  19Apr2018

   JOB DONE.
Job  /afs/slac/g/suncat/bin/suncat-tsmpirun -x LD_LIBRARY_PATH -wdir /scratch/qe774415_vJBNU pw.x -npool 4 -in pw.inp

TID   HOST_NAME   COMMAND_LINE            STATUS            TERMINATION_TIME
00000 suncat0037 pw.x -npool 4 -i  Done                     04/19/2018 11:53:08
00001 suncat0037 pw.x -npool 4 -i  Done                     04/19/2018 11:53:08
00002 suncat0037 pw.x -npool 4 -i  Done                     04/19/2018 11:53:08
00003 suncat0037 pw.x -npool 4 -i  Done                     04/19/2018 11:53:08
00004 suncat0037 pw.x -npool 4 -i  Done                     04/19/2018 11:53:08
00005 suncat0037 pw.x -npool 4 -i  Done                     04/19/2018 11:53:08
00006 suncat0037 pw.x -npool 4 -i  Done                     04/19/2018 11:53:08
00007 suncat0037 pw.x -npool 4 -i  Done                     04/19/2018 11:53:08
00008 suncat0126 pw.x -npool 4 -i  Done                     04/19/2018 11:53:08
00009 suncat0126 pw.x -npool 4 -i  Done                     04/19/2018 11:53:08
00010 suncat0126 pw.x -npool 4 -i  Done                     04/19/2018 11:53:08
00011 suncat0126 pw.x -npool 4 -i  Done                     04/19/2018 11:53:08
00012 suncat0126 pw.x -npool 4 -i  Done                     04/19/2018 11:53:08
00013 suncat0126 pw.x -npool 4 -i  Done                     04/19/2018 11:53:08
00014 suncat0126 pw.x -npool 4 -i  Done                     04/19/2018 11:53:08
00015 suncat0126 pw.x -npool 4 -i  Done                     04/19/2018 11:53:08
00016 suncat0273 pw.x -npool 4 -i  Done                     04/19/2018 11:53:08
00017 suncat0273 pw.x -npool 4 -i  Done                     04/19/2018 11:53:08
00018 suncat0273 pw.x -npool 4 -i  Done                     04/19/2018 11:53:08
00019 suncat0273 pw.x -npool 4 -i  Done                     04/19/2018 11:53:08
00020 suncat0273 pw.x -npool 4 -i  Done                     04/19/2018 11:53:08
00021 suncat0273 pw.x -npool 4 -i  Done                     04/19/2018 11:53:08
00022 suncat0273 pw.x -npool 4 -i  Done                     04/19/2018 11:53:08
00023 suncat0273 pw.x -npool 4 -i  Done                     04/19/2018 11:53:08
00024 suncat0243 pw.x -npool 4 -i  Done                     04/19/2018 11:53:08
00025 suncat0243 pw.x -npool 4 -i  Done                     04/19/2018 11:53:08
00026 suncat0243 pw.x -npool 4 -i  Done                     04/19/2018 11:53:08
00027 suncat0243 pw.x -npool 4 -i  Done                     04/19/2018 11:53:08
00028 suncat0243 pw.x -npool 4 -i  Done                     04/19/2018 11:53:08
00029 suncat0243 pw.x -npool 4 -i  Done                     04/19/2018 11:53:08
00030 suncat0243 pw.x -npool 4 -i  Done                     04/19/2018 11:53:08
00031 suncat0243 pw.x -npool 4 -i  Done                     04/19/2018 11:53:08