     Program PWSCF v.5.1rc2 (svn rev. 11289) starts on 16Jan2018 at 23: 4:33

     Current dimensions of program PWSCF are:
     Max number of different atomic species (ntypx) = 10
     Max number of k-points (npk) =  40000
     Max angular momentum in pseudopotentials (lmaxx) =  3
     Presently stress not available with electric field

     IMPORTANT: XC functional enforced from input :
     Exchange-correlation      = BEEF-VDW ( 1  4 27 13 2)
     Any further DFT definition will be discarded
     Please, verify this is what you really want

     Subspace diagonalization in iterative solution of the eigenvalue problem:
     a serial algorithm will be used

     bravais-lattice index     =            0
     lattice parameter (alat)  =       1.8897  a.u.
     unit-cell volume          =    4806.0858 (a.u.)^3
     number of atoms/cell      =           13
     number of atomic types    =            2
     number of electrons       =       145.00
     number of Kohn-Sham states=           82
     kinetic-energy cutoff     =      36.7493  Ry
     charge density cutoff     =     367.4932  Ry
     convergence threshold     =      1.0E-05
     mixing beta               =       0.3000
     number of iterations used =           10  plain     mixing
     Exchange-correlation      = BEEF-VDW ( 1  4 27 13 2)
     nstep                     =           50

     celldm(1)=   1.889726  celldm(2)=   0.000000  celldm(3)=   0.000000
     celldm(4)=   0.000000  celldm(5)=   0.000000  celldm(6)=   0.000000

     crystal axes: (cart. coord. in units of alat)
               a(1) = (   5.768903   0.000000   0.000000 )
               a(2) = (   2.884451   4.996016   0.000000 )
               a(3) = (   0.000000   0.000000  24.710289 )

     reciprocal axes: (cart. coord. in units 2 pi/alat)
               b(1) = (  0.173343 -0.100080  0.000000 )
               b(2) = (  0.000000  0.200159  0.000000 )
               b(3) = (  0.000000  0.000000  0.040469 )

     PseudoPot. # 1 for Ti read from file:
     /afs/slac.stanford.edu/u/if/mamunm/psp/gbrv1.5pbe/Ti.UPF
     MD5 check sum: 88a00a6731bd790ddea75d31a80cb452
     Pseudo is Ultrasoft + core correction, Zval = 12.0
     Generated by new atomic code, or converted to UPF format
     Using radial grid of  851 points,  6 beta functions with:
                l(1) =   0
                l(2) =   0
                l(3) =   1
                l(4) =   1
                l(5) =   2
                l(6) =   2
     Q(r) pseudized with  6 coefficients,  rinner =    1.000   1.000   1.000
                                                       1.000   1.000

     PseudoPot. # 2 for H  read from file:
     /afs/slac.stanford.edu/u/if/mamunm/psp/gbrv1.5pbe/H.UPF
     MD5 check sum: 761ae9a214b05c3daf00ab9f6b793d6f
     Pseudo is Ultrasoft, Zval =  1.0
     Generated by new atomic code, or converted to UPF format
     Using radial grid of  615 points,  2 beta functions with:
                l(1) =   0
                l(2) =   0
     Q(r) pseudized with  8 coefficients,  rinner =    0.700

     vdW kernel table read from file vdW_kernel_table
     MD5 check sum: 095c7af220d748ca6e76c0b4c6cfb241

     atomic species   valence    mass     pseudopotential
        Ti1           12.00    47.86700     Ti( 1.00)
        H1             1.00     1.00800     H ( 1.00)

     No symmetry found

   Cartesian axes

     site n.     atom                  positions (alat units)
         1           Ti1 tau(   1) = (   1.4422257   0.8326694  10.0000000  )
         2           Ti1 tau(   2) = (   4.3266771   0.8326694  10.0000000  )
         3           Ti1 tau(   3) = (   2.8844514   3.3306776  10.0000000  )
         4           Ti1 tau(   4) = (   5.7689029   3.3306776  10.0000000  )
         5           Ti1 tau(   5) = (   5.7689029   1.6653388  12.3551447  )
         6           Ti1 tau(   6) = (   2.8844514   1.6653388  12.3551447  )
         7           Ti1 tau(   7) = (   7.2111286   4.1633470  12.3551447  )
         8           Ti1 tau(   8) = (   4.3266771   4.1633470  12.3551447  )
         9           Ti1 tau(   9) = (   0.0000000   0.0000000  14.7102895  )
        10           Ti1 tau(  10) = (   2.8844514   0.0000000  14.7102895  )
        11           Ti1 tau(  11) = (   1.4422257   2.4980082  14.7102895  )
        12           Ti1 tau(  12) = (   4.3266771   2.4980082  14.7102895  )
        13           H1  tau(  13) = (   1.4422257   0.8326694  16.6202895  )

     number of k points=    20  Fermi-Dirac smearing, width (Ry)=  0.0110
                       cart. coord. in units 2pi/alat
        k(    1) = (   0.0000000   0.0000000   0.0000000), wk =   0.0555556
        k(    2) = (   0.0000000   0.0333599   0.0000000), wk =   0.1111111
        k(    3) = (   0.0000000   0.0667198   0.0000000), wk =   0.1111111
        k(    4) = (   0.0000000  -0.1000797   0.0000000), wk =   0.0555556
        k(    5) = (   0.0288905  -0.0166800   0.0000000), wk =   0.1111111
        k(    6) = (   0.0288905   0.0166800   0.0000000), wk =   0.1111111
        k(    7) = (   0.0288905   0.0500399   0.0000000), wk =   0.1111111
        k(    8) = (   0.0288905  -0.1167597   0.0000000), wk =   0.1111111
        k(    9) = (   0.0288905  -0.0833998   0.0000000), wk =   0.1111111
        k(   10) = (   0.0288905  -0.0500399   0.0000000), wk =   0.1111111
        k(   11) = (   0.0577811  -0.0333599   0.0000000), wk =   0.1111111
        k(   12) = (   0.0577811  -0.0000000   0.0000000), wk =   0.1111111
        k(   13) = (   0.0577811   0.0333599   0.0000000), wk =   0.1111111
        k(   14) = (   0.0577811  -0.1334396   0.0000000), wk =   0.1111111
        k(   15) = (   0.0577811  -0.1000797   0.0000000), wk =   0.1111111
        k(   16) = (   0.0577811  -0.0667198   0.0000000), wk =   0.1111111
        k(   17) = (  -0.0866716   0.0500399   0.0000000), wk =   0.0555556
        k(   18) = (  -0.0866716   0.0833998   0.0000000), wk =   0.1111111
        k(   19) = (  -0.0866716   0.1167597   0.0000000), wk =   0.1111111
        k(   20) = (  -0.0866716  -0.0500399   0.0000000), wk =   0.0555556

     Largest allocated arrays     est. size (Mb)     dimensions
     Largest temporary arrays     est. size (Mb)     dimensions

     Check: negative/imaginary core charge=   -0.000006    0.000000

     Initial potential from superposition of free atoms
     Check: negative starting charge=   -0.012750

     starting charge  132.99946, renormalised to  145.00000

     negative rho (up, down):  1.390E-02 0.000E+00

     *
     * You are using vdW-DF for exchange-correlation in this calculation.
     * Please cite the following three references that made this development
     * possible:
     *
     *   M. Dion, H. Rydberg, E. Schroder, D. C. Langreth, and
     *   B. I. Lundqvist, Phys. Rev. Lett. 92, 246401 (2004).
     *
     *   T. Thonhauser, V. R. Cooper, S. Li, A. Puzder, P. Hyldgaard, and
     *   D. C. Langreth, Phys. Rev. B 76, 125112 (2007).
     *
     *   G. Roman-Perez and J. M. Soler, Phys. Rev. Lett. 103, 096102 (2009).
     *
     *
     * If you are using vdW-DF2, please also cite:
     *
     *   K. Lee, E. D. Murray, L. Kong, B. I. Lundqvist, and
     *   D. C. Langreth, Phys. Rev. B 82, 081101(R) (2010).
     *
     *
     * If you are calculating the stress with vdW-DF, please also cite:
     *
     *   R. Sabatini, E. Kucukbenli, B. Kolb, T. Thonhauser, and
     *   S. de Gironcoli, J. Phys.: Condens. Matter 24, 424209 (2012).
     *

     Carrying out vdW-DF run using the following parameters:

     Nqs =      20    Nr_points =    1024   r_max =   100.000
     q_mesh =
               0.00001000     0.04494208     0.09755937     0.15916263
               0.23128650     0.31572767     0.41458969     0.53033537
               0.66584808     0.82450364     1.01025438     1.22772762
               1.48234092     1.78043706     2.12944203     2.53805004
               3.01644009     3.57652955     4.23227104     5.00000000

     Gradients computed in reciprocal space

     Adding external electric field

     Computed dipole along edir(3) :
        Dipole               -0.7272 Ry au,         -1.8483 Debye
        Dipole field         -0.0019 Ry au

        Potential amp.        0.1731 Ry
        Total length         45.5283 bohr

     Starting wfc are  121 randomized atomic wfcs

     Self-consistent Calculation

     iteration #  1     ecut=    36.75 Ry     beta=0.30
     Davidson diagonalization with overlap
     ethr =  1.00E-02,  avg # of iterations =  5.9

[...]

     total energy              =   -1429.26301875 Ry
     Harris-Foulkes estimate   =   -1442.02886919 Ry
     estimated scf accuracy    <      27.14415704 Ry

[...]

     iteration # 15     ecut=    36.75 Ry     beta=0.30
     Davidson diagonalization with overlap
     c_bands:  4 eigenvalues not converged
     ethr =  2.02E-05,  avg # of iterations =  8.1

[...]

     End of self-consistent calculation

          k = 0.0000 0.0000 0.0000 ( 18103 PWs)   bands (ev):

   -56.4663 -56.4104 -56.3774 -56.3744 -56.3736 -56.3191 -56.3186 -56.3181
   -56.2199 -56.1455 -56.1452 -56.1332 -32.9233 -32.9104 -32.9101 -32.8630
   -32.8552 -32.8551 -32.8548 -32.7924 -32.7884 -32.7882 -32.7001 -32.6301
   -32.6230 -32.6226 -32.5136 -32.5130 -32.5127 -32.4934 -32.4930 -32.4727
   -32.4400 -32.4397 -32.4393 -32.3577 -32.3576 -32.3380 -32.3378 -32.3280
   -32.3124 -32.3124 -32.3083 -32.2481 -32.2432 -32.2431 -32.1313 -32.1313
    -4.9204  -3.7329  -2.5462  -1.8718  -1.7263  -1.7263  -1.7263  -1.6085
    -1.6084  -1.4289  -1.1886  -1.1885  -1.1175  -0.9516  -0.9516  -0.8860
    -0.3114  -0.3113  -0.1850   0.5010   0.7483   0.7987   0.7988   0.9124
     1.1040   1.1244   1.1404   1.1405   1.3664   1.3665   1.5339   1.5486
     1.5490   1.5686

[...]

          k =-0.0867 0.0500 0.0000 ( 18044 PWs)   bands (ev):

[...]

     the Fermi energy is     0.5923 ev

!    total energy              =   -1439.72079643 Ry
     Harris-Foulkes estimate   =   -1439.72079982 Ry
     estimated scf accuracy    <       0.00000521 Ry

     The total energy is the sum of the following terms:

     one-electron contribution =  -10887.93815581 Ry
     hartree contribution      =    5428.48737513 Ry
     xc contribution           =    -225.47345378 Ry
     ewald contribution        =    4245.33553478 Ry
     electric field correction =       0.00004486 Ry
     smearing contrib. (-TS)   =      -0.13214160 Ry

     convergence has been achieved in  27 iterations

 BEEF-vdW xc energy contributions
           1 :   -193.810816536497
           2 :    173.162225767448
           3 :   -139.312481159436
           4 :    103.078084592846
           5 :   -73.3346152264224
           6 :    53.5504806999402
           7 :   -41.7848070491104
           8 :    33.4426996009778
           9 :   -24.6562460635168
          10 :    14.2329835237328
          11 :   -3.45030419337445
          12 :   -5.60413040345156
          13 :    11.7398763895111
          14 :   -15.3312486326625
          15 :    17.7361195186243
          16 :   -20.1170283987491
          17 :    22.5948672988644
          18 :   -24.3060497800949
          19 :    24.2078936182980
[...]

[...]

     Total force =     0.068254     Total SCF correction =     0.007290
     SCF correction compared to forces is large: reduce conv_thr to get better values

[...]

     Total force =     0.133607     Total SCF correction =     0.003224

[...]

     Program PWSCF v.5.1rc2 (svn rev. 11289) starts on 16Jan2018 at 23:53: 1

[...]

   This run was terminated on:   0: 8:31  17Jan2018

[...]

     Program PWSCF v.5.1rc2 (svn rev. 11289) starts on 17Jan2018 at  0: 8:37

[...]

     Program PWSCF v.5.1rc2 (svn rev. 11289) starts on 17Jan2018 at  0:28: 2

[...]

     Program PWSCF v.5.1rc2 (svn rev. 11289) starts on 17Jan2018 at  1:27:32

     Current dimensions of program PWSCF are:
     Max number of different atomic species (ntypx) = 10
     Max number of k-points (npk) =  40000
     Max angular momentum in pseudopotentials (lmaxx) =  3
     Presently stress not available with electric field

     IMPORTANT: XC functional enforced from input :
     Exchange-correlation      = BEEF-VDW ( 1  4 27 13 2)
     Any further DFT definition will be discarded
     Please, verify this is what you really want

     Subspace diagonalization in iterative solution of the eigenvalue problem:
     a serial algorithm will be used

     bravais-lattice index     =            0
     lattice parameter (alat)  =       1.8897  a.u.
     unit-cell volume          =    4806.0858 (a.u.)^3
     number of atoms/cell      =           13
     number of atomic types    =            2
     number of electrons       =       145.00
     number of Kohn-Sham states=           82
     kinetic-energy cutoff     =      36.7493  Ry
     charge density cutoff     =     367.4932  Ry
     convergence threshold     =      1.0E-05
     mixing beta               =       0.3000
     number of iterations used =           10  plain     mixing
     Exchange-correlation      = BEEF-VDW ( 1  4 27 13 2)
     nstep                     =           50

     celldm(1)=   1.889726  celldm(2)=   0.000000  celldm(3)=   0.000000
     celldm(4)=   0.000000  celldm(5)=   0.000000  celldm(6)=   0.000000

     crystal axes: (cart. coord. in units of alat)
               a(1) = (   5.768903   0.000000   0.000000 )
               a(2) = (   2.884451   4.996016   0.000000 )
               a(3) = (   0.000000   0.000000  24.710289 )

     reciprocal axes: (cart. coord. in units 2 pi/alat)
               b(1) = (  0.173343 -0.100080  0.000000 )
               b(2) = (  0.000000  0.200159  0.000000 )
               b(3) = (  0.000000  0.000000  0.040469 )

     PseudoPot. # 1 for Ti read from file:
     /afs/slac.stanford.edu/u/if/mamunm/psp/gbrv1.5pbe/Ti.UPF
     MD5 check sum: 88a00a6731bd790ddea75d31a80cb452
     Pseudo is Ultrasoft + core correction, Zval = 12.0
     Generated by new atomic code, or converted to UPF format
     Using radial grid of  851 points,  6 beta functions with:
                l(1) =   0
                l(2) =   0
                l(3) =   1
                l(4) =   1
                l(5) =   2
                l(6) =   2
     Q(r) pseudized with  6 coefficients,  rinner =    1.000   1.000   1.000
                                                       1.000   1.000

     PseudoPot. # 2 for H  read from file:
     /afs/slac.stanford.edu/u/if/mamunm/psp/gbrv1.5pbe/H.UPF
     MD5 check sum: 761ae9a214b05c3daf00ab9f6b793d6f
     Pseudo is Ultrasoft, Zval =  1.0
     Generated by new atomic code, or converted to UPF format
     Using radial grid of  615 points,  2 beta functions with:
                l(1) =   0
                l(2) =   0
     Q(r) pseudized with  8 coefficients,  rinner =    0.700

     vdW kernel table read from file vdW_kernel_table
     MD5 check sum: 095c7af220d748ca6e76c0b4c6cfb241

     atomic species   valence    mass     pseudopotential
        Ti1           12.00    47.86700     Ti( 1.00)
        H1             1.00     1.00800     H ( 1.00)

     No symmetry found

   Cartesian axes

     site n.     atom                  positions (alat units)
         1           Ti1 tau(   1) = (   1.4422257   0.8326694  10.0000000  )
         2           Ti1 tau(   2) = (   4.3266771   0.8326694  10.0000000  )
         3           Ti1 tau(   3) = (   2.8844514   3.3306776  10.0000000  )
         4           Ti1 tau(   4) = (   5.7689029   3.3306776  10.0000000  )
         5           Ti1 tau(   5) = (   5.7689029   1.6653388  12.3551447  )
         6           Ti1 tau(   6) = (   2.8844514   1.6653388  12.3551447  )
         7           Ti1 tau(   7) = (   7.2111286   4.1633470  12.3551447  )
         8           Ti1 tau(   8) = (   4.3266771   4.1633470  12.3551447  )
         9           Ti1 tau(   9) = (   0.0168341   0.0100711  14.6548955  )
        10           Ti1 tau(  10) = (   2.8676306   0.0101663  14.6548338  )
        11           Ti1 tau(  11) = (   1.4422908   2.4782614  14.6546311  )
        12           Ti1 tau(  12) = (   4.3265794   2.4976916  14.5793767  )
        13           H1  tau(  13) = (   1.4421566   0.8325509  15.7846932  )

     number of k points=    20  Fermi-Dirac smearing, width (Ry)=  0.0110
                       cart. coord. in units 2pi/alat
        k(    1) = (   0.0000000   0.0000000   0.0000000), wk =   0.0555556
        k(    2) = (   0.0000000   0.0333599   0.0000000), wk =   0.1111111
        k(    3) = (   0.0000000   0.0667198   0.0000000), wk =   0.1111111
        k(    4) = (   0.0000000  -0.1000797   0.0000000), wk =   0.0555556
        k(    5) = (   0.0288905  -0.0166800   0.0000000), wk =   0.1111111
        k(    6) = (   0.0288905   0.0166800   0.0000000), wk =   0.1111111
        k(    7) = (   0.0288905   0.0500399   0.0000000), wk =   0.1111111
        k(    8) = (   0.0288905  -0.1167597   0.0000000), wk =   0.1111111
        k(    9) = (   0.0288905  -0.0833998   0.0000000), wk =   0.1111111
        k(   10) = (   0.0288905  -0.0500399   0.0000000), wk =   0.1111111
        k(   11) = (   0.0577811  -0.0333599   0.0000000), wk =   0.1111111
        k(   12) = (   0.0577811  -0.0000000   0.0000000), wk =   0.1111111
        k(   13) = (   0.0577811   0.0333599   0.0000000), wk =   0.1111111
        k(   14) = (   0.0577811  -0.1334396   0.0000000), wk =   0.1111111
        k(   15) = (   0.0577811  -0.1000797   0.0000000), wk =   0.1111111
        k(   16) = (   0.0577811  -0.0667198   0.0000000), wk =   0.1111111
        k(   17) = (  -0.0866716   0.0500399   0.0000000), wk =   0.0555556
        k(   18) = (  -0.0866716   0.0833998   0.0000000), wk =   0.1111111
        k(   19) = (  -0.0866716   0.1167597   0.0000000), wk =   0.1111111
        k(   20) = (  -0.0866716  -0.0500399   0.0000000), wk =   0.0555556

     Largest allocated arrays     est. size (Mb)     dimensions
     Largest temporary arrays     est. size (Mb)     dimensions

     Check: negative/imaginary core charge=   -0.000006    0.000000

     Initial potential from superposition of free atoms
     Check: negative starting charge=   -0.013558

     starting charge  132.99946, renormalised to  145.00000

[...]

     *
     * You are using vdW-DF for exchange-correlation in this calculation.
     * Please cite the following three references that made this development
     * possible:
     *
     *   M. Dion, H. Rydberg, E. Schroder, D. C. Langreth, and
     *   B. I. Lundqvist, Phys. Rev. Lett. 92, 246401 (2004).
     *
     *   T. Thonhauser, V. R. Cooper, S. Li, A. Puzder, P. Hyldgaard, and
     *   D. C. Langreth, Phys. Rev. B 76, 125112 (2007).
     *
     *   G. Roman-Perez and J. M. Soler, Phys. Rev. Lett. 103, 096102 (2009).
     *
     *
     * If you are using vdW-DF2, please also cite:
     *
     *   K. Lee, E. D. Murray, L. Kong, B. I. Lundqvist, and
     *   D. C. Langreth, Phys. Rev. B 82, 081101(R) (2010).
     *
     *
     * If you are calculating the stress with vdW-DF, please also cite:
     *
     *   R. Sabatini, E. Kucukbenli, B. Kolb, T. Thonhauser, and
     *   S. de Gironcoli, J. Phys.: Condens. Matter 24, 424209 (2012).
     *

     Carrying out vdW-DF run using the following parameters:

     Nqs =      20    Nr_points =    1024   r_max =   100.000
     q_mesh =
               0.00001000     0.04494208     0.09755937     0.15916263
               0.23128650     0.31572767     0.41458969     0.53033537
               0.66584808     0.82450364     1.01025438     1.22772762
               1.48234092     1.78043706     2.12944203     2.53805004
               3.01644009     3.57652955     4.23227104     5.00000000

     Gradients computed in reciprocal space

[...]

     Starting wfc are  121 randomized atomic wfcs

     Self-consistent Calculation

[...]

     iteration # 16     ecut=    36.75 Ry     beta=0.30
     Davidson diagonalization with overlap
     c_bands:  1 eigenvalues not converged
     ethr =  5.79E-07,  avg # of iterations =  7.7

[...]

     total energy              =   -1439.78718553 Ry
     Harris-Foulkes estimate   =   -1439.78718818 Ry
     estimated scf accuracy    <       0.00016127 Ry

     iteration # 22     ecut=    36.75 Ry     beta=0.30
     Davidson diagonalization with overlap
     ethr =  1.11E-07,  avg # of iterations =  2.7

[...]

     negative rho (up, down):  8.291E-03 0.000E+00

     Adding external electric field

     Computed dipole along edir(3) :
        Dipole                0.0261 Ry au,          0.0662 Debye
        Dipole field          0.0001 Ry au

        Potential amp.       -0.0062 Ry
        Total length         45.5283 bohr

     End of self-consistent calculation

[...]

          k = 0.0578-0.0667 0.0000 ( 18031 PWs)   bands (ev):

[...]

          k =-0.0867-0.0500 0.0000 ( 18044 PWs)   bands (ev):

   -56.2232 -56.2062 -56.1975 -56.1970 -56.1745 -56.1521 -56.1519 -56.1301
   -55.9715 -55.9693 -55.9338 -55.9305 -32.6310 -32.6243 -32.6144 -32.6035
   -32.5847 -32.5780 -32.5436 -32.5421 -32.5150 -32.5074 -32.4805 -32.4717
   -32.4460 -32.4243 -32.4201 -32.4050 -32.3889 -32.3815 -32.3797 -32.3674
   -32.2589 -32.2428 -32.2227 -32.2139 -32.2083 -32.1998 -32.1619 -32.1587
   -32.1414 -32.1355 -32.1047 -32.0927 -32.0864 -32.0763 -31.9834 -31.9797
    -4.2929  -3.1569  -2.9722  -2.0024  -1.6722  -1.1890  -1.1889  -0.9310
    -0.9207  -0.9093  -0.7458  -0.2178  -0.2091  -0.1923  -0.1737  -0.0386
    -0.0074   0.2608   0.2954   0.3036   0.3137   0.3464   0.4428   0.5612
     0.5671   0.6064   0.7093   0.7596   0.8350   0.8387   1.0182   1.0653
     1.3152   1.3752

     the Fermi energy is     0.7513 ev

!    total energy              =   -1439.78718381 Ry
     Harris-Foulkes estimate   =   -1439.78718705 Ry
     estimated scf accuracy    <       0.00000548 Ry

     The total energy is the sum of the following terms:

     one-electron contribution =  -11037.97104158 Ry
     hartree contribution      =    5504.39810698 Ry
     xc contribution           =    -225.69218546 Ry
     ewald contribution        =    4319.60897658 Ry
     electric field correction =       0.00000177 Ry
     smearing contrib. (-TS)   =      -0.13104212 Ry

     convergence has been achieved in  22 iterations

 BEEF-vdW xc energy contributions
           1 :   -194.032142608300
           2 :    173.449678030787
           3 :   -139.640030517100
           4 :    103.339969856792
           5 :   -73.4388223990732
           6 :    53.4961128397542
           7 :   -41.6614525581469
           8 :    33.3592339563412
           9 :   -24.6643307233232
          10 :    14.3043385623894
          11 :   -3.51645276591410
          12 :   -5.59096038250448
          13 :    11.7733620101530
          14 :   -15.3644181058593
          15 :    17.7237310376861
          16 :   -20.0535864245923
          17 :    22.5212942726024
          18 :   -24.2810424332539
          19 :    24.2643020948185
          20 :   -22.0742607154681
          21 :    18.3053504990861
          22 :   -14.1085707619556
          23 :    10.3969340356570
          24 :   -7.31802102491037
          25 :    4.34743657974019
          26 :  -0.864212733839736
          27 :   -3.27202619286800
          28 :    7.56278164572171
          29 :   -11.2046974998149
          30 :    13.6222961941718
          31 :   -20.5897022589436
          32 :   -14.6731300580664

     Forces acting on atoms (Ry/au):

     negative rho (up, down):  8.291E-03 0.000E+00
     atom    1 type  1   force =    -0.00000063    0.00000093    0.00689967
     atom    2 type  1   force =     0.00000116    0.00059546    0.00761068
     atom    3 type  1   force =     0.00050719   -0.00029155    0.00761232
     atom    4 type  1   force =    -0.00051624   -0.00030310    0.00760707
     atom    5 type  1   force =     0.00214381   -0.00129139   -0.00814768
     atom    6 type  1   force =    -0.00214847   -0.00122332   -0.00817487
     atom    7 type  1   force =     0.00003030    0.00002324   -0.00513542
     atom    8 type  1   force =    -0.00004424    0.00249145   -0.00808091
     atom    9 type  1   force =     0.00026794    0.00008900    0.00005363
     atom   10 type  1   force =    -0.00025020    0.00008118    0.00006918
     atom   11 type  1   force =    -0.00000605   -0.00022414    0.00008213
     atom   12 type  1   force =     0.00000155    0.00004540    0.00002958
     atom   13 type  2   force =     0.00001388    0.00000685   -0.00042537

     Total force =     0.021593     Total SCF correction =     0.009151
     SCF correction compared to forces is large: reduce conv_thr to get better values

     entering subroutine stress ...

     negative rho (up, down):  8.291E-03 0.000E+00
          total   stress  (Ry/bohr**3)                   (kbar)     P=   -1.77
  -0.00000177   0.00000000   0.00000001         -0.26      0.00      0.00
   0.00000000  -0.00000172  -0.00000002          0.00     -0.25     -0.00
   0.00000001  -0.00000002  -0.00003261          0.00     -0.00     -4.80

 !ASE

     Writing output data file calc.save

     General routines

     Parallel routines

   This run was terminated on:   1:40:42  17Jan2018

   JOB DONE.
Job  /afs/slac/g/suncat/bin/suncat-tsmpirun -x LD_LIBRARY_PATH -wdir /scratch/qe842487_g3GiD pw.x -in pw.inp

TID   HOST_NAME   COMMAND_LINE            STATUS            TERMINATION_TIME
00000 suncat0267 pw.x -in pw.inp   Done                     01/17/2018 01:40:42
00001 suncat0267 pw.x -in pw.inp   Done                     01/17/2018 01:40:42
00002 suncat0267 pw.x -in pw.inp   Done                     01/17/2018 01:40:42
00003 suncat0267 pw.x -in pw.inp   Done                     01/17/2018 01:40:42
00004 suncat0267 pw.x -in pw.inp   Done                     01/17/2018 01:40:42
00005 suncat0267 pw.x -in pw.inp   Done                     01/17/2018 01:40:42
00006 suncat0267 pw.x -in pw.inp   Done                     01/17/2018 01:40:42
00007 suncat0267 pw.x -in pw.inp   Done                     01/17/2018 01:40:42
00008 suncat0220 pw.x -in pw.inp   Done                     01/17/2018 01:40:42
00009 suncat0220 pw.x -in pw.inp   Done                     01/17/2018 01:40:42
00010 suncat0220 pw.x -in pw.inp   Done                     01/17/2018 01:40:42
00011 suncat0220 pw.x -in pw.inp   Done                     01/17/2018 01:40:42
00012 suncat0220 pw.x -in pw.inp   Done                     01/17/2018 01:40:42
00013 suncat0220 pw.x -in pw.inp   Done                     01/17/2018 01:40:42
00014 suncat0220 pw.x -in pw.inp   Done                     01/17/2018 01:40:42
00015 suncat0220 pw.x -in pw.inp   Done                     01/17/2018 01:40:42
00016 suncat0209 pw.x -in pw.inp   Done                     01/17/2018 01:40:42
00017 suncat0209 pw.x -in pw.inp   Done                     01/17/2018 01:40:42
00018 suncat0209 pw.x -in pw.inp   Done                     01/17/2018 01:40:42
00019 suncat0209 pw.x -in pw.inp   Done                     01/17/2018 01:40:42
00020 suncat0209 pw.x -in pw.inp   Done                     01/17/2018 01:40:42
00021 suncat0209 pw.x -in pw.inp   Done                     01/17/2018 01:40:42
00022 suncat0209 pw.x -in pw.inp   Done                     01/17/2018 01:40:42
00023 suncat0209 pw.x -in pw.inp   Done                     01/17/2018 01:40:42
00024 suncat0205 pw.x -in pw.inp   Done                     01/17/2018 01:40:42
00025 suncat0205 pw.x -in pw.inp   Done                     01/17/2018 01:40:42
00026 suncat0205 pw.x -in pw.inp   Done                     01/17/2018 01:40:42
00027 suncat0205 pw.x -in pw.inp   Done                     01/17/2018 01:40:42
00028 suncat0205 pw.x -in pw.inp   Done                     01/17/2018 01:40:42
00029 suncat0205 pw.x -in pw.inp   Done                     01/17/2018 01:40:42
00030 suncat0205 pw.x -in pw.inp   Done                     01/17/2018 01:40:42
00031 suncat0205 pw.x -in pw.inp   Done                     01/17/2018 01:40:42