     Program PWSCF v.5.1rc2 (svn rev. 11289) starts on 27Apr2018 at 11:54: 8

     Current dimensions of program PWSCF are:
     Max number of different atomic species (ntypx) = 10
     Max number of k-points (npk) =  40000
     Max angular momentum in pseudopotentials (lmaxx) =  3
     Presently stress not available with electric field

     IMPORTANT: XC functional enforced from input :
     Exchange-correlation      = BEEF-VDW ( 1  4 27 13 2)
     Any further DFT definition will be discarded
     Please, verify this is what you really want

     Subspace diagonalization in iterative solution of the eigenvalue problem:
     a serial algorithm will be used

     bravais-lattice index     =            0
     lattice parameter (alat)  =       1.8897  a.u.
     unit-cell volume          =    6082.7792 (a.u.)^3
     number of atoms/cell      =           14
     number of atomic types    =            3
     number of electrons       =       150.00
     number of Kohn-Sham states=           85
     kinetic-energy cutoff     =      36.7493  Ry
     charge density cutoff     =     367.4932  Ry
     convergence threshold     =      1.0E-05
     mixing beta               =       0.3000
     number of iterations used =           10  plain     mixing
     Exchange-correlation      = BEEF-VDW ( 1  4 27 13 2)
     nstep                     =           50

     celldm(1)=   1.889726  celldm(2)=   0.000000  celldm(3)=   0.000000
     celldm(4)=   0.000000  celldm(5)=   0.000000  celldm(6)=   0.000000

     crystal axes: (cart. coord. in units of alat)
               a(1) = (   6.421223   0.000000   0.000000 )
               a(2) = (   3.210611   5.560942   0.000000 )
               a(3) = (   0.000000   0.000000  25.242906 )

     reciprocal axes: (cart. coord. in units 2 pi/alat)
               b(1) = (  0.155734 -0.089913  0.000000 )
               b(2) = (  0.000000  0.179826  0.000000 )
               b(3) = (  0.000000  0.000000  0.039615 )

     PseudoPot. # 1 for Zr read from file:
     /u/if/mamunm/psp/gbrv1.5pbe/Zr.UPF
     MD5 check sum: 5db81b1e868ab7776c4564c113de050b
     Pseudo is Ultrasoft + core correction, Zval = 12.0
     Generated by new atomic code, or converted to UPF format
     Using radial grid of  887 points,  6 beta functions with:
                l(1) =   0
                l(2) =   0
                l(3) =   1
                l(4) =   1
                l(5) =   2
                l(6) =   2
     Q(r) pseudized with  6 coefficients,  rinner =    1.200   1.200   1.200
                                                       1.200   1.200

     PseudoPot. # 2 for N  read from file:
     /u/if/mamunm/psp/gbrv1.5pbe/N.UPF
     MD5 check sum: 95339753478d7afb44899504a8723017
     Pseudo is Ultrasoft + core correction, Zval =  5.0
     Generated by new atomic code, or converted to UPF format
     Using radial grid of  729 points,  4 beta functions with:
                l(1) =   0
                l(2) =   0
                l(3) =   1
                l(4) =   1
     Q(r) pseudized with  8 coefficients,  rinner =    0.900   0.900   0.900

     PseudoPot. # 3 for H  read from file:
     /u/if/mamunm/psp/gbrv1.5pbe/H.UPF
     MD5 check sum: 761ae9a214b05c3daf00ab9f6b793d6f
     Pseudo is Ultrasoft, Zval =  1.0
     Generated by new atomic code, or converted to UPF format
     Using radial grid of  615 points,  2 beta functions with:
                l(1) =   0
                l(2) =   0
     Q(r) pseudized with  8 coefficients,  rinner =    0.700

     vdW kernel table read from file vdW_kernel_table
     MD5 check sum: 095c7af220d748ca6e76c0b4c6cfb241

     atomic species   valence    mass     pseudopotential
        Zr1           12.00    91.22400     Zr( 1.00)
        N1             5.00    14.00700     N ( 1.00)
        H1             1.00     1.00800     H ( 1.00)

     No symmetry found

   Cartesian axes

     site n.     atom                  positions (alat units)
         1           Zr1 tau(   1) = (   1.6053057   0.9268237  10.0000000  )
         2           Zr1 tau(   2) = (   4.8159170   0.9268237  10.0000000  )
         3           Zr1 tau(   3) = (   3.2106113   3.7072946  10.0000000  )
         4           Zr1 tau(   4) = (   6.4212227   3.7072946  10.0000000  )
         5           Zr1 tau(   5) = (   6.4212227   1.8536473  12.6214532  )
         6           Zr1 tau(   6) = (   3.2106113   1.8536473  12.6214532  )
         7           Zr1 tau(   7) = (   8.0265283   4.6341183  12.6214532  )
         8           Zr1 tau(   8) = (   4.8159170   4.6341183  12.6214532  )
         9           Zr1 tau(   9) = (   0.0000000   0.0000000  15.2429064  )
        10           Zr1 tau(  10) = (   3.2106113   0.0000000  15.2429064  )
        11           Zr1 tau(  11) = (   1.6053057   2.7804710  15.2429064  )
        12           Zr1 tau(  12) = (   4.8159170   2.7804710  15.2429064  )
        13           N1  tau(  13) = (   3.2106113   1.8536473  16.8419064  )
        14           H1  tau(  14) = (   3.2106113   1.8536473  17.8919064  )

     number of k points=    20  Fermi-Dirac smearing, width (Ry)=  0.0110
                       cart. coord. in units 2pi/alat
        k(    1) = (   0.0000000   0.0000000   0.0000000), wk =   0.0555556
        k(    2) = (   0.0000000   0.0299709   0.0000000), wk =   0.1111111
        k(    3) = (   0.0000000   0.0599419   0.0000000), wk =   0.1111111
        k(    4) = (   0.0000000  -0.0899128   0.0000000), wk =   0.0555556
        k(    5) = (   0.0259556  -0.0149855   0.0000000), wk =   0.1111111
        k(    6) = (   0.0259556   0.0149855   0.0000000), wk =   0.1111111
        k(    7) = (   0.0259556   0.0449564   0.0000000), wk =   0.1111111
        k(    8) = (   0.0259556  -0.1048983   0.0000000), wk =   0.1111111
        k(    9) = (   0.0259556  -0.0749274   0.0000000), wk =   0.1111111
        k(   10) = (   0.0259556  -0.0449564   0.0000000), wk =   0.1111111
        k(   11) = (   0.0519112  -0.0299709   0.0000000), wk =   0.1111111
        k(   12) = (   0.0519112   0.0000000   0.0000000), wk =   0.1111111
        k(   13) = (   0.0519112   0.0299709   0.0000000), wk =   0.1111111
        k(   14) = (   0.0519112  -0.1198838   0.0000000), wk =   0.1111111
        k(   15) = (   0.0519112  -0.0899128   0.0000000), wk =   0.1111111
        k(   16) = (   0.0519112  -0.0599419   0.0000000), wk =   0.1111111
        k(   17) = (  -0.0778668   0.0449564   0.0000000), wk =   0.0555556
        k(   18) = (  -0.0778668   0.0749274   0.0000000), wk =   0.1111111
        k(   19) = (  -0.0778668   0.1048983   0.0000000), wk =   0.1111111
        k(   20) = (  -0.0778668  -0.0449564   0.0000000), wk =   0.0555556

     Largest allocated arrays     est. size (Mb)     dimensions
     Largest temporary arrays     est. size (Mb)     dimensions

     Initial potential from superposition of free atoms
     Check: negative starting charge=   -0.729092

     starting charge  149.97419, renormalised to  150.00000

     negative rho (up, down):  7.292E-01 0.000E+00

     *
     * You are using vdW-DF for exchange-correlation in this calculation.
     * Please cite the following three references that made this development
     * possible:
     *
     *   M. Dion, H. Rydberg, E. Schroder, D. C. Langreth, and
     *   B. I. Lundqvist, Phys. Rev. Lett. 92, 246401 (2004).
     *
     *   T. Thonhauser, V. R. Cooper, S. Li, A. Puzder, P. Hyldgaard, and
     *   D. C. Langreth, Phys. Rev. B 76, 125112 (2007).
     *
     *   G. Roman-Perez and J. M. Soler, Phys. Rev. Lett. 103, 096102 (2009).
     *
     *
     * If you are using vdW-DF2, please also cite:
     *
     *   K. Lee, E. D. Murray, L. Kong, B. I. Lundqvist, and
     *   D. C. Langreth, Phys. Rev. B 82, 081101(R) (2010).
     *
     *
     * If you are calculating the stress with vdW-DF, please also cite:
     *
     *   R. Sabatini, E. Kucukbenli, B. Kolb, T. Thonhauser, and
     *   S. de Gironcoli, J. Phys.: Condens. Matter 24, 424209 (2012).
     *

     Carrying out vdW-DF run using the following parameters:

     Nqs =      20    Nr_points =    1024   r_max =   100.000
     q_mesh =
               0.00001000     0.04494208     0.09755937     0.15916263
               0.23128650     0.31572767     0.41458969     0.53033537
               0.66584808     0.82450364     1.01025438     1.22772762
               1.48234092     1.78043706     2.12944203     2.53805004
               3.01644009     3.57652955     4.23227104     5.00000000

     Gradients computed in reciprocal space

     Adding external electric field

     Computed dipole along edir(3) :
        Dipole               -0.0084 Ry au,         -0.0214 Debye
        Dipole field         -0.0000 Ry au

        Potential amp.        0.0016 Ry
        Total length         46.5096 bohr

     Starting wfc are  161 randomized atomic wfcs

     Self-consistent Calculation

     iteration #  1     ecut=    36.75 Ry     beta=0.30
     Davidson diagonalization with overlap
     ethr =  1.00E-02,  avg # of iterations =  2.0

[...]

     total energy              =   -1215.61766992 Ry
     Harris-Foulkes estimate   =   -1219.24871035 Ry
     estimated scf accuracy    <       7.72100437 Ry

[...]

     End of self-consistent calculation

          k = 0.0000 0.0000 0.0000 ( 22923 PWs)   bands (ev):

   -47.6527 -47.6137 -47.5727 -47.5543 -47.5540 -47.5244 -47.5240 -47.5238
   -47.2959 -47.2182 -47.2179 -47.2027 -25.9403 -25.9401 -25.9283 -25.8769
   -25.8767 -25.8739 -25.8356 -25.7512 -25.7315 -25.7312 -25.6474 -25.5608
   -25.5278 -25.5275 -25.3971 -25.3970 -25.3936 -25.3934 -25.3741 -25.3740
   -25.3472 -25.3465 -25.3463 -25.2159 -25.2159 -25.1832 -25.1832 -25.1339
   -25.1337 -25.1288 -25.1072 -25.0423 -25.0269 -25.0268 -24.8812 -24.8812
   -12.7826  -4.3181  -3.1735  -2.0205  -1.3004  -1.2368  -1.2368  -0.9059
    -0.9059  -0.8160  -0.6958  -0.5491  -0.5490  -0.1812  -0.1812  -0.1546
    -0.0524   0.0083   0.0084   0.8606   0.8607   0.9318   1.5745   1.8587
     1.8736   1.8736   2.1573   2.2416   2.4216   2.4571   2.4572   2.5442
     2.5962   2.5962   2.8105   2.8106   2.8287

[...]

          k =-0.0779 0.0450 0.0000 ( 22880 PWs)   bands (ev):

[...]

     the Fermi energy is     1.6615 ev

!    total energy              =   -1218.52764688 Ry
     Harris-Foulkes estimate   =   -1218.52765324 Ry
     estimated scf accuracy    <       0.00000485 Ry

     The total energy is the sum of the following terms:

     one-electron contribution =   -8471.30553973 Ry
     hartree contribution      =    4229.68491788 Ry
     xc contribution           =    -226.75219521 Ry
     ewald contribution        =    3249.96133021 Ry
     electric field correction =       0.00003994 Ry
     smearing contrib. (-TS)   =      -0.11619998 Ry

     convergence has been achieved in  16 iterations

 BEEF-vdW xc energy contributions
           1 :   -194.150956515052
           2 :    175.573455371576
           3 :   -144.307547588450
           4 :    109.192921350484
           5 :   -78.1689360539650
           6 :    55.5137962152307
           7 :   -41.2062239230778
           8 :    32.2880650546329
           9 :   -25.1772588192416
          10 :    17.6126773130236
          11 :   -9.38045502301884
          12 :    1.76132257939585
          13 :    3.69702761356422
          14 :   -6.26928871150824
          15 :    6.44028067919618
          16 :   -5.51063769216717
          17 :    4.77426084250692
          18 :   -4.82061428302978
          19 :    5.36837442039331
          20 :   -5.65931268047024
          21 :    5.08787352172973
          22 :   -3.63682994771230
          23 :    1.86467224226192
          24 :  -0.510683458709792
          25 :   2.014606013116804E-002
          26 :  -0.306152374739270
          27 :   0.870634241311279
          28 :   -1.16382774447416
          29 :   0.929956001776077
          30 :  -0.328702431712713
          31 :   -22.5425198174815
          32 :   -16.7661837199150

     Forces acting on atoms (Ry/au):

     negative rho (up, down):  7.499E-01 0.000E+00
     atom    1 type  1   force =     0.00042089    0.00019816    0.01371471
     atom    2 type  1   force =    -0.00042221    0.00021422    0.01369303
     atom    3 type  1   force =     0.00001313   -0.00045013    0.01375371
     atom    4 type  1   force =    -0.00001307    0.00003760    0.01434668
     atom    5 type  1   force =     0.00000393    0.00001669   -0.00396945
     atom    6 type  1   force =    -0.00000321    0.00001661   -0.00115746
     atom    7 type  1   force =    -0.00000634   -0.00001879   -0.00397647
     atom    8 type  1   force =     0.00000932   -0.00001552   -0.00397787
     atom    9 type  1   force =     0.00001873   -0.00004936   -0.03233242
     atom   10 type  1   force =    -0.00002115    0.03967629    0.03977739
     atom   11 type  1   force =     0.03440484   -0.01982588    0.03982270
     atom   12 type  1   force =    -0.03440433   -0.01980035    0.03980165
     atom   13 type  2   force =    -0.00000095    0.00000157   -0.08548414
     atom   14 type  3   force =     0.00000042   -0.00000110   -0.04401205

     Total force =     0.140602     Total SCF correction =     0.007295

     entering subroutine stress ...

     negative rho (up, down):  7.499E-01 0.000E+00
          total   stress  (Ry/bohr**3)                   (kbar)     P=  -16.65
  -0.00008905  -0.00000000   0.00000000        -13.10     -0.00      0.00
  -0.00000000  -0.00008906  -0.00000000         -0.00    -13.10     -0.00
   0.00000000  -0.00000000  -0.00016138          0.00     -0.00    -23.74

     BFGS Geometry Optimization

     number of scf cycles    =   1
     number of bfgs steps    =   0

     energy   new            =   -1218.5276468846 Ry

     new trust radius        =       0.0854841425 bohr
     new conv_thr            =       0.0000099958 Ry

ATOMIC_POSITIONS (crystal)
Zr1      0.166666667   0.166666667   0.396150897    0   0   0
Zr1      0.666666667   0.166666667   0.396150897    0   0   0
Zr1      0.166666667   0.666666667   0.396150897    0   0   0
Zr1      0.666666667   0.666666667   0.396150897    0   0   0
Zr1      0.833333333   0.333333333   0.500000000    0   0   0
Zr1      0.333333333   0.333333333   0.500000000    0   0   0
Zr1      0.833333333   0.833333333   0.500000000    0   0   0
Zr1      0.333333333   0.833333333   0.500000000    0   0   0
Zr1      0.000003892  -0.000004697   0.603171305
Zr1      0.498110466   0.003775581   0.604682972
Zr1      0.003778638   0.498113376   0.604683922
Zr1      0.498106813   0.498115806   0.604683481
N1       0.333333180   0.333333483   0.665401593
H1       0.333333420   0.333333228   0.707866833

     Writing output data file calc.save
     Check: negative starting charge=   -0.729092
     NEW-OLD atomic charge density approx. for the potential
     Check: negative starting charge=   -0.728972

[...]

     energy   old            =   -1218.5276468846 Ry
     energy   new            =   -1218.5453539390 Ry

     CASE: energy  _new < energy  _old

[...]

     iteration #  1     ecut=    36.75 Ry     beta=0.30
     Davidson diagonalization with overlap
     c_bands:  1 eigenvalues not converged
     ethr =  1.00E-06,  avg # of iterations = 13.7

[...]

     iteration #  1     ecut=    36.75 Ry     beta=0.30
     Davidson diagonalization with overlap
     c_bands:  1 eigenvalues not converged
     ethr =  1.00E-06,  avg # of iterations = 12.8

[...]

     WARNING: bfgs curvature condition failed, Theta= 0.944
     new trust radius        =       0.0337925653 bohr
     new conv_thr            =       0.0000001000 Ry

[...]

     Total force =     0.004882     Total SCF correction =     0.000318

[...]

     Total force =     0.002590     Total SCF correction =     0.000403
     SCF correction compared to forces is large: reduce conv_thr to get better values

[...]

     number of scf cycles    =  16
     number of bfgs steps    =  15

     energy   old            =   -1218.5964880983 Ry
     energy   new            =   -1218.5965102588 Ry

     CASE: energy  _new < energy  _old

     new trust radius        =       0.0095155066 bohr
     new conv_thr            =       0.0000001000 Ry

ATOMIC_POSITIONS (crystal)
Zr1      0.166666667   0.166666667   0.396150897    0   0   0
Zr1      0.666666667   0.166666667   0.396150897    0   0   0
Zr1      0.166666667   0.666666667   0.396150897    0   0   0
Zr1      0.666666667   0.666666667   0.396150897    0   0   0
Zr1      0.833333333   0.333333333   0.500000000    0   0   0
Zr1      0.333333333   0.333333333   0.500000000    0   0   0
Zr1      0.833333333   0.833333333   0.500000000    0   0   0
Zr1      0.333333333   0.833333333   0.500000000    0   0   0
Zr1     -0.000006120   0.000007706   0.594537545
Zr1      0.497531327   0.004938876   0.603528951
Zr1      0.004937045   0.497529214   0.603528925
Zr1      0.497534248   0.497528022   0.603528922
N1       0.333330753   0.333335842   0.651242978
H1       0.333337582   0.333328008   0.691949355

     Writing output data file calc.save
     Check: negative starting charge=   -0.727149
     NEW-OLD atomic charge density approx. for the potential
     Check: negative starting charge=   -0.727430

[...]

     Self-consistent Calculation

[...]

     Threshold (ethr) on eigenvalues was too large:
     Diagonalizing with lowered threshold

     Davidson diagonalization with overlap
     ethr =  3.22E-08,  avg # of iterations =  2.6

[...]

     total energy              =   -1218.59651827 Ry
     Harris-Foulkes estimate   =   -1218.59651798 Ry
     estimated scf accuracy    <       0.00000011 Ry

     iteration #  9     ecut=    36.75 Ry     beta=0.30
     Davidson diagonalization with overlap
     ethr =  7.31E-11,  avg # of iterations =  3.9

[...]

     negative rho (up, down):  7.487E-01 0.000E+00

     Adding external electric field

     Computed dipole along edir(3) :
        Dipole                0.2664 Ry au,          0.6771 Debye
        Dipole field          0.0006 Ry au

        Potential amp.       -0.0512 Ry
        Total length         46.5096 bohr

     End of self-consistent calculation

[...]

          k = 0.0519-0.0599 0.0000 ( 22856 PWs)   bands (ev):

[...]

          k =-0.0779-0.0450 0.0000 ( 22880 PWs)   bands (ev):

   -47.4446 -47.4409 -47.4080 -47.3991 -47.3959 -47.3821 -47.3576 -47.1833
   -47.0684 -47.0555 -47.0238 -47.0211 -25.6937 -25.6408 -25.6244 -25.5863
   -25.5774 -25.5463 -25.5060 -25.4925 -25.4871 -25.4698 -25.4420 -25.4357
   -25.4284 -25.4080 -25.4008 -25.3557 -25.3477 -25.3472 -25.3392 -25.2259
   -25.1541 -25.1417 -25.1395 -25.1143 -25.0898 -25.0545 -25.0120 -25.0030
   -24.9714 -24.9585 -24.9237 -24.8953 -24.8869 -24.8420 -24.7796 -24.7564
   -13.6730  -5.0119  -2.3023  -1.8888  -1.6885  -1.5004  -0.7184  -0.5157
    -0.0694  -0.0551   0.0141   0.0340   0.1260   0.2490   0.7094   0.7393
     0.8195   0.8235   0.8825   0.9869   1.1839   1.2929   1.3036   1.3320
     1.4301   1.4909   1.6523   1.6644   1.7263   1.8066   1.8528   1.8567
     2.0155   2.0680   2.1870   2.4860   2.5097

     the Fermi energy is     1.7825 ev

!    total energy              =   -1218.59651831 Ry
     Harris-Foulkes estimate   =   -1218.59651906 Ry
     estimated scf accuracy    <       0.00000006 Ry

     The total energy is the sum of the following terms:

     one-electron contribution =   -8628.60234578 Ry
     hartree contribution      =    4309.06372925 Ry
     xc contribution           =    -227.09460574 Ry
     ewald contribution        =    3328.15007372 Ry
     electric field correction =       0.00014658 Ry
     smearing contrib. (-TS)   =      -0.11351634 Ry

     convergence has been achieved in   9 iterations

 BEEF-vdW xc energy contributions
           1 :   -194.495618952341
           2 :    176.017156763699
           3 :   -144.853471643562
           4 :    109.737961042063
           5 :   -78.5676147576543
           6 :    55.6658092319341
           7 :   -41.1157089174786
           8 :    32.0579374025909
           9 :   -24.9469645306133
          10 :    17.4829378881860
          11 :   -9.37084770504507
          12 :    1.82115863048801
          13 :    3.64049014116810
          14 :   -6.26156841310177
          15 :    6.47746830952292
          16 :   -5.55208397062034
          17 :    4.77796439752547
          18 :   -4.77642562571754
          19 :    5.30751025804824
          20 :   -5.63465389429115
          21 :    5.13754019337750
          22 :   -3.75553776498913
          23 :    2.00355522007024
          24 :  -0.606803163387212
          25 :   3.563050237784182E-002
          26 :  -0.249694380518065
          27 :   0.787784565888785
          28 :   -1.10596402578798
          29 :   0.923532127840872
          30 :  -0.362963245424510
          31 :   -22.5656749770710
          32 :   -16.8101325600472

     Forces acting on atoms (Ry/au):

     negative rho (up, down):  7.487E-01 0.000E+00
     atom    1 type  1   force =    -0.00044931   -0.00025981    0.01239081
     atom    2 type  1   force =     0.00044931   -0.00025982    0.01239092
     atom    3 type  1   force =    -0.00000000    0.00051927    0.01239082
     atom    4 type  1   force =     0.00000002    0.00000034    0.01064841
     atom    5 type  1   force =     0.00000031    0.01025932   -0.01440642
     atom    6 type  1   force =    -0.00000004   -0.00000059   -0.00338534
     atom    7 type  1   force =    -0.00888287   -0.00512892   -0.01440266
     atom    8 type  1   force =     0.00888202   -0.00512812   -0.01440130
     atom    9 type  1   force =     0.00000241   -0.00000804   -0.00094247
     atom   10 type  1   force =    -0.00000106    0.00029505   -0.00025177
     atom   11 type  1   force =     0.00025569   -0.00014400   -0.00025121
     atom   12 type  1   force =    -0.00025750   -0.00014375   -0.00025106
     atom   13 type  2   force =     0.00000179   -0.00000272    0.00017696
     atom   14 type  3   force =    -0.00000076    0.00000179    0.00029430

     Total force =     0.001207     Total SCF correction =     0.000837
     SCF correction compared to forces is large: reduce conv_thr to get better values

     entering subroutine stress ...

     negative rho (up, down):  7.487E-01 0.000E+00
          total   stress  (Ry/bohr**3)                   (kbar)     P=   -5.98
  -0.00004049  -0.00000000   0.00000000         -5.96     -0.00      0.00
  -0.00000000  -0.00004049  -0.00000000         -0.00     -5.96     -0.00
   0.00000000  -0.00000000  -0.00004101          0.00     -0.00     -6.03

     bfgs converged in  17 scf cycles and  16 bfgs steps
     (criteria: energy <  1.0E+00, force <  1.9E-03)

     End of BFGS Geometry Optimization

     Final energy   =   -1218.5965183092 Ry
Begin final coordinates

ATOMIC_POSITIONS (crystal)
Zr1      0.166666667   0.166666667   0.396150897    0   0   0
Zr1      0.666666667   0.166666667   0.396150897    0   0   0
Zr1      0.166666667   0.666666667   0.396150897    0   0   0
Zr1      0.666666667   0.666666667   0.396150897    0   0   0
Zr1      0.833333333   0.333333333   0.500000000    0   0   0
Zr1      0.333333333   0.333333333   0.500000000    0   0   0
Zr1      0.833333333   0.833333333   0.500000000    0   0   0
Zr1      0.333333333   0.833333333   0.500000000    0   0   0
Zr1     -0.000006120   0.000007706   0.594537545
Zr1      0.497531327   0.004938876   0.603528951
Zr1      0.004937045   0.497529214   0.603528925
Zr1      0.497534248   0.497528022   0.603528922
N1       0.333330753   0.333335842   0.651242978
H1       0.333337582   0.333328008   0.691949355
End final coordinates

     Writing output data file calc.save

     General routines

     Parallel routines

   This run was terminated on:  14: 5:48  27Apr2018

   JOB DONE.
Job  /afs/slac/g/suncat/bin/suncat-tsmpirun -x LD_LIBRARY_PATH -wdir /scratch/qe523204_P7y7d pw.x -npool 4 -in pw.inp

TID   HOST_NAME   COMMAND_LINE            STATUS            TERMINATION_TIME
00000 suncat0091 pw.x -npool 4 -i  Done                     04/27/2018 14:05:48
00001 suncat0091 pw.x -npool 4 -i  Done                     04/27/2018 14:05:48
00002 suncat0091 pw.x -npool 4 -i  Done                     04/27/2018 14:05:48
00003 suncat0091 pw.x -npool 4 -i  Done                     04/27/2018 14:05:48
00004 suncat0091 pw.x -npool 4 -i  Done                     04/27/2018 14:05:48
00005 suncat0091 pw.x -npool 4 -i  Done                     04/27/2018 14:05:48
00006 suncat0091 pw.x -npool 4 -i  Done                     04/27/2018 14:05:48
00007 suncat0091 pw.x -npool 4 -i  Done                     04/27/2018 14:05:48
00008 suncat0088 pw.x -npool 4 -i  Done                     04/27/2018 14:05:48
00009 suncat0088 pw.x -npool 4 -i  Done                     04/27/2018 14:05:48
00010 suncat0088 pw.x -npool 4 -i  Done                     04/27/2018 14:05:48
00011 suncat0088 pw.x -npool 4 -i  Done                     04/27/2018 14:05:48
00012 suncat0088 pw.x -npool 4 -i  Done                     04/27/2018 14:05:48
00013 suncat0088 pw.x -npool 4 -i  Done                     04/27/2018 14:05:48
00014 suncat0088 pw.x -npool 4 -i  Done                     04/27/2018 14:05:48
00015 suncat0088 pw.x -npool 4 -i  Done                     04/27/2018 14:05:48
00016 suncat0086 pw.x -npool 4 -i  Done                     04/27/2018 14:05:48
00017 suncat0086 pw.x -npool 4 -i  Done                     04/27/2018 14:05:48
00018 suncat0086 pw.x -npool 4 -i  Done                     04/27/2018 14:05:48
00019 suncat0086 pw.x -npool 4 -i  Done                     04/27/2018 14:05:48
00020 suncat0086 pw.x -npool 4 -i  Done                     04/27/2018 14:05:48
00021 suncat0086 pw.x -npool 4 -i  Done                     04/27/2018 14:05:48
00022 suncat0086 pw.x -npool 4 -i  Done                     04/27/2018 14:05:48
00023 suncat0086 pw.x -npool 4 -i  Done                     04/27/2018 14:05:48
00024 suncat0082 pw.x -npool 4 -i  Done                     04/27/2018 14:05:48
00025 suncat0082 pw.x -npool 4 -i  Done                     04/27/2018 14:05:48
00026 suncat0082 pw.x -npool 4 -i  Done                     04/27/2018 14:05:48
00027 suncat0082 pw.x -npool 4 -i  Done                     04/27/2018 14:05:48
00028 suncat0082 pw.x -npool 4 -i  Done                     04/27/2018 14:05:48
00029 suncat0082 pw.x -npool 4 -i  Done                     04/27/2018 14:05:48
00030 suncat0082 pw.x -npool 4 -i  Done                     04/27/2018 14:05:48
00031 suncat0082 pw.x -npool 4 -i  Done                     04/27/2018 14:05:48