     Program PWSCF v.5.1rc2 (svn rev. ) starts on 17Apr2018 at  8:35:47

     Current dimensions of program PWSCF are:
     Max number of different atomic species (ntypx) = 10
     Max number of k-points (npk) =  40000
     Max angular momentum in pseudopotentials (lmaxx) =  3
     Presently stress not available with electric field

     IMPORTANT: XC functional enforced from input :
     Exchange-correlation      = BEEF-VDW ( 1  4 27 13 2)
     Any further DFT definition will be discarded
     Please, verify this is what you really want

     Subspace diagonalization in iterative solution of the eigenvalue problem:
     a serial algorithm will be used

     bravais-lattice index     =            0
     lattice parameter (alat)  =       1.8897  a.u.
     unit-cell volume          =    3807.2308 (a.u.)^3
     number of atoms/cell      =           14
     number of atomic types    =            3
     number of electrons       =       235.00
     number of Kohn-Sham states=          127
     kinetic-energy cutoff     =      36.7493  Ry
     charge density cutoff     =     367.4932  Ry
     convergence threshold     =      1.0E-05
     mixing beta               =       0.3000
     number of iterations used =           10  plain     mixing
     Exchange-correlation      = BEEF-VDW ( 1  4 27 13 2)
     nstep                     =           50

     celldm(1)=   1.889726  celldm(2)=   0.000000  celldm(3)=   0.000000
     celldm(4)=   0.000000  celldm(5)=   0.000000  celldm(6)=   0.000000

     crystal axes: (cart. coord. in units of alat)
               a(1) = (   5.184823   0.000000   0.000000 )
               a(2) = (   2.592411   4.490188   0.000000 )
               a(3) = (   0.000000   0.000000  24.233390 )

     reciprocal axes: (cart. coord. in units 2 pi/alat)
               b(1) = (  0.192871 -0.111354  0.000000 )
               b(2) = (  0.000000  0.222708  0.000000 )
               b(3) = (  0.000000  0.000000  0.041265 )

     PseudoPot. # 1 for Cu read from file:
     /home/mamunm/src/pseudo/gbrv1.5pbe/Cu.UPF
     MD5 check sum: 6e991ff952a84172a2a52a1c1e996048
     Pseudo is Ultrasoft + core correction, Zval = 19.0
     Generated by new atomic code, or converted to UPF format
     Using radial grid of  867 points,  6 beta functions with:
                l(1) =   0
                l(2) =   0
                l(3) =   1
                l(4) =   1
                l(5) =   2
                l(6) =   2
     Q(r) pseudized with  8 coefficients,  rinner =    1.150   1.150   1.150
                                                       1.150   1.150

     PseudoPot. # 2 for O  read from file:
     /home/mamunm/src/pseudo/gbrv1.5pbe/O.UPF
     MD5 check sum: 734c27235a0248c51dbae37a1fbe46ec
     Pseudo is Ultrasoft + core correction, Zval =  6.0
     Generated by new atomic code, or converted to UPF format
     Using radial grid of  737 points,  5 beta functions with:
                l(1) =   0
                l(2) =   0
                l(3) =   1
                l(4) =   1
                l(5) =   2
     Q(r) pseudized with  8 coefficients,  rinner =    0.900   0.900   0.900
                                                       0.900   0.900

     PseudoPot. # 3 for H  read from file:
     /home/mamunm/src/pseudo/gbrv1.5pbe/H.UPF
     MD5 check sum: 761ae9a214b05c3daf00ab9f6b793d6f
     Pseudo is Ultrasoft, Zval =  1.0
     Generated by new atomic code, or converted to UPF format
     Using radial grid of  615 points,  2 beta functions with:
                l(1) =   0
                l(2) =   0
     Q(r) pseudized with  8 coefficients,  rinner =    0.700

     vdW kernel table read from file vdW_kernel_table
     MD5 check sum: 095c7af220d748ca6e76c0b4c6cfb241

     atomic species   valence    mass     pseudopotential
        Cu1           19.00    63.54600     Cu( 1.00)
        O1             6.00    15.99900     O ( 1.00)
        H1             1.00     1.00800     H ( 1.00)

     No symmetry found

   Cartesian axes

     site n.     atom                  positions (alat units)
         1           Cu1 tau(   1) = (   1.2962057   0.7483647  10.0000000  )
         2           Cu1 tau(   2) = (   3.8886170   0.7483647  10.0000000  )
         3           Cu1 tau(   3) = (   2.5924113   2.9934587  10.0000000  )
         4           Cu1 tau(   4) = (   5.1848226   2.9934587  10.0000000  )
         5           Cu1 tau(   5) = (   5.1848226   1.4967294  12.1166950  )
         6           Cu1 tau(   6) = (   2.5924113   1.4967294  12.1166950  )
         7           Cu1 tau(   7) = (   6.4810283   3.7418234  12.1166950  )
         8           Cu1 tau(   8) = (   3.8886170   3.7418234  12.1166950  )
         9           Cu1 tau(   9) = (   0.0000000   0.0000000  14.2333899  )
        10           Cu1 tau(  10) = (   2.5924113   0.0000000  14.2333899  )
        11           Cu1 tau(  11) = (   1.2962057   2.2450940  14.2333899  )
        12           Cu1 tau(  12) = (   3.8886170   2.2450940  14.2333899  )
        13           O1  tau(  13) = (   2.5924113   1.4967294  15.5203899  )
        14           H1  tau(  14) = (   2.5924113   1.4967294  16.4703899  )

     number of k points=    20  Fermi-Dirac smearing, width (Ry)=  0.0110
                       cart. coord. in units 2pi/alat
        k(    1) = (   0.0000000   0.0000000   0.0000000), wk =   0.0555556
        k(    2) = (   0.0000000   0.0371180   0.0000000), wk =   0.1111111
        k(    3) = (   0.0000000   0.0742359   0.0000000), wk =   0.1111111
        k(    4) = (   0.0000000  -0.1113539   0.0000000), wk =   0.0555556
        k(    5) = (   0.0321451  -0.0185590   0.0000000), wk =   0.1111111
        k(    6) = (   0.0321451   0.0185590   0.0000000), wk =   0.1111111
        k(    7) = (   0.0321451   0.0556770   0.0000000), wk =   0.1111111
        k(    8) = (   0.0321451  -0.1299129   0.0000000), wk =   0.1111111
        k(    9) = (   0.0321451  -0.0927949   0.0000000), wk =   0.1111111
        k(   10) = (   0.0321451  -0.0556770   0.0000000), wk =   0.1111111
        k(   11) = (   0.0642902  -0.0371180   0.0000000), wk =   0.1111111
        k(   12) = (   0.0642902  -0.0000000   0.0000000), wk =   0.1111111
        k(   13) = (   0.0642902   0.0371180   0.0000000), wk =   0.1111111
        k(   14) = (   0.0642902  -0.1484719   0.0000000), wk =   0.1111111
        k(   15) = (   0.0642902  -0.1113539   0.0000000), wk =   0.1111111
        k(   16) = (   0.0642902  -0.0742359   0.0000000), wk =   0.1111111
        k(   17) = (  -0.0964353   0.0556770   0.0000000), wk =   0.0555556
        k(   18) = (  -0.0964353   0.0927949   0.0000000), wk =   0.1111111
        k(   19) = (  -0.0964353   0.1299129   0.0000000), wk =   0.1111111
        k(   20) = (  -0.0964353  -0.0556770   0.0000000), wk =   0.0555556

     Largest allocated arrays     est. size (Mb)     dimensions
     Largest temporary arrays     est. size (Mb)     dimensions

     Initial potential from superposition of free atoms
     Check: negative starting charge=   -0.000250

     starting charge  222.99997, renormalised to  235.00000

     negative rho (up, down):  2.634E-04 0.000E+00

     *
     * You are using vdW-DF for exchange-correlation in this calculation.
     * Please cite the following three references that made this development
     * possible:
     *
     *   M. Dion, H. Rydberg, E. Schroder, D. C. Langreth, and
     *   B. I. Lundqvist, Phys. Rev. Lett. 92, 246401 (2004).
     *
     *   T. Thonhauser, V. R. Cooper, S. Li, A. Puzder, P. Hyldgaard, and
     *   D. C. Langreth, Phys. Rev. B 76, 125112 (2007).
     *
     *   G. Roman-Perez and J. M. Soler, Phys. Rev. Lett. 103, 096102 (2009).
     *
     *
     * If you are using vdW-DF2, please also cite:
     *
     *   K. Lee, E. D. Murray, L. Kong, B. I. Lundqvist, and
     *   D. C. Langreth, Phys. Rev. B 82, 081101(R) (2010).
     *
     *
     * If you are calculating the stress with vdW-DF, please also cite:
     *
     *   R. Sabatini, E. Kucukbenli, B. Kolb, T. Thonhauser, and
     *   S. de Gironcoli, J. Phys.: Condens. Matter 24, 424209 (2012).
     *

     Carrying out vdW-DF run using the following parameters:

     Nqs =      20    Nr_points =    1024   r_max =   100.000
     q_mesh =
               0.00001000     0.04494208     0.09755937     0.15916263
               0.23128650     0.31572767     0.41458969     0.53033537
               0.66584808     0.82450364     1.01025438     1.22772762
               1.48234092     1.78043706     2.12944203     2.53805004
               3.01644009     3.57652955     4.23227104     5.00000000

     Gradients computed in reciprocal space

     Adding external electric field

     Computed dipole along edir(3) :
        Dipole               -2.5194 Ry au,         -6.4036 Debye
        Dipole field         -0.0083 Ry au

        Potential amp.        0.7426 Ry
        Total length         44.6496 bohr

     Starting wfc are  161 randomized atomic wfcs

     Self-consistent Calculation

     iteration #  1     ecut=    36.75 Ry     beta=0.30
     Davidson diagonalization with overlap
     ethr =  1.00E-02,  avg # of iterations =  8.0

[...]

     total energy              =   -4479.18522855 Ry
     Harris-Foulkes estimate   =   -4886.76991545 Ry
     estimated scf accuracy    <     858.85003308 Ry

[...]

     End of self-consistent calculation

          k = 0.0000 0.0000 0.0000 ( 14321 PWs)   bands (ev):

  -111.5166-111.5110-111.5105-111.4544-111.3913-111.3861-111.3847-111.2542
  -111.2480-111.2449-111.2433-111.1684 -68.9422 -68.9390 -68.9387 -68.9150
   -68.9076 -68.9072 -68.8998 -68.8818 -68.8815 -68.8564 -68.8441 -68.8440
   -68.8340 -68.8304 -68.8296 -68.7993 -68.7800 -68.7790 -68.7561 -68.7522
   -68.7509 -68.7049 -68.7039 -68.6994 -68.6526 -68.6523 -68.6514 -68.6340
   -68.6336 -68.6098 -68.6041 -68.6014 -68.5999 -68.5882 -68.5882 -68.5390
   -19.8597  -8.4882  -6.9977  -5.0169  -4.5425  -4.5425  -3.7878  -3.4688
    -3.4031  -3.4030  -3.2020  -3.2018  -3.1678  -2.9335  -2.8940  -2.8938
    -2.7783  -2.7783  -2.7481  -2.2134  -2.2133  -2.1399  -1.9333  -1.9333
    -1.8845  -1.8234  -1.8049  -1.8049  -1.7192  -1.6751  -1.6750  -1.6549
    -1.6031  -1.6029  -1.5392  -1.5391  -1.3895  -1.3262  -1.3261  -1.0657
    -1.0532  -1.0531  -1.0096  -1.0093  -0.8906  -0.8903  -0.8521  -0.7732
    -0.7730  -0.6569  -0.6251  -0.6248  -0.5760  -0.5759  -0.5714  -0.5432
    -0.5271  -0.5269  -0.4617  -0.4073  -0.4070  -0.3113  -0.3105  -0.3091
    -0.2246  -0.2242  -0.1076   1.1032   1.2287   1.2287   1.5983   2.3075
     2.3075   2.5074   2.6993   2.6993   3.0194   4.1920   4.6495

[...]

          k =-0.0964 0.0557 0.0000 ( 14294 PWs)   bands (ev):

[...]

     the Fermi energy is     1.0953 ev

!    total energy              =   -4892.99978535 Ry
     Harris-Foulkes estimate   =   -4892.99978891 Ry
     estimated scf accuracy    <       0.00000218 Ry

     The total energy is the sum of the following terms:

     one-electron contribution =  -38140.30861670 Ry
     hartree contribution      =   19092.13501945 Ry
     xc contribution           =    -488.60603020 Ry
     ewald contribution        =   14643.80751424 Ry
     electric field correction =       0.00044645 Ry
     smearing contrib. (-TS)   =      -0.02811860 Ry

     convergence has been achieved in  35 iterations

 BEEF-vdW xc energy contributions
           1 :   -432.825481767368
           2 :    392.216325987823
           3 :   -323.462458119555
           4 :    245.519699031919
           5 :   -175.608961566240
           6 :    123.063425210249
           7 :   -87.8896791578521
           8 :    63.9508603618140
           9 :   -44.3035927604746
          10 :    25.4035343840132
          11 :   -8.07778734644506
          12 :   -4.59461734691575
          13 :    10.4994887523061
          14 :   -10.4680502844835
          15 :    7.86015173467848
          16 :   -6.35847957848927
          17 :    7.70886094721965
          18 :   -10.9693915864682
          19 :    13.6187651367304
          20 :   -13.5854778130270
          21 :    10.7346264602810
          22 :   -6.85593072862372
          23 :    4.29789329178220
          24 :   -4.31100367428365
          25 :    6.27065082916027
          26 :   -8.25269784398199
          27 :    8.46771786566825
          28 :   -6.50528336878364
          29 :    3.53692397201968
          30 :   -1.40217148917867
          31 :   -34.6697500524508
          32 :   -23.6650577845865

     Forces acting on atoms (Ry/au):

     negative rho (up, down):  1.050E-03 0.000E+00
     atom    1 type  1   force =     0.00114704    0.00071446    0.00359556
     atom    2 type  1   force =    -0.00116018    0.00067234    0.00359662
     atom    3 type  1   force =    -0.00004601   -0.00136516    0.00389604
     atom    4 type  1   force =     0.00004446   -0.00002712    0.00152274
     atom    5 type  1   force =     0.00028642    0.00214420    0.00588633
     atom    6 type  1   force =    -0.00029932    0.00018019   -0.00935209
     atom    7 type  1   force =    -0.00170116   -0.00131068    0.00589358
     atom    8 type  1   force =     0.00176004   -0.00102092    0.00569739
     atom    9 type  1   force =    -0.00003946    0.00000538   -0.02078117
     atom   10 type  1   force =     0.00003281   -0.03860987   -0.01868821
     atom   11 type  1   force =    -0.03341990    0.01931150   -0.01894819
     atom   12 type  1   force =     0.03343403    0.01928074   -0.01872465
     atom   13 type  2   force =    -0.00004426    0.00002789    0.00577605
     atom   14 type  3   force =     0.00000549   -0.00000295    0.05062999

     Total force =     0.092508     Total SCF correction =     0.000773

     entering subroutine stress ...

     negative rho (up, down):  1.050E-03 0.000E+00
          total   stress  (Ry/bohr**3)                   (kbar)     P=  -15.57
  -0.00012314  -0.00000001   0.00000002        -18.11     -0.00      0.00
  -0.00000001  -0.00012315  -0.00000001         -0.00    -18.12     -0.00
   0.00000002  -0.00000001  -0.00007123          0.00     -0.00    -10.48

     BFGS Geometry Optimization

     number of scf cycles    =   1
     number of bfgs steps    =   0

     energy   new            =   -4892.9997853512 Ry

     new trust radius        =       0.0506299911 bohr
     new conv_thr            =       0.0000099958 Ry

ATOMIC_POSITIONS (crystal)
Cu1      0.166666667   0.166666667   0.412653782    0   0   0
Cu1      0.666666667   0.166666667   0.412653782    0   0   0
Cu1      0.166666667   0.666666667   0.412653782    0   0   0
Cu1      0.666666667   0.666666667   0.412653782    0   0   0
Cu1      0.833333333   0.333333333   0.500000000    0   0   0
Cu1      0.333333333   0.333333333   0.500000000    0   0   0
Cu1      0.833333333   0.833333333   0.500000000    0   0   0
Cu1      0.333333333   0.833333333   0.500000000    0   0   0
Cu1     -0.000004345   0.000000634   0.586892426
Cu1      0.502278472  -0.004550247   0.586938129
Cu1     -0.004548875   0.502275897   0.586932452
Cu1      0.502276233   0.502272272   0.586937334
O1       0.333327173   0.333336620   0.640580890
H1       0.333334067   0.333332986   0.680762461

     Writing output data file calc.save
     Check: negative starting charge=   -0.000250
     NEW-OLD atomic charge density approx. for the potential
     Check: negative starting charge=   -0.000248

[...]

     energy   old            =   -4892.9997853512 Ry
     energy   new            =   -4893.0061190212 Ry

     CASE: energy  _new < energy  _old

[...]

     Total force =     0.005624     Total SCF correction =     0.000620
     SCF correction compared to forces is large: reduce conv_thr to get better values

[...]

     Total force =     0.005778     Total SCF correction =     0.000524

[...]

     number of scf cycles    =  13
     number of bfgs steps    =  12

     energy   old            =   -4893.0132445064 Ry
     energy   new            =   -4893.0132718298 Ry

     CASE: energy  _new < energy  _old

     new trust radius        =       0.0157298898 bohr
     new conv_thr            =       0.0000001000 Ry

ATOMIC_POSITIONS (crystal)
Cu1      0.166666667   0.166666667   0.412653782    0   0   0
Cu1      0.666666667   0.166666667   0.412653782    0   0   0
Cu1      0.166666667   0.666666667   0.412653782    0   0   0
Cu1      0.666666667   0.666666667   0.412653782    0   0   0
Cu1      0.833333333   0.333333333   0.500000000    0   0   0
Cu1      0.333333333   0.333333333   0.500000000    0   0   0
Cu1      0.833333333   0.833333333   0.500000000    0   0   0
Cu1      0.333333333   0.833333333   0.500000000    0   0   0
Cu1     -0.000000955  -0.000000722   0.582794362
Cu1      0.505001906  -0.009998963   0.587113458
Cu1     -0.010004654   0.505002798   0.587115760
Cu1      0.505000443   0.504996777   0.587113921
O1       0.333333661   0.333333566   0.644660379
H1       0.333326897   0.333336839   0.684782115

     Writing output data file calc.save
     Check: negative starting charge=   -0.000248
     NEW-OLD atomic charge density approx. for the potential
     Check: negative starting charge=   -0.000248

[...]

     Self-consistent Calculation

[...]

     total energy              =   -4893.01328867 Ry
     Harris-Foulkes estimate   =   -4893.01328855 Ry
     estimated scf accuracy    <       0.00000015 Ry

     iteration #  9     ecut=    36.75 Ry     beta=0.30
     Davidson diagonalization with overlap
     ethr =  6.49E-11,  avg # of iterations =  2.8

[...]

     negative rho (up, down):  1.108E-03 0.000E+00

     Adding external electric field

     Computed dipole along edir(3) :
        Dipole                0.2980 Ry au,          0.7575 Debye
        Dipole field          0.0010 Ry au

        Potential amp.       -0.0878 Ry
        Total length         44.6496 bohr

     End of self-consistent calculation

[...]

          k = 0.0643-0.0742 0.0000 ( 14299 PWs)   bands (ev):

[...]

          k =-0.0964-0.0557 0.0000 ( 14294 PWs)   bands (ev):

  -111.6691-111.6673-111.6654-111.5831-111.4291-111.4260-111.4245-111.3910
  -111.3825-111.3804-111.3788-111.3605 -69.0870 -69.0727 -69.0709 -69.0694
   -69.0661 -69.0646 -69.0620 -69.0581 -69.0366 -68.9845 -68.9779 -68.9764
   -68.8753 -68.8686 -68.8602 -68.8540 -68.8369 -68.8290 -68.8224 -68.8212
   -68.8096 -68.8023 -68.7985 -68.7979 -68.7874 -68.7840 -68.7813 -68.7812
   -68.7781 -68.7754 -68.7720 -68.7477 -68.7387 -68.7372 -68.7365 -68.7351
   -19.0928  -7.5608  -5.6450  -5.4177  -4.2917  -3.7997  -3.7757  -3.4541
    -3.2840  -3.2114  -3.0724  -3.0164  -2.9937  -2.9458  -2.7667  -2.7183
    -2.5887  -2.5721  -2.4840  -2.4615  -2.3438  -2.3342  -2.2849  -2.2786
    -2.2136  -2.2070  -2.0183  -1.9681  -1.8873  -1.8512  -1.8360  -1.8213
    -1.7834  -1.7356  -1.7242  -1.7014  -1.6954  -1.6841  -1.6408  -1.6267
    -1.6169  -1.5618  -1.4753  -1.4203  -1.3907  -1.3283  -1.2870  -1.2113
    -1.1979  -1.1803  -1.1528  -1.1036  -1.0820  -1.0679  -0.9989  -0.9646
    -0.9495  -0.9243  -0.8895  -0.7725  -0.7131  -0.6920  -0.6687  -0.6307
    -0.5824  -0.4089  -0.3217  -0.1327   0.9415   0.9488   1.6101   1.6747
     2.2883   2.5717   3.9691   4.0905   4.6907   4.9272   5.4800

     the Fermi energy is     0.9548 ev

!    total energy              =   -4893.01328867 Ry
     Harris-Foulkes estimate   =   -4893.01328871 Ry
     estimated scf accuracy    <       0.00000003 Ry

     The total energy is the sum of the following terms:

     one-electron contribution =  -38216.91320752 Ry
     hartree contribution      =   19129.71918241 Ry
     xc contribution           =    -488.55251916 Ry
     ewald contribution        =   14682.76138561 Ry
     electric field correction =       0.00029319 Ry
     smearing contrib. (-TS)   =      -0.02842319 Ry

     convergence has been achieved in   9 iterations

 BEEF-vdW xc energy contributions
           1 :   -432.768778121220
           2 :    392.139451117242
           3 :   -323.370690957392
           4 :    245.438443663460
           5 :   -175.562416589009
           6 :    123.058564963420
           7 :   -87.9152334374481
           8 :    63.9899923821857
           9 :   -44.3461426743434
          10 :    25.4465609199202
          11 :   -8.11604413661820
          12 :   -4.57632085210440
          13 :    10.5196585970297
          14 :   -10.5296663540668
          15 :    7.93756805863762
          16 :   -6.40600074273647
          17 :    7.68973789235463
          18 :   -10.8858258240484
          19 :    13.5176455204831
          20 :   -13.5301795102374
          21 :    10.7600253331089
          22 :   -6.93996105107152
          23 :    4.37418757292716
          24 :   -4.31618717815689
          25 :    6.19161961996571
          26 :   -8.13807225769108
          27 :    8.39374437306878
          28 :   -6.51994924504766
          29 :    3.62322626397253
          30 :   -1.48894255464643
          31 :   -34.6670271684544
          32 :   -23.6583025821781

     Forces acting on atoms (Ry/au):

     negative rho (up, down):  1.108E-03 0.000E+00
     atom    1 type  1   force =     0.00123932    0.00071562    0.00325027
     atom    2 type  1   force =    -0.00123923    0.00071552    0.00324958
     atom    3 type  1   force =    -0.00000004   -0.00143116    0.00325035
     atom    4 type  1   force =     0.00000009   -0.00000010    0.00096577
     atom    5 type  1   force =     0.00000160    0.00521971   -0.00201471
     atom    6 type  1   force =    -0.00000209    0.00000141   -0.00393715
     atom    7 type  1   force =    -0.00451954   -0.00261159   -0.00201597
     atom    8 type  1   force =     0.00451992   -0.00260999   -0.00201576
     atom    9 type  1   force =     0.00000357    0.00000009   -0.00038728
     atom   10 type  1   force =    -0.00000530   -0.00012708   -0.00030682
     atom   11 type  1   force =    -0.00010730    0.00005998   -0.00030690
     atom   12 type  1   force =     0.00011050    0.00006795   -0.00030764
     atom   13 type  2   force =    -0.00000233   -0.00000001   -0.00099110
     atom   14 type  3   force =     0.00000084   -0.00000033    0.00156735

     Total force =     0.001980     Total SCF correction =     0.000845
     SCF correction compared to forces is large: reduce conv_thr to get better values

     entering subroutine stress ...

     negative rho (up, down):  1.108E-03 0.000E+00
          total   stress  (Ry/bohr**3)                   (kbar)     P=  -17.72
  -0.00012945  -0.00000000  -0.00000000        -19.04     -0.00     -0.00
  -0.00000000  -0.00012945  -0.00000000         -0.00    -19.04     -0.00
  -0.00000000  -0.00000000  -0.00010246         -0.00     -0.00    -15.07

     bfgs converged in  14 scf cycles and  13 bfgs steps
     (criteria: energy <  1.0E+00, force <  1.9E-03)

     End of BFGS Geometry Optimization

     Final energy   =   -4893.0132886714 Ry
Begin final coordinates

ATOMIC_POSITIONS (crystal)
Cu1      0.166666667   0.166666667   0.412653782    0   0   0
Cu1      0.666666667   0.166666667   0.412653782    0   0   0
Cu1      0.166666667   0.666666667   0.412653782    0   0   0
Cu1      0.666666667   0.666666667   0.412653782    0   0   0
Cu1      0.833333333   0.333333333   0.500000000    0   0   0
Cu1      0.333333333   0.333333333   0.500000000    0   0   0
Cu1      0.833333333   0.833333333   0.500000000    0   0   0
Cu1      0.333333333   0.833333333   0.500000000    0   0   0
Cu1     -0.000000955  -0.000000722   0.582794362
Cu1      0.505001906  -0.009998963   0.587113458
Cu1     -0.010004654   0.505002798   0.587115760
Cu1      0.505000443   0.504996777   0.587113921
O1       0.333333661   0.333333566   0.644660379
H1       0.333326897   0.333336839   0.684782115
End final coordinates

     Writing output data file calc.save

     General routines

     Parallel routines

   This run was terminated on:   9:20:18  17Apr2018

   JOB DONE.