     Program PWSCF v.5.1rc2 (svn rev. 11289) starts on 18Apr2018 at  6:14:25

     Current dimensions of program PWSCF are:
     Max number of different atomic species (ntypx) = 10
     Max number of k-points (npk) =  40000
     Max angular momentum in pseudopotentials (lmaxx) =  3
     Presently stress not available with electric field

     IMPORTANT: XC functional enforced from input :
     Exchange-correlation      = BEEF-VDW ( 1  4 27 13 2)
     Any further DFT definition will be discarded
     Please, verify this is what you really want

     Subspace diagonalization in iterative solution of the eigenvalue problem:
     a serial algorithm will be used

     bravais-lattice index     =            0
     lattice parameter (alat)  =       1.8897  a.u.
     unit-cell volume          =    6117.3319 (a.u.)^3
     number of atoms/cell      =           14
     number of atomic types    =            3
     number of electrons       =       150.00
     number of Kohn-Sham states=           85
     kinetic-energy cutoff     =      36.7493  Ry
     charge density cutoff     =     367.4932  Ry
     convergence threshold     =      1.0E-05
     mixing beta               =       0.3000
     number of iterations used =           10  plain     mixing
     Exchange-correlation      = BEEF-VDW ( 1  4 27 13 2)
     nstep                     =           50

     celldm(1)=   1.889726  celldm(2)=   0.000000  celldm(3)=   0.000000
     celldm(4)=   0.000000  celldm(5)=   0.000000  celldm(6)=   0.000000

     crystal axes: (cart. coord. in units of alat)
               a(1) = (   6.437717   0.000000   0.000000 )
               a(2) = (   3.218859   5.575227   0.000000 )
               a(3) = (   0.000000   0.000000  25.256374 )

     reciprocal axes: (cart. coord. in units 2 pi/alat)
               b(1) = (  0.155335 -0.089682  0.000000 )
               b(2) = (  0.000000  0.179365  0.000000 )
               b(3) = (  0.000000  0.000000  0.039594 )

     PseudoPot. # 1 for Hg read from file:
     /u/if/mamunm/psp/gbrv1.5pbe/Hg.UPF
     MD5 check sum: 8f42caffe07f7fd9c0a564347f8c5498
     Pseudo is Ultrasoft + core correction, Zval = 12.0
     Generated by new atomic code, or converted to UPF format
     Using radial grid of  985 points,  6 beta functions with:
                l(1) =   0
                l(2) =   0
                l(3) =   1
                l(4) =   1
                l(5) =   2
                l(6) =   2
     Q(r) pseudized with  8 coefficients,  rinner =    2.000   2.000   2.000
                                                       2.000   2.000

     PseudoPot. # 2 for N  read from file:
     /u/if/mamunm/psp/gbrv1.5pbe/N.UPF
     MD5 check sum: 95339753478d7afb44899504a8723017
     Pseudo is Ultrasoft + core correction, Zval =  5.0
     Generated by new atomic code, or converted to UPF format
     Using radial grid of  729 points,  4 beta functions with:
                l(1) =   0
                l(2) =   0
                l(3) =   1
                l(4) =   1
     Q(r) pseudized with  8 coefficients,  rinner =    0.900   0.900   0.900

     PseudoPot. # 3 for H  read from file:
     /u/if/mamunm/psp/gbrv1.5pbe/H.UPF
     MD5 check sum: 761ae9a214b05c3daf00ab9f6b793d6f
     Pseudo is Ultrasoft, Zval =  1.0
     Generated by new atomic code, or converted to UPF format
     Using radial grid of  615 points,  2 beta functions with:
                l(1) =   0
                l(2) =   0
     Q(r) pseudized with  8 coefficients,  rinner =    0.700

     vdW kernel table read from file vdW_kernel_table
     MD5 check sum: 095c7af220d748ca6e76c0b4c6cfb241

     atomic species   valence    mass     pseudopotential
        Hg1           12.00   200.59200     Hg( 1.00)
        N1             5.00    14.00700     N ( 1.00)
        H1             1.00     1.00800     H ( 1.00)

     No symmetry found

   Cartesian axes

     site n.     atom                  positions (alat units)
         1           Hg1 tau(   1) = (   1.6094293   0.9292045  10.0000000  )
         2           Hg1 tau(   2) = (   4.8282880   0.9292045  10.0000000  )
         3           Hg1 tau(   3) = (   3.2188587   3.7168178  10.0000000  )
         4           Hg1 tau(   4) = (   6.4377173   3.7168178  10.0000000  )
         5           Hg1 tau(   5) = (   6.4377173   1.8584089  12.6281871  )
         6           Hg1 tau(   6) = (   3.2188587   1.8584089  12.6281871  )
         7           Hg1 tau(   7) = (   8.0471466   4.6460223  12.6281871  )
         8           Hg1 tau(   8) = (   4.8282880   4.6460223  12.6281871  )
         9           Hg1 tau(   9) = (   0.0000000   0.0000000  15.2563742  )
        10           Hg1 tau(  10) = (   3.2188587   0.0000000  15.2563742  )
        11           Hg1 tau(  11) = (   1.6094293   2.7876134  15.2563742  )
        12           Hg1 tau(  12) = (   4.8282880   2.7876134  15.2563742  )
        13           N1  tau(  13) = (   3.2188587   1.8584089  16.5758742  )
        14           H1  tau(  14) = (   3.2188587   1.8584089  17.6258742  )

     number of k points=    20  Fermi-Dirac smearing, width (Ry)=  0.0110
                       cart. coord. in units 2pi/alat
        k(    1) = (   0.0000000   0.0000000   0.0000000), wk =   0.0555556
        k(    2) = (   0.0000000   0.0298942   0.0000000), wk =   0.1111111
        k(    3) = (   0.0000000   0.0597883   0.0000000), wk =   0.1111111
        k(    4) = (   0.0000000  -0.0896825   0.0000000), wk =   0.0555556
        k(    5) = (   0.0258891  -0.0149471   0.0000000), wk =   0.1111111
        k(    6) = (   0.0258891   0.0149471   0.0000000), wk =   0.1111111
        k(    7) = (   0.0258891   0.0448412   0.0000000), wk =   0.1111111
        k(    8) = (   0.0258891  -0.1046295   0.0000000), wk =   0.1111111
        k(    9) = (   0.0258891  -0.0747354   0.0000000), wk =   0.1111111
        k(   10) = (   0.0258891  -0.0448412   0.0000000), wk =   0.1111111
        k(   11) = (   0.0517782  -0.0298942   0.0000000), wk =   0.1111111
        k(   12) = (   0.0517782   0.0000000   0.0000000), wk =   0.1111111
        k(   13) = (   0.0517782   0.0298942   0.0000000), wk =   0.1111111
        k(   14) = (   0.0517782  -0.1195766   0.0000000), wk =   0.1111111
        k(   15) = (   0.0517782  -0.0896825   0.0000000), wk =   0.1111111
        k(   16) = (   0.0517782  -0.0597883   0.0000000), wk =   0.1111111
        k(   17) = (  -0.0776673   0.0448412   0.0000000), wk =   0.0555556
        k(   18) = (  -0.0776673   0.0747354   0.0000000), wk =   0.1111111
        k(   19) = (  -0.0776673   0.1046295   0.0000000), wk =   0.1111111
        k(   20) = (  -0.0776673  -0.0448412   0.0000000), wk =   0.0555556

     Largest allocated arrays     est. size (Mb)     dimensions
     Largest temporary arrays     est. size (Mb)     dimensions

     Initial potential from superposition of free atoms

     starting charge  149.99928, renormalised to  150.00000

     negative rho (up, down):  9.917E-05 0.000E+00

     *
     * You are using vdW-DF for exchange-correlation in this calculation.
     * Please cite the following three references that made this development
     * possible:
     *
     *   M. Dion, H. Rydberg, E. Schroder, D. C. Langreth, and
     *   B. I. Lundqvist, Phys. Rev. Lett. 92, 246401 (2004).
     *
     *   T. Thonhauser, V. R. Cooper, S. Li, A. Puzder, P. Hyldgaard, and
     *   D. C. Langreth, Phys. Rev. B 76, 125112 (2007).
     *
     *   G. Roman-Perez and J. M. Soler, Phys. Rev. Lett. 103, 096102 (2009).
     *
     *
     * If you are using vdW-DF2, please also cite:
     *
     *   K. Lee, E. D. Murray, L. Kong, B. I. Lundqvist, and
     *   D. C. Langreth, Phys. Rev. B 82, 081101(R) (2010).
     *
     *
     * If you are calculating the stress with vdW-DF, please also cite:
     *
     *   R. Sabatini, E. Kucukbenli, B. Kolb, T. Thonhauser, and
     *   S. de Gironcoli, J. Phys.: Condens. Matter 24, 424209 (2012).
     *

     Carrying out vdW-DF run using the following parameters:

     Nqs =      20    Nr_points =    1024   r_max =   100.000
     q_mesh =
               0.00001000     0.04494208     0.09755937     0.15916263
               0.23128650     0.31572767     0.41458969     0.53033537
               0.66584808     0.82450364     1.01025438     1.22772762
               1.48234092     1.78043706     2.12944203     2.53805004
               3.01644009     3.57652955     4.23227104     5.00000000

     Gradients computed in reciprocal space

     Adding external electric field

     Computed dipole along edir(3) :
        Dipole               -0.0001 Ry au,         -0.0002 Debye
        Dipole field         -0.0000 Ry au

        Potential amp.        0.0000 Ry
        Total length         46.5344 bohr

     Starting wfc are  113 randomized atomic wfcs

     Self-consistent Calculation

     iteration #  1     ecut=    36.75 Ry     beta=0.30
     Davidson diagonalization with overlap
     ethr =  1.00E-02,  avg # of iterations =  4.9

[...]

     total energy              =   -1329.91583574 Ry
     Harris-Foulkes estimate   =   -1330.82082469 Ry
     estimated scf accuracy    <       1.96622667 Ry

[...]

     End of self-consistent calculation

          k = 0.0000 0.0000 0.0000 ( 23031 PWs)   bands (ev):

   -14.4804  -7.9885  -7.7485  -7.3928  -7.3881  -7.3881  -7.3601  -7.3138
    -7.3138  -7.2088  -7.2088  -7.1972  -7.1881  -7.0478  -7.0061  -7.0061
    -6.7445  -6.6917  -6.6917  -6.6118  -6.6118  -6.5578  -6.5578  -6.5427
    -6.5158  -6.5118  -6.5118  -6.4456  -6.4456  -6.4357  -6.2838  -6.2838
    -6.0776  -6.0776  -5.9522  -5.9522  -5.9302  -5.9268  -5.9268  -5.8760
    -5.7449  -5.7449  -5.7364  -5.6793  -5.6792  -5.6434  -5.5607  -5.5607
    -5.5590  -5.4876  -5.4812  -5.4812  -5.4743  -5.4743  -5.4470  -5.4470
    -5.4181  -5.4168  -5.3934  -5.3934  -5.1710  -5.1634  -5.1634  -3.9845
    -2.6921  -2.1987  -2.1987  -1.3616  -1.3616  -1.3049  -1.1316  -0.9433
    -0.9433   0.0669   0.1409   0.1409   0.1961   0.8277   0.8277   1.0863
     1.8698   2.1980   2.1980   2.8731   2.8731

[...]

          k =-0.0777 0.0448 0.0000 ( 23032 PWs)   bands (ev):

[...]

     the Fermi energy is     0.6336 ev

!    total energy              =   -1330.56683612 Ry
     Harris-Foulkes estimate   =   -1330.56852047 Ry
     estimated scf accuracy    <       0.00000516 Ry

     The total energy is the sum of the following terms:

     one-electron contribution =   -8375.86707131 Ry
     hartree contribution      =    4282.64047702 Ry
     xc contribution           =    -491.71290328 Ry
     ewald contribution        =    3254.39681034 Ry
     electric field correction =       0.00001444 Ry
     smearing contrib. (-TS)   =      -0.02416334 Ry

     convergence has been achieved in  10 iterations

 BEEF-vdW xc energy contributions
           1 :   -430.781832913067
           2 :    396.052175628371
           3 :   -335.861798295188
           4 :    264.720851498672
           5 :   -196.974710632314
           6 :    142.471417405574
           7 :   -104.623460035304
           8 :    81.1136392035052
           9 :   -66.5080069609795
          10 :    55.3578714030887
          11 :   -44.3926878713432
          12 :    33.0529342296895
          13 :   -22.5534732497354
          14 :    14.3457442698712
          15 :   -8.94966870099142
          16 :    5.69335431647579
          17 :   -3.28884714590390
          18 :   0.711345284457479
          19 :    2.22052817361168
          20 :   -4.88678528728445
          21 :    6.43134607688529
          22 :   -6.44486539662876
          23 :    5.31497976707834
          24 :   -4.03643432237544
          25 :    3.62354515448817
          26 :   -4.50900085162942
          27 :    6.29926588874940
          28 :   -8.02479879043028
          29 :    8.71900491609978
          30 :   -7.97705906954019
          31 :   -40.2469971121722
          32 :   -29.5539852275264

     Forces acting on atoms (Ry/au):

     negative rho (up, down):  5.987E-04 0.000E+00
     atom    1 type  1   force =    -0.00028224   -0.00015829   -0.02049169
     atom    2 type  1   force =     0.00027927   -0.00015955   -0.02049764
     atom    3 type  1   force =     0.00000100    0.00032464   -0.02048914
     atom    4 type  1   force =     0.00000264   -0.00000167   -0.02096954
     atom    5 type  1   force =     0.00000645    0.00166856    0.00298454
     atom    6 type  1   force =    -0.00000885    0.00000423    0.00640224
     atom    7 type  1   force =    -0.00144054   -0.00084490    0.00297369
     atom    8 type  1   force =     0.00144384   -0.00083322    0.00297556
     atom    9 type  1   force =    -0.00000187    0.00000057    0.02044806
     atom   10 type  1   force =     0.00000268   -0.03846996    0.01591210
     atom   11 type  1   force =    -0.03331949    0.01923940    0.01591114
     atom   12 type  1   force =     0.03331950    0.01923167    0.01591013
     atom   13 type  2   force =    -0.00000175   -0.00000121    0.02152433
     atom   14 type  3   force =    -0.00000064   -0.00000028   -0.02259378

     Total force =     0.081189     Total SCF correction =     0.010589
     SCF correction compared to forces is large: reduce conv_thr to get better values

     entering subroutine stress ...

     negative rho (up, down):  5.987E-04 0.000E+00
          total   stress  (Ry/bohr**3)                   (kbar)     P=   19.60
   0.00014643   0.00000000   0.00000000         21.54      0.00      0.00
   0.00000000   0.00014643   0.00000000          0.00     21.54      0.00
   0.00000000   0.00000000   0.00010692          0.00      0.00     15.73

     BFGS Geometry Optimization

     number of scf cycles    =   1
     number of bfgs steps    =   0

     energy   new            =   -1330.5668361244 Ry

     new trust radius        =       0.0416354052 bohr
     new conv_thr            =       0.0000099958 Ry

ATOMIC_POSITIONS (crystal)
Hg1      0.166666667   0.166666667   0.395939652    0   0   0
Hg1      0.666666667   0.166666667   0.395939652    0   0   0
Hg1      0.166666667   0.666666667   0.395939652    0   0   0
Hg1      0.666666667   0.666666667   0.395939652    0   0   0
Hg1      0.833333333   0.333333333   0.500000000    0   0   0
Hg1      0.333333333   0.333333333   0.500000000    0   0   0
Hg1      0.833333333   0.833333333   0.500000000    0   0   0
Hg1      0.333333333   0.833333333   0.500000000    0   0   0
Hg1     -0.000000180   0.000000054   0.604488780
Hg1      0.501825924  -0.003651407   0.604393742
Hg1     -0.003651907   0.501826123   0.604393722
Hg1      0.501826151   0.501825390   0.604393701
N1       0.333333247   0.333333218   0.656755568
H1       0.333333294   0.333333307   0.697404859

     Writing output data file calc.save
     NEW-OLD atomic charge density approx. for the potential

[...]

     Total force =     0.068072     Total SCF correction =     0.002553

[...]

     energy   old            =   -1330.5668361244 Ry
     energy   new            =   -1330.5737550533 Ry

     CASE: energy  _new < energy  _old

[...]

     Writing output data file calc.save
     NEW-OLD atomic charge density approx. for the potential
     Check: negative starting charge=   -0.000101

[...]

     Writing output data file calc.save
     Check: negative starting charge=   -0.000101
     NEW-OLD atomic charge density approx. for the potential
     Check: negative starting charge=   -0.000101

[...]

     Writing output data file calc.save
     Check: negative starting charge=   -0.000101
     NEW-OLD atomic charge density approx. for the potential

[...]

     Threshold (ethr) on eigenvalues was too large:
     Diagonalizing with lowered threshold

     Davidson diagonalization with overlap
     ethr =  1.08E-08,  avg # of iterations =  1.5

[...]

     WARNING: bfgs curvature condition failed, Theta= 0.777
     new trust radius        =       0.0152801591 bohr
     new conv_thr            =       0.0000001000 Ry

[...]

     Total force =     0.002807     Total SCF correction =     0.000212

[...]

     number of scf cycles    =  23
     number of bfgs steps    =  22

     energy   old            =   -1330.6234194998 Ry
     energy   new            =   -1330.6234382520 Ry

     CASE: energy  _new < energy  _old

     new trust radius        =       0.0315419077 bohr
     new conv_thr            =       0.0000001000 Ry

ATOMIC_POSITIONS (crystal)
Hg1      0.166666667   0.166666667   0.395939652    0   0   0
Hg1      0.666666667   0.166666667   0.395939652    0   0   0
Hg1      0.166666667   0.666666667   0.395939652    0   0   0
Hg1      0.666666667   0.666666667   0.395939652    0   0   0
Hg1      0.833333333   0.333333333   0.500000000    0   0   0
Hg1      0.333333333   0.333333333   0.500000000    0   0   0
Hg1      0.833333333   0.833333333   0.500000000    0   0   0
Hg1      0.333333333   0.833333333   0.500000000    0   0   0
Hg1      0.000002429   0.000002018   0.619895301
Hg1      0.518927946  -0.037852114   0.624534373
Hg1     -0.037852140   0.518936866   0.624535325
Hg1      0.518930463   0.518911803   0.624528328
N1       0.333322851   0.333335173   0.656195386
H1       0.333332306   0.333331828   0.697148452

     Writing output data file calc.save
     NEW-OLD atomic charge density approx. for the potential

[...]

     Self-consistent Calculation

[...]

     Threshold (ethr) on eigenvalues was too large:
     Diagonalizing with lowered threshold

     Davidson diagonalization with overlap
     ethr =  9.49E-09,  avg # of iterations =  2.0

[...]

     total energy              =   -1330.62347899 Ry
     Harris-Foulkes estimate   =   -1330.62347890 Ry
     estimated scf accuracy    <       0.00000448 Ry

     iteration #  5     ecut=    36.75 Ry     beta=0.30
     Davidson diagonalization with overlap
     ethr =  2.99E-09,  avg # of iterations =  2.2

[...]

     negative rho (up, down):  5.320E-04 0.000E+00

     Adding external electric field

     Computed dipole along edir(3) :
        Dipole                0.2861 Ry au,          0.7272 Debye
        Dipole field          0.0006 Ry au

        Potential amp.       -0.0547 Ry
        Total length         46.5344 bohr

     End of self-consistent calculation

[...]

          k = 0.0518-0.0598 0.0000 ( 23014 PWs)   bands (ev):

[...]

          k =-0.0777-0.0448 0.0000 ( 23032 PWs)   bands (ev):

   -15.1297  -7.8313  -7.1829  -7.0678  -6.9441  -6.9305  -6.8122  -6.7021
    -6.7019  -6.6947  -6.6192  -6.6017  -6.5491  -6.5204  -6.5186  -6.5054
    -6.4394  -6.4236  -6.4062  -6.3524  -6.3418  -6.3105  -6.2932  -6.2780
    -6.1763  -6.1716  -6.1441  -6.1075  -6.0531  -6.0456  -6.0122  -6.0086
    -5.9968  -5.9765  -5.9220  -5.8949  -5.8686  -5.8437  -5.8421  -5.8383
    -5.8036  -5.7932  -5.7400  -5.7117  -5.6719  -5.6614  -5.6603  -5.6436
    -5.6264  -5.6041  -5.5897  -5.4507  -5.4441  -5.4406  -5.4379  -5.3876
    -5.3393  -5.3169  -5.2888  -5.2300  -5.2203  -5.0924  -5.0778  -4.6099
    -4.5550  -3.1853  -3.0895  -2.5620  -2.3209  -2.0537  -1.9470  -1.2103
    -0.2352  -0.1256   0.9056   1.4487   1.9092   2.2524   3.2582   3.3514
     3.6880   3.7064   3.9146   4.0825   4.5414

     the Fermi energy is     0.8559 ev

!    total energy              =   -1330.62347939 Ry
     Harris-Foulkes estimate   =   -1330.62347886 Ry
     estimated scf accuracy    <       0.00000009 Ry

     The total energy is the sum of the following terms:

     one-electron contribution =   -7854.87113517 Ry
     hartree contribution      =    4022.94251907 Ry
     xc contribution           =    -491.62953530 Ry
     ewald contribution        =    2992.95643066 Ry
     electric field correction =       0.00016815 Ry
     smearing contrib. (-TS)   =      -0.02192680 Ry

     convergence has been achieved in   5 iterations

 BEEF-vdW xc energy contributions
           1 :   -430.726031866819
           2 :    395.833202470325
           3 :   -335.456375001141
           4 :    264.294436652015
           5 :   -196.767572567010
           6 :    142.600933356262
           7 :   -104.972620169498
           8 :    81.4010752391989
           9 :   -66.4934904026742
          10 :    55.0301324347387
          11 :   -43.9926079957822
          12 :    32.9073179304257
          13 :   -22.8366837204722
          14 :    14.9420360475457
          15 :   -9.52115427854881
          16 :    5.90990225817450
          17 :   -3.05547058059369
          18 :   0.233699646092191
          19 :    2.57525609068495
          20 :   -4.83791723270559
          21 :    5.97271906015908
          22 :   -5.84583713388201
          23 :    4.93756502411077
          24 :   -4.09556201770079
          25 :    4.05011414151568
          26 :   -5.00154740840958
          27 :    6.52341985796653
          28 :   -7.82592424215107
          29 :    8.21223999427599
          30 :   -7.46332704034626
          31 :   -40.2381627901644
          32 :   -29.5001483040679

     Forces acting on atoms (Ry/au):

     negative rho (up, down):  5.320E-04 0.000E+00
     atom    1 type  1   force =    -0.00036928   -0.00021326   -0.02152755
     atom    2 type  1   force =     0.00036956   -0.00021297   -0.02152764
     atom    3 type  1   force =     0.00000051    0.00042640   -0.02152752
     atom    4 type  1   force =    -0.00000009   -0.00000012   -0.02153349
     atom    5 type  1   force =     0.00000036    0.00009882    0.01957520
     atom    6 type  1   force =    -0.00000054   -0.00000026    0.02609860
     atom    7 type  1   force =    -0.00008546   -0.00004931    0.01957572
     atom    8 type  1   force =     0.00008587   -0.00004916    0.01957547
     atom    9 type  1   force =     0.00000445   -0.00000035   -0.00137346
     atom   10 type  1   force =    -0.00000053   -0.00044866    0.00128257
     atom   11 type  1   force =    -0.00039844    0.00023138    0.00128419
     atom   12 type  1   force =     0.00038885    0.00022403    0.00127740
     atom   13 type  2   force =     0.00000744   -0.00000932   -0.00071408
     atom   14 type  3   force =    -0.00000272    0.00000278   -0.00046540

     Total force =     0.002856     Total SCF correction =     0.000554
     SCF correction compared to forces is large: reduce conv_thr to get better values

     entering subroutine stress ...

     negative rho (up, down):  5.320E-04 0.000E+00
          total   stress  (Ry/bohr**3)                   (kbar)     P=   18.76
   0.00015702   0.00000000  -0.00000000         23.10      0.00     -0.00
   0.00000000   0.00015701  -0.00000000          0.00     23.10     -0.00
  -0.00000000  -0.00000000   0.00006862         -0.00     -0.00     10.09

     bfgs converged in  24 scf cycles and  23 bfgs steps
     (criteria: energy <  1.0E+00, force <  1.9E-03)

     End of BFGS Geometry Optimization

     Final energy   =   -1330.6234793930 Ry
Begin final coordinates

ATOMIC_POSITIONS (crystal)
Hg1      0.166666667   0.166666667   0.395939652    0   0   0
Hg1      0.666666667   0.166666667   0.395939652    0   0   0
Hg1      0.166666667   0.666666667   0.395939652    0   0   0
Hg1      0.666666667   0.666666667   0.395939652    0   0   0
Hg1      0.833333333   0.333333333   0.500000000    0   0   0
Hg1      0.333333333   0.333333333   0.500000000    0   0   0
Hg1      0.833333333   0.833333333   0.500000000    0   0   0
Hg1      0.333333333   0.833333333   0.500000000    0   0   0
Hg1      0.000002429   0.000002018   0.619895301
Hg1      0.518927946  -0.037852114   0.624534373
Hg1     -0.037852140   0.518936866   0.624535325
Hg1      0.518930463   0.518911803   0.624528328
N1       0.333322851   0.333335173   0.656195386
H1       0.333332306   0.333331828   0.697148452
End final coordinates

     Writing output data file calc.save

     General routines

     Parallel routines

   This run was terminated on:   8:49:13  18Apr2018

   JOB DONE.
Job  /afs/slac/g/suncat/bin/suncat-tsmpirun -x LD_LIBRARY_PATH -wdir /scratch/qe216957_GpBRi pw.x -npool 4 -in pw.inp

TID   HOST_NAME   COMMAND_LINE            STATUS            TERMINATION_TIME
00000 suncat0064 pw.x -npool 4 -i  Done                     04/18/2018 08:49:13
00001 suncat0064 pw.x -npool 4 -i  Done                     04/18/2018 08:49:13
00002 suncat0064 pw.x -npool 4 -i  Done                     04/18/2018 08:49:13
00003 suncat0064 pw.x -npool 4 -i  Done                     04/18/2018 08:49:13
00004 suncat0064 pw.x -npool 4 -i  Done                     04/18/2018 08:49:13
00005 suncat0064 pw.x -npool 4 -i  Done                     04/18/2018 08:49:13
00006 suncat0064 pw.x -npool 4 -i  Done                     04/18/2018 08:49:13
00007 suncat0064 pw.x -npool 4 -i  Done                     04/18/2018 08:49:13
00008 suncat0128 pw.x -npool 4 -i  Done                     04/18/2018 08:49:13
00009 suncat0128 pw.x -npool 4 -i  Done                     04/18/2018 08:49:13
00010 suncat0128 pw.x -npool 4 -i  Done                     04/18/2018 08:49:13
00011 suncat0128 pw.x -npool 4 -i  Done                     04/18/2018 08:49:13
00012 suncat0128 pw.x -npool 4 -i  Done                     04/18/2018 08:49:13
00013 suncat0128 pw.x -npool 4 -i  Done                     04/18/2018 08:49:13
00014 suncat0128 pw.x -npool 4 -i  Done                     04/18/2018 08:49:13
00015 suncat0128 pw.x -npool 4 -i  Done                     04/18/2018 08:49:13
00016 suncat0237 pw.x -npool 4 -i  Done                     04/18/2018 08:49:13
00017 suncat0237 pw.x -npool 4 -i  Done                     04/18/2018 08:49:13
00018 suncat0237 pw.x -npool 4 -i  Done                     04/18/2018 08:49:13
00019 suncat0237 pw.x -npool 4 -i  Done                     04/18/2018 08:49:13
00020 suncat0237 pw.x -npool 4 -i  Done                     04/18/2018 08:49:13
00021 suncat0237 pw.x -npool 4 -i  Done                     04/18/2018 08:49:13
00022 suncat0237 pw.x -npool 4 -i  Done                     04/18/2018 08:49:13
00023 suncat0237 pw.x -npool 4 -i  Done                     04/18/2018 08:49:13
00024 suncat0227 pw.x -npool 4 -i  Done                     04/18/2018 08:49:13
00025 suncat0227 pw.x -npool 4 -i  Done                     04/18/2018 08:49:13
00026 suncat0227 pw.x -npool 4 -i  Done                     04/18/2018 08:49:13
00027 suncat0227 pw.x -npool 4 -i  Done                     04/18/2018 08:49:13
00028 suncat0227 pw.x -npool 4 -i  Done                     04/18/2018 08:49:13
00029 suncat0227 pw.x -npool 4 -i  Done                     04/18/2018 08:49:13
00030 suncat0227 pw.x -npool 4 -i  Done                     04/18/2018 08:49:13
00031 suncat0227 pw.x -npool 4 -i  Done                     04/18/2018 08:49:13