     Program PWSCF v.5.1rc2 (svn rev. ) starts on 18Apr2018 at  3:46:43

     Current dimensions of program PWSCF are:
     Max number of different atomic species (ntypx) = 10
     Max number of k-points (npk) =  40000
     Max angular momentum in pseudopotentials (lmaxx) =  3
     Presently stress not available with electric field

     IMPORTANT: XC functional enforced from input :
     Exchange-correlation      = BEEF-VDW ( 1  4 27 13 2)
     Any further DFT definition will be discarded
     Please, verify this is what you really want

     Subspace diagonalization in iterative solution of the eigenvalue problem:
     a serial algorithm will be used

     bravais-lattice index     =            0
     lattice parameter (alat)  =       1.8897  a.u.
     unit-cell volume          =    6024.3322 (a.u.)^3
     number of atoms/cell      =           15
     number of atomic types    =            3
     number of electrons       =       150.00
     number of Kohn-Sham states=           85
     kinetic-energy cutoff     =      36.7493  Ry
     charge density cutoff     =     367.4932  Ry
     convergence threshold     =      1.0E-05
     mixing beta               =       0.3000
     number of iterations used =           10  plain     mixing
     Exchange-correlation      = BEEF-VDW ( 1  4 27 13 2)
     nstep                     =           50

     celldm(1)=   1.889726  celldm(2)=   0.000000  celldm(3)=   0.000000
     celldm(4)=   0.000000  celldm(5)=   0.000000  celldm(6)=   0.000000

     crystal axes: (cart. coord. in units of alat)
               a(1) = (   6.393197   0.000000   0.000000 )
               a(2) = (   3.196599   5.536671   0.000000 )
               a(3) = (   0.000000   0.000000  25.220024 )

     reciprocal axes: (cart. coord. in units 2 pi/alat)
               b(1) = (  0.156416 -0.090307  0.000000 )
               b(2) = (  0.000000  0.180614  0.000000 )
               b(3) = (  0.000000  0.000000  0.039651 )

     PseudoPot. # 1 for Hf read from file:
     /home/mamunm/src/pseudo/gbrv1.5pbe/Hf.UPF
     MD5 check sum: 8ee9378dfe14276e333edf04c5e4aa26
     Pseudo is Ultrasoft + core correction, Zval = 12.0
     Generated by new atomic code, or converted to UPF format
     Using radial grid of  921 points,  8 beta functions with:
                l(1) =   0
                l(2) =   0
                l(3) =   0
                l(4) =   1
                l(5) =   1
                l(6) =   2
                l(7) =   2
                l(8) =   3
     Q(r) pseudized with  6 coefficients,  rinner =    1.200   1.200   1.200
                                                       1.200   1.200   1.200
                                                       1.200

     PseudoPot. # 2 for C  read from file:
     /home/mamunm/src/pseudo/gbrv1.5pbe/C.UPF
     MD5 check sum: d1aef80898a10debaa0f26306b886e00
     Pseudo is Ultrasoft + core correction, Zval =  4.0
     Generated by new atomic code, or converted to UPF format
     Using radial grid of  721 points,  4 beta functions with:
                l(1) =   0
                l(2) =   0
                l(3) =   1
                l(4) =   1
     Q(r) pseudized with  8 coefficients,  rinner =    1.100   1.100   1.100

     PseudoPot. # 3 for H  read from file:
     /home/mamunm/src/pseudo/gbrv1.5pbe/H.UPF
     MD5 check sum: 761ae9a214b05c3daf00ab9f6b793d6f
     Pseudo is Ultrasoft, Zval =  1.0
     Generated by new atomic code, or converted to UPF format
     Using radial grid of  615 points,  2 beta functions with:
                l(1) =   0
                l(2) =   0
     Q(r) pseudized with  8 coefficients,  rinner =    0.700

     vdW kernel table read from file vdW_kernel_table
     MD5 check sum: 095c7af220d748ca6e76c0b4c6cfb241

     atomic species   valence    mass     pseudopotential
        Hf1           12.00   178.49000     Hf( 1.00)
        C1             4.00    12.01100     C ( 1.00)
        H1             1.00     1.00800     H ( 1.00)

     No symmetry found

   Cartesian axes

     site n.     atom                  positions (alat units)
         1           Hf1 tau(   1) = (   1.5982993   0.9227785  10.0000000  )
         2           Hf1 tau(   2) = (   4.7948978   0.9227785  10.0000000  )
         3           Hf1 tau(   3) = (   3.1965986   3.6911141  10.0000000  )
         4           Hf1 tau(   4) = (   6.3931971   3.6911141  10.0000000  )
         5           Hf1 tau(   5) = (   6.3931971   1.8455570  12.6100118  )
         6           Hf1 tau(   6) = (   3.1965986   1.8455570  12.6100118  )
         7           Hf1 tau(   7) = (   7.9914964   4.6138926  12.6100118  )
         8           Hf1 tau(   8) = (   4.7948978   4.6138926  12.6100118  )
         9           Hf1 tau(   9) = (   0.0000000   0.0000000  15.2200236  )
        10           Hf1 tau(  10) = (   3.1965986   0.0000000  15.2200236  )
        11           Hf1 tau(  11) = (   1.5982993   2.7683356  15.2200236  )
        12           Hf1 tau(  12) = (   4.7948978   2.7683356  15.2200236  )
        13           C1  tau(  13) = (   0.0000000   0.0000000  17.3535236  )
        14           H1  tau(  14) = (   0.6300000   0.6300000  17.9835236  )
        15           H1  tau(  15) = (   8.9597957   4.9066711  17.9835236  )

     number of k points=    20  Fermi-Dirac smearing, width (Ry)=  0.0110
                       cart. coord. in units 2pi/alat
        k(    1) = (   0.0000000   0.0000000   0.0000000), wk =   0.0555556
        k(    2) = (   0.0000000   0.0301023   0.0000000), wk =   0.1111111
        k(    3) = (   0.0000000   0.0602046   0.0000000), wk =   0.1111111
        k(    4) = (   0.0000000  -0.0903070   0.0000000), wk =   0.0555556
        k(    5) = (   0.0260694  -0.0150512   0.0000000), wk =   0.1111111
        k(    6) = (   0.0260694   0.0150512   0.0000000), wk =   0.1111111
        k(    7) = (   0.0260694   0.0451535   0.0000000), wk =   0.1111111
        k(    8) = (   0.0260694  -0.1053581   0.0000000), wk =   0.1111111
        k(    9) = (   0.0260694  -0.0752558   0.0000000), wk =   0.1111111
        k(   10) = (   0.0260694  -0.0451535   0.0000000), wk =   0.1111111
        k(   11) = (   0.0521388  -0.0301023   0.0000000), wk =   0.1111111
        k(   12) = (   0.0521388   0.0000000   0.0000000), wk =   0.1111111
        k(   13) = (   0.0521388   0.0301023   0.0000000), wk =   0.1111111
        k(   14) = (   0.0521388  -0.1204093   0.0000000), wk =   0.1111111
        k(   15) = (   0.0521388  -0.0903070   0.0000000), wk =   0.1111111
        k(   16) = (   0.0521388  -0.0602046   0.0000000), wk =   0.1111111
        k(   17) = (  -0.0782081   0.0451535   0.0000000), wk =   0.0555556
        k(   18) = (  -0.0782081   0.0752558   0.0000000), wk =   0.1111111
        k(   19) = (  -0.0782081   0.1053581   0.0000000), wk =   0.1111111
        k(   20) = (  -0.0782081  -0.0451535   0.0000000), wk =   0.0555556

     Largest allocated arrays     est. size (Mb)     dimensions
     Largest temporary arrays     est. size (Mb)     dimensions

     Check: negative/imaginary core charge=   -0.000003    0.000000

     Initial potential from superposition of free atoms
     Check: negative starting charge=   -1.301315

     starting charge  125.99992, renormalised to  150.00000

     negative rho (up, down):  1.549E+00 0.000E+00

     *
     * You are using vdW-DF for exchange-correlation in this calculation.
     * Please cite the following three references that made this development
     * possible:
     *
     *   M. Dion, H. Rydberg, E. Schroder, D. C. Langreth, and
     *   B. I. Lundqvist, Phys. Rev. Lett. 92, 246401 (2004).
     *
     *   T. Thonhauser, V. R. Cooper, S. Li, A. Puzder, P. Hyldgaard, and
     *   D. C. Langreth, Phys. Rev. B 76, 125112 (2007).
     *
     *   G. Roman-Perez and J. M. Soler, Phys. Rev. Lett. 103, 096102 (2009).
     *
     *
     * If you are using vdW-DF2, please also cite:
     *
     *   K. Lee, E. D. Murray, L. Kong, B. I. Lundqvist, and
     *   D. C. Langreth, Phys. Rev. B 82, 081101(R) (2010).
     *
     *
     * If you are calculating the stress with vdW-DF, please also cite:
     *
     *   R. Sabatini, E. Kucukbenli, B. Kolb, T. Thonhauser, and
     *   S. de Gironcoli, J. Phys.: Condens. Matter 24, 424209 (2012).
     *

     Carrying out vdW-DF run using the following parameters:

     Nqs =      20    Nr_points =    1024   r_max =   100.000
     q_mesh =
               0.00001000     0.04494208     0.09755937     0.15916263
               0.23128650     0.31572767     0.41458969     0.53033537
               0.66584808     0.82450364     1.01025438     1.22772762
               1.48234092     1.78043706     2.12944203     2.53805004
               3.01644009     3.57652955     4.23227104     5.00000000

     Gradients computed in reciprocal space

     Adding external electric field

     Computed dipole along edir(3) :
        Dipole              -10.6974 Ry au,        -27.1902 Debye
        Dipole field         -0.0223 Ry au

        Potential amp.        2.0738 Ry
        Total length         46.4675 bohr

     Starting wfc are  162 randomized atomic wfcs

     Self-consistent Calculation

     iteration #  1     ecut=    36.75 Ry     beta=0.30
     Davidson diagonalization with overlap
     ethr =  1.00E-02,  avg # of iterations =  9.6

[...]

     total energy              =   -1284.41886897 Ry
     Harris-Foulkes estimate   =   -1931.71414511 Ry
     estimated scf accuracy    <    1389.50924418 Ry

     iteration #  2     ecut=    36.75 Ry     beta=0.30
     Davidson diagonalization with overlap
     c_bands:  5 eigenvalues not converged
     ethr =  1.00E-02,  avg # of iterations = 21.4

[...]

     End of self-consistent calculation

          k = 0.0000 0.0000 0.0000 ( 22729 PWs)   bands (ev):

   -61.2473 -61.2232 -61.2165 -61.1550 -61.1253 -61.1147 -61.1145 -60.7697
   -60.7396 -60.7376 -60.7254 -60.5260 -29.9504 -29.9234 -29.9160 -29.9128
   -29.8948 -29.8937 -29.8863 -29.8405 -29.8351 -29.7845 -29.7234 -29.6911
   -29.6908 -29.6048 -29.5135 -29.4928 -29.4927 -29.4883 -29.4781 -29.4727
   -29.4626 -29.4578 -29.3630 -29.3623 -29.2659 -29.2360 -29.2321 -29.2085
   -29.1479 -29.1351 -29.1192 -29.1041 -29.0224 -29.0038 -28.9956 -28.9395
    -9.9942  -5.0478  -4.1164  -3.7498  -2.4453  -1.8906  -1.5700  -1.5622
    -1.3766  -1.3084  -1.2936  -1.1348  -0.8943  -0.8877  -0.6170  -0.2768
    -0.2264  -0.1649   0.1569   0.4985   0.5950   1.0224   1.4763   1.6619
     1.8034   1.8895   1.8994   1.9108   2.0252   2.2019   2.2445   2.4321
     2.5739   2.6318   2.6981   2.7477   2.7529

[...]

          k =-0.0782 0.0452 0.0000 ( 22668 PWs)   bands (ev):

[...]

     the Fermi energy is     1.4819 ev

!    total energy              =   -1940.57029994 Ry
     Harris-Foulkes estimate   =   -1940.57030414 Ry
     estimated scf accuracy    <       0.00000358 Ry

     The total energy is the sum of the following terms:

     one-electron contribution =   -8462.43811131 Ry
     hartree contribution      =    4216.61402888 Ry
     xc contribution           =    -932.91089585 Ry
     ewald contribution        =    3238.27879340 Ry
     electric field correction =       0.00000097 Ry
     smearing contrib. (-TS)   =      -0.11411602 Ry

     convergence has been achieved in  37 iterations

 BEEF-vdW xc energy contributions
           1 :   -843.350174902426
           2 :    783.630817190392
           3 :   -677.917049508503
           4 :    548.149705301793
           5 :   -416.912094803956
           6 :    301.144420236315
           7 :   -209.428882532176
           8 :    142.916257992045
           9 :   -98.3629169448982
          10 :    71.1030147330187
          11 :   -56.6188664022109
          12 :    50.6434792911912
          13 :   -48.7534590354687
          14 :    46.4339508509438
          15 :   -39.9715524243031
          16 :    27.6826528261956
          17 :   -10.6354735729665
          18 :   -7.75163254736458
          19 :    23.1564352412220
          20 :   -32.1585860433906
          21 :    33.5091714066644
          22 :   -28.3319370834129
          23 :    19.3298108676441
          24 :   -9.58275950954419
          25 :    1.58531214596212
          26 :    3.13477675409433
          27 :   -3.93255416870375
          28 :   0.845635902435220
          29 :    5.45039335089450
          30 :   -13.5622199475317
          31 :   -60.7975220880974
          32 :   -43.6965916857972

     Forces acting on atoms (Ry/au):

     negative rho (up, down):  1.379E+00 0.000E+00
     atom    1 type  1   force =     0.00055133   -0.00023721    0.02591608
     atom    2 type  1   force =    -0.00036460    0.00073414    0.02553488
     atom    3 type  1   force =     0.00093151   -0.00051348    0.02569497
     atom    4 type  1   force =    -0.00079582    0.00000968    0.02742521
     atom    5 type  1   force =     0.00029666    0.01273148   -0.01233769
     atom    6 type  1   force =    -0.00039627    0.00000761   -0.00023129
     atom    7 type  1   force =    -0.01166403   -0.00691170   -0.01387118
     atom    8 type  1   force =     0.01038731   -0.00583150   -0.01092087
     atom    9 type  1   force =     0.00651812    0.00001682    0.01071191
     atom   10 type  1   force =    -0.00273421   -0.00076574   -0.02081892
     atom   11 type  1   force =    -0.00121119   -0.00092702   -0.03202711
     atom   12 type  1   force =     0.00022074    0.00165580   -0.01111397
     atom   13 type  2   force =    -0.00094122    0.00004893   -0.02688913
     atom   14 type  3   force =     0.00191145    0.00214948    0.00646970
     atom   15 type  3   force =    -0.00270978   -0.00216729    0.00645742

     Total force =     0.050802     Total SCF correction =     0.001351

     entering subroutine stress ...

     negative rho (up, down):  1.379E+00 0.000E+00
          total   stress  (Ry/bohr**3)                   (kbar)     P=  -22.90
  -0.00014972  -0.00000076  -0.00000075        -22.02     -0.11     -0.11
  -0.00000076  -0.00014968   0.00000002         -0.11    -22.02      0.00
  -0.00000075   0.00000002  -0.00016764         -0.11      0.00    -24.66

     BFGS Geometry Optimization

     number of scf cycles    =   1
     number of bfgs steps    =   0

     energy   new            =   -1940.5702999435 Ry

     new trust radius        =       0.0320634042 bohr
     new conv_thr            =       0.0000099958 Ry

ATOMIC_POSITIONS (crystal)
Hf1      0.166666667   0.166666667   0.396510335    0   0   0
Hf1      0.666666667   0.166666667   0.396510335    0   0   0
Hf1      0.166666667   0.666666667   0.396510335    0   0   0
Hf1      0.666666667   0.666666667   0.396510335    0   0   0
Hf1      0.833333333   0.333333333   0.500000000    0   0   0
Hf1      0.333333333   0.333333333   0.500000000    0   0   0
Hf1      0.833333333   0.833333333   0.500000000    0   0   0
Hf1      0.333333333   0.833333333   0.500000000    0   0   0
Hf1      0.000538713   0.000001607   0.603714427
Hf1      0.499810278  -0.000073187   0.603052834
Hf1     -0.000055952   0.499911399   0.602817659
Hf1      0.499939143   0.500158256   0.603256467
C1      -0.000080245   0.000004677   0.687520946
H1       0.041704348   0.113992224   0.713201046
H1       0.958230424   0.886006074   0.713200789

     Writing output data file calc.save
     Check: negative starting charge=   -1.301315
     NEW-OLD atomic charge density approx. for the potential

     Check: negative/imaginary core charge=   -0.000003    0.000000
     Check: negative starting charge=   -1.300735

[...]

     energy   old            =   -1940.5702999435 Ry
     energy   new            =   -1940.5722695253 Ry

     CASE: energy  _new < energy  _old

[...]

     Total force =     0.007302     Total SCF correction =     0.001157
     SCF correction compared to forces is large: reduce conv_thr to get better values

[...]

     WARNING: bfgs curvature condition failed, Theta= 0.932
     new trust radius        =       0.1191480690 bohr
     new conv_thr            =       0.0000001000 Ry

[...]

     WARNING: bfgs curvature condition failed, Theta= 0.956
     new trust radius        =       0.1461313405 bohr
     new conv_thr            =       0.0000001000 Ry

[...]

     new trust radius        =       0.0765717839 bohr
     new conv_thr            =       0.0000001000 Ry

ATOMIC_POSITIONS (crystal)
Hf1      0.166666667   0.166666667   0.396510335    0   0   0
Hf1      0.666666667   0.166666667   0.396510335    0   0   0
Hf1      0.166666667   0.666666667   0.396510335    0   0   0
Hf1      0.666666667   0.666666667   0.396510335    0   0   0
Hf1      0.833333333   0.333333333   0.500000000    0   0   0
Hf1      0.333333333   0.333333333   0.500000000    0   0   0
Hf1      0.833333333   0.833333333   0.500000000    0   0   0
Hf1      0.333333333   0.833333333   0.500000000    0   0   0
Hf1     -0.007055771  -0.004663653   0.600915251
Hf1      0.501089128   0.001130443   0.599740162
Hf1     -0.003560761   0.508305928   0.598991750
Hf1      0.497709108   0.503521112   0.594116486
C1      -0.178378606  -0.127589871   0.658857503
H1      -0.074196717  -0.072053330   0.684891763
H1       0.723270850   0.820705632   0.686877898

     Writing output data file calc.save
     Check: negative starting charge=   -1.298904
     NEW-OLD atomic charge density approx. for the potential

     Check: negative/imaginary core charge=   -0.000003    0.000000
     Check: negative starting charge=   -1.299678

[...]

     Self-consistent Calculation

[...]

     iteration #  6     ecut=    36.75 Ry     beta=0.30
     Davidson diagonalization with overlap
     c_bands:  1 eigenvalues not converged
     ethr =  1.28E-06,  avg # of iterations =  5.5

[...]

     total energy              =   -1940.69966711 Ry
     Harris-Foulkes estimate   =   -1940.69966699 Ry
     estimated scf accuracy    <       0.00000016 Ry

     iteration # 14     ecut=    36.75 Ry     beta=0.30
     Davidson diagonalization with overlap
     ethr =  1.04E-10,  avg # of iterations =  1.3

[...]

     negative rho (up, down):  1.377E+00 0.000E+00

     Adding external electric field

     Computed dipole along edir(3) :
        Dipole                0.2142 Ry au,          0.5444 Debye
        Dipole field          0.0004 Ry au

        Potential amp.       -0.0415 Ry
        Total length         46.4675 bohr

     End of self-consistent calculation

[...]

          k = 0.0521-0.0602 0.0000 ( 22643 PWs)   bands (ev):

[...]

          k =-0.0782-0.0452 0.0000 ( 22668 PWs)   bands (ev):

   -60.9483 -60.9482 -60.9311 -60.9287 -60.8232 -60.8017 -60.7858 -60.7368
   -60.4236 -60.4097 -60.3991 -60.3689 -29.6161 -29.6140 -29.5675 -29.5649
   -29.5470 -29.5061 -29.5050 -29.4955 -29.4896 -29.4744 -29.4458 -29.4397
   -29.4368 -29.4267 -29.3978 -29.3972 -29.3809 -29.3036 -29.2918 -29.2545
   -29.2384 -29.2369 -29.1456 -29.0977 -29.0511 -29.0482 -28.9379 -28.9116
   -28.9062 -28.8831 -28.8812 -28.8688 -28.8575 -28.8359 -28.7371 -28.7296
   -11.1192  -5.4190  -3.5497  -3.1817  -2.8961  -1.9391  -1.6560  -1.2763
    -0.9882  -0.8968  -0.6504  -0.4617  -0.3305  -0.3122   0.4990   0.5155
     0.6672   0.6712   0.7995   0.8617   0.9908   1.1198   1.1488   1.2174
     1.2310   1.3501   1.4989   1.5439   1.6255   1.6560   1.7590   1.8334
     1.9383   2.0478   2.1141   2.2115   2.6285

     the Fermi energy is     1.6692 ev

!    total energy              =   -1940.69966709 Ry
     Harris-Foulkes estimate   =   -1940.69966862 Ry
     estimated scf accuracy    <       0.00000004 Ry

     The total energy is the sum of the following terms:

     one-electron contribution =   -8750.64466346 Ry
     hartree contribution      =    4361.66100324 Ry
     xc contribution           =    -933.27070530 Ry
     ewald contribution        =    3381.66788445 Ry
     electric field correction =       0.00009568 Ry
     smearing contrib. (-TS)   =      -0.11328168 Ry

     convergence has been achieved in  14 iterations

 BEEF-vdW xc energy contributions
           1 :   -843.725326311575
           2 :    784.182741448705
           3 :   -678.637711491118
           4 :    548.856838081045
           5 :   -417.401790609572
           6 :    301.331062718620
           7 :   -209.380748220538
           8 :    142.784995709827
           9 :   -98.2749072027113
          10 :    71.0952922074665
          11 :   -56.6506351549373
          12 :    50.6560699993214
          13 :   -48.7287698722994
          14 :    46.4131293860301
          15 :   -40.0278154984037
          16 :    27.8680252689928
          17 :   -10.9346339234415
          18 :   -7.42780209002206
          19 :    22.9248913455959
          20 :   -32.0897250569463
          21 :    33.5754575882204
          22 :   -28.4220527756512
          23 :    19.3234836554932
          24 :   -9.43267681012946
          25 :    1.34500792242886
          26 :    3.35767937764081
          27 :   -4.06007969487587
          28 :   0.884683478836109
          29 :    5.42265096822189
          30 :   -13.4685662243197
          31 :   -60.8272172310327
          32 :   -43.7631616138558

     Forces acting on atoms (Ry/au):

     negative rho (up, down):  1.377E+00 0.000E+00
     atom    1 type  1   force =     0.00031393    0.00101975    0.01921673
     atom    2 type  1   force =    -0.00028682    0.00127688    0.01950940
     atom    3 type  1   force =     0.00014864   -0.00114795    0.01972535
     atom    4 type  1   force =     0.00009524   -0.00072184    0.01994922
     atom    5 type  1   force =     0.00420434   -0.00346761   -0.01851459
     atom    6 type  1   force =    -0.00376189   -0.00184981   -0.02035098
     atom    7 type  1   force =    -0.00105435    0.00094915   -0.01705324
     atom    8 type  1   force =    -0.00086201    0.00653313   -0.01980527
     atom    9 type  1   force =     0.00034227   -0.00019078   -0.00305396
     atom   10 type  1   force =     0.00150960   -0.00196123   -0.00120095
     atom   11 type  1   force =     0.00029110    0.00029790   -0.00081805
     atom   12 type  1   force =     0.00000748   -0.00120306    0.00091719
     atom   13 type  2   force =    -0.00278998   -0.00016076   -0.00252222
     atom   14 type  3   force =     0.00215103   -0.00029070    0.00207768
     atom   15 type  3   force =    -0.00030858    0.00091693    0.00192368

     Total force =     0.006929     Total SCF correction =     0.000119

     entering subroutine stress ...

     negative rho (up, down):  1.377E+00 0.000E+00
          total   stress  (Ry/bohr**3)                   (kbar)     P=  -16.73
  -0.00012975  -0.00000227   0.00000061        -19.09     -0.33      0.09
  -0.00000227  -0.00012279  -0.00000202         -0.33    -18.06     -0.30
   0.00000061  -0.00000202  -0.00008859          0.09     -0.30    -13.03

     number of scf cycles    =  50
     number of bfgs steps    =  49

     energy   old            =   -1940.6994074535 Ry
     energy   new            =   -1940.6996670879 Ry

     CASE: energy  _new < energy  _old

     new trust radius        =       0.0281205666 bohr

     The maximum number of steps has been reached.

     End of BFGS Geometry Optimization
Begin final coordinates

ATOMIC_POSITIONS (crystal)
Hf1      0.166666667   0.166666667   0.396510335    0   0   0
Hf1      0.666666667   0.166666667   0.396510335    0   0   0
Hf1      0.166666667   0.666666667   0.396510335    0   0   0
Hf1      0.666666667   0.666666667   0.396510335    0   0   0
Hf1      0.833333333   0.333333333   0.500000000    0   0   0
Hf1      0.333333333   0.333333333   0.500000000    0   0   0
Hf1      0.833333333   0.833333333   0.500000000    0   0   0
Hf1      0.333333333   0.833333333   0.500000000    0   0   0
Hf1     -0.005982950  -0.004475105   0.600409758
Hf1      0.501841897   0.000998410   0.599607361
Hf1     -0.002963317   0.508281638   0.598817765
Hf1      0.498456638   0.503375283   0.594095890
C1      -0.177817506  -0.126762862   0.658564174
H1      -0.073464851  -0.070503382   0.684597732
H1       0.724705006   0.821280231   0.686857137
End final coordinates

     Writing output data file calc.save

     General routines

     Parallel routines

   This run was terminated on:   9:15: 4  18Apr2018

   JOB DONE.