     Program PWSCF v.5.1rc2 (svn rev. 11289) starts on 17Jan2018 at 22:56:56

     Current dimensions of program PWSCF are:
     Max number of different atomic species (ntypx) = 10
     Max number of k-points (npk) =  40000
     Max angular momentum in pseudopotentials (lmaxx) =  3
     Presently stress not available with electric field

     IMPORTANT: XC functional enforced from input :
     Exchange-correlation      = BEEF-VDW ( 1  4 27 13 2)
     Any further DFT definition will be discarded
     Please, verify this is what you really want

     Subspace diagonalization in iterative solution of the eigenvalue problem:
     a serial algorithm will be used

     bravais-lattice index     =            0
     lattice parameter (alat)  =       1.8897  a.u.
     unit-cell volume          =    4228.3700 (a.u.)^3
     number of atoms/cell      =           13
     number of atomic types    =            2
     number of electrons       =       197.00
     number of Kohn-Sham states=          108
     kinetic-energy cutoff     =      36.7493  Ry
     charge density cutoff     =     367.4932  Ry
     convergence threshold     =      1.0E-05
     mixing beta               =       0.3000
     number of iterations used =           10  plain     mixing
     Exchange-correlation      = BEEF-VDW ( 1  4 27 13 2)
     nstep                     =           50

     celldm(1)=   1.889726  celldm(2)=   0.000000  celldm(3)=   0.000000
     celldm(4)=   0.000000  celldm(5)=   0.000000  celldm(6)=   0.000000

     crystal axes: (cart. coord. in units of alat)
               a(1) = (   5.440665   0.000000   0.000000 )
               a(2) = (   2.720332   4.711754   0.000000 )
               a(3) = (   0.000000   0.000000  24.442284 )

     reciprocal axes: (cart. coord. in units 2 pi/alat)
               b(1) = (  0.183801 -0.106118  0.000000 )
               b(2) = (  0.000000  0.212235  0.000000 )
               b(3) = (  0.000000  0.000000  0.040913 )

     PseudoPot. # 1 for Os read from file:
     /afs/slac.stanford.edu/u/if/mamunm/psp/gbrv1.5pbe/Os.UPF
     MD5 check sum: a3fb40a04f0c37c25c34bbc47164c9a8
     Pseudo is Ultrasoft + core correction, Zval = 16.0
     Generated by new atomic code, or converted to UPF format
     Using radial grid of  983 points,  8 beta functions with:
                l(1) =   0
                l(2) =   0
                l(3) =   1
                l(4) =   1
                l(5) =   2
                l(6) =   2
                l(7) =   3
                l(8) =   3
     Q(r) pseudized with  8 coefficients,  rinner =    1.150   1.150   1.150
                                                       1.150   1.150   1.150
                                                       1.150

     PseudoPot. # 2 for N  read from file:
     /afs/slac.stanford.edu/u/if/mamunm/psp/gbrv1.5pbe/N.UPF
     MD5 check sum: 95339753478d7afb44899504a8723017
     Pseudo is Ultrasoft + core correction, Zval =  5.0
     Generated by new atomic code, or converted to UPF format
     Using radial grid of  729 points,  4 beta functions with:
                l(1) =   0
                l(2) =   0
                l(3) =   1
                l(4) =   1
     Q(r) pseudized with  8 coefficients,  rinner =    0.900   0.900   0.900

     vdW kernel table read from file vdW_kernel_table
     MD5 check sum: 095c7af220d748ca6e76c0b4c6cfb241

     atomic species   valence    mass     pseudopotential
        Os1           16.00   190.23000     Os( 1.00)
        N1             5.00    14.00700     N ( 1.00)

     No symmetry found

   Cartesian axes

     site n.     atom                  positions (alat units)
         1           Os1 tau(   1) = (   1.3601662   0.7852923  10.0000000  )
         2           Os1 tau(   2) = (   4.0804987   0.7852923  10.0000000  )
         3           Os1 tau(   3) = (   2.7203325   3.1411694  10.0000000  )
         4           Os1 tau(   4) = (   5.4406649   3.1411694  10.0000000  )
         5           Os1 tau(   5) = (   5.4406649   1.5705847  12.2211422  )
         6           Os1 tau(   6) = (   2.7203325   1.5705847  12.2211422  )
         7           Os1 tau(   7) = (   6.8008312   3.9264617  12.2211422  )
         8           Os1 tau(   8) = (   4.0804987   3.9264617  12.2211422  )
         9           Os1 tau(   9) = (   0.0000000   0.0000000  14.4422843  )
        10           Os1 tau(  10) = (   2.7203325   0.0000000  14.4422843  )
        11           Os1 tau(  11) = (   1.3601662   2.3558770  14.4422843  )
        12           Os1 tau(  12) = (   4.0804987   2.3558770  14.4422843  )
        13           N1  tau(  13) = (   1.3601662   0.7852923  16.5922843  )

     number of k points=    20  Fermi-Dirac smearing, width (Ry)=  0.0110
                       cart. coord. in units 2pi/alat
        k(    1) = (   0.0000000   0.0000000   0.0000000), wk =   0.0555556
        k(    2) = (   0.0000000   0.0353725   0.0000000), wk =   0.1111111
        k(    3) = (   0.0000000   0.0707451   0.0000000), wk =   0.1111111
        k(    4) = (   0.0000000  -0.1061176   0.0000000), wk =   0.0555556
        k(    5) = (   0.0306335  -0.0176863   0.0000000), wk =   0.1111111
        k(    6) = (   0.0306335   0.0176863   0.0000000), wk =   0.1111111
        k(    7) = (   0.0306335   0.0530588   0.0000000), wk =   0.1111111
        k(    8) = (   0.0306335  -0.1238039   0.0000000), wk =   0.1111111
        k(    9) = (   0.0306335  -0.0884313   0.0000000), wk =   0.1111111
        k(   10) = (   0.0306335  -0.0530588   0.0000000), wk =   0.1111111
        k(   11) = (   0.0612670  -0.0353725   0.0000000), wk =   0.1111111
        k(   12) = (   0.0612670   0.0000000   0.0000000), wk =   0.1111111
        k(   13) = (   0.0612670   0.0353725   0.0000000), wk =   0.1111111
        k(   14) = (   0.0612670  -0.1414901   0.0000000), wk =   0.1111111
        k(   15) = (   0.0612670  -0.1061176   0.0000000), wk =   0.1111111
        k(   16) = (   0.0612670  -0.0707451   0.0000000), wk =   0.1111111
        k(   17) = (  -0.0919005   0.0530588   0.0000000), wk =   0.0555556
        k(   18) = (  -0.0919005   0.0884313   0.0000000), wk =   0.1111111
        k(   19) = (  -0.0919005   0.1238039   0.0000000), wk =   0.1111111
        k(   20) = (  -0.0919005  -0.0530588   0.0000000), wk =   0.0555556

     Largest allocated arrays     est. size (Mb)     dimensions
     Largest temporary arrays     est. size (Mb)     dimensions

     Initial potential from superposition of free atoms
     Check: negative starting charge=   -1.495829

     starting charge  190.99955, renormalised to  197.00000

     negative rho (up, down):  1.543E+00 0.000E+00

     *
     * You are using vdW-DF for exchange-correlation in this calculation.
     * Please cite the following three references that made this development
     * possible:
     *
     *   M. Dion, H. Rydberg, E. Schroder, D. C. Langreth, and
     *   B. I. Lundqvist, Phys. Rev. Lett. 92, 246401 (2004).
     *
     *   T. Thonhauser, V. R. Cooper, S. Li, A. Puzder, P. Hyldgaard, and
     *   D. C. Langreth, Phys. Rev. B 76, 125112 (2007).
     *
     *   G. Roman-Perez and J. M. Soler, Phys. Rev. Lett. 103, 096102 (2009).
     *
     *
     * If you are using vdW-DF2, please also cite:
     *
     *   K. Lee, E. D. Murray, L. Kong, B. I. Lundqvist, and
     *   D. C. Langreth, Phys. Rev. B 82, 081101(R) (2010).
     *
     *
     * If you are calculating the stress with vdW-DF, please also cite:
     *
     *   R. Sabatini, E. Kucukbenli, B. Kolb, T. Thonhauser, and
     *   S. de Gironcoli, J. Phys.: Condens. Matter 24, 424209 (2012).
     *

     Carrying out vdW-DF run using the following parameters:

     Nqs =      20    Nr_points =    1024   r_max =   100.000
     q_mesh =
               0.00001000     0.04494208     0.09755937     0.15916263
               0.23128650     0.31572767     0.41458969     0.53033537
               0.66584808     0.82450364     1.01025438     1.22772762
               1.48234092     1.78043706     2.12944203     2.53805004
               3.01644009     3.57652955     4.23227104     5.00000000

     Gradients computed in reciprocal space

     Adding external electric field

     Computed dipole along edir(3) :
        Dipole               -1.2974 Ry au,         -3.2978 Debye
        Dipole field         -0.0039 Ry au

        Potential amp.        0.3473 Ry
        Total length         45.0345 bohr

     Starting wfc are  160 randomized atomic wfcs

     Self-consistent Calculation

     iteration #  1     ecut=    36.75 Ry     beta=0.30
     Davidson diagonalization with overlap
     ethr =  1.00E-02,  avg # of iterations =  2.0

[...]

     total energy              =   -2392.30074921 Ry
     Harris-Foulkes estimate   =   -2417.66486174 Ry
     estimated scf accuracy    <      52.44814425 Ry

[...]

     End of self-consistent calculation

          k = 0.0000 0.0000 0.0000 ( 15845 PWs)   bands (ev):

   -84.5767 -84.5260 -84.5252 -84.4199 -84.1739 -84.1265 -84.1264 -84.0855
   -84.0286 -84.0281 -84.0241 -84.0049 -44.2583 -44.2096 -44.2092 -44.0647
   -43.9581 -43.9576 -43.9390 -43.7504 -43.7185 -43.7184 -43.6383 -43.6236
   -43.6231 -43.5654 -43.5651 -43.5420 -43.4253 -43.4252 -43.4225 -43.3379
   -43.3378 -43.2941 -43.2433 -43.2431 -43.2276 -43.2142 -43.2049 -43.1885
   -43.1884 -43.1210 -43.1205 -43.1203 -42.9966 -42.9966 -42.9452 -42.9452
    -9.4205  -7.1247  -5.1218  -4.7303  -4.4045  -4.3892  -4.3892  -4.0809
    -4.0699  -4.0698  -3.4884  -3.4721  -3.4720  -3.2123  -3.1988  -3.1987
    -1.6618  -1.6422  -1.6422  -0.8408  -0.8388  -0.8387  -0.5884  -0.4264
    -0.3560  -0.3560   0.1376   0.1376   0.1674   0.1676   0.1746   0.4564
     0.4565   0.4844   0.4844   0.4896   1.2170   1.6085   1.6085   1.8674
     2.1711   2.1711   2.2185   2.4922   2.4923   2.5068   2.5069   2.6506
     3.2236   3.2236   3.4906   3.8699   3.8768   3.8769   4.1182   4.1183
     4.1300   4.3441   4.3441   4.4950

[...]

          k =-0.0919 0.0531 0.0000 ( 15968 PWs)   bands (ev):

[...]

     the Fermi energy is     2.5053 ev

!    total energy              =   -2417.34893517 Ry
     Harris-Foulkes estimate   =   -2417.34895007 Ry
     estimated scf accuracy    <       0.00000468 Ry

     The total energy is the sum of the following terms:

     one-electron contribution =  -21773.08683252 Ry
     hartree contribution      =   10868.05912391 Ry
     xc contribution           =    -469.34805759 Ry
     ewald contribution        =    8957.10462221 Ry
     electric field correction =       0.00048681 Ry
     smearing contrib. (-TS)   =      -0.07827798 Ry

     convergence has been achieved in  22 iterations

 BEEF-vdW xc energy contributions
           1 :   -411.054894805833
           2 :    380.708981246060
           3 :   -327.215585123873
           4 :    262.288316069995
           5 :   -198.451661292066
           6 :    145.655288749509
           7 :   -109.089004877426
           8 :    88.6759848944832
           9 :   -80.2286070471883
          10 :    77.6698606227814
          11 :   -75.4220410542890
          12 :    70.1025873550026
          13 :   -61.0725518664045
          14 :    49.8896668253420
[...]
     SCF correction compared to forces is large: reduce conv_thr to get better values

[...]

   This run was terminated on:   0: 6:35  18Jan2018

[...]

     Program PWSCF v.5.1rc2 (svn rev. 11289) starts on 18Jan2018 at  0: 6:40

[...]

   This run was terminated on:   0:25: 2  18Jan2018

[...]

     Program PWSCF v.5.1rc2 (svn rev. 11289) starts on 18Jan2018 at  0:25: 7

[...]

     Program PWSCF v.5.1rc2 (svn rev. 11289) starts on 18Jan2018 at  0:30:53

     Current dimensions of program PWSCF are:
     Max number of different atomic species (ntypx) = 10
     Max number of k-points (npk) =  40000
     Max angular momentum in pseudopotentials (lmaxx) =  3
     Presently stress not available with electric field

     IMPORTANT: XC functional enforced from input :
     Exchange-correlation      = BEEF-VDW ( 1  4 27 13 2)
     Any further DFT definition will be discarded
     Please, verify this is what you really want

     Subspace diagonalization in iterative solution of the eigenvalue problem:
     a serial algorithm will be used

     bravais-lattice index     =            0
     lattice parameter (alat)  =       1.8897  a.u.
     unit-cell volume          =    4228.3700 (a.u.)^3
     number of atoms/cell      =           13
     number of atomic types    =            2
     number of electrons       =       197.00
     number of Kohn-Sham states=          108
     kinetic-energy cutoff     =      36.7493  Ry
     charge density cutoff     =     367.4932  Ry
     convergence threshold     =      1.0E-05
     mixing beta               =       0.3000
     number of iterations used =           10  plain     mixing
     Exchange-correlation      = BEEF-VDW ( 1  4 27 13 2)
     nstep                     =           50

     celldm(1)=   1.889726  celldm(2)=   0.000000  celldm(3)=   0.000000
     celldm(4)=   0.000000  celldm(5)=   0.000000  celldm(6)=   0.000000

     crystal axes: (cart. coord. in units of alat)
               a(1) = (   5.440665   0.000000   0.000000 )
               a(2) = (   2.720332   4.711754   0.000000 )
               a(3) = (   0.000000   0.000000  24.442284 )

     reciprocal axes: (cart. coord. in units 2 pi/alat)
               b(1) = (  0.183801 -0.106118  0.000000 )
               b(2) = (  0.000000  0.212235  0.000000 )
               b(3) = (  0.000000  0.000000  0.040913 )

     PseudoPot. # 1 for Os read from file:
     /afs/slac.stanford.edu/u/if/mamunm/psp/gbrv1.5pbe/Os.UPF
     MD5 check sum: a3fb40a04f0c37c25c34bbc47164c9a8
     Pseudo is Ultrasoft + core correction, Zval = 16.0
     Generated by new atomic code, or converted to UPF format
     Using radial grid of  983 points,  8 beta functions with:
                l(1) =   0
                l(2) =   0
                l(3) =   1
                l(4) =   1
                l(5) =   2
                l(6) =   2
                l(7) =   3
                l(8) =   3
     Q(r) pseudized with  8 coefficients,  rinner =    1.150   1.150   1.150
                                                       1.150   1.150   1.150
                                                       1.150

     PseudoPot. # 2 for N  read from file:
     /afs/slac.stanford.edu/u/if/mamunm/psp/gbrv1.5pbe/N.UPF
     MD5 check sum: 95339753478d7afb44899504a8723017
     Pseudo is Ultrasoft + core correction, Zval =  5.0
     Generated by new atomic code, or converted to UPF format
     Using radial grid of  729 points,  4 beta functions with:
                l(1) =   0
                l(2) =   0
                l(3) =   1
                l(4) =   1
     Q(r) pseudized with  8 coefficients,  rinner =    0.900   0.900   0.900

     vdW kernel table read from file vdW_kernel_table
     MD5 check sum: 095c7af220d748ca6e76c0b4c6cfb241

     atomic species   valence    mass     pseudopotential
        Os1           16.00   190.23000     Os( 1.00)
        N1             5.00    14.00700     N ( 1.00)

     No symmetry found

   Cartesian axes

     site n.     atom                  positions (alat units)
         1           Os1 tau(   1) = (   1.3601662   0.7852923  10.0000000  )
         2           Os1 tau(   2) = (   4.0804987   0.7852923  10.0000000  )
         3           Os1 tau(   3) = (   2.7203325   3.1411694  10.0000000  )
         4           Os1 tau(   4) = (   5.4406649   3.1411694  10.0000000  )
         5           Os1 tau(   5) = (   5.4406649   1.5705847  12.2211422  )
         6           Os1 tau(   6) = (   2.7203325   1.5705847  12.2211422  )
         7           Os1 tau(   7) = (   6.8008312   3.9264617  12.2211422  )
         8           Os1 tau(   8) = (   4.0804987   3.9264617  12.2211422  )
         9           Os1 tau(   9) = (   8.1130885   4.6841311  14.4496464  )
        10           Os1 tau(  10) = (   5.4885571   4.6841515  14.4495411  )
        11           Os1 tau(  11) = (   6.8008385   2.4110897  14.4495791  )
        12           Os1 tau(  12) = (   4.0805706   2.3558630  14.3360210  )
        13           N1  tau(  13) = (   1.3601808   0.7852671  15.5919515  )

     number of k points=    20  Fermi-Dirac smearing, width (Ry)=  0.0110
                       cart. coord. in units 2pi/alat
        k(    1) = (   0.0000000   0.0000000   0.0000000), wk =   0.0555556
        k(    2) = (   0.0000000   0.0353725   0.0000000), wk =   0.1111111
        k(    3) = (   0.0000000   0.0707451   0.0000000), wk =   0.1111111
        k(    4) = (   0.0000000  -0.1061176   0.0000000), wk =   0.0555556
        k(    5) = (   0.0306335  -0.0176863   0.0000000), wk =   0.1111111
        k(    6) = (   0.0306335   0.0176863   0.0000000), wk =   0.1111111
        k(    7) = (   0.0306335   0.0530588   0.0000000), wk =   0.1111111
        k(    8) = (   0.0306335  -0.1238039   0.0000000), wk =   0.1111111
        k(    9) = (   0.0306335  -0.0884313   0.0000000), wk =   0.1111111
        k(   10) = (   0.0306335  -0.0530588   0.0000000), wk =   0.1111111
        k(   11) = (   0.0612670  -0.0353725   0.0000000), wk =   0.1111111
        k(   12) = (   0.0612670   0.0000000   0.0000000), wk =   0.1111111
        k(   13) = (   0.0612670   0.0353725   0.0000000), wk =   0.1111111
        k(   14) = (   0.0612670  -0.1414901   0.0000000), wk =   0.1111111
        k(   15) = (   0.0612670  -0.1061176   0.0000000), wk =   0.1111111
        k(   16) = (   0.0612670  -0.0707451   0.0000000), wk =   0.1111111
        k(   17) = (  -0.0919005   0.0530588   0.0000000), wk =   0.0555556
        k(   18) = (  -0.0919005   0.0884313   0.0000000), wk =   0.1111111
        k(   19) = (  -0.0919005   0.1238039   0.0000000), wk =   0.1111111
        k(   20) = (  -0.0919005  -0.0530588   0.0000000), wk =   0.0555556

     Largest allocated arrays     est. size (Mb)     dimensions
     Largest temporary arrays     est. size (Mb)     dimensions

     Initial potential from superposition of free atoms
     Check: negative starting charge=   -1.489561

     starting charge  190.99955, renormalised to  197.00000

[...]

     *
     * You are using vdW-DF for exchange-correlation in this calculation.
     * Please cite the following three references that made this development
     * possible:
     *
     *   M. Dion, H. Rydberg, E. Schroder, D. C. Langreth, and
     *   B. I. Lundqvist, Phys. Rev. Lett. 92, 246401 (2004).
     *
     *   T. Thonhauser, V. R. Cooper, S. Li, A. Puzder, P. Hyldgaard, and
     *   D. C. Langreth, Phys. Rev. B 76, 125112 (2007).
     *
     *   G. Roman-Perez and J. M. Soler, Phys. Rev. Lett. 103, 096102 (2009).
     *
     *
     * If you are using vdW-DF2, please also cite:
     *
     *   K. Lee, E. D. Murray, L. Kong, B. I. Lundqvist, and
     *   D. C. Langreth, Phys. Rev. B 82, 081101(R) (2010).
     *
     *
     * If you are calculating the stress with vdW-DF, please also cite:
     *
     *   R. Sabatini, E. Kucukbenli, B. Kolb, T. Thonhauser, and
     *   S. de Gironcoli, J. Phys.: Condens. Matter 24, 424209 (2012).
     *

     Carrying out vdW-DF run using the following parameters:

     Nqs =      20    Nr_points =    1024   r_max =   100.000
     q_mesh =
               0.00001000     0.04494208     0.09755937     0.15916263
               0.23128650     0.31572767     0.41458969     0.53033537
               0.66584808     0.82450364     1.01025438     1.22772762
               1.48234092     1.78043706     2.12944203     2.53805004
               3.01644009     3.57652955     4.23227104     5.00000000

     Gradients computed in reciprocal space

[...]

     Starting wfc are  160 randomized atomic wfcs

     Self-consistent Calculation

[...]

     total energy              =   -2417.62395370 Ry
     Harris-Foulkes estimate   =   -2417.62395881 Ry
     estimated scf accuracy    <       0.00003560 Ry

     iteration # 20     ecut=    36.75 Ry     beta=0.30
     Davidson diagonalization with overlap
     ethr =  1.81E-08,  avg # of iterations =  5.1

[...]

     negative rho (up, down):  1.512E+00 0.000E+00

     Adding external electric field

     Computed dipole along edir(3) :
        Dipole               -0.0669 Ry au,         -0.1701 Debye
        Dipole field         -0.0002 Ry au

        Potential amp.        0.0179 Ry
        Total length         45.0345 bohr

     End of self-consistent calculation

[...]

          k = 0.0613-0.0707 0.0000 ( 15922 PWs)   bands (ev):

[...]

          k =-0.0919-0.0531 0.0000 ( 15968 PWs)   bands (ev):

   -84.0339 -84.0201 -84.0026 -83.8625 -83.8167 -83.7951 -83.7829 -83.5232
   -83.5148 -83.4940 -83.4759 -83.4190 -43.6066 -43.5893 -43.5386 -43.4867
   -43.4666 -43.4081 -43.3624 -43.3475 -43.3348 -43.3041 -43.2048 -43.1586
   -43.1475 -43.0776 -43.0381 -43.0348 -42.9761 -42.9689 -42.9447 -42.9387
   -42.9144 -42.8996 -42.8010 -42.7778 -42.7716 -42.7517 -42.7352 -42.7261
   -42.7221 -42.7107 -42.7002 -42.6489 -42.6439 -42.5316 -42.4900 -42.4823
   -12.2114  -4.8553  -4.6632  -3.6454  -3.1299  -2.9804  -2.9113  -2.7954
    -2.6494  -2.6473  -2.5695  -2.4095  -2.1165  -1.7956  -1.7939  -1.7393
    -1.6238  -1.4562  -1.3303  -1.1874  -1.0217  -1.0135  -1.0102  -0.8071
    -0.5565  -0.5431  -0.1505  -0.0202   0.1484   0.1709   0.3506   0.4933
     0.5156   0.5987   0.7393   0.8047   0.8095   0.9070   0.9929   1.0109
     1.0938   1.6874   1.7198   1.9130   1.9653   2.0956   2.2439   2.2955
     2.5159   2.5897   2.7337   2.7489   3.0432   3.1013   3.3468   3.3998
     3.6093   3.6718   3.7915   3.9120

     the Fermi energy is     3.0809 ev

!    total energy              =   -2417.62396012 Ry
     Harris-Foulkes estimate   =   -2417.62396306 Ry
     estimated scf accuracy    <       0.00000399 Ry

     The total energy is the sum of the following terms:

     one-electron contribution =  -22169.83715303 Ry
     hartree contribution      =   11069.06050346 Ry
     xc contribution           =    -470.07101971 Ry
     ewald contribution        =    9153.29227599 Ry
     electric field correction =       0.00001331 Ry
     smearing contrib. (-TS)   =      -0.06858015 Ry

     convergence has been achieved in  20 iterations

 BEEF-vdW xc energy contributions
           1 :   -411.789614592963
           2 :    381.671668473094
           3 :   -328.446698251385
           4 :    263.621627776584
           5 :   -199.617772099703
           6 :    146.406160297628
           7 :   -109.297897241462
           8 :    88.3844964506698
           9 :   -79.6263990204769
          10 :    77.0164849013212
          11 :   -74.9430387233181
          12 :    69.9089687090989
          13 :   -61.1414667869717
          14 :    50.1034025860006
          15 :   -39.3179537017049
          16 :    31.0640192512922
          17 :   -26.4456358875763
          18 :    25.1113395716362
          19 :   -25.6191099558783
          20 :    26.1871173871866
          21 :   -25.4638033762459
          22 :    22.9969466348430
          23 :   -19.2589464040074
          24 :    15.2834731083756
          25 :   -12.1220218096347
          26 :    10.3720622632001
          27 :   -9.97252615165826
          28 :    10.3189466010018
          29 :   -10.6069845697263
          30 :    10.2219284726924
          31 :   -39.1289714685382
          32 :   -29.8915061669323

     Forces acting on atoms (Ry/au):

     negative rho (up, down):  1.512E+00 0.000E+00
     atom    1 type  1   force =     0.00003200   -0.00003915    0.02878353
     atom    2 type  1   force =    -0.00003774    0.00184605    0.03543379
     atom    3 type  1   force =     0.00163761   -0.00091074    0.03538661
     atom    4 type  1   force =    -0.00165041   -0.00086174    0.03545692
     atom    5 type  1   force =    -0.00236484    0.00143884   -0.02428084
     atom    6 type  1   force =     0.00236567    0.00160038   -0.02439666
     atom    7 type  1   force =     0.00013674   -0.00014630   -0.06141975
     atom    8 type  1   force =    -0.00013329   -0.00286867   -0.02447119
     atom    9 type  1   force =     0.00010476   -0.00008027   -0.00023504
     atom   10 type  1   force =    -0.00007921   -0.00001951   -0.00023375
     atom   11 type  1   force =     0.00007262   -0.00001718   -0.00018830
     atom   12 type  1   force =    -0.00009088    0.00008426    0.00035481
     atom   13 type  2   force =     0.00000696   -0.00002597   -0.00019014

     Total force =     0.100917     Total SCF correction =     0.011705
     SCF correction compared to forces is large: reduce conv_thr to get better values

     entering subroutine stress ...

     negative rho (up, down):  1.512E+00 0.000E+00
          total   stress  (Ry/bohr**3)                   (kbar)     P=  -20.08
  -0.00012636   0.00000000  -0.00000003        -18.59      0.00     -0.00
   0.00000000  -0.00012639   0.00000001          0.00    -18.59      0.00
  -0.00000003   0.00000001  -0.00015680         -0.00      0.00    -23.07

 !ASE

     Writing output data file calc.save

     General routines

     Parallel routines

   This run was terminated on:   0:36:56  18Jan2018

   JOB DONE.
Job  /afs/slac/g/suncat/bin/suncat-tsmpirun -x LD_LIBRARY_PATH -wdir /scratch/qe842464_gaU5V pw.x -in pw.inp

TID   HOST_NAME   COMMAND_LINE            STATUS            TERMINATION_TIME
00000 suncat2041 pw.x -in pw.inp   Done                     01/18/2018 00:36:56
00001 suncat2041 pw.x -in pw.inp   Done                     01/18/2018 00:36:56
00002 suncat2041 pw.x -in pw.inp   Done                     01/18/2018 00:36:56
00003 suncat2041 pw.x -in pw.inp   Done                     01/18/2018 00:36:56
00004 suncat2041 pw.x -in pw.inp   Done                     01/18/2018 00:36:56
00005 suncat2041 pw.x -in pw.inp   Done                     01/18/2018 00:36:56
00006 suncat2041 pw.x -in pw.inp   Done                     01/18/2018 00:36:56
00007 suncat2041 pw.x -in pw.inp   Done                     01/18/2018 00:36:56
00008 suncat2041 pw.x -in pw.inp   Done                     01/18/2018 00:36:56
00009 suncat2041 pw.x -in pw.inp   Done                     01/18/2018 00:36:56
00010 suncat2041 pw.x -in pw.inp   Done                     01/18/2018 00:36:56
00011 suncat2041 pw.x -in pw.inp   Done                     01/18/2018 00:36:56
00012 suncat2041 pw.x -in pw.inp   Done                     01/18/2018 00:36:56
00013 suncat2041 pw.x -in pw.inp   Done                     01/18/2018 00:36:56
00014 suncat2041 pw.x -in pw.inp   Done                     01/18/2018 00:36:56
00015 suncat2041 pw.x -in pw.inp   Done                     01/18/2018 00:36:56
00016 suncat2040 pw.x -in pw.inp   Done                     01/18/2018 00:36:57
00017 suncat2040 pw.x -in pw.inp   Done                     01/18/2018 00:36:57
00018 suncat2040 pw.x -in pw.inp   Done                     01/18/2018 00:36:57
00019 suncat2040 pw.x -in pw.inp   Done                     01/18/2018 00:36:57
00020 suncat2040 pw.x -in pw.inp   Done                     01/18/2018 00:36:57
00021 suncat2040 pw.x -in pw.inp   Done                     01/18/2018 00:36:57
00022 suncat2040 pw.x -in pw.inp   Done                     01/18/2018 00:36:57
00023 suncat2040 pw.x -in pw.inp   Done                     01/18/2018 00:36:56
00024 suncat2040 pw.x -in pw.inp   Done                     01/18/2018 00:36:57
00025 suncat2040 pw.x -in pw.inp   Done                     01/18/2018 00:36:57
00026 suncat2040 pw.x -in pw.inp   Done                     01/18/2018 00:36:57
00027 suncat2040 pw.x -in pw.inp   Done                     01/18/2018 00:36:57
00028 suncat2040 pw.x -in pw.inp   Done                     01/18/2018 00:36:57
00029 suncat2040 pw.x -in pw.inp   Done                     01/18/2018 00:36:57
00030 suncat2040 pw.x -in pw.inp   Done                     01/18/2018 00:36:57
00031 suncat2040 pw.x -in pw.inp   Done                     01/18/2018 00:36:57