     Program PWSCF v.5.1rc2 (svn rev. 11289) starts on 24Apr2018 at 10: 6:18

     Current dimensions of program PWSCF are:
     Max number of different atomic species (ntypx) = 10
     Max number of k-points (npk) =  40000
     Max angular momentum in pseudopotentials (lmaxx) =  3
     Presently stress not available with electric field

     IMPORTANT: XC functional enforced from input :
     Exchange-correlation      = BEEF-VDW ( 1  4 27 13 2)
     Any further DFT definition will be discarded
     Please, verify this is what you really want

     Subspace diagonalization in iterative solution of the eigenvalue problem:
     a serial algorithm will be used

     bravais-lattice index     =            0
     lattice parameter (alat)  =       1.8897  a.u.
     unit-cell volume          =    4158.3597 (a.u.)^3
     number of atoms/cell      =           14
     number of atomic types    =            3
     number of electrons       =       163.00
     number of Kohn-Sham states=           91
     kinetic-energy cutoff     =      36.7493  Ry
     charge density cutoff     =     367.4932  Ry
     convergence threshold     =      1.0E-05
     mixing beta               =       0.3000
     number of iterations used =           10  plain     mixing
     Exchange-correlation      = BEEF-VDW ( 1  4 27 13 2)
     nstep                     =           50

     celldm(1)=   1.889726  celldm(2)=   0.000000  celldm(3)=   0.000000
     celldm(4)=   0.000000  celldm(5)=   0.000000  celldm(6)=   0.000000

     crystal axes: (cart. coord. in units of alat)
               a(1) = (   5.399178   0.000000   0.000000 )
               a(2) = (   2.699589   4.675825   0.000000 )
               a(3) = (   0.000000   0.000000  24.408411 )

     reciprocal axes: (cart. coord. in units 2 pi/alat)
               b(1) = (  0.185213 -0.106933  0.000000 )
               b(2) = (  0.000000  0.213866  0.000000 )
               b(3) = (  0.000000  0.000000  0.040969 )

     PseudoPot. # 1 for V  read from file:
     /u/if/mamunm/psp/gbrv1.5pbe/V.UPF
     MD5 check sum: 22b79981416ebb76fdaf5b1b8640f6fb
     Pseudo is Ultrasoft + core correction, Zval = 13.0
     Generated by new atomic code, or converted to UPF format
     Using radial grid of  853 points,  6 beta functions with:
                l(1) =   0
                l(2) =   0
                l(3) =   1
                l(4) =   1
                l(5) =   2
                l(6) =   2
     Q(r) pseudized with  8 coefficients,  rinner =    1.100   1.100   1.100
                                                       1.100   1.100

     PseudoPot. # 2 for O  read from file:
     /u/if/mamunm/psp/gbrv1.5pbe/O.UPF
     MD5 check sum: 734c27235a0248c51dbae37a1fbe46ec
     Pseudo is Ultrasoft + core correction, Zval =  6.0
     Generated by new atomic code, or converted to UPF format
     Using radial grid of  737 points,  5 beta functions with:
                l(1) =   0
                l(2) =   0
                l(3) =   1
                l(4) =   1
                l(5) =   2
     Q(r) pseudized with  8 coefficients,  rinner =    0.900   0.900   0.900
                                                       0.900   0.900

     PseudoPot. # 3 for H  read from file:
     /u/if/mamunm/psp/gbrv1.5pbe/H.UPF
     MD5 check sum: 761ae9a214b05c3daf00ab9f6b793d6f
     Pseudo is Ultrasoft, Zval =  1.0
     Generated by new atomic code, or converted to UPF format
     Using radial grid of  615 points,  2 beta functions with:
                l(1) =   0
                l(2) =   0
     Q(r) pseudized with  8 coefficients,  rinner =    0.700

     vdW kernel table read from file vdW_kernel_table
     MD5 check sum: 095c7af220d748ca6e76c0b4c6cfb241

     atomic species   valence    mass     pseudopotential
        V1            13.00    50.94150     V ( 1.00)
        O1             6.00    15.99900     O ( 1.00)
        H1             1.00     1.00800     H ( 1.00)

     No symmetry found

   Cartesian axes

     site n.     atom                  positions (alat units)
         1           V1  tau(   1) = (   1.3497945   0.7793042  10.0000000  )
         2           V1  tau(   2) = (   4.0493836   0.7793042  10.0000000  )
         3           V1  tau(   3) = (   2.6995891   3.1172170  10.0000000  )
         4           V1  tau(   4) = (   5.3991782   3.1172170  10.0000000  )
         5           V1  tau(   5) = (   5.3991782   1.5586085  12.2042053  )
         6           V1  tau(   6) = (   2.6995891   1.5586085  12.2042053  )
         7           V1  tau(   7) = (   6.7489727   3.8965212  12.2042053  )
         8           V1  tau(   8) = (   4.0493836   3.8965212  12.2042053  )
         9           V1  tau(   9) = (   0.0000000   0.0000000  14.4084105  )
        10           V1  tau(  10) = (   2.6995891   0.0000000  14.4084105  )
        11           V1  tau(  11) = (   1.3497945   2.3379127  14.4084105  )
        12           V1  tau(  12) = (   4.0493836   2.3379127  14.4084105  )
        13           O1  tau(  13) = (   1.3497945   0.7793042  15.8319105  )
        14           H1  tau(  14) = (   1.3497945   0.7793042  16.7819105  )

     number of k points=    20  Fermi-Dirac smearing, width (Ry)=  0.0110
                       cart. coord. in units 2pi/alat
        k(    1) = (   0.0000000   0.0000000   0.0000000), wk =   0.0555556
        k(    2) = (   0.0000000   0.0356443   0.0000000), wk =   0.1111111
        k(    3) = (   0.0000000   0.0712887   0.0000000), wk =   0.1111111
        k(    4) = (   0.0000000  -0.1069330   0.0000000), wk =   0.0555556
        k(    5) = (   0.0308689  -0.0178222   0.0000000), wk =   0.1111111
        k(    6) = (   0.0308689   0.0178222   0.0000000), wk =   0.1111111
        k(    7) = (   0.0308689   0.0534665   0.0000000), wk =   0.1111111
        k(    8) = (   0.0308689  -0.1247552   0.0000000), wk =   0.1111111
        k(    9) = (   0.0308689  -0.0891108   0.0000000), wk =   0.1111111
        k(   10) = (   0.0308689  -0.0534665   0.0000000), wk =   0.1111111
        k(   11) = (   0.0617378  -0.0356443   0.0000000), wk =   0.1111111
        k(   12) = (   0.0617378   0.0000000   0.0000000), wk =   0.1111111
        k(   13) = (   0.0617378   0.0356443   0.0000000), wk =   0.1111111
        k(   14) = (   0.0617378  -0.1425773   0.0000000), wk =   0.1111111
        k(   15) = (   0.0617378  -0.1069330   0.0000000), wk =   0.1111111
        k(   16) = (   0.0617378  -0.0712887   0.0000000), wk =   0.1111111
        k(   17) = (  -0.0926067   0.0534665   0.0000000), wk =   0.0555556
        k(   18) = (  -0.0926067   0.0891108   0.0000000), wk =   0.1111111
        k(   19) = (  -0.0926067   0.1247552   0.0000000), wk =   0.1111111
        k(   20) = (  -0.0926067  -0.0534665   0.0000000), wk =   0.0555556

     Largest allocated arrays     est. size (Mb)     dimensions
     Largest temporary arrays     est. size (Mb)     dimensions

     Check: negative/imaginary core charge=   -0.000001    0.000000

     Initial potential from superposition of free atoms
     Check: negative starting charge=   -0.011601

     starting charge  162.98526, renormalised to  163.00000

     negative rho (up, down):  1.160E-02 0.000E+00

     *
     * You are using vdW-DF for exchange-correlation in this calculation.
     * Please cite the following three references that made this development
     * possible:
     *
     *   M. Dion, H. Rydberg, E. Schroder, D. C. Langreth, and
     *   B. I. Lundqvist, Phys. Rev. Lett. 92, 246401 (2004).
     *
     *   T. Thonhauser, V. R. Cooper, S. Li, A. Puzder, P. Hyldgaard, and
     *   D. C. Langreth, Phys. Rev. B 76, 125112 (2007).
     *
     *   G. Roman-Perez and J. M. Soler, Phys. Rev. Lett. 103, 096102 (2009).
     *
     *
     * If you are using vdW-DF2, please also cite:
     *
     *   K. Lee, E. D. Murray, L. Kong, B. I. Lundqvist, and
     *   D. C. Langreth, Phys. Rev. B 82, 081101(R) (2010).
     *
     *
     * If you are calculating the stress with vdW-DF, please also cite:
     *
     *   R. Sabatini, E. Kucukbenli, B. Kolb, T. Thonhauser, and
     *   S. de Gironcoli, J. Phys.: Condens. Matter 24, 424209 (2012).
     *

     Carrying out vdW-DF run using the following parameters:

     Nqs =      20    Nr_points =    1024   r_max =   100.000
     q_mesh =
               0.00001000     0.04494208     0.09755937     0.15916263
               0.23128650     0.31572767     0.41458969     0.53033537
               0.66584808     0.82450364     1.01025438     1.22772762
               1.48234092     1.78043706     2.12944203     2.53805004
               3.01644009     3.57652955     4.23227104     5.00000000

     Gradients computed in reciprocal space

     Adding external electric field

     Computed dipole along edir(3) :
        Dipole               -0.0044 Ry au,         -0.0112 Debye
        Dipole field         -0.0000 Ry au

        Potential amp.        0.0012 Ry
        Total length         44.9721 bohr

     Starting wfc are  125 randomized atomic wfcs

     Self-consistent Calculation

     iteration #  1     ecut=    36.75 Ry     beta=0.30
     Davidson diagonalization with overlap
     ethr =  1.00E-02,  avg # of iterations =  2.4

[...]

     total energy              =   -1777.38436088 Ry
     Harris-Foulkes estimate   =   -1783.63317425 Ry
     estimated scf accuracy    <      12.87215915 Ry

[...]

     End of self-consistent calculation

          k = 0.0000 0.0000 0.0000 ( 15569 PWs)   bands (ev):

   -62.6484 -62.5650 -62.5369 -62.5367 -62.4849 -62.4749 -62.4607 -62.4595
   -62.4479 -62.3973 -62.3961 -62.3949 -36.7826 -36.7083 -36.7080 -36.6906
   -36.6588 -36.6507 -36.6506 -36.5631 -36.5620 -36.5613 -36.4222 -36.3962
   -36.3960 -36.3226 -36.2766 -36.2758 -36.2748 -36.2255 -36.2255 -36.2172
   -36.1584 -36.1578 -36.1438 -36.1396 -36.1393 -36.1366 -36.1028 -36.0612
   -36.0610 -36.0491 -36.0486 -36.0474 -36.0073 -36.0073 -35.9251 -35.9250
   -19.8758  -8.0104  -4.3043  -3.9907  -3.9906  -2.6878  -1.6831  -1.3670
    -1.3157  -1.3156  -1.0494  -1.0493  -1.0119  -0.6296  -0.6296  -0.6001
    -0.5087  -0.5086  -0.4206   0.3345   0.3348   0.5262   1.1180   1.3032
     1.3033   1.3195   1.5127   1.5951   1.8217   1.8219   1.8895   1.8899
     1.9558   2.0058   2.0059   2.0842   2.1088   2.1090   2.1392   2.1392
     2.2543   2.6574   2.6579

[...]

          k =-0.0926 0.0535 0.0000 ( 15660 PWs)   bands (ev):

[...]

     the Fermi energy is     1.7116 ev

!    total energy              =   -1782.77104725 Ry
     Harris-Foulkes estimate   =   -1782.77103822 Ry
     estimated scf accuracy    <       0.00000783 Ry

     The total energy is the sum of the following terms:

     one-electron contribution =  -15516.15318462 Ry
     hartree contribution      =    7751.19568670 Ry
     xc contribution           =    -252.67720200 Ry
     ewald contribution        =    6235.00619404 Ry
     electric field correction =       0.00050064 Ry
     smearing contrib. (-TS)   =      -0.14304202 Ry

     convergence has been achieved in  26 iterations

 BEEF-vdW xc energy contributions
           1 :   -217.650197254120
           2 :    195.148874412070
           3 :   -158.019877255230
           4 :    117.968724020827
           5 :   -85.1566767552525
           6 :    64.3873463065177
           7 :   -54.4766082544901
           8 :    50.5183363677937
           9 :   -47.3532284174453
          10 :    42.2036930524933
          11 :   -35.3096474498513
          12 :    28.7155368751342
          13 :   -24.3507656338973
          14 :    22.6795200017334
          15 :   -22.6052094435509
          16 :    22.4216851501051
          17 :   -21.0095708108513
          18 :    18.4589228818686
          19 :   -15.8027202795366
          20 :    14.1554326438124
          21 :   -13.9076466268641
          22 :    14.5114151506034
          23 :   -14.9390424687877
          24 :    14.4268800686695
          25 :   -12.9670207266595
          26 :    11.2337324962149
          27 :   -10.0525030362422
          28 :    9.81877075041280
          29 :   -10.2689443442835
          30 :    10.7223760025566
          31 :   -22.6106316711977
          32 :   -16.2634389998506

     Forces acting on atoms (Ry/au):

     negative rho (up, down):  1.532E-02 0.000E+00
     atom    1 type  1   force =     0.00003304   -0.00003007   -0.00068882
     atom    2 type  1   force =    -0.00003847    0.00101985    0.00007124
     atom    3 type  1   force =     0.00088363   -0.00051908   -0.00002450
     atom    4 type  1   force =    -0.00090151   -0.00047876   -0.00006244
     atom    5 type  1   force =     0.00121754   -0.00072031    0.00073438
     atom    6 type  1   force =    -0.00123604   -0.00070072    0.00071383
     atom    7 type  1   force =     0.00001539    0.00000701   -0.00533792
     atom    8 type  1   force =    -0.00001545    0.00142766    0.00068766
     atom    9 type  1   force =    -0.01920705   -0.01111742    0.02905573
     atom   10 type  1   force =     0.01920772   -0.01107957    0.02896404
     atom   11 type  1   force =     0.00005489    0.02219988    0.02904692
     atom   12 type  1   force =    -0.00004505    0.00001504   -0.03793060
     atom   13 type  2   force =     0.00004192   -0.00002168   -0.09072470
     atom   14 type  3   force =    -0.00001056   -0.00000184    0.04549518

     Total force =     0.125473     Total SCF correction =     0.003583

     entering subroutine stress ...

     negative rho (up, down):  1.532E-02 0.000E+00
          total   stress  (Ry/bohr**3)                   (kbar)     P=  -17.47
  -0.00017052  -0.00000009  -0.00000007        -25.08     -0.01     -0.01
  -0.00000009  -0.00017049  -0.00000000         -0.01    -25.08     -0.00
  -0.00000007  -0.00000000  -0.00001531         -0.01     -0.00     -2.25

     BFGS Geometry Optimization

     number of scf cycles    =   1
     number of bfgs steps    =   0

     energy   new            =   -1782.7710472506 Ry

     new trust radius        =       0.0907247091 bohr
     new conv_thr            =       0.0000099958 Ry

ATOMIC_POSITIONS (crystal)
V1       0.166666667   0.166666667   0.409694847    0   0   0
V1       0.666666667   0.166666667   0.409694847    0   0   0
V1       0.166666667   0.666666667   0.409694847    0   0   0
V1       0.666666667   0.666666667   0.409694847    0   0   0
V1       0.833333333   0.333333333   0.500000000    0   0   0
V1       0.333333333   0.333333333   0.500000000    0   0   0
V1       0.833333333   0.833333333   0.500000000    0   0   0
V1       0.333333333   0.833333333   0.500000000    0   0   0
V1      -0.001253400  -0.001258192   0.590935085
V1       0.502509516  -0.001253908   0.590933097
V1      -0.001250834   0.502512428   0.590934894
V1       0.499994734   0.500001702   0.589482814
O1       0.166672002   0.166664213   0.646658293
H1       0.166665736   0.166666458   0.688532566

     Writing output data file calc.save
     Check: negative starting charge=   -0.011601
     NEW-OLD atomic charge density approx. for the potential

     Check: negative/imaginary core charge=   -0.000001    0.000000
     Check: negative starting charge=   -0.011298

[...]

     energy   old            =   -1782.7710472506 Ry
     energy   new            =   -1782.7760493155 Ry

     CASE: energy  _new < energy  _old

[...]

     iteration #  1     ecut=    36.75 Ry     beta=0.30
     Davidson diagonalization with overlap
     c_bands:  1 eigenvalues not converged
     ethr =  1.00E-06,  avg # of iterations = 14.9

[...]

     Total force =     0.013958     Total SCF correction =     0.000477

[...]

     Total force =     0.004098     Total SCF correction =     0.000992
     SCF correction compared to forces is large: reduce conv_thr to get better values

[...]

     number of scf cycles    =  11
     number of bfgs steps    =  10

     energy   old            =   -1782.8068825666 Ry
     energy   new            =   -1782.8072086834 Ry

     CASE: energy  _new < energy  _old

     new trust radius        =       0.0085406887 bohr
     new conv_thr            =       0.0000001000 Ry

ATOMIC_POSITIONS (crystal)
V1       0.166666667   0.166666667   0.409694847    0   0   0
V1       0.666666667   0.166666667   0.409694847    0   0   0
V1       0.166666667   0.666666667   0.409694847    0   0   0
V1       0.666666667   0.666666667   0.409694847    0   0   0
V1       0.833333333   0.333333333   0.500000000    0   0   0
V1       0.333333333   0.333333333   0.500000000    0   0   0
V1       0.833333333   0.833333333   0.500000000    0   0   0
V1       0.333333333   0.833333333   0.500000000    0   0   0
V1      -0.007888921  -0.007885408   0.593701576
V1       0.515791746  -0.007893743   0.593702197
V1      -0.007889516   0.515788023   0.593701393
V1       0.500000633   0.500000955   0.573403421
O1       0.166668016   0.166672267   0.645944708
H1       0.166674813   0.166662852   0.685828197

     Writing output data file calc.save
     Check: negative starting charge=   -0.011733
     NEW-OLD atomic charge density approx. for the potential

     Check: negative/imaginary core charge=   -0.000001    0.000000
     Check: negative starting charge=   -0.011727

[...]

     Self-consistent Calculation

[...]

     total energy              =   -1782.80723458 Ry
     Harris-Foulkes estimate   =   -1782.80723460 Ry
     estimated scf accuracy    <       0.00000014 Ry

     iteration # 17     ecut=    36.75 Ry     beta=0.30
     Davidson diagonalization with overlap
     ethr =  8.29E-11,  avg # of iterations =  4.2

[...]

     negative rho (up, down):  1.575E-02 0.000E+00

     Adding external electric field

     Computed dipole along edir(3) :
        Dipole                0.4384 Ry au,          1.1143 Debye
        Dipole field          0.0013 Ry au

        Potential amp.       -0.1192 Ry
        Total length         44.9721 bohr

     End of self-consistent calculation

[...]

          k = 0.0617-0.0713 0.0000 ( 15642 PWs)   bands (ev):

[...]

          k =-0.0926-0.0535 0.0000 ( 15660 PWs)   bands (ev):

   -62.5902 -62.5389 -62.5154 -62.4626 -62.4304 -62.3961 -62.3779 -62.3568
   -62.3553 -62.3385 -62.3228 -62.0986 -36.6539 -36.5823 -36.5418 -36.5299
   -36.4993 -36.4893 -36.4435 -36.4264 -36.4084 -36.3966 -36.3876 -36.3689
   -36.3581 -36.3248 -36.2889 -36.2406 -36.2298 -36.2111 -36.1818 -36.1792
   -36.1716 -36.1650 -36.1457 -36.1318 -36.1041 -36.1008 -36.0781 -36.0576
   -36.0570 -36.0173 -36.0036 -35.9357 -35.9307 -35.7961 -35.7480 -35.6479
   -20.0485  -8.0446  -4.4643  -4.3071  -2.5398  -2.4860  -1.2588  -1.1285
    -0.6960  -0.6110  -0.5711  -0.5591  -0.4611  -0.2414   0.0199   0.1322
     0.2213   0.2563   0.3594   0.4679   0.6134   0.6773   0.8394   0.8414
     0.8883   0.9184   1.0301   1.1183   1.1788   1.3221   1.3697   1.3747
     1.4540   1.5828   1.6451   1.8421   1.9018   1.9251   2.0229   2.1066
     2.3327   2.3761   2.6611

     the Fermi energy is     1.7523 ev

!    total energy              =   -1782.80723454 Ry
     Harris-Foulkes estimate   =   -1782.80723470 Ry
     estimated scf accuracy    <       0.00000006 Ry

     The total energy is the sum of the following terms:

     one-electron contribution =  -15606.17536995 Ry
     hartree contribution      =    7796.58639379 Ry
     xc contribution           =    -252.81480628 Ry
     ewald contribution        =    6279.72625121 Ry
     electric field correction =       0.00058078 Ry
     smearing contrib. (-TS)   =      -0.13028409 Ry

     convergence has been achieved in  17 iterations

 BEEF-vdW xc energy contributions
           1 :   -217.793107102913
           2 :    195.325193316699
           3 :   -158.218376911302
           4 :    118.127344865386
           5 :   -85.1952615994431
           6 :    64.2578339777711
           7 :   -54.2008677558642
           8 :    50.1869332320136
           9 :   -47.0801119605088
          10 :    42.0606926028454
          11 :   -35.2805688510666
          12 :    28.7039641978182
          13 :   -24.2426203565272
          14 :    22.4202138669326
          15 :   -22.2376925369379
          16 :    22.0583411586291
          17 :   -20.7577545027264
          18 :    18.3506481344792
          19 :   -15.7751941424533
          20 :    14.0946055443439
          21 :   -13.7238052893624
          22 :    14.1962963936598
          23 :   -14.5694060609866
          24 :    14.1155026908318
          25 :   -12.7936773616910
          26 :    11.1987791559493
          27 :   -10.0803477968826
          28 :    9.80689724956250
          29 :   -10.1522335428447
          30 :    10.5137877935681
          31 :   -22.6192861170045
          32 :   -16.2741837612123

     Forces acting on atoms (Ry/au):

     negative rho (up, down):  1.575E-02 0.000E+00
     atom    1 type  1   force =     0.00000069    0.00000139    0.00468389
     atom    2 type  1   force =     0.00000217    0.00083317    0.00004076
     atom    3 type  1   force =     0.00072153   -0.00041457    0.00004298
     atom    4 type  1   force =    -0.00071951   -0.00041619    0.00004190
     atom    5 type  1   force =     0.02760100   -0.01593241   -0.00770323
     atom    6 type  1   force =    -0.02759960   -0.01593708   -0.00769578
     atom    7 type  1   force =    -0.00000071    0.00000052    0.02067091
     atom    8 type  1   force =     0.00000377    0.03186995   -0.00769699
     atom    9 type  1   force =    -0.00023322   -0.00013646   -0.00043934
     atom   10 type  1   force =     0.00022494   -0.00012905   -0.00042790
     atom   11 type  1   force =    -0.00000010    0.00026402   -0.00042583
     atom   12 type  1   force =     0.00000677    0.00000199   -0.00006766
     atom   13 type  2   force =    -0.00000791   -0.00000799   -0.00052422
     atom   14 type  3   force =     0.00000019    0.00000272   -0.00049949

     Total force =     0.001139     Total SCF correction =     0.000671
     SCF correction compared to forces is large: reduce conv_thr to get better values

     entering subroutine stress ...

     negative rho (up, down):  1.575E-02 0.000E+00
          total   stress  (Ry/bohr**3)                   (kbar)     P=  -13.45
  -0.00012962   0.00000001   0.00000002        -19.07      0.00      0.00
   0.00000001  -0.00012962   0.00000000          0.00    -19.07      0.00
   0.00000002   0.00000000  -0.00001509          0.00      0.00     -2.22

     bfgs converged in  12 scf cycles and  11 bfgs steps
     (criteria: energy <  1.0E+00, force <  1.9E-03)

     End of BFGS Geometry Optimization

     Final energy   =   -1782.8072345377 Ry
Begin final coordinates

ATOMIC_POSITIONS (crystal)
V1       0.166666667   0.166666667   0.409694847    0   0   0
V1       0.666666667   0.166666667   0.409694847    0   0   0
V1       0.166666667   0.666666667   0.409694847    0   0   0
V1       0.666666667   0.666666667   0.409694847    0   0   0
V1       0.833333333   0.333333333   0.500000000    0   0   0
V1       0.333333333   0.333333333   0.500000000    0   0   0
V1       0.833333333   0.833333333   0.500000000    0   0   0
V1       0.333333333   0.833333333   0.500000000    0   0   0
V1      -0.007888921  -0.007885408   0.593701576
V1       0.515791746  -0.007893743   0.593702197
V1      -0.007889516   0.515788023   0.593701393
V1       0.500000633   0.500000955   0.573403421
O1       0.166668016   0.166672267   0.645944708
H1       0.166674813   0.166662852   0.685828197
End final coordinates

     Writing output data file calc.save

     General routines

     Parallel routines

   This run was terminated on:  11:42:14  24Apr2018

   JOB DONE.
Job  /afs/slac/g/suncat/bin/suncat-tsmpirun -x LD_LIBRARY_PATH -wdir /scratch/qe726306_rrKbe pw.x -npool 4 -in pw.inp

TID   HOST_NAME   COMMAND_LINE            STATUS            TERMINATION_TIME
00000 suncat0096 pw.x -npool 4 -i  Done                     04/24/2018 11:42:14
00001 suncat0096 pw.x -npool 4 -i  Done                     04/24/2018 11:42:14
00002 suncat0096 pw.x -npool 4 -i  Done                     04/24/2018 11:42:14
00003 suncat0096 pw.x -npool 4 -i  Done                     04/24/2018 11:42:14
00004 suncat0096 pw.x -npool 4 -i  Done                     04/24/2018 11:42:14
00005 suncat0096 pw.x -npool 4 -i  Done                     04/24/2018 11:42:14
00006 suncat0096 pw.x -npool 4 -i  Done                     04/24/2018 11:42:14
00007 suncat0096 pw.x -npool 4 -i  Done                     04/24/2018 11:42:14
00008 suncat0094 pw.x -npool 4 -i  Done                     04/24/2018 11:42:14
00009 suncat0094 pw.x -npool 4 -i  Done                     04/24/2018 11:42:14
00010 suncat0094 pw.x -npool 4 -i  Done                     04/24/2018 11:42:14
00011 suncat0094 pw.x -npool 4 -i  Done                     04/24/2018 11:42:14
00012 suncat0094 pw.x -npool 4 -i  Done                     04/24/2018 11:42:14
00013 suncat0094 pw.x -npool 4 -i  Done                     04/24/2018 11:42:14
00014 suncat0094 pw.x -npool 4 -i  Done                     04/24/2018 11:42:14
00015 suncat0094 pw.x -npool 4 -i  Done                     04/24/2018 11:42:14
00016 suncat0081 pw.x -npool 4 -i  Done                     04/24/2018 11:42:14
00017 suncat0081 pw.x -npool 4 -i  Done                     04/24/2018 11:42:14
00018 suncat0081 pw.x -npool 4 -i  Done                     04/24/2018 11:42:14
00019 suncat0081 pw.x -npool 4 -i  Done                     04/24/2018 11:42:14
00020 suncat0081 pw.x -npool 4 -i  Done                     04/24/2018 11:42:14
00021 suncat0081 pw.x -npool 4 -i  Done                     04/24/2018 11:42:14
00022 suncat0081 pw.x -npool 4 -i  Done                     04/24/2018 11:42:14
00023 suncat0081 pw.x -npool 4 -i  Done                     04/24/2018 11:42:14
00024 suncat0283 pw.x -npool 4 -i  Done                     04/24/2018 11:42:14
00025 suncat0283 pw.x -npool 4 -i  Done                     04/24/2018 11:42:14
00026 suncat0283 pw.x -npool 4 -i  Done                     04/24/2018 11:42:14
00027 suncat0283 pw.x -npool 4 -i  Done                     04/24/2018 11:42:14
00028 suncat0283 pw.x -npool 4 -i  Done                     04/24/2018 11:42:14
00029 suncat0283 pw.x -npool 4 -i  Done                     04/24/2018 11:42:14
00030 suncat0283 pw.x -npool 4 -i  Done                     04/24/2018 11:42:14
00031 suncat0283 pw.x -npool 4 -i  Done                     04/24/2018 11:42:14