     Program PWSCF v.5.1rc2 (svn rev. 11289) starts on 24Apr2018 at 19:12:57

     Current dimensions of program PWSCF are:
     Max number of different atomic species (ntypx) = 10
     Max number of k-points (npk) =  40000
     Max angular momentum in pseudopotentials (lmaxx) =  3
     Presently stress not available with electric field

     IMPORTANT: XC functional enforced from input :
     Exchange-correlation      = BEEF-VDW ( 1  4 27 13 2)
     Any further DFT definition will be discarded
     Please, verify this is what you really want

     Subspace diagonalization in iterative solution of the eigenvalue problem:
     a serial algorithm will be used

     bravais-lattice index     =            0
     lattice parameter (alat)  =       1.8897  a.u.
     unit-cell volume          =    7725.1200 (a.u.)^3
     number of atoms/cell      =           14
     number of atomic types    =            3
     number of electrons       =       139.00
     number of Kohn-Sham states=           79
     kinetic-energy cutoff     =      36.7493  Ry
     charge density cutoff     =     367.4932  Ry
     convergence threshold     =      1.0E-05
     mixing beta               =       0.3000
     number of iterations used =           10  plain     mixing
     Exchange-correlation      = BEEF-VDW ( 1  4 27 13 2)
     nstep                     =           50

     celldm(1)=   1.889726  celldm(2)=   0.000000  celldm(3)=   0.000000
     celldm(4)=   0.000000  celldm(5)=   0.000000  celldm(6)=   0.000000

     crystal axes: (cart. coord. in units of alat)
               a(1) = (   7.152277   0.000000   0.000000 )
               a(2) = (   3.576139   6.194054   0.000000 )
               a(3) = (   0.000000   0.000000  25.839810 )

     reciprocal axes: (cart. coord. in units 2 pi/alat)
               b(1) = (  0.139816 -0.080723  0.000000 )
               b(2) = (  0.000000  0.161445  0.000000 )
               b(3) = (  0.000000  0.000000  0.038700 )

     PseudoPot. # 1 for Y  read from file:
     /u/if/mamunm/psp/gbrv1.5pbe/Y.UPF
     MD5 check sum: d034151ed7554c50b6e82763ed42c788
     Pseudo is Ultrasoft + core correction, Zval = 11.0
     Generated by new atomic code, or converted to UPF format
     Using radial grid of  885 points,  6 beta functions with:
                l(1) =   0
                l(2) =   0
                l(3) =   1
                l(4) =   1
                l(5) =   2
                l(6) =   2
     Q(r) pseudized with  8 coefficients,  rinner =    1.200   1.200   1.200
                                                       1.200   1.200

     PseudoPot. # 2 for O  read from file:
     /u/if/mamunm/psp/gbrv1.5pbe/O.UPF
     MD5 check sum: 734c27235a0248c51dbae37a1fbe46ec
     Pseudo is Ultrasoft + core correction, Zval =  6.0
     Generated by new atomic code, or converted to UPF format
     Using radial grid of  737 points,  5 beta functions with:
                l(1) =   0
                l(2) =   0
                l(3) =   1
                l(4) =   1
                l(5) =   2
     Q(r) pseudized with  8 coefficients,  rinner =    0.900   0.900   0.900
                                                       0.900   0.900

     PseudoPot. # 3 for H  read from file:
     /u/if/mamunm/psp/gbrv1.5pbe/H.UPF
     MD5 check sum: 761ae9a214b05c3daf00ab9f6b793d6f
     Pseudo is Ultrasoft, Zval =  1.0
     Generated by new atomic code, or converted to UPF format
     Using radial grid of  615 points,  2 beta functions with:
                l(1) =   0
                l(2) =   0
     Q(r) pseudized with  8 coefficients,  rinner =    0.700

     vdW kernel table read from file vdW_kernel_table
     MD5 check sum: 095c7af220d748ca6e76c0b4c6cfb241

     atomic species   valence    mass     pseudopotential
        Y1            11.00    88.90584     Y ( 1.00)
        O1             6.00    15.99900     O ( 1.00)
        H1             1.00     1.00800     H ( 1.00)

     No symmetry found

   Cartesian axes

     site n.     atom                  positions (alat units)
         1           Y1  tau(   1) = (   1.7880693   1.0323423  10.0000000  )
         2           Y1  tau(   2) = (   5.3642080   1.0323423  10.0000000  )
         3           Y1  tau(   3) = (   3.5761386   4.1293692  10.0000000  )
         4           Y1  tau(   4) = (   7.1522773   4.1293692  10.0000000  )
         5           Y1  tau(   5) = (   7.1522773   2.0646846  12.9199050  )
         6           Y1  tau(   6) = (   3.5761386   2.0646846  12.9199050  )
         7           Y1  tau(   7) = (   8.9403466   5.1617115  12.9199050  )
         8           Y1  tau(   8) = (   5.3642080   5.1617115  12.9199050  )
         9           Y1  tau(   9) = (   0.0000000   0.0000000  15.8398100  )
        10           Y1  tau(  10) = (   3.5761386   0.0000000  15.8398100  )
        11           Y1  tau(  11) = (   1.7880693   3.0970269  15.8398100  )
        12           Y1  tau(  12) = (   5.3642080   3.0970269  15.8398100  )
        13           O1  tau(  13) = (   0.0000000   0.0000000  18.0158100  )
        14           H1  tau(  14) = (   0.0000000   0.0000000  18.9658100  )

     number of k points=    20  Fermi-Dirac smearing, width (Ry)=  0.0110
                       cart. coord. in units 2pi/alat
        k(    1) = (   0.0000000   0.0000000   0.0000000), wk =   0.0555556
        k(    2) = (   0.0000000   0.0269075   0.0000000), wk =   0.1111111
        k(    3) = (   0.0000000   0.0538151   0.0000000), wk =   0.1111111
        k(    4) = (   0.0000000  -0.0807226   0.0000000), wk =   0.0555556
        k(    5) = (   0.0233026  -0.0134538   0.0000000), wk =   0.1111111
        k(    6) = (   0.0233026   0.0134538   0.0000000), wk =   0.1111111
        k(    7) = (   0.0233026   0.0403613   0.0000000), wk =   0.1111111
        k(    8) = (   0.0233026  -0.0941763   0.0000000), wk =   0.1111111
        k(    9) = (   0.0233026  -0.0672688   0.0000000), wk =   0.1111111
        k(   10) = (   0.0233026  -0.0403613   0.0000000), wk =   0.1111111
        k(   11) = (   0.0466052  -0.0269075   0.0000000), wk =   0.1111111
        k(   12) = (   0.0466052   0.0000000   0.0000000), wk =   0.1111111
        k(   13) = (   0.0466052   0.0269075   0.0000000), wk =   0.1111111
        k(   14) = (   0.0466052  -0.1076301   0.0000000), wk =   0.1111111
        k(   15) = (   0.0466052  -0.0807226   0.0000000), wk =   0.1111111
        k(   16) = (   0.0466052  -0.0538151   0.0000000), wk =   0.1111111
        k(   17) = (  -0.0699078   0.0403613   0.0000000), wk =   0.0555556
        k(   18) = (  -0.0699078   0.0672688   0.0000000), wk =   0.1111111
        k(   19) = (  -0.0699078   0.0941763   0.0000000), wk =   0.1111111
        k(   20) = (  -0.0699078  -0.0403613   0.0000000), wk =   0.0555556

     Largest allocated arrays     est. size (Mb)     dimensions
     Largest temporary arrays     est. size (Mb)     dimensions

     Initial potential from superposition of free atoms
     Check: negative starting charge=   -0.000583

     starting charge  138.94636, renormalised to  139.00000

     negative rho (up, down):  5.832E-04 0.000E+00

     *
     * You are using vdW-DF for exchange-correlation in this calculation.
     * Please cite the following three references that made this development
     * possible:
     *
     *   M. Dion, H. Rydberg, E. Schroder, D. C. Langreth, and
     *   B. I. Lundqvist, Phys. Rev. Lett. 92, 246401 (2004).
     *
     *   T. Thonhauser, V. R. Cooper, S. Li, A. Puzder, P. Hyldgaard, and
     *   D. C. Langreth, Phys. Rev. B 76, 125112 (2007).
     *
     *   G. Roman-Perez and J. M. Soler, Phys. Rev. Lett. 103, 096102 (2009).
     *
     *
     * If you are using vdW-DF2, please also cite:
     *
     *   K. Lee, E. D. Murray, L. Kong, B. I. Lundqvist, and
     *   D. C. Langreth, Phys. Rev. B 82, 081101(R) (2010).
     *
     *
     * If you are calculating the stress with vdW-DF, please also cite:
     *
     *   R. Sabatini, E. Kucukbenli, B. Kolb, T. Thonhauser, and
     *   S. de Gironcoli, J. Phys.: Condens. Matter 24, 424209 (2012).
     *

     Carrying out vdW-DF run using the following parameters:

     Nqs =      20    Nr_points =    1024   r_max =   100.000
     q_mesh =
               0.00001000     0.04494208     0.09755937     0.15916263
               0.23128650     0.31572767     0.41458969     0.53033537
               0.66584808     0.82450364     1.01025438     1.22772762
               1.48234092     1.78043706     2.12944203     2.53805004
               3.01644009     3.57652955     4.23227104     5.00000000

     Gradients computed in reciprocal space

     Adding external electric field

     Computed dipole along edir(3) :
        Dipole               -0.0266 Ry au,         -0.0676 Debye
        Dipole field         -0.0000 Ry au

        Potential amp.        0.0041 Ry
        Total length         47.6094 bohr

     Starting wfc are  161 randomized atomic wfcs

     Self-consistent Calculation

     iteration #  1     ecut=    36.75 Ry     beta=0.30
     Davidson diagonalization with overlap
     ethr =  1.00E-02,  avg # of iterations =  2.0

[...]

     total energy              =   -1156.33292706 Ry
     Harris-Foulkes estimate   =   -1158.76728376 Ry
     estimated scf accuracy    <       5.25651920 Ry

[...]

     End of self-consistent calculation

          k = 0.0000 0.0000 0.0000 ( 28997 PWs)   bands (ev):

   -42.2191 -42.1865 -42.1863 -42.1429 -42.1020 -42.1017 -42.0959 -41.8203
   -41.6024 -41.5614 -41.5613 -41.5570 -22.2903 -22.2795 -22.2712 -22.2711
   -22.2464 -22.2447 -22.2446 -22.2197 -22.2195 -22.1718 -22.1046 -22.1043
   -22.1016 -22.0217 -21.9670 -21.9254 -21.9229 -21.9228 -21.9199 -21.9198
   -21.8240 -21.8240 -21.7248 -21.7247 -21.7175 -21.7091 -21.7091 -21.5154
   -21.4869 -21.4868 -21.4860 -21.4206 -21.4205 -21.4180 -21.3222 -21.3222
   -18.3263  -6.2635  -3.0759  -2.2109  -2.2109  -2.1673  -1.1382  -0.4177
    -0.4177  -0.4023  -0.2964  -0.2828  -0.2828  -0.0269  -0.0269  -0.0055
     0.5179   0.5196   0.5196   0.8962   1.0277   1.0277   1.3847   1.6308
     1.7722   1.8009   1.9044   1.9044   1.9929   2.2253   2.2253

[...]

          k =-0.0699 0.0404 0.0000 ( 29048 PWs)   bands (ev):

[...]

     the Fermi energy is     1.2017 ev

!    total energy              =   -1158.16324194 Ry
     Harris-Foulkes estimate   =   -1158.16323719 Ry
     estimated scf accuracy    <       0.00000219 Ry

     The total energy is the sum of the following terms:

     one-electron contribution =   -5540.89828130 Ry
     hartree contribution      =    2766.28035169 Ry
     xc contribution           =    -347.26154364 Ry
     ewald contribution        =    1963.84070862 Ry
     electric field correction =       0.00005060 Ry
     smearing contrib. (-TS)   =      -0.12452790 Ry

     convergence has been achieved in  15 iterations

 BEEF-vdW xc energy contributions
           1 :   -302.733329859707
           2 :    271.631119738966
           3 :   -218.228889176923
           4 :    155.774706542720
           5 :   -96.4561268539074
           6 :    47.8321813429450
           7 :   -12.3827689960974
           8 :   -10.6624101305385
           9 :    23.0407775310860
          10 :   -26.2082587862808
          11 :    21.4662976208879
          12 :   -10.7981397700647
          13 :   -2.60918881112605
          14 :    14.7930075402199
          15 :   -22.2663202743461
          16 :    23.3151021271631
          17 :   -18.4986391178032
          18 :    10.0708886127277
          19 :  -0.780846818406076
          20 :   -7.18255757720101
          21 :    12.6066907099952
          22 :   -15.0860181657685
          23 :    14.6724320796192
          24 :   -11.7059365123472
          25 :    6.87464993906127
          26 :   -1.29005261541170
          27 :   -3.66697081507709
          28 :    6.77283096376516
          29 :   -7.44677721874689
          30 :    5.97495929424554
          31 :   -29.0697243180141
          32 :   -19.8451711775866

     Forces acting on atoms (Ry/au):

     negative rho (up, down):  3.431E-04 0.000E+00
     atom    1 type  1   force =    -0.00016794   -0.00010644    0.00417114
     atom    2 type  1   force =     0.00017348   -0.00008977    0.00414005
     atom    3 type  1   force =     0.00000865    0.00020336    0.00419591
     atom    4 type  1   force =    -0.00002021   -0.00000076    0.00476481
     atom    5 type  1   force =     0.00005094    0.00575982   -0.00036343
     atom    6 type  1   force =    -0.00003484    0.00007024    0.00313053
     atom    7 type  1   force =    -0.00492418   -0.00294645   -0.00039812
     atom    8 type  1   force =     0.00493645   -0.00289547   -0.00044036
     atom    9 type  1   force =     0.00000603    0.00000331    0.05570776
     atom   10 type  1   force =    -0.00001116   -0.00238193   -0.00841075
     atom   11 type  1   force =    -0.00207565    0.00118972   -0.00843541
     atom   12 type  1   force =     0.00206193    0.00119660   -0.00842347
     atom   13 type  2   force =    -0.00000211   -0.00000121   -0.08632423
     atom   14 type  3   force =    -0.00000138   -0.00000101    0.03668558

     Total force =     0.110141     Total SCF correction =     0.001337

     entering subroutine stress ...

     negative rho (up, down):  3.431E-04 0.000E+00
          total   stress  (Ry/bohr**3)                   (kbar)     P=   -3.25
  -0.00000877   0.00000000  -0.00000000         -1.29      0.00     -0.00
   0.00000000  -0.00000877   0.00000000          0.00     -1.29      0.00
  -0.00000000   0.00000000  -0.00004865         -0.00      0.00     -7.16

     BFGS Geometry Optimization

     number of scf cycles    =   1
     number of bfgs steps    =   0

     energy   new            =   -1158.1632419370 Ry

     new trust radius        =       0.0863242349 bohr
     new conv_thr            =       0.0000099958 Ry

ATOMIC_POSITIONS (crystal)
Y1       0.166666667   0.166666667   0.386999750    0   0   0
Y1       0.666666667   0.166666667   0.386999750    0   0   0
Y1       0.166666667   0.666666667   0.386999750    0   0   0
Y1       0.666666667   0.666666667   0.386999750    0   0   0
Y1       0.833333333   0.333333333   0.500000000    0   0   0
Y1       0.333333333   0.333333333   0.500000000    0   0   0
Y1       0.833333333   0.833333333   0.500000000    0   0   0
Y1       0.333333333   0.833333333   0.500000000    0   0   0
Y1       0.000000305   0.000000283   0.614141097
Y1       0.500100922  -0.000203495   0.612828005
Y1      -0.000204392   0.500101641   0.612827500
Y1       0.500101442   0.500102229   0.612827744
O1      -0.000000104  -0.000000104   0.695443549
H1      -0.000000059  -0.000000087   0.734727661

     Writing output data file calc.save
     Check: negative starting charge=   -0.000583
     NEW-OLD atomic charge density approx. for the potential
     Check: negative starting charge=   -0.000585

[...]

     energy   old            =   -1158.1632419370 Ry
     energy   new            =   -1158.1652373750 Ry

     CASE: energy  _new < energy  _old

[...]

     iteration #  1     ecut=    36.75 Ry     beta=0.30
     Davidson diagonalization with overlap
     c_bands:  1 eigenvalues not converged
     ethr =  1.00E-06,  avg # of iterations = 10.8

[...]

     Threshold (ethr) on eigenvalues was too large:
     Diagonalizing with lowered threshold

     Davidson diagonalization with overlap
     c_bands:  1 eigenvalues not converged
     ethr =  4.83E-08,  avg # of iterations =  6.9

[...]

     number of scf cycles    =  11
     number of bfgs steps    =  10

     energy   old            =   -1158.1736293767 Ry
     energy   new            =   -1158.1736512128 Ry

     CASE: energy  _new < energy  _old

     new trust radius        =       0.0034800673 bohr
     new conv_thr            =       0.0000001000 Ry

ATOMIC_POSITIONS (crystal)
Y1       0.166666667   0.166666667   0.386999750    0   0   0
Y1       0.666666667   0.166666667   0.386999750    0   0   0
Y1       0.166666667   0.666666667   0.386999750    0   0   0
Y1       0.666666667   0.666666667   0.386999750    0   0   0
Y1       0.833333333   0.333333333   0.500000000    0   0   0
Y1       0.333333333   0.333333333   0.500000000    0   0   0
Y1       0.833333333   0.833333333   0.500000000    0   0   0
Y1       0.333333333   0.833333333   0.500000000    0   0   0
Y1      -0.000001155   0.000000447   0.616780650
Y1       0.500899057  -0.001797424   0.608750809
Y1      -0.001798929   0.500899885   0.608750456
Y1       0.500898659   0.500898660   0.608750620
O1       0.000000094  -0.000000606   0.696150472
H1       0.000000013  -0.000000347   0.733512752

     Writing output data file calc.save
     Check: negative starting charge=   -0.000588
     NEW-OLD atomic charge density approx. for the potential
     Check: negative starting charge=   -0.000588

[...]

     Self-consistent Calculation

[...]

     Threshold (ethr) on eigenvalues was too large:
     Diagonalizing with lowered threshold

     Davidson diagonalization with overlap
     ethr =  8.85E-09,  avg # of iterations =  9.4

[...]

     iteration #  6     ecut=    36.75 Ry     beta=0.30
     Davidson diagonalization with overlap
     c_bands:  1 eigenvalues not converged
     ethr =  8.04E-10,  avg # of iterations =  8.0

[...]

     total energy              =   -1158.17366220 Ry
     Harris-Foulkes estimate   =   -1158.17366212 Ry
     estimated scf accuracy    <       0.00000020 Ry

     iteration #  7     ecut=    36.75 Ry     beta=0.30
     Davidson diagonalization with overlap
     ethr =  1.47E-10,  avg # of iterations =  6.7

[...]

     negative rho (up, down):  3.421E-04 0.000E+00

     Adding external electric field

     Computed dipole along edir(3) :
        Dipole                0.2082 Ry au,          0.5291 Debye
        Dipole field          0.0003 Ry au

        Potential amp.       -0.0322 Ry
        Total length         47.6094 bohr

     End of self-consistent calculation

[...]

          k = 0.0466-0.0538 0.0000 ( 29098 PWs)   bands (ev):

[...]

          k =-0.0699-0.0404 0.0000 ( 29048 PWs)   bands (ev):

   -42.1125 -42.1065 -42.0934 -42.0911 -42.0827 -42.0776 -42.0716 -41.7143
   -41.5294 -41.5207 -41.5082 -41.4596 -22.1658 -22.1590 -22.1529 -22.1511
   -22.1296 -22.1249 -22.1203 -22.1173 -22.0932 -22.0828 -22.0751 -22.0697
   -22.0292 -22.0240 -22.0124 -21.9960 -21.9865 -21.9859 -21.9680 -21.8628
   -21.8549 -21.8247 -21.7036 -21.6402 -21.6013 -21.5656 -21.4776 -21.4735
   -21.4497 -21.4488 -21.4393 -21.4315 -21.4040 -21.3924 -21.3242 -21.2869
   -18.3497  -6.5035  -2.5843  -2.5634  -1.8707  -1.8381  -1.0257  -0.9764
    -0.1848  -0.1644  -0.0191   0.0066   0.2413   0.2656   0.8898   0.9390
     0.9488   1.0044   1.0544   1.0939   1.1250   1.2455   1.3151   1.3417
     1.3622   1.3855   1.4705   1.6117   1.6813   1.6903   1.8134

     the Fermi energy is     1.2255 ev

!    total energy              =   -1158.17366225 Ry
     Harris-Foulkes estimate   =   -1158.17366253 Ry
     estimated scf accuracy    <       0.00000003 Ry

     The total energy is the sum of the following terms:

     one-electron contribution =   -5588.13921967 Ry
     hartree contribution      =    2790.11129894 Ry
     xc contribution           =    -347.35247356 Ry
     ewald contribution        =    1987.33131991 Ry
     electric field correction =       0.00007048 Ry
     smearing contrib. (-TS)   =      -0.12465835 Ry

     convergence has been achieved in   7 iterations

 BEEF-vdW xc energy contributions
           1 :   -302.829343800160
           2 :    271.765210798526
           3 :   -218.393872011621
           4 :    155.917161966494
           5 :   -96.5214928126809
           6 :    47.8092624331964
           7 :   -12.3071232769893
           8 :   -10.7395158324542
           9 :    23.0856479543709
          10 :   -26.2192638010163
          11 :    21.4678431777085
          12 :   -10.8199876547234
          13 :   -2.55644102519011
          14 :    14.7279726099599
          15 :   -22.2210117109043
          16 :    23.3051719288276
          17 :   -18.5074981323017
          18 :    10.0645130830077
          19 :  -0.739355952927212
          20 :   -7.24753290517833
          21 :    12.6636545348330
          22 :   -15.1110228172536
          23 :    14.6685801575046
          24 :   -11.7013907098006
          25 :    6.90162464080737
          26 :   -1.36004862689219
          27 :   -3.57267172015008
          28 :    6.68778589169233
          29 :   -7.38917168348758
          30 :    5.92833863226315
          31 :   -29.0770202503656
          32 :   -19.8591063835940

     Forces acting on atoms (Ry/au):

     negative rho (up, down):  3.421E-04 0.000E+00
     atom    1 type  1   force =    -0.00077381   -0.00044692    0.00454825
     atom    2 type  1   force =     0.00077350   -0.00044665    0.00454830
     atom    3 type  1   force =    -0.00000006    0.00089342    0.00454837
     atom    4 type  1   force =    -0.00000014    0.00000020    0.00442550
     atom    5 type  1   force =    -0.00000035    0.00464714   -0.00447176
     atom    6 type  1   force =     0.00000062   -0.00000008   -0.00550857
     atom    7 type  1   force =    -0.00402453   -0.00232318   -0.00447221
     atom    8 type  1   force =     0.00402451   -0.00232405   -0.00447120
     atom    9 type  1   force =     0.00000130    0.00000000    0.00068169
     atom   10 type  1   force =    -0.00000124    0.00084421   -0.00005654
     atom   11 type  1   force =     0.00073096   -0.00042290   -0.00005510
     atom   12 type  1   force =    -0.00073076   -0.00042109   -0.00005491
     atom   13 type  2   force =     0.00000004   -0.00000005   -0.00063285
     atom   14 type  3   force =    -0.00000004   -0.00000006    0.00097103

     Total force =     0.001989     Total SCF correction =     0.000164

     entering subroutine stress ...

     negative rho (up, down):  3.421E-04 0.000E+00
          total   stress  (Ry/bohr**3)                   (kbar)     P=   -0.87
  -0.00000206   0.00000000   0.00000000         -0.30      0.00      0.00
   0.00000000  -0.00000206  -0.00000000          0.00     -0.30     -0.00
   0.00000000  -0.00000000  -0.00001364          0.00     -0.00     -2.01

     bfgs converged in  12 scf cycles and  11 bfgs steps
     (criteria: energy <  1.0E+00, force <  1.9E-03)

     End of BFGS Geometry Optimization

     Final energy   =   -1158.1736622451 Ry
Begin final coordinates

ATOMIC_POSITIONS (crystal)
Y1       0.166666667   0.166666667   0.386999750    0   0   0
Y1       0.666666667   0.166666667   0.386999750    0   0   0
Y1       0.166666667   0.666666667   0.386999750    0   0   0
Y1       0.666666667   0.666666667   0.386999750    0   0   0
Y1       0.833333333   0.333333333   0.500000000    0   0   0
Y1       0.333333333   0.333333333   0.500000000    0   0   0
Y1       0.833333333   0.833333333   0.500000000    0   0   0
Y1       0.333333333   0.833333333   0.500000000    0   0   0
Y1      -0.000001155   0.000000447   0.616780650
Y1       0.500899057  -0.001797424   0.608750809
Y1      -0.001798929   0.500899885   0.608750456
Y1       0.500898659   0.500898660   0.608750620
O1       0.000000094  -0.000000606   0.696150472
H1       0.000000013  -0.000000347   0.733512752
End final coordinates

     Writing output data file calc.save

     General routines

     Parallel routines

   This run was terminated on:  21:15:24  24Apr2018

   JOB DONE.
Job  /afs/slac/g/suncat/bin/suncat-tsmpirun -x LD_LIBRARY_PATH -wdir /scratch/qe195828_DKVm4 pw.x -npool 4 -in pw.inp

TID   HOST_NAME   COMMAND_LINE            STATUS            TERMINATION_TIME
00000 suncat0279 pw.x -npool 4 -i  Done                     04/24/2018 21:15:24
00001 suncat0279 pw.x -npool 4 -i  Done                     04/24/2018 21:15:24
00002 suncat0279 pw.x -npool 4 -i  Done                     04/24/2018 21:15:24
00003 suncat0279 pw.x -npool 4 -i  Done                     04/24/2018 21:15:24
00004 suncat0279 pw.x -npool 4 -i  Done                     04/24/2018 21:15:24
00005 suncat0279 pw.x -npool 4 -i  Done                     04/24/2018 21:15:24
00006 suncat0279 pw.x -npool 4 -i  Done                     04/24/2018 21:15:24
00007 suncat0279 pw.x -npool 4 -i  Done                     04/24/2018 21:15:24
00008 suncat0278 pw.x -npool 4 -i  Done                     04/24/2018 21:15:24
00009 suncat0278 pw.x -npool 4 -i  Done                     04/24/2018 21:15:24
00010 suncat0278 pw.x -npool 4 -i  Done                     04/24/2018 21:15:24
00011 suncat0278 pw.x -npool 4 -i  Done                     04/24/2018 21:15:24
00012 suncat0278 pw.x -npool 4 -i  Done                     04/24/2018 21:15:24
00013 suncat0278 pw.x -npool 4 -i  Done                     04/24/2018 21:15:24
00014 suncat0278 pw.x -npool 4 -i  Done                     04/24/2018 21:15:24
00015 suncat0278 pw.x -npool 4 -i  Done                     04/24/2018 21:15:24
00016 suncat0213 pw.x -npool 4 -i  Done                     04/24/2018 21:15:24
00017 suncat0213 pw.x -npool 4 -i  Done                     04/24/2018 21:15:24
00018 suncat0213 pw.x -npool 4 -i  Done                     04/24/2018 21:15:24
00019 suncat0213 pw.x -npool 4 -i  Done                     04/24/2018 21:15:24
00020 suncat0213 pw.x -npool 4 -i  Done                     04/24/2018 21:15:24
00021 suncat0213 pw.x -npool 4 -i  Done                     04/24/2018 21:15:24
00022 suncat0213 pw.x -npool 4 -i  Done                     04/24/2018 21:15:24
00023 suncat0213 pw.x -npool 4 -i  Done                     04/24/2018 21:15:24
00024 suncat0207 pw.x -npool 4 -i  Done                     04/24/2018 21:15:24
00025 suncat0207 pw.x -npool 4 -i  Done                     04/24/2018 21:15:24
00026 suncat0207 pw.x -npool 4 -i  Done                     04/24/2018 21:15:24
00027 suncat0207 pw.x -npool 4 -i  Done                     04/24/2018 21:15:24
00028 suncat0207 pw.x -npool 4 -i  Done                     04/24/2018 21:15:24
00029 suncat0207 pw.x -npool 4 -i  Done                     04/24/2018 21:15:24
00030 suncat0207 pw.x -npool 4 -i  Done                     04/24/2018 21:15:24
00031 suncat0207 pw.x -npool 4 -i  Done                     04/24/2018 21:15:24