     Program PWSCF v.5.1rc2 (svn rev. 11289) starts on 24Apr2018 at 15:45:47

     Current dimensions of program PWSCF are:
     Max number of different atomic species (ntypx) = 10
     Max number of k-points (npk) =  40000
     Max angular momentum in pseudopotentials (lmaxx) =  3
     Presently stress not available with electric field

     IMPORTANT: XC functional enforced from input :
     Exchange-correlation      = BEEF-VDW ( 1  4 27 13 2)
     Any further DFT definition will be discarded
     Please, verify this is what you really want

     Subspace diagonalization in iterative solution of the eigenvalue problem:
     a serial algorithm will be used

     bravais-lattice index     =            0
     lattice parameter (alat)  =       1.8897  a.u.
     unit-cell volume          =    4704.3541 (a.u.)^3
     number of atoms/cell      =           14
     number of atomic types    =            3
     number of electrons       =       175.00
     number of Kohn-Sham states=           97
     kinetic-energy cutoff     =      36.7493  Ry
     charge density cutoff     =     367.4932  Ry
     convergence threshold     =      1.0E-05
     mixing beta               =       0.3000
     number of iterations used =           10  plain     mixing
     Exchange-correlation      = BEEF-VDW ( 1  4 27 13 2)
     nstep                     =           50

     celldm(1)=   1.889726  celldm(2)=   0.000000  celldm(3)=   0.000000
     celldm(4)=   0.000000  celldm(5)=   0.000000  celldm(6)=   0.000000

     crystal axes: (cart. coord. in units of alat)
               a(1) = (   5.712816   0.000000   0.000000 )
               a(2) = (   2.856408   4.947444   0.000000 )
               a(3) = (   0.000000   0.000000  24.664495 )

     reciprocal axes: (cart. coord. in units 2 pi/alat)
               b(1) = (  0.175045 -0.101062  0.000000 )
               b(2) = (  0.000000  0.202125  0.000000 )
               b(3) = (  0.000000  0.000000  0.040544 )

     PseudoPot. # 1 for W  read from file:
     /u/if/mamunm/psp/gbrv1.5pbe/W.UPF
     MD5 check sum: 9c083fa34c2a2ea0f02f1f893e16e1c8
     Pseudo is Ultrasoft + core correction, Zval = 14.0
     Generated by new atomic code, or converted to UPF format
     Using radial grid of  923 points,  8 beta functions with:
                l(1) =   0
                l(2) =   0
                l(3) =   0
                l(4) =   1
                l(5) =   1
                l(6) =   2
                l(7) =   2
                l(8) =   3
     Q(r) pseudized with  6 coefficients,  rinner =    1.350   1.350   1.350
                                                       1.350   1.350   1.350
                                                       1.350

     PseudoPot. # 2 for O  read from file:
     /u/if/mamunm/psp/gbrv1.5pbe/O.UPF
     MD5 check sum: 734c27235a0248c51dbae37a1fbe46ec
     Pseudo is Ultrasoft + core correction, Zval =  6.0
     Generated by new atomic code, or converted to UPF format
     Using radial grid of  737 points,  5 beta functions with:
                l(1) =   0
                l(2) =   0
                l(3) =   1
                l(4) =   1
                l(5) =   2
     Q(r) pseudized with  8 coefficients,  rinner =    0.900   0.900   0.900
                                                       0.900   0.900

     PseudoPot. # 3 for H  read from file:
     /u/if/mamunm/psp/gbrv1.5pbe/H.UPF
     MD5 check sum: 761ae9a214b05c3daf00ab9f6b793d6f
     Pseudo is Ultrasoft, Zval =  1.0
     Generated by new atomic code, or converted to UPF format
     Using radial grid of  615 points,  2 beta functions with:
                l(1) =   0
                l(2) =   0
     Q(r) pseudized with  8 coefficients,  rinner =    0.700

     vdW kernel table read from file vdW_kernel_table
     MD5 check sum: 095c7af220d748ca6e76c0b4c6cfb241

     atomic species   valence    mass     pseudopotential
        W1            14.00   183.84000     W ( 1.00)
        O1             6.00    15.99900     O ( 1.00)
        H1             1.00     1.00800     H ( 1.00)

     No symmetry found

   Cartesian axes

     site n.     atom                  positions (alat units)
         1           W1  tau(   1) = (   1.4282041   0.8245740  10.0000000  )
         2           W1  tau(   2) = (   4.2846123   0.8245740  10.0000000  )
         3           W1  tau(   3) = (   2.8564082   3.2982961  10.0000000  )
         4           W1  tau(   4) = (   5.7128165   3.2982961  10.0000000  )
         5           W1  tau(   5) = (   5.7128165   1.6491481  12.3322476  )
         6           W1  tau(   6) = (   2.8564082   1.6491481  12.3322476  )
         7           W1  tau(   7) = (   7.1410206   4.1228701  12.3322476  )
         8           W1  tau(   8) = (   4.2846123   4.1228701  12.3322476  )
         9           W1  tau(   9) = (   0.0000000   0.0000000  14.6644951  )
        10           W1  tau(  10) = (   2.8564082   0.0000000  14.6644951  )
        11           W1  tau(  11) = (   1.4282041   2.4737221  14.6644951  )
        12           W1  tau(  12) = (   4.2846123   2.4737221  14.6644951  )
        13           O1  tau(  13) = (   1.4282041   0.8245740  16.1464951  )
        14           H1  tau(  14) = (   1.4282041   0.8245740  17.0964951  )

     number of k points=    20  Fermi-Dirac smearing, width (Ry)=  0.0110
                       cart. coord. in units 2pi/alat
        k(    1) = (   0.0000000   0.0000000   0.0000000), wk =   0.0555556
        k(    2) = (   0.0000000   0.0336874   0.0000000), wk =   0.1111111
        k(    3) = (   0.0000000   0.0673749   0.0000000), wk =   0.1111111
        k(    4) = (   0.0000000  -0.1010623   0.0000000), wk =   0.0555556
        k(    5) = (   0.0291742  -0.0168437   0.0000000), wk =   0.1111111
        k(    6) = (   0.0291742   0.0168437   0.0000000), wk =   0.1111111
        k(    7) = (   0.0291742   0.0505311   0.0000000), wk =   0.1111111
        k(    8) = (   0.0291742  -0.1179060   0.0000000), wk =   0.1111111
        k(    9) = (   0.0291742  -0.0842186   0.0000000), wk =   0.1111111
        k(   10) = (   0.0291742  -0.0505311   0.0000000), wk =   0.1111111
        k(   11) = (   0.0583483  -0.0336874   0.0000000), wk =   0.1111111
        k(   12) = (   0.0583483  -0.0000000   0.0000000), wk =   0.1111111
        k(   13) = (   0.0583483   0.0336874   0.0000000), wk =   0.1111111
        k(   14) = (   0.0583483  -0.1347497   0.0000000), wk =   0.1111111
        k(   15) = (   0.0583483  -0.1010623   0.0000000), wk =   0.1111111
        k(   16) = (   0.0583483  -0.0673749   0.0000000), wk =   0.1111111
        k(   17) = (  -0.0875225   0.0505311   0.0000000), wk =   0.0555556
        k(   18) = (  -0.0875225   0.0842186   0.0000000), wk =   0.1111111
        k(   19) = (  -0.0875225   0.1179060   0.0000000), wk =   0.1111111
        k(   20) = (  -0.0875225  -0.0505311   0.0000000), wk =   0.0555556

     Largest allocated arrays     est. size (Mb)     dimensions
     Largest temporary arrays     est. size (Mb)     dimensions

     Initial potential from superposition of free atoms
     Check: negative starting charge=   -0.760461

     starting charge  173.79591, renormalised to  175.00000

     negative rho (up, down):  7.657E-01 0.000E+00

     *
     * You are using vdW-DF for exchange-correlation in this calculation.
     * Please cite the following three references that made this development
     * possible:
     *
     *   M. Dion, H. Rydberg, E. Schroder, D. C. Langreth, and
     *   B. I. Lundqvist, Phys. Rev. Lett. 92, 246401 (2004).
     *
     *   T. Thonhauser, V. R. Cooper, S. Li, A. Puzder, P. Hyldgaard, and
     *   D. C. Langreth, Phys. Rev. B 76, 125112 (2007).
     *
     *   G. Roman-Perez and J. M. Soler, Phys. Rev. Lett. 103, 096102 (2009).
     *
     *
     * If you are using vdW-DF2, please also cite:
     *
     *   K. Lee, E. D. Murray, L. Kong, B. I. Lundqvist, and
     *   D. C. Langreth, Phys. Rev. B 82, 081101(R) (2010).
     *
     *
     * If you are calculating the stress with vdW-DF, please also cite:
     *
     *   R. Sabatini, E. Kucukbenli, B. Kolb, T. Thonhauser, and
     *   S. de Gironcoli, J. Phys.: Condens. Matter 24, 424209 (2012).
     *

     Carrying out vdW-DF run using the following parameters:

     Nqs =      20    Nr_points =    1024   r_max =   100.000
     q_mesh =
               0.00001000     0.04494208     0.09755937     0.15916263
               0.23128650     0.31572767     0.41458969     0.53033537
               0.66584808     0.82450364     1.01025438     1.22772762
               1.48234092     1.78043706     2.12944203     2.53805004
               3.01644009     3.57652955     4.23227104     5.00000000

     Gradients computed in reciprocal space

     Adding external electric field

     Computed dipole along edir(3) :
        Dipole               -0.3619 Ry au,         -0.9199 Debye
        Dipole field         -0.0010 Ry au

        Potential amp.        0.0879 Ry
        Total length         45.4439 bohr

     Starting wfc are  161 randomized atomic wfcs

     Self-consistent Calculation

     iteration #  1     ecut=    36.75 Ry     beta=0.30
     Davidson diagonalization with overlap
     ethr =  1.00E-02,  avg # of iterations =  2.0

[...]

     total energy              =   -1953.98174087 Ry
     Harris-Foulkes estimate   =   -1959.00733249 Ry
     estimated scf accuracy    <      10.60989906 Ry

[...]

     End of self-consistent calculation

          k = 0.0000 0.0000 0.0000 ( 17753 PWs)   bands (ev):

   -71.2636 -71.2086 -71.2070 -71.0814 -71.0241 -71.0113 -71.0016 -71.0007
   -70.9873 -70.9715 -70.9711 -70.9661 -35.8741 -35.7038 -35.7036 -35.6771
   -35.6298 -35.6234 -35.6230 -35.4942 -35.4902 -35.4899 -35.3287 -35.3142
   -35.3130 -35.1443 -35.1182 -35.1179 -35.1128 -35.0668 -35.0660 -35.0532
   -34.9469 -34.9468 -34.9270 -34.9216 -34.9214 -34.9210 -34.8516 -34.8008
   -34.8007 -34.7890 -34.7797 -34.7797 -34.7223 -34.7221 -34.6134 -34.6134
   -18.6842  -7.1778  -4.9533  -3.1946  -3.1946  -3.1328  -2.4052  -1.8893
    -1.8893  -1.8865  -1.5971  -1.4889  -1.4888  -0.9279  -0.9278  -0.8822
    -0.7022  -0.7022  -0.6097   0.6952   0.6956   0.9370   1.6778   1.7613
     1.7613   1.7794   2.1032   2.5095   2.5096   2.5933   2.6183   2.6187
     2.8278   2.8663   2.8664   2.9401   2.9912   2.9914   3.1158   3.1158
     3.5947   3.9658   3.9662   4.4595   4.7248   4.7717   4.7719   5.1246
     5.1248

[...]

          k =-0.0875 0.0505 0.0000 ( 17668 PWs)   bands (ev):

[...]

     the Fermi energy is     3.1328 ev

!    total energy              =   -1958.59429020 Ry
     Harris-Foulkes estimate   =   -1958.59430146 Ry
     estimated scf accuracy    <       0.00000920 Ry

     The total energy is the sum of the following terms:

     one-electron contribution =  -15202.37265182 Ry
     hartree contribution      =    7590.91334641 Ry
     xc contribution           =    -518.75951725 Ry
     ewald contribution        =    6171.71816730 Ry
     electric field correction =       0.00059035 Ry
     smearing contrib. (-TS)   =      -0.09422519 Ry

     convergence has been achieved in  17 iterations

 BEEF-vdW xc energy contributions
           1 :   -456.256678794599
           2 :    421.858298275380
           3 :   -361.343866765058
           4 :    288.052705085996
           5 :   -215.812728584273
           6 :    154.943811064979
           7 :   -110.076755963814
           8 :    80.2654839659999
           9 :   -60.9861862781296
          10 :    46.9106738653982
          11 :   -34.2050032505026
          12 :    21.5273226337648
          13 :   -9.63075930654878
          14 :   0.114615488485981
          15 :    5.87314344192976
          16 :   -8.35699620709352
          17 :    8.47083117177010
          18 :   -7.81384342938122
          19 :    7.65620774706235
          20 :   -8.42424151064688
          21 :    9.68833914433793
          22 :   -10.5924497479953
          23 :    10.4444731956913
          24 :   -9.13875829531099
          25 :    7.20500994780309
          26 :   -5.49656401851200
          27 :    4.71634216827852
          28 :   -5.04652805390401
          29 :    6.07569843091545
          30 :   -7.04764672328383
          31 :   -41.4321582140894
          32 :   -30.9821495813038

     Forces acting on atoms (Ry/au):

     negative rho (up, down):  7.927E-01 0.000E+00
     atom    1 type  1   force =     0.00004918   -0.00004202   -0.00091871
     atom    2 type  1   force =    -0.00003686   -0.00127261   -0.00547554
     atom    3 type  1   force =    -0.00104039    0.00061337   -0.00536790
     atom    4 type  1   force =     0.00106984    0.00067528   -0.00543616
     atom    5 type  1   force =     0.00438183   -0.00253171    0.00131451
     atom    6 type  1   force =    -0.00436374   -0.00256921    0.00130545
     atom    7 type  1   force =    -0.00005002    0.00002822   -0.01349259
     atom    8 type  1   force =     0.00004248    0.00505939    0.00129950
     atom    9 type  1   force =    -0.02547830   -0.01475328    0.02725604
     atom   10 type  1   force =     0.02547240   -0.01471641    0.02700303
     atom   11 type  1   force =     0.00002454    0.02944802    0.02730309
     atom   12 type  1   force =    -0.00001880    0.00002173   -0.04030709
     atom   13 type  2   force =    -0.00005693    0.00004207   -0.06230105
     atom   14 type  3   force =     0.00000478   -0.00000285    0.04781742

     Total force =     0.112292     Total SCF correction =     0.010036

     entering subroutine stress ...

     negative rho (up, down):  7.927E-01 0.000E+00
          total   stress  (Ry/bohr**3)                   (kbar)     P=  -45.26
  -0.00044720  -0.00000001   0.00000001        -65.79     -0.00      0.00
  -0.00000001  -0.00044722  -0.00000002         -0.00    -65.79     -0.00
   0.00000001  -0.00000002  -0.00002864          0.00     -0.00     -4.21

     BFGS Geometry Optimization

     number of scf cycles    =   1
     number of bfgs steps    =   0

     energy   new            =   -1958.5942902006 Ry

     new trust radius        =       0.0623010886 bohr
     new conv_thr            =       0.0000099958 Ry

ATOMIC_POSITIONS (crystal)
W1       0.166666667   0.166666667   0.405441099    0   0   0
W1       0.666666667   0.166666667   0.405441099    0   0   0
W1       0.166666667   0.666666667   0.405441099    0   0   0
W1       0.666666667   0.666666667   0.405441099    0   0   0
W1       0.833333333   0.333333333   0.500000000    0   0   0
W1       0.333333333   0.333333333   0.500000000    0   0   0
W1       0.833333333   0.833333333   0.500000000    0   0   0
W1       0.333333333   0.833333333   0.500000000    0   0   0
W1      -0.001571047  -0.001578007   0.595143680
W1       0.503146535  -0.001574063   0.595138252
W1      -0.001572603   0.503149752   0.595144689
W1       0.499997096   0.500002325   0.593694112
O1       0.166659143   0.166671166   0.653308602
H1       0.166667262   0.166666362   0.694188100

     Writing output data file calc.save
     Check: negative starting charge=   -0.760461
     NEW-OLD atomic charge density approx. for the potential
     Check: negative starting charge=   -0.760818

[...]

     energy   old            =   -1958.5942902006 Ry
     energy   new            =   -1958.5995956981 Ry

     CASE: energy  _new < energy  _old

[...]

     iteration #  1     ecut=    36.75 Ry     beta=0.30
     Davidson diagonalization with overlap
     c_bands:  1 eigenvalues not converged
     ethr =  1.00E-06,  avg # of iterations = 12.9

[...]

     number of scf cycles    =   8
     number of bfgs steps    =   7

     energy   old            =   -1958.6168494647 Ry
     energy   new            =   -1958.6170687583 Ry

     CASE: energy  _new < energy  _old

     new trust radius        =       0.0048827115 bohr
     new conv_thr            =       0.0000001000 Ry

ATOMIC_POSITIONS (crystal)
W1       0.166666667   0.166666667   0.405441099    0   0   0
W1       0.666666667   0.166666667   0.405441099    0   0   0
W1       0.166666667   0.666666667   0.405441099    0   0   0
W1       0.666666667   0.666666667   0.405441099    0   0   0
W1       0.833333333   0.333333333   0.500000000    0   0   0
W1       0.333333333   0.333333333   0.500000000    0   0   0
W1       0.833333333   0.833333333   0.500000000    0   0   0
W1       0.333333333   0.833333333   0.500000000    0   0   0
W1      -0.007857941  -0.007848407   0.597868699
W1       0.515688285  -0.007842855   0.597868451
W1      -0.007858921   0.515708137   0.597868650
W1       0.500002671   0.499998676   0.586045430
O1       0.166663408   0.166668682   0.653293817
H1       0.166672373   0.166663160   0.692708223

     Writing output data file calc.save
     Check: negative starting charge=   -0.759377
     NEW-OLD atomic charge density approx. for the potential
     Check: negative starting charge=   -0.759073

[...]

     Self-consistent Calculation

[...]

     total energy              =   -1958.61710393 Ry
     Harris-Foulkes estimate   =   -1958.61710375 Ry
     estimated scf accuracy    <       0.00000011 Ry

     iteration #  8     ecut=    36.75 Ry     beta=0.30
     Davidson diagonalization with overlap
     ethr =  6.33E-11,  avg # of iterations =  3.4

[...]

     negative rho (up, down):  7.920E-01 0.000E+00

     Adding external electric field

     Computed dipole along edir(3) :
        Dipole                0.5130 Ry au,          1.3039 Debye
        Dipole field          0.0014 Ry au

        Potential amp.       -0.1245 Ry
        Total length         45.4439 bohr

     End of self-consistent calculation

[...]

          k = 0.0583-0.0674 0.0000 ( 17692 PWs)   bands (ev):

[...]

          k =-0.0875-0.0505 0.0000 ( 17668 PWs)   bands (ev):

   -71.2806 -71.2451 -71.2322 -71.0563 -70.9804 -70.9574 -70.9357 -70.9355
   -70.9324 -70.9077 -70.9074 -70.8286 -35.7801 -35.5573 -35.5546 -35.5039
   -35.4887 -35.4577 -35.4135 -35.3530 -35.3494 -35.3269 -35.3129 -35.2999
   -35.2463 -35.2269 -35.2140 -35.1208 -35.1019 -35.0826 -35.0102 -35.0023
   -34.9950 -34.9803 -34.9774 -34.9603 -34.9449 -34.9116 -34.9063 -34.8600
   -34.8526 -34.8226 -34.8060 -34.7278 -34.6832 -34.6452 -34.6439 -34.6257
   -18.9048  -7.1290  -3.7991  -3.3779  -3.0345  -2.8225  -1.5228  -1.3191
    -0.8910  -0.8148  -0.7168  -0.6987  -0.6541  -0.4536   0.0605   0.2141
     0.3350   0.4287   0.4734   0.6450   0.8589   1.0148   1.0274   1.0550
     1.2205   1.3268   1.5331   1.7438   1.7848   1.9225   2.0436   2.0934
     2.1370   2.1824   2.2860   2.5745   2.6864   2.7405   2.7677   2.9223
     3.1232   3.4091   3.6680   3.8556   3.9096   4.0926   4.2738   4.3471
     4.4531

     the Fermi energy is     3.2005 ev

!    total energy              =   -1958.61710395 Ry
     Harris-Foulkes estimate   =   -1958.61710338 Ry
     estimated scf accuracy    <       0.00000003 Ry

     The total energy is the sum of the following terms:

     one-electron contribution =  -15191.08698143 Ry
     hartree contribution      =    7585.27112164 Ry
     xc contribution           =    -518.78036011 Ry
     ewald contribution        =    6166.06946446 Ry
     electric field correction =       0.00070294 Ry
     smearing contrib. (-TS)   =      -0.09105145 Ry

     convergence has been achieved in   8 iterations

 BEEF-vdW xc energy contributions
           1 :   -456.280563786228
           2 :    421.884106819506
           3 :   -361.363382402527
           4 :    288.050755458329
           5 :   -215.775738977490
           6 :    154.862685102683
           7 :   -109.946130894644
           8 :    80.0857961496524
           9 :   -60.7692444960455
          10 :    46.6828480376473
          11 :   -34.0017840766991
          12 :    21.3787191348408
          13 :   -9.54482517773312
          14 :   6.898680977997174E-002
          15 :    5.92479893424832
          16 :   -8.46266199519118
          17 :    8.65136551835064
          18 :   -8.04570045151900
          19 :    7.87901319935486
          20 :   -8.57178926003633
          21 :    9.72666408825512
          22 :   -10.5425498936722
          23 :    10.3746399948513
          24 :   -9.12881506911197
          25 :    7.30188401301865
          26 :   -5.68671149293141
          27 :    4.93190176572386
          28 :   -5.20263727519705
          29 :    6.11777368425430
          30 :   -6.98210550805788
          31 :   -41.4330693153231
          32 :   -30.9810341717159

     Forces acting on atoms (Ry/au):

     negative rho (up, down):  7.920E-01 0.000E+00
     atom    1 type  1   force =     0.00000092   -0.00000040    0.00685378
     atom    2 type  1   force =    -0.00000055    0.00041199   -0.00775142
     atom    3 type  1   force =     0.00035640   -0.00020600   -0.00774991
     atom    4 type  1   force =    -0.00035675   -0.00020578   -0.00775157
     atom    5 type  1   force =     0.02211159   -0.01276605    0.00213592
     atom    6 type  1   force =    -0.02211231   -0.01276277    0.00213363
     atom    7 type  1   force =     0.00000363   -0.00000226    0.01473302
     atom    8 type  1   force =    -0.00000316    0.02553114    0.00213390
     atom    9 type  1   force =    -0.00145217   -0.00084121   -0.00181128
     atom   10 type  1   force =     0.00145554   -0.00084102   -0.00181720
     atom   11 type  1   force =     0.00000249    0.00167834   -0.00181034
     atom   12 type  1   force =    -0.00000452    0.00000318   -0.00003044
     atom   13 type  2   force =     0.00000018   -0.00000026    0.00064608
     atom   14 type  3   force =    -0.00000129    0.00000110    0.00008582

     Total force =     0.004330     Total SCF correction =     0.000308

     entering subroutine stress ...

     negative rho (up, down):  7.920E-01 0.000E+00
          total   stress  (Ry/bohr**3)                   (kbar)     P=  -43.58
  -0.00040889  -0.00000001  -0.00000000        -60.15     -0.00     -0.00
  -0.00000001  -0.00040890   0.00000000         -0.00    -60.15      0.00
  -0.00000000   0.00000000  -0.00007103         -0.00      0.00    -10.45

     bfgs converged in   9 scf cycles and   8 bfgs steps
     (criteria: energy <  1.0E+00, force <  1.9E-03)

     End of BFGS Geometry Optimization

     Final energy   =   -1958.6171039503 Ry
Begin final coordinates

ATOMIC_POSITIONS (crystal)
W1       0.166666667   0.166666667   0.405441099    0   0   0
W1       0.666666667   0.166666667   0.405441099    0   0   0
W1       0.166666667   0.666666667   0.405441099    0   0   0
W1       0.666666667   0.666666667   0.405441099    0   0   0
W1       0.833333333   0.333333333   0.500000000    0   0   0
W1       0.333333333   0.333333333   0.500000000    0   0   0
W1       0.833333333   0.833333333   0.500000000    0   0   0
W1       0.333333333   0.833333333   0.500000000    0   0   0
W1      -0.007857941  -0.007848407   0.597868699
W1       0.515688285  -0.007842855   0.597868451
W1      -0.007858921   0.515708137   0.597868650
W1       0.500002671   0.499998676   0.586045430
O1       0.166663408   0.166668682   0.653293817
H1       0.166672373   0.166663160   0.692708223
End final coordinates

     Writing output data file calc.save

     General routines

     Parallel routines

   This run was terminated on:  17: 5:38  24Apr2018

   JOB DONE.
Job  /afs/slac/g/suncat/bin/suncat-tsmpirun -x LD_LIBRARY_PATH -wdir /scratch/qe930861_BwEKk pw.x -npool 4 -in pw.inp

TID   HOST_NAME   COMMAND_LINE            STATUS            TERMINATION_TIME
00000 suncat0123 pw.x -npool 4 -i  Done                     04/24/2018 17:05:38
00001 suncat0123 pw.x -npool 4 -i  Done                     04/24/2018 17:05:38
00002 suncat0123 pw.x -npool 4 -i  Done                     04/24/2018 17:05:38
00003 suncat0123 pw.x -npool 4 -i  Done                     04/24/2018 17:05:38
00004 suncat0123 pw.x -npool 4 -i  Done                     04/24/2018 17:05:38
00005 suncat0123 pw.x -npool 4 -i  Done                     04/24/2018 17:05:38
00006 suncat0123 pw.x -npool 4 -i  Done                     04/24/2018 17:05:38
00007 suncat0123 pw.x -npool 4 -i  Done                     04/24/2018 17:05:38
00008 suncat0109 pw.x -npool 4 -i  Done                     04/24/2018 17:05:38
00009 suncat0109 pw.x -npool 4 -i  Done                     04/24/2018 17:05:38
00010 suncat0109 pw.x -npool 4 -i  Done                     04/24/2018 17:05:38
00011 suncat0109 pw.x -npool 4 -i  Done                     04/24/2018 17:05:38
00012 suncat0109 pw.x -npool 4 -i  Done                     04/24/2018 17:05:38
00013 suncat0109 pw.x -npool 4 -i  Done                     04/24/2018 17:05:38
00014 suncat0109 pw.x -npool 4 -i  Done                     04/24/2018 17:05:38
00015 suncat0109 pw.x -npool 4 -i  Done                     04/24/2018 17:05:38
00016 suncat0258 pw.x -npool 4 -i  Done                     04/24/2018 17:05:38
00017 suncat0258 pw.x -npool 4 -i  Done                     04/24/2018 17:05:38
00018 suncat0258 pw.x -npool 4 -i  Done                     04/24/2018 17:05:38
00019 suncat0258 pw.x -npool 4 -i  Done                     04/24/2018 17:05:38
00020 suncat0258 pw.x -npool 4 -i  Done                     04/24/2018 17:05:38
00021 suncat0258 pw.x -npool 4 -i  Done                     04/24/2018 17:05:38
00022 suncat0258 pw.x -npool 4 -i  Done                     04/24/2018 17:05:38
00023 suncat0258 pw.x -npool 4 -i  Done                     04/24/2018 17:05:38
00024 suncat0252 pw.x -npool 4 -i  Done                     04/24/2018 17:05:38
00025 suncat0252 pw.x -npool 4 -i  Done                     04/24/2018 17:05:38
00026 suncat0252 pw.x -npool 4 -i  Done                     04/24/2018 17:05:38
00027 suncat0252 pw.x -npool 4 -i  Done                     04/24/2018 17:05:38
00028 suncat0252 pw.x -npool 4 -i  Done                     04/24/2018 17:05:38
00029 suncat0252 pw.x -npool 4 -i  Done                     04/24/2018 17:05:38
00030 suncat0252 pw.x -npool 4 -i  Done                     04/24/2018 17:05:38
00031 suncat0252 pw.x -npool 4 -i  Done                     04/24/2018 17:05:38