     Program PWSCF v.5.1rc2 (svn rev. 11289) starts on 16Apr2018 at 22: 4:13

     Current dimensions of program PWSCF are:
     Max number of different atomic species (ntypx) = 10
     Max number of k-points (npk) =  40000
     Max angular momentum in pseudopotentials (lmaxx) =  3
     Presently stress not available with electric field

     IMPORTANT: XC functional enforced from input :
     Exchange-correlation      = BEEF-VDW ( 1  4 27 13 2)
     Any further DFT definition will be discarded
     Please, verify this is what you really want

     Subspace diagonalization in iterative solution of the eigenvalue problem:
     a serial algorithm will be used

     bravais-lattice index     =            0
     lattice parameter (alat)  =       1.8897  a.u.
     unit-cell volume          =    3724.3394 (a.u.)^3
     number of atoms/cell      =           14
     number of atomic types    =            3
     number of electrons       =       175.00
     number of Kohn-Sham states=           97
     kinetic-energy cutoff     =      36.7493  Ry
     charge density cutoff     =     367.4932  Ry
     convergence threshold     =      1.0E-05
     mixing beta               =       0.3000
     number of iterations used =           10  plain     mixing
     Exchange-correlation      = BEEF-VDW ( 1  4 27 13 2)
     nstep                     =           50

     celldm(1)=   1.889726  celldm(2)=   0.000000  celldm(3)=   0.000000
     celldm(4)=   0.000000  celldm(5)=   0.000000  celldm(6)=   0.000000

     crystal axes: (cart. coord. in units of alat)
               a(1) = (   5.132588   0.000000   0.000000 )
               a(2) = (   2.566294   4.444952   0.000000 )
               a(3) = (   0.000000   0.000000  24.190741 )

     reciprocal axes: (cart. coord. in units 2 pi/alat)
               b(1) = (  0.194833 -0.112487  0.000000 )
               b(2) = (  0.000000  0.224974  0.000000 )
               b(3) = (  0.000000  0.000000  0.041338 )

     PseudoPot. # 1 for Cr read from file:
     /u/if/mamunm/psp/gbrv1.5pbe/Cr.UPF
     MD5 check sum: 0d52af634a40206e4dee301ad30da4bf
     Pseudo is Ultrasoft + core correction, Zval = 14.0
     Generated by new atomic code, or converted to UPF format
     Using radial grid of  857 points,  6 beta functions with:
                l(1) =   0
                l(2) =   0
                l(3) =   1
                l(4) =   1
                l(5) =   2
                l(6) =   2
     Q(r) pseudized with  8 coefficients,  rinner =    0.950   0.950   0.950
                                                       0.950   0.950

     PseudoPot. # 2 for O  read from file:
     /u/if/mamunm/psp/gbrv1.5pbe/O.UPF
     MD5 check sum: 734c27235a0248c51dbae37a1fbe46ec
     Pseudo is Ultrasoft + core correction, Zval =  6.0
     Generated by new atomic code, or converted to UPF format
     Using radial grid of  737 points,  5 beta functions with:
                l(1) =   0
                l(2) =   0
                l(3) =   1
                l(4) =   1
                l(5) =   2
     Q(r) pseudized with  8 coefficients,  rinner =    0.900   0.900   0.900
                                                       0.900   0.900

     PseudoPot. # 3 for H  read from file:
     /u/if/mamunm/psp/gbrv1.5pbe/H.UPF
     MD5 check sum: 761ae9a214b05c3daf00ab9f6b793d6f
     Pseudo is Ultrasoft, Zval =  1.0
     Generated by new atomic code, or converted to UPF format
     Using radial grid of  615 points,  2 beta functions with:
                l(1) =   0
                l(2) =   0
     Q(r) pseudized with  8 coefficients,  rinner =    0.700

     vdW kernel table read from file vdW_kernel_table
     MD5 check sum: 095c7af220d748ca6e76c0b4c6cfb241

     atomic species   valence    mass     pseudopotential
        Cr1           14.00    51.99610     Cr( 1.00)
        O1             6.00    15.99900     O ( 1.00)
        H1             1.00     1.00800     H ( 1.00)

     No symmetry found

   Cartesian axes

     site n.     atom                  positions (alat units)
         1           Cr1 tau(   1) = (   1.2831471   0.7408253  10.0000000  )
         2           Cr1 tau(   2) = (   3.8494412   0.7408253  10.0000000  )
         3           Cr1 tau(   3) = (   2.5662941   2.9633012  10.0000000  )
         4           Cr1 tau(   4) = (   5.1325882   2.9633012  10.0000000  )
         5           Cr1 tau(   5) = (   5.1325882   1.4816506  12.0953704  )
         6           Cr1 tau(   6) = (   2.5662941   1.4816506  12.0953704  )
         7           Cr1 tau(   7) = (   6.4157353   3.7041265  12.0953704  )
         8           Cr1 tau(   8) = (   3.8494412   3.7041265  12.0953704  )
         9           Cr1 tau(   9) = (   0.0000000   0.0000000  14.1907408  )
        10           Cr1 tau(  10) = (   2.5662941   0.0000000  14.1907408  )
        11           Cr1 tau(  11) = (   1.2831471   2.2224759  14.1907408  )
        12           Cr1 tau(  12) = (   3.8494412   2.2224759  14.1907408  )
        13           O1  tau(  13) = (   0.0000000   0.0000000  15.9332408  )
        14           H1  tau(  14) = (   0.0000000   0.0000000  16.8832408  )

     number of k points=    20  Fermi-Dirac smearing, width (Ry)=  0.0110
                       cart. coord. in units 2pi/alat
        k(    1) = (   0.0000000   0.0000000   0.0000000), wk =   0.0555556
        k(    2) = (   0.0000000   0.0374957   0.0000000), wk =   0.1111111
        k(    3) = (   0.0000000   0.0749914   0.0000000), wk =   0.1111111
        k(    4) = (   0.0000000  -0.1124872   0.0000000), wk =   0.0555556
        k(    5) = (   0.0324722  -0.0187479   0.0000000), wk =   0.1111111
        k(    6) = (   0.0324722   0.0187479   0.0000000), wk =   0.1111111
        k(    7) = (   0.0324722   0.0562436   0.0000000), wk =   0.1111111
        k(    8) = (   0.0324722  -0.1312350   0.0000000), wk =   0.1111111
        k(    9) = (   0.0324722  -0.0937393   0.0000000), wk =   0.1111111
        k(   10) = (   0.0324722  -0.0562436   0.0000000), wk =   0.1111111
        k(   11) = (   0.0649445  -0.0374957   0.0000000), wk =   0.1111111
        k(   12) = (   0.0649445   0.0000000   0.0000000), wk =   0.1111111
        k(   13) = (   0.0649445   0.0374957   0.0000000), wk =   0.1111111
        k(   14) = (   0.0649445  -0.1499829   0.0000000), wk =   0.1111111
        k(   15) = (   0.0649445  -0.1124872   0.0000000), wk =   0.1111111
        k(   16) = (   0.0649445  -0.0749914   0.0000000), wk =   0.1111111
        k(   17) = (  -0.0974167   0.0562436   0.0000000), wk =   0.0555556
        k(   18) = (  -0.0974167   0.0937393   0.0000000), wk =   0.1111111
        k(   19) = (  -0.0974167   0.1312350   0.0000000), wk =   0.1111111
        k(   20) = (  -0.0974167  -0.0562436   0.0000000), wk =   0.0555556

     Largest allocated arrays     est. size (Mb)     dimensions
     Largest temporary arrays     est. size (Mb)     dimensions

     Check: negative/imaginary core charge=   -0.000004    0.000000

     Initial potential from superposition of free atoms
     Check: negative starting charge=   -0.014838

     starting charge  162.99980, renormalised to  175.00000

     negative rho (up, down):  1.593E-02 0.000E+00

     *
     * You are using vdW-DF for exchange-correlation in this calculation.
     * Please cite the following three references that made this development
     * possible:
     *
     *   M. Dion, H. Rydberg, E. Schroder, D. C. Langreth, and
     *   B. I. Lundqvist, Phys. Rev. Lett. 92, 246401 (2004).
     *
     *   T. Thonhauser, V. R. Cooper, S. Li, A. Puzder, P. Hyldgaard, and
     *   D. C. Langreth, Phys. Rev. B 76, 125112 (2007).
     *
     *   G. Roman-Perez and J. M. Soler, Phys. Rev. Lett. 103, 096102 (2009).
     *
     *
     * If you are using vdW-DF2, please also cite:
     *
     *   K. Lee, E. D. Murray, L. Kong, B. I. Lundqvist, and
     *   D. C. Langreth, Phys. Rev. B 82, 081101(R) (2010).
     *
     *
     * If you are calculating the stress with vdW-DF, please also cite:
     *
     *   R. Sabatini, E. Kucukbenli, B. Kolb, T. Thonhauser, and
     *   S. de Gironcoli, J. Phys.: Condens. Matter 24, 424209 (2012).
     *

     Carrying out vdW-DF run using the following parameters:

     Nqs =      20    Nr_points =    1024   r_max =   100.000
     q_mesh =
               0.00001000     0.04494208     0.09755937     0.15916263
               0.23128650     0.31572767     0.41458969     0.53033537
               0.66584808     0.82450364     1.01025438     1.22772762
               1.48234092     1.78043706     2.12944203     2.53805004
               3.01644009     3.57652955     4.23227104     5.00000000

     Gradients computed in reciprocal space

     Adding external electric field

     Computed dipole along edir(3) :
        Dipole               -3.8696 Ry au,         -9.8356 Debye
        Dipole field         -0.0131 Ry au

        Potential amp.        1.1639 Ry
        Total length         44.5710 bohr

     Starting wfc are  125 randomized atomic wfcs

     Self-consistent Calculation

     iteration #  1     ecut=    36.75 Ry     beta=0.30
     Davidson diagonalization with overlap
     ethr =  1.00E-02,  avg # of iterations =  8.8

[...]

     total energy              =   -1822.56740999 Ry
     Harris-Foulkes estimate   =   -2147.57549647 Ry
     estimated scf accuracy    <     677.31092625 Ry

[...]

     End of self-consistent calculation

          k = 0.0000 0.0000 0.0000 ( 14081 PWs)   bands (ev):

   -69.9465 -69.6739 -69.5621 -69.5356 -69.5321 -69.5312 -69.5134 -69.4480
   -69.4472 -69.4364 -69.4324 -69.4320 -41.6509 -41.3172 -41.3171 -41.2632
   -41.2630 -41.2507 -41.1847 -41.1164 -41.1056 -41.1054 -41.0756 -40.8951
   -40.8405 -40.8404 -40.8326 -40.8202 -40.8198 -40.7798 -40.7797 -40.7633
   -40.7225 -40.7184 -40.7182 -40.6768 -40.6765 -40.6424 -40.6279 -40.6016
   -40.6016 -40.5778 -40.5775 -40.5774 -40.5078 -40.5074 -40.4455 -40.4454
   -18.8375  -7.2018  -4.6171  -2.9349  -2.8845  -2.8844  -1.9302  -1.6070
    -1.5560  -1.5559  -1.3240  -1.3240  -1.2634  -0.8690  -0.8680  -0.8680
    -0.7748  -0.7747  -0.7606   0.1093   0.3057   0.3058   1.0761   1.1143
     1.1864   1.1865   1.3360   1.6047   1.6047   1.6521   1.7758   1.7758
     1.8545   1.8545   1.8840   1.8915   1.8917   1.9564   1.9564   2.1834
     2.5756   2.6828   2.8117   2.8118   2.9530   2.9720   2.9720   3.2259
     3.2259

[...]

          k =-0.0974 0.0562 0.0000 ( 14010 PWs)   bands (ev):

[...]

     the Fermi energy is     2.0402 ev

!    total energy              =   -2148.67620947 Ry
     Harris-Foulkes estimate   =   -2148.67626001 Ry
     estimated scf accuracy    <       0.00000711 Ry

     The total energy is the sum of the following terms:

     one-electron contribution =  -20062.67244523 Ry
     hartree contribution      =   10029.72572458 Ry
     xc contribution           =    -287.57632906 Ry
     ewald contribution        =    8171.98369955 Ry
     electric field correction =       0.00070303 Ry
     smearing contrib. (-TS)   =      -0.13756233 Ry

     convergence has been achieved in  53 iterations

 BEEF-vdW xc energy contributions
           1 :   -248.854951188736
           2 :    223.826446189914
           3 :   -182.116239080221
           4 :    136.327209231143
           5 :   -97.8055954762449
           6 :    72.5616491290792
           7 :   -60.2266077361341
           8 :    55.9690996080407
           9 :   -53.9274929535524
          10 :    50.2092097325182
          11 :   -44.1092263404282
          12 :    37.3630901852314
          13 :   -32.2942071388029
          14 :    30.1057193598491
          15 :   -30.2420994910795
          16 :    30.9697185070148
          17 :   -30.6075931306950
          18 :    28.5535713715869
          19 :   -25.5051099648719
          20 :    22.8320613720128
          21 :   -21.5916007667265
          22 :    21.8539618213237
          23 :   -22.7449624239162
          24 :    23.1006741412109
          25 :   -22.2464076297612
          26 :    20.3819239920350
          27 :   -18.3666348540139
          28 :    17.1043067822609
          29 :   -16.9596391423059
          30 :    17.5678346123825
          31 :   -24.6927326638881
          32 :   -17.6981694655883

     Forces acting on atoms (Ry/au):

     negative rho (up, down):  1.447E-02 0.000E+00
     atom    1 type  1   force =    -0.00023538   -0.00012776    0.00143639
     atom    2 type  1   force =     0.00023341   -0.00013497    0.00148017
     atom    3 type  1   force =    -0.00000924    0.00026197    0.00146620
     atom    4 type  1   force =     0.00000231    0.00000135   -0.00012707
     atom    5 type  1   force =     0.00001741    0.00056381    0.00233787
     atom    6 type  1   force =    -0.00000722    0.00000117    0.00624352
     atom    7 type  1   force =    -0.00048880   -0.00028369    0.00238735
     atom    8 type  1   force =     0.00049046   -0.00027952    0.00232384
     atom    9 type  1   force =    -0.00000698    0.00001716    0.00305027
     atom   10 type  1   force =     0.00000223    0.00074171   -0.02983981
     atom   11 type  1   force =     0.00064304   -0.00037411   -0.02983338
     atom   12 type  1   force =    -0.00065029   -0.00039280   -0.02982114
     atom   13 type  2   force =     0.00000570    0.00000294    0.02868039
     atom   14 type  3   force =     0.00000335    0.00000273    0.04021540

     Total force =     0.071558     Total SCF correction =     0.004001

     entering subroutine stress ...

     negative rho (up, down):  1.447E-02 0.000E+00
          total   stress  (Ry/bohr**3)                   (kbar)     P=  -19.32
  -0.00021965  -0.00000003  -0.00000001        -32.31     -0.00     -0.00
  -0.00000003  -0.00021957  -0.00000001         -0.00    -32.30     -0.00
  -0.00000001  -0.00000001   0.00004519         -0.00     -0.00      6.65

     BFGS Geometry Optimization

     number of scf cycles    =   1
     number of bfgs steps    =   0

     energy   new            =   -2148.6762094668 Ry

     new trust radius        =       0.0402154043 bohr
     new conv_thr            =       0.0000099958 Ry

ATOMIC_POSITIONS (crystal)
Cr1      0.166666667   0.166666667   0.413381306    0   0   0
Cr1      0.666666667   0.166666667   0.413381306    0   0   0
Cr1      0.166666667   0.666666667   0.413381306    0   0   0
Cr1      0.666666667   0.666666667   0.413381306    0   0   0
Cr1      0.833333333   0.333333333   0.500000000    0   0   0
Cr1      0.333333333   0.333333333   0.500000000    0   0   0
Cr1      0.833333333   0.833333333   0.500000000    0   0   0
Cr1      0.333333333   0.833333333   0.500000000    0   0   0
Cr1     -0.000001741   0.000002043   0.586685420
Cr1      0.499956079   0.000088302   0.585965943
Cr1      0.000088567   0.499955461   0.585966083
Cr1      0.499956336   0.499953236   0.585966351
O1       0.000000412   0.000000350   0.659277776
H1       0.000000184   0.000000324   0.698801331

     Writing output data file calc.save
     Check: negative starting charge=   -0.014838
     NEW-OLD atomic charge density approx. for the potential

     Check: negative/imaginary core charge=   -0.000004    0.000000
     Check: negative starting charge=   -0.014475

[...]

     energy   old            =   -2148.6762094668 Ry
     energy   new            =   -2148.6809564035 Ry

     CASE: energy  _new < energy  _old

     WARNING: bfgs curvature condition failed, Theta= 0.939
     new trust radius        =       0.0603231064 bohr
     new conv_thr            =       0.0000001000 Ry

[...]

     iteration #  1     ecut=    36.75 Ry     beta=0.30
     Davidson diagonalization with overlap
     c_bands:  1 eigenvalues not converged
     ethr =  1.00E-06,  avg # of iterations = 13.9

[...]

     Total force =     0.009855     Total SCF correction =     0.000668

[...]

     number of scf cycles    =  15
     number of bfgs steps    =  14

     energy   old            =   -2148.7421395883 Ry
     energy   new            =   -2148.7425800048 Ry

     CASE: energy  _new < energy  _old

     new trust radius        =       0.0092683447 bohr
     new conv_thr            =       0.0000001000 Ry

ATOMIC_POSITIONS (crystal)
Cr1      0.166666667   0.166666667   0.413381306    0   0   0
Cr1      0.666666667   0.166666667   0.413381306    0   0   0
Cr1      0.166666667   0.666666667   0.413381306    0   0   0
Cr1      0.666666667   0.666666667   0.413381306    0   0   0
Cr1      0.833333333   0.333333333   0.500000000    0   0   0
Cr1      0.333333333   0.333333333   0.500000000    0   0   0
Cr1      0.833333333   0.833333333   0.500000000    0   0   0
Cr1      0.333333333   0.833333333   0.500000000    0   0   0
Cr1      0.000013940  -0.000026819   0.604732480
Cr1      0.502591438  -0.005250994   0.577504249
Cr1     -0.005221574   0.502623938   0.577503359
Cr1      0.502636726   0.502578662   0.577499853
O1      -0.000002869   0.000007184   0.676861941
H1       0.000001946   0.000006386   0.716731389

     Writing output data file calc.save
     Check: negative starting charge=   -0.013488
     NEW-OLD atomic charge density approx. for the potential

     Check: negative/imaginary core charge=   -0.000004    0.000000
     Check: negative starting charge=   -0.013610

[...]

     Self-consistent Calculation

[...]

     total energy              =   -2148.74264677 Ry
     Harris-Foulkes estimate   =   -2148.74264669 Ry
     estimated scf accuracy    <       0.00000011 Ry

     iteration # 20     ecut=    36.75 Ry     beta=0.30
     Davidson diagonalization with overlap
     ethr =  6.12E-11,  avg # of iterations =  1.0

[...]

     negative rho (up, down):  1.352E-02 0.000E+00

     Adding external electric field

     Computed dipole along edir(3) :
        Dipole                0.4543 Ry au,          1.1547 Debye
        Dipole field          0.0015 Ry au

        Potential amp.       -0.1366 Ry
        Total length         44.5710 bohr

     End of self-consistent calculation

[...]

          k = 0.0649-0.0750 0.0000 ( 13990 PWs)   bands (ev):

[...]

          k =-0.0974-0.0562 0.0000 ( 14010 PWs)   bands (ev):

   -70.0609 -69.7221 -69.7048 -69.6430 -69.6218 -69.5950 -69.5866 -69.5408
   -69.5362 -69.5273 -69.5075 -69.4950 -41.7969 -41.3249 -41.3013 -41.2887
   -41.2381 -41.2258 -41.2112 -41.1612 -41.1544 -41.1280 -41.1101 -41.0782
   -41.0435 -41.0280 -40.9505 -40.9236 -40.8935 -40.8878 -40.8769 -40.8616
   -40.8495 -40.8233 -40.8143 -40.8106 -40.7926 -40.7879 -40.7510 -40.7476
   -40.6986 -40.6923 -40.6368 -40.6211 -40.6182 -40.6123 -40.5885 -40.5614
   -18.5481  -6.9362  -2.9252  -2.8618  -2.5371  -2.4314  -1.5867  -1.4563
    -1.1092  -0.9757  -0.9287  -0.8285  -0.8278  -0.6847  -0.3831  -0.3376
    -0.2096  -0.0957   0.0154   0.0705   0.2866   0.3270   0.4493   0.4592
     0.5666   0.6099   0.7630   0.9477   0.9948   1.1323   1.1826   1.2175
     1.2291   1.3433   1.3686   1.4003   1.4734   1.6304   1.6762   1.8227
     1.8296   2.0370   2.3190   2.4696   2.4870   2.5859   2.6733   2.7305
     2.8571

     the Fermi energy is     1.9603 ev

!    total energy              =   -2148.74264673 Ry
     Harris-Foulkes estimate   =   -2148.74264565 Ry
     estimated scf accuracy    <       0.00000005 Ry

     The total energy is the sum of the following terms:

     one-electron contribution =  -19982.83717508 Ry
     hartree contribution      =    9989.30564432 Ry
     xc contribution           =    -287.63507485 Ry
     ewald contribution        =    8132.53989077 Ry
     electric field correction =       0.00069639 Ry
     smearing contrib. (-TS)   =      -0.11662828 Ry

     convergence has been achieved in  20 iterations

 BEEF-vdW xc energy contributions
           1 :   -248.915862821853
           2 :    223.884531620835
           3 :   -182.188584719835
           4 :    136.402557525900
           5 :   -97.8232803431247
           6 :    72.4543425751090
           7 :   -59.9723754838840
           8 :    55.6150428095780
           9 :   -53.5688641163489
          10 :    49.9363768684166
          11 :   -43.9536324206548
          12 :    37.2711861695173
          13 :   -32.1463351946356
          14 :    29.7799417902341
          15 :   -29.6968932914625
          16 :    30.2888547555172
          17 :   -29.9625142447342
          18 :    28.1003422528446
          19 :   -25.2813857012851
          20 :    22.7248114971021
          21 :   -21.4068932332913
          22 :    21.4483293982092
          23 :   -22.1270651175948
          24 :    22.4307318547515
          25 :   -21.7300204749979
          26 :    20.1287624776050
          27 :   -18.3148635949232
          28 :    17.0631732586505
          29 :   -16.7344792366353
          30 :    17.0843192465362
          31 :   -24.6962481709746
          32 :   -17.6978639205222

     Forces acting on atoms (Ry/au):

     negative rho (up, down):  1.352E-02 0.000E+00
     atom    1 type  1   force =     0.00019022    0.00010952    0.00728279
     atom    2 type  1   force =    -0.00018859    0.00011129    0.00728452
     atom    3 type  1   force =    -0.00000080   -0.00021778    0.00728503
     atom    4 type  1   force =    -0.00000018    0.00000098   -0.00821070
     atom    5 type  1   force =     0.00000906   -0.02767740    0.00653859
     atom    6 type  1   force =    -0.00000169    0.00000102   -0.03224095
     atom    7 type  1   force =     0.02396304    0.01384411    0.00655025
     atom    8 type  1   force =    -0.02396418    0.01384388    0.00653646
     atom    9 type  1   force =    -0.00000347    0.00001576   -0.00105778
     atom   10 type  1   force =    -0.00000942    0.00073822   -0.00007000
     atom   11 type  1   force =     0.00064264   -0.00036182   -0.00007396
     atom   12 type  1   force =    -0.00063653   -0.00040369   -0.00006481
     atom   13 type  2   force =    -0.00000047   -0.00000352   -0.00152632
     atom   14 type  3   force =     0.00000036   -0.00000058    0.00176687

     Total force =     0.002871     Total SCF correction =     0.000504
     SCF correction compared to forces is large: reduce conv_thr to get better values

     entering subroutine stress ...

     negative rho (up, down):  1.352E-02 0.000E+00
          total   stress  (Ry/bohr**3)                   (kbar)     P=  -16.66
  -0.00015780   0.00000001  -0.00000001        -23.21      0.00     -0.00
   0.00000001  -0.00015783  -0.00000002          0.00    -23.22     -0.00
  -0.00000001  -0.00000002  -0.00002414         -0.00     -0.00     -3.55

     bfgs converged in  16 scf cycles and  15 bfgs steps
     (criteria: energy <  1.0E+00, force <  1.9E-03)

     End of BFGS Geometry Optimization

     Final energy   =   -2148.7426467311 Ry
Begin final coordinates

ATOMIC_POSITIONS (crystal)
Cr1      0.166666667   0.166666667   0.413381306    0   0   0
Cr1      0.666666667   0.166666667   0.413381306    0   0   0
Cr1      0.166666667   0.666666667   0.413381306    0   0   0
Cr1      0.666666667   0.666666667   0.413381306    0   0   0
Cr1      0.833333333   0.333333333   0.500000000    0   0   0
Cr1      0.333333333   0.333333333   0.500000000    0   0   0
Cr1      0.833333333   0.833333333   0.500000000    0   0   0
Cr1      0.333333333   0.833333333   0.500000000    0   0   0
Cr1      0.000013940  -0.000026819   0.604732480
Cr1      0.502591438  -0.005250994   0.577504249
Cr1     -0.005221574   0.502623938   0.577503359
Cr1      0.502636726   0.502578662   0.577499853
O1      -0.000002869   0.000007184   0.676861941
H1       0.000001946   0.000006386   0.716731389
End final coordinates

     Writing output data file calc.save

     General routines

     Parallel routines

   This run was terminated on:   0:54:39  17Apr2018

   JOB DONE.
Job  /afs/slac/g/suncat/bin/suncat-tsmpirun -x LD_LIBRARY_PATH -wdir /scratch/qe152065_B24T7 pw.x -npool 4 -in pw.inp

TID   HOST_NAME   COMMAND_LINE            STATUS            TERMINATION_TIME
00000 suncat0028 pw.x -npool 4 -i  Done                     04/17/2018 00:54:39
00001 suncat0028 pw.x -npool 4 -i  Done                     04/17/2018 00:54:39
00002 suncat0028 pw.x -npool 4 -i  Done                     04/17/2018 00:54:39
00003 suncat0028 pw.x -npool 4 -i  Done                     04/17/2018 00:54:39
00004 suncat0028 pw.x -npool 4 -i  Done                     04/17/2018 00:54:39
00005 suncat0028 pw.x -npool 4 -i  Done                     04/17/2018 00:54:39
00006 suncat0028 pw.x -npool 4 -i  Done                     04/17/2018 00:54:39
00007 suncat0028 pw.x -npool 4 -i  Done                     04/17/2018 00:54:39
00008 suncat0026 pw.x -npool 4 -i  Done                     04/17/2018 00:54:39
00009 suncat0026 pw.x -npool 4 -i  Done                     04/17/2018 00:54:39
00010 suncat0026 pw.x -npool 4 -i  Done                     04/17/2018 00:54:39
00011 suncat0026 pw.x -npool 4 -i  Done                     04/17/2018 00:54:39
00012 suncat0026 pw.x -npool 4 -i  Done                     04/17/2018 00:54:39
00013 suncat0026 pw.x -npool 4 -i  Done                     04/17/2018 00:54:39
00014 suncat0026 pw.x -npool 4 -i  Done                     04/17/2018 00:54:39
00015 suncat0026 pw.x -npool 4 -i  Done                     04/17/2018 00:54:39
00016 suncat0022 pw.x -npool 4 -i  Done                     04/17/2018 00:54:39
00017 suncat0022 pw.x -npool 4 -i  Done                     04/17/2018 00:54:39
00018 suncat0022 pw.x -npool 4 -i  Done                     04/17/2018 00:54:39
00019 suncat0022 pw.x -npool 4 -i  Done                     04/17/2018 00:54:39
00020 suncat0022 pw.x -npool 4 -i  Done                     04/17/2018 00:54:39
00021 suncat0022 pw.x -npool 4 -i  Done                     04/17/2018 00:54:39
00022 suncat0022 pw.x -npool 4 -i  Done                     04/17/2018 00:54:39
00023 suncat0022 pw.x -npool 4 -i  Done                     04/17/2018 00:54:39
00024 suncat0172 pw.x -npool 4 -i  Done                     04/17/2018 00:54:39
00025 suncat0172 pw.x -npool 4 -i  Done                     04/17/2018 00:54:39
00026 suncat0172 pw.x -npool 4 -i  Done                     04/17/2018 00:54:39
00027 suncat0172 pw.x -npool 4 -i  Done                     04/17/2018 00:54:39
00028 suncat0172 pw.x -npool 4 -i  Done                     04/17/2018 00:54:39
00029 suncat0172 pw.x -npool 4 -i  Done                     04/17/2018 00:54:39
00030 suncat0172 pw.x -npool 4 -i  Done                     04/17/2018 00:54:39
00031 suncat0172 pw.x -npool 4 -i  Done                     04/17/2018 00:54:39