     Program PWSCF v.5.1rc2 (svn rev. 11289) starts on 21Apr2018 at 13: 1:32

     Current dimensions of program PWSCF are:
     Max number of different atomic species (ntypx) = 10
     Max number of k-points (npk) =  40000
     Max angular momentum in pseudopotentials (lmaxx) =  3
     Presently stress not available with electric field

     IMPORTANT: XC functional enforced from input :
     Exchange-correlation      = BEEF-VDW ( 1  4 27 13 2)
     Any further DFT definition will be discarded
     Please, verify this is what you really want

     Subspace diagonalization in iterative solution of the eigenvalue problem:
     a serial algorithm will be used

     bravais-lattice index     =            0
     lattice parameter (alat)  =       1.8897  a.u.
     unit-cell volume          =    7171.5276 (a.u.)^3
     number of atoms/cell      =           14
     number of atomic types    =            3
     number of electrons       =       175.00
     number of Kohn-Sham states=           97
     kinetic-energy cutoff     =      36.7493  Ry
     charge density cutoff     =     367.4932  Ry
     convergence threshold     =      1.0E-05
     mixing beta               =       0.3000
     number of iterations used =           10  plain     mixing
     Exchange-correlation      = BEEF-VDW ( 1  4 27 13 2)
     nstep                     =           50

     celldm(1)=   1.889726  celldm(2)=   0.000000  celldm(3)=   0.000000
     celldm(4)=   0.000000  celldm(5)=   0.000000  celldm(6)=   0.000000

     crystal axes: (cart. coord. in units of alat)
               a(1) = (   6.917003   0.000000   0.000000 )
               a(2) = (   3.458501   5.990300   0.000000 )
               a(3) = (   0.000000   0.000000  25.647709 )

     reciprocal axes: (cart. coord. in units 2 pi/alat)
               b(1) = (  0.144571 -0.083468  0.000000 )
               b(2) = (  0.000000  0.166937  0.000000 )
               b(3) = (  0.000000  0.000000  0.038990 )

     PseudoPot. # 1 for Pb read from file:
     /u/if/mamunm/psp/gbrv1.5pbe/Pb.UPF
     MD5 check sum: 3d1c1779aa92214d1e8f3a7db79003e2
     Pseudo is Ultrasoft + core correction, Zval = 14.0
     Generated by new atomic code, or converted to UPF format
     Using radial grid of  899 points,  6 beta functions with:
                l(1) =   0
                l(2) =   0
                l(3) =   1
                l(4) =   1
                l(5) =   2
                l(6) =   2
     Q(r) pseudized with  6 coefficients,  rinner =    1.000   1.000   1.000
                                                       1.000   1.000

     PseudoPot. # 2 for O  read from file:
     /u/if/mamunm/psp/gbrv1.5pbe/O.UPF
     MD5 check sum: 734c27235a0248c51dbae37a1fbe46ec
     Pseudo is Ultrasoft + core correction, Zval =  6.0
     Generated by new atomic code, or converted to UPF format
     Using radial grid of  737 points,  5 beta functions with:
                l(1) =   0
                l(2) =   0
                l(3) =   1
                l(4) =   1
                l(5) =   2
     Q(r) pseudized with  8 coefficients,  rinner =    0.900   0.900   0.900
                                                       0.900   0.900

     PseudoPot. # 3 for H  read from file:
     /u/if/mamunm/psp/gbrv1.5pbe/H.UPF
     MD5 check sum: 761ae9a214b05c3daf00ab9f6b793d6f
     Pseudo is Ultrasoft, Zval =  1.0
     Generated by new atomic code, or converted to UPF format
     Using radial grid of  615 points,  2 beta functions with:
                l(1) =   0
                l(2) =   0
     Q(r) pseudized with  8 coefficients,  rinner =    0.700

     vdW kernel table read from file vdW_kernel_table
     MD5 check sum: 095c7af220d748ca6e76c0b4c6cfb241

     atomic species   valence    mass     pseudopotential
        Pb1           14.00   207.20000     Pb( 1.00)
        O1             6.00    15.99900     O ( 1.00)
        H1             1.00     1.00800     H ( 1.00)

     No symmetry found

   Cartesian axes

     site n.     atom                  positions (alat units)
         1           Pb1 tau(   1) = (   1.7292506   0.9983833  10.0000000  )
         2           Pb1 tau(   2) = (   5.1877519   0.9983833  10.0000000  )
         3           Pb1 tau(   3) = (   3.4585013   3.9935333  10.0000000  )
         4           Pb1 tau(   4) = (   6.9170025   3.9935333  10.0000000  )
         5           Pb1 tau(   5) = (   6.9170025   1.9967666  12.8238544  )
         6           Pb1 tau(   6) = (   3.4585013   1.9967666  12.8238544  )
         7           Pb1 tau(   7) = (   8.6462531   4.9919166  12.8238544  )
         8           Pb1 tau(   8) = (   5.1877519   4.9919166  12.8238544  )
         9           Pb1 tau(   9) = (   0.0000000   0.0000000  15.6477089  )
        10           Pb1 tau(  10) = (   3.4585013   0.0000000  15.6477089  )
        11           Pb1 tau(  11) = (   1.7292506   2.9951499  15.6477089  )
        12           Pb1 tau(  12) = (   5.1877519   2.9951499  15.6477089  )
        13           O1  tau(  13) = (   3.4585013   1.9967666  17.0257089  )
        14           H1  tau(  14) = (   3.4585013   1.9967666  17.9757089  )

     number of k points=    20  Fermi-Dirac smearing, width (Ry)=  0.0110
                       cart. coord. in units 2pi/alat
        k(    1) = (   0.0000000   0.0000000   0.0000000), wk =   0.0555556
        k(    2) = (   0.0000000   0.0278228   0.0000000), wk =   0.1111111
        k(    3) = (   0.0000000   0.0556455   0.0000000), wk =   0.1111111
        k(    4) = (   0.0000000  -0.0834683   0.0000000), wk =   0.0555556
        k(    5) = (   0.0240952  -0.0139114   0.0000000), wk =   0.1111111
        k(    6) = (   0.0240952   0.0139114   0.0000000), wk =   0.1111111
        k(    7) = (   0.0240952   0.0417341   0.0000000), wk =   0.1111111
        k(    8) = (   0.0240952  -0.0973797   0.0000000), wk =   0.1111111
        k(    9) = (   0.0240952  -0.0695569   0.0000000), wk =   0.1111111
        k(   10) = (   0.0240952  -0.0417341   0.0000000), wk =   0.1111111
        k(   11) = (   0.0481904  -0.0278228   0.0000000), wk =   0.1111111
        k(   12) = (   0.0481904   0.0000000   0.0000000), wk =   0.1111111
        k(   13) = (   0.0481904   0.0278228   0.0000000), wk =   0.1111111
        k(   14) = (   0.0481904  -0.1112910   0.0000000), wk =   0.1111111
        k(   15) = (   0.0481904  -0.0834683   0.0000000), wk =   0.1111111
        k(   16) = (   0.0481904  -0.0556455   0.0000000), wk =   0.1111111
        k(   17) = (  -0.0722856   0.0417341   0.0000000), wk =   0.0555556
        k(   18) = (  -0.0722856   0.0695569   0.0000000), wk =   0.1111111
        k(   19) = (  -0.0722856   0.0973797   0.0000000), wk =   0.1111111
        k(   20) = (  -0.0722856  -0.0417341   0.0000000), wk =   0.0555556

     Largest allocated arrays     est. size (Mb)     dimensions
     Largest temporary arrays     est. size (Mb)     dimensions

     Check: negative/imaginary core charge=   -0.000001    0.000000

     Initial potential from superposition of free atoms
     Check: negative starting charge=   -0.198086

     starting charge  174.97177, renormalised to  175.00000

     negative rho (up, down):  1.981E-01 0.000E+00

     *
     * You are using vdW-DF for exchange-correlation in this calculation.
     * Please cite the following three references that made this development
     * possible:
     *
     *   M. Dion, H. Rydberg, E. Schroder, D. C. Langreth, and
     *   B. I. Lundqvist, Phys. Rev. Lett. 92, 246401 (2004).
     *
     *   T. Thonhauser, V. R. Cooper, S. Li, A. Puzder, P. Hyldgaard, and
     *   D. C. Langreth, Phys. Rev. B 76, 125112 (2007).
     *
     *   G. Roman-Perez and J. M. Soler, Phys. Rev. Lett. 103, 096102 (2009).
     *
     *
     * If you are using vdW-DF2, please also cite:
     *
     *   K. Lee, E. D. Murray, L. Kong, B. I. Lundqvist, and
     *   D. C. Langreth, Phys. Rev. B 82, 081101(R) (2010).
     *
     *
     * If you are calculating the stress with vdW-DF, please also cite:
     *
     *   R. Sabatini, E. Kucukbenli, B. Kolb, T. Thonhauser, and
     *   S. de Gironcoli, J. Phys.: Condens. Matter 24, 424209 (2012).
     *

     Carrying out vdW-DF run using the following parameters:

     Nqs =      20    Nr_points =    1024   r_max =   100.000
     q_mesh =
               0.00001000     0.04494208     0.09755937     0.15916263
               0.23128650     0.31572767     0.41458969     0.53033537
               0.66584808     0.82450364     1.01025438     1.22772762
               1.48234092     1.78043706     2.12944203     2.53805004
               3.01644009     3.57652955     4.23227104     5.00000000

     Gradients computed in reciprocal space

     Adding external electric field

     Computed dipole along edir(3) :
        Dipole               -0.0092 Ry au,         -0.0233 Debye
        Dipole field         -0.0000 Ry au

        Potential amp.        0.0015 Ry
        Total length         47.2555 bohr

     Starting wfc are  113 randomized atomic wfcs

     Self-consistent Calculation

     iteration #  1     ecut=    36.75 Ry     beta=0.30
     Davidson diagonalization with overlap
     ethr =  1.00E-02,  avg # of iterations =  2.0

     Threshold (ethr) on eigenvalues was too large:
     Diagonalizing with lowered threshold

     Davidson diagonalization with overlap
     ethr =  5.10E-04,  avg # of iterations =  2.0

[...]

     total energy              =   -2025.81376632 Ry
     Harris-Foulkes estimate   =   -2026.21082249 Ry
     estimated scf accuracy    <       0.90815421 Ry

[...]

     End of self-consistent calculation

          k = 0.0000 0.0000 0.0000 ( 27033 PWs)   bands (ev):

   -19.1938 -16.2172 -16.2049 -16.2049 -16.1308 -16.1298 -16.1298 -16.1148
   -16.0975 -16.0975 -16.0778 -16.0777 -16.0570 -16.0550 -16.0369 -16.0364
   -16.0364 -16.0191 -16.0177 -16.0177 -16.0111 -16.0111 -16.0022 -16.0022
   -15.9983 -15.9983 -15.9937 -15.9800 -15.9695 -15.9553 -15.9553 -15.9265
   -15.9225 -15.9225 -15.8961 -15.8961 -15.8666 -15.8666 -15.8518 -15.8518
   -15.8475 -15.8183 -15.7909 -15.7909 -15.7735 -15.7647 -15.7647 -15.7514
   -15.7494 -15.7494 -15.7446 -15.7402 -15.7402 -15.7339 -15.7339 -15.7145
   -15.7145 -15.6973 -15.6842 -15.6697 -15.6697 -10.1326  -9.1064  -7.6971
    -6.7841  -6.6728  -6.6728  -6.3241  -6.3230  -6.3230  -5.7385  -5.6394
    -5.6394  -5.3910  -2.7158  -2.7158  -2.2738  -2.2738  -2.0795  -1.6958
    -1.2106  -1.1457  -1.1457  -0.7277  -0.7277  -0.2359   1.0257   2.5935
     2.5935   2.6325   2.9287   2.9287   3.1126   3.3915   4.0153   4.0922
     4.0922

[...]

          k =-0.0723 0.0417 0.0000 ( 26962 PWs)   bands (ev):

[...]

     the Fermi energy is     1.4748 ev

!    total energy              =   -2025.98801576 Ry
     Harris-Foulkes estimate   =   -2025.98802886 Ry
     estimated scf accuracy    <       0.00000161 Ry

     The total energy is the sum of the following terms:

     one-electron contribution =   -9786.13599369 Ry
     hartree contribution      =    4967.22241779 Ry
     xc contribution           =    -792.37250510 Ry
     ewald contribution        =    3585.34157434 Ry
     electric field correction =       0.00007769 Ry
     smearing contrib. (-TS)   =      -0.04358679 Ry

     convergence has been achieved in  10 iterations

 BEEF-vdW xc energy contributions
           1 :   -706.075717557566
           2 :    655.561800998272
           3 :   -566.708218398479
           4 :    459.081421813551
           5 :   -352.769075411365
           6 :    262.383094999925
           7 :   -193.952169495290
           8 :    145.382136966929
           9 :   -109.775571498311
          10 :    79.8154537076093
          11 :   -51.1913366652967
          12 :    23.7416522851498
          13 :  -0.246521950096962
          14 :   -16.0733237174742
          15 :    23.8362481386815
          16 :   -24.4104286832236
          17 :    21.1875295679035
          18 :   -17.8424312950814
          19 :    16.6328006531932
          20 :   -17.6353440537680
          21 :    19.2163069876375
          22 :   -19.3465116011370
          23 :    16.9497938420126
          24 :   -12.5408827695042
          25 :    7.87095161552202
          26 :   -4.87496961923273
          27 :    4.57333745816379
          28 :   -6.55171566117531
          29 :    9.26762200022245
          30 :   -10.9581785745119
          31 :   -56.6616976903316
          32 :   -41.4977916813459

     Forces acting on atoms (Ry/au):

     negative rho (up, down):  2.143E-01 0.000E+00
     atom    1 type  1   force =     0.00030277    0.00016780   -0.00766310
     atom    2 type  1   force =    -0.00029061    0.00017561   -0.00768401
     atom    3 type  1   force =     0.00000193   -0.00034954   -0.00767193
     atom    4 type  1   force =     0.00000185    0.00000051   -0.00541102
     atom    5 type  1   force =     0.00000162   -0.00107491   -0.00830777
     atom    6 type  1   force =    -0.00000063    0.00000443    0.00203993
     atom    7 type  1   force =     0.00092264    0.00053505   -0.00831915
     atom    8 type  1   force =    -0.00092034    0.00052785   -0.00830825
     atom    9 type  1   force =    -0.00000513    0.00000433    0.00546001
     atom   10 type  1   force =     0.00000665   -0.01837667   -0.00052126
     atom   11 type  1   force =    -0.01591597    0.00919681   -0.00051716
     atom   12 type  1   force =     0.01589531    0.00918031   -0.00052009
     atom   13 type  2   force =    -0.00000037    0.00000481   -0.01320346
     atom   14 type  3   force =     0.00000027    0.00000361    0.06062725

     Total force =     0.069951     Total SCF correction =     0.004178

     entering subroutine stress ...

     negative rho (up, down):  2.143E-01 0.000E+00
          total   stress  (Ry/bohr**3)                   (kbar)     P=   14.73
   0.00010364   0.00000000   0.00000000         15.25      0.00      0.00
   0.00000000   0.00010364  -0.00000000          0.00     15.25     -0.00
   0.00000000  -0.00000000   0.00009311          0.00     -0.00     13.70

     BFGS Geometry Optimization

     number of scf cycles    =   1
     number of bfgs steps    =   0

     energy   new            =   -2025.9880157593 Ry

     new trust radius        =       0.0606272500 bohr
     new conv_thr            =       0.0000099958 Ry

ATOMIC_POSITIONS (crystal)
Pb1      0.166666667   0.166666667   0.389898374    0   0   0
Pb1      0.666666667   0.166666667   0.389898374    0   0   0
Pb1      0.166666667   0.666666667   0.389898374    0   0   0
Pb1      0.666666667   0.666666667   0.389898374    0   0   0
Pb1      0.833333333   0.333333333   0.500000000    0   0   0
Pb1      0.333333333   0.333333333   0.500000000    0   0   0
Pb1      0.833333333   0.833333333   0.500000000    0   0   0
Pb1      0.333333333   0.833333333   0.500000000    0   0   0
Pb1     -0.000000584   0.000000383   0.610214280
Pb1      0.500812197  -0.001623377   0.610090871
Pb1     -0.001623851   0.500812437   0.610090956
Pb1      0.500810563   0.500810980   0.610090895
O1       0.333333092   0.333333758   0.663557201
H1       0.333333194   0.333333653   0.702120861

     Writing output data file calc.save
     Check: negative starting charge=   -0.198086
     NEW-OLD atomic charge density approx. for the potential

     Check: negative/imaginary core charge=   -0.000001    0.000000
     Check: negative starting charge=   -0.197768

[...]

     energy   old            =   -2025.9880157593 Ry
     energy   new            =   -2025.9897864144 Ry

     CASE: energy  _new < energy  _old

[...]

     Total force =     0.027003     Total SCF correction =     0.002187

[...]

     Total force =     0.016957     Total SCF correction =     0.001724
     SCF correction compared to forces is large: reduce conv_thr to get better values

[...]

     WARNING: bfgs curvature condition failed, Theta= 0.736
     new trust radius        =       0.0247766916 bohr
     new conv_thr            =       0.0000001000 Ry

[...]

     WARNING: info= 42 for Hessian
     new trust radius        =       0.0371650374 bohr
     new conv_thr            =       0.0000001000 Ry

[...]

     CASE: energy  _new > energy  _old

[...]

     Threshold (ethr) on eigenvalues was too large:
     Diagonalizing with lowered threshold

     Davidson diagonalization with overlap
     ethr =  6.97E-08,  avg # of iterations =  1.4

[...]

     CASE: energy  _new < energy  _old

     WARNING: info= 42 for Hessian
     new trust radius        =       0.0511242258 bohr
     new conv_thr            =       0.0000001000 Ry

[...]

     number of scf cycles    =  27
     number of bfgs steps    =  25

     energy   old            =   -2026.0135521852 Ry
     energy   new            =   -2026.0135087665 Ry

     CASE: energy  _new > energy  _old

     new trust radius        =       0.0184369426 bohr
     new conv_thr            =       0.0000001000 Ry

ATOMIC_POSITIONS (crystal)
Pb1      0.166666667   0.166666667   0.389898374    0   0   0
Pb1      0.666666667   0.166666667   0.389898374    0   0   0
Pb1      0.166666667   0.666666667   0.389898374    0   0   0
Pb1      0.666666667   0.666666667   0.389898374    0   0   0
Pb1      0.833333333   0.333333333   0.500000000    0   0   0
Pb1      0.333333333   0.333333333   0.500000000    0   0   0
Pb1      0.833333333   0.833333333   0.500000000    0   0   0
Pb1      0.333333333   0.833333333   0.500000000    0   0   0
Pb1     -0.000002585   0.000000722   0.614311318
Pb1      0.500511588  -0.001018906   0.624921592
Pb1     -0.001028806   0.500515720   0.624922747
Pb1      0.500509688   0.500508744   0.624921398
O1       0.333332667   0.333337095   0.688376402
H1       0.333330230   0.333335498   0.726463288

     Writing output data file calc.save
     Check: negative starting charge=   -0.194132
     NEW-OLD atomic charge density approx. for the potential

     Check: negative/imaginary core charge=   -0.000001    0.000000
     Check: negative starting charge=   -0.192964

[...]

     Self-consistent Calculation

[...]

     total energy              =   -2026.01355295 Ry
     Harris-Foulkes estimate   =   -2026.01355686 Ry
     estimated scf accuracy    <       0.00000035 Ry

     iteration #  8     ecut=    36.75 Ry     beta=0.30
     Davidson diagonalization with overlap
     ethr =  2.01E-10,  avg # of iterations =  5.0

[...]

     negative rho (up, down):  2.089E-01 0.000E+00

     Adding external electric field

     Computed dipole along edir(3) :
        Dipole                0.0937 Ry au,          0.2380 Debye
        Dipole field          0.0002 Ry au

        Potential amp.       -0.0155 Ry
        Total length         47.2555 bohr

     End of self-consistent calculation

[...]

          k = 0.0482-0.0556 0.0000 ( 26956 PWs)   bands (ev):

[...]

          k =-0.0723-0.0417 0.0000 ( 26962 PWs)   bands (ev):

   -18.2137 -16.2675 -16.2004 -16.1932 -16.1914 -16.1792 -16.1597 -16.1592
   -16.1501 -16.1498 -16.1445 -16.1355 -16.1311 -16.1287 -16.1238 -16.1195
   -16.1164 -16.1153 -16.1130 -16.1110 -16.0975 -16.0939 -16.0819 -16.0789
   -16.0738 -16.0704 -16.0683 -16.0632 -16.0628 -16.0529 -16.0512 -16.0327
   -16.0297 -16.0195 -16.0158 -16.0027 -15.9995 -15.9959 -15.9937 -15.9793
   -15.9765 -15.9684 -15.9675 -15.9510 -15.9484 -15.9342 -15.9271 -15.9250
   -15.9204 -15.9196 -15.9171 -15.9150 -15.9124 -15.9090 -15.8828 -15.8800
   -15.8743 -15.8724 -15.8565 -15.8186 -15.8152  -8.9586  -8.9213  -8.1375
    -8.0325  -7.0647  -6.9762  -6.9538  -6.8788  -6.3842  -6.3788  -5.6294
    -5.6190  -4.8971  -2.2306  -1.8803  -0.6706  -0.6206  -0.5840  -0.4997
    -0.4258  -0.3100   0.1350   0.4958   0.8708   1.0899   1.1548   1.3775
     1.9477   2.0580   2.0953   2.2477   2.5083   2.5924   2.6255   2.7888
     2.8015

     the Fermi energy is     1.3588 ev

!    total energy              =   -2026.01354921 Ry
     Harris-Foulkes estimate   =   -2026.01355308 Ry
     estimated scf accuracy    <       0.00000006 Ry

     The total energy is the sum of the following terms:

     one-electron contribution =   -9258.49828289 Ry
     hartree contribution      =    4702.94940278 Ry
     xc contribution           =    -792.07353532 Ry
     ewald contribution        =    3321.65074654 Ry
     electric field correction =       0.00001537 Ry
     smearing contrib. (-TS)   =      -0.04189569 Ry

     convergence has been achieved in   8 iterations

 BEEF-vdW xc energy contributions
           1 :   -705.760172475234
           2 :    655.074014679810
           3 :   -566.032565964495
           4 :    458.385748762126
           5 :   -352.299927846667
           6 :    262.305939826661
           7 :   -194.233557490393
           8 :    145.792000635209
           9 :   -110.013050199043
          10 :    79.6838102400129
          11 :   -50.7158782628394
          12 :    23.1570656245026
          13 :   0.140418110410337
          14 :   -16.0641217232907
          15 :    23.4575706827306
          16 :   -23.8975261052095
          17 :    20.8439728030839
          18 :   -17.8612323653873
          19 :    16.9856313998480
          20 :   -18.0937677310591
          21 :    19.4905945297904
          22 :   -19.2584131525132
          23 :    16.5370008832435
          24 :   -12.0325665260880
          25 :    7.55040875242480
          26 :   -4.91248832569318
          27 :    4.92830507036513
          28 :   -7.00000275998218
          29 :    9.53582739438787
          30 :   -10.8839814997798
          31 :   -56.6355312170506
          32 :   -41.4299382710221

     Forces acting on atoms (Ry/au):

     negative rho (up, down):  2.089E-01 0.000E+00
     atom    1 type  1   force =     0.00096795    0.00055847   -0.00697398
     atom    2 type  1   force =    -0.00096803    0.00055911   -0.00697437
     atom    3 type  1   force =     0.00000033   -0.00111794   -0.00697395
     atom    4 type  1   force =    -0.00000028   -0.00000004   -0.00436085
     atom    5 type  1   force =     0.00000024    0.00174725    0.00635098
     atom    6 type  1   force =    -0.00000027    0.00000022    0.01165929
     atom    7 type  1   force =    -0.00151346   -0.00087380    0.00635078
     atom    8 type  1   force =     0.00151333   -0.00087347    0.00635024
     atom    9 type  1   force =     0.00000161    0.00000021   -0.00004581
     atom   10 type  1   force =    -0.00000307    0.00180171   -0.00147223
     atom   11 type  1   force =     0.00156265   -0.00090317   -0.00147269
     atom   12 type  1   force =    -0.00155975   -0.00089819   -0.00147220
     atom   13 type  2   force =    -0.00000265   -0.00000057   -0.00050064
     atom   14 type  3   force =     0.00000139    0.00000021   -0.00046457

     Total force =     0.004088     Total SCF correction =     0.001824
     SCF correction compared to forces is large: reduce conv_thr to get better values

     entering subroutine stress ...

     negative rho (up, down):  2.089E-01 0.000E+00
          total   stress  (Ry/bohr**3)                   (kbar)     P=    6.35
   0.00005779  -0.00000000  -0.00000000          8.50     -0.00     -0.00
  -0.00000000   0.00005779  -0.00000000         -0.00      8.50     -0.00
  -0.00000000  -0.00000000   0.00001397         -0.00     -0.00      2.05

     bfgs converged in  28 scf cycles and  25 bfgs steps
     (criteria: energy <  1.0E+00, force <  1.9E-03)

     End of BFGS Geometry Optimization

     Final energy   =   -2026.0135492133 Ry
Begin final coordinates

ATOMIC_POSITIONS (crystal)
Pb1      0.166666667   0.166666667   0.389898374    0   0   0
Pb1      0.666666667   0.166666667   0.389898374    0   0   0
Pb1      0.166666667   0.666666667   0.389898374    0   0   0
Pb1      0.666666667   0.666666667   0.389898374    0   0   0
Pb1      0.833333333   0.333333333   0.500000000    0   0   0
Pb1      0.333333333   0.333333333   0.500000000    0   0   0
Pb1      0.833333333   0.833333333   0.500000000    0   0   0
Pb1      0.333333333   0.833333333   0.500000000    0   0   0
Pb1     -0.000002585   0.000000722   0.614311318
Pb1      0.500511588  -0.001018906   0.624921592
Pb1     -0.001028806   0.500515720   0.624922747
Pb1      0.500509688   0.500508744   0.624921398
O1       0.333332667   0.333337095   0.688376402
H1       0.333330230   0.333335498   0.726463288
End final coordinates

     Writing output data file calc.save

     General routines

     Parallel routines

   This run was terminated on:  16:59:16  21Apr2018

   JOB DONE.
Job  /afs/slac/g/suncat/bin/suncat-tsmpirun -x LD_LIBRARY_PATH -wdir /scratch/qe294397_HWwfp pw.x -npool 4 -in pw.inp

TID   HOST_NAME   COMMAND_LINE            STATUS            TERMINATION_TIME
00000 suncat0135 pw.x -npool 4 -i  Done                     04/21/2018 16:59:16
00001 suncat0135 pw.x -npool 4 -i  Done                     04/21/2018 16:59:16
00002 suncat0135 pw.x -npool 4 -i  Done                     04/21/2018 16:59:16
00003 suncat0135 pw.x -npool 4 -i  Done                     04/21/2018 16:59:16
00004 suncat0135 pw.x -npool 4 -i  Done                     04/21/2018 16:59:16
00005 suncat0135 pw.x -npool 4 -i  Done                     04/21/2018 16:59:16
00006 suncat0135 pw.x -npool 4 -i  Done                     04/21/2018 16:59:16
00007 suncat0135 pw.x -npool 4 -i  Done                     04/21/2018 16:59:16
00008 suncat0132 pw.x -npool 4 -i  Done                     04/21/2018 16:59:16
00009 suncat0132 pw.x -npool 4 -i  Done                     04/21/2018 16:59:16
00010 suncat0132 pw.x -npool 4 -i  Done                     04/21/2018 16:59:16
00011 suncat0132 pw.x -npool 4 -i  Done                     04/21/2018 16:59:16
00012 suncat0132 pw.x -npool 4 -i  Done                     04/21/2018 16:59:16
00013 suncat0132 pw.x -npool 4 -i  Done                     04/21/2018 16:59:16
00014 suncat0132 pw.x -npool 4 -i  Done                     04/21/2018 16:59:16
00015 suncat0132 pw.x -npool 4 -i  Done                     04/21/2018 16:59:16
00016 suncat0213 pw.x -npool 4 -i  Done                     04/21/2018 16:59:16
00017 suncat0213 pw.x -npool 4 -i  Done                     04/21/2018 16:59:16
00018 suncat0213 pw.x -npool 4 -i  Done                     04/21/2018 16:59:16
00019 suncat0213 pw.x -npool 4 -i  Done                     04/21/2018 16:59:16
00020 suncat0213 pw.x -npool 4 -i  Done                     04/21/2018 16:59:16
00021 suncat0213 pw.x -npool 4 -i  Done                     04/21/2018 16:59:16
00022 suncat0213 pw.x -npool 4 -i  Done                     04/21/2018 16:59:16
00023 suncat0213 pw.x -npool 4 -i  Done                     04/21/2018 16:59:16
00024 suncat0207 pw.x -npool 4 -i  Done                     04/21/2018 16:59:16
00025 suncat0207 pw.x -npool 4 -i  Done                     04/21/2018 16:59:16
00026 suncat0207 pw.x -npool 4 -i  Done                     04/21/2018 16:59:16
00027 suncat0207 pw.x -npool 4 -i  Done                     04/21/2018 16:59:16
00028 suncat0207 pw.x -npool 4 -i  Done                     04/21/2018 16:59:16
00029 suncat0207 pw.x -npool 4 -i  Done                     04/21/2018 16:59:16
00030 suncat0207 pw.x -npool 4 -i  Done                     04/21/2018 16:59:16
00031 suncat0207 pw.x -npool 4 -i  Done                     04/21/2018 16:59:16