     Program PWSCF v.5.1rc2 (svn rev. ) starts on 17Apr2018 at 21:15:31

     Current dimensions of program PWSCF are:
     Max number of different atomic species (ntypx) = 10
     Max number of k-points (npk) =  40000
     Max angular momentum in pseudopotentials (lmaxx) =  3
     Presently stress not available with electric field

     IMPORTANT: XC functional enforced from input :
     Exchange-correlation      = BEEF-VDW ( 1  4 27 13 2)
     Any further DFT definition will be discarded
     Please, verify this is what you really want

     Subspace diagonalization in iterative solution of the eigenvalue problem:
     a serial algorithm will be used

     bravais-lattice index     =            0
     lattice parameter (alat)  =       1.8897  a.u.
     unit-cell volume          =    5409.9593 (a.u.)^3
     number of atoms/cell      =           14
     number of atomic types    =            3
     number of electrons       =       235.00
     number of Kohn-Sham states=          127
     kinetic-energy cutoff     =      36.7493  Ry
     charge density cutoff     =     367.4932  Ry
     convergence threshold     =      1.0E-05
     mixing beta               =       0.3000
     number of iterations used =           10  plain     mixing
     Exchange-correlation      = BEEF-VDW ( 1  4 27 13 2)
     nstep                     =           50

     celldm(1)=   1.889726  celldm(2)=   0.000000  celldm(3)=   0.000000
     celldm(4)=   0.000000  celldm(5)=   0.000000  celldm(6)=   0.000000

     crystal axes: (cart. coord. in units of alat)
               a(1) = (   6.088539   0.000000   0.000000 )
               a(2) = (   3.044269   5.272829   0.000000 )
               a(3) = (   0.000000   0.000000  24.971271 )

     reciprocal axes: (cart. coord. in units 2 pi/alat)
               b(1) = (  0.164243 -0.094826  0.000000 )
               b(2) = (  0.000000  0.189652  0.000000 )
               b(3) = (  0.000000  0.000000  0.040046 )

     PseudoPot. # 1 for Ga read from file:
     /home/mamunm/src/pseudo/gbrv1.5pbe/Ga.UPF
     MD5 check sum: ccd671392a58a050fbb373893b4fcd66
     Pseudo is Ultrasoft + core correction, Zval = 19.0
     Generated by new atomic code, or converted to UPF format
     Using radial grid of  871 points,  6 beta functions with:
                l(1) =   0
                l(2) =   0
                l(3) =   1
                l(4) =   1
                l(5) =   2
                l(6) =   2
     Q(r) pseudized with  8 coefficients,  rinner =    1.250   1.250   1.250
                                                       1.250   1.250

     PseudoPot. # 2 for O  read from file:
     /home/mamunm/src/pseudo/gbrv1.5pbe/O.UPF
     MD5 check sum: 734c27235a0248c51dbae37a1fbe46ec
     Pseudo is Ultrasoft + core correction, Zval =  6.0
     Generated by new atomic code, or converted to UPF format
     Using radial grid of  737 points,  5 beta functions with:
                l(1) =   0
                l(2) =   0
                l(3) =   1
                l(4) =   1
                l(5) =   2
     Q(r) pseudized with  8 coefficients,  rinner =    0.900   0.900   0.900
                                                       0.900   0.900

     PseudoPot. # 3 for H  read from file:
     /home/mamunm/src/pseudo/gbrv1.5pbe/H.UPF
     MD5 check sum: 761ae9a214b05c3daf00ab9f6b793d6f
     Pseudo is Ultrasoft, Zval =  1.0
     Generated by new atomic code, or converted to UPF format
     Using radial grid of  615 points,  2 beta functions with:
                l(1) =   0
                l(2) =   0
     Q(r) pseudized with  8 coefficients,  rinner =    0.700

     vdW kernel table read from file vdW_kernel_table
     MD5 check sum: 095c7af220d748ca6e76c0b4c6cfb241

     atomic species   valence    mass     pseudopotential
        Ga1           19.00    69.72300     Ga( 1.00)
        O1             6.00    15.99900     O ( 1.00)
        H1             1.00     1.00800     H ( 1.00)

     No symmetry found

   Cartesian axes

     site n.     atom                  positions (alat units)
         1           Ga1 tau(   1) = (   1.5221346   0.8788048  10.0000000  )
         2           Ga1 tau(   2) = (   4.5664039   0.8788048  10.0000000  )
         3           Ga1 tau(   3) = (   3.0442693   3.5152194  10.0000000  )
         4           Ga1 tau(   4) = (   6.0885386   3.5152194  10.0000000  )
         5           Ga1 tau(   5) = (   6.0885386   1.7576097  12.4856355  )
         6           Ga1 tau(   6) = (   3.0442693   1.7576097  12.4856355  )
         7           Ga1 tau(   7) = (   7.6106732   4.3940242  12.4856355  )
         8           Ga1 tau(   8) = (   4.5664039   4.3940242  12.4856355  )
         9           Ga1 tau(   9) = (   0.0000000   0.0000000  14.9712709  )
        10           Ga1 tau(  10) = (   3.0442693   0.0000000  14.9712709  )
        11           Ga1 tau(  11) = (   1.5221346   2.6364145  14.9712709  )
        12           Ga1 tau(  12) = (   4.5664039   2.6364145  14.9712709  )
        13           O1  tau(  13) = (   1.5221346   0.8788048  16.1932709  )
        14           H1  tau(  14) = (   1.5221346   0.8788048  17.1432709  )

     number of k points=    20  Fermi-Dirac smearing, width (Ry)=  0.0110
                       cart. coord. in units 2pi/alat
        k(    1) = (   0.0000000   0.0000000   0.0000000), wk =   0.0555556
        k(    2) = (   0.0000000   0.0316086   0.0000000), wk =   0.1111111
        k(    3) = (   0.0000000   0.0632172   0.0000000), wk =   0.1111111
        k(    4) = (   0.0000000  -0.0948258   0.0000000), wk =   0.0555556
        k(    5) = (   0.0273738  -0.0158043   0.0000000), wk =   0.1111111
        k(    6) = (   0.0273738   0.0158043   0.0000000), wk =   0.1111111
        k(    7) = (   0.0273738   0.0474129   0.0000000), wk =   0.1111111
        k(    8) = (   0.0273738  -0.1106300   0.0000000), wk =   0.1111111
        k(    9) = (   0.0273738  -0.0790215   0.0000000), wk =   0.1111111
        k(   10) = (   0.0273738  -0.0474129   0.0000000), wk =   0.1111111
        k(   11) = (   0.0547477  -0.0316086   0.0000000), wk =   0.1111111
        k(   12) = (   0.0547477   0.0000000   0.0000000), wk =   0.1111111
        k(   13) = (   0.0547477   0.0316086   0.0000000), wk =   0.1111111
        k(   14) = (   0.0547477  -0.1264343   0.0000000), wk =   0.1111111
        k(   15) = (   0.0547477  -0.0948258   0.0000000), wk =   0.1111111
        k(   16) = (   0.0547477  -0.0632172   0.0000000), wk =   0.1111111
        k(   17) = (  -0.0821215   0.0474129   0.0000000), wk =   0.0555556
        k(   18) = (  -0.0821215   0.0790215   0.0000000), wk =   0.1111111
        k(   19) = (  -0.0821215   0.1106300   0.0000000), wk =   0.1111111
        k(   20) = (  -0.0821215  -0.0474129   0.0000000), wk =   0.0555556

     Largest allocated arrays     est. size (Mb)     dimensions
     Largest temporary arrays     est. size (Mb)     dimensions

     Initial potential from superposition of free atoms
     Check: negative starting charge=   -0.001198

     starting charge  222.99998, renormalised to  235.00000

     negative rho (up, down):  1.262E-03 0.000E+00

     *
     * You are using vdW-DF for exchange-correlation in this calculation.
     * Please cite the following three references that made this development
     * possible:
     *
     *   M. Dion, H. Rydberg, E. Schroder, D. C. Langreth, and
     *   B. I. Lundqvist, Phys. Rev. Lett. 92, 246401 (2004).
     *
     *   T. Thonhauser, V. R. Cooper, S. Li, A. Puzder, P. Hyldgaard, and
     *   D. C. Langreth, Phys. Rev. B 76, 125112 (2007).
     *
     *   G. Roman-Perez and J. M. Soler, Phys. Rev. Lett. 103, 096102 (2009).
     *
     *
     * If you are using vdW-DF2, please also cite:
     *
     *   K. Lee, E. D. Murray, L. Kong, B. I. Lundqvist, and
     *   D. C. Langreth, Phys. Rev. B 82, 081101(R) (2010).
     *
     *
     * If you are calculating the stress with vdW-DF, please also cite:
     *
     *   R. Sabatini, E. Kucukbenli, B. Kolb, T. Thonhauser, and
     *   S. de Gironcoli, J. Phys.: Condens. Matter 24, 424209 (2012).
     *

     Carrying out vdW-DF run using the following parameters:

     Nqs =      20    Nr_points =    1024   r_max =   100.000
     q_mesh =
               0.00001000     0.04494208     0.09755937     0.15916263
               0.23128650     0.31572767     0.41458969     0.53033537
               0.66584808     0.82450364     1.01025438     1.22772762
               1.48234092     1.78043706     2.12944203     2.53805004
               3.01644009     3.57652955     4.23227104     5.00000000

     Gradients computed in reciprocal space

     Adding external electric field

     Computed dipole along edir(3) :
        Dipole               -2.7357 Ry au,         -6.9535 Debye
        Dipole field         -0.0064 Ry au

        Potential amp.        0.5847 Ry
        Total length         46.0091 bohr

     Starting wfc are  149 randomized atomic wfcs

     Self-consistent Calculation

     iteration #  1     ecut=    36.75 Ry     beta=0.30
     Davidson diagonalization with overlap
     ethr =  1.00E-02,  avg # of iterations =  7.2

[...]

     total energy              =   -4645.93924026 Ry
     Harris-Foulkes estimate   =   -5038.01444583 Ry
     estimated scf accuracy    <     828.05125809 Ry

     iteration #  2     ecut=    36.75 Ry     beta=0.30
     Davidson diagonalization with overlap
     c_bands:  5 eigenvalues not converged
     ethr =  1.00E-02,  avg # of iterations = 22.9

[...]

     End of self-consistent calculation

          k = 0.0000 0.0000 0.0000 ( 20347 PWs)   bands (ev):

   -94.2121 -94.2108 -94.2108 -94.2042 -94.2038 -94.2038 -94.1918 -94.1918
   -94.1912 -94.1201 -94.1094 -94.1055 -94.1055 -94.1030 -94.1029 -94.1029
   -94.0938 -94.0938 -94.0855 -94.0843 -94.0843 -94.0833 -94.0833 -94.0830
   -94.0785 -94.0785 -94.0779 -94.0772 -94.0757 -94.0757 -94.0705 -94.0703
   -94.0703 -94.0527 -94.0300 -94.0300 -20.8354 -14.7063 -14.6575 -14.6575
   -14.6121 -14.6083 -14.6083 -14.5887 -14.5766 -14.5766 -14.5698 -14.5539
   -14.5539 -14.5424 -14.5424 -14.5278 -14.5273 -14.5273 -14.5229 -14.5169
   -14.5169 -14.5167 -14.5089 -14.4981 -14.4958 -14.4958 -14.4771 -14.4649
   -14.4649 -14.4601 -14.4601 -14.4449 -14.4449 -14.4324 -14.4324 -14.4221
   -14.4121 -14.3853 -14.3853 -14.3757 -14.3757 -14.3627 -14.3454 -14.3454
   -14.3379 -14.3313 -14.3313 -14.3273 -14.3161 -14.3161 -14.3081 -14.3081
   -14.3042 -14.2915 -14.2915 -14.2884 -14.2884 -14.2854 -14.2822 -14.2822
   -14.2774  -9.7129  -8.8808  -7.4103  -5.6573  -5.6573  -5.4446  -4.2674
    -4.1464  -4.1464  -3.7847  -3.5378  -3.5378  -2.4819  -2.4819  -2.4127
    -1.9619  -1.7230  -1.7230  -1.4542  -0.3443  -0.3443  -0.2536   0.3964
     0.3965   0.8623   1.4235   2.8090   3.5837   3.6100   3.6151

[...]

          k =-0.0821 0.0474 0.0000 ( 20384 PWs)   bands (ev):

[...]

     the Fermi energy is     0.6467 ev

!    total energy              =   -5032.83448932 Ry
     Harris-Foulkes estimate   =   -5032.83454400 Ry
     estimated scf accuracy    <       0.00000551 Ry

     The total energy is the sum of the following terms:

     one-electron contribution =  -27811.08500463 Ry
     hartree contribution      =   13915.62271800 Ry
     xc contribution           =    -604.98186432 Ry
     ewald contribution        =    9467.64402876 Ry
     electric field correction =       0.00022539 Ry
     smearing contrib. (-TS)   =      -0.03459252 Ry

     convergence has been achieved in  22 iterations

 BEEF-vdW xc energy contributions
           1 :   -540.598207008743
           2 :    490.573463578831
           3 :   -406.720860099637
           4 :    313.434732956672
           5 :   -232.297036213187
           6 :    173.996947997899
           7 :   -136.813867969610
           8 :    111.401195649173
           9 :   -88.2676400501873
          10 :    63.3237886619611
          11 :   -38.7028138660170
          12 :    19.3498698412741
          13 :   -8.42944175300511
          14 :    4.84097567225331
          15 :   -4.20508148090971
          16 :    2.10409006272585
          17 :    3.02913138202985
          18 :   -9.39634663278639
          19 :    13.7698977204022
          20 :   -14.2011946625765
          21 :    11.4573411086271
          22 :   -8.28009116007956
          23 :    7.22931610327282
          24 :   -8.84165119641261
          25 :    11.4471238435756
          26 :   -12.6489578637961
          27 :    11.2320620428109
          28 :   -8.04229461854447
          29 :    5.24727148776969
          30 :   -4.63910823409537
          31 :   -40.1014928572929
          32 :   -27.2130828185301

     Forces acting on atoms (Ry/au):

     negative rho (up, down):  1.042E-03 0.000E+00
     atom    1 type  1   force =    -0.00000180   -0.00000679    0.00085496
     atom    2 type  1   force =    -0.00000347   -0.00032789    0.00281523
     atom    3 type  1   force =    -0.00026873    0.00016561    0.00281523
     atom    4 type  1   force =     0.00028393    0.00016625    0.00282492
     atom    5 type  1   force =    -0.00127417    0.00073722    0.00467389
     atom    6 type  1   force =     0.00127147    0.00073030    0.00457730
     atom    7 type  1   force =    -0.00000155    0.00000104   -0.01073646
     atom    8 type  1   force =     0.00000210   -0.00146571    0.00462029
     atom    9 type  1   force =    -0.03000601   -0.01732418   -0.01353413
     atom   10 type  1   force =     0.03000046   -0.01731901   -0.01354448
     atom   11 type  1   force =     0.00000185    0.03464378   -0.01354575
     atom   12 type  1   force =    -0.00000294   -0.00000077   -0.00991289
     atom   13 type  2   force =    -0.00000056    0.00000004   -0.02834847
     atom   14 type  3   force =    -0.00000060    0.00000012    0.06644037

     Total force =     0.097298     Total SCF correction =     0.015204
     SCF correction compared to forces is large: reduce conv_thr to get better values

     entering subroutine stress ...

     negative rho (up, down):  1.042E-03 0.000E+00
          total   stress  (Ry/bohr**3)                   (kbar)     P=  -13.95
  -0.00010637   0.00000000  -0.00000000        -15.65      0.00     -0.00
   0.00000000  -0.00010637  -0.00000000          0.00    -15.65     -0.00
  -0.00000000  -0.00000000  -0.00007172         -0.00     -0.00    -10.55

     BFGS Geometry Optimization

     number of scf cycles    =   1
     number of bfgs steps    =   0

     energy   new            =   -5032.8344893156 Ry

     new trust radius        =       0.0664403716 bohr
     new conv_thr            =       0.0000099958 Ry

ATOMIC_POSITIONS (crystal)
Ga1      0.166666667   0.166666667   0.400460194    0   0   0
Ga1      0.666666667   0.166666667   0.400460194    0   0   0
Ga1      0.166666667   0.666666667   0.400460194    0   0   0
Ga1      0.666666667   0.666666667   0.400460194    0   0   0
Ga1      0.833333333   0.333333333   0.500000000    0   0   0
Ga1      0.333333333   0.333333333   0.500000000    0   0   0
Ga1      0.833333333   0.833333333   0.500000000    0   0   0
Ga1      0.333333333   0.833333333   0.500000000    0   0   0
Ga1     -0.001738611  -0.001738642   0.599252998
Ga1      0.503476511  -0.001738123   0.599252779
Ga1     -0.001738251   0.503476824   0.599252752
Ga1      0.499999783   0.499999923   0.599329737
O1       0.166666616   0.166666671   0.647875297
H1       0.166666609   0.166666678   0.687927727

     Writing output data file calc.save
     Check: negative starting charge=   -0.001198
     NEW-OLD atomic charge density approx. for the potential
     Check: negative starting charge=   -0.001199

[...]

     Total force =     0.090073     Total SCF correction =     0.005579

[...]

     energy   old            =   -5032.8344893156 Ry
     energy   new            =   -5032.8385896030 Ry

     CASE: energy  _new < energy  _old

[...]

     Threshold (ethr) on eigenvalues was too large:
     Diagonalizing with lowered threshold

     Davidson diagonalization with overlap
     ethr =  6.44E-08,  avg # of iterations =  1.7

[...]

     Total force =     0.009187     Total SCF correction =     0.000782

[...]

     number of scf cycles    =   9
     number of bfgs steps    =   8

     energy   old            =   -5032.8484333456 Ry
     energy   new            =   -5032.8487073961 Ry

     CASE: energy  _new < energy  _old

     new trust radius        =       0.0574169544 bohr
     new conv_thr            =       0.0000001000 Ry

ATOMIC_POSITIONS (crystal)
Ga1      0.166666667   0.166666667   0.400460194    0   0   0
Ga1      0.666666667   0.166666667   0.400460194    0   0   0
Ga1      0.166666667   0.666666667   0.400460194    0   0   0
Ga1      0.666666667   0.666666667   0.400460194    0   0   0
Ga1      0.833333333   0.333333333   0.500000000    0   0   0
Ga1      0.333333333   0.333333333   0.500000000    0   0   0
Ga1      0.833333333   0.833333333   0.500000000    0   0   0
Ga1      0.333333333   0.833333333   0.500000000    0   0   0
Ga1     -0.011416275  -0.011418929   0.599488708
Ga1      0.522835280  -0.011419694   0.599488472
Ga1     -0.011416772   0.522831628   0.599488575
Ga1      0.499999431   0.500001384   0.594126749
O1       0.166666543   0.166665317   0.648881651
H1       0.166665796   0.166669091   0.688113596

     Writing output data file calc.save
     Check: negative starting charge=   -0.001174
     NEW-OLD atomic charge density approx. for the potential
     Check: negative starting charge=   -0.001168

[...]

     Self-consistent Calculation

[...]

     Threshold (ethr) on eigenvalues was too large:
     Diagonalizing with lowered threshold

     Davidson diagonalization with overlap
     ethr =  8.46E-08,  avg # of iterations =  2.2

[...]

     total energy              =   -5032.84887074 Ry
     Harris-Foulkes estimate   =   -5032.84887154 Ry
     estimated scf accuracy    <       0.00000078 Ry

     iteration #  7     ecut=    36.75 Ry     beta=0.30
     Davidson diagonalization with overlap
     ethr =  3.33E-10,  avg # of iterations =  3.5

[...]

     negative rho (up, down):  1.047E-03 0.000E+00

     Adding external electric field

     Computed dipole along edir(3) :
        Dipole                0.2684 Ry au,          0.6821 Debye
        Dipole field          0.0006 Ry au

        Potential amp.       -0.0574 Ry
        Total length         46.0091 bohr

     End of self-consistent calculation

[...]

          k = 0.0547-0.0632 0.0000 ( 20377 PWs)   bands (ev):

[...]

          k =-0.0821-0.0474 0.0000 ( 20384 PWs)   bands (ev):

   -94.3030 -94.3016 -94.3013 -94.2994 -94.2990 -94.2988 -94.2856 -94.2855
   -94.2848 -94.2161 -94.2011 -94.2010 -94.1966 -94.1888 -94.1887 -94.1875
   -94.1874 -94.1874 -94.1755 -94.1753 -94.1751 -94.1737 -94.1733 -94.1728
   -94.1712 -94.1707 -94.1702 -94.1695 -94.1693 -94.1691 -94.1673 -94.1672
   -94.1671 -94.1223 -94.1072 -94.1072 -20.0204 -14.7656 -14.7232 -14.7060
   -14.6857 -14.6765 -14.6705 -14.6648 -14.6500 -14.6468 -14.6357 -14.6284
   -14.6221 -14.6193 -14.6092 -14.6087 -14.5942 -14.5926 -14.5886 -14.5837
   -14.5820 -14.5783 -14.5771 -14.5681 -14.5605 -14.5586 -14.5545 -14.5494
   -14.5383 -14.5355 -14.5339 -14.5285 -14.5207 -14.5203 -14.5115 -14.5112
   -14.5056 -14.4920 -14.4905 -14.4877 -14.4831 -14.4703 -14.4696 -14.4673
   -14.4659 -14.4594 -14.4567 -14.4557 -14.4537 -14.4487 -14.4352 -14.4253
   -14.4225 -14.4181 -14.4159 -14.4133 -14.4079 -14.3902 -14.3870 -14.3719
   -14.3700  -8.5485  -8.3592  -7.7639  -7.0110  -6.3076  -5.7337  -5.3781
    -5.0444  -4.8498  -4.3453  -3.5730  -3.4157  -3.3021  -1.7628  -1.5725
    -0.4018  -0.1896   0.1105   0.1497   0.4005   0.6473   1.5078   1.7198
     1.7274   2.0602   2.3551   2.6914   2.7925   2.9921   3.0702

     the Fermi energy is     0.5461 ev

!    total energy              =   -5032.84887050 Ry
     Harris-Foulkes estimate   =   -5032.84887083 Ry
     estimated scf accuracy    <       0.00000009 Ry

     The total energy is the sum of the following terms:

     one-electron contribution =  -27909.52906163 Ry
     hartree contribution      =   13964.48791752 Ry
     xc contribution           =    -604.93289161 Ry
     ewald contribution        =    9517.15853420 Ry
     electric field correction =       0.00016729 Ry
     smearing contrib. (-TS)   =      -0.03353627 Ry

     convergence has been achieved in   7 iterations

 BEEF-vdW xc energy contributions
           1 :   -540.550157110389
           2 :    490.521202370584
           3 :   -406.672389854731
           4 :    313.407162367292
           5 :   -232.303801101695
           6 :    174.034965194043
           7 :   -136.859663933549
           8 :    111.422815465050
           9 :   -88.2445200229137
          10 :    63.2600578813517
          11 :   -38.6246186641381
          12 :    19.2878382059135
          13 :   -8.39968949502543
          14 :    4.83846472359357
          15 :   -4.21120085475616
          16 :    2.10122122720054
          17 :    3.04604543334278
          18 :   -9.41808913661680
          19 :    13.7820704318214
          20 :   -14.1963006923169
          21 :    11.4396961747435
          22 :   -8.26120704610514
          23 :    7.21972992710062
          24 :   -8.84582790292188
          25 :    11.4641897648294
          26 :   -12.6763995700132
          27 :    11.2668023923378
          28 :   -8.07721499899833
          29 :    5.26719751008761
          30 :   -4.62191034454747
          31 :   -40.0998880432572
          32 :   -27.2115563320863

     Forces acting on atoms (Ry/au):

     negative rho (up, down):  1.047E-03 0.000E+00
     atom    1 type  1   force =     0.00000002   -0.00000007    0.00202528
     atom    2 type  1   force =    -0.00000013   -0.00104899    0.00288731
     atom    3 type  1   force =    -0.00090869    0.00052447    0.00288737
     atom    4 type  1   force =     0.00090862    0.00052458    0.00288719
     atom    5 type  1   force =     0.00136582   -0.00078881    0.00292121
     atom    6 type  1   force =    -0.00136462   -0.00078789    0.00292145
     atom    7 type  1   force =     0.00000006    0.00000000   -0.01728781
     atom    8 type  1   force =    -0.00000020    0.00157759    0.00292089
     atom    9 type  1   force =     0.00162897    0.00094077   -0.00012378
     atom   10 type  1   force =    -0.00162972    0.00094146   -0.00012309
     atom   11 type  1   force =     0.00000024   -0.00188287   -0.00012335
     atom   12 type  1   force =    -0.00000054   -0.00000084   -0.00068623
     atom   13 type  2   force =     0.00000045    0.00000094   -0.00005775
     atom   14 type  3   force =    -0.00000028   -0.00000035   -0.00104870

     Total force =     0.003499     Total SCF correction =     0.001433
     SCF correction compared to forces is large: reduce conv_thr to get better values

     entering subroutine stress ...

     negative rho (up, down):  1.047E-03 0.000E+00
          total   stress  (Ry/bohr**3)                   (kbar)     P=   -4.19
  -0.00003311   0.00000000  -0.00000000         -4.87      0.00     -0.00
   0.00000000  -0.00003311   0.00000000          0.00     -4.87      0.00
  -0.00000000   0.00000000  -0.00001926         -0.00      0.00     -2.83

     bfgs converged in  10 scf cycles and   9 bfgs steps
     (criteria: energy <  1.0E+00, force <  1.9E-03)

     End of BFGS Geometry Optimization

     Final energy   =   -5032.8488704964 Ry
Begin final coordinates

ATOMIC_POSITIONS (crystal)
Ga1      0.166666667   0.166666667   0.400460194    0   0   0
Ga1      0.666666667   0.166666667   0.400460194    0   0   0
Ga1      0.166666667   0.666666667   0.400460194    0   0   0
Ga1      0.666666667   0.666666667   0.400460194    0   0   0
Ga1      0.833333333   0.333333333   0.500000000    0   0   0
Ga1      0.333333333   0.333333333   0.500000000    0   0   0
Ga1      0.833333333   0.833333333   0.500000000    0   0   0
Ga1      0.333333333   0.833333333   0.500000000    0   0   0
Ga1     -0.011416275  -0.011418929   0.599488708
Ga1      0.522835280  -0.011419694   0.599488472
Ga1     -0.011416772   0.522831628   0.599488575
Ga1      0.499999431   0.500001384   0.594126749
O1       0.166666543   0.166665317   0.648881651
H1       0.166665796   0.166669091   0.688113596
End final coordinates

     Writing output data file calc.save

     General routines

     Parallel routines

   This run was terminated on:  22: 3:57  17Apr2018

   JOB DONE.