     Program PWSCF v.5.1rc2 (svn rev. 11289) starts on 17Jan2018 at 19:16: 4

     Current dimensions of program PWSCF are:
     Max number of different atomic species (ntypx) = 10
     Max number of k-points (npk) =  40000
     Max angular momentum in pseudopotentials (lmaxx) =  3
     Presently stress not available with electric field

     IMPORTANT: XC functional enforced from input :
     Exchange-correlation      = BEEF-VDW ( 1  4 27 13 2)
     Any further DFT definition will be discarded
     Please, verify this is what you really want

     Subspace diagonalization in iterative solution of the eigenvalue problem:
     a serial algorithm will be used

     bravais-lattice index     =            0
     lattice parameter (alat)  =       1.8897  a.u.
     unit-cell volume          =    4228.3700 (a.u.)^3
     number of atoms/cell      =           13
     number of atomic types    =            2
     number of electrons       =       197.00
     number of Kohn-Sham states=          108
     kinetic-energy cutoff     =      36.7493  Ry
     charge density cutoff     =     367.4932  Ry
     convergence threshold     =      1.0E-05
     mixing beta               =       0.3000
     number of iterations used =           10  plain     mixing
     Exchange-correlation      = BEEF-VDW ( 1  4 27 13 2)
     nstep                     =           50

     celldm(1)=   1.889726  celldm(2)=   0.000000  celldm(3)=   0.000000
     celldm(4)=   0.000000  celldm(5)=   0.000000  celldm(6)=   0.000000

     crystal axes: (cart. coord. in units of alat)
               a(1) = (   5.440665   0.000000   0.000000 )
               a(2) = (   2.720332   4.711754   0.000000 )
               a(3) = (   0.000000   0.000000  24.442284 )

     reciprocal axes: (cart. coord. in units 2 pi/alat)
               b(1) = (  0.183801 -0.106118  0.000000 )
               b(2) = (  0.000000  0.212235  0.000000 )
               b(3) = (  0.000000  0.000000  0.040913 )

     PseudoPot. # 1 for Os read from file:
     /afs/slac.stanford.edu/u/if/mamunm/psp/gbrv1.5pbe/Os.UPF
     MD5 check sum: a3fb40a04f0c37c25c34bbc47164c9a8
     Pseudo is Ultrasoft + core correction, Zval = 16.0
     Generated by new atomic code, or converted to UPF format
     Using radial grid of  983 points,  8 beta functions with:
                l(1) =   0
                l(2) =   0
                l(3) =   1
                l(4) =   1
                l(5) =   2
                l(6) =   2
                l(7) =   3
                l(8) =   3
     Q(r) pseudized with  8 coefficients,  rinner =    1.150   1.150   1.150
                                                       1.150   1.150   1.150
                                                       1.150

     PseudoPot. # 2 for N  read from file:
     /afs/slac.stanford.edu/u/if/mamunm/psp/gbrv1.5pbe/N.UPF
     MD5 check sum: 95339753478d7afb44899504a8723017
     Pseudo is Ultrasoft + core correction, Zval =  5.0
     Generated by new atomic code, or converted to UPF format
     Using radial grid of  729 points,  4 beta functions with:
                l(1) =   0
                l(2) =   0
                l(3) =   1
                l(4) =   1
     Q(r) pseudized with  8 coefficients,  rinner =    0.900   0.900   0.900

     vdW kernel table read from file vdW_kernel_table
     MD5 check sum: 095c7af220d748ca6e76c0b4c6cfb241

     atomic species   valence    mass     pseudopotential
        Os1           16.00   190.23000     Os( 1.00)
        N1             5.00    14.00700     N ( 1.00)

     No symmetry found

   Cartesian axes

     site n.     atom                  positions (alat units)
         1           Os1 tau(   1) = (   1.3601662   0.7852923  10.0000000  )
         2           Os1 tau(   2) = (   4.0804987   0.7852923  10.0000000  )
         3           Os1 tau(   3) = (   2.7203325   3.1411694  10.0000000  )
         4           Os1 tau(   4) = (   5.4406649   3.1411694  10.0000000  )
         5           Os1 tau(   5) = (   5.4406649   1.5705847  12.2211422  )
         6           Os1 tau(   6) = (   2.7203325   1.5705847  12.2211422  )
         7           Os1 tau(   7) = (   6.8008312   3.9264617  12.2211422  )
         8           Os1 tau(   8) = (   4.0804987   3.9264617  12.2211422  )
         9           Os1 tau(   9) = (   0.0000000   0.0000000  14.4422843  )
        10           Os1 tau(  10) = (   2.7203325   0.0000000  14.4422843  )
        11           Os1 tau(  11) = (   1.3601662   2.3558770  14.4422843  )
        12           Os1 tau(  12) = (   4.0804987   2.3558770  14.4422843  )
        13           N1  tau(  13) = (   0.0000000   0.0000000  16.5922843  )

     number of k points=    20  Fermi-Dirac smearing, width (Ry)=  0.0110
                       cart. coord. in units 2pi/alat
        k(    1) = (   0.0000000   0.0000000   0.0000000), wk =   0.0555556
        k(    2) = (   0.0000000   0.0353725   0.0000000), wk =   0.1111111
        k(    3) = (   0.0000000   0.0707451   0.0000000), wk =   0.1111111
        k(    4) = (   0.0000000  -0.1061176   0.0000000), wk =   0.0555556
        k(    5) = (   0.0306335  -0.0176863   0.0000000), wk =   0.1111111
        k(    6) = (   0.0306335   0.0176863   0.0000000), wk =   0.1111111
        k(    7) = (   0.0306335   0.0530588   0.0000000), wk =   0.1111111
        k(    8) = (   0.0306335  -0.1238039   0.0000000), wk =   0.1111111
        k(    9) = (   0.0306335  -0.0884313   0.0000000), wk =   0.1111111
        k(   10) = (   0.0306335  -0.0530588   0.0000000), wk =   0.1111111
        k(   11) = (   0.0612670  -0.0353725   0.0000000), wk =   0.1111111
        k(   12) = (   0.0612670   0.0000000   0.0000000), wk =   0.1111111
        k(   13) = (   0.0612670   0.0353725   0.0000000), wk =   0.1111111
        k(   14) = (   0.0612670  -0.1414901   0.0000000), wk =   0.1111111
        k(   15) = (   0.0612670  -0.1061176   0.0000000), wk =   0.1111111
        k(   16) = (   0.0612670  -0.0707451   0.0000000), wk =   0.1111111
        k(   17) = (  -0.0919005   0.0530588   0.0000000), wk =   0.0555556
        k(   18) = (  -0.0919005   0.0884313   0.0000000), wk =   0.1111111
        k(   19) = (  -0.0919005   0.1238039   0.0000000), wk =   0.1111111
        k(   20) = (  -0.0919005  -0.0530588   0.0000000), wk =   0.0555556

     Largest allocated arrays     est. size (Mb)     dimensions
     Largest temporary arrays     est. size (Mb)     dimensions

     Initial potential from superposition of free atoms
     Check: negative starting charge=   -1.495786

     starting charge  190.99955, renormalised to  197.00000

     negative rho (up, down):  1.543E+00 0.000E+00

     *
     * You are using vdW-DF for exchange-correlation in this calculation.
     * Please cite the following three references that made this development
     * possible:
     *
     *   M. Dion, H. Rydberg, E. Schroder, D. C. Langreth, and
     *   B. I. Lundqvist, Phys. Rev. Lett. 92, 246401 (2004).
     *
     *   T. Thonhauser, V. R. Cooper, S. Li, A. Puzder, P. Hyldgaard, and
     *   D. C. Langreth, Phys. Rev. B 76, 125112 (2007).
     *
     *   G. Roman-Perez and J. M. Soler, Phys. Rev. Lett. 103, 096102 (2009).
     *
     *
     * If you are using vdW-DF2, please also cite:
     *
     *   K. Lee, E. D. Murray, L. Kong, B. I. Lundqvist, and
     *   D. C. Langreth, Phys. Rev. B 82, 081101(R) (2010).
     *
     *
     * If you are calculating the stress with vdW-DF, please also cite:
     *
     *   R. Sabatini, E. Kucukbenli, B. Kolb, T. Thonhauser, and
     *   S. de Gironcoli, J. Phys.: Condens. Matter 24, 424209 (2012).
     *

     Carrying out vdW-DF run using the following parameters:

     Nqs =      20    Nr_points =    1024   r_max =   100.000
     q_mesh =
               0.00001000     0.04494208     0.09755937     0.15916263
               0.23128650     0.31572767     0.41458969     0.53033537
               0.66584808     0.82450364     1.01025438     1.22772762
               1.48234092     1.78043706     2.12944203     2.53805004
               3.01644009     3.57652955     4.23227104     5.00000000

     Gradients computed in reciprocal space

     Adding external electric field

     Computed dipole along edir(3) :
        Dipole               -1.2974 Ry au,         -3.2978 Debye
        Dipole field         -0.0039 Ry au

        Potential amp.        0.3473 Ry
        Total length         45.0345 bohr

     Starting wfc are  160 randomized atomic wfcs

     Self-consistent Calculation

     iteration #  1     ecut=    36.75 Ry     beta=0.30
     Davidson diagonalization with overlap
     ethr =  1.00E-02,  avg # of iterations =  2.0

[...]

     total energy              =   -2393.91385343 Ry
     Harris-Foulkes estimate   =   -2417.79682749 Ry
     estimated scf accuracy    <      49.38400113 Ry

[...]

     End of self-consistent calculation

          k = 0.0000 0.0000 0.0000 ( 15845 PWs)   bands (ev):

   -84.4702 -84.4114 -84.3795 -84.3794 -84.3452 -83.9858 -83.9329 -83.9320
   -83.9067 -83.9054 -83.8909 -83.8893 -44.1375 -44.1375 -44.1018 -43.9710
   -43.8722 -43.8720 -43.8523 -43.6772 -43.6770 -43.5805 -43.5717 -43.5267
   -43.5254 -43.5254 -43.4605 -43.4602 -43.4364 -43.3264 -43.3263 -43.2453
   -43.1748 -43.1621 -43.1617 -43.1335 -43.1334 -43.0960 -43.0955 -43.0859
   -43.0196 -43.0190 -43.0031 -42.9902 -42.8700 -42.8695 -42.8351 -42.8351
    -9.8132  -7.0324  -5.0459  -4.6429  -4.3080  -4.3080  -4.2883  -3.9777
    -3.9777  -3.9559  -3.3977  -3.3976  -3.3753  -3.1088  -3.1087  -3.0834
    -1.6442  -1.6440  -1.5219  -0.8086  -0.7760  -0.7759  -0.5595  -0.4157
    -0.2572  -0.2572   0.1742   0.2361   0.2362   0.2502   0.2503   0.2931
     0.5770   0.5770   0.6223   0.6226   1.3452   1.3453   1.4202   2.1181
     2.2692   2.2693   2.3420   2.3473   2.5910   2.5911   2.8711   2.8712
     3.2771   3.3402   3.3403   3.8774   3.8776   4.0312   4.1879   4.1879
     4.2532   4.4189   4.4189   4.5653

[...]

          k =-0.0919 0.0531 0.0000 ( 15968 PWs)   bands (ev):

[...]

     the Fermi energy is     2.6188 ev

!    total energy              =   -2417.38071962 Ry
     Harris-Foulkes estimate   =   -2417.38073583 Ry
     estimated scf accuracy    <       0.00000261 Ry

     The total energy is the sum of the following terms:

     one-electron contribution =  -21776.03802852 Ry
     hartree contribution      =   10870.16646612 Ry
     xc contribution           =    -469.44538646 Ry
     ewald contribution        =    8958.01197426 Ry
     electric field correction =       0.00035601 Ry
     smearing contrib. (-TS)   =      -0.07610104 Ry

     convergence has been achieved in  21 iterations

 BEEF-vdW xc energy contributions
           1 :   -411.148355135353
           2 :    380.804817220093
           3 :   -327.318498671047
           4 :    262.398357112347
           5 :   -198.547697634730
           6 :    145.690559211806
           7 :   -109.016158941724
           8 :    88.4847022353844
           9 :   -79.9649270822617
          10 :    77.4201676257387
          11 :   -75.2699699605013
          12 :    70.0863267170967
          13 :   -61.1675779471760
          14 :    50.0245526575745
[...]

[...]

     Program PWSCF v.5.1rc2 (svn rev. 11289) starts on 17Jan2018 at 20: 6: 4

[...]

     Total force =     0.108635     Total SCF correction =     0.014380
     SCF correction compared to forces is large: reduce conv_thr to get better values

[...]

     Total force =     0.102745     Total SCF correction =     0.016686
     SCF correction compared to forces is large: reduce conv_thr to get better values

[...]

   This run was terminated on:  20:30:43  17Jan2018

[...]

     Program PWSCF v.5.1rc2 (svn rev. 11289) starts on 17Jan2018 at 20:30:49

     Current dimensions of program PWSCF are:
     Max number of different atomic species (ntypx) = 10
     Max number of k-points (npk) =  40000
     Max angular momentum in pseudopotentials (lmaxx) =  3
     Presently stress not available with electric field

     IMPORTANT: XC functional enforced from input :
     Exchange-correlation      = BEEF-VDW ( 1  4 27 13 2)
     Any further DFT definition will be discarded
     Please, verify this is what you really want

     Subspace diagonalization in iterative solution of the eigenvalue problem:
     a serial algorithm will be used

     bravais-lattice index     =            0
     lattice parameter (alat)  =       1.8897  a.u.
     unit-cell volume          =    4228.3700 (a.u.)^3
     number of atoms/cell      =           13
     number of atomic types    =            2
     number of electrons       =       197.00
     number of Kohn-Sham states=          108
     kinetic-energy cutoff     =      36.7493  Ry
     charge density cutoff     =     367.4932  Ry
     convergence threshold     =      1.0E-05
     mixing beta               =       0.3000
     number of iterations used =           10  plain     mixing
     Exchange-correlation      = BEEF-VDW ( 1  4 27 13 2)
     nstep                     =           50

     celldm(1)=   1.889726  celldm(2)=   0.000000  celldm(3)=   0.000000
     celldm(4)=   0.000000  celldm(5)=   0.000000  celldm(6)=   0.000000

     crystal axes: (cart. coord. in units of alat)
               a(1) = (   5.440665   0.000000   0.000000 )
               a(2) = (   2.720332   4.711754   0.000000 )
               a(3) = (   0.000000   0.000000  24.442284 )

     reciprocal axes: (cart. coord. in units 2 pi/alat)
               b(1) = (  0.183801 -0.106118  0.000000 )
               b(2) = (  0.000000  0.212235  0.000000 )
               b(3) = (  0.000000  0.000000  0.040913 )

     PseudoPot. # 1 for Os read from file:
     /afs/slac.stanford.edu/u/if/mamunm/psp/gbrv1.5pbe/Os.UPF
     MD5 check sum: a3fb40a04f0c37c25c34bbc47164c9a8
     Pseudo is Ultrasoft + core correction, Zval = 16.0
     Generated by new atomic code, or converted to UPF format
     Using radial grid of  983 points,  8 beta functions with:
                l(1) =   0
                l(2) =   0
                l(3) =   1
                l(4) =   1
                l(5) =   2
                l(6) =   2
                l(7) =   3
                l(8) =   3
     Q(r) pseudized with  8 coefficients,  rinner =    1.150   1.150   1.150
                                                       1.150   1.150   1.150
                                                       1.150

     PseudoPot. # 2 for N  read from file:
     /afs/slac.stanford.edu/u/if/mamunm/psp/gbrv1.5pbe/N.UPF
     MD5 check sum: 95339753478d7afb44899504a8723017
     Pseudo is Ultrasoft + core correction, Zval =  5.0
     Generated by new atomic code, or converted to UPF format
     Using radial grid of  729 points,  4 beta functions with:
                l(1) =   0
                l(2) =   0
                l(3) =   1
                l(4) =   1
     Q(r) pseudized with  8 coefficients,  rinner =    0.900   0.900   0.900

     vdW kernel table read from file vdW_kernel_table
     MD5 check sum: 095c7af220d748ca6e76c0b4c6cfb241

     atomic species   valence    mass     pseudopotential
        Os1           16.00   190.23000     Os( 1.00)
        N1             5.00    14.00700     N ( 1.00)

     No symmetry found

   Cartesian axes

     site n.     atom                  positions (alat units)
         1           Os1 tau(   1) = (   1.3601662   0.7852923  10.0000000  )
         2           Os1 tau(   2) = (   4.0804987   0.7852923  10.0000000  )
         3           Os1 tau(   3) = (   2.7203325   3.1411694  10.0000000  )
         4           Os1 tau(   4) = (   5.4406649   3.1411694  10.0000000  )
         5           Os1 tau(   5) = (   5.4406649   1.5705847  12.2211422  )
         6           Os1 tau(   6) = (   2.7203325   1.5705847  12.2211422  )
         7           Os1 tau(   7) = (   6.8008312   3.9264617  12.2211422  )
         8           Os1 tau(   8) = (   4.0804987   3.9264617  12.2211422  )
         9           Os1 tau(   9) = (   0.0001604   0.0001148  14.9076378  )
        10           Os1 tau(  10) = (   2.7201313   0.0139548  14.3584406  )
        11           Os1 tau(  11) = (   1.3720443   2.3487013  14.3581098  )
        12           Os1 tau(  12) = (   4.0686260   2.3489376  14.3581809  )
        13           N1  tau(  13) = (   8.1609718   4.7117175  16.5757443  )

     number of k points=    20  Fermi-Dirac smearing, width (Ry)=  0.0110
                       cart. coord. in units 2pi/alat
        k(    1) = (   0.0000000   0.0000000   0.0000000), wk =   0.0555556
        k(    2) = (   0.0000000   0.0353725   0.0000000), wk =   0.1111111
        k(    3) = (   0.0000000   0.0707451   0.0000000), wk =   0.1111111
        k(    4) = (   0.0000000  -0.1061176   0.0000000), wk =   0.0555556
        k(    5) = (   0.0306335  -0.0176863   0.0000000), wk =   0.1111111
        k(    6) = (   0.0306335   0.0176863   0.0000000), wk =   0.1111111
        k(    7) = (   0.0306335   0.0530588   0.0000000), wk =   0.1111111
        k(    8) = (   0.0306335  -0.1238039   0.0000000), wk =   0.1111111
        k(    9) = (   0.0306335  -0.0884313   0.0000000), wk =   0.1111111
        k(   10) = (   0.0306335  -0.0530588   0.0000000), wk =   0.1111111
        k(   11) = (   0.0612670  -0.0353725   0.0000000), wk =   0.1111111
        k(   12) = (   0.0612670   0.0000000   0.0000000), wk =   0.1111111
        k(   13) = (   0.0612670   0.0353725   0.0000000), wk =   0.1111111
        k(   14) = (   0.0612670  -0.1414901   0.0000000), wk =   0.1111111
        k(   15) = (   0.0612670  -0.1061176   0.0000000), wk =   0.1111111
        k(   16) = (   0.0612670  -0.0707451   0.0000000), wk =   0.1111111
        k(   17) = (  -0.0919005   0.0530588   0.0000000), wk =   0.0555556
        k(   18) = (  -0.0919005   0.0884313   0.0000000), wk =   0.1111111
        k(   19) = (  -0.0919005   0.1238039   0.0000000), wk =   0.1111111
        k(   20) = (  -0.0919005  -0.0530588   0.0000000), wk =   0.0555556

     Largest allocated arrays     est. size (Mb)     dimensions
     Largest temporary arrays     est. size (Mb)     dimensions

     Initial potential from superposition of free atoms
     Check: negative starting charge=   -1.491759

     starting charge  190.99955, renormalised to  197.00000

[...]

     *
     * You are using vdW-DF for exchange-correlation in this calculation.
     * Please cite the following three references that made this development
     * possible:
     *
     *   M. Dion, H. Rydberg, E. Schroder, D. C. Langreth, and
     *   B. I. Lundqvist, Phys. Rev. Lett. 92, 246401 (2004).
     *
     *   T. Thonhauser, V. R. Cooper, S. Li, A. Puzder, P. Hyldgaard, and
     *   D. C. Langreth, Phys. Rev. B 76, 125112 (2007).
     *
     *   G. Roman-Perez and J. M. Soler, Phys. Rev. Lett. 103, 096102 (2009).
     *
     *
     * If you are using vdW-DF2, please also cite:
     *
     *   K. Lee, E. D. Murray, L. Kong, B. I. Lundqvist, and
     *   D. C. Langreth, Phys. Rev. B 82, 081101(R) (2010).
     *
     *
     * If you are calculating the stress with vdW-DF, please also cite:
     *
     *   R. Sabatini, E. Kucukbenli, B. Kolb, T. Thonhauser, and
     *   S. de Gironcoli, J. Phys.: Condens. Matter 24, 424209 (2012).
     *

     Carrying out vdW-DF run using the following parameters:

     Nqs =      20    Nr_points =    1024   r_max =   100.000
     q_mesh =
               0.00001000     0.04494208     0.09755937     0.15916263
               0.23128650     0.31572767     0.41458969     0.53033537
               0.66584808     0.82450364     1.01025438     1.22772762
               1.48234092     1.78043706     2.12944203     2.53805004
               3.01644009     3.57652955     4.23227104     5.00000000

     Gradients computed in reciprocal space

[...]

     Starting wfc are  160 randomized atomic wfcs

     Self-consistent Calculation

[...]

     total energy              =   -2417.57599873 Ry
     Harris-Foulkes estimate   =   -2417.57599484 Ry
     estimated scf accuracy    <       0.00001160 Ry

     iteration # 21     ecut=    36.75 Ry     beta=0.30
     Davidson diagonalization with overlap
     ethr =  5.89E-09,  avg # of iterations =  1.8

[...]

     negative rho (up, down):  1.514E+00 0.000E+00

     Adding external electric field

     Computed dipole along edir(3) :
        Dipole               -0.2087 Ry au,         -0.5305 Debye
        Dipole field         -0.0006 Ry au

        Potential amp.        0.0559 Ry
        Total length         45.0345 bohr

     End of self-consistent calculation

[...]

          k = 0.0613-0.0707 0.0000 ( 15922 PWs)   bands (ev):

[...]

          k =-0.0919-0.0531 0.0000 ( 15968 PWs)   bands (ev):

   -84.4920 -84.2402 -84.1406 -84.1236 -84.1095 -83.8152 -83.7522 -83.7350
   -83.7227 -83.7019 -83.6833 -83.6726 -44.3350 -43.7835 -43.7113 -43.6951
   -43.6270 -43.5882 -43.5691 -43.5574 -43.5472 -43.5027 -43.4892 -43.4220
   -43.3829 -43.2369 -43.2163 -43.1949 -43.1251 -43.1208 -43.0570 -43.0518
   -43.0243 -42.9947 -42.9911 -42.9782 -42.9603 -42.9407 -42.9384 -42.9277
   -42.9039 -42.8953 -42.8657 -42.8599 -42.8446 -42.7443 -42.7098 -42.6844
   -11.3304  -4.8895  -4.7350  -3.3858  -3.1679  -2.9369  -2.8981  -2.8969
    -2.8029  -2.7724  -2.6575  -2.2454  -2.2128  -2.0222  -1.9837  -1.7143
    -1.5824  -1.4866  -1.4153  -1.4060  -1.1282  -1.0665  -1.0078  -0.8589
    -0.7005  -0.6277  -0.2152  -0.1238  -0.0776  -0.0139   0.2152   0.2453
     0.3244   0.3631   0.4653   0.4795   0.4905   0.6424   0.6740   0.8354
     0.8628   0.8706   1.5721   1.6925   1.7620   1.9658   2.0495   2.1048
     2.2812   2.4832   2.6186   2.7438   2.7750   2.9329   3.1264   3.2236
     3.2908   3.5035   3.6508   3.7036

     the Fermi energy is     2.8859 ev

!    total energy              =   -2417.57599466 Ry
     Harris-Foulkes estimate   =   -2417.57600881 Ry
     estimated scf accuracy    <       0.00000538 Ry

     The total energy is the sum of the following terms:

     one-electron contribution =  -21616.00645298 Ry
     hartree contribution      =   10791.06237905 Ry
     xc contribution           =    -469.73128933 Ry
     ewald contribution        =    8877.16662128 Ry
     electric field correction =       0.00012948 Ry
     smearing contrib. (-TS)   =      -0.06738216 Ry

     convergence has been achieved in  21 iterations

 BEEF-vdW xc energy contributions
           1 :   -411.427532276276
           2 :    381.105181702914
           3 :   -327.653309979276
           4 :    262.750438266902
           5 :   -198.869809157308
           6 :    145.931973026286
           7 :   -109.141202389722
           8 :    88.4755030289863
           9 :   -79.8196342186071
          10 :    77.1559030439878
          11 :   -74.9300161773730
          12 :    69.7383526502235
          13 :   -60.8848488235018
          14 :    49.8597858478548
          15 :   -39.1633517392088
          16 :    31.0157310153483
          17 :   -26.4542569429711
          18 :    25.0886809959788
          19 :   -25.4886053719655
          20 :    25.9289186418239
          21 :   -25.1305802853132
          22 :    22.6926563986387
          23 :   -19.0935790523430
          24 :    15.3237783365587
          25 :   -12.3575868849148
          26 :    10.7160959185778
          27 :   -10.2998332864898
          28 :    10.5204535853273
          29 :   -10.6349620171457
          30 :    10.1068663801204
          31 :   -39.1014629308643
          32 :   -29.8159422078527

     Forces acting on atoms (Ry/au):

     negative rho (up, down):  1.514E+00 0.000E+00
     atom    1 type  1   force =    -0.00316177   -0.00175829    0.02526810
     atom    2 type  1   force =     0.00314985   -0.00191406    0.02523583
     atom    3 type  1   force =    -0.00016269    0.00365287    0.02512932
     atom    4 type  1   force =     0.00014625    0.00001501    0.06337442
     atom    5 type  1   force =    -0.00002633    0.00490408   -0.03598863
     atom    6 type  1   force =     0.00003939   -0.00001583   -0.02831656
     atom    7 type  1   force =    -0.00429581   -0.00243893   -0.03599275
     atom    8 type  1   force =     0.00425120   -0.00245856   -0.03595736
     atom    9 type  1   force =    -0.00016389   -0.00006739    0.00093913
     atom   10 type  1   force =     0.00022745    0.00043897   -0.00096105
     atom   11 type  1   force =     0.00046765   -0.00004933   -0.00086327
     atom   12 type  1   force =    -0.00047404   -0.00031198   -0.00086286
     atom   13 type  2   force =     0.00000275    0.00000345   -0.00100431

     Total force =     0.103568     Total SCF correction =     0.007117

     entering subroutine stress ...

     negative rho (up, down):  1.514E+00 0.000E+00
          total   stress  (Ry/bohr**3)                   (kbar)     P=  -29.85
  -0.00022570   0.00000002   0.00000005        -33.20      0.00      0.01
   0.00000002  -0.00022578   0.00000000          0.00    -33.21      0.00
   0.00000005   0.00000000  -0.00015729          0.01      0.00    -23.14

 !ASE

     Writing output data file calc.save

     General routines

     Parallel routines

   This run was terminated on:  20:37: 7  17Jan2018

   JOB DONE.
Job  /afs/slac/g/suncat/bin/suncat-tsmpirun -x LD_LIBRARY_PATH -wdir /scratch/qe842464_zlhwS pw.x -in pw.inp

TID   HOST_NAME   COMMAND_LINE            STATUS            TERMINATION_TIME
00000 suncat2041 pw.x -in pw.inp   Done                     01/17/2018 20:37:07
00001 suncat2041 pw.x -in pw.inp   Done                     01/17/2018 20:37:07
00002 suncat2041 pw.x -in pw.inp   Done                     01/17/2018 20:37:07
00003 suncat2041 pw.x -in pw.inp   Done                     01/17/2018 20:37:07
00004 suncat2041 pw.x -in pw.inp   Done                     01/17/2018 20:37:07
00005 suncat2041 pw.x -in pw.inp   Done                     01/17/2018 20:37:07
00006 suncat2041 pw.x -in pw.inp   Done                     01/17/2018 20:37:07
00007 suncat2041 pw.x -in pw.inp   Done                     01/17/2018 20:37:07
00008 suncat2041 pw.x -in pw.inp   Done                     01/17/2018 20:37:07
00009 suncat2041 pw.x -in pw.inp   Done                     01/17/2018 20:37:07
00010 suncat2041 pw.x -in pw.inp   Done                     01/17/2018 20:37:07
00011 suncat2041 pw.x -in pw.inp   Done                     01/17/2018 20:37:07
00012 suncat2041 pw.x -in pw.inp   Done                     01/17/2018 20:37:07
00013 suncat2041 pw.x -in pw.inp   Done                     01/17/2018 20:37:07
00014 suncat2041 pw.x -in pw.inp   Done                     01/17/2018 20:37:07
00015 suncat2041 pw.x -in pw.inp   Done                     01/17/2018 20:37:07
00016 suncat2040 pw.x -in pw.inp   Done                     01/17/2018 20:37:07
00017 suncat2040 pw.x -in pw.inp   Done                     01/17/2018 20:37:07
00018 suncat2040 pw.x -in pw.inp   Done                     01/17/2018 20:37:07
00019 suncat2040 pw.x -in pw.inp   Done                     01/17/2018 20:37:07
00020 suncat2040 pw.x -in pw.inp   Done                     01/17/2018 20:37:07
00021 suncat2040 pw.x -in pw.inp   Done                     01/17/2018 20:37:07
00022 suncat2040 pw.x -in pw.inp   Done                     01/17/2018 20:37:07
00023 suncat2040 pw.x -in pw.inp   Done                     01/17/2018 20:37:07
00024 suncat2040 pw.x -in pw.inp   Done                     01/17/2018 20:37:07
00025 suncat2040 pw.x -in pw.inp   Done                     01/17/2018 20:37:07
00026 suncat2040 pw.x -in pw.inp   Done                     01/17/2018 20:37:07
00027 suncat2040 pw.x -in pw.inp   Done                     01/17/2018 20:37:07
00028 suncat2040 pw.x -in pw.inp   Done                     01/17/2018 20:37:07
00029 suncat2040 pw.x -in pw.inp   Done                     01/17/2018 20:37:07
00030 suncat2040 pw.x -in pw.inp   Done                     01/17/2018 20:37:07
00031 suncat2040 pw.x -in pw.inp   Done                     01/17/2018 20:37:07