     Program PWSCF v.5.1rc2 (svn rev. ) starts on 22Feb2018 at 23: 7:21

     Current dimensions of program PWSCF are:
     Max number of different atomic species (ntypx) = 10
     Max number of k-points (npk) =  40000
     Max angular momentum in pseudopotentials (lmaxx) =  3
     Presently stress not available with electric field

     IMPORTANT: XC functional enforced from input :
     Exchange-correlation      = BEEF-VDW ( 1  4 27 13 2)
     Any further DFT definition will be discarded
     Please, verify this is what you really want

     Subspace diagonalization in iterative solution of the eigenvalue problem:
     a serial algorithm will be used

     bravais-lattice index     =            0
     lattice parameter (alat)  =       1.8897  a.u.
     unit-cell volume          =    7276.7660 (a.u.)^3
     number of atoms/cell      =           13
     number of atomic types    =            2
     number of electrons       =       186.00
     number of Kohn-Sham states=          103
     kinetic-energy cutoff     =      36.7493  Ry
     charge density cutoff     =     367.4932  Ry
     convergence threshold     =      1.0E-05
     mixing beta               =       0.3000
     number of iterations used =           10  plain     mixing
     Exchange-correlation      = BEEF-VDW ( 1  4 27 13 2)
     nstep                     =           50

     celldm(1)=   1.889726  celldm(2)=   0.000000  celldm(3)=   0.000000
     celldm(4)=   0.000000  celldm(5)=   0.000000  celldm(6)=   0.000000

     crystal axes: (cart. coord. in units of alat)
               a(1) = (   6.962526   0.000000   0.000000 )
               a(2) = (   3.481263   6.029724   0.000000 )
               a(3) = (   0.000000   0.000000  25.684879 )

     reciprocal axes: (cart. coord. in units 2 pi/alat)
               b(1) = (  0.143626 -0.082923  0.000000 )
               b(2) = (  0.000000  0.165845  0.000000 )
               b(3) = (  0.000000  0.000000  0.038933 )

     PseudoPot. # 1 for Bi read from file:
     /home/mamunm/src/pseudo/gbrv1.5pbe/Bi.UPF
     MD5 check sum: 81103212dc04adf40945787f699eab19
     Pseudo is Ultrasoft + core correction, Zval = 15.0
     Generated by new atomic code, or converted to UPF format
     Using radial grid of  899 points,  6 beta functions with:
                l(1) =   0
                l(2) =   0
                l(3) =   1
                l(4) =   1
                l(5) =   2
                l(6) =   2
     Q(r) pseudized with  6 coefficients,  rinner =    1.000   1.000   1.000
                                                       1.000   1.000

     PseudoPot. # 2 for S  read from file:
     /home/mamunm/src/pseudo/gbrv1.5pbe/S.UPF
     MD5 check sum: 88d86576ff6df21479756cfb9bdac1df
     Pseudo is Ultrasoft + core correction, Zval =  6.0
     Generated by new atomic code, or converted to UPF format
     Using radial grid of  907 points,  6 beta functions with:
                l(1) =   0
                l(2) =   0
                l(3) =   1
                l(4) =   1
                l(5) =   2
                l(6) =   2
     Q(r) pseudized with  8 coefficients,  rinner =    1.300   1.300   1.300
                                                       1.300   1.300

     vdW kernel table read from file vdW_kernel_table
     MD5 check sum: 095c7af220d748ca6e76c0b4c6cfb241

     atomic species   valence    mass     pseudopotential
        Bi1           15.00   208.98040     Bi( 1.00)
        S1             6.00    32.06000     S ( 1.00)

     No symmetry found

   Cartesian axes

     site n.     atom                  positions (alat units)
         1           Bi1 tau(   1) = (   1.7406315   1.0049541  10.0000000  )
         2           Bi1 tau(   2) = (   5.2218945   1.0049541  10.0000000  )
         3           Bi1 tau(   3) = (   3.4812630   4.0198163  10.0000000  )
         4           Bi1 tau(   4) = (   6.9625260   4.0198163  10.0000000  )
         5           Bi1 tau(   5) = (   6.9625260   2.0099081  12.8424393  )
         6           Bi1 tau(   6) = (   3.4812630   2.0099081  12.8424393  )
         7           Bi1 tau(   7) = (   8.7031575   5.0247703  12.8424393  )
         8           Bi1 tau(   8) = (   5.2218945   5.0247703  12.8424393  )
         9           Bi1 tau(   9) = (   0.0000000   0.0000000  15.6848787  )
        10           Bi1 tau(  10) = (   3.4812630   0.0000000  15.6848787  )
        11           Bi1 tau(  11) = (   1.7406315   3.0148622  15.6848787  )
        12           Bi1 tau(  12) = (   5.2218945   3.0148622  15.6848787  )
        13           S1  tau(  13) = (   3.4812630   2.0099081  17.3293787  )

     number of k points=    20  Fermi-Dirac smearing, width (Ry)=  0.0110
                       cart. coord. in units 2pi/alat
        k(    1) = (   0.0000000   0.0000000   0.0000000), wk =   0.0555556
        k(    2) = (   0.0000000   0.0276408   0.0000000), wk =   0.1111111
        k(    3) = (   0.0000000   0.0552817   0.0000000), wk =   0.1111111
        k(    4) = (   0.0000000  -0.0829225   0.0000000), wk =   0.0555556
        k(    5) = (   0.0239377  -0.0138204   0.0000000), wk =   0.1111111
        k(    6) = (   0.0239377   0.0138204   0.0000000), wk =   0.1111111
        k(    7) = (   0.0239377   0.0414613   0.0000000), wk =   0.1111111
        k(    8) = (   0.0239377  -0.0967430   0.0000000), wk =   0.1111111
        k(    9) = (   0.0239377  -0.0691021   0.0000000), wk =   0.1111111
        k(   10) = (   0.0239377  -0.0414613   0.0000000), wk =   0.1111111
        k(   11) = (   0.0478753  -0.0276408   0.0000000), wk =   0.1111111
        k(   12) = (   0.0478753   0.0000000   0.0000000), wk =   0.1111111
        k(   13) = (   0.0478753   0.0276408   0.0000000), wk =   0.1111111
        k(   14) = (   0.0478753  -0.1105634   0.0000000), wk =   0.1111111
        k(   15) = (   0.0478753  -0.0829225   0.0000000), wk =   0.1111111
        k(   16) = (   0.0478753  -0.0552817   0.0000000), wk =   0.1111111
        k(   17) = (  -0.0718130   0.0414613   0.0000000), wk =   0.0555556
        k(   18) = (  -0.0718130   0.0691021   0.0000000), wk =   0.1111111
        k(   19) = (  -0.0718130   0.0967430   0.0000000), wk =   0.1111111
        k(   20) = (  -0.0718130  -0.0414613   0.0000000), wk =   0.0555556

     Largest allocated arrays     est. size (Mb)     dimensions
     Largest temporary arrays     est. size (Mb)     dimensions

     Check: negative/imaginary core charge=   -0.000001    0.000000

     Initial potential from superposition of free atoms
     Check: negative starting charge=   -0.503118

     starting charge  173.99946, renormalised to  186.00000

     negative rho (up, down):  5.378E-01 0.000E+00

     *
     * You are using vdW-DF for exchange-correlation in this calculation.
     * Please cite the following three references that made this development
     * possible:
     *
     *   M. Dion, H. Rydberg, E. Schroder, D. C. Langreth, and
     *   B. I. Lundqvist, Phys. Rev. Lett. 92, 246401 (2004).
     *
     *   T. Thonhauser, V. R. Cooper, S. Li, A. Puzder, P. Hyldgaard, and
     *   D. C. Langreth, Phys. Rev. B 76, 125112 (2007).
     *
     *   G. Roman-Perez and J. M. Soler, Phys. Rev. Lett. 103, 096102 (2009).
     *
     *
     * If you are using vdW-DF2, please also cite:
     *
     *   K. Lee, E. D. Murray, L. Kong, B. I. Lundqvist, and
     *   D. C. Langreth, Phys. Rev. B 82, 081101(R) (2010).
     *
     *
     * If you are calculating the stress with vdW-DF, please also cite:
     *
     *   R. Sabatini, E. Kucukbenli, B. Kolb, T. Thonhauser, and
     *   S. de Gironcoli, J. Phys.: Condens. Matter 24, 424209 (2012).
     *

     Carrying out vdW-DF run using the following parameters:

     Nqs =      20    Nr_points =    1024   r_max =   100.000
     q_mesh =
               0.00001000     0.04494208     0.09755937     0.15916263
               0.23128650     0.31572767     0.41458969     0.53033537
               0.66584808     0.82450364     1.01025438     1.22772762
               1.48234092     1.78043706     2.12944203     2.53805004
               3.01644009     3.57652955     4.23227104     5.00000000

     Gradients computed in reciprocal space

     Adding external electric field

     Computed dipole along edir(3) :
        Dipole               -3.5084 Ry au,         -8.9175 Debye
        Dipole field         -0.0061 Ry au

        Potential amp.        0.5734 Ry
        Total length         47.3240 bohr

     Starting wfc are  112 randomized atomic wfcs

     Self-consistent Calculation

     iteration #  1     ecut=    36.75 Ry     beta=0.30
     Davidson diagonalization with overlap
     ethr =  1.00E-02,  avg # of iterations =  6.8

[...]

     total energy              =   -2227.66445561 Ry
     Harris-Foulkes estimate   =   -2272.87440501 Ry
     estimated scf accuracy    <      95.53975370 Ry

[...]

     End of self-consistent calculation

          k = 0.0000 0.0000 0.0000 ( 27441 PWs)   bands (ev):

   -22.3428 -22.3358 -22.3358 -22.3330 -22.2992 -22.2992 -22.2804 -22.2803
   -22.2769 -22.2630 -22.2584 -22.2584 -22.2425 -22.2425 -22.2180 -22.2044
   -22.1969 -22.1947 -22.1947 -22.1885 -22.1885 -22.1649 -22.1649 -22.1498
   -22.1403 -22.1403 -22.1332 -22.1300 -22.1300 -22.1243 -22.1243 -22.1159
   -22.1159 -22.1077 -22.1040 -22.1040 -22.0962 -22.0791 -22.0607 -22.0563
   -22.0563 -22.0395 -22.0395 -22.0079 -21.9819 -21.9818 -21.9657 -21.9639
   -21.9559 -21.9558 -21.9355 -21.9354 -21.9199 -21.9198 -21.9121 -21.9048
   -21.9048 -21.9021 -21.9021 -21.8882 -12.9830 -11.9299 -10.6694  -9.6318
    -9.4050  -9.4050  -9.2488  -9.0029  -9.0029  -8.6652  -8.4666  -8.4666
    -8.3011  -3.8286  -3.6105  -3.6105  -3.2778  -3.2778  -3.0743  -2.9489
    -2.6102  -2.5381  -2.5381  -1.3304  -1.3303  -0.4813   0.1677   0.9915
     0.9915   1.0822   1.5962   1.5962   2.1646   2.2430   2.2430   2.2582
     2.9224   3.1906   3.2049   3.2049   3.2681   3.9699   3.9699

[...]

          k =-0.0718 0.0415 0.0000 ( 27378 PWs)   bands (ev):

[...]

     the Fermi energy is     1.4240 ev

!    total energy              =   -2270.23225932 Ry
     Harris-Foulkes estimate   =   -2270.23228161 Ry
     estimated scf accuracy    <       0.00000371 Ry

     The total energy is the sum of the following terms:

     one-electron contribution =  -10990.90173349 Ry
     hartree contribution      =    5551.73840481 Ry
     xc contribution           =    -807.89921103 Ry
     ewald contribution        =    3976.88216931 Ry
     electric field correction =       0.00007182 Ry
     smearing contrib. (-TS)   =      -0.05196074 Ry

     convergence has been achieved in  16 iterations

 BEEF-vdW xc energy contributions
           1 :   -720.067651181405
           2 :    669.070778579574
           3 :   -579.073848586568
           4 :    469.595020691989
           5 :   -361.179919745117
           6 :    269.448407486599
           7 :   -201.553036584714
           8 :    155.970038463013
           9 :   -125.318073702428
          10 :    100.748542612330
          11 :   -75.9592532216736
          12 :    49.2454286064160
          13 :   -23.0583001411314
          14 :    1.70411742399779
          15 :    11.4447232026369
          16 :   -15.8451196599492
          17 :    14.0076579826153
          18 :   -10.1566225996137
          19 :    8.16052459647369
          20 :   -9.83344821586820
          21 :    14.4091117488308
          22 :   -19.3371913554261
          23 :    21.8766179740736
          24 :   -20.6127998291327
          25 :    16.1409894854843
          26 :   -10.6457142558835
          27 :    6.68192003814522
          28 :   -5.84359565307614
          29 :    8.01166851597509
          30 :   -11.5313338713381
          31 :   -57.7087621177598
          32 :   -42.4665463280130

     Forces acting on atoms (Ry/au):

     negative rho (up, down):  5.270E-01 0.000E+00
     atom    1 type  1   force =     0.00276388    0.00159278   -0.01160612
     atom    2 type  1   force =    -0.00277869    0.00159090   -0.01161938
     atom    3 type  1   force =     0.00000897   -0.00320264   -0.01159687
     atom    4 type  1   force =    -0.00000055    0.00000976    0.00089437
     atom    5 type  1   force =     0.00002118    0.00078463   -0.01262557
     atom    6 type  1   force =    -0.00002245    0.00002397    0.00708183
     atom    7 type  1   force =    -0.00065403   -0.00042198   -0.01262089
     atom    8 type  1   force =     0.00066579   -0.00038707   -0.01264800
     atom    9 type  1   force =     0.00000135   -0.00000626    0.00494359
     atom   10 type  1   force =    -0.00001058   -0.02762669   -0.00539041
     atom   11 type  1   force =    -0.02391936    0.01381157   -0.00538640
     atom   12 type  1   force =     0.02392452    0.01382949   -0.00538987
     atom   13 type  2   force =    -0.00000001    0.00000154    0.07596372

     Total force =     0.090398     Total SCF correction =     0.009008

     entering subroutine stress ...

     negative rho (up, down):  5.270E-01 0.000E+00
          total   stress  (Ry/bohr**3)                   (kbar)     P=   13.65
   0.00008998  -0.00000000   0.00000000         13.24     -0.00      0.00
  -0.00000000   0.00008998  -0.00000000         -0.00     13.24     -0.00
   0.00000000  -0.00000000   0.00009843          0.00     -0.00     14.48

     BFGS Geometry Optimization

     number of scf cycles    =   1
     number of bfgs steps    =   0

     energy   new            =   -2270.2322593225 Ry

     new trust radius        =       0.0759637197 bohr
     new conv_thr            =       0.0000099958 Ry

ATOMIC_POSITIONS (crystal)
Bi1      0.166666667   0.166666667   0.389334134    0   0   0
Bi1      0.666666667   0.166666667   0.389334134    0   0   0
Bi1      0.166666667   0.666666667   0.389334134    0   0   0
Bi1      0.666666667   0.666666667   0.389334134    0   0   0
Bi1      0.833333333   0.333333333   0.500000000    0   0   0
Bi1      0.333333333   0.333333333   0.500000000    0   0   0
Bi1      0.833333333   0.833333333   0.500000000    0   0   0
Bi1      0.333333333   0.833333333   0.500000000    0   0   0
Bi1      0.000000377  -0.000000549   0.610767717
Bi1      0.501211475  -0.002424558   0.610554809
Bi1     -0.002424020   0.501212123   0.610554892
Bi1      0.501211502   0.501213696   0.610554820
S1       0.333333265   0.333333469   0.676256920

     Writing output data file calc.save
     Check: negative starting charge=   -0.503118
     NEW-OLD atomic charge density approx. for the potential

     Check: negative/imaginary core charge=   -0.000001    0.000000
     Check: negative starting charge=   -0.502910

[...]

     energy   old            =   -2270.2322593225 Ry
     energy   new            =   -2270.2394029697 Ry

     CASE: energy  _new < energy  _old

[...]

     iteration #  1     ecut=    36.75 Ry     beta=0.30
     Davidson diagonalization with overlap
     c_bands:  1 eigenvalues not converged
     c_bands:  1 eigenvalues not converged
     c_bands:  1 eigenvalues not converged
     ethr =  1.00E-06,  avg # of iterations =  7.6

[...]

     iteration #  1     ecut=    36.75 Ry     beta=0.30
     Davidson diagonalization with overlap
     c_bands:  1 eigenvalues not converged
     c_bands:  1 eigenvalues not converged
     c_bands:  1 eigenvalues not converged
     c_bands:  1 eigenvalues not converged
     c_bands:  1 eigenvalues not converged
     c_bands:  1 eigenvalues not converged
     ethr =  1.00E-06,  avg # of iterations = 15.8

[...]

     Total force =     0.007036     Total SCF correction =     0.000122

[...]

     Total force =     0.003601     Total SCF correction =     0.001175
     SCF correction compared to forces is large: reduce conv_thr to get better values

[...]

     number of scf cycles    =  14
     number of bfgs steps    =  13

     energy   old            =   -2270.2698040461 Ry
     energy   new            =   -2270.2698226577 Ry

     CASE: energy  _new < energy  _old

     new trust radius        =       0.0128436279 bohr
     new conv_thr            =       0.0000001000 Ry

ATOMIC_POSITIONS (crystal)
Bi1      0.166666667   0.166666667   0.389334134    0   0   0
Bi1      0.666666667   0.166666667   0.389334134    0   0   0
Bi1      0.166666667   0.666666667   0.389334134    0   0   0
Bi1      0.666666667   0.666666667   0.389334134    0   0   0
Bi1      0.833333333   0.333333333   0.500000000    0   0   0
Bi1      0.333333333   0.333333333   0.500000000    0   0   0
Bi1      0.833333333   0.833333333   0.500000000    0   0   0
Bi1      0.333333333   0.833333333   0.500000000    0   0   0
Bi1      0.000000255  -0.000003493   0.615016129
Bi1      0.496841630   0.006311459   0.628818353
Bi1      0.006308280   0.496846323   0.628818837
Bi1      0.496844168   0.496851827   0.628818871
S1       0.333334105   0.333334230   0.703377697

     Writing output data file calc.save
     Check: negative starting charge=   -0.502443
     NEW-OLD atomic charge density approx. for the potential

     Check: negative/imaginary core charge=   -0.000001    0.000000
     Check: negative starting charge=   -0.502884

[...]

     Self-consistent Calculation

[...]

     total energy              =   -2270.26985942 Ry
     Harris-Foulkes estimate   =   -2270.26985939 Ry
     estimated scf accuracy    <       0.00000041 Ry

     iteration #  7     ecut=    36.75 Ry     beta=0.30
     Davidson diagonalization with overlap
     ethr =  2.23E-10,  avg # of iterations =  2.6

[...]

     negative rho (up, down):  5.255E-01 0.000E+00

     Adding external electric field

     Computed dipole along edir(3) :
        Dipole               -0.3548 Ry au,         -0.9018 Debye
        Dipole field         -0.0006 Ry au

        Potential amp.        0.0580 Ry
        Total length         47.3240 bohr

     End of self-consistent calculation

[...]

          k = 0.0479-0.0553 0.0000 ( 27352 PWs)   bands (ev):

[...]

          k =-0.0718-0.0415 0.0000 ( 27378 PWs)   bands (ev):

   -22.3453 -22.3371 -22.3178 -22.3112 -22.3074 -22.3051 -22.3039 -22.3013
   -22.2914 -22.2858 -22.2774 -22.2729 -22.2642 -22.2575 -22.2569 -22.2429
   -22.2306 -22.2285 -22.2274 -22.2244 -22.2224 -22.2209 -22.2175 -22.2172
   -22.2159 -22.2109 -22.2054 -22.2038 -22.2037 -22.1983 -22.1910 -22.1827
   -22.1797 -22.1753 -22.1662 -22.1645 -22.1527 -22.1308 -22.1276 -22.1025
   -22.1007 -22.0948 -22.0904 -22.0859 -22.0844 -22.0836 -22.0827 -22.0810
   -22.0759 -22.0722 -22.0688 -22.0608 -22.0522 -22.0293 -22.0202 -22.0117
   -22.0019 -21.9791 -21.9783 -21.9673 -12.1255 -11.0379 -10.9754 -10.1845
    -9.7718  -9.4737  -9.4348  -9.4158  -9.1905  -9.0073  -8.7250  -8.4875
    -8.4025  -2.7723  -2.2267  -2.1686  -2.0426  -1.9529  -1.9336  -1.7590
    -1.7450  -1.4863  -1.3711  -0.6951  -0.5941  -0.3767  -0.2881  -0.0019
     0.4540   0.6387   0.6479   0.8164   0.8877   0.9522   1.0145   1.2445
     1.3523   1.4357   1.6704   2.0004   2.4328   2.9821   3.2576

     the Fermi energy is     1.3471 ev

!    total energy              =   -2270.26985936 Ry
     Harris-Foulkes estimate   =   -2270.26986008 Ry
     estimated scf accuracy    <       0.00000010 Ry

     The total energy is the sum of the following terms:

     one-electron contribution =  -10312.21627704 Ry
     hartree contribution      =    5212.02652456 Ry
     xc contribution           =    -807.51676814 Ry
     ewald contribution        =    3637.48829959 Ry
     electric field correction =       0.00021738 Ry
     smearing contrib. (-TS)   =      -0.05185572 Ry

     convergence has been achieved in   7 iterations

 BEEF-vdW xc energy contributions
           1 :   -719.670125240826
           2 :    668.458412073883
           3 :   -578.193964670215
           4 :    468.600971816825
           5 :   -360.349641438631
           6 :    269.032795315301
           7 :   -201.631485816110
           8 :    156.393911722897
           9 :   -125.778652877951
          10 :    100.936764432472
          11 :   -75.7308948289709
          12 :    48.6992259237230
          13 :   -22.4812923807792
          14 :    1.41313523817666
          15 :    11.2783898873658
          16 :   -15.2927580332043
          17 :    13.3482712006885
          18 :   -9.72818790133908
          19 :    8.17829905320013
          20 :   -10.2742267461338
          21 :    15.0241102040176
          22 :   -19.7862747316503
          23 :    21.9108021358018
          24 :   -20.2063013122148
          25 :    15.5027313061166
          26 :   -10.1057832781344
          27 :    6.51483696314006
          28 :   -6.12418433526477
          29 :    8.58015335249411
          30 :   -12.0837399852692
          31 :   -57.6746786242643
          32 :   -42.3753340448188

     Forces acting on atoms (Ry/au):

     negative rho (up, down):  5.255E-01 0.000E+00
     atom    1 type  1   force =     0.00266599    0.00153945   -0.00594489
     atom    2 type  1   force =    -0.00266593    0.00153918   -0.00594467
     atom    3 type  1   force =    -0.00000005   -0.00307856   -0.00594522
     atom    4 type  1   force =     0.00000010    0.00000004   -0.00113224
     atom    5 type  1   force =    -0.00000025    0.00174196    0.00584859
     atom    6 type  1   force =     0.00000004   -0.00000002    0.00204727
     atom    7 type  1   force =    -0.00150802   -0.00087080    0.00584915
     atom    8 type  1   force =     0.00150826   -0.00087117    0.00584952
     atom    9 type  1   force =    -0.00000121   -0.00000033   -0.00188842
     atom   10 type  1   force =     0.00000088   -0.00165151   -0.00005589
     atom   11 type  1   force =    -0.00143120    0.00082606   -0.00005577
     atom   12 type  1   force =     0.00143140    0.00082550   -0.00005505
     atom   13 type  2   force =    -0.00000002    0.00000021    0.00142761

     Total force =     0.003715     Total SCF correction =     0.001372
     SCF correction compared to forces is large: reduce conv_thr to get better values

     entering subroutine stress ...

     negative rho (up, down):  5.255E-01 0.000E+00
          total   stress  (Ry/bohr**3)                   (kbar)     P=    1.42
   0.00001439   0.00000000  -0.00000000          2.12      0.00     -0.00
   0.00000000   0.00001439  -0.00000000          0.00      2.12     -0.00
  -0.00000000  -0.00000000   0.00000022         -0.00     -0.00      0.03

     bfgs converged in  15 scf cycles and  14 bfgs steps
     (criteria: energy <  1.0E+00, force <  1.9E-03)

     End of BFGS Geometry Optimization

     Final energy   =   -2270.2698593586 Ry
Begin final coordinates

ATOMIC_POSITIONS (crystal)
Bi1      0.166666667   0.166666667   0.389334134    0   0   0
Bi1      0.666666667   0.166666667   0.389334134    0   0   0
Bi1      0.166666667   0.666666667   0.389334134    0   0   0
Bi1      0.666666667   0.666666667   0.389334134    0   0   0
Bi1      0.833333333   0.333333333   0.500000000    0   0   0
Bi1      0.333333333   0.333333333   0.500000000    0   0   0
Bi1      0.833333333   0.833333333   0.500000000    0   0   0
Bi1      0.333333333   0.833333333   0.500000000    0   0   0
Bi1      0.000000255  -0.000003493   0.615016129
Bi1      0.496841630   0.006311459   0.628818353
Bi1      0.006308280   0.496846323   0.628818837
Bi1      0.496844168   0.496851827   0.628818871
S1       0.333334105   0.333334230   0.703377697
End final coordinates

     Writing output data file calc.save

     General routines

     Parallel routines

   This run was terminated on:   0:33:10  23Feb2018

   JOB DONE.