     Program PWSCF v.5.1rc2 (svn rev. 11289) starts on  3May2018 at 19:20:15

     Current dimensions of program PWSCF are:
     Max number of different atomic species (ntypx) = 10
     Max number of k-points (npk) =  40000
     Max angular momentum in pseudopotentials (lmaxx) =  3
     Presently stress not available with electric field

     IMPORTANT: XC functional enforced from input :
     Exchange-correlation      = BEEF-VDW ( 1  4 27 13 2)
     Any further DFT definition will be discarded
     Please, verify this is what you really want

     Subspace diagonalization in iterative solution of the eigenvalue problem:
     a serial algorithm will be used

     bravais-lattice index     =            0
     lattice parameter (alat)  =       1.8897  a.u.
     unit-cell volume          =    5409.9593 (a.u.)^3
     number of atoms/cell      =           13
     number of atomic types    =            2
     number of electrons       =       234.00
     number of Kohn-Sham states=          127
     kinetic-energy cutoff     =      36.7493  Ry
     charge density cutoff     =     367.4932  Ry
     convergence threshold     =      1.0E-05
     mixing beta               =       0.3000
     number of iterations used =           10  plain     mixing
     Exchange-correlation      = BEEF-VDW ( 1  4 27 13 2)
     nstep                     =           50

     celldm(1)=   1.889726  celldm(2)=   0.000000  celldm(3)=   0.000000
     celldm(4)=   0.000000  celldm(5)=   0.000000  celldm(6)=   0.000000

     crystal axes: (cart. coord. in units of alat)
               a(1) = (   6.088539   0.000000   0.000000 )
               a(2) = (   3.044269   5.272829   0.000000 )
               a(3) = (   0.000000   0.000000  24.971271 )

     reciprocal axes: (cart. coord. in units 2 pi/alat)
               b(1) = (  0.164243 -0.094826  0.000000 )
               b(2) = (  0.000000  0.189652  0.000000 )
               b(3) = (  0.000000  0.000000  0.040046 )

     PseudoPot. # 1 for Ga read from file:
     /u/if/mamunm/psp/gbrv1.5pbe/Ga.UPF
     MD5 check sum: ccd671392a58a050fbb373893b4fcd66
     Pseudo is Ultrasoft + core correction, Zval = 19.0
     Generated by new atomic code, or converted to UPF format
     Using radial grid of  871 points,  6 beta functions with:
                l(1) =   0
                l(2) =   0
                l(3) =   1
                l(4) =   1
                l(5) =   2
                l(6) =   2
     Q(r) pseudized with  8 coefficients,  rinner =    1.250   1.250   1.250
                                                       1.250   1.250

     PseudoPot. # 2 for O  read from file:
     /u/if/mamunm/psp/gbrv1.5pbe/O.UPF
     MD5 check sum: 734c27235a0248c51dbae37a1fbe46ec
     Pseudo is Ultrasoft + core correction, Zval =  6.0
     Generated by new atomic code, or converted to UPF format
     Using radial grid of  737 points,  5 beta functions with:
                l(1) =   0
                l(2) =   0
                l(3) =   1
                l(4) =   1
                l(5) =   2
     Q(r) pseudized with  8 coefficients,  rinner =    0.900   0.900   0.900
                                                       0.900   0.900

     vdW kernel table read from file vdW_kernel_table
     MD5 check sum: 095c7af220d748ca6e76c0b4c6cfb241

     atomic species   valence    mass     pseudopotential
        Ga1           19.00    69.72300     Ga( 1.00)
        O1             6.00    15.99900     O ( 1.00)

     No symmetry found

   Cartesian axes

     site n.     atom                  positions (alat units)
         1           Ga1 tau(   1) = (   1.5221346   0.8788048  10.0000000  )
         2           Ga1 tau(   2) = (   4.5664039   0.8788048  10.0000000  )
         3           Ga1 tau(   3) = (   3.0442693   3.5152194  10.0000000  )
         4           Ga1 tau(   4) = (   6.0885386   3.5152194  10.0000000  )
         5           Ga1 tau(   5) = (   6.0885386   1.7576097  12.4856355  )
         6           Ga1 tau(   6) = (   3.0442693   1.7576097  12.4856355  )
         7           Ga1 tau(   7) = (   7.6106732   4.3940242  12.4856355  )
         8           Ga1 tau(   8) = (   4.5664039   4.3940242  12.4856355  )
         9           Ga1 tau(   9) = (   0.0000000   0.0000000  14.9712709  )
        10           Ga1 tau(  10) = (   3.0442693   0.0000000  14.9712709  )
        11           Ga1 tau(  11) = (   1.5221346   2.6364145  14.9712709  )
        12           Ga1 tau(  12) = (   4.5664039   2.6364145  14.9712709  )
        13           O1  tau(  13) = (   0.0000000   0.0000000  16.5692709  )

     number of k points=    20  Fermi-Dirac smearing, width (Ry)=  0.0110
                       cart. coord. in units 2pi/alat
        k(    1) = (   0.0000000   0.0000000   0.0000000), wk =   0.0555556
        k(    2) = (   0.0000000   0.0316086   0.0000000), wk =   0.1111111
        k(    3) = (   0.0000000   0.0632172   0.0000000), wk =   0.1111111
        k(    4) = (   0.0000000  -0.0948258   0.0000000), wk =   0.0555556
        k(    5) = (   0.0273738  -0.0158043   0.0000000), wk =   0.1111111
        k(    6) = (   0.0273738   0.0158043   0.0000000), wk =   0.1111111
        k(    7) = (   0.0273738   0.0474129   0.0000000), wk =   0.1111111
        k(    8) = (   0.0273738  -0.1106300   0.0000000), wk =   0.1111111
        k(    9) = (   0.0273738  -0.0790215   0.0000000), wk =   0.1111111
        k(   10) = (   0.0273738  -0.0474129   0.0000000), wk =   0.1111111
        k(   11) = (   0.0547477  -0.0316086   0.0000000), wk =   0.1111111
        k(   12) = (   0.0547477   0.0000000   0.0000000), wk =   0.1111111
        k(   13) = (   0.0547477   0.0316086   0.0000000), wk =   0.1111111
        k(   14) = (   0.0547477  -0.1264343   0.0000000), wk =   0.1111111
        k(   15) = (   0.0547477  -0.0948258   0.0000000), wk =   0.1111111
        k(   16) = (   0.0547477  -0.0632172   0.0000000), wk =   0.1111111
        k(   17) = (  -0.0821215   0.0474129   0.0000000), wk =   0.0555556
        k(   18) = (  -0.0821215   0.0790215   0.0000000), wk =   0.1111111
        k(   19) = (  -0.0821215   0.1106300   0.0000000), wk =   0.1111111
        k(   20) = (  -0.0821215  -0.0474129   0.0000000), wk =   0.0555556

     Largest allocated arrays     est. size (Mb)     dimensions
     Largest temporary arrays     est. size (Mb)     dimensions

     Initial potential from superposition of free atoms
     Check: negative starting charge=   -0.001331

     starting charge  221.99999, renormalised to  234.00000

     negative rho (up, down):  1.403E-03 0.000E+00

     *
     * You are using vdW-DF for exchange-correlation in this calculation.
     * Please cite the following three references that made this development
     * possible:
     *
     *   M. Dion, H. Rydberg, E. Schroder, D. C. Langreth, and
     *   B. I. Lundqvist, Phys. Rev. Lett. 92, 246401 (2004).
     *
     *   T. Thonhauser, V. R. Cooper, S. Li, A. Puzder, P. Hyldgaard, and
     *   D. C. Langreth, Phys. Rev. B 76, 125112 (2007).
     *
     *   G. Roman-Perez and J. M. Soler, Phys. Rev. Lett. 103, 096102 (2009).
     *
     *
     * If you are using vdW-DF2, please also cite:
     *
     *   K. Lee, E. D. Murray, L. Kong, B. I. Lundqvist, and
     *   D. C. Langreth, Phys. Rev. B 82, 081101(R) (2010).
     *
     *
     * If you are calculating the stress with vdW-DF, please also cite:
     *
     *   R. Sabatini, E. Kucukbenli, B. Kolb, T. Thonhauser, and
     *   S. de Gironcoli, J. Phys.: Condens. Matter 24, 424209 (2012).
     *

     Carrying out vdW-DF run using the following parameters:

     Nqs =      20    Nr_points =    1024   r_max =   100.000
     q_mesh =
               0.00001000     0.04494208     0.09755937     0.15916263
               0.23128650     0.31572767     0.41458969     0.53033537
               0.66584808     0.82450364     1.01025438     1.22772762
               1.48234092     1.78043706     2.12944203     2.53805004
               3.01644009     3.57652955     4.23227104     5.00000000

     Gradients computed in reciprocal space

     Adding external electric field

     Computed dipole along edir(3) :
        Dipole               -2.5028 Ry au,         -6.3614 Debye
        Dipole field         -0.0058 Ry au

        Potential amp.        0.5350 Ry
        Total length         46.0091 bohr

     Starting wfc are  148 randomized atomic wfcs

     Self-consistent Calculation

     iteration #  1     ecut=    36.75 Ry     beta=0.30
     Davidson diagonalization with overlap
     ethr =  1.00E-02,  avg # of iterations =  7.3

[...]

     total energy              =   -4727.49937274 Ry
     Harris-Foulkes estimate   =   -5041.51404841 Ry
     estimated scf accuracy    <     663.02344158 Ry

[...]

     End of self-consistent calculation

          k = 0.0000 0.0000 0.0000 ( 20347 PWs)   bands (ev):

   -95.3881 -95.3879 -95.3879 -95.3815 -95.3815 -95.3810 -95.3773 -95.3772
   -95.3772 -95.3677 -95.3628 -95.3623 -95.3613 -95.3613 -95.3611 -95.3611
   -95.3584 -95.3584 -95.3580 -95.3577 -95.3577 -95.3570 -95.3566 -95.3551
   -95.3551 -95.3528 -95.3526 -95.3526 -95.3504 -95.3504 -95.3262 -95.3262
   -95.3207 -94.8784 -94.8784 -94.7608 -18.8794 -15.8585 -15.8585 -15.8576
   -15.8200 -15.8147 -15.8093 -15.8093 -15.8036 -15.8036 -15.7978 -15.7951
   -15.7829 -15.7829 -15.7761 -15.7544 -15.7544 -15.7534 -15.7499 -15.7457
   -15.7456 -15.7356 -15.7356 -15.7335 -15.7308 -15.7308 -15.7249 -15.7068
   -15.7068 -15.6966 -15.6966 -15.6727 -15.6585 -15.6585 -15.6486 -15.6486
   -15.6303 -15.6303 -15.6116 -15.6116 -15.6089 -15.5996 -15.5992 -15.5992
   -15.5795 -15.5795 -15.5746 -15.5738 -15.5738 -15.5647 -15.5630 -15.5549
   -15.5549 -15.5532 -15.5459 -15.5459 -15.2368 -15.2368 -15.2164 -15.2164
   -14.3566 -10.6991  -9.1245  -6.8496  -5.5503  -5.5503  -5.5202  -5.1582
    -5.1448  -5.1448  -4.1782  -3.9468  -3.9468  -3.5933  -3.5933  -3.4130
    -2.9393  -2.4086  -2.4086  -2.3312  -1.5151  -1.5151  -1.4119  -0.5485
    -0.5485  -0.1017   0.7501   2.4421   2.5435   2.5435   2.6629

[...]

          k =-0.0821 0.0474 0.0000 ( 20384 PWs)   bands (ev):

[...]

     the Fermi energy is    -0.6195 ev

!    total energy              =   -5031.49345066 Ry
     Harris-Foulkes estimate   =   -5031.49341861 Ry
     estimated scf accuracy    <       0.00000215 Ry

     The total energy is the sum of the following terms:

     one-electron contribution =  -27603.87740063 Ry
     hartree contribution      =   13803.59998313 Ry
     xc contribution           =    -604.11436195 Ry
     ewald contribution        =    9372.93388306 Ry
     electric field correction =       0.00119014 Ry
     smearing contrib. (-TS)   =      -0.03674441 Ry

     convergence has been achieved in  18 iterations

 BEEF-vdW xc energy contributions
           1 :   -539.874629600741
           2 :    489.920485861285
           3 :   -406.229094317585
           4 :    313.162541822407
           5 :   -232.225062779840
           6 :    174.044654868346
           7 :   -136.888122019816
           8 :    111.439364635885
           9 :   -88.2512662453876
          10 :    63.2676918387746
          11 :   -38.6390130049281
          12 :    19.3130187798820
          13 :   -8.44140964229769
          14 :    4.90423875685542
          15 :   -4.30962280416463
          16 :    2.23276106291451
          17 :    2.90280206997659
          18 :   -9.30276348969755
          19 :    13.7270342023883
          20 :   -14.2030722053213
          21 :    11.4801051761037
          22 :   -8.30080998817584
          23 :    7.24231570049096
          24 :   -8.86120912892170
          25 :    11.4954636742075
          26 :   -12.7353084436861
          27 :    11.3378108481336
          28 :   -8.12722537948957
          29 :    5.27490766093820
          30 :   -4.60314957164235
          31 :   -39.9948670295487
          32 :   -27.1323877443269

     Forces acting on atoms (Ry/au):

     negative rho (up, down):  1.115E-03 0.000E+00
     atom    1 type  1   force =    -0.00020208   -0.00007870    0.00502860
     atom    2 type  1   force =     0.00015217   -0.00010521    0.00501488
     atom    3 type  1   force =     0.00003183    0.00020396    0.00502523
     atom    4 type  1   force =     0.00001638   -0.00001284    0.00075706
     atom    5 type  1   force =     0.00000382   -0.00104058    0.00178393
     atom    6 type  1   force =     0.00000236   -0.00000131   -0.00694354
     atom    7 type  1   force =     0.00090513    0.00051581    0.00161235
     atom    8 type  1   force =    -0.00090883    0.00052576    0.00160456
     atom    9 type  1   force =    -0.00001146   -0.00000435   -0.22052490
     atom   10 type  1   force =     0.00000871   -0.00052452   -0.00025163
     atom   11 type  1   force =    -0.00044831    0.00026562   -0.00018463
     atom   12 type  1   force =     0.00045124    0.00025701   -0.00017028
     atom   13 type  2   force =    -0.00000098   -0.00000065    0.20724837

     Total force =     0.302629     Total SCF correction =     0.003883

     entering subroutine stress ...

     negative rho (up, down):  1.115E-03 0.000E+00
          total   stress  (Ry/bohr**3)                   (kbar)     P=   -1.93
  -0.00005897  -0.00000000  -0.00000000         -8.67     -0.00     -0.00
  -0.00000000  -0.00005897   0.00000000         -0.00     -8.67      0.00
  -0.00000000   0.00000000   0.00007853         -0.00      0.00     11.55

     BFGS Geometry Optimization

     number of scf cycles    =   1
     number of bfgs steps    =   0

     energy   new            =   -5031.4934506610 Ry

     new trust radius        =       0.2205249032 bohr
     new conv_thr            =       0.0000099958 Ry

ATOMIC_POSITIONS (crystal)
Ga1      0.166666667   0.166666667   0.400460194    0   0   0
Ga1      0.666666667   0.166666667   0.400460194    0   0   0
Ga1      0.166666667   0.666666667   0.400460194    0   0   0
Ga1      0.666666667   0.666666667   0.400460194    0   0   0
Ga1      0.833333333   0.333333333   0.500000000    0   0   0
Ga1      0.333333333   0.333333333   0.500000000    0   0   0
Ga1      0.833333333   0.833333333   0.500000000    0   0   0
Ga1      0.333333333   0.833333333   0.500000000    0   0   0
Ga1     -0.000000777  -0.000000437   0.594866565
Ga1      0.500027078  -0.000052640   0.599534474
Ga1     -0.000052292   0.500026657   0.599535893
Ga1      0.500026322   0.500025793   0.599536197
O1      -0.000000052  -0.000000065   0.667925237

     Writing output data file calc.save
     Check: negative starting charge=   -0.001331
     NEW-OLD atomic charge density approx. for the potential
     Check: negative starting charge=   -0.001314

[...]

     energy   old            =   -5031.4934506610 Ry
     energy   new            =   -5031.5150738778 Ry

     CASE: energy  _new < energy  _old

[...]

     Threshold (ethr) on eigenvalues was too large:
     Diagonalizing with lowered threshold

     Davidson diagonalization with overlap
     ethr =  7.49E-08,  avg # of iterations =  1.1

[...]

     WARNING: bfgs curvature condition failed, Theta= 0.891
     new trust radius        =       0.0195146655 bohr
     new conv_thr            =       0.0000001000 Ry

[...]

     Total force =     0.014681     Total SCF correction =     0.001690
     SCF correction compared to forces is large: reduce conv_thr to get better values

[...]

     Threshold (ethr) on eigenvalues was too large:
     Diagonalizing with lowered threshold

     Davidson diagonalization with overlap
     ethr =  5.85E-08,  avg # of iterations =  1.1

[...]

     WARNING: bfgs curvature condition failed, Theta= 0.975
     new trust radius        =       0.0658619960 bohr
     new conv_thr            =       0.0000001000 Ry

[...]

     Total force =     0.014860     Total SCF correction =     0.000519

[...]

     number of scf cycles    =  17
     number of bfgs steps    =  16

     energy   old            =   -5031.5332241233 Ry
     energy   new            =   -5031.5335975214 Ry

     CASE: energy  _new < energy  _old

     new trust radius        =       0.0356622761 bohr
     new conv_thr            =       0.0000001000 Ry

ATOMIC_POSITIONS (crystal)
Ga1      0.166666667   0.166666667   0.400460194    0   0   0
Ga1      0.666666667   0.166666667   0.400460194    0   0   0
Ga1      0.166666667   0.666666667   0.400460194    0   0   0
Ga1      0.666666667   0.666666667   0.400460194    0   0   0
Ga1      0.833333333   0.333333333   0.500000000    0   0   0
Ga1      0.333333333   0.333333333   0.500000000    0   0   0
Ga1      0.833333333   0.833333333   0.500000000    0   0   0
Ga1      0.333333333   0.833333333   0.500000000    0   0   0
Ga1     -0.000000423  -0.000000383   0.579592686
Ga1      0.501264532  -0.002539633   0.608477579
Ga1     -0.002535982   0.501263700   0.608478429
Ga1      0.501268123   0.501267157   0.608479367
O1       0.000001701   0.000002091   0.650074063

     Writing output data file calc.save
     Check: negative starting charge=   -0.001346
     NEW-OLD atomic charge density approx. for the potential
     Check: negative starting charge=   -0.001341

[...]

     Self-consistent Calculation

[...]

     total energy              =   -5031.53386881 Ry
     Harris-Foulkes estimate   =   -5031.53386861 Ry
     estimated scf accuracy    <       0.00000013 Ry

     iteration #  9     ecut=    36.75 Ry     beta=0.30
     Davidson diagonalization with overlap
     ethr =  5.36E-11,  avg # of iterations =  4.0

[...]

     negative rho (up, down):  1.101E-03 0.000E+00

     Adding external electric field

     Computed dipole along edir(3) :
        Dipole               -0.4526 Ry au,         -1.1503 Debye
        Dipole field         -0.0011 Ry au

        Potential amp.        0.0967 Ry
        Total length         46.0091 bohr

     End of self-consistent calculation

[...]

          k = 0.0547-0.0632 0.0000 ( 20377 PWs)   bands (ev):

[...]

          k =-0.0821-0.0474 0.0000 ( 20384 PWs)   bands (ev):

   -95.1345 -95.1344 -95.1344 -95.1336 -95.1335 -95.1332 -95.1058 -95.1053
   -95.1048 -95.0746 -95.0527 -95.0527 -95.0460 -95.0455 -95.0451 -95.0431
   -95.0430 -95.0427 -95.0411 -95.0410 -95.0409 -95.0274 -95.0273 -95.0273
   -95.0253 -95.0251 -95.0249 -95.0224 -95.0219 -95.0214 -94.9936 -94.9936
   -94.9900 -94.8531 -94.8530 -94.7111 -17.8728 -15.5371 -15.5076 -15.5014
   -15.4965 -15.4914 -15.4879 -15.4798 -15.4774 -15.4695 -15.4641 -15.4635
   -15.4567 -15.4548 -15.4505 -15.4475 -15.4461 -15.4435 -15.4385 -15.4342
   -15.4320 -15.4272 -15.4258 -15.4214 -15.4115 -15.4092 -15.4059 -15.4025
   -15.4024 -15.3914 -15.3879 -15.3813 -15.3801 -15.3759 -15.3714 -15.3594
   -15.3539 -15.3490 -15.3453 -15.3368 -15.3346 -15.3296 -15.3284 -15.3240
   -15.3184 -15.3134 -15.3075 -15.3001 -15.2934 -15.2898 -15.2876 -15.2738
   -15.2693 -15.2583 -15.2448 -15.2442 -15.1900 -15.1899 -15.0855 -15.0799
   -14.5978  -9.1833  -8.8978  -7.5140  -7.4427  -6.3575  -6.2674  -5.5583
    -5.3391  -4.9287  -4.8517  -3.4236  -3.2130  -2.1174  -2.0051  -1.9087
    -1.3332  -0.7856  -0.7020  -0.6459  -0.1579  -0.0646   0.6173   0.7165
     1.3104   1.4906   1.6446   1.8761   2.1356   2.1441   2.1948

     the Fermi energy is    -0.2796 ev

!    total energy              =   -5031.53386887 Ry
     Harris-Foulkes estimate   =   -5031.53386860 Ry
     estimated scf accuracy    <          6.3E-09 Ry

     The total energy is the sum of the following terms:

     one-electron contribution =  -27526.25172822 Ry
     hartree contribution      =   13766.94287708 Ry
     xc contribution           =    -604.01311005 Ry
     ewald contribution        =    9331.82335842 Ry
     electric field correction =       0.00047573 Ry
     smearing contrib. (-TS)   =      -0.03574184 Ry

     convergence has been achieved in   9 iterations

 BEEF-vdW xc energy contributions
           1 :   -539.771544931396
           2 :    489.783708174008
           3 :   -406.026911960947
           4 :    312.902563255587
           5 :   -231.966211311736
           6 :    173.854021174804
           7 :   -136.789133041173
           8 :    111.399050247367
           9 :   -88.2128661226493
          10 :    63.1963016101017
          11 :   -38.5429556361586
          12 :    19.2313675724256
          13 :   -8.41247852698370
          14 :    4.93544343363442
          15 :   -4.36852551801621
          16 :    2.26809237828320
          17 :    2.92620713502856
          18 :   -9.38159409294065
          19 :    13.8234796548985
          20 :   -14.2696302628262
          21 :    11.4874901625506
          22 :   -8.25228036480280
          23 :    7.16810501995610
          24 :   -8.79707784852690
          25 :    11.4587085345537
          26 :   -12.7142652839595
          27 :    11.2996113193486
          28 :   -8.03694701687300
          29 :    5.11771337711536
          30 :   -4.39982817746625
          31 :   -39.9890829726554
          32 :   -27.1158209625771

     Forces acting on atoms (Ry/au):

     negative rho (up, down):  1.101E-03 0.000E+00
     atom    1 type  1   force =    -0.00212319   -0.00122574    0.00378689
     atom    2 type  1   force =     0.00212300   -0.00122572    0.00378551
     atom    3 type  1   force =    -0.00000006    0.00245147    0.00378595
     atom    4 type  1   force =    -0.00000007   -0.00000018    0.00122469
     atom    5 type  1   force =    -0.00000025    0.01550192   -0.00560401
     atom    6 type  1   force =    -0.00000000    0.00000002    0.00302626
     atom    7 type  1   force =    -0.01342474   -0.00775079   -0.00560500
     atom    8 type  1   force =     0.01342515   -0.00775129   -0.00560387
     atom    9 type  1   force =    -0.00000210   -0.00000107   -0.00007293
     atom   10 type  1   force =     0.00000090    0.00166167    0.00070884
     atom   11 type  1   force =     0.00143898   -0.00083007    0.00070827
     atom   12 type  1   force =    -0.00143947   -0.00083134    0.00070846
     atom   13 type  2   force =     0.00000184    0.00000114   -0.00084907

     Total force =     0.003243     Total SCF correction =     0.000464
     SCF correction compared to forces is large: reduce conv_thr to get better values

     entering subroutine stress ...

     negative rho (up, down):  1.101E-03 0.000E+00
          total   stress  (Ry/bohr**3)                   (kbar)     P=   -4.45
  -0.00003715   0.00000000   0.00000000         -5.47      0.00      0.00
   0.00000000  -0.00003715   0.00000000          0.00     -5.47      0.00
   0.00000000   0.00000000  -0.00001646          0.00      0.00     -2.42

     bfgs converged in  18 scf cycles and  17 bfgs steps
     (criteria: energy <  1.0E+00, force <  1.9E-03)

     End of BFGS Geometry Optimization

     Final energy   =   -5031.5338688727 Ry
Begin final coordinates

ATOMIC_POSITIONS (crystal)
Ga1      0.166666667   0.166666667   0.400460194    0   0   0
Ga1      0.666666667   0.166666667   0.400460194    0   0   0
Ga1      0.166666667   0.666666667   0.400460194    0   0   0
Ga1      0.666666667   0.666666667   0.400460194    0   0   0
Ga1      0.833333333   0.333333333   0.500000000    0   0   0
Ga1      0.333333333   0.333333333   0.500000000    0   0   0
Ga1      0.833333333   0.833333333   0.500000000    0   0   0
Ga1      0.333333333   0.833333333   0.500000000    0   0   0
Ga1     -0.000000423  -0.000000383   0.579592686
Ga1      0.501264532  -0.002539633   0.608477579
Ga1     -0.002535982   0.501263700   0.608478429
Ga1      0.501268123   0.501267157   0.608479367
O1       0.000001701   0.000002091   0.650074063
End final coordinates

     Writing output data file calc.save

     General routines

     Parallel routines

   This run was terminated on:  21:19: 6   3May2018

   JOB DONE.
Job  /afs/slac/g/suncat/bin/suncat-tsmpirun -x LD_LIBRARY_PATH -wdir /scratch/qe828917_wJ7sF pw.x -npool 4 -in pw.inp

TID   HOST_NAME   COMMAND_LINE            STATUS            TERMINATION_TIME
00000 suncat0191 pw.x -npool 4 -i  Done                     05/03/2018 21:19:06
00001 suncat0191 pw.x -npool 4 -i  Done                     05/03/2018 21:19:06
00002 suncat0191 pw.x -npool 4 -i  Done                     05/03/2018 21:19:06
00003 suncat0191 pw.x -npool 4 -i  Done                     05/03/2018 21:19:06
00004 suncat0191 pw.x -npool 4 -i  Done                     05/03/2018 21:19:06
00005 suncat0191 pw.x -npool 4 -i  Done                     05/03/2018 21:19:06
00006 suncat0191 pw.x -npool 4 -i  Done                     05/03/2018 21:19:06
00007 suncat0191 pw.x -npool 4 -i  Done                     05/03/2018 21:19:06
00008 suncat0187 pw.x -npool 4 -i  Done                     05/03/2018 21:19:06
00009 suncat0187 pw.x -npool 4 -i  Done                     05/03/2018 21:19:06
00010 suncat0187 pw.x -npool 4 -i  Done                     05/03/2018 21:19:06
00011 suncat0187 pw.x -npool 4 -i  Done                     05/03/2018 21:19:06
00012 suncat0187 pw.x -npool 4 -i  Done                     05/03/2018 21:19:06
00013 suncat0187 pw.x -npool 4 -i  Done                     05/03/2018 21:19:06
00014 suncat0187 pw.x -npool 4 -i  Done                     05/03/2018 21:19:06
00015 suncat0187 pw.x -npool 4 -i  Done                     05/03/2018 21:19:06
00016 suncat0179 pw.x -npool 4 -i  Done                     05/03/2018 21:19:06
00017 suncat0179 pw.x -npool 4 -i  Done                     05/03/2018 21:19:06
00018 suncat0179 pw.x -npool 4 -i  Done                     05/03/2018 21:19:06
00019 suncat0179 pw.x -npool 4 -i  Done                     05/03/2018 21:19:06
00020 suncat0179 pw.x -npool 4 -i  Done                     05/03/2018 21:19:06
00021 suncat0179 pw.x -npool 4 -i  Done                     05/03/2018 21:19:06
00022 suncat0179 pw.x -npool 4 -i  Done                     05/03/2018 21:19:06
00023 suncat0179 pw.x -npool 4 -i  Done                     05/03/2018 21:19:06
00024 suncat0174 pw.x -npool 4 -i  Done                     05/03/2018 21:19:06
00025 suncat0174 pw.x -npool 4 -i  Done                     05/03/2018 21:19:06
00026 suncat0174 pw.x -npool 4 -i  Done                     05/03/2018 21:19:06
00027 suncat0174 pw.x -npool 4 -i  Done                     05/03/2018 21:19:06
00028 suncat0174 pw.x -npool 4 -i  Done                     05/03/2018 21:19:06
00029 suncat0174 pw.x -npool 4 -i  Done                     05/03/2018 21:19:06
00030 suncat0174 pw.x -npool 4 -i  Done                     05/03/2018 21:19:06
00031 suncat0174 pw.x -npool 4 -i  Done                     05/03/2018 21:19:06