     Program PWSCF v.5.1rc2 (svn rev. 11289) starts on 20Jan2018 at 17:23:37

     Current dimensions of program PWSCF are:
     Max number of different atomic species (ntypx) = 10
     Max number of k-points (npk) =  40000
     Max angular momentum in pseudopotentials (lmaxx) =  3
     Presently stress not available with electric field

     IMPORTANT: XC functional enforced from input :
     Exchange-correlation      = BEEF-VDW ( 1  4 27 13 2)
     Any further DFT definition will be discarded
     Please, verify this is what you really want

     Subspace diagonalization in iterative solution of the eigenvalue problem:
     a serial algorithm will be used

     bravais-lattice index     =            0
     lattice parameter (alat)  =       1.8897  a.u.
     unit-cell volume          =    4806.0858 (a.u.)^3
     number of atoms/cell      =           13
     number of atomic types    =            2
     number of electrons       =       148.00
     number of Kohn-Sham states=           84
     kinetic-energy cutoff     =      36.7493  Ry
     charge density cutoff     =     367.4932  Ry
     convergence threshold     =      1.0E-05
     mixing beta               =       0.3000
     number of iterations used =           10  plain     mixing
     Exchange-correlation      = BEEF-VDW ( 1  4 27 13 2)
     nstep                     =           50

     celldm(1)=   1.889726  celldm(2)=   0.000000  celldm(3)=   0.000000
     celldm(4)=   0.000000  celldm(5)=   0.000000  celldm(6)=   0.000000

     crystal axes: (cart. coord. in units of alat)
               a(1) = (   5.768903   0.000000   0.000000 )
               a(2) = (   2.884451   4.996016   0.000000 )
               a(3) = (   0.000000   0.000000  24.710289 )

     reciprocal axes: (cart. coord. in units 2 pi/alat)
               b(1) = (  0.173343 -0.100080  0.000000 )
               b(2) = (  0.000000  0.200159  0.000000 )
               b(3) = (  0.000000  0.000000  0.040469 )

     PseudoPot. # 1 for Ti read from file:
     /afs/slac.stanford.edu/u/if/mamunm/psp/gbrv1.5pbe/Ti.UPF
     MD5 check sum: 88a00a6731bd790ddea75d31a80cb452
     Pseudo is Ultrasoft + core correction, Zval = 12.0
     Generated by new atomic code, or converted to UPF format
     Using radial grid of  851 points,  6 beta functions with:
                l(1) =   0
                l(2) =   0
                l(3) =   1
                l(4) =   1
                l(5) =   2
                l(6) =   2
     Q(r) pseudized with  6 coefficients,  rinner =    1.000   1.000   1.000
                                                       1.000   1.000

     PseudoPot. # 2 for C  read from file:
     /afs/slac.stanford.edu/u/if/mamunm/psp/gbrv1.5pbe/C.UPF
     MD5 check sum: d1aef80898a10debaa0f26306b886e00
     Pseudo is Ultrasoft + core correction, Zval =  4.0
     Generated by new atomic code, or converted to UPF format
     Using radial grid of  721 points,  4 beta functions with:
                l(1) =   0
                l(2) =   0
                l(3) =   1
                l(4) =   1
     Q(r) pseudized with  8 coefficients,  rinner =    1.100   1.100   1.100

     vdW kernel table read from file vdW_kernel_table
     MD5 check sum: 095c7af220d748ca6e76c0b4c6cfb241

     atomic species   valence    mass     pseudopotential
        Ti1           12.00    47.86700     Ti( 1.00)
        C1             4.00    12.01100     C ( 1.00)

     No symmetry found

   Cartesian axes

     site n.     atom                  positions (alat units)
         1           Ti1 tau(   1) = (   1.4422257   0.8326694  10.0000000  )
         2           Ti1 tau(   2) = (   4.3266771   0.8326694  10.0000000  )
         3           Ti1 tau(   3) = (   2.8844514   3.3306776  10.0000000  )
         4           Ti1 tau(   4) = (   5.7689029   3.3306776  10.0000000  )
         5           Ti1 tau(   5) = (   5.7689029   1.6653388  12.3551447  )
         6           Ti1 tau(   6) = (   2.8844514   1.6653388  12.3551447  )
         7           Ti1 tau(   7) = (   7.2111286   4.1633470  12.3551447  )
         8           Ti1 tau(   8) = (   4.3266771   4.1633470  12.3551447  )
         9           Ti1 tau(   9) = (   0.0000000   0.0000000  14.7102895  )
        10           Ti1 tau(  10) = (   2.8844514   0.0000000  14.7102895  )
        11           Ti1 tau(  11) = (   1.4422257   2.4980082  14.7102895  )
        12           Ti1 tau(  12) = (   4.3266771   2.4980082  14.7102895  )
        13           C1  tau(  13) = (   0.0000000   0.0000000  17.0702895  )

     number of k points=    20  Fermi-Dirac smearing, width (Ry)=  0.0110
                       cart. coord. in units 2pi/alat
        k(    1) = (   0.0000000   0.0000000   0.0000000), wk =   0.0555556
        k(    2) = (   0.0000000   0.0333599   0.0000000), wk =   0.1111111
        k(    3) = (   0.0000000   0.0667198   0.0000000), wk =   0.1111111
        k(    4) = (   0.0000000  -0.1000797   0.0000000), wk =   0.0555556
        k(    5) = (   0.0288905  -0.0166800   0.0000000), wk =   0.1111111
        k(    6) = (   0.0288905   0.0166800   0.0000000), wk =   0.1111111
        k(    7) = (   0.0288905   0.0500399   0.0000000), wk =   0.1111111
        k(    8) = (   0.0288905  -0.1167597   0.0000000), wk =   0.1111111
        k(    9) = (   0.0288905  -0.0833998   0.0000000), wk =   0.1111111
        k(   10) = (   0.0288905  -0.0500399   0.0000000), wk =   0.1111111
        k(   11) = (   0.0577811  -0.0333599   0.0000000), wk =   0.1111111
        k(   12) = (   0.0577811  -0.0000000   0.0000000), wk =   0.1111111
        k(   13) = (   0.0577811   0.0333599   0.0000000), wk =   0.1111111
        k(   14) = (   0.0577811  -0.1334396   0.0000000), wk =   0.1111111
        k(   15) = (   0.0577811  -0.1000797   0.0000000), wk =   0.1111111
        k(   16) = (   0.0577811  -0.0667198   0.0000000), wk =   0.1111111
        k(   17) = (  -0.0866716   0.0500399   0.0000000), wk =   0.0555556
        k(   18) = (  -0.0866716   0.0833998   0.0000000), wk =   0.1111111
        k(   19) = (  -0.0866716   0.1167597   0.0000000), wk =   0.1111111
        k(   20) = (  -0.0866716  -0.0500399   0.0000000), wk =   0.0555556

     Largest allocated arrays     est. size (Mb)     dimensions
     Largest temporary arrays     est. size (Mb)     dimensions

     Check: negative/imaginary core charge=   -0.000006    0.000000

     Initial potential from superposition of free atoms
     Check: negative starting charge=   -0.012672

     starting charge  135.99943, renormalised to  148.00000

     negative rho (up, down):  1.379E-02 0.000E+00

     *
     * You are using vdW-DF for exchange-correlation in this calculation.
     * Please cite the following three references that made this development
     * possible:
     *
     *   M. Dion, H. Rydberg, E. Schroder, D. C. Langreth, and
     *   B. I. Lundqvist, Phys. Rev. Lett. 92, 246401 (2004).
     *
     *   T. Thonhauser, V. R. Cooper, S. Li, A. Puzder, P. Hyldgaard, and
     *   D. C. Langreth, Phys. Rev. B 76, 125112 (2007).
     *
     *   G. Roman-Perez and J. M. Soler, Phys. Rev. Lett. 103, 096102 (2009).
     *
     *
     * If you are using vdW-DF2, please also cite:
     *
     *   K. Lee, E. D. Murray, L. Kong, B. I. Lundqvist, and
     *   D. C. Langreth, Phys. Rev. B 82, 081101(R) (2010).
     *
     *
     * If you are calculating the stress with vdW-DF, please also cite:
     *
     *   R. Sabatini, E. Kucukbenli, B. Kolb, T. Thonhauser, and
     *   S. de Gironcoli, J. Phys.: Condens. Matter 24, 424209 (2012).
     *

     Carrying out vdW-DF run using the following parameters:

     Nqs =      20    Nr_points =    1024   r_max =   100.000
     q_mesh =
               0.00001000     0.04494208     0.09755937     0.15916263
               0.23128650     0.31572767     0.41458969     0.53033537
               0.66584808     0.82450364     1.01025438     1.22772762
               1.48234092     1.78043706     2.12944203     2.53805004
               3.01644009     3.57652955     4.23227104     5.00000000

     Gradients computed in reciprocal space

     Adding external electric field

     Computed dipole along edir(3) :
        Dipole               -3.1446 Ry au,         -7.9928 Debye
        Dipole field         -0.0082 Ry au

        Potential amp.        0.7487 Ry
        Total length         45.5283 bohr

     Starting wfc are  124 randomized atomic wfcs

     Self-consistent Calculation

     iteration #  1     ecut=    36.75 Ry     beta=0.30
     Davidson diagonalization with overlap
     ethr =  1.00E-02,  avg # of iterations =  6.2

[...]

     total energy              =   -1358.74861814 Ry
     Harris-Foulkes estimate   =   -1451.87798890 Ry
     estimated scf accuracy    <     192.98947865 Ry

[...]

     End of self-consistent calculation

          k = 0.0000 0.0000 0.0000 ( 18103 PWs)   bands (ev):

   -56.8091 -56.7456 -56.7372 -56.7365 -56.6547 -56.6532 -56.6522 -56.5676
   -56.4932 -56.4927 -56.4729 -56.4140 -33.2530 -33.2189 -33.2186 -33.2122
   -33.1909 -33.1746 -33.1742 -33.1453 -33.1450 -33.1066 -33.0403 -32.9866
   -32.9860 -32.8777 -32.8548 -32.8543 -32.8416 -32.7817 -32.7812 -32.7736
   -32.7666 -32.7661 -32.7200 -32.6874 -32.6869 -32.6586 -32.6474 -32.6474
   -32.6057 -32.6055 -32.5863 -32.5640 -32.5640 -32.4815 -32.4721 -32.4720
    -7.7821  -5.1790  -3.8016  -2.6104  -2.0716  -2.0668  -2.0666  -1.9430
    -1.9186  -1.9186  -1.5148  -1.4843  -1.4842  -1.2916  -1.2821  -1.2821
    -0.7123  -0.7121  -0.6429  -0.0310   0.1523   0.1524   0.1790   0.4632
     0.5619   0.6770   0.6771   0.7638   0.9508   0.9510   0.9550   1.0510
     1.0511   1.2308   1.2309   1.2422

[...]

          k =-0.0867 0.0500 0.0000 ( 18044 PWs)   bands (ev):

[...]

     the Fermi energy is     0.2561 ev

!    total energy              =   -1449.78261935 Ry
     Harris-Foulkes estimate   =   -1449.78261571 Ry
     estimated scf accuracy    <       0.00000768 Ry

     The total energy is the sum of the following terms:

     one-electron contribution =  -10977.12685815 Ry
     hartree contribution      =    5472.84955482 Ry
     xc contribution           =    -228.01903408 Ry
     ewald contribution        =    4282.64723919 Ry
     electric field correction =       0.00061315 Ry
     smearing contrib. (-TS)   =      -0.13413427 Ry

     convergence has been achieved in  45 iterations

 BEEF-vdW xc energy contributions
           1 :   -195.913985204535
           2 :    174.982476536819
           3 :   -140.708427149552
           4 :    104.047958815237
           5 :   -73.9421995892501
           6 :    53.8827632585130
           7 :   -41.9382361278322
           8 :    33.5034842105592
           9 :   -24.6744498562686
          10 :    14.2185338282022
          11 :   -3.40385317150557
          12 :   -5.65540393634157
          13 :    11.7460615516214
          14 :   -15.2623098499851
          15 :    17.6125187680838
          16 :   -19.9926779693503
          17 :    22.5112962372730
          18 :   -24.2630765162211
          19 :    24.1745412779526
          20 :   -21.9051496746263
          21 :    18.1174431751573
          22 :   -13.9825482082481
[...]

[...]

     iteration # 28     ecut=    36.75 Ry     beta=0.30
     Davidson diagonalization with overlap
     c_bands:  2 eigenvalues not converged
     ethr =  7.16E-05,  avg # of iterations =  6.8

[...]

     Total force =     0.074459     Total SCF correction =     0.009754
     SCF correction compared to forces is large: reduce conv_thr to get better values

[...]

     Total force =     0.077686     Total SCF correction =     0.006148

[...]

   This run was terminated on:  20:59:27  20Jan2018

[...]

     Program PWSCF v.5.1rc2 (svn rev. 11289) starts on 20Jan2018 at 20:59:33

     Current dimensions of program PWSCF are:
     Max number of different atomic species (ntypx) = 10
     Max number of k-points (npk) =  40000
     Max angular momentum in pseudopotentials (lmaxx) =  3
     Presently stress not available with electric field

     IMPORTANT: XC functional enforced from input :
     Exchange-correlation      = BEEF-VDW ( 1  4 27 13 2)
     Any further DFT definition will be discarded
     Please, verify this is what you really want

     Subspace diagonalization in iterative solution of the eigenvalue problem:
     a serial algorithm will be used

     bravais-lattice index     =            0
     lattice parameter (alat)  =       1.8897  a.u.
     unit-cell volume          =    4806.0858 (a.u.)^3
     number of atoms/cell      =           13
     number of atomic types    =            2
     number of electrons       =       148.00
     number of Kohn-Sham states=           84
     kinetic-energy cutoff     =      36.7493  Ry
     charge density cutoff     =     367.4932  Ry
     convergence threshold     =      1.0E-05
     mixing beta               =       0.3000
     number of iterations used =           10  plain     mixing
     Exchange-correlation      = BEEF-VDW ( 1  4 27 13 2)
     nstep                     =           50

     celldm(1)=   1.889726  celldm(2)=   0.000000  celldm(3)=   0.000000
     celldm(4)=   0.000000  celldm(5)=   0.000000  celldm(6)=   0.000000

     crystal axes: (cart. coord. in units of alat)
               a(1) = (   5.768903   0.000000   0.000000 )
               a(2) = (   2.884451   4.996016   0.000000 )
               a(3) = (   0.000000   0.000000  24.710289 )

     reciprocal axes: (cart. coord. in units 2 pi/alat)
               b(1) = (  0.173343 -0.100080  0.000000 )
               b(2) = (  0.000000  0.200159  0.000000 )
               b(3) = (  0.000000  0.000000  0.040469 )

     PseudoPot. # 1 for Ti read from file:
     /afs/slac.stanford.edu/u/if/mamunm/psp/gbrv1.5pbe/Ti.UPF
     MD5 check sum: 88a00a6731bd790ddea75d31a80cb452
     Pseudo is Ultrasoft + core correction, Zval = 12.0
     Generated by new atomic code, or converted to UPF format
     Using radial grid of  851 points,  6 beta functions with:
                l(1) =   0
                l(2) =   0
                l(3) =   1
                l(4) =   1
                l(5) =   2
                l(6) =   2
     Q(r) pseudized with  6 coefficients,  rinner =    1.000   1.000   1.000
                                                       1.000   1.000

     PseudoPot. # 2 for C  read from file:
     /afs/slac.stanford.edu/u/if/mamunm/psp/gbrv1.5pbe/C.UPF
     MD5 check sum: d1aef80898a10debaa0f26306b886e00
     Pseudo is Ultrasoft + core correction, Zval =  4.0
     Generated by new atomic code, or converted to UPF format
     Using radial grid of  721 points,  4 beta functions with:
                l(1) =   0
                l(2) =   0
                l(3) =   1
                l(4) =   1
     Q(r) pseudized with  8 coefficients,  rinner =    1.100   1.100   1.100

     vdW kernel table read from file vdW_kernel_table
     MD5 check sum: 095c7af220d748ca6e76c0b4c6cfb241

     atomic species   valence    mass     pseudopotential
        Ti1           12.00    47.86700     Ti( 1.00)
        C1             4.00    12.01100     C ( 1.00)

     No symmetry found

   Cartesian axes

     site n.     atom                  positions (alat units)
         1           Ti1 tau(   1) = (   1.4422257   0.8326694  10.0000000  )
         2           Ti1 tau(   2) = (   4.3266771   0.8326694  10.0000000  )
         3           Ti1 tau(   3) = (   2.8844514   3.3306776  10.0000000  )
         4           Ti1 tau(   4) = (   5.7689029   3.3306776  10.0000000  )
         5           Ti1 tau(   5) = (   5.7689029   1.6653388  12.3551447  )
         6           Ti1 tau(   6) = (   2.8844514   1.6653388  12.3551447  )
         7           Ti1 tau(   7) = (   7.2111286   4.1633470  12.3551447  )
         8           Ti1 tau(   8) = (   4.3266771   4.1633470  12.3551447  )
         9           Ti1 tau(   9) = (   8.6532886   4.9959953  14.4159238  )
        10           Ti1 tau(  10) = (   5.7689552   4.9414967  14.8118130  )
        11           Ti1 tau(  11) = (   7.1639139   2.5252491  14.8115668  )
        12           Ti1 tau(  12) = (   4.3738677   2.5251838  14.8116540  )
        13           C1  tau(  13) = (   5.7689000   0.0001639  16.2219103  )

     number of k points=    20  Fermi-Dirac smearing, width (Ry)=  0.0110
                       cart. coord. in units 2pi/alat
        k(    1) = (   0.0000000   0.0000000   0.0000000), wk =   0.0555556
        k(    2) = (   0.0000000   0.0333599   0.0000000), wk =   0.1111111
        k(    3) = (   0.0000000   0.0667198   0.0000000), wk =   0.1111111
        k(    4) = (   0.0000000  -0.1000797   0.0000000), wk =   0.0555556
        k(    5) = (   0.0288905  -0.0166800   0.0000000), wk =   0.1111111
        k(    6) = (   0.0288905   0.0166800   0.0000000), wk =   0.1111111
        k(    7) = (   0.0288905   0.0500399   0.0000000), wk =   0.1111111
        k(    8) = (   0.0288905  -0.1167597   0.0000000), wk =   0.1111111
        k(    9) = (   0.0288905  -0.0833998   0.0000000), wk =   0.1111111
        k(   10) = (   0.0288905  -0.0500399   0.0000000), wk =   0.1111111
        k(   11) = (   0.0577811  -0.0333599   0.0000000), wk =   0.1111111
        k(   12) = (   0.0577811  -0.0000000   0.0000000), wk =   0.1111111
        k(   13) = (   0.0577811   0.0333599   0.0000000), wk =   0.1111111
        k(   14) = (   0.0577811  -0.1334396   0.0000000), wk =   0.1111111
        k(   15) = (   0.0577811  -0.1000797   0.0000000), wk =   0.1111111
        k(   16) = (   0.0577811  -0.0667198   0.0000000), wk =   0.1111111
        k(   17) = (  -0.0866716   0.0500399   0.0000000), wk =   0.0555556
        k(   18) = (  -0.0866716   0.0833998   0.0000000), wk =   0.1111111
        k(   19) = (  -0.0866716   0.1167597   0.0000000), wk =   0.1111111
        k(   20) = (  -0.0866716  -0.0500399   0.0000000), wk =   0.0555556

     Largest allocated arrays     est. size (Mb)     dimensions
     Largest temporary arrays     est. size (Mb)     dimensions

     Check: negative/imaginary core charge=   -0.000006    0.000000

     Initial potential from superposition of free atoms
     Check: negative starting charge=   -0.014360

     starting charge  135.99943, renormalised to  148.00000

[...]

     *
     * You are using vdW-DF for exchange-correlation in this calculation.
     * Please cite the following three references that made this development
     * possible:
     *
     *   M. Dion, H. Rydberg, E. Schroder, D. C. Langreth, and
     *   B. I. Lundqvist, Phys. Rev. Lett. 92, 246401 (2004).
     *
     *   T. Thonhauser, V. R. Cooper, S. Li, A. Puzder, P. Hyldgaard, and
     *   D. C. Langreth, Phys. Rev. B 76, 125112 (2007).
     *
     *   G. Roman-Perez and J. M. Soler, Phys. Rev. Lett. 103, 096102 (2009).
     *
     *
     * If you are using vdW-DF2, please also cite:
     *
     *   K. Lee, E. D. Murray, L. Kong, B. I. Lundqvist, and
     *   D. C. Langreth, Phys. Rev. B 82, 081101(R) (2010).
     *
     *
     * If you are calculating the stress with vdW-DF, please also cite:
     *
     *   R. Sabatini, E. Kucukbenli, B. Kolb, T. Thonhauser, and
     *   S. de Gironcoli, J. Phys.: Condens. Matter 24, 424209 (2012).
     *

     Carrying out vdW-DF run using the following parameters:

     Nqs =      20    Nr_points =    1024   r_max =   100.000
     q_mesh =
               0.00001000     0.04494208     0.09755937     0.15916263
               0.23128650     0.31572767     0.41458969     0.53033537
               0.66584808     0.82450364     1.01025438     1.22772762
               1.48234092     1.78043706     2.12944203     2.53805004
               3.01644009     3.57652955     4.23227104     5.00000000

     Gradients computed in reciprocal space

[...]

     Starting wfc are  124 randomized atomic wfcs

     Self-consistent Calculation

[...]

     iteration # 30     ecut=    36.75 Ry     beta=0.30
     Davidson diagonalization with overlap
     c_bands:  1 eigenvalues not converged
     ethr =  5.63E-07,  avg # of iterations =  7.2

[...]

     total energy              =   -1449.91949763 Ry
     Harris-Foulkes estimate   =   -1449.91949807 Ry
     estimated scf accuracy    <       0.00001061 Ry

     iteration # 37     ecut=    36.75 Ry     beta=0.30
     Davidson diagonalization with overlap
     ethr =  7.17E-09,  avg # of iterations =  5.8

[...]

     negative rho (up, down):  8.350E-03 0.000E+00

     Adding external electric field

     Computed dipole along edir(3) :
        Dipole               -0.1933 Ry au,         -0.4914 Debye
        Dipole field         -0.0005 Ry au

        Potential amp.        0.0460 Ry
        Total length         45.5283 bohr

     End of self-consistent calculation

[...]

          k = 0.0578-0.0667 0.0000 ( 18031 PWs)   bands (ev):

[...]

          k =-0.0867-0.0500 0.0000 ( 18044 PWs)   bands (ev):

   -56.5137 -56.4805 -56.4620 -56.3338 -56.3310 -56.2868 -56.2843 -56.1932
   -56.1561 -56.1289 -56.1129 -55.3766 -32.8758 -32.8444 -32.8422 -32.8213
   -32.7685 -32.7346 -32.7323 -32.7215 -32.6870 -32.6824 -32.6664 -32.6526
   -32.6310 -32.5790 -32.5752 -32.5577 -32.5482 -32.5322 -32.4857 -32.4566
   -32.4274 -32.4155 -32.3706 -32.3620 -32.3507 -32.3435 -32.3397 -32.3396
   -32.3211 -32.3056 -32.2904 -32.1783 -32.1729 -31.6706 -31.6467 -31.6436
    -7.6794  -3.2572  -3.1839  -2.2821  -1.9293  -1.4545  -1.3077  -1.2810
    -1.1737  -1.0532  -0.9877  -0.9815  -0.6401  -0.4733  -0.2985  -0.2481
    -0.1923  -0.0951  -0.0668   0.0703   0.1924   0.2626   0.2889   0.3377
     0.3440   0.4242   0.5142   0.5891   0.6373   0.6674   0.8550   0.9311
     1.0829   1.1143   1.2524   1.2873

     the Fermi energy is     0.6293 ev

!    total energy              =   -1449.91949425 Ry
     Harris-Foulkes estimate   =   -1449.91948327 Ry
     estimated scf accuracy    <       0.00000438 Ry

     The total energy is the sum of the following terms:

     one-electron contribution =  -11114.24973390 Ry
     hartree contribution      =    5543.33712234 Ry
     xc contribution           =    -228.40092190 Ry
     ewald contribution        =    4349.51530177 Ry
     electric field correction =       0.00009773 Ry
     smearing contrib. (-TS)   =      -0.12136028 Ry

     convergence has been achieved in  37 iterations

 BEEF-vdW xc energy contributions
           1 :   -196.286886389193
           2 :    175.428180302964
           3 :   -141.227737706040
           4 :    104.563601470362
           5 :   -74.3326585295487
           6 :    54.0401327844392
           7 :   -41.8454330758463
           8 :    33.2669434889119
           9 :   -24.4623052142650
          10 :    14.1469717067371
          11 :   -3.46878053355749
          12 :   -5.55140837032621
          13 :    11.7065390319086
          14 :   -15.3257474192495
          15 :    17.7438503414938
          16 :   -20.1242914850243
          17 :    22.5941772233378
          18 :   -24.2990587403036
          19 :    24.2121686493446
          20 :   -21.9987315820828
          21 :    18.2793718327262
          22 :   -14.1708731860621
          23 :    10.5221775108590
          24 :   -7.43944466466047
          25 :    4.40807586810013
          26 :  -0.856599397929642
          27 :   -3.30318043190175
          28 :    7.55483507040060
          29 :   -11.1256433039036
          30 :    13.4993452831196
          31 :   -20.9220060329247
          32 :   -14.9184214645951

     Forces acting on atoms (Ry/au):

     negative rho (up, down):  8.350E-03 0.000E+00
     atom    1 type  1   force =     0.00083503    0.00048575    0.01086652
     atom    2 type  1   force =    -0.00083824    0.00049537    0.01087348
     atom    3 type  1   force =     0.00001047   -0.00097863    0.01084432
     atom    4 type  1   force =    -0.00001434   -0.00000692    0.01102482
     atom    5 type  1   force =    -0.00000310    0.03427436   -0.02105269
     atom    6 type  1   force =     0.00000606    0.00001607    0.02201308
     atom    7 type  1   force =    -0.02967285   -0.01713988   -0.02104627
     atom    8 type  1   force =     0.02967352   -0.01714530   -0.02104263
     atom    9 type  1   force =     0.00003955    0.00001554    0.00162342
     atom   10 type  1   force =    -0.00002561    0.00105325   -0.00077329
     atom   11 type  1   force =     0.00090240   -0.00055969   -0.00073594
     atom   12 type  1   force =    -0.00090837   -0.00052664   -0.00074275
     atom   13 type  2   force =    -0.00000453    0.00001673   -0.00185208

     Total force =     0.076331     Total SCF correction =     0.010926
     SCF correction compared to forces is large: reduce conv_thr to get better values

     entering subroutine stress ...

     negative rho (up, down):  8.350E-03 0.000E+00
          total   stress  (Ry/bohr**3)                   (kbar)     P=   -6.34
  -0.00004130  -0.00000000  -0.00000001         -6.07     -0.00     -0.00
  -0.00000000  -0.00004126  -0.00000000         -0.00     -6.07     -0.00
  -0.00000001  -0.00000000  -0.00004680         -0.00     -0.00     -6.88

 !ASE

     Writing output data file calc.save

     General routines

     Parallel routines

   This run was terminated on:  21:24: 4  20Jan2018

   JOB DONE.
Job  /afs/slac/g/suncat/bin/suncat-tsmpirun -x LD_LIBRARY_PATH -wdir /scratch/qe870136_9rKhj pw.x -in pw.inp

TID   HOST_NAME   COMMAND_LINE            STATUS            TERMINATION_TIME
00000 suncat1042 pw.x -in pw.inp   Done                     01/20/2018 21:24:04
00001 suncat1042 pw.x -in pw.inp   Done                     01/20/2018 21:24:04
00002 suncat1042 pw.x -in pw.inp   Done                     01/20/2018 21:24:04
00003 suncat1042 pw.x -in pw.inp   Done                     01/20/2018 21:24:04
00004 suncat1042 pw.x -in pw.inp   Done                     01/20/2018 21:24:04
00005 suncat1042 pw.x -in pw.inp   Done                     01/20/2018 21:24:04
00006 suncat1042 pw.x -in pw.inp   Done                     01/20/2018 21:24:04
00007 suncat1042 pw.x -in pw.inp   Done                     01/20/2018 21:24:04
00008 suncat1033 pw.x -in pw.inp   Done                     01/20/2018 21:24:04
00009 suncat1033 pw.x -in pw.inp   Done                     01/20/2018 21:24:04
00010 suncat1033 pw.x -in pw.inp   Done                     01/20/2018 21:24:04
00011 suncat1033 pw.x -in pw.inp   Done                     01/20/2018 21:24:04
00012 suncat1033 pw.x -in pw.inp   Done                     01/20/2018 21:24:04
00013 suncat1033 pw.x -in pw.inp   Done                     01/20/2018 21:24:04
00014 suncat1033 pw.x -in pw.inp   Done                     01/20/2018 21:24:04
00015 suncat1033 pw.x -in pw.inp   Done                     01/20/2018 21:24:04
00016 suncat1033 pw.x -in pw.inp   Done                     01/20/2018 21:24:04
00017 suncat1033 pw.x -in pw.inp   Done                     01/20/2018 21:24:04
00018 suncat1033 pw.x -in pw.inp   Done                     01/20/2018 21:24:04
00019 suncat1033 pw.x -in pw.inp   Done                     01/20/2018 21:24:04
00020 suncat1006 pw.x -in pw.inp   Done                     01/20/2018 21:24:04
00021 suncat1006 pw.x -in pw.inp   Done                     01/20/2018 21:24:04
00022 suncat1006 pw.x -in pw.inp   Done                     01/20/2018 21:24:04
00023 suncat1006 pw.x -in pw.inp   Done                     01/20/2018 21:24:04
00024 suncat1006 pw.x -in pw.inp   Done                     01/20/2018 21:24:04
00025 suncat1006 pw.x -in pw.inp   Done                     01/20/2018 21:24:04
00026 suncat1006 pw.x -in pw.inp   Done                     01/20/2018 21:24:04
00027 suncat1006 pw.x -in pw.inp   Done                     01/20/2018 21:24:04
00028 suncat1006 pw.x -in pw.inp   Done                     01/20/2018 21:24:04
00029 suncat1006 pw.x -in pw.inp   Done                     01/20/2018 21:24:04
00030 suncat1006 pw.x -in pw.inp   Done                     01/20/2018 21:24:04
00031 suncat1006 pw.x -in pw.inp   Done                     01/20/2018 21:24:04