     Program PWSCF v.5.1rc2 (svn rev. 11289) starts on 17Jan2019 at  0:57: 6

     Current dimensions of program PWSCF are:
     Max number of different atomic species (ntypx) = 10
     Max number of k-points (npk) =  40000
     Max angular momentum in pseudopotentials (lmaxx) =  3

     IMPORTANT: XC functional enforced from input :
     Exchange-correlation      = BEEF-VDW ( 1  4 27 13 2)
     Any further DFT definition will be discarded
     Please, verify this is what you really want

     Subspace diagonalization in iterative solution of the eigenvalue problem:
     a serial algorithm will be used

     bravais-lattice index     =            0
     lattice parameter (alat)  =      12.7122  a.u.
     unit-cell volume          =    6741.9071 (a.u.)^3
     number of atoms/cell      =           13
     number of atomic types    =            2
     number of electrons       =       169.00
     number of Kohn-Sham states=           94
     kinetic-energy cutoff     =      36.7493  Ry
     charge density cutoff     =     367.4933  Ry
     convergence threshold     =      1.0E-04
     mixing beta               =       0.2000
     number of iterations used =            8  plain     mixing
     Exchange-correlation      = BEEF-VDW ( 1  4 27 13 2)
     nstep                     =           50

     celldm(1)=  12.712175  celldm(2)=   0.000000  celldm(3)=   0.000000
     celldm(4)=   0.000000  celldm(5)=   0.000000  celldm(6)=   0.000000

     crystal axes: (cart. coord. in units of alat)
               a(1) = (   1.000000   0.000000   0.000000 )
               a(2) = (   0.500000   0.866025   0.000000 )
               a(3) = (   0.000000   0.000000   3.789593 )

     reciprocal axes: (cart. coord. in units 2 pi/alat)
               b(1) = (  1.000000 -0.577350  0.000000 )
               b(2) = (  0.000000  1.154701  0.000000 )
               b(3) = (  0.000000  0.000000  0.263881 )

     PseudoPot. # 1 for Sn read from file:
     /nfs/slac/g/suncatfs/mamunm/src/decaf-espresso/gbrv15pbe/Sn.UPF
     MD5 check sum: 469debedee59599fedebd795477fea03
     Pseudo is Ultrasoft + core correction, Zval = 14.0
     Generated by new atomic code, or converted to UPF format
     Using radial grid of  891 points,  6 beta functions with:
                l(1) =   0
                l(2) =   0
                l(3) =   1
                l(4) =   1
                l(5) =   2
                l(6) =   2
     Q(r) pseudized with  8 coefficients,  rinner =    1.350   1.350   1.350
                                                       1.350   1.350

     PseudoPot. # 2 for H  read from file:
     /nfs/slac/g/suncatfs/mamunm/src/decaf-espresso/gbrv15pbe/H.UPF
     MD5 check sum: 761ae9a214b05c3daf00ab9f6b793d6f
     Pseudo is Ultrasoft, Zval =  1.0
     Generated by new atomic code, or converted to UPF format
     Using radial grid of  615 points,  2 beta functions with:
                l(1) =   0
                l(2) =   0
     Q(r) pseudized with  8 coefficients,  rinner =    0.700

     vdW kernel table read from file vdW_kernel_table
     MD5 check sum: 095c7af220d748ca6e76c0b4c6cfb241

     atomic species   valence    mass     pseudopotential
        Sn            14.00   118.71000     Sn( 1.00)
        H              1.00     1.00800     H ( 1.00)

     No symmetry found

   Cartesian axes

     site n.     atom                  positions (alat units)
         1           Sn  tau(   1) = (   0.2500000   0.1443376   1.4865483  )
         2           Sn  tau(   2) = (   0.7500000   0.1443376   1.4865483  )
         3           Sn  tau(   3) = (   0.5000000   0.5773503   1.4865483  )
         4           Sn  tau(   4) = (   1.0000000   0.5773503   1.4865483  )
         5           Sn  tau(   5) = (   1.0000000   0.2886751   1.8947966  )
         6           Sn  tau(   6) = (   0.5000000   0.2886751   1.8947966  )
         7           Sn  tau(   7) = (   1.2500000   0.7216878   1.8947966  )
         8           Sn  tau(   8) = (   0.7500000   0.7216878   1.8947966  )
         9           Sn  tau(   9) = (   0.0001368   0.0000794   2.3107548  )
        10           Sn  tau(  10) = (   0.4998530   0.0000768   2.3107520  )
        11           Sn  tau(  11) = (   0.2500006   0.4328455   2.3107507  )
        12           Sn  tau(  12) = (   0.7500034   0.4330099   2.2999733  )
        13           H   tau(  13) = (   0.2500015   0.1443382   2.4664359  )

     number of k points=    20  Fermi-Dirac smearing, width (Ry)=  0.0110
                       cart. coord. in units 2pi/alat
        k(    1) = (   0.0000000   0.0000000   0.0000000), wk =   0.0555556
        k(    2) = (   0.0000000   0.1924501   0.0000000), wk =   0.1111111
        k(    3) = (   0.0000000   0.3849002   0.0000000), wk =   0.1111111
        k(    4) = (   0.0000000  -0.5773503   0.0000000), wk =   0.0555556
        k(    5) = (   0.1666667  -0.0962250   0.0000000), wk =   0.1111111
        k(    6) = (   0.1666667   0.0962250   0.0000000), wk =   0.1111111
        k(    7) = (   0.1666667   0.2886751   0.0000000), wk =   0.1111111
        k(    8) = (   0.1666667  -0.6735753   0.0000000), wk =   0.1111111
        k(    9) = (   0.1666667  -0.4811252   0.0000000), wk =   0.1111111
        k(   10) = (   0.1666667  -0.2886751   0.0000000), wk =   0.1111111
        k(   11) = (   0.3333333  -0.1924501   0.0000000), wk =   0.1111111
        k(   12) = (   0.3333333   0.0000000   0.0000000), wk =   0.1111111
        k(   13) = (   0.3333333   0.1924501   0.0000000), wk =   0.1111111
        k(   14) = (   0.3333333  -0.7698004   0.0000000), wk =   0.1111111
        k(   15) = (   0.3333333  -0.5773503   0.0000000), wk =   0.1111111
        k(   16) = (   0.3333333  -0.3849002   0.0000000), wk =   0.1111111
        k(   17) = (  -0.5000000   0.2886751   0.0000000), wk =   0.0555556
        k(   18) = (  -0.5000000   0.4811252   0.0000000), wk =   0.1111111
        k(   19) = (  -0.5000000   0.6735753   0.0000000), wk =   0.1111111
        k(   20) = (  -0.5000000  -0.2886751   0.0000000), wk =   0.0555556

     Largest allocated arrays     est. size (Mb)     dimensions
     Largest temporary arrays     est. size (Mb)     dimensions

     Initial potential from superposition of free atoms
     Check: negative starting charge=   -0.001541

     starting charge  156.99945, renormalised to  169.00000

     negative rho (up, down):  1.659E-03 0.000E+00

     *
     * You are using vdW-DF for exchange-correlation in this calculation.
     * Please cite the following three references that made this development
     * possible:
     *
     *   M. Dion, H. Rydberg, E. Schroder, D. C. Langreth, and
     *   B. I. Lundqvist, Phys. Rev. Lett. 92, 246401 (2004).
     *
     *   T. Thonhauser, V. R. Cooper, S. Li, A. Puzder, P. Hyldgaard, and
     *   D. C. Langreth, Phys. Rev. B 76, 125112 (2007).
     *
     *   G. Roman-Perez and J. M. Soler, Phys. Rev. Lett. 103, 096102 (2009).
     *
     *
     * If you are using vdW-DF2, please also cite:
     *
     *   K. Lee, E. D. Murray, L. Kong, B. I. Lundqvist, and
     *   D. C. Langreth, Phys. Rev. B 82, 081101(R) (2010).
     *
     *
     * If you are calculating the stress with vdW-DF, please also cite:
     *
     *   R. Sabatini, E. Kucukbenli, B. Kolb, T. Thonhauser, and
     *   S. de Gironcoli, J. Phys.: Condens. Matter 24, 424209 (2012).
     *

     Carrying out vdW-DF run using the following parameters:

     Nqs =      20    Nr_points =    1024   r_max =   100.000
     q_mesh =
               0.00001000     0.04494208     0.09755937     0.15916263
               0.23128650     0.31572767     0.41458969     0.53033537
               0.66584808     0.82450364     1.01025438     1.22772762
               1.48234092     1.78043706     2.12944203     2.53805004
               3.01644009     3.57652955     4.23227104     5.00000000

     Gradients computed in reciprocal space

     Adding external electric field

     Computed dipole along edir(3) :
        Dipole               -0.5538 Ry au,         -1.4075 Debye
        Dipole field         -0.0010 Ry au

        Potential amp.        0.0895 Ry
        Total length         43.3566 bohr

     Starting wfc are  109 randomized atomic wfcs

     Self-consistent Calculation

     iteration #  1     ecut=    36.75 Ry     beta=0.20
     Davidson diagonalization with overlap
     ethr =  1.00E-02,  avg # of iterations =  4.8

[...]

     total energy              =   -1929.76692934 Ry
     Harris-Foulkes estimate   =   -1935.15966061 Ry
     estimated scf accuracy    <      16.31857915 Ry

[...]

     End of self-consistent calculation

          k = 0.0000 0.0000 0.0000 ( 25377 PWs)   bands (ev):

   -21.4151 -21.3897 -21.3897 -21.3596 -21.3447 -21.3447 -21.3424 -21.3400
   -21.3319 -21.3319 -21.3219 -21.3219 -21.3004 -21.2973 -21.2912 -21.2912
   -21.2880 -21.2880 -21.2876 -21.2796 -21.2796 -21.2782 -21.2725 -21.2725
   -21.2711 -21.2711 -21.2523 -21.2523 -21.2511 -21.2462 -21.2449 -21.2422
   -21.2422 -21.2259 -21.2259 -21.2179 -21.2179 -21.2133 -21.1835 -21.1813
   -21.1813 -21.1759 -21.1759 -21.1632 -21.1632 -21.1572 -21.1410 -21.1410
   -21.1378 -21.1326 -21.1288 -21.1288 -21.1197 -21.1197 -21.1097 -21.1088
   -21.1088 -21.0997 -21.0996 -21.0952 -10.0499  -8.9632  -7.2824  -5.9475
    -5.9460  -5.9460  -5.6495  -5.4942  -5.4942  -4.9356  -4.6265  -4.6265
    -3.8034  -3.2703  -3.2703  -2.9947  -2.4789  -2.0139  -2.0139  -1.9320
    -1.8890  -1.8890  -0.2052   1.0522   1.6267   1.6267   1.6837   1.7221
     1.7221   2.7280   3.1809   3.2612   3.2613   3.9450

[...]

          k =-0.5000 0.2887 0.0000 ( 25386 PWs)   bands (ev):

[...]

     the Fermi energy is     0.7458 ev

!    total energy              =   -1929.43841918 Ry
     Harris-Foulkes estimate   =   -1929.43842802 Ry
     estimated scf accuracy    <       0.00001065 Ry

     The total energy is the sum of the following terms:

     one-electron contribution =  -10353.12261085 Ry
     hartree contribution      =    5239.55103926 Ry
     xc contribution           =    -534.56616245 Ry
     ewald contribution        =    3718.74025940 Ry
     electric field correction =       0.00000039 Ry
     smearing contrib. (-TS)   =      -0.04094493 Ry

     convergence has been achieved in  13 iterations

     Forces acting on atoms (Ry/au):

     negative rho (up, down):  4.084E-04 0.000E+00
     atom    1 type  1   force =     0.00002044   -0.00000849   -0.00175318
     atom    2 type  1   force =     0.00000710   -0.00180595    0.00273324
     atom    3 type  1   force =    -0.00157208    0.00090885    0.00277974
     atom    4 type  1   force =     0.00158171    0.00090244    0.00275498
     atom    5 type  1   force =     0.00339395   -0.00197963    0.00156792
     atom    6 type  1   force =    -0.00340856   -0.00198263    0.00154618
     atom    7 type  1   force =    -0.00001191    0.00000412   -0.00542870
     atom    8 type  1   force =    -0.00000926    0.00394928    0.00155473
     atom    9 type  1   force =     0.00008966    0.00005887   -0.00138097
     atom   10 type  1   force =    -0.00008101    0.00004640   -0.00136575
     atom   11 type  1   force =    -0.00000258   -0.00009988   -0.00136914
     atom   12 type  1   force =    -0.00000840    0.00000375   -0.00307957
     atom   13 type  2   force =     0.00000094    0.00000288    0.00144051

     Total force =     0.004152     Total SCF correction =     0.008584
     SCF correction compared to forces is large: reduce conv_thr to get better values

     BFGS Geometry Optimization

     number of scf cycles    =   1
     number of bfgs steps    =   0

     energy   new            =   -1929.4384191811 Ry

     new trust radius        =       0.0030795834 bohr
     new conv_thr            =       0.0001000000 Ry

ATOMIC_POSITIONS (angstrom)
Sn       1.681748263   0.970957812  10.000000000    0   0   0
Sn       5.045244789   0.970957812  10.000000000    0   0   0
Sn       3.363496526   3.883831250  10.000000000    0   0   0
Sn       6.726993052   3.883831250  10.000000000    0   0   0
Sn       6.726993052   1.941915625  12.746283414    0   0   0
Sn       3.363496526   1.941915625  12.746283414    0   0   0
Sn       8.408741315   4.854789062  12.746283414    0   0   0
Sn       5.045244789   4.854789062  12.746283414    0   0   0
Sn       0.000967938   0.000565228  15.543700822
Sn       3.362464567   0.000541218  15.543690212
Sn       1.681750956   2.911695747  15.543679626
Sn       5.045263342   2.912856301  15.470274587
H        1.681759167   0.970963327  16.592459780

     Writing output data file calc.save
     Check: negative starting charge=   -0.001541
     NEW-OLD atomic charge density approx. for the potential
     Check: negative starting charge=   -0.001542

[...]

     Self-consistent Calculation

[...]

     total energy              =   -1929.43838372 Ry
     Harris-Foulkes estimate   =   -1929.43847751 Ry
     estimated scf accuracy    <       0.00134746 Ry

     iteration #  4     ecut=    36.75 Ry     beta=0.20
     Davidson diagonalization with overlap
     ethr =  3.47E-07,  avg # of iterations =  2.8

     negative rho (up, down):  4.089E-04 0.000E+00

     Adding external electric field

     Computed dipole along edir(3) :
        Dipole               -0.0037 Ry au,         -0.0094 Debye
        Dipole field         -0.0000 Ry au

        Potential amp.        0.0006 Ry
        Total length         43.3566 bohr

     End of self-consistent calculation

[...]

          k = 0.3333-0.3849 0.0000 ( 25368 PWs)   bands (ev):

[...]

          k =-0.5000-0.2887 0.0000 ( 25386 PWs)   bands (ev):

   -21.3958 -21.3613 -21.3545 -21.3415 -21.3359 -21.3300 -21.3298 -21.3236
   -21.3233 -21.3182 -21.3159 -21.3157 -21.3131 -21.3042 -21.2976 -21.2963
   -21.2875 -21.2853 -21.2812 -21.2795 -21.2794 -21.2790 -21.2783 -21.2711
   -21.2696 -21.2681 -21.2622 -21.2618 -21.2557 -21.2551 -21.2497 -21.2497
   -21.2477 -21.2366 -21.2323 -21.2240 -21.2226 -21.2189 -21.2051 -21.2016
   -21.1975 -21.1954 -21.1892 -21.1849 -21.1839 -21.1777 -21.1760 -21.1732
   -21.1722 -21.1711 -21.1694 -21.1692 -21.1565 -21.1536 -21.1473 -21.1471
   -21.1337 -21.1307 -21.1145 -21.1126  -8.9533  -8.8773  -7.9806  -7.7045
    -6.7223  -6.6420  -6.3121  -6.0365  -5.6527  -5.6102  -4.4074  -4.3236
    -2.6306  -1.5928  -1.4958  -1.4480  -1.3500  -1.2680  -0.8297  -0.3149
    -0.2247  -0.1154   0.4041   0.6813   0.9063   1.0133   1.0633   1.3259
     1.4707   1.6579   1.7848   1.9470   1.9699   1.9965

     the Fermi energy is     0.7418 ev

!    total energy              =   -1929.43842705 Ry
     Harris-Foulkes estimate   =   -1929.43842913 Ry
     estimated scf accuracy    <       0.00000193 Ry

     The total energy is the sum of the following terms:

     one-electron contribution =  -10354.63848033 Ry
     hartree contribution      =    5240.42408203 Ry
     xc contribution           =    -534.58182306 Ry
     ewald contribution        =    3719.39872798 Ry
     electric field correction =       0.00000003 Ry
     smearing contrib. (-TS)   =      -0.04093369 Ry

     convergence has been achieved in   4 iterations

     Forces acting on atoms (Ry/au):

     negative rho (up, down):  4.089E-04 0.000E+00
     atom    1 type  1   force =    -0.00000663   -0.00000116   -0.00465980
     atom    2 type  1   force =    -0.00000479   -0.00192199    0.00069140
     atom    3 type  1   force =    -0.00166465    0.00096015    0.00066849
     atom    4 type  1   force =     0.00166215    0.00096091    0.00068018
     atom    5 type  1   force =     0.00314582   -0.00180549    0.00171412
     atom    6 type  1   force =    -0.00314604   -0.00180586    0.00173651
     atom    7 type  1   force =    -0.00000199   -0.00000421   -0.00597634
     atom    8 type  1   force =     0.00000177    0.00361895    0.00172984
     atom    9 type  1   force =    -0.00033885   -0.00020480    0.00103038
     atom   10 type  1   force =     0.00034267   -0.00019478    0.00102125
     atom   11 type  1   force =     0.00000485    0.00040138    0.00104085
     atom   12 type  1   force =     0.00000668   -0.00000318   -0.00037300
     atom   13 type  2   force =    -0.00000098    0.00000008    0.00069610

     Total force =     0.002070     Total SCF correction =     0.000825
     SCF correction compared to forces is large: reduce conv_thr to get better values

     bfgs converged in   2 scf cycles and   1 bfgs steps
     (criteria: energy <  1.0E+12, force <  1.9E-03)

     End of BFGS Geometry Optimization

     Final energy   =   -1929.4384270479 Ry
Begin final coordinates

ATOMIC_POSITIONS (angstrom)
Sn       1.681748263   0.970957812  10.000000000    0   0   0
Sn       5.045244789   0.970957812  10.000000000    0   0   0
Sn       3.363496526   3.883831250  10.000000000    0   0   0
Sn       6.726993052   3.883831250  10.000000000    0   0   0
Sn       6.726993052   1.941915625  12.746283414    0   0   0
Sn       3.363496526   1.941915625  12.746283414    0   0   0
Sn       8.408741315   4.854789062  12.746283414    0   0   0
Sn       5.045244789   4.854789062  12.746283414    0   0   0
Sn       0.000967938   0.000565228  15.543700822
Sn       3.362464567   0.000541218  15.543690212
Sn       1.681750956   2.911695747  15.543679626
Sn       5.045263342   2.912856301  15.470274587
H        1.681759167   0.970963327  16.592459780
End final coordinates

     Writing output data file calc.save

     General routines

     Parallel routines

   This run was terminated on:   1: 5:36  17Jan2019

   JOB DONE.
Job  /afs/slac/g/suncat/bin/suncat-tsmpirun -x LD_LIBRARY_PATH -wdir /tmp/qe_379046qdrabo2r_scratch pw.x -npool 3 -in pw.pwi

TID   HOST_NAME   COMMAND_LINE            STATUS            TERMINATION_TIME
00000 suncat1054 pw.x -npool 3 -i  Done                     01/17/2019 01:05:36
00001 suncat1054 pw.x -npool 3 -i  Done                     01/17/2019 01:05:36
00002 suncat1054 pw.x -npool 3 -i  Done                     01/17/2019 01:05:36
00003 suncat1054 pw.x -npool 3 -i  Done                     01/17/2019 01:05:36
00004 suncat1054 pw.x -npool 3 -i  Done                     01/17/2019 01:05:36
00005 suncat1054 pw.x -npool 3 -i  Done                     01/17/2019 01:05:36
00006 suncat1054 pw.x -npool 3 -i  Done                     01/17/2019 01:05:36
00007 suncat1054 pw.x -npool 3 -i  Done                     01/17/2019 01:05:36
00008 suncat1054 pw.x -npool 3 -i  Done                     01/17/2019 01:05:36
00009 suncat1054 pw.x -npool 3 -i  Done                     01/17/2019 01:05:36
00010 suncat1054 pw.x -npool 3 -i  Done                     01/17/2019 01:05:36
00011 suncat1054 pw.x -npool 3 -i  Done                     01/17/2019 01:05:36
00012 suncat1004 pw.x -npool 3 -i  Done                     01/17/2019 01:05:36
00013 suncat1004 pw.x -npool 3 -i  Done                     01/17/2019 01:05:36
00014 suncat1004 pw.x -npool 3 -i  Done                     01/17/2019 01:05:36
00015 suncat1004 pw.x -npool 3 -i  Done                     01/17/2019 01:05:36
00016 suncat1004 pw.x -npool 3 -i  Done                     01/17/2019 01:05:36
00017 suncat1004 pw.x -npool 3 -i  Done                     01/17/2019 01:05:36
00018 suncat1004 pw.x -npool 3 -i  Done                     01/17/2019 01:05:36
00019 suncat1004 pw.x -npool 3 -i  Done                     01/17/2019 01:05:36
00020 suncat1004 pw.x -npool 3 -i  Done                     01/17/2019 01:05:36
00021 suncat1004 pw.x -npool 3 -i  Done                     01/17/2019 01:05:36
00022 suncat1004 pw.x -npool 3 -i  Done                     01/17/2019 01:05:36
00023 suncat1004 pw.x -npool 3 -i  Done                     01/17/2019 01:05:36
00024 suncat1001 pw.x -npool 3 -i  Done                     01/17/2019 01:05:36
00025 suncat1001 pw.x -npool 3 -i  Done                     01/17/2019 01:05:36
00026 suncat1001 pw.x -npool 3 -i  Done                     01/17/2019 01:05:36
00027 suncat1001 pw.x -npool 3 -i  Done                     01/17/2019 01:05:36
00028 suncat1001 pw.x -npool 3 -i  Done                     01/17/2019 01:05:36
00029 suncat1001 pw.x -npool 3 -i  Done                     01/17/2019 01:05:36
00030 suncat1001 pw.x -npool 3 -i  Done                     01/17/2019 01:05:36
00031 suncat1001 pw.x -npool 3 -i  Done                     01/17/2019 01:05:36
00032 suncat1001 pw.x -npool 3 -i  Done                     01/17/2019 01:05:36
00033 suncat1001 pw.x -npool 3 -i  Done                     01/17/2019 01:05:36
00034 suncat1001 pw.x -npool 3 -i  Done                     01/17/2019 01:05:36
00035 suncat1001 pw.x -npool 3 -i  Done                     01/17/2019 01:05:36