     Program PWSCF v.5.1rc2 (svn rev. 11289) starts on 22Apr2018 at 23:36: 0

     Current dimensions of program PWSCF are:
     Max number of different atomic species (ntypx) = 10
     Max number of k-points (npk) =  40000
     Max angular momentum in pseudopotentials (lmaxx) =  3
     Presently stress not available with electric field

     IMPORTANT: XC functional enforced from input :
     Exchange-correlation      = BEEF-VDW ( 1  4 27 13 2)
     Any further DFT definition will be discarded
     Please, verify this is what you really want

     Subspace diagonalization in iterative solution of the eigenvalue problem:
     a serial algorithm will be used

     bravais-lattice index     =            0
     lattice parameter (alat)  =       1.8897  a.u.
     unit-cell volume          =    6116.8020 (a.u.)^3
     number of atoms/cell      =           16
     number of atomic types    =            3
     number of electrons       =       139.00
     number of Kohn-Sham states=           79
     kinetic-energy cutoff     =      36.7493  Ry
     charge density cutoff     =     367.4932  Ry
     convergence threshold     =      1.0E-05
     mixing beta               =       0.3000
     number of iterations used =           10  plain     mixing
     Exchange-correlation      = BEEF-VDW ( 1  4 27 13 2)
     nstep                     =           50

     celldm(1)=   1.889726  celldm(2)=   0.000000  celldm(3)=   0.000000
     celldm(4)=   0.000000  celldm(5)=   0.000000  celldm(6)=   0.000000

     crystal axes: (cart. coord. in units of alat)
               a(1) = (   6.437465   0.000000   0.000000 )
               a(2) = (   3.218732   5.575008   0.000000 )
               a(3) = (   0.000000   0.000000  25.256168 )

     reciprocal axes: (cart. coord. in units 2 pi/alat)
               b(1) = (  0.155341 -0.089686  0.000000 )
               b(2) = (  0.000000  0.179372  0.000000 )
               b(3) = (  0.000000  0.000000  0.039594 )

     PseudoPot. # 1 for Sc read from file:
     /u/if/mamunm/psp/gbrv1.5pbe/Sc.UPF
     MD5 check sum: db30a2753ba66ef00f23801d899b7e7f
     Pseudo is Ultrasoft + core correction, Zval = 11.0
     Generated by new atomic code, or converted to UPF format
     Using radial grid of  849 points,  6 beta functions with:
                l(1) =   0
                l(2) =   0
                l(3) =   1
                l(4) =   1
                l(5) =   2
                l(6) =   2
     Q(r) pseudized with  6 coefficients,  rinner =    1.200   1.200   1.200
                                                       1.200   1.200

     PseudoPot. # 2 for C  read from file:
     /u/if/mamunm/psp/gbrv1.5pbe/C.UPF
     MD5 check sum: d1aef80898a10debaa0f26306b886e00
     Pseudo is Ultrasoft + core correction, Zval =  4.0
     Generated by new atomic code, or converted to UPF format
     Using radial grid of  721 points,  4 beta functions with:
                l(1) =   0
                l(2) =   0
                l(3) =   1
                l(4) =   1
     Q(r) pseudized with  8 coefficients,  rinner =    1.100   1.100   1.100

     PseudoPot. # 3 for H  read from file:
     /u/if/mamunm/psp/gbrv1.5pbe/H.UPF
     MD5 check sum: 761ae9a214b05c3daf00ab9f6b793d6f
     Pseudo is Ultrasoft, Zval =  1.0
     Generated by new atomic code, or converted to UPF format
     Using radial grid of  615 points,  2 beta functions with:
                l(1) =   0
                l(2) =   0
     Q(r) pseudized with  8 coefficients,  rinner =    0.700

     vdW kernel table read from file vdW_kernel_table
     MD5 check sum: 095c7af220d748ca6e76c0b4c6cfb241

     atomic species   valence    mass     pseudopotential
        Sc1           11.00    44.95591     Sc( 1.00)
        C1             4.00    12.01100     C ( 1.00)
        H1             1.00     1.00800     H ( 1.00)

     No symmetry found

   Cartesian axes

     site n.     atom                  positions (alat units)
         1           Sc1 tau(   1) = (   1.6093662   0.9291680  10.0000000  )
         2           Sc1 tau(   2) = (   4.8280986   0.9291680  10.0000000  )
         3           Sc1 tau(   3) = (   3.2187324   3.7166720  10.0000000  )
         4           Sc1 tau(   4) = (   6.4374648   3.7166720  10.0000000  )
         5           Sc1 tau(   5) = (   6.4374648   1.8583360  12.6280840  )
         6           Sc1 tau(   6) = (   3.2187324   1.8583360  12.6280840  )
         7           Sc1 tau(   7) = (   8.0468310   4.6458400  12.6280840  )
         8           Sc1 tau(   8) = (   4.8280986   4.6458400  12.6280840  )
         9           Sc1 tau(   9) = (   0.0000000   0.0000000  15.2561680  )
        10           Sc1 tau(  10) = (   3.2187324   0.0000000  15.2561680  )
        11           Sc1 tau(  11) = (   1.6093662   2.7875040  15.2561680  )
        12           Sc1 tau(  12) = (   4.8280986   2.7875040  15.2561680  )
        13           C1  tau(  13) = (   0.0000000   0.0000000  17.3471680  )
        14           H1  tau(  14) = (   1.0900000   0.0000000  17.9771680  )
        15           H1  tau(  15) = (   5.9874648   0.8895000  17.9771680  )
        16           H1  tau(  16) = (   2.7687324   4.6855080  17.9771680  )

     number of k points=    20  Fermi-Dirac smearing, width (Ry)=  0.0110
                       cart. coord. in units 2pi/alat
        k(    1) = (   0.0000000   0.0000000   0.0000000), wk =   0.0555556
        k(    2) = (   0.0000000   0.0298953   0.0000000), wk =   0.1111111
        k(    3) = (   0.0000000   0.0597906   0.0000000), wk =   0.1111111
        k(    4) = (   0.0000000  -0.0896860   0.0000000), wk =   0.0555556
        k(    5) = (   0.0258901  -0.0149477   0.0000000), wk =   0.1111111
        k(    6) = (   0.0258901   0.0149477   0.0000000), wk =   0.1111111
        k(    7) = (   0.0258901   0.0448430   0.0000000), wk =   0.1111111
        k(    8) = (   0.0258901  -0.1046336   0.0000000), wk =   0.1111111
        k(    9) = (   0.0258901  -0.0747383   0.0000000), wk =   0.1111111
        k(   10) = (   0.0258901  -0.0448430   0.0000000), wk =   0.1111111
        k(   11) = (   0.0517802  -0.0298953   0.0000000), wk =   0.1111111
        k(   12) = (   0.0517802   0.0000000   0.0000000), wk =   0.1111111
        k(   13) = (   0.0517802   0.0298953   0.0000000), wk =   0.1111111
        k(   14) = (   0.0517802  -0.1195813   0.0000000), wk =   0.1111111
        k(   15) = (   0.0517802  -0.0896860   0.0000000), wk =   0.1111111
        k(   16) = (   0.0517802  -0.0597906   0.0000000), wk =   0.1111111
        k(   17) = (  -0.0776703   0.0448430   0.0000000), wk =   0.0555556
        k(   18) = (  -0.0776703   0.0747383   0.0000000), wk =   0.1111111
        k(   19) = (  -0.0776703   0.1046336   0.0000000), wk =   0.1111111
        k(   20) = (  -0.0776703  -0.0448430   0.0000000), wk =   0.0555556

     Largest allocated arrays     est. size (Mb)     dimensions
     Largest temporary arrays     est. size (Mb)     dimensions

     Initial potential from superposition of free atoms
     Check: negative starting charge=   -0.000247

     starting charge  138.97110, renormalised to  139.00000

     negative rho (up, down):  2.474E-04 0.000E+00

     *
     * You are using vdW-DF for exchange-correlation in this calculation.
     * Please cite the following three references that made this development
     * possible:
     *
     *   M. Dion, H. Rydberg, E. Schroder, D. C. Langreth, and
     *   B. I. Lundqvist, Phys. Rev. Lett. 92, 246401 (2004).
     *
     *   T. Thonhauser, V. R. Cooper, S. Li, A. Puzder, P. Hyldgaard, and
     *   D. C. Langreth, Phys. Rev. B 76, 125112 (2007).
     *
     *   G. Roman-Perez and J. M. Soler, Phys. Rev. Lett. 103, 096102 (2009).
     *
     *
     * If you are using vdW-DF2, please also cite:
     *
     *   K. Lee, E. D. Murray, L. Kong, B. I. Lundqvist, and
     *   D. C. Langreth, Phys. Rev. B 82, 081101(R) (2010).
     *
     *
     * If you are calculating the stress with vdW-DF, please also cite:
     *
     *   R. Sabatini, E. Kucukbenli, B. Kolb, T. Thonhauser, and
     *   S. de Gironcoli, J. Phys.: Condens. Matter 24, 424209 (2012).
     *

     Carrying out vdW-DF run using the following parameters:

     Nqs =      20    Nr_points =    1024   r_max =   100.000
     q_mesh =
               0.00001000     0.04494208     0.09755937     0.15916263
               0.23128650     0.31572767     0.41458969     0.53033537
               0.66584808     0.82450364     1.01025438     1.22772762
               1.48234092     1.78043706     2.12944203     2.53805004
               3.01644009     3.57652955     4.23227104     5.00000000

     Gradients computed in reciprocal space

     Adding external electric field

     Computed dipole along edir(3) :
        Dipole               -0.0131 Ry au,         -0.0333 Debye
        Dipole field         -0.0000 Ry au

        Potential amp.        0.0025 Ry
        Total length         46.5341 bohr

     Starting wfc are  163 randomized atomic wfcs

     Self-consistent Calculation

     iteration #  1     ecut=    36.75 Ry     beta=0.30
     Davidson diagonalization with overlap
     ethr =  1.00E-02,  avg # of iterations =  2.0

[...]

     total energy              =   -1150.35832584 Ry
     Harris-Foulkes estimate   =   -1153.54388262 Ry
     estimated scf accuracy    <       6.82224324 Ry

[...]

     iteration # 10     ecut=    36.75 Ry     beta=0.30
     Davidson diagonalization with overlap
     c_bands:  1 eigenvalues not converged
     ethr =  3.08E-05,  avg # of iterations =  2.6

[...]

     iteration # 12     ecut=    36.75 Ry     beta=0.30
     Davidson diagonalization with overlap
     c_bands:  1 eigenvalues not converged
     ethr =  6.62E-07,  avg # of iterations = 11.3

[...]

     End of self-consistent calculation

          k = 0.0000 0.0000 0.0000 ( 23031 PWs)   bands (ev):

   -49.2608 -49.2363 -49.2260 -49.2252 -49.1924 -49.1916 -49.1864 -48.8050
   -48.7602 -48.7597 -48.7581 -48.7356 -27.9796 -27.9517 -27.9501 -27.9498
   -27.9347 -27.9335 -27.9322 -27.9252 -27.9246 -27.9119 -27.8597 -27.8590
   -27.8544 -27.7443 -27.6911 -27.6879 -27.6876 -27.6409 -27.6402 -27.6102
   -27.6102 -27.5546 -27.5202 -27.5198 -27.3952 -27.3825 -27.3811 -27.3523
   -27.3297 -27.3288 -27.2865 -27.2863 -27.2795 -27.2531 -27.2080 -27.2079
   -11.6903  -4.6933  -4.2774  -4.0728  -3.0952  -2.2760  -1.6203  -0.7839
    -0.7823  -0.7631  -0.6773  -0.6750  -0.6339  -0.4175  -0.4164  -0.3388
     0.1413   0.1419   0.1614   0.3891   0.4655   0.4678   0.8050   1.0468
     1.2003   1.2511   1.3358   1.3360   1.4129   1.6087   1.6185

[...]

          k =-0.0777 0.0448 0.0000 ( 23032 PWs)   bands (ev):

[...]

     the Fermi energy is     0.7130 ev

!    total energy              =   -1152.82592470 Ry
     Harris-Foulkes estimate   =   -1152.82592718 Ry
     estimated scf accuracy    <       0.00000342 Ry

     The total energy is the sum of the following terms:

     one-electron contribution =   -7304.85958993 Ry
     hartree contribution      =    3637.78003424 Ry
     xc contribution           =    -172.36497223 Ry
     ewald contribution        =    2686.74915835 Ry
     electric field correction =       0.00000783 Ry
     smearing contrib. (-TS)   =      -0.13056296 Ry

     convergence has been achieved in  18 iterations

 BEEF-vdW xc energy contributions
           1 :   -145.956985444449
           2 :    128.307549993708
           3 :   -100.874793420766
           4 :    74.2895400997624
           5 :   -55.9317125990143
           6 :    47.0382563877376
           7 :   -44.0380767204472
           8 :    42.2722537674924
           9 :   -39.1522072540699
          10 :    34.9164176534945
          11 :   -31.2207538610064
          12 :    29.1788959256433
          13 :   -28.4375620887126
          14 :    27.7384343554143
          15 :   -26.1776641845497
          16 :    23.9506608399161
          17 :   -22.0088814221139
          18 :    21.0818042426596
          19 :   -21.0160248890104
          20 :    20.9831072393368
          21 :   -20.2685687186498
          22 :    18.8753371468933
          23 :   -17.4370293747949
          24 :    16.5961672899039
          25 :   -16.4457035782930
          26 :    16.5084503121295
          27 :   -16.2149097970458
          28 :    15.4109691933787
          29 :   -14.4469269895289
          30 :    13.8090708388757
          31 :   -17.3432598695383
          32 :   -12.4074087940161

     Forces acting on atoms (Ry/au):

     negative rho (up, down):  2.000E-04 0.000E+00
     atom    1 type  1   force =    -0.00002543   -0.00002211    0.00129828
     atom    2 type  1   force =     0.00001733   -0.00002404    0.00115769
     atom    3 type  1   force =    -0.00000457    0.00003692    0.00123145
     atom    4 type  1   force =    -0.00000911    0.00000912    0.00128826
     atom    5 type  1   force =    -0.00012029    0.00695269    0.00020972
     atom    6 type  1   force =     0.00005739   -0.00000813    0.00404935
     atom    7 type  1   force =    -0.00598245   -0.00347756    0.00018751
     atom    8 type  1   force =     0.00604820   -0.00343017    0.00035033
     atom    9 type  1   force =     0.00080788   -0.00010739   -0.05197804
     atom   10 type  1   force =    -0.00199964   -0.00295330   -0.00657418
     atom   11 type  1   force =    -0.00138826    0.00371145   -0.00757195
     atom   12 type  1   force =     0.00361693   -0.00074042   -0.00745916
     atom   13 type  2   force =     0.04561146    0.00005751    0.23124357
     atom   14 type  3   force =    -0.07834005    0.00003871   -0.07004888
     atom   15 type  3   force =     0.01579723   -0.04337345   -0.04869860
     atom   16 type  3   force =     0.01591340    0.04333017   -0.04868537

     Total force =     0.280182     Total SCF correction =     0.003197

     entering subroutine stress ...

     negative rho (up, down):  2.000E-04 0.000E+00
          total   stress  (Ry/bohr**3)                   (kbar)     P=    0.77
   0.00000629   0.00000000  -0.00000972          0.93      0.00     -1.43
   0.00000000   0.00001345   0.00000000          0.00      1.98      0.00
  -0.00000972   0.00000000  -0.00000397         -1.43      0.00     -0.58

     BFGS Geometry Optimization

     number of scf cycles    =   1
     number of bfgs steps    =   0

     energy   new            =   -1152.8259246964 Ry

     new trust radius        =       0.2356989564 bohr
     new conv_thr            =       0.0000099958 Ry

ATOMIC_POSITIONS (crystal)
Sc1      0.166666667   0.166666667   0.395942884    0   0   0
Sc1      0.666666667   0.166666667   0.395942884    0   0   0
Sc1      0.166666667   0.666666667   0.395942884    0   0   0
Sc1      0.666666667   0.666666667   0.395942884    0   0   0
Sc1      0.833333333   0.333333333   0.500000000    0   0   0
Sc1      0.333333333   0.333333333   0.500000000    0   0   0
Sc1      0.833333333   0.833333333   0.500000000    0   0   0
Sc1      0.333333333   0.833333333   0.500000000    0   0   0
Sc1      0.000071506  -0.000010193   0.602968051
Sc1      0.499975787  -0.000280326   0.603919371
Sc1     -0.000290264   0.500352289   0.603898465
Sc1      0.500332462   0.499929719   0.603900828
C1       0.003746657   0.000005459   0.691693879
H1       0.162879711   0.000003674   0.710325483
H1       0.853678105   0.155434352   0.710772822
H1       0.009124060   0.844561540   0.710773099

     Writing output data file calc.save
     Check: negative starting charge=   -0.000247
     NEW-OLD atomic charge density approx. for the potential
     Check: negative starting charge=   -0.000246

[...]

     energy   old            =   -1152.8259246964 Ry
     energy   new            =   -1152.8712104987 Ry

     CASE: energy  _new < energy  _old

[...]

     Total force =     0.004345     Total SCF correction =     0.000385

[...]

     number of scf cycles    =  13
     number of bfgs steps    =  12

     energy   old            =   -1152.8759604473 Ry
     energy   new            =   -1152.8760232790 Ry

     CASE: energy  _new < energy  _old

     new trust radius        =       0.0118898808 bohr
     new conv_thr            =       0.0000001000 Ry

ATOMIC_POSITIONS (crystal)
Sc1      0.166666667   0.166666667   0.395942884    0   0   0
Sc1      0.666666667   0.166666667   0.395942884    0   0   0
Sc1      0.166666667   0.666666667   0.395942884    0   0   0
Sc1      0.666666667   0.666666667   0.395942884    0   0   0
Sc1      0.833333333   0.333333333   0.500000000    0   0   0
Sc1      0.333333333   0.333333333   0.500000000    0   0   0
Sc1      0.833333333   0.833333333   0.500000000    0   0   0
Sc1      0.333333333   0.833333333   0.500000000    0   0   0
Sc1     -0.001311667   0.000039676   0.605011320
Sc1      0.498051423  -0.001862886   0.600578874
Sc1     -0.002808690   0.502382043   0.600525314
Sc1      0.501435454   0.499449824   0.600545168
C1       0.009025090   0.000042358   0.694443703
H1       0.165956401   0.000265081   0.711502197
H1       0.850646666   0.157795695   0.711055497
H1       0.008982044   0.841960925   0.711038374

     Writing output data file calc.save
     Check: negative starting charge=   -0.000238
     NEW-OLD atomic charge density approx. for the potential
     Check: negative starting charge=   -0.000238

[...]

     Self-consistent Calculation

[...]

     total energy              =   -1152.87605938 Ry
     Harris-Foulkes estimate   =   -1152.87605940 Ry
     estimated scf accuracy    <       0.00000015 Ry

     iteration # 10     ecut=    36.75 Ry     beta=0.30
     Davidson diagonalization with overlap
     ethr =  1.08E-10,  avg # of iterations =  4.0

[...]

     negative rho (up, down):  2.085E-04 0.000E+00

     Adding external electric field

     Computed dipole along edir(3) :
        Dipole               -0.0951 Ry au,         -0.2418 Debye
        Dipole field         -0.0002 Ry au

        Potential amp.        0.0182 Ry
        Total length         46.5341 bohr

     End of self-consistent calculation

[...]

          k = 0.0518-0.0598 0.0000 ( 23012 PWs)   bands (ev):

[...]

          k =-0.0777-0.0448 0.0000 ( 23032 PWs)   bands (ev):

   -49.3843 -49.3804 -49.3613 -49.3556 -49.3482 -49.3359 -49.3248 -48.9743
   -48.8996 -48.8945 -48.8778 -48.8589 -28.0748 -28.0638 -28.0550 -28.0518
   -28.0506 -28.0460 -28.0379 -28.0283 -28.0217 -28.0074 -27.9652 -27.9514
   -27.9480 -27.9247 -27.9203 -27.9181 -27.8989 -27.8720 -27.8188 -27.8158
   -27.7602 -27.6562 -27.6101 -27.6039 -27.5674 -27.5295 -27.4902 -27.4837
   -27.4675 -27.4649 -27.4556 -27.4503 -27.4471 -27.3980 -27.3726 -27.3483
   -11.8719  -5.0216  -4.9824  -2.9373  -2.8979  -2.0676  -1.8988  -1.3328
    -0.9894  -0.9370  -0.6754  -0.6205  -0.4397  -0.3862   0.2429   0.2820
     0.2894   0.3207   0.3822   0.4106   0.5244   0.6004   0.6243   0.6591
     0.6987   0.7642   0.8409   0.9570   1.0009   1.0034   1.0707

     the Fermi energy is     0.5518 ev

!    total energy              =   -1152.87605939 Ry
     Harris-Foulkes estimate   =   -1152.87605940 Ry
     estimated scf accuracy    <       0.00000003 Ry

     The total energy is the sum of the following terms:

     one-electron contribution =   -7337.95114211 Ry
     hartree contribution      =    3653.82984770 Ry
     xc contribution           =    -172.56260681 Ry
     ewald contribution        =    2703.93702311 Ry
     electric field correction =       0.00001860 Ry
     smearing contrib. (-TS)   =      -0.12919987 Ry

     convergence has been achieved in  10 iterations

 BEEF-vdW xc energy contributions
           1 :   -146.131520627099
           2 :    128.458291775537
           3 :   -100.995540808179
           4 :    74.3811942841433
           5 :   -55.9942843417174
           6 :    47.0810284185629
           7 :   -44.0834461924800
           8 :    42.3426153690639
           9 :   -39.2527094150983
          10 :    35.0288780888282
          11 :   -31.3160061064262
          12 :    29.2416664700498
          13 :   -28.4839160313768
          14 :    27.8042905646362
          15 :   -26.2821560782032
          16 :    24.0721075530279
          17 :   -22.1021321483208
          18 :    21.1198542674612
          19 :   -21.0150933378644
          20 :    20.9871505401741
          21 :   -20.3077709719939
          22 :    18.9388298981082
          23 :   -17.4853649077151
          24 :    16.6009188289307
          25 :   -16.4187056192878
          26 :    16.4922220522618
          27 :   -16.2424357158738
          28 :    15.4744193720097
          29 :   -14.5064004338948
          30 :    13.8314881068496
          31 :   -17.3549092744803
          32 :   -12.4136277397677

     Forces acting on atoms (Ry/au):

     negative rho (up, down):  2.085E-04 0.000E+00
     atom    1 type  1   force =    -0.00032325   -0.00016011    0.00130901
     atom    2 type  1   force =     0.00029904   -0.00020839    0.00130795
     atom    3 type  1   force =    -0.00000912    0.00036201    0.00131129
     atom    4 type  1   force =     0.00003209    0.00000258    0.00044568
     atom    5 type  1   force =     0.00028878    0.00460282   -0.00249059
     atom    6 type  1   force =    -0.00016524   -0.00000181   -0.00312886
     atom    7 type  1   force =    -0.00438043   -0.00180765   -0.00249510
     atom    8 type  1   force =     0.00358964   -0.00280677   -0.00251374
     atom    9 type  1   force =    -0.00019482   -0.00000471    0.00151464
     atom   10 type  1   force =    -0.00025937   -0.00014880    0.00089326
     atom   11 type  1   force =    -0.00058987   -0.00017055    0.00077182
     atom   12 type  1   force =    -0.00032093    0.00031469    0.00077044
     atom   13 type  2   force =     0.00189610    0.00001856    0.00124174
     atom   14 type  3   force =     0.00070096    0.00005764    0.00111906
     atom   15 type  3   force =    -0.00033960   -0.00014955   -0.00001465
     atom   16 type  3   force =    -0.00022398    0.00010003   -0.00004195

     Total force =     0.003474     Total SCF correction =     0.000463
     SCF correction compared to forces is large: reduce conv_thr to get better values

     entering subroutine stress ...

     negative rho (up, down):  2.085E-04 0.000E+00
          total   stress  (Ry/bohr**3)                   (kbar)     P=    3.71
   0.00003798   0.00000031   0.00000205          5.59      0.05      0.30
   0.00000031   0.00003784   0.00000003          0.05      5.57      0.00
   0.00000205   0.00000003  -0.00000020          0.30      0.00     -0.03

     bfgs converged in  14 scf cycles and  13 bfgs steps
     (criteria: energy <  1.0E+00, force <  1.9E-03)

     End of BFGS Geometry Optimization

     Final energy   =   -1152.8760593878 Ry
Begin final coordinates

ATOMIC_POSITIONS (crystal)
Sc1      0.166666667   0.166666667   0.395942884    0   0   0
Sc1      0.666666667   0.166666667   0.395942884    0   0   0
Sc1      0.166666667   0.666666667   0.395942884    0   0   0
Sc1      0.666666667   0.666666667   0.395942884    0   0   0
Sc1      0.833333333   0.333333333   0.500000000    0   0   0
Sc1      0.333333333   0.333333333   0.500000000    0   0   0
Sc1      0.833333333   0.833333333   0.500000000    0   0   0
Sc1      0.333333333   0.833333333   0.500000000    0   0   0
Sc1     -0.001311667   0.000039676   0.605011320
Sc1      0.498051423  -0.001862886   0.600578874
Sc1     -0.002808690   0.502382043   0.600525314
Sc1      0.501435454   0.499449824   0.600545168
C1       0.009025090   0.000042358   0.694443703
H1       0.165956401   0.000265081   0.711502197
H1       0.850646666   0.157795695   0.711055497
H1       0.008982044   0.841960925   0.711038374
End final coordinates

     Writing output data file calc.save

     General routines

     Parallel routines

   This run was terminated on:   1:31:29  23Apr2018

   JOB DONE.
Job  /afs/slac/g/suncat/bin/suncat-tsmpirun -x LD_LIBRARY_PATH -wdir /scratch/qe355911_FL07I pw.x -npool 4 -in pw.inp

TID   HOST_NAME   COMMAND_LINE            STATUS            TERMINATION_TIME
00000 suncat0166 pw.x -npool 4 -i  Done                     04/23/2018 01:31:29
00001 suncat0166 pw.x -npool 4 -i  Done                     04/23/2018 01:31:29
00002 suncat0166 pw.x -npool 4 -i  Done                     04/23/2018 01:31:29
00003 suncat0166 pw.x -npool 4 -i  Done                     04/23/2018 01:31:29
00004 suncat0166 pw.x -npool 4 -i  Done                     04/23/2018 01:31:29
00005 suncat0166 pw.x -npool 4 -i  Done                     04/23/2018 01:31:29
00006 suncat0166 pw.x -npool 4 -i  Done                     04/23/2018 01:31:29
00007 suncat0166 pw.x -npool 4 -i  Done                     04/23/2018 01:31:29
00008 suncat0163 pw.x -npool 4 -i  Done                     04/23/2018 01:31:29
00009 suncat0163 pw.x -npool 4 -i  Done                     04/23/2018 01:31:29
00010 suncat0163 pw.x -npool 4 -i  Done                     04/23/2018 01:31:29
00011 suncat0163 pw.x -npool 4 -i  Done                     04/23/2018 01:31:29
00012 suncat0163 pw.x -npool 4 -i  Done                     04/23/2018 01:31:29
00013 suncat0163 pw.x -npool 4 -i  Done                     04/23/2018 01:31:29
00014 suncat0163 pw.x -npool 4 -i  Done                     04/23/2018 01:31:29
00015 suncat0163 pw.x -npool 4 -i  Done                     04/23/2018 01:31:29
00016 suncat0149 pw.x -npool 4 -i  Done                     04/23/2018 01:31:29
00017 suncat0149 pw.x -npool 4 -i  Done                     04/23/2018 01:31:29
00018 suncat0149 pw.x -npool 4 -i  Done                     04/23/2018 01:31:29
00019 suncat0149 pw.x -npool 4 -i  Done                     04/23/2018 01:31:29
00020 suncat0149 pw.x -npool 4 -i  Done                     04/23/2018 01:31:29
00021 suncat0149 pw.x -npool 4 -i  Done                     04/23/2018 01:31:29
00022 suncat0149 pw.x -npool 4 -i  Done                     04/23/2018 01:31:29
00023 suncat0149 pw.x -npool 4 -i  Done                     04/23/2018 01:31:29
00024 suncat0129 pw.x -npool 4 -i  Done                     04/23/2018 01:31:29
00025 suncat0129 pw.x -npool 4 -i  Done                     04/23/2018 01:31:29
00026 suncat0129 pw.x -npool 4 -i  Done                     04/23/2018 01:31:29
00027 suncat0129 pw.x -npool 4 -i  Done                     04/23/2018 01:31:29
00028 suncat0129 pw.x -npool 4 -i  Done                     04/23/2018 01:31:29
00029 suncat0129 pw.x -npool 4 -i  Done                     04/23/2018 01:31:29
00030 suncat0129 pw.x -npool 4 -i  Done                     04/23/2018 01:31:29
00031 suncat0129 pw.x -npool 4 -i  Done                     04/23/2018 01:31:29