     Program PWSCF v.5.1rc2 (svn rev. 11289) starts on  3May2018 at 19:12: 4

     Current dimensions of program PWSCF are:
     Max number of different atomic species (ntypx) = 10
     Max number of k-points (npk) =  40000
     Max angular momentum in pseudopotentials (lmaxx) =  3
     Presently stress not available with electric field

     IMPORTANT: XC functional enforced from input :
     Exchange-correlation      = BEEF-VDW ( 1  4 27 13 2)
     Any further DFT definition will be discarded
     Please, verify this is what you really want

     Subspace diagonalization in iterative solution of the eigenvalue problem:
     a serial algorithm will be used

     bravais-lattice index     =            0
     lattice parameter (alat)  =       1.8897  a.u.
     unit-cell volume          =    5409.9593 (a.u.)^3
     number of atoms/cell      =           13
     number of atomic types    =            2
     number of electrons       =       233.00
     number of Kohn-Sham states=          126
     kinetic-energy cutoff     =      36.7493  Ry
     charge density cutoff     =     367.4932  Ry
     convergence threshold     =      1.0E-05
     mixing beta               =       0.3000
     number of iterations used =           10  plain     mixing
     Exchange-correlation      = BEEF-VDW ( 1  4 27 13 2)
     nstep                     =           50

     celldm(1)=   1.889726  celldm(2)=   0.000000  celldm(3)=   0.000000
     celldm(4)=   0.000000  celldm(5)=   0.000000  celldm(6)=   0.000000

     crystal axes: (cart. coord. in units of alat)
               a(1) = (   6.088539   0.000000   0.000000 )
               a(2) = (   3.044269   5.272829   0.000000 )
               a(3) = (   0.000000   0.000000  24.971271 )

     reciprocal axes: (cart. coord. in units 2 pi/alat)
               b(1) = (  0.164243 -0.094826  0.000000 )
               b(2) = (  0.000000  0.189652  0.000000 )
               b(3) = (  0.000000  0.000000  0.040046 )

     PseudoPot. # 1 for Ga read from file:
     /u/if/mamunm/psp/gbrv1.5pbe/Ga.UPF
     MD5 check sum: ccd671392a58a050fbb373893b4fcd66
     Pseudo is Ultrasoft + core correction, Zval = 19.0
     Generated by new atomic code, or converted to UPF format
     Using radial grid of  871 points,  6 beta functions with:
                l(1) =   0
                l(2) =   0
                l(3) =   1
                l(4) =   1
                l(5) =   2
                l(6) =   2
     Q(r) pseudized with  8 coefficients,  rinner =    1.250   1.250   1.250
                                                       1.250   1.250

     PseudoPot. # 2 for N  read from file:
     /u/if/mamunm/psp/gbrv1.5pbe/N.UPF
     MD5 check sum: 95339753478d7afb44899504a8723017
     Pseudo is Ultrasoft + core correction, Zval =  5.0
     Generated by new atomic code, or converted to UPF format
     Using radial grid of  729 points,  4 beta functions with:
                l(1) =   0
                l(2) =   0
                l(3) =   1
                l(4) =   1
     Q(r) pseudized with  8 coefficients,  rinner =    0.900   0.900   0.900

     vdW kernel table read from file vdW_kernel_table
     MD5 check sum: 095c7af220d748ca6e76c0b4c6cfb241

     atomic species   valence    mass     pseudopotential
        Ga1           19.00    69.72300     Ga( 1.00)
        N1             5.00    14.00700     N ( 1.00)

     No symmetry found

   Cartesian axes

     site n.     atom                  positions (alat units)
         1           Ga1 tau(   1) = (   1.5221346   0.8788048  10.0000000  )
         2           Ga1 tau(   2) = (   4.5664039   0.8788048  10.0000000  )
         3           Ga1 tau(   3) = (   3.0442693   3.5152194  10.0000000  )
         4           Ga1 tau(   4) = (   6.0885386   3.5152194  10.0000000  )
         5           Ga1 tau(   5) = (   6.0885386   1.7576097  12.4856355  )
         6           Ga1 tau(   6) = (   3.0442693   1.7576097  12.4856355  )
         7           Ga1 tau(   7) = (   7.6106732   4.3940242  12.4856355  )
         8           Ga1 tau(   8) = (   4.5664039   4.3940242  12.4856355  )
         9           Ga1 tau(   9) = (   0.0000000   0.0000000  14.9712709  )
        10           Ga1 tau(  10) = (   3.0442693   0.0000000  14.9712709  )
        11           Ga1 tau(  11) = (   1.5221346   2.6364145  14.9712709  )
        12           Ga1 tau(  12) = (   4.5664039   2.6364145  14.9712709  )
        13           N1  tau(  13) = (   1.5221346   0.8788048  16.2257709  )

     number of k points=    20  Fermi-Dirac smearing, width (Ry)=  0.0110
                       cart. coord. in units 2pi/alat
        k(    1) = (   0.0000000   0.0000000   0.0000000), wk =   0.0555556
        k(    2) = (   0.0000000   0.0316086   0.0000000), wk =   0.1111111
        k(    3) = (   0.0000000   0.0632172   0.0000000), wk =   0.1111111
        k(    4) = (   0.0000000  -0.0948258   0.0000000), wk =   0.0555556
        k(    5) = (   0.0273738  -0.0158043   0.0000000), wk =   0.1111111
        k(    6) = (   0.0273738   0.0158043   0.0000000), wk =   0.1111111
        k(    7) = (   0.0273738   0.0474129   0.0000000), wk =   0.1111111
        k(    8) = (   0.0273738  -0.1106300   0.0000000), wk =   0.1111111
        k(    9) = (   0.0273738  -0.0790215   0.0000000), wk =   0.1111111
        k(   10) = (   0.0273738  -0.0474129   0.0000000), wk =   0.1111111
        k(   11) = (   0.0547477  -0.0316086   0.0000000), wk =   0.1111111
        k(   12) = (   0.0547477   0.0000000   0.0000000), wk =   0.1111111
        k(   13) = (   0.0547477   0.0316086   0.0000000), wk =   0.1111111
        k(   14) = (   0.0547477  -0.1264343   0.0000000), wk =   0.1111111
        k(   15) = (   0.0547477  -0.0948258   0.0000000), wk =   0.1111111
        k(   16) = (   0.0547477  -0.0632172   0.0000000), wk =   0.1111111
        k(   17) = (  -0.0821215   0.0474129   0.0000000), wk =   0.0555556
        k(   18) = (  -0.0821215   0.0790215   0.0000000), wk =   0.1111111
        k(   19) = (  -0.0821215   0.1106300   0.0000000), wk =   0.1111111
        k(   20) = (  -0.0821215  -0.0474129   0.0000000), wk =   0.0555556

     Largest allocated arrays     est. size (Mb)     dimensions
     Largest temporary arrays     est. size (Mb)     dimensions

     Initial potential from superposition of free atoms
     Check: negative starting charge=   -0.001260

     starting charge  220.99998, renormalised to  233.00000

     negative rho (up, down):  1.329E-03 0.000E+00

     *
     * You are using vdW-DF for exchange-correlation in this calculation.
     * Please cite the following three references that made this development
     * possible:
     *
     *   M. Dion, H. Rydberg, E. Schroder, D. C. Langreth, and
     *   B. I. Lundqvist, Phys. Rev. Lett. 92, 246401 (2004).
     *
     *   T. Thonhauser, V. R. Cooper, S. Li, A. Puzder, P. Hyldgaard, and
     *   D. C. Langreth, Phys. Rev. B 76, 125112 (2007).
     *
     *   G. Roman-Perez and J. M. Soler, Phys. Rev. Lett. 103, 096102 (2009).
     *
     *
     * If you are using vdW-DF2, please also cite:
     *
     *   K. Lee, E. D. Murray, L. Kong, B. I. Lundqvist, and
     *   D. C. Langreth, Phys. Rev. B 82, 081101(R) (2010).
     *
     *
     * If you are calculating the stress with vdW-DF, please also cite:
     *
     *   R. Sabatini, E. Kucukbenli, B. Kolb, T. Thonhauser, and
     *   S. de Gironcoli, J. Phys.: Condens. Matter 24, 424209 (2012).
     *

     Carrying out vdW-DF run using the following parameters:

     Nqs =      20    Nr_points =    1024   r_max =   100.000
     q_mesh =
               0.00001000     0.04494208     0.09755937     0.15916263
               0.23128650     0.31572767     0.41458969     0.53033537
               0.66584808     0.82450364     1.01025438     1.22772762
               1.48234092     1.78043706     2.12944203     2.53805004
               3.01644009     3.57652955     4.23227104     5.00000000

     Gradients computed in reciprocal space

     Adding external electric field

     Computed dipole along edir(3) :
        Dipole               -1.9188 Ry au,         -4.8771 Debye
        Dipole field         -0.0045 Ry au

        Potential amp.        0.4101 Ry
        Total length         46.0091 bohr

     Starting wfc are  148 randomized atomic wfcs

     Self-consistent Calculation

     iteration #  1     ecut=    36.75 Ry     beta=0.30
     Davidson diagonalization with overlap
     ethr =  1.00E-02,  avg # of iterations =  7.1

[...]

     total energy              =   -4801.95212567 Ry
     Harris-Foulkes estimate   =   -5033.91501331 Ry
     estimated scf accuracy    <     489.24697548 Ry

[...]

     End of self-consistent calculation

          k = 0.0000 0.0000 0.0000 ( 20347 PWs)   bands (ev):

   -95.1469 -95.1370 -95.1370 -95.0833 -95.0832 -95.0831 -95.0712 -95.0699
   -95.0699 -95.0677 -95.0677 -95.0673 -95.0591 -95.0441 -95.0441 -95.0436
   -95.0411 -95.0396 -95.0396 -95.0347 -95.0344 -95.0344 -95.0270 -95.0269
   -95.0269 -95.0207 -95.0207 -94.9477 -94.9471 -94.9471 -94.9371 -94.9371
   -94.9366 -94.8518 -94.8508 -94.8508 -15.6305 -15.5726 -15.5726 -15.5588
   -15.5332 -15.5332 -15.5097 -15.5097 -15.5080 -15.4993 -15.4955 -15.4833
   -15.4650 -15.4650 -15.4486 -15.4486 -15.4416 -15.4351 -15.4351 -15.4322
   -15.4322 -15.4240 -15.4240 -15.4240 -15.4088 -15.3920 -15.3920 -15.3591
   -15.3591 -15.3540 -15.3422 -15.3422 -15.3263 -15.3263 -15.3205 -15.3134
   -15.3134 -15.3037 -15.2936 -15.2850 -15.2850 -15.2759 -15.2759 -15.2694
   -15.2644 -15.2644 -15.2495 -15.2466 -15.2466 -15.2392 -15.2280 -15.2280
   -15.2163 -15.2097 -15.2097 -15.1691 -15.1691 -15.1226 -15.1226 -15.1047
   -13.1688 -10.3181  -8.6121  -6.3567  -5.3779  -5.3779  -5.2419  -4.9728
    -4.9728  -4.7802  -3.8958  -3.8958  -3.5596  -3.2480  -3.2480  -3.1357
    -2.3051  -1.9985  -1.9984  -1.8020  -1.2052  -1.2052  -1.1740   0.3701
     0.3701   0.8726   1.4659   2.7384   2.7384   2.7932

[...]

          k =-0.0821 0.0474 0.0000 ( 20384 PWs)   bands (ev):

[...]

     the Fermi energy is    -0.3232 ev

!    total energy              =   -5019.26237208 Ry
     Harris-Foulkes estimate   =   -5019.26239990 Ry
     estimated scf accuracy    <       0.00000200 Ry

     The total energy is the sum of the following terms:

     one-electron contribution =  -27590.07271152 Ry
     hartree contribution      =   13797.83399844 Ry
     xc contribution           =    -601.86600070 Ry
     ewald contribution        =    9374.87712579 Ry
     electric field correction =       0.00044094 Ry
     smearing contrib. (-TS)   =      -0.03522503 Ry

     convergence has been achieved in  18 iterations

 BEEF-vdW xc energy contributions
           1 :   -537.935081359799
           2 :    488.289371145366
           3 :   -405.060327743729
           4 :    312.442177363536
           5 :   -231.838097038995
           6 :    173.829404094918
           7 :   -136.678653104679
           8 :    111.118842376314
           9 :   -87.8048943052728
          10 :    62.7922028812040
          11 :   -38.2819447393474
          12 :    19.1748347986421
          13 :   -8.50991442278689
          14 :    5.06173087940635
          15 :   -4.40570931076593
          16 :    2.18144554126604
          17 :    3.06857391492611
          18 :   -9.46488838516927
          19 :    13.7788131154761
          20 :   -14.1307139752126
          21 :    11.3656866076625
          22 :   -8.24822901041455
          23 :    7.28848132028452
          24 :   -8.94337909932494
          25 :    11.4992713259606
          26 :   -12.5880319484456
          27 :    11.0752665727722
          28 :   -7.87743025696602
          29 :    5.16702231415786
          30 :   -4.67213100378024
          31 :   -39.8353448134707
          32 :   -27.0558352373018

     Forces acting on atoms (Ry/au):

     negative rho (up, down):  1.215E-03 0.000E+00
     atom    1 type  1   force =     0.00000514    0.00001806    0.00243193
     atom    2 type  1   force =     0.00000869    0.00063359    0.00026293
     atom    3 type  1   force =     0.00053891   -0.00032624    0.00035345
     atom    4 type  1   force =    -0.00054136   -0.00029990    0.00061816
     atom    5 type  1   force =     0.00080165   -0.00046829    0.00328446
     atom    6 type  1   force =    -0.00080166   -0.00046030    0.00340379
     atom    7 type  1   force =     0.00000193   -0.00000442    0.00098552
     atom    8 type  1   force =    -0.00000847    0.00092262    0.00330682
     atom    9 type  1   force =     0.02380950    0.01375293    0.03195834
     atom   10 type  1   force =    -0.02380938    0.01376204    0.03198143
     atom   11 type  1   force =     0.00000897   -0.02751538    0.03195267
     atom   12 type  1   force =    -0.00001131   -0.00001262   -0.00649966
     atom   13 type  2   force =    -0.00000263   -0.00000210   -0.10403984

     Total force =     0.127283     Total SCF correction =     0.003437

     entering subroutine stress ...

     negative rho (up, down):  1.215E-03 0.000E+00
          total   stress  (Ry/bohr**3)                   (kbar)     P=  -16.19
  -0.00011714  -0.00000000  -0.00000000        -17.23     -0.00     -0.00
  -0.00000000  -0.00011714  -0.00000000         -0.00    -17.23     -0.00
  -0.00000000  -0.00000000  -0.00009588         -0.00     -0.00    -14.11

     BFGS Geometry Optimization

     number of scf cycles    =   1
     number of bfgs steps    =   0

     energy   new            =   -5019.2623720818 Ry

     new trust radius        =       0.1040398381 bohr
     new conv_thr            =       0.0000099958 Ry

ATOMIC_POSITIONS (crystal)
Ga1      0.166666667   0.166666667   0.400460194    0   0   0
Ga1      0.666666667   0.166666667   0.400460194    0   0   0
Ga1      0.166666667   0.666666667   0.400460194    0   0   0
Ga1      0.666666667   0.666666667   0.400460194    0   0   0
Ga1      0.833333333   0.333333333   0.500000000    0   0   0
Ga1      0.333333333   0.333333333   0.500000000    0   0   0
Ga1      0.833333333   0.833333333   0.500000000    0   0   0
Ga1      0.333333333   0.833333333   0.500000000    0   0   0
Ga1      0.001379254   0.001380234   0.600217049
Ga1      0.497240065   0.001381148   0.600217539
Ga1      0.001381492   0.497238577   0.600216929
Ga1      0.499999651   0.499998733   0.599402069
N1       0.166666544   0.166666456   0.647572783

     Writing output data file calc.save
     Check: negative starting charge=   -0.001260
     NEW-OLD atomic charge density approx. for the potential
     Check: negative starting charge=   -0.001250

[...]

     energy   old            =   -5019.2623720818 Ry
     energy   new            =   -5019.2771425978 Ry

     CASE: energy  _new < energy  _old

     WARNING: bfgs curvature condition failed, Theta= 0.982
     new trust radius        =       0.1144438219 bohr
     new conv_thr            =       0.0000001000 Ry

[...]

     WARNING: bfgs curvature condition failed, Theta= 0.933
     new trust radius        =       0.0612331408 bohr
     new conv_thr            =       0.0000001000 Ry

[...]

     Total force =     0.007351     Total SCF correction =     0.001037
     SCF correction compared to forces is large: reduce conv_thr to get better values

[...]

     Threshold (ethr) on eigenvalues was too large:
     Diagonalizing with lowered threshold

     Davidson diagonalization with overlap
     ethr =  9.44E-09,  avg # of iterations =  3.0

[...]

     Total force =     0.004253     Total SCF correction =     0.000294

[...]

     number of scf cycles    =  15
     number of bfgs steps    =  14

     energy   old            =   -5019.3139460842 Ry
     energy   new            =   -5019.3140036291 Ry

     CASE: energy  _new < energy  _old

     new trust radius        =       0.0203203866 bohr
     new conv_thr            =       0.0000001000 Ry

ATOMIC_POSITIONS (crystal)
Ga1      0.166666667   0.166666667   0.400460194    0   0   0
Ga1      0.666666667   0.166666667   0.400460194    0   0   0
Ga1      0.166666667   0.666666667   0.400460194    0   0   0
Ga1      0.666666667   0.666666667   0.400460194    0   0   0
Ga1      0.833333333   0.333333333   0.500000000    0   0   0
Ga1      0.333333333   0.333333333   0.500000000    0   0   0
Ga1      0.833333333   0.833333333   0.500000000    0   0   0
Ga1      0.333333333   0.833333333   0.500000000    0   0   0
Ga1     -0.007355000  -0.007359381   0.604640947
Ga1      0.514712642  -0.007357911   0.604642533
Ga1     -0.007358201   0.514712475   0.604641772
Ga1      0.499999129   0.500000489   0.591914182
N1       0.166665869   0.166665255   0.628990901

     Writing output data file calc.save
     Check: negative starting charge=   -0.001305
     NEW-OLD atomic charge density approx. for the potential
     Check: negative starting charge=   -0.001305

[...]

     Self-consistent Calculation

[...]

     total energy              =   -5019.31402876 Ry
     Harris-Foulkes estimate   =   -5019.31402904 Ry
     estimated scf accuracy    <       0.00000080 Ry

     iteration #  6     ecut=    36.75 Ry     beta=0.30
     Davidson diagonalization with overlap
     ethr =  3.43E-10,  avg # of iterations =  2.2

[...]

     negative rho (up, down):  1.183E-03 0.000E+00

     Adding external electric field

     Computed dipole along edir(3) :
        Dipole               -0.1483 Ry au,         -0.3770 Debye
        Dipole field         -0.0003 Ry au

        Potential amp.        0.0317 Ry
        Total length         46.0091 bohr

     End of self-consistent calculation

[...]

          k = 0.0547-0.0632 0.0000 ( 20377 PWs)   bands (ev):

[...]

          k =-0.0821-0.0474 0.0000 ( 20384 PWs)   bands (ev):

   -94.7970 -94.7969 -94.7956 -94.7899 -94.7877 -94.7873 -94.7870 -94.7866
   -94.7864 -94.7862 -94.7744 -94.7742 -94.7740 -94.7732 -94.7732 -94.7732
   -94.7688 -94.7687 -94.7627 -94.7621 -94.7617 -94.7616 -94.7614 -94.7611
   -94.7427 -94.7366 -94.7366 -94.7084 -94.7082 -94.7081 -94.6970 -94.6968
   -94.6965 -94.5924 -94.5916 -94.5911 -16.0132 -15.2391 -15.2344 -15.2144
   -15.2080 -15.2002 -15.1923 -15.1904 -15.1879 -15.1818 -15.1797 -15.1739
   -15.1725 -15.1580 -15.1579 -15.1550 -15.1504 -15.1332 -15.1330 -15.1207
   -15.1201 -15.1180 -15.1127 -15.1111 -15.1086 -15.0954 -15.0948 -15.0940
   -15.0855 -15.0830 -15.0829 -15.0797 -15.0671 -15.0627 -15.0616 -15.0576
   -15.0564 -15.0545 -15.0530 -15.0487 -15.0462 -15.0421 -15.0328 -15.0314
   -15.0290 -15.0285 -15.0206 -15.0150 -15.0078 -15.0060 -15.0028 -15.0015
   -14.9802 -14.9792 -14.9755 -14.9718 -14.9686 -14.9556 -14.9289 -14.8808
   -13.3218  -8.8565  -8.5555  -7.5452  -6.7972  -6.3359  -5.9212  -5.5433
    -5.3899  -4.8432  -3.8068  -3.4135  -3.2652  -2.4618  -1.1765  -1.1634
    -0.8820  -0.5749  -0.2942  -0.2852   0.0146   0.3473   1.0129   1.3633
     1.3935   1.8200   2.0688   2.3942   2.5048   2.6956

     the Fermi energy is    -0.0468 ev

!    total energy              =   -5019.31402882 Ry
     Harris-Foulkes estimate   =   -5019.31402904 Ry
     estimated scf accuracy    <       0.00000008 Ry

     The total energy is the sum of the following terms:

     one-electron contribution =  -27584.52661291 Ry
     hartree contribution      =   13797.15943754 Ry
     xc contribution           =    -602.10453541 Ry
     ewald contribution        =    9370.19237666 Ry
     electric field correction =       0.00005109 Ry
     smearing contrib. (-TS)   =      -0.03474579 Ry

     convergence has been achieved in   6 iterations

 BEEF-vdW xc energy contributions
           1 :   -538.176508994688
           2 :    488.580061344205
           3 :   -405.372985701233
           4 :    312.691586279152
           5 :   -231.950385613660
           6 :    173.788532569153
           7 :   -136.531695641672
           8 :    110.948165302079
           9 :   -87.6839149143867
          10 :    62.7485255226429
          11 :   -38.2877771723074
          12 :    19.1700558274157
          13 :   -8.44505224801310
          14 :    4.93463407457511
          15 :   -4.26535881914720
          16 :    2.09379419500817
          17 :    3.06613685440846
          18 :   -9.38645674565601
          19 :    13.6773635787132
          20 :   -14.0627270764842
          21 :    11.3578146424909
          22 :   -8.28731624297393
          23 :    7.34024028655972
          24 :   -8.98303416531610
          25 :    11.5285908620835
          26 :   -12.6247734635817
          27 :    11.1235471297441
          28 :   -7.90506601604488
          29 :    5.11377358628090
          30 :   -4.48833664951576
          31 :   -39.8500053740887
          32 :   -27.0756559487701

     Forces acting on atoms (Ry/au):

     negative rho (up, down):  1.183E-03 0.000E+00
     atom    1 type  1   force =     0.00000009    0.00000001    0.00208622
     atom    2 type  1   force =    -0.00000000   -0.00177608   -0.00063617
     atom    3 type  1   force =    -0.00153815    0.00088801   -0.00063611
     atom    4 type  1   force =     0.00153811    0.00088804   -0.00063632
     atom    5 type  1   force =     0.00238028   -0.00137399   -0.00058707
     atom    6 type  1   force =    -0.00238034   -0.00137447   -0.00058694
     atom    7 type  1   force =    -0.00000010    0.00000006    0.00350382
     atom    8 type  1   force =     0.00000037    0.00274843   -0.00058667
     atom    9 type  1   force =    -0.00045805   -0.00026369   -0.00114764
     atom   10 type  1   force =     0.00045907   -0.00026439   -0.00114782
     atom   11 type  1   force =    -0.00000012    0.00052678   -0.00114670
     atom   12 type  1   force =     0.00000007   -0.00000042   -0.00018576
     atom   13 type  2   force =    -0.00000123    0.00000170    0.00170715

     Total force =     0.002781     Total SCF correction =     0.001587
     SCF correction compared to forces is large: reduce conv_thr to get better values

     entering subroutine stress ...

     negative rho (up, down):  1.183E-03 0.000E+00
          total   stress  (Ry/bohr**3)                   (kbar)     P=   -6.64
  -0.00006431  -0.00000000  -0.00000000         -9.46     -0.00     -0.00
  -0.00000000  -0.00006431   0.00000000         -0.00     -9.46      0.00
  -0.00000000   0.00000000  -0.00000682         -0.00      0.00     -1.00

     bfgs converged in  16 scf cycles and  15 bfgs steps
     (criteria: energy <  1.0E+00, force <  1.9E-03)

     End of BFGS Geometry Optimization

     Final energy   =   -5019.3140288221 Ry
Begin final coordinates

ATOMIC_POSITIONS (crystal)
Ga1      0.166666667   0.166666667   0.400460194    0   0   0
Ga1      0.666666667   0.166666667   0.400460194    0   0   0
Ga1      0.166666667   0.666666667   0.400460194    0   0   0
Ga1      0.666666667   0.666666667   0.400460194    0   0   0
Ga1      0.833333333   0.333333333   0.500000000    0   0   0
Ga1      0.333333333   0.333333333   0.500000000    0   0   0
Ga1      0.833333333   0.833333333   0.500000000    0   0   0
Ga1      0.333333333   0.833333333   0.500000000    0   0   0
Ga1     -0.007355000  -0.007359381   0.604640947
Ga1      0.514712642  -0.007357911   0.604642533
Ga1     -0.007358201   0.514712475   0.604641772
Ga1      0.499999129   0.500000489   0.591914182
N1       0.166665869   0.166665255   0.628990901
End final coordinates

     Writing output data file calc.save

     General routines

     Parallel routines

   This run was terminated on:  20:51:34   3May2018

   JOB DONE.
Job  /afs/slac/g/suncat/bin/suncat-tsmpirun -x LD_LIBRARY_PATH -wdir /scratch/qe826159_YkStp pw.x -npool 4 -in pw.inp

TID   HOST_NAME   COMMAND_LINE            STATUS            TERMINATION_TIME
00000 suncat0266 pw.x -npool 4 -i  Done                     05/03/2018 20:51:34
00001 suncat0266 pw.x -npool 4 -i  Done                     05/03/2018 20:51:34
00002 suncat0266 pw.x -npool 4 -i  Done                     05/03/2018 20:51:34
00003 suncat0266 pw.x -npool 4 -i  Done                     05/03/2018 20:51:34
00004 suncat0266 pw.x -npool 4 -i  Done                     05/03/2018 20:51:34
00005 suncat0266 pw.x -npool 4 -i  Done                     05/03/2018 20:51:34
00006 suncat0266 pw.x -npool 4 -i  Done                     05/03/2018 20:51:34
00007 suncat0266 pw.x -npool 4 -i  Done                     05/03/2018 20:51:34
00008 suncat0264 pw.x -npool 4 -i  Done                     05/03/2018 20:51:34
00009 suncat0264 pw.x -npool 4 -i  Done                     05/03/2018 20:51:34
00010 suncat0264 pw.x -npool 4 -i  Done                     05/03/2018 20:51:34
00011 suncat0264 pw.x -npool 4 -i  Done                     05/03/2018 20:51:34
00012 suncat0264 pw.x -npool 4 -i  Done                     05/03/2018 20:51:34
00013 suncat0264 pw.x -npool 4 -i  Done                     05/03/2018 20:51:34
00014 suncat0264 pw.x -npool 4 -i  Done                     05/03/2018 20:51:34
00015 suncat0264 pw.x -npool 4 -i  Done                     05/03/2018 20:51:34
00016 suncat0229 pw.x -npool 4 -i  Done                     05/03/2018 20:51:34
00017 suncat0229 pw.x -npool 4 -i  Done                     05/03/2018 20:51:34
00018 suncat0229 pw.x -npool 4 -i  Done                     05/03/2018 20:51:34
00019 suncat0229 pw.x -npool 4 -i  Done                     05/03/2018 20:51:34
00020 suncat0229 pw.x -npool 4 -i  Done                     05/03/2018 20:51:34
00021 suncat0229 pw.x -npool 4 -i  Done                     05/03/2018 20:51:34
00022 suncat0229 pw.x -npool 4 -i  Done                     05/03/2018 20:51:34
00023 suncat0229 pw.x -npool 4 -i  Done                     05/03/2018 20:51:34
00024 suncat0224 pw.x -npool 4 -i  Done                     05/03/2018 20:51:34
00025 suncat0224 pw.x -npool 4 -i  Done                     05/03/2018 20:51:34
00026 suncat0224 pw.x -npool 4 -i  Done                     05/03/2018 20:51:34
00027 suncat0224 pw.x -npool 4 -i  Done                     05/03/2018 20:51:34
00028 suncat0224 pw.x -npool 4 -i  Done                     05/03/2018 20:51:34
00029 suncat0224 pw.x -npool 4 -i  Done                     05/03/2018 20:51:34
00030 suncat0224 pw.x -npool 4 -i  Done                     05/03/2018 20:51:34
00031 suncat0224 pw.x -npool 4 -i  Done                     05/03/2018 20:51:34