     Program PWSCF v.5.1rc2 (svn rev. ) starts on 18Apr2018 at 21:51:40

     Current dimensions of program PWSCF are:
     Max number of different atomic species (ntypx) = 10
     Max number of k-points (npk) =  40000
     Max angular momentum in pseudopotentials (lmaxx) =  3
     Presently stress not available with electric field

     IMPORTANT: XC functional enforced from input :
     Exchange-correlation      = BEEF-VDW ( 1  4 27 13 2)
     Any further DFT definition will be discarded
     Please, verify this is what you really want

     Subspace diagonalization in iterative solution of the eigenvalue problem:
     a serial algorithm will be used

     bravais-lattice index     =            0
     lattice parameter (alat)  =       1.8897  a.u.
     unit-cell volume          =    8507.0471 (a.u.)^3
     number of atoms/cell      =           14
     number of atomic types    =            3
     number of electrons       =       139.00
     number of Kohn-Sham states=           79
     kinetic-energy cutoff     =      36.7493  Ry
     charge density cutoff     =     367.4932  Ry
     convergence threshold     =      1.0E-05
     mixing beta               =       0.3000
     number of iterations used =           10  plain     mixing
     Exchange-correlation      = BEEF-VDW ( 1  4 27 13 2)
     nstep                     =           50

     celldm(1)=   1.889726  celldm(2)=   0.000000  celldm(3)=   0.000000
     celldm(4)=   0.000000  celldm(5)=   0.000000  celldm(6)=   0.000000

     crystal axes: (cart. coord. in units of alat)
               a(1) = (   7.468327   0.000000   0.000000 )
               a(2) = (   3.734164   6.467761   0.000000 )
               a(3) = (   0.000000   0.000000  26.097863 )

     reciprocal axes: (cart. coord. in units 2 pi/alat)
               b(1) = (  0.133899 -0.077307  0.000000 )
               b(2) = (  0.000000  0.154613  0.000000 )
               b(3) = (  0.000000  0.000000  0.038317 )

     PseudoPot. # 1 for La read from file:
     /home/mamunm/src/pseudo/gbrv1.5pbe/La.UPF
     MD5 check sum: 5937b0c7494ba0601a847275249473aa
     Pseudo is Ultrasoft + core correction, Zval = 11.0
     Generated by new atomic code, or converted to UPF format
     Using radial grid of  995 points,  8 beta functions with:
                l(1) =   0
                l(2) =   0
                l(3) =   1
                l(4) =   1
                l(5) =   2
                l(6) =   2
                l(7) =   3
                l(8) =   3
     Q(r) pseudized with  8 coefficients,  rinner =    1.700   1.700   1.700
                                                       1.700   1.700   1.700
                                                       1.700

     PseudoPot. # 2 for O  read from file:
     /home/mamunm/src/pseudo/gbrv1.5pbe/O.UPF
     MD5 check sum: 734c27235a0248c51dbae37a1fbe46ec
     Pseudo is Ultrasoft + core correction, Zval =  6.0
     Generated by new atomic code, or converted to UPF format
     Using radial grid of  737 points,  5 beta functions with:
                l(1) =   0
                l(2) =   0
                l(3) =   1
                l(4) =   1
                l(5) =   2
     Q(r) pseudized with  8 coefficients,  rinner =    0.900   0.900   0.900
                                                       0.900   0.900

     PseudoPot. # 3 for H  read from file:
     /home/mamunm/src/pseudo/gbrv1.5pbe/H.UPF
     MD5 check sum: 761ae9a214b05c3daf00ab9f6b793d6f
     Pseudo is Ultrasoft, Zval =  1.0
     Generated by new atomic code, or converted to UPF format
     Using radial grid of  615 points,  2 beta functions with:
                l(1) =   0
                l(2) =   0
     Q(r) pseudized with  8 coefficients,  rinner =    0.700

     vdW kernel table read from file vdW_kernel_table
     MD5 check sum: 095c7af220d748ca6e76c0b4c6cfb241

     atomic species   valence    mass     pseudopotential
        La1           11.00   138.90547     La( 1.00)
        O1             6.00    15.99900     O ( 1.00)
        H1             1.00     1.00800     H ( 1.00)

     No symmetry found

   Cartesian axes

     site n.     atom                  positions (alat units)
         1           La1 tau(   1) = (   1.8670818   1.0779602  10.0000000  )
         2           La1 tau(   2) = (   5.6012453   1.0779602  10.0000000  )
         3           La1 tau(   3) = (   3.7341635   4.3118406  10.0000000  )
         4           La1 tau(   4) = (   7.4683270   4.3118406  10.0000000  )
         5           La1 tau(   5) = (   7.4683270   2.1559203  13.0489317  )
         6           La1 tau(   6) = (   3.7341635   2.1559203  13.0489317  )
         7           La1 tau(   7) = (   9.3354088   5.3898008  13.0489317  )
         8           La1 tau(   8) = (   5.6012453   5.3898008  13.0489317  )
         9           La1 tau(   9) = (   0.0000000   0.0000000  16.0978635  )
        10           La1 tau(  10) = (   3.7341635   0.0000000  16.0978635  )
        11           La1 tau(  11) = (   1.8670818   3.2338805  16.0978635  )
        12           La1 tau(  12) = (   5.6012453   3.2338805  16.0978635  )
        13           O1  tau(  13) = (   3.7341635   2.1559203  17.8723635  )
        14           H1  tau(  14) = (   3.7341635   2.1559203  18.8223635  )

     number of k points=    20  Fermi-Dirac smearing, width (Ry)=  0.0110
                       cart. coord. in units 2pi/alat
        k(    1) = (   0.0000000   0.0000000   0.0000000), wk =   0.0555556
        k(    2) = (   0.0000000   0.0257688   0.0000000), wk =   0.1111111
        k(    3) = (   0.0000000   0.0515377   0.0000000), wk =   0.1111111
        k(    4) = (   0.0000000  -0.0773065   0.0000000), wk =   0.0555556
        k(    5) = (   0.0223165  -0.0128844   0.0000000), wk =   0.1111111
        k(    6) = (   0.0223165   0.0128844   0.0000000), wk =   0.1111111
        k(    7) = (   0.0223165   0.0386533   0.0000000), wk =   0.1111111
        k(    8) = (   0.0223165  -0.0901909   0.0000000), wk =   0.1111111
        k(    9) = (   0.0223165  -0.0644221   0.0000000), wk =   0.1111111
        k(   10) = (   0.0223165  -0.0386533   0.0000000), wk =   0.1111111
        k(   11) = (   0.0446329  -0.0257688   0.0000000), wk =   0.1111111
        k(   12) = (   0.0446329   0.0000000   0.0000000), wk =   0.1111111
        k(   13) = (   0.0446329   0.0257688   0.0000000), wk =   0.1111111
        k(   14) = (   0.0446329  -0.1030753   0.0000000), wk =   0.1111111
        k(   15) = (   0.0446329  -0.0773065   0.0000000), wk =   0.1111111
        k(   16) = (   0.0446329  -0.0515377   0.0000000), wk =   0.1111111
        k(   17) = (  -0.0669494   0.0386533   0.0000000), wk =   0.0555556
        k(   18) = (  -0.0669494   0.0644221   0.0000000), wk =   0.1111111
        k(   19) = (  -0.0669494   0.0901909   0.0000000), wk =   0.1111111
        k(   20) = (  -0.0669494  -0.0386533   0.0000000), wk =   0.0555556

     Largest allocated arrays     est. size (Mb)     dimensions
     Largest temporary arrays     est. size (Mb)     dimensions

     Initial potential from superposition of free atoms
     Check: negative starting charge=   -0.831190

     starting charge  138.61517, renormalised to  139.00000

     negative rho (up, down):  8.335E-01 0.000E+00

     *
     * You are using vdW-DF for exchange-correlation in this calculation.
     * Please cite the following three references that made this development
     * possible:
     *
     *   M. Dion, H. Rydberg, E. Schroder, D. C. Langreth, and
     *   B. I. Lundqvist, Phys. Rev. Lett. 92, 246401 (2004).
     *
     *   T. Thonhauser, V. R. Cooper, S. Li, A. Puzder, P. Hyldgaard, and
     *   D. C. Langreth, Phys. Rev. B 76, 125112 (2007).
     *
     *   G. Roman-Perez and J. M. Soler, Phys. Rev. Lett. 103, 096102 (2009).
     *
     *
     * If you are using vdW-DF2, please also cite:
     *
     *   K. Lee, E. D. Murray, L. Kong, B. I. Lundqvist, and
     *   D. C. Langreth, Phys. Rev. B 82, 081101(R) (2010).
     *
     *
     * If you are calculating the stress with vdW-DF, please also cite:
     *
     *   R. Sabatini, E. Kucukbenli, B. Kolb, T. Thonhauser, and
     *   S. de Gironcoli, J. Phys.: Condens. Matter 24, 424209 (2012).
     *

     Carrying out vdW-DF run using the following parameters:

     Nqs =      20    Nr_points =    1024   r_max =   100.000
     q_mesh =
               0.00001000     0.04494208     0.09755937     0.15916263
               0.23128650     0.31572767     0.41458969     0.53033537
               0.66584808     0.82450364     1.01025438     1.22772762
               1.48234092     1.78043706     2.12944203     2.53805004
               3.01644009     3.57652955     4.23227104     5.00000000

     Gradients computed in reciprocal space

     Adding external electric field

     Computed dipole along edir(3) :
        Dipole               -0.1820 Ry au,         -0.4626 Debye
        Dipole field         -0.0003 Ry au

        Potential amp.        0.0259 Ry
        Total length         48.0849 bohr

     Starting wfc are  245 randomized atomic wfcs

     Self-consistent Calculation

     iteration #  1     ecut=    36.75 Ry     beta=0.30
     Davidson diagonalization with overlap
     ethr =  1.00E-02,  avg # of iterations =  2.0

[...]

     total energy              =   -1279.16154411 Ry
     Harris-Foulkes estimate   =   -1283.07780930 Ry
     estimated scf accuracy    <       8.21122928 Ry

[...]

     iteration # 12     ecut=    36.75 Ry     beta=0.30
     Davidson diagonalization with overlap
     c_bands:  1 eigenvalues not converged
     ethr =  7.71E-07,  avg # of iterations =  7.8

[...]

     End of self-consistent calculation

          k = 0.0000 0.0000 0.0000 ( 31997 PWs)   bands (ev):

   -31.3072 -31.2913 -31.1803 -31.1688 -31.1687 -31.1608 -31.1605 -31.1605
   -30.8166 -30.6952 -30.6937 -30.6936 -18.0972 -15.4073 -15.4072 -15.3819
   -15.3377 -15.3377 -15.3064 -15.2200 -15.1377 -15.1342 -15.1342 -14.9434
   -14.7959 -14.7874 -14.7873 -14.6068 -14.6068 -14.6045 -14.5711 -14.5671
   -14.5671 -14.5416 -14.5398 -14.5397 -14.3102 -14.3102 -14.2958 -14.2958
   -14.2040 -14.2011 -14.2010 -14.1699 -14.0983 -14.0950 -14.0950 -13.8669
   -13.8669  -5.5174  -1.8083  -1.8083  -0.7075   0.0006   0.3753   0.4084
     0.4084   0.5405   0.6965   0.7652   0.7652   0.9293   0.9293   1.0089
     1.0360   1.0360   1.1065   1.8335   1.8336   1.9319   2.2309   2.4682
     2.6038   2.6038   2.8620   2.9433   3.1475   3.2630   3.2630

[...]

          k =-0.0669 0.0387 0.0000 ( 31970 PWs)   bands (ev):

[...]

     the Fermi energy is     2.0665 ev

!    total energy              =   -1282.11091810 Ry
     Harris-Foulkes estimate   =   -1282.11092134 Ry
     estimated scf accuracy    <       0.00000431 Ry

     The total energy is the sum of the following terms:

     one-electron contribution =   -4850.51135874 Ry
     hartree contribution      =    2440.59140305 Ry
     xc contribution           =    -616.93832022 Ry
     ewald contribution        =    1744.87364744 Ry
     electric field correction =       0.00004201 Ry
     smearing contrib. (-TS)   =      -0.12633164 Ry

     convergence has been achieved in  16 iterations

 BEEF-vdW xc energy contributions
           1 :   -546.418050596791
           2 :    502.381587357091
           3 :   -424.605287415542
           4 :    329.795408584168
           5 :   -235.595830954685
           6 :    155.876606331181
           7 :   -98.1470872270201
           8 :    63.3190655835490
           9 :   -47.2651207548516
          10 :    43.2351271011066
          11 :   -44.2311517139586
          12 :    44.6967570519112
          13 :   -41.2963151705950
          14 :    32.9410315995299
          15 :   -20.4101543563662
          16 :    5.82109480329882
          17 :    7.99834202727095
          18 :   -18.2741541371914
          19 :    23.1025010251310
          20 :   -22.0807938375768
          21 :    16.4830000882746
          22 :   -8.85065872590826
          23 :    2.10059670137605
          24 :    1.52074872942251
          25 :   -1.21012853976060
          26 :   -2.22574603225974
          27 :    6.86997802770225
          28 :   -10.6122513573767
          29 :    12.0429478097184
          30 :   -10.9347389096351
          31 :   -46.5784663035266
          32 :   -33.3812494082694

     Forces acting on atoms (Ry/au):

     negative rho (up, down):  5.867E-01 0.000E+00
     atom    1 type  1   force =    -0.00050993   -0.00029694    0.00337089
     atom    2 type  1   force =     0.00051784   -0.00029769    0.00337484
     atom    3 type  1   force =    -0.00000531    0.00059547    0.00337346
     atom    4 type  1   force =     0.00000295    0.00000839    0.00417719
     atom    5 type  1   force =    -0.00002229    0.00131750   -0.00281228
     atom    6 type  1   force =     0.00002409   -0.00000118   -0.00224607
     atom    7 type  1   force =    -0.00114134   -0.00064559   -0.00282948
     atom    8 type  1   force =     0.00113691   -0.00066985   -0.00281105
     atom    9 type  1   force =    -0.00000094   -0.00000198   -0.00947821
     atom   10 type  1   force =    -0.00000009    0.02433504    0.01817873
     atom   11 type  1   force =     0.02108505   -0.01216476    0.01817931
     atom   12 type  1   force =    -0.02108856   -0.01217721    0.01817092
     atom   13 type  2   force =     0.00000080   -0.00000261   -0.09551168
     atom   14 type  3   force =     0.00000083    0.00000142    0.04686344

     Total force =     0.119069     Total SCF correction =     0.005178

     entering subroutine stress ...

     negative rho (up, down):  5.867E-01 0.000E+00
          total   stress  (Ry/bohr**3)                   (kbar)     P=   -2.33
  -0.00001256   0.00000000  -0.00000000         -1.85      0.00     -0.00
   0.00000000  -0.00001256   0.00000000          0.00     -1.85      0.00
  -0.00000000   0.00000000  -0.00002243         -0.00      0.00     -3.30

     BFGS Geometry Optimization

     number of scf cycles    =   1
     number of bfgs steps    =   0

     energy   new            =   -1282.1109181043 Ry

     new trust radius        =       0.0955116849 bohr
     new conv_thr            =       0.0000099958 Ry

ATOMIC_POSITIONS (crystal)
La1      0.166666667   0.166666667   0.383173129    0   0   0
La1      0.666666667   0.166666667   0.383173129    0   0   0
La1      0.166666667   0.666666667   0.383173129    0   0   0
La1      0.666666667   0.666666667   0.383173129    0   0   0
La1      0.833333333   0.333333333   0.500000000    0   0   0
La1      0.333333333   0.333333333   0.500000000    0   0   0
La1      0.833333333   0.833333333   0.500000000    0   0   0
La1      0.333333333   0.833333333   0.500000000    0   0   0
La1      0.000000014  -0.000000162   0.616634685
La1      0.499004476   0.001991037   0.617195475
La1      0.001991652   0.499004708   0.617195487
La1      0.499003901   0.499003689   0.617195316
O1       0.333333497   0.333333120   0.682884286
H1       0.333333334   0.333333450   0.722172624

     Writing output data file calc.save
     Check: negative starting charge=   -0.831190
     NEW-OLD atomic charge density approx. for the potential
     Check: negative starting charge=   -0.831495

[...]

     energy   old            =   -1282.1109181043 Ry
     energy   new            =   -1282.1140081539 Ry

     CASE: energy  _new < energy  _old

[...]

     Threshold (ethr) on eigenvalues was too large:
     Diagonalizing with lowered threshold

     Davidson diagonalization with overlap
     ethr =  6.46E-08,  avg # of iterations =  1.4

[...]

     number of scf cycles    =  19
     number of bfgs steps    =  18

     energy   old            =   -1282.1350250729 Ry
     energy   new            =   -1282.1350572627 Ry

     CASE: energy  _new < energy  _old

     new trust radius        =       0.0025930775 bohr
     new conv_thr            =       0.0000001000 Ry

ATOMIC_POSITIONS (crystal)
La1      0.166666667   0.166666667   0.383173129    0   0   0
La1      0.666666667   0.166666667   0.383173129    0   0   0
La1      0.166666667   0.666666667   0.383173129    0   0   0
La1      0.666666667   0.666666667   0.383173129    0   0   0
La1      0.833333333   0.333333333   0.500000000    0   0   0
La1      0.333333333   0.333333333   0.500000000    0   0   0
La1      0.833333333   0.833333333   0.500000000    0   0   0
La1      0.333333333   0.833333333   0.500000000    0   0   0
La1      0.000000413  -0.000000293   0.609496086
La1      0.494213581   0.011574513   0.619320215
La1      0.011574342   0.494213419   0.619320523
La1      0.494213733   0.494212981   0.619319679
O1       0.333333933   0.333334379   0.676399228
H1       0.333333642   0.333332531   0.713744772

     Writing output data file calc.save
     Check: negative starting charge=   -0.833568
     NEW-OLD atomic charge density approx. for the potential
     Check: negative starting charge=   -0.833539

[...]

     Self-consistent Calculation

[...]

     Threshold (ethr) on eigenvalues was too large:
     Diagonalizing with lowered threshold

     Davidson diagonalization with overlap
     ethr =  2.91E-08,  avg # of iterations =  4.9

[...]

     iteration #  4     ecut=    36.75 Ry     beta=0.30
     Davidson diagonalization with overlap
     c_bands:  1 eigenvalues not converged
     ethr =  1.02E-08,  avg # of iterations =  7.3

[...]

     total energy              =   -1282.13506964 Ry
     Harris-Foulkes estimate   =   -1282.13506960 Ry
     estimated scf accuracy    <       0.00000019 Ry

     iteration #  7     ecut=    36.75 Ry     beta=0.30
     Davidson diagonalization with overlap
     ethr =  1.34E-10,  avg # of iterations =  6.0

[...]

     negative rho (up, down):  5.866E-01 0.000E+00

     Adding external electric field

     Computed dipole along edir(3) :
        Dipole                0.2366 Ry au,          0.6015 Debye
        Dipole field          0.0003 Ry au

        Potential amp.       -0.0336 Ry
        Total length         48.0849 bohr

     End of self-consistent calculation

[...]

          k = 0.0446-0.0515 0.0000 ( 31991 PWs)   bands (ev):

[...]

          k =-0.0669-0.0387 0.0000 ( 31970 PWs)   bands (ev):

   -31.2138 -31.1672 -31.1663 -31.1593 -31.1264 -31.1004 -31.0994 -30.9982
   -30.6971 -30.6904 -30.6338 -30.6315 -19.1181 -15.1608 -15.1383 -15.1028
   -15.0749 -15.0422 -15.0352 -14.9428 -14.9323 -14.8882 -14.8799 -14.8492
   -14.8312 -14.7925 -14.7777 -14.7420 -14.7284 -14.7049 -14.6954 -14.6832
   -14.6265 -14.4726 -14.4214 -14.4097 -14.3668 -14.3631 -14.3370 -14.2912
   -14.2752 -14.2297 -14.2244 -14.1089 -14.1059 -14.0944 -14.0513 -13.9266
   -13.9133  -6.3684  -2.8699  -2.8195   0.5367   0.5773   0.9504   1.0331
     1.2565   1.3147   1.3676   1.3771   1.3943   1.5054   1.7152   1.7586
     1.9095   1.9228   1.9549   2.0604   2.1752   2.2510   2.2978   2.3195
     2.3335   2.3695   2.4748   2.4818   2.6153   2.6247   2.7146

     the Fermi energy is     2.1272 ev

!    total energy              =   -1282.13506965 Ry
     Harris-Foulkes estimate   =   -1282.13506968 Ry
     estimated scf accuracy    <       0.00000003 Ry

     The total energy is the sum of the following terms:

     one-electron contribution =   -4886.84540986 Ry
     hartree contribution      =    2458.82059719 Ry
     xc contribution           =    -617.00067931 Ry
     ewald contribution        =    1763.01810389 Ry
     electric field correction =       0.00008272 Ry
     smearing contrib. (-TS)   =      -0.12776428 Ry

     convergence has been achieved in   7 iterations

 BEEF-vdW xc energy contributions
           1 :   -546.493770837377
           2 :    502.515433462701
           3 :   -424.788917656963
           4 :    329.959467410554
           5 :   -235.666414716800
           6 :    155.828510308880
           7 :   -98.0179016601265
           8 :    63.1788826556051
           9 :   -47.1718453605253
          10 :    43.2078009752020
          11 :   -44.2506669979252
          12 :    44.7252615250480
          13 :   -41.3010927527520
          14 :    32.9120524619542
          15 :   -20.3636736206589
          16 :    5.78562248362471
          17 :    8.00423972476574
          18 :   -18.2551921793901
          19 :    23.0826369506136
          20 :   -22.0865044198736
          21 :    16.5264179738141
          22 :   -8.92360074302280
          23 :    2.18042172677053
          24 :    1.46010050873315
          25 :   -1.18725191282545
          26 :   -2.20831735568368
          27 :    6.82786431952786
          28 :   -10.5714646705384
          29 :    12.0268797268874
          30 :   -10.9539540327272
          31 :   -46.5830482219145
          32 :   -33.3981058712868

     Forces acting on atoms (Ry/au):

     negative rho (up, down):  5.866E-01 0.000E+00
     atom    1 type  1   force =    -0.00035055   -0.00020244    0.00345684
     atom    2 type  1   force =     0.00035039   -0.00020239    0.00345723
     atom    3 type  1   force =    -0.00000025    0.00040482    0.00345712
     atom    4 type  1   force =     0.00000017    0.00000010    0.00329606
     atom    5 type  1   force =     0.00000029    0.00348021   -0.00448259
     atom    6 type  1   force =    -0.00000011    0.00000018    0.00031946
     atom    7 type  1   force =    -0.00301364   -0.00174023   -0.00448251
     atom    8 type  1   force =     0.00301398   -0.00173967   -0.00448304
     atom    9 type  1   force =     0.00000049    0.00000012    0.00148754
     atom   10 type  1   force =    -0.00000030   -0.00029154   -0.00010981
     atom   11 type  1   force =    -0.00025208    0.00014524   -0.00011003
     atom   12 type  1   force =     0.00025175    0.00014572   -0.00010869
     atom   13 type  2   force =    -0.00000059   -0.00000063   -0.00050580
     atom   14 type  3   force =     0.00000047    0.00000049   -0.00119178

     Total force =     0.002044     Total SCF correction =     0.000151

     entering subroutine stress ...

     negative rho (up, down):  5.866E-01 0.000E+00
          total   stress  (Ry/bohr**3)                   (kbar)     P=   -0.63
  -0.00000034  -0.00000000  -0.00000000         -0.05     -0.00     -0.00
  -0.00000000  -0.00000034  -0.00000000         -0.00     -0.05     -0.00
  -0.00000000  -0.00000000  -0.00001212         -0.00     -0.00     -1.78

     bfgs converged in  20 scf cycles and  19 bfgs steps
     (criteria: energy <  1.0E+00, force <  1.9E-03)

     End of BFGS Geometry Optimization

     Final energy   =   -1282.1350696501 Ry
Begin final coordinates

ATOMIC_POSITIONS (crystal)
La1      0.166666667   0.166666667   0.383173129    0   0   0
La1      0.666666667   0.166666667   0.383173129    0   0   0
La1      0.166666667   0.666666667   0.383173129    0   0   0
La1      0.666666667   0.666666667   0.383173129    0   0   0
La1      0.833333333   0.333333333   0.500000000    0   0   0
La1      0.333333333   0.333333333   0.500000000    0   0   0
La1      0.833333333   0.833333333   0.500000000    0   0   0
La1      0.333333333   0.833333333   0.500000000    0   0   0
La1      0.000000413  -0.000000293   0.609496086
La1      0.494213581   0.011574513   0.619320215
La1      0.011574342   0.494213419   0.619320523
La1      0.494213733   0.494212981   0.619319679
O1       0.333333933   0.333334379   0.676399228
H1       0.333333642   0.333332531   0.713744772
End final coordinates

     Writing output data file calc.save

     General routines

     Parallel routines

   This run was terminated on:   1: 8:10  19Apr2018

   JOB DONE.