     Program PWSCF v.5.1rc2 (svn rev. 11289) starts on 18Jan2018 at  5:38:37

     Current dimensions of program PWSCF are:
     Max number of different atomic species (ntypx) = 10
     Max number of k-points (npk) =  40000
     Max angular momentum in pseudopotentials (lmaxx) =  3
     Presently stress not available with electric field

     IMPORTANT: XC functional enforced from input :
     Exchange-correlation      = BEEF-VDW ( 1  4 27 13 2)
     Any further DFT definition will be discarded
     Please, verify this is what you really want

     Subspace diagonalization in iterative solution of the eigenvalue problem:
     a serial algorithm will be used

     bravais-lattice index     =            0
     lattice parameter (alat)  =       1.8897  a.u.
     unit-cell volume          =    4806.0858 (a.u.)^3
     number of atoms/cell      =           13
     number of atomic types    =            2
     number of electrons       =       149.00
     number of Kohn-Sham states=           84
     kinetic-energy cutoff     =      36.7493  Ry
     charge density cutoff     =     367.4932  Ry
     convergence threshold     =      1.0E-05
     mixing beta               =       0.3000
     number of iterations used =           10  plain     mixing
     Exchange-correlation      = BEEF-VDW ( 1  4 27 13 2)
     nstep                     =           50

     celldm(1)=   1.889726  celldm(2)=   0.000000  celldm(3)=   0.000000
     celldm(4)=   0.000000  celldm(5)=   0.000000  celldm(6)=   0.000000

     crystal axes: (cart. coord. in units of alat)
               a(1) = (   5.768903   0.000000   0.000000 )
               a(2) = (   2.884451   4.996016   0.000000 )
               a(3) = (   0.000000   0.000000  24.710289 )

     reciprocal axes: (cart. coord. in units 2 pi/alat)
               b(1) = (  0.173343 -0.100080  0.000000 )
               b(2) = (  0.000000  0.200159  0.000000 )
               b(3) = (  0.000000  0.000000  0.040469 )

     PseudoPot. # 1 for Ti read from file:
     /afs/slac.stanford.edu/u/if/mamunm/psp/gbrv1.5pbe/Ti.UPF
     MD5 check sum: 88a00a6731bd790ddea75d31a80cb452
     Pseudo is Ultrasoft + core correction, Zval = 12.0
     Generated by new atomic code, or converted to UPF format
     Using radial grid of  851 points,  6 beta functions with:
                l(1) =   0
                l(2) =   0
                l(3) =   1
                l(4) =   1
                l(5) =   2
                l(6) =   2
     Q(r) pseudized with  6 coefficients,  rinner =    1.000   1.000   1.000
                                                       1.000   1.000

     PseudoPot. # 2 for N  read from file:
     /afs/slac.stanford.edu/u/if/mamunm/psp/gbrv1.5pbe/N.UPF
     MD5 check sum: 95339753478d7afb44899504a8723017
     Pseudo is Ultrasoft + core correction, Zval =  5.0
     Generated by new atomic code, or converted to UPF format
     Using radial grid of  729 points,  4 beta functions with:
                l(1) =   0
                l(2) =   0
                l(3) =   1
                l(4) =   1
     Q(r) pseudized with  8 coefficients,  rinner =    0.900   0.900   0.900

     vdW kernel table read from file vdW_kernel_table
     MD5 check sum: 095c7af220d748ca6e76c0b4c6cfb241

     atomic species   valence    mass     pseudopotential
        Ti1           12.00    47.86700     Ti( 1.00)
        N1             5.00    14.00700     N ( 1.00)

     No symmetry found

   Cartesian axes

     site n.     atom                  positions (alat units)
         1           Ti1 tau(   1) = (   1.4422257   0.8326694  10.0000000  )
         2           Ti1 tau(   2) = (   4.3266771   0.8326694  10.0000000  )
         3           Ti1 tau(   3) = (   2.8844514   3.3306776  10.0000000  )
         4           Ti1 tau(   4) = (   5.7689029   3.3306776  10.0000000  )
         5           Ti1 tau(   5) = (   5.7689029   1.6653388  12.3551447  )
         6           Ti1 tau(   6) = (   2.8844514   1.6653388  12.3551447  )
         7           Ti1 tau(   7) = (   7.2111286   4.1633470  12.3551447  )
         8           Ti1 tau(   8) = (   4.3266771   4.1633470  12.3551447  )
         9           Ti1 tau(   9) = (   0.0000000   0.0000000  14.7102895  )
        10           Ti1 tau(  10) = (   2.8844514   0.0000000  14.7102895  )
        11           Ti1 tau(  11) = (   1.4422257   2.4980082  14.7102895  )
        12           Ti1 tau(  12) = (   4.3266771   2.4980082  14.7102895  )
        13           N1  tau(  13) = (   0.0000000   0.0000000  17.0202895  )

     number of k points=    20  Fermi-Dirac smearing, width (Ry)=  0.0110
                       cart. coord. in units 2pi/alat
        k(    1) = (   0.0000000   0.0000000   0.0000000), wk =   0.0555556
        k(    2) = (   0.0000000   0.0333599   0.0000000), wk =   0.1111111
        k(    3) = (   0.0000000   0.0667198   0.0000000), wk =   0.1111111
        k(    4) = (   0.0000000  -0.1000797   0.0000000), wk =   0.0555556
        k(    5) = (   0.0288905  -0.0166800   0.0000000), wk =   0.1111111
        k(    6) = (   0.0288905   0.0166800   0.0000000), wk =   0.1111111
        k(    7) = (   0.0288905   0.0500399   0.0000000), wk =   0.1111111
        k(    8) = (   0.0288905  -0.1167597   0.0000000), wk =   0.1111111
        k(    9) = (   0.0288905  -0.0833998   0.0000000), wk =   0.1111111
        k(   10) = (   0.0288905  -0.0500399   0.0000000), wk =   0.1111111
        k(   11) = (   0.0577811  -0.0333599   0.0000000), wk =   0.1111111
        k(   12) = (   0.0577811  -0.0000000   0.0000000), wk =   0.1111111
        k(   13) = (   0.0577811   0.0333599   0.0000000), wk =   0.1111111
        k(   14) = (   0.0577811  -0.1334396   0.0000000), wk =   0.1111111
        k(   15) = (   0.0577811  -0.1000797   0.0000000), wk =   0.1111111
        k(   16) = (   0.0577811  -0.0667198   0.0000000), wk =   0.1111111
        k(   17) = (  -0.0866716   0.0500399   0.0000000), wk =   0.0555556
        k(   18) = (  -0.0866716   0.0833998   0.0000000), wk =   0.1111111
        k(   19) = (  -0.0866716   0.1167597   0.0000000), wk =   0.1111111
        k(   20) = (  -0.0866716  -0.0500399   0.0000000), wk =   0.0555556

     Largest allocated arrays     est. size (Mb)     dimensions
     Largest temporary arrays     est. size (Mb)     dimensions

     Check: negative/imaginary core charge=   -0.000006    0.000000

     Initial potential from superposition of free atoms
     Check: negative starting charge=   -0.012711

     starting charge  136.99946, renormalised to  149.00000

     negative rho (up, down):  1.382E-02 0.000E+00

     *
     * You are using vdW-DF for exchange-correlation in this calculation.
     * Please cite the following three references that made this development
     * possible:
     *
     *   M. Dion, H. Rydberg, E. Schroder, D. C. Langreth, and
     *   B. I. Lundqvist, Phys. Rev. Lett. 92, 246401 (2004).
     *
     *   T. Thonhauser, V. R. Cooper, S. Li, A. Puzder, P. Hyldgaard, and
     *   D. C. Langreth, Phys. Rev. B 76, 125112 (2007).
     *
     *   G. Roman-Perez and J. M. Soler, Phys. Rev. Lett. 103, 096102 (2009).
     *
     *
     * If you are using vdW-DF2, please also cite:
     *
     *   K. Lee, E. D. Murray, L. Kong, B. I. Lundqvist, and
     *   D. C. Langreth, Phys. Rev. B 82, 081101(R) (2010).
     *
     *
     * If you are calculating the stress with vdW-DF, please also cite:
     *
     *   R. Sabatini, E. Kucukbenli, B. Kolb, T. Thonhauser, and
     *   S. de Gironcoli, J. Phys.: Condens. Matter 24, 424209 (2012).
     *

     Carrying out vdW-DF run using the following parameters:

     Nqs =      20    Nr_points =    1024   r_max =   100.000
     q_mesh =
               0.00001000     0.04494208     0.09755937     0.15916263
               0.23128650     0.31572767     0.41458969     0.53033537
               0.66584808     0.82450364     1.01025438     1.22772762
               1.48234092     1.78043706     2.12944203     2.53805004
               3.01644009     3.57652955     4.23227104     5.00000000

     Gradients computed in reciprocal space

     Adding external electric field

     Computed dipole along edir(3) :
        Dipole               -3.8611 Ry au,         -9.8138 Debye
        Dipole field         -0.0101 Ry au

        Potential amp.        0.9193 Ry
        Total length         45.5283 bohr

     Starting wfc are  124 randomized atomic wfcs

     Self-consistent Calculation

     iteration #  1     ecut=    36.75 Ry     beta=0.30
     Davidson diagonalization with overlap
     ethr =  1.00E-02,  avg # of iterations =  6.2

[...]

     total energy              =   -1339.56115560 Ry
     Harris-Foulkes estimate   =   -1461.41828226 Ry
     estimated scf accuracy    <     252.39390281 Ry

     iteration #  2     ecut=    36.75 Ry     beta=0.30
     Davidson diagonalization with overlap
     c_bands:  1 eigenvalues not converged
     ethr =  1.00E-02,  avg # of iterations = 18.0

[...]

     End of self-consistent calculation

          k = 0.0000 0.0000 0.0000 ( 18103 PWs)   bands (ev):

   -57.0723 -57.0008 -56.9993 -56.9749 -56.8851 -56.8816 -56.8803 -56.8005
   -56.7309 -56.7231 -56.7226 -56.7059 -33.4960 -33.4789 -33.4782 -33.4702
   -33.4212 -33.4194 -33.4189 -33.3987 -33.3978 -33.3405 -33.2803 -33.2339
   -33.2330 -33.1140 -33.1113 -33.0874 -33.0869 -33.0264 -33.0254 -33.0034
   -33.0028 -33.0024 -32.9642 -32.9245 -32.9241 -32.8986 -32.8787 -32.8785
   -32.8735 -32.8734 -32.8170 -32.8168 -32.8164 -32.7741 -32.7044 -32.7044
   -11.3894  -5.4305  -4.0676  -2.8590  -2.3021  -2.3019  -2.3018  -2.1933
    -2.1549  -2.1548  -1.7613  -1.7291  -1.7289  -1.5349  -1.5222  -1.5222
    -1.0006  -1.0003  -0.8832  -0.6408  -0.3067  -0.3066  -0.0569   0.2252
     0.3100   0.3923   0.3923   0.5248   0.6501   0.6505   0.7017   0.8062
     0.8062   0.9903   0.9939   0.9993

[...]

          k =-0.0867 0.0500 0.0000 ( 18044 PWs)   bands (ev):

[...]

     the Fermi energy is     0.0285 ev

!    total energy              =   -1458.64169994 Ry
     Harris-Foulkes estimate   =   -1458.64169506 Ry
     estimated scf accuracy    <       0.00000660 Ry

     The total energy is the sum of the following terms:

     one-electron contribution =  -11032.69237320 Ry
     hartree contribution      =    5500.37176264 Ry
     xc contribution           =    -229.94750154 Ry
     ewald contribution        =    4303.75335001 Ry
     electric field correction =       0.00111947 Ry
     smearing contrib. (-TS)   =      -0.12805733 Ry

     convergence has been achieved in  32 iterations

 BEEF-vdW xc energy contributions
           1 :   -197.556194923908
           2 :    176.348569688370
           3 :   -141.662610735386
           4 :    104.608586343885
           5 :   -74.2025039022896
           6 :    53.9376968077607
           7 :   -41.8642237775735
           8 :    33.3662685171738
           9 :   -24.5265658024367
          10 :    14.0832493455956
          11 :   -3.27072828271136
          12 :   -5.81147746203715
          13 :    11.9397945648003
          14 :   -15.4885576535029
          15 :    17.8517321717953
          16 :   -20.2194037270144
[...]

     Program PWSCF v.5.1rc2 (svn rev. 11289) starts on 18Jan2018 at  7: 0: 5

[...]

   This run was terminated on:   8: 3:49  18Jan2018

[...]

     Program PWSCF v.5.1rc2 (svn rev. 11289) starts on 18Jan2018 at  8: 3:55

[...]

   This run was terminated on:   9: 2: 4  18Jan2018

[...]

     Program PWSCF v.5.1rc2 (svn rev. 11289) starts on 18Jan2018 at  9: 2:10

[...]

     Total force =     0.067056     Total SCF correction =     0.005083

[...]

   This run was terminated on:   9:42:13  18Jan2018

[...]

     Program PWSCF v.5.1rc2 (svn rev. 11289) starts on 18Jan2018 at  9:42:19

     Current dimensions of program PWSCF are:
     Max number of different atomic species (ntypx) = 10
     Max number of k-points (npk) =  40000
     Max angular momentum in pseudopotentials (lmaxx) =  3
     Presently stress not available with electric field

     IMPORTANT: XC functional enforced from input :
     Exchange-correlation      = BEEF-VDW ( 1  4 27 13 2)
     Any further DFT definition will be discarded
     Please, verify this is what you really want

     Subspace diagonalization in iterative solution of the eigenvalue problem:
     a serial algorithm will be used

     bravais-lattice index     =            0
     lattice parameter (alat)  =       1.8897  a.u.
     unit-cell volume          =    4806.0858 (a.u.)^3
     number of atoms/cell      =           13
     number of atomic types    =            2
     number of electrons       =       149.00
     number of Kohn-Sham states=           84
     kinetic-energy cutoff     =      36.7493  Ry
     charge density cutoff     =     367.4932  Ry
     convergence threshold     =      1.0E-05
     mixing beta               =       0.3000
     number of iterations used =           10  plain     mixing
     Exchange-correlation      = BEEF-VDW ( 1  4 27 13 2)
     nstep                     =           50

     celldm(1)=   1.889726  celldm(2)=   0.000000  celldm(3)=   0.000000
     celldm(4)=   0.000000  celldm(5)=   0.000000  celldm(6)=   0.000000

     crystal axes: (cart. coord. in units of alat)
               a(1) = (   5.768903   0.000000   0.000000 )
               a(2) = (   2.884451   4.996016   0.000000 )
               a(3) = (   0.000000   0.000000  24.710289 )

     reciprocal axes: (cart. coord. in units 2 pi/alat)
               b(1) = (  0.173343 -0.100080  0.000000 )
               b(2) = (  0.000000  0.200159  0.000000 )
               b(3) = (  0.000000  0.000000  0.040469 )

     PseudoPot. # 1 for Ti read from file:
     /afs/slac.stanford.edu/u/if/mamunm/psp/gbrv1.5pbe/Ti.UPF
     MD5 check sum: 88a00a6731bd790ddea75d31a80cb452
     Pseudo is Ultrasoft + core correction, Zval = 12.0
     Generated by new atomic code, or converted to UPF format
     Using radial grid of  851 points,  6 beta functions with:
                l(1) =   0
                l(2) =   0
                l(3) =   1
                l(4) =   1
                l(5) =   2
                l(6) =   2
     Q(r) pseudized with  6 coefficients,  rinner =    1.000   1.000   1.000
                                                       1.000   1.000

     PseudoPot. # 2 for N  read from file:
     /afs/slac.stanford.edu/u/if/mamunm/psp/gbrv1.5pbe/N.UPF
     MD5 check sum: 95339753478d7afb44899504a8723017
     Pseudo is Ultrasoft + core correction, Zval =  5.0
     Generated by new atomic code, or converted to UPF format
     Using radial grid of  729 points,  4 beta functions with:
                l(1) =   0
                l(2) =   0
                l(3) =   1
                l(4) =   1
     Q(r) pseudized with  8 coefficients,  rinner =    0.900   0.900   0.900

     vdW kernel table read from file vdW_kernel_table
     MD5 check sum: 095c7af220d748ca6e76c0b4c6cfb241

     atomic species   valence    mass     pseudopotential
        Ti1           12.00    47.86700     Ti( 1.00)
        N1             5.00    14.00700     N ( 1.00)

     No symmetry found

   Cartesian axes

     site n.     atom                  positions (alat units)
         1           Ti1 tau(   1) = (   1.4422257   0.8326694  10.0000000  )
         2           Ti1 tau(   2) = (   4.3266771   0.8326694  10.0000000  )
         3           Ti1 tau(   3) = (   2.8844514   3.3306776  10.0000000  )
         4           Ti1 tau(   4) = (   5.7689029   3.3306776  10.0000000  )
         5           Ti1 tau(   5) = (   5.7689029   1.6653388  12.3551447  )
         6           Ti1 tau(   6) = (   2.8844514   1.6653388  12.3551447  )
         7           Ti1 tau(   7) = (   7.2111286   4.1633470  12.3551447  )
         8           Ti1 tau(   8) = (   4.3266771   4.1633470  12.3551447  )
         9           Ti1 tau(   9) = (   5.7689162   0.0000404  14.5244132  )
        10           Ti1 tau(  10) = (   5.7689055   4.9549861  14.7554317  )
        11           Ti1 tau(  11) = (   7.1755344   2.5186229  14.7552538  )
        12           Ti1 tau(  12) = (   4.3622750   2.5185912  14.7554351  )
        13           N1  tau(  13) = (   2.8844709   4.9957988  16.2361198  )

     number of k points=    20  Fermi-Dirac smearing, width (Ry)=  0.0110
                       cart. coord. in units 2pi/alat
        k(    1) = (   0.0000000   0.0000000   0.0000000), wk =   0.0555556
        k(    2) = (   0.0000000   0.0333599   0.0000000), wk =   0.1111111
        k(    3) = (   0.0000000   0.0667198   0.0000000), wk =   0.1111111
        k(    4) = (   0.0000000  -0.1000797   0.0000000), wk =   0.0555556
        k(    5) = (   0.0288905  -0.0166800   0.0000000), wk =   0.1111111
        k(    6) = (   0.0288905   0.0166800   0.0000000), wk =   0.1111111
        k(    7) = (   0.0288905   0.0500399   0.0000000), wk =   0.1111111
        k(    8) = (   0.0288905  -0.1167597   0.0000000), wk =   0.1111111
        k(    9) = (   0.0288905  -0.0833998   0.0000000), wk =   0.1111111
        k(   10) = (   0.0288905  -0.0500399   0.0000000), wk =   0.1111111
        k(   11) = (   0.0577811  -0.0333599   0.0000000), wk =   0.1111111
        k(   12) = (   0.0577811  -0.0000000   0.0000000), wk =   0.1111111
        k(   13) = (   0.0577811   0.0333599   0.0000000), wk =   0.1111111
        k(   14) = (   0.0577811  -0.1334396   0.0000000), wk =   0.1111111
        k(   15) = (   0.0577811  -0.1000797   0.0000000), wk =   0.1111111
        k(   16) = (   0.0577811  -0.0667198   0.0000000), wk =   0.1111111
        k(   17) = (  -0.0866716   0.0500399   0.0000000), wk =   0.0555556
        k(   18) = (  -0.0866716   0.0833998   0.0000000), wk =   0.1111111
        k(   19) = (  -0.0866716   0.1167597   0.0000000), wk =   0.1111111
        k(   20) = (  -0.0866716  -0.0500399   0.0000000), wk =   0.0555556

     Largest allocated arrays     est. size (Mb)     dimensions
     Largest temporary arrays     est. size (Mb)     dimensions

     Check: negative/imaginary core charge=   -0.000006    0.000000

     Initial potential from superposition of free atoms
     Check: negative starting charge=   -0.013948

     starting charge  136.99946, renormalised to  149.00000

[...]

     *
     * You are using vdW-DF for exchange-correlation in this calculation.
     * Please cite the following three references that made this development
     * possible:
     *
     *   M. Dion, H. Rydberg, E. Schroder, D. C. Langreth, and
     *   B. I. Lundqvist, Phys. Rev. Lett. 92, 246401 (2004).
     *
     *   T. Thonhauser, V. R. Cooper, S. Li, A. Puzder, P. Hyldgaard, and
     *   D. C. Langreth, Phys. Rev. B 76, 125112 (2007).
     *
     *   G. Roman-Perez and J. M. Soler, Phys. Rev. Lett. 103, 096102 (2009).
     *
     *
     * If you are using vdW-DF2, please also cite:
     *
     *   K. Lee, E. D. Murray, L. Kong, B. I. Lundqvist, and
     *   D. C. Langreth, Phys. Rev. B 82, 081101(R) (2010).
     *
     *
     * If you are calculating the stress with vdW-DF, please also cite:
     *
     *   R. Sabatini, E. Kucukbenli, B. Kolb, T. Thonhauser, and
     *   S. de Gironcoli, J. Phys.: Condens. Matter 24, 424209 (2012).
     *

     Carrying out vdW-DF run using the following parameters:

     Nqs =      20    Nr_points =    1024   r_max =   100.000
     q_mesh =
               0.00001000     0.04494208     0.09755937     0.15916263
               0.23128650     0.31572767     0.41458969     0.53033537
               0.66584808     0.82450364     1.01025438     1.22772762
               1.48234092     1.78043706     2.12944203     2.53805004
               3.01644009     3.57652955     4.23227104     5.00000000

     Gradients computed in reciprocal space

[...]

     Starting wfc are  124 randomized atomic wfcs

     Self-consistent Calculation

[...]

     iteration # 21     ecut=    36.75 Ry     beta=0.30
     Davidson diagonalization with overlap
     c_bands:  1 eigenvalues not converged
     ethr =  3.22E-06,  avg # of iterations =  8.6

[...]

     total energy              =   -1458.82437703 Ry
     Harris-Foulkes estimate   =   -1458.82438986 Ry
     estimated scf accuracy    <       0.00009622 Ry

     iteration # 28     ecut=    36.75 Ry     beta=0.30
     Davidson diagonalization with overlap
     ethr =  4.77E-08,  avg # of iterations =  1.4

[...]

     negative rho (up, down):  9.347E-03 0.000E+00

     Adding external electric field

     Computed dipole along edir(3) :
        Dipole               -0.2074 Ry au,         -0.5271 Debye
        Dipole field         -0.0005 Ry au

        Potential amp.        0.0494 Ry
        Total length         45.5283 bohr

     End of self-consistent calculation

[...]

          k = 0.0578-0.0667 0.0000 ( 18031 PWs)   bands (ev):

[...]

          k =-0.0867-0.0500 0.0000 ( 18044 PWs)   bands (ev):

   -56.5462 -56.5160 -56.4972 -56.3958 -56.3890 -56.3481 -56.3423 -56.2346
   -56.2127 -56.1831 -56.1707 -55.5489 -32.9192 -32.8924 -32.8883 -32.8659
   -32.8245 -32.7884 -32.7806 -32.7747 -32.7506 -32.7294 -32.7263 -32.7025
   -32.6807 -32.6356 -32.6298 -32.6139 -32.6019 -32.5858 -32.5433 -32.5061
   -32.4718 -32.4627 -32.4128 -32.4125 -32.4015 -32.3995 -32.3991 -32.3860
   -32.3732 -32.3570 -32.3452 -32.2288 -32.2243 -31.8969 -31.8556 -31.8214
   -11.4994  -3.3420  -3.3036  -2.4519  -2.0633  -1.8752  -1.7486  -1.5077
    -1.3260  -1.2404  -1.0781  -1.0656  -0.8983  -0.7875  -0.3565  -0.3297
    -0.3062  -0.2435  -0.1799  -0.0978   0.0988   0.1620   0.1726   0.2388
     0.2572   0.3460   0.3810   0.5199   0.5524   0.5527   0.6971   0.8446
     0.8891   0.9563   1.1408   1.2191

     the Fermi energy is     0.5727 ev

!    total energy              =   -1458.82437384 Ry
     Harris-Foulkes estimate   =   -1458.82439157 Ry
     estimated scf accuracy    <       0.00000708 Ry

     The total energy is the sum of the following terms:

     one-electron contribution =  -11222.14094335 Ry
     hartree contribution      =    5597.67595165 Ry
     xc contribution           =    -230.41696474 Ry
     ewald contribution        =    4396.17960110 Ry
     electric field correction =       0.00011245 Ry
     smearing contrib. (-TS)   =      -0.12213094 Ry

     convergence has been achieved in  28 iterations

 BEEF-vdW xc energy contributions
           1 :   -198.017366475610
           2 :    176.896694356773
           3 :   -142.287248770109
           4 :    105.202514468387
           5 :   -74.6259536976095
           6 :    54.0964533969591
           7 :   -41.7725182024399
           8 :    33.1466032811210
           9 :   -24.3321243992286
          10 :    14.0012090432592
          11 :   -3.28342456336713
          12 :   -5.78673144990216
          13 :    11.9742302637081
          14 :   -15.5925214528484
          15 :    17.9840496214711
          16 :   -20.3313911502229
          17 :    22.7743510478697
          18 :   -24.4569565763004
          19 :    24.3410436903021
          20 :   -22.0809175646856
          21 :    18.2976151592608
          22 :   -14.1239128030944
          23 :    10.4317967810575
          24 :   -7.34058093969645
          25 :    4.32742271255145
          26 :  -0.796927785839443
          27 :   -3.35881363024464
          28 :    7.62353708928799
          29 :   -11.2075641606573
          30 :    13.5760813837873
          31 :   -21.0896740281637
          32 :   -15.0103605747697

     Forces acting on atoms (Ry/au):

     negative rho (up, down):  9.347E-03 0.000E+00
     atom    1 type  1   force =     0.00127660    0.00075245    0.01101291
     atom    2 type  1   force =    -0.00126570    0.00073852    0.01106344
     atom    3 type  1   force =    -0.00000697   -0.00147910    0.01104297
     atom    4 type  1   force =     0.00002059   -0.00000248    0.00989617
     atom    5 type  1   force =     0.00002297    0.02878852   -0.01952907
     atom    6 type  1   force =    -0.00001710   -0.00000067    0.01732213
     atom    7 type  1   force =    -0.02493641   -0.01440751   -0.01954757
     atom    8 type  1   force =     0.02494175   -0.01437634   -0.01951315
     atom    9 type  1   force =    -0.00002521    0.00002697   -0.00063383
     atom   10 type  1   force =     0.00000706    0.00042342   -0.00038645
     atom   11 type  1   force =     0.00037112   -0.00020961   -0.00032272
     atom   12 type  1   force =    -0.00038823   -0.00023103   -0.00026617
     atom   13 type  2   force =    -0.00000047   -0.00002314   -0.00013865

     Total force =     0.066353     Total SCF correction =     0.009695
     SCF correction compared to forces is large: reduce conv_thr to get better values

     entering subroutine stress ...

     negative rho (up, down):  9.347E-03 0.000E+00
          total   stress  (Ry/bohr**3)                   (kbar)     P=   -3.81
  -0.00001528   0.00000002   0.00000002         -2.25      0.00      0.00
   0.00000002  -0.00001523  -0.00000004          0.00     -2.24     -0.01
   0.00000002  -0.00000004  -0.00004717          0.00     -0.01     -6.94

 !ASE

     Writing output data file calc.save

     General routines

     Parallel routines

   This run was terminated on:  10: 1:11  18Jan2018

   JOB DONE.
Job  /afs/slac/g/suncat/bin/suncat-tsmpirun -x LD_LIBRARY_PATH -wdir /scratch/qe842487_b1wE8 pw.x -in pw.inp

TID   HOST_NAME   COMMAND_LINE            STATUS            TERMINATION_TIME
00000 suncat0267 pw.x -in pw.inp   Done                     01/18/2018 10:01:11
00001 suncat0267 pw.x -in pw.inp   Done                     01/18/2018 10:01:11
00002 suncat0267 pw.x -in pw.inp   Done                     01/18/2018 10:01:11
00003 suncat0267 pw.x -in pw.inp   Done                     01/18/2018 10:01:11
00004 suncat0267 pw.x -in pw.inp   Done                     01/18/2018 10:01:11
00005 suncat0267 pw.x -in pw.inp   Done                     01/18/2018 10:01:11
00006 suncat0267 pw.x -in pw.inp   Done                     01/18/2018 10:01:11
00007 suncat0267 pw.x -in pw.inp   Done                     01/18/2018 10:01:11
00008 suncat0220 pw.x -in pw.inp   Done                     01/18/2018 10:01:11
00009 suncat0220 pw.x -in pw.inp   Done                     01/18/2018 10:01:11
00010 suncat0220 pw.x -in pw.inp   Done                     01/18/2018 10:01:11
00011 suncat0220 pw.x -in pw.inp   Done                     01/18/2018 10:01:11
00012 suncat0220 pw.x -in pw.inp   Done                     01/18/2018 10:01:11
00013 suncat0220 pw.x -in pw.inp   Done                     01/18/2018 10:01:11
00014 suncat0220 pw.x -in pw.inp   Done                     01/18/2018 10:01:11
00015 suncat0220 pw.x -in pw.inp   Done                     01/18/2018 10:01:11
00016 suncat0209 pw.x -in pw.inp   Done                     01/18/2018 10:01:11
00017 suncat0209 pw.x -in pw.inp   Done                     01/18/2018 10:01:11
00018 suncat0209 pw.x -in pw.inp   Done                     01/18/2018 10:01:11
00019 suncat0209 pw.x -in pw.inp   Done                     01/18/2018 10:01:11
00020 suncat0209 pw.x -in pw.inp   Done                     01/18/2018 10:01:11
00021 suncat0209 pw.x -in pw.inp   Done                     01/18/2018 10:01:11
00022 suncat0209 pw.x -in pw.inp   Done                     01/18/2018 10:01:11
00023 suncat0209 pw.x -in pw.inp   Done                     01/18/2018 10:01:11
00024 suncat0205 pw.x -in pw.inp   Done                     01/18/2018 10:01:11
00025 suncat0205 pw.x -in pw.inp   Done                     01/18/2018 10:01:11
00026 suncat0205 pw.x -in pw.inp   Done                     01/18/2018 10:01:11
00027 suncat0205 pw.x -in pw.inp   Done                     01/18/2018 10:01:11
00028 suncat0205 pw.x -in pw.inp   Done                     01/18/2018 10:01:11
00029 suncat0205 pw.x -in pw.inp   Done                     01/18/2018 10:01:11
00030 suncat0205 pw.x -in pw.inp   Done                     01/18/2018 10:01:11
00031 suncat0205 pw.x -in pw.inp   Done                     01/18/2018 10:01:11