     Program PWSCF v.5.1rc2 (svn rev. 11289) starts on 24Apr2018 at 23:32:11

     Current dimensions of program PWSCF are:
     Max number of different atomic species (ntypx) = 10
     Max number of k-points (npk) =  40000
     Max angular momentum in pseudopotentials (lmaxx) =  3
     Presently stress not available with electric field

     IMPORTANT: XC functional enforced from input :
     Exchange-correlation      = BEEF-VDW ( 1  4 27 13 2)
     Any further DFT definition will be discarded
     Please, verify this is what you really want

     Subspace diagonalization in iterative solution of the eigenvalue problem:
     a serial algorithm will be used

     bravais-lattice index     =            0
     lattice parameter (alat)  =       1.8897  a.u.
     unit-cell volume          =    7725.1200 (a.u.)^3
     number of atoms/cell      =           15
     number of atomic types    =            3
     number of electrons       =       138.00
     number of Kohn-Sham states=           79
     kinetic-energy cutoff     =      36.7493  Ry
     charge density cutoff     =     367.4932  Ry
     convergence threshold     =      1.0E-05
     mixing beta               =       0.3000
     number of iterations used =           10  plain     mixing
     Exchange-correlation      = BEEF-VDW ( 1  4 27 13 2)
     nstep                     =           50

     celldm(1)=   1.889726  celldm(2)=   0.000000  celldm(3)=   0.000000
     celldm(4)=   0.000000  celldm(5)=   0.000000  celldm(6)=   0.000000

     crystal axes: (cart. coord. in units of alat)
               a(1) = (   7.152277   0.000000   0.000000 )
               a(2) = (   3.576139   6.194054   0.000000 )
               a(3) = (   0.000000   0.000000  25.839810 )

     reciprocal axes: (cart. coord. in units 2 pi/alat)
               b(1) = (  0.139816 -0.080723  0.000000 )
               b(2) = (  0.000000  0.161445  0.000000 )
               b(3) = (  0.000000  0.000000  0.038700 )

     PseudoPot. # 1 for Y  read from file:
     /u/if/mamunm/psp/gbrv1.5pbe/Y.UPF
     MD5 check sum: d034151ed7554c50b6e82763ed42c788
     Pseudo is Ultrasoft + core correction, Zval = 11.0
     Generated by new atomic code, or converted to UPF format
     Using radial grid of  885 points,  6 beta functions with:
                l(1) =   0
                l(2) =   0
                l(3) =   1
                l(4) =   1
                l(5) =   2
                l(6) =   2
     Q(r) pseudized with  8 coefficients,  rinner =    1.200   1.200   1.200
                                                       1.200   1.200

     PseudoPot. # 2 for C  read from file:
     /u/if/mamunm/psp/gbrv1.5pbe/C.UPF
     MD5 check sum: d1aef80898a10debaa0f26306b886e00
     Pseudo is Ultrasoft + core correction, Zval =  4.0
     Generated by new atomic code, or converted to UPF format
     Using radial grid of  721 points,  4 beta functions with:
                l(1) =   0
                l(2) =   0
                l(3) =   1
                l(4) =   1
     Q(r) pseudized with  8 coefficients,  rinner =    1.100   1.100   1.100

     PseudoPot. # 3 for H  read from file:
     /u/if/mamunm/psp/gbrv1.5pbe/H.UPF
     MD5 check sum: 761ae9a214b05c3daf00ab9f6b793d6f
     Pseudo is Ultrasoft, Zval =  1.0
     Generated by new atomic code, or converted to UPF format
     Using radial grid of  615 points,  2 beta functions with:
                l(1) =   0
                l(2) =   0
     Q(r) pseudized with  8 coefficients,  rinner =    0.700

     vdW kernel table read from file vdW_kernel_table
     MD5 check sum: 095c7af220d748ca6e76c0b4c6cfb241

     atomic species   valence    mass     pseudopotential
        Y1            11.00    88.90584     Y ( 1.00)
        C1             4.00    12.01100     C ( 1.00)
        H1             1.00     1.00800     H ( 1.00)

     No symmetry found

   Cartesian axes

     site n.     atom                  positions (alat units)
         1           Y1  tau(   1) = (   1.7880693   1.0323423  10.0000000  )
         2           Y1  tau(   2) = (   5.3642080   1.0323423  10.0000000  )
         3           Y1  tau(   3) = (   3.5761386   4.1293692  10.0000000  )
         4           Y1  tau(   4) = (   7.1522773   4.1293692  10.0000000  )
         5           Y1  tau(   5) = (   7.1522773   2.0646846  12.9199050  )
         6           Y1  tau(   6) = (   3.5761386   2.0646846  12.9199050  )
         7           Y1  tau(   7) = (   8.9403466   5.1617115  12.9199050  )
         8           Y1  tau(   8) = (   5.3642080   5.1617115  12.9199050  )
         9           Y1  tau(   9) = (   0.0000000   0.0000000  15.8398100  )
        10           Y1  tau(  10) = (   3.5761386   0.0000000  15.8398100  )
        11           Y1  tau(  11) = (   1.7880693   3.0970269  15.8398100  )
        12           Y1  tau(  12) = (   5.3642080   3.0970269  15.8398100  )
        13           C1  tau(  13) = (   1.7880693   0.0000000  17.8348100  )
        14           H1  tau(  14) = (   2.4180693   0.6300000  18.4648100  )
        15           H1  tau(  15) = (   4.7342080   5.5640538  18.4648100  )

     number of k points=    20  Fermi-Dirac smearing, width (Ry)=  0.0110
                       cart. coord. in units 2pi/alat
        k(    1) = (   0.0000000   0.0000000   0.0000000), wk =   0.0555556
        k(    2) = (   0.0000000   0.0269075   0.0000000), wk =   0.1111111
        k(    3) = (   0.0000000   0.0538151   0.0000000), wk =   0.1111111
        k(    4) = (   0.0000000  -0.0807226   0.0000000), wk =   0.0555556
        k(    5) = (   0.0233026  -0.0134538   0.0000000), wk =   0.1111111
        k(    6) = (   0.0233026   0.0134538   0.0000000), wk =   0.1111111
        k(    7) = (   0.0233026   0.0403613   0.0000000), wk =   0.1111111
        k(    8) = (   0.0233026  -0.0941763   0.0000000), wk =   0.1111111
        k(    9) = (   0.0233026  -0.0672688   0.0000000), wk =   0.1111111
        k(   10) = (   0.0233026  -0.0403613   0.0000000), wk =   0.1111111
        k(   11) = (   0.0466052  -0.0269075   0.0000000), wk =   0.1111111
        k(   12) = (   0.0466052   0.0000000   0.0000000), wk =   0.1111111
        k(   13) = (   0.0466052   0.0269075   0.0000000), wk =   0.1111111
        k(   14) = (   0.0466052  -0.1076301   0.0000000), wk =   0.1111111
        k(   15) = (   0.0466052  -0.0807226   0.0000000), wk =   0.1111111
        k(   16) = (   0.0466052  -0.0538151   0.0000000), wk =   0.1111111
        k(   17) = (  -0.0699078   0.0403613   0.0000000), wk =   0.0555556
        k(   18) = (  -0.0699078   0.0672688   0.0000000), wk =   0.1111111
        k(   19) = (  -0.0699078   0.0941763   0.0000000), wk =   0.1111111
        k(   20) = (  -0.0699078  -0.0403613   0.0000000), wk =   0.0555556

     Largest allocated arrays     est. size (Mb)     dimensions
     Largest temporary arrays     est. size (Mb)     dimensions

     Initial potential from superposition of free atoms
     Check: negative starting charge=   -0.000513

     starting charge  137.94631, renormalised to  138.00000

     negative rho (up, down):  5.133E-04 0.000E+00

     *
     * You are using vdW-DF for exchange-correlation in this calculation.
     * Please cite the following three references that made this development
     * possible:
     *
     *   M. Dion, H. Rydberg, E. Schroder, D. C. Langreth, and
     *   B. I. Lundqvist, Phys. Rev. Lett. 92, 246401 (2004).
     *
     *   T. Thonhauser, V. R. Cooper, S. Li, A. Puzder, P. Hyldgaard, and
     *   D. C. Langreth, Phys. Rev. B 76, 125112 (2007).
     *
     *   G. Roman-Perez and J. M. Soler, Phys. Rev. Lett. 103, 096102 (2009).
     *
     *
     * If you are using vdW-DF2, please also cite:
     *
     *   K. Lee, E. D. Murray, L. Kong, B. I. Lundqvist, and
     *   D. C. Langreth, Phys. Rev. B 82, 081101(R) (2010).
     *
     *
     * If you are calculating the stress with vdW-DF, please also cite:
     *
     *   R. Sabatini, E. Kucukbenli, B. Kolb, T. Thonhauser, and
     *   S. de Gironcoli, J. Phys.: Condens. Matter 24, 424209 (2012).
     *

     Carrying out vdW-DF run using the following parameters:

     Nqs =      20    Nr_points =    1024   r_max =   100.000
     q_mesh =
               0.00001000     0.04494208     0.09755937     0.15916263
               0.23128650     0.31572767     0.41458969     0.53033537
               0.66584808     0.82450364     1.01025438     1.22772762
               1.48234092     1.78043706     2.12944203     2.53805004
               3.01644009     3.57652955     4.23227104     5.00000000

     Gradients computed in reciprocal space

     Adding external electric field

     Computed dipole along edir(3) :
        Dipole               -0.0221 Ry au,         -0.0560 Debye
        Dipole field         -0.0000 Ry au

        Potential amp.        0.0034 Ry
        Total length         47.6094 bohr

     Starting wfc are  162 randomized atomic wfcs

     Self-consistent Calculation

     iteration #  1     ecut=    36.75 Ry     beta=0.30
     Davidson diagonalization with overlap
     ethr =  1.00E-02,  avg # of iterations =  2.0

[...]

     total energy              =   -1136.34101679 Ry
     Harris-Foulkes estimate   =   -1138.88872214 Ry
     estimated scf accuracy    <       5.59595949 Ry

[...]

     End of self-consistent calculation

          k = 0.0000 0.0000 0.0000 ( 28997 PWs)   bands (ev):

   -42.5038 -42.4686 -42.4234 -42.3822 -42.3805 -42.3790 -42.1926 -42.1717
   -41.8700 -41.8320 -41.8269 -41.8214 -22.5621 -22.5460 -22.5326 -22.5286
   -22.5255 -22.5154 -22.4939 -22.4583 -22.4507 -22.3853 -22.3830 -22.3815
   -22.2328 -22.2219 -22.2051 -22.2038 -22.2027 -22.1751 -22.1232 -22.1050
   -22.1046 -22.0607 -22.0258 -21.9863 -21.9805 -21.9769 -21.9001 -21.7744
   -21.7571 -21.7501 -21.7427 -21.6922 -21.6874 -21.6847 -21.5918 -21.5902
   -10.5563  -4.8057  -3.3773  -2.5421  -1.6887  -1.2158  -0.7530  -0.6831
    -0.6397  -0.5793  -0.5665  -0.4935  -0.3824  -0.2473  -0.0558   0.2081
     0.2413   0.2708   0.4126   0.6578   0.7915   0.9039   1.1103   1.4949
     1.5392   1.5855   1.6305   1.6418   1.7327   2.0336   2.1120

[...]

          k =-0.0699 0.0404 0.0000 ( 29048 PWs)   bands (ev):

[...]

     the Fermi energy is     0.9234 ev

!    total energy              =   -1138.25732129 Ry
     Harris-Foulkes estimate   =   -1138.25731964 Ry
     estimated scf accuracy    <       0.00000264 Ry

     The total energy is the sum of the following terms:

     one-electron contribution =   -5503.44970721 Ry
     hartree contribution      =    2745.44596618 Ry
     xc contribution           =    -344.00662026 Ry
     ewald contribution        =    1963.87835177 Ry
     electric field correction =       0.00007769 Ry
     smearing contrib. (-TS)   =      -0.12538946 Ry

     convergence has been achieved in  15 iterations

 BEEF-vdW xc energy contributions
           1 :   -299.889238732323
           2 :    269.183418181927
           3 :   -216.407051549546
           4 :    154.596882457149
           5 :   -95.7916350713268
           6 :    47.4978509400134
           7 :   -12.2169719129885
           8 :   -10.7614336764638
           9 :    23.1075554210468
          10 :   -26.2264530390624
          11 :    21.4029017287801
          12 :   -10.6398318059429
          13 :   -2.84001450783921
          14 :    15.0557889387251
          15 :   -22.5332800045187
          16 :    23.5830039062326
          17 :   -18.7773854059183
          18 :    10.3672571403214
          19 :   -1.08684689638380
          20 :   -6.89319032746857
          21 :    12.3699158000287
          22 :   -14.9272946413629
          23 :    14.5872580053607
          24 :   -11.6582769051931
          25 :    6.81965147679762
          26 :   -1.20415998249382
          27 :   -3.77503074522144
          28 :    6.87777372616114
          29 :   -7.53107524824651
          30 :    6.04120201451411
          31 :   -28.8547018840367
          32 :   -19.7342041935834

     Forces acting on atoms (Ry/au):

     negative rho (up, down):  1.619E-04 0.000E+00
     atom    1 type  1   force =     0.00012353   -0.00040638    0.00430224
     atom    2 type  1   force =    -0.00012209   -0.00073629    0.00447972
     atom    3 type  1   force =    -0.00029076    0.00048783    0.00533972
     atom    4 type  1   force =     0.00014522    0.00051348    0.00519504
     atom    5 type  1   force =     0.00024607    0.00313481    0.00242881
     atom    6 type  1   force =     0.00080715    0.00207592    0.00182472
     atom    7 type  1   force =     0.00080500   -0.00262602   -0.00567541
     atom    8 type  1   force =    -0.00002078   -0.00314788   -0.00595002
     atom    9 type  1   force =     0.04091562    0.00095481    0.03524793
     atom   10 type  1   force =    -0.04284805    0.00195557    0.03483743
     atom   11 type  1   force =    -0.00310554   -0.01557374   -0.00111778
     atom   12 type  1   force =     0.00249668    0.01371098   -0.00095573
     atom   13 type  2   force =     0.00142517   -0.00066221   -0.09851793
     atom   14 type  3   force =     0.01319720   -0.00293218    0.00967262
     atom   15 type  3   force =    -0.01377440    0.00325129    0.00888864

     Total force =     0.129164     Total SCF correction =     0.001416

     entering subroutine stress ...

     negative rho (up, down):  1.619E-04 0.000E+00
          total   stress  (Ry/bohr**3)                   (kbar)     P=   -5.38
  -0.00002941   0.00000235  -0.00000079         -4.33      0.35     -0.12
   0.00000235  -0.00001992   0.00000043          0.35     -2.93      0.06
  -0.00000079   0.00000043  -0.00006030         -0.12      0.06     -8.87

     BFGS Geometry Optimization

     number of scf cycles    =   1
     number of bfgs steps    =   0

     energy   new            =   -1138.2573212884 Ry

     new trust radius        =       0.0985304671 bohr
     new conv_thr            =       0.0000099958 Ry

ATOMIC_POSITIONS (crystal)
Y1       0.166666667   0.166666667   0.386999750    0   0   0
Y1       0.666666667   0.166666667   0.386999750    0   0   0
Y1       0.166666667   0.666666667   0.386999750    0   0   0
Y1       0.666666667   0.666666667   0.386999750    0   0   0
Y1       0.833333333   0.333333333   0.500000000    0   0   0
Y1       0.333333333   0.333333333   0.500000000    0   0   0
Y1       0.833333333   0.833333333   0.500000000    0   0   0
Y1       0.333333333   0.833333333   0.500000000    0   0   0
Y1       0.002986447   0.000081572   0.613722097
Y1       0.496746256   0.000167071   0.613713690
Y1       0.000435486   0.498669487   0.612977358
Y1       0.499599037   0.501171372   0.612980677
C1       0.250133731  -0.000056574   0.688189137
H1       0.288330285   0.101459944   0.714785771
H1       0.211613378   0.898567318   0.714769716

     Writing output data file calc.save
     Check: negative starting charge=   -0.000513
     NEW-OLD atomic charge density approx. for the potential
     Check: negative starting charge=   -0.000514

[...]

     energy   old            =   -1138.2573212884 Ry
     energy   new            =   -1138.2701610021 Ry

     CASE: energy  _new < energy  _old

[...]

     Total force =     0.014789     Total SCF correction =     0.000246

[...]

     Threshold (ethr) on eigenvalues was too large:
     Diagonalizing with lowered threshold

     Davidson diagonalization with overlap
     ethr =  3.69E-08,  avg # of iterations =  4.9

[...]

     Total force =     0.008217     Total SCF correction =     0.000932
     SCF correction compared to forces is large: reduce conv_thr to get better values

[...]

     Threshold (ethr) on eigenvalues was too large:
     Diagonalizing with lowered threshold

     Davidson diagonalization with overlap
     ethr =  6.52E-08,  avg # of iterations =  6.5

[...]

     number of scf cycles    =  23
     number of bfgs steps    =  22

     energy   old            =   -1138.3302147993 Ry
     energy   new            =   -1138.3303190651 Ry

     CASE: energy  _new < energy  _old

     new trust radius        =       0.0200703455 bohr
     new conv_thr            =       0.0000001000 Ry

ATOMIC_POSITIONS (crystal)
Y1       0.166666667   0.166666667   0.386999750    0   0   0
Y1       0.666666667   0.166666667   0.386999750    0   0   0
Y1       0.166666667   0.666666667   0.386999750    0   0   0
Y1       0.666666667   0.666666667   0.386999750    0   0   0
Y1       0.833333333   0.333333333   0.500000000    0   0   0
Y1       0.333333333   0.333333333   0.500000000    0   0   0
Y1       0.833333333   0.833333333   0.500000000    0   0   0
Y1       0.333333333   0.833333333   0.500000000    0   0   0
Y1       0.003565161   0.004439810   0.612478644
Y1       0.489407434   0.004132827   0.612398126
Y1       0.008163893   0.481493584   0.612802257
Y1       0.486408223   0.524472631   0.612811449
C1       0.249586932  -0.001505292   0.672004403
H1       0.370486772   0.000060562   0.698785627
H1       0.128134947   0.998882556   0.698926950

     Writing output data file calc.save
     Check: negative starting charge=   -0.000547
     NEW-OLD atomic charge density approx. for the potential
     Check: negative starting charge=   -0.000546

[...]

     Self-consistent Calculation

[...]

     total energy              =   -1138.33037938 Ry
     Harris-Foulkes estimate   =   -1138.33037943 Ry
     estimated scf accuracy    <       0.00000040 Ry

     iteration # 11     ecut=    36.75 Ry     beta=0.30
     Davidson diagonalization with overlap
     ethr =  2.34E-10,  avg # of iterations =  3.7

[...]

     negative rho (up, down):  1.547E-04 0.000E+00

     Adding external electric field

     Computed dipole along edir(3) :
        Dipole                0.0430 Ry au,          0.1093 Debye
        Dipole field          0.0001 Ry au

        Potential amp.       -0.0067 Ry
        Total length         47.6094 bohr

     End of self-consistent calculation

[...]

          k = 0.0466-0.0538 0.0000 ( 29098 PWs)   bands (ev):

[...]

          k =-0.0699-0.0404 0.0000 ( 29048 PWs)   bands (ev):

   -42.3103 -42.2579 -42.1970 -42.1957 -42.1750 -42.1741 -41.8890 -41.8799
   -41.6706 -41.6260 -41.6213 -41.5722 -22.3380 -22.2823 -22.2731 -22.2470
   -22.2422 -22.2274 -22.2136 -22.2124 -22.1911 -22.1747 -22.1737 -22.1577
   -22.1158 -22.1146 -22.0829 -22.0817 -21.9791 -21.9542 -21.9496 -21.9480
   -21.8758 -21.8049 -21.7858 -21.7553 -21.7144 -21.6795 -21.6115 -21.5857
   -21.5719 -21.5632 -21.5424 -21.5400 -21.5220 -21.4833 -21.4426 -21.4039
   -11.3588  -5.5770  -2.7820  -1.9439  -1.8760  -1.3228  -0.9544  -0.8113
    -0.2624  -0.2479  -0.0341   0.0101   0.1838   0.2038   0.8414   0.8591
     0.8869   0.9425   0.9585   0.9862   1.1326   1.1685   1.2209   1.2524
     1.2784   1.3367   1.5031   1.5576   1.6014   1.6211   1.6629

     the Fermi energy is     1.1300 ev

!    total energy              =   -1138.33037936 Ry
     Harris-Foulkes estimate   =   -1138.33037941 Ry
     estimated scf accuracy    <       0.00000005 Ry

     The total energy is the sum of the following terms:

     one-electron contribution =   -5579.77731451 Ry
     hartree contribution      =    2784.32777285 Ry
     xc contribution           =    -344.16594080 Ry
     ewald contribution        =    2001.41000229 Ry
     electric field correction =       0.00000301 Ry
     smearing contrib. (-TS)   =      -0.12490220 Ry

     convergence has been achieved in  11 iterations

 BEEF-vdW xc energy contributions
           1 :   -300.058089307699
           2 :    269.434457924126
           3 :   -216.730238983682
           4 :    154.904346549400
           5 :   -95.9965859398217
           6 :    47.5698256638303
           7 :   -12.1812505066468
           8 :   -10.8577206662502
           9 :    23.2222897046299
          10 :   -26.3291004899389
          11 :    21.4748331047435
          12 :   -10.6779649241089
          13 :   -2.82347684057487
          14 :    15.0448259110477
          15 :   -22.5233321291965
          16 :    23.5849713254082
          17 :   -18.8054472040916
          18 :    10.4223396388730
          19 :   -1.15176828504946
          20 :   -6.84283022281733
          21 :    12.3486799333607
          22 :   -14.9299542728544
          23 :    14.5929805136528
          24 :   -11.6464314181399
          25 :    6.78622819138201
          26 :   -1.16601710645949
          27 :   -3.79248951171036
          28 :    6.85968970728629
          29 :   -7.48269948086767
          30 :    5.98027853610353
          31 :   -28.8678265141777
          32 :   -19.7654182371913

     Forces acting on atoms (Ry/au):

     negative rho (up, down):  1.547E-04 0.000E+00
     atom    1 type  1   force =     0.00000400   -0.00031774    0.00372123
     atom    2 type  1   force =     0.00002336   -0.00109114    0.00516040
     atom    3 type  1   force =    -0.00084274    0.00049877    0.00576928
     atom    4 type  1   force =     0.00086323    0.00047210    0.00576186
     atom    5 type  1   force =    -0.00068759    0.00321431    0.00009823
     atom    6 type  1   force =     0.00029893    0.00319486    0.00007482
     atom    7 type  1   force =    -0.00012029   -0.00646255   -0.00797262
     atom    8 type  1   force =    -0.00025382    0.00049616   -0.01282195
     atom    9 type  1   force =     0.00045115    0.00020275   -0.00045919
     atom   10 type  1   force =     0.00009630    0.00029878   -0.00051359
     atom   11 type  1   force =     0.00005094    0.00085380    0.00007300
     atom   12 type  1   force =     0.00024282   -0.00062669    0.00020266
     atom   13 type  2   force =     0.00004817   -0.00050600    0.00157600
     atom   14 type  3   force =    -0.00144853   -0.00019178   -0.00027745
     atom   15 type  3   force =     0.00127409   -0.00003561   -0.00039266

     Total force =     0.002963     Total SCF correction =     0.000482
     SCF correction compared to forces is large: reduce conv_thr to get better values

     entering subroutine stress ...

     negative rho (up, down):  1.547E-04 0.000E+00
          total   stress  (Ry/bohr**3)                   (kbar)     P=   -2.41
  -0.00001260   0.00000029   0.00000040         -1.85      0.04      0.06
   0.00000029  -0.00002076  -0.00000002          0.04     -3.05     -0.00
   0.00000040  -0.00000002  -0.00001588          0.06     -0.00     -2.34

     bfgs converged in  24 scf cycles and  23 bfgs steps
     (criteria: energy <  1.0E+00, force <  1.9E-03)

     End of BFGS Geometry Optimization

     Final energy   =   -1138.3303793628 Ry
Begin final coordinates

ATOMIC_POSITIONS (crystal)
Y1       0.166666667   0.166666667   0.386999750    0   0   0
Y1       0.666666667   0.166666667   0.386999750    0   0   0
Y1       0.166666667   0.666666667   0.386999750    0   0   0
Y1       0.666666667   0.666666667   0.386999750    0   0   0
Y1       0.833333333   0.333333333   0.500000000    0   0   0
Y1       0.333333333   0.333333333   0.500000000    0   0   0
Y1       0.833333333   0.833333333   0.500000000    0   0   0
Y1       0.333333333   0.833333333   0.500000000    0   0   0
Y1       0.003565161   0.004439810   0.612478644
Y1       0.489407434   0.004132827   0.612398126
Y1       0.008163893   0.481493584   0.612802257
Y1       0.486408223   0.524472631   0.612811449
C1       0.249586932  -0.001505292   0.672004403
H1       0.370486772   0.000060562   0.698785627
H1       0.128134947   0.998882556   0.698926950
End final coordinates

     Writing output data file calc.save

     General routines

     Parallel routines

   This run was terminated on:   4: 2:37  25Apr2018

   JOB DONE.
Job  /afs/slac/g/suncat/bin/suncat-tsmpirun -x LD_LIBRARY_PATH -wdir /scratch/qe256283_p8jsv pw.x -npool 4 -in pw.inp

TID   HOST_NAME   COMMAND_LINE            STATUS            TERMINATION_TIME
00000 suncat0216 pw.x -npool 4 -i  Done                     04/25/2018 04:02:37
00001 suncat0216 pw.x -npool 4 -i  Done                     04/25/2018 04:02:37
00002 suncat0216 pw.x -npool 4 -i  Done                     04/25/2018 04:02:37
00003 suncat0216 pw.x -npool 4 -i  Done                     04/25/2018 04:02:37
00004 suncat0216 pw.x -npool 4 -i  Done                     04/25/2018 04:02:37
00005 suncat0216 pw.x -npool 4 -i  Done                     04/25/2018 04:02:37
00006 suncat0216 pw.x -npool 4 -i  Done                     04/25/2018 04:02:37
00007 suncat0216 pw.x -npool 4 -i  Done                     04/25/2018 04:02:37
00008 suncat0214 pw.x -npool 4 -i  Done                     04/25/2018 04:02:37
00009 suncat0214 pw.x -npool 4 -i  Done                     04/25/2018 04:02:37
00010 suncat0214 pw.x -npool 4 -i  Done                     04/25/2018 04:02:37
00011 suncat0214 pw.x -npool 4 -i  Done                     04/25/2018 04:02:37
00012 suncat0214 pw.x -npool 4 -i  Done                     04/25/2018 04:02:37
00013 suncat0214 pw.x -npool 4 -i  Done                     04/25/2018 04:02:37
00014 suncat0214 pw.x -npool 4 -i  Done                     04/25/2018 04:02:37
00015 suncat0214 pw.x -npool 4 -i  Done                     04/25/2018 04:02:37
00016 suncat0201 pw.x -npool 4 -i  Done                     04/25/2018 04:02:37
00017 suncat0201 pw.x -npool 4 -i  Done                     04/25/2018 04:02:37
00018 suncat0201 pw.x -npool 4 -i  Done                     04/25/2018 04:02:37
00019 suncat0201 pw.x -npool 4 -i  Done                     04/25/2018 04:02:37
00020 suncat0201 pw.x -npool 4 -i  Done                     04/25/2018 04:02:37
00021 suncat0201 pw.x -npool 4 -i  Done                     04/25/2018 04:02:37
00022 suncat0201 pw.x -npool 4 -i  Done                     04/25/2018 04:02:37
00023 suncat0201 pw.x -npool 4 -i  Done                     04/25/2018 04:02:37
00024 suncat0099 pw.x -npool 4 -i  Done                     04/25/2018 04:02:37
00025 suncat0099 pw.x -npool 4 -i  Done                     04/25/2018 04:02:37
00026 suncat0099 pw.x -npool 4 -i  Done                     04/25/2018 04:02:37
00027 suncat0099 pw.x -npool 4 -i  Done                     04/25/2018 04:02:37
00028 suncat0099 pw.x -npool 4 -i  Done                     04/25/2018 04:02:37
00029 suncat0099 pw.x -npool 4 -i  Done                     04/25/2018 04:02:37
00030 suncat0099 pw.x -npool 4 -i  Done                     04/25/2018 04:02:37
00031 suncat0099 pw.x -npool 4 -i  Done                     04/25/2018 04:02:37