     Program PWSCF v.5.1rc2 (svn rev. 11289) starts on 16Jan2018 at 10:11:10

     Current dimensions of program PWSCF are:
     Max number of different atomic species (ntypx) = 10
     Max number of k-points (npk) =  40000
     Max angular momentum in pseudopotentials (lmaxx) =  3
     Presently stress not available with electric field

     IMPORTANT: XC functional enforced from input :
     Exchange-correlation      = BEEF-VDW ( 1  4 27 13 2)
     Any further DFT definition will be discarded
     Please, verify this is what you really want

     Subspace diagonalization in iterative solution of the eigenvalue problem:
     a serial algorithm will be used

     bravais-lattice index     =            0
     lattice parameter (alat)  =       1.8897  a.u.
     unit-cell volume          =    4228.3700 (a.u.)^3
     number of atoms/cell      =           13
     number of atomic types    =            2
     number of electrons       =       193.00
     number of Kohn-Sham states=          106
     kinetic-energy cutoff     =      36.7493  Ry
     charge density cutoff     =     367.4932  Ry
     convergence threshold     =      1.0E-05
     mixing beta               =       0.3000
     number of iterations used =           10  plain     mixing
     Exchange-correlation      = BEEF-VDW ( 1  4 27 13 2)
     nstep                     =           50

     celldm(1)=   1.889726  celldm(2)=   0.000000  celldm(3)=   0.000000
     celldm(4)=   0.000000  celldm(5)=   0.000000  celldm(6)=   0.000000

     crystal axes: (cart. coord. in units of alat)
               a(1) = (   5.440665   0.000000   0.000000 )
               a(2) = (   2.720332   4.711754   0.000000 )
               a(3) = (   0.000000   0.000000  24.442284 )

     reciprocal axes: (cart. coord. in units 2 pi/alat)
               b(1) = (  0.183801 -0.106118  0.000000 )
               b(2) = (  0.000000  0.212235  0.000000 )
               b(3) = (  0.000000  0.000000  0.040913 )

     PseudoPot. # 1 for Os read from file:
     /afs/slac.stanford.edu/u/if/mamunm/psp/gbrv1.5pbe/Os.UPF
     MD5 check sum: a3fb40a04f0c37c25c34bbc47164c9a8
     Pseudo is Ultrasoft + core correction, Zval = 16.0
     Generated by new atomic code, or converted to UPF format
     Using radial grid of  983 points,  8 beta functions with:
                l(1) =   0
                l(2) =   0
                l(3) =   1
                l(4) =   1
                l(5) =   2
                l(6) =   2
                l(7) =   3
                l(8) =   3
     Q(r) pseudized with  8 coefficients,  rinner =    1.150   1.150   1.150
                                                       1.150   1.150   1.150
                                                       1.150

     PseudoPot. # 2 for H  read from file:
     /afs/slac.stanford.edu/u/if/mamunm/psp/gbrv1.5pbe/H.UPF
     MD5 check sum: 761ae9a214b05c3daf00ab9f6b793d6f
     Pseudo is Ultrasoft, Zval =  1.0
     Generated by new atomic code, or converted to UPF format
     Using radial grid of  615 points,  2 beta functions with:
                l(1) =   0
                l(2) =   0
     Q(r) pseudized with  8 coefficients,  rinner =    0.700

     vdW kernel table read from file vdW_kernel_table
     MD5 check sum: 095c7af220d748ca6e76c0b4c6cfb241

     atomic species   valence    mass     pseudopotential
        Os1           16.00   190.23000     Os( 1.00)
        H1             1.00     1.00800     H ( 1.00)

     No symmetry found

   Cartesian axes

     site n.     atom                  positions (alat units)
         1           Os1 tau(   1) = (   1.3601662   0.7852923  10.0000000  )
         2           Os1 tau(   2) = (   4.0804987   0.7852923  10.0000000  )
         3           Os1 tau(   3) = (   2.7203325   3.1411694  10.0000000  )
         4           Os1 tau(   4) = (   5.4406649   3.1411694  10.0000000  )
         5           Os1 tau(   5) = (   5.4406649   1.5705847  12.2211422  )
         6           Os1 tau(   6) = (   2.7203325   1.5705847  12.2211422  )
         7           Os1 tau(   7) = (   6.8008312   3.9264617  12.2211422  )
         8           Os1 tau(   8) = (   4.0804987   3.9264617  12.2211422  )
         9           Os1 tau(   9) = (   0.0000000   0.0000000  14.4422843  )
        10           Os1 tau(  10) = (   2.7203325   0.0000000  14.4422843  )
        11           Os1 tau(  11) = (   1.3601662   2.3558770  14.4422843  )
        12           Os1 tau(  12) = (   4.0804987   2.3558770  14.4422843  )
        13           H1  tau(  13) = (   2.7203325   1.5705847  16.1922843  )

     number of k points=    20  Fermi-Dirac smearing, width (Ry)=  0.0110
                       cart. coord. in units 2pi/alat
        k(    1) = (   0.0000000   0.0000000   0.0000000), wk =   0.0555556
        k(    2) = (   0.0000000   0.0353725   0.0000000), wk =   0.1111111
        k(    3) = (   0.0000000   0.0707451   0.0000000), wk =   0.1111111
        k(    4) = (   0.0000000  -0.1061176   0.0000000), wk =   0.0555556
        k(    5) = (   0.0306335  -0.0176863   0.0000000), wk =   0.1111111
        k(    6) = (   0.0306335   0.0176863   0.0000000), wk =   0.1111111
        k(    7) = (   0.0306335   0.0530588   0.0000000), wk =   0.1111111
        k(    8) = (   0.0306335  -0.1238039   0.0000000), wk =   0.1111111
        k(    9) = (   0.0306335  -0.0884313   0.0000000), wk =   0.1111111
        k(   10) = (   0.0306335  -0.0530588   0.0000000), wk =   0.1111111
        k(   11) = (   0.0612670  -0.0353725   0.0000000), wk =   0.1111111
        k(   12) = (   0.0612670   0.0000000   0.0000000), wk =   0.1111111
        k(   13) = (   0.0612670   0.0353725   0.0000000), wk =   0.1111111
        k(   14) = (   0.0612670  -0.1414901   0.0000000), wk =   0.1111111
        k(   15) = (   0.0612670  -0.1061176   0.0000000), wk =   0.1111111
        k(   16) = (   0.0612670  -0.0707451   0.0000000), wk =   0.1111111
        k(   17) = (  -0.0919005   0.0530588   0.0000000), wk =   0.0555556
        k(   18) = (  -0.0919005   0.0884313   0.0000000), wk =   0.1111111
        k(   19) = (  -0.0919005   0.1238039   0.0000000), wk =   0.1111111
        k(   20) = (  -0.0919005  -0.0530588   0.0000000), wk =   0.0555556

     Largest allocated arrays     est. size (Mb)     dimensions
     Largest temporary arrays     est. size (Mb)     dimensions

     Initial potential from superposition of free atoms
     Check: negative starting charge=   -1.495835

     starting charge  186.99955, renormalised to  193.00000

     negative rho (up, down):  1.544E+00 0.000E+00

     *
     * You are using vdW-DF for exchange-correlation in this calculation.
     * Please cite the following three references that made this development
     * possible:
     *
     *   M. Dion, H. Rydberg, E. Schroder, D. C. Langreth, and
     *   B. I. Lundqvist, Phys. Rev. Lett. 92, 246401 (2004).
     *
     *   T. Thonhauser, V. R. Cooper, S. Li, A. Puzder, P. Hyldgaard, and
     *   D. C. Langreth, Phys. Rev. B 76, 125112 (2007).
     *
     *   G. Roman-Perez and J. M. Soler, Phys. Rev. Lett. 103, 096102 (2009).
     *
     *
     * If you are using vdW-DF2, please also cite:
     *
     *   K. Lee, E. D. Murray, L. Kong, B. I. Lundqvist, and
     *   D. C. Langreth, Phys. Rev. B 82, 081101(R) (2010).
     *
     *
     * If you are calculating the stress with vdW-DF, please also cite:
     *
     *   R. Sabatini, E. Kucukbenli, B. Kolb, T. Thonhauser, and
     *   S. de Gironcoli, J. Phys.: Condens. Matter 24, 424209 (2012).
     *

     Carrying out vdW-DF run using the following parameters:

     Nqs =      20    Nr_points =    1024   r_max =   100.000
     q_mesh =
               0.00001000     0.04494208     0.09755937     0.15916263
               0.23128650     0.31572767     0.41458969     0.53033537
               0.66584808     0.82450364     1.01025438     1.22772762
               1.48234092     1.78043706     2.12944203     2.53805004
               3.01644009     3.57652955     4.23227104     5.00000000

     Gradients computed in reciprocal space

     Adding external electric field

     Computed dipole along edir(3) :
        Dipole               -0.2407 Ry au,         -0.6119 Debye
        Dipole field         -0.0007 Ry au

        Potential amp.        0.0644 Ry
        Total length         45.0345 bohr

     Starting wfc are  157 randomized atomic wfcs

     Self-consistent Calculation

     iteration #  1     ecut=    36.75 Ry     beta=0.30
     Davidson diagonalization with overlap
     ethr =  1.00E-02,  avg # of iterations =  2.0

[...]

     total energy              =   -2397.51813502 Ry
     Harris-Foulkes estimate   =   -2399.15635472 Ry
     estimated scf accuracy    <       3.76892438 Ry

[...]

     End of self-consistent calculation

          k = 0.0000 0.0000 0.0000 ( 15845 PWs)   bands (ev):

   -84.0589 -84.0039 -83.9786 -83.9783 -83.6106 -83.5608 -83.5603 -83.5600
   -83.5064 -83.5046 -83.5041 -83.4972 -43.7217 -43.7216 -43.7087 -43.5473
   -43.4461 -43.4180 -43.4178 -43.2118 -43.1872 -43.1870 -43.1221 -43.1220
   -43.1078 -43.0512 -43.0296 -43.0294 -42.9261 -42.9261 -42.8946 -42.8127
   -42.8124 -42.7680 -42.7220 -42.7217 -42.7119 -42.6865 -42.6456 -42.6410
   -42.6408 -42.6008 -42.5946 -42.5944 -42.4636 -42.4635 -42.4213 -42.4213
    -6.6688  -4.7415  -4.2557  -3.8962  -3.8912  -3.8912  -3.6000  -3.5561
    -3.5561  -2.9713  -2.9635  -2.9634  -2.7480  -2.6782  -2.6782  -1.4902
    -1.1277  -1.1276  -0.5652  -0.3276  -0.3276  -0.1585  -0.0658   0.1499
     0.1499   0.6504   0.6680   0.6680   0.6868   0.6868   0.6936   0.9984
     0.9984   1.0151   1.0153   1.0427   2.3460   2.5515   2.5516   2.7175
     2.7176   2.7229   2.9568   3.0106   3.0106   3.7273   3.7273   3.9969
     4.2090   4.2092   4.2995   4.4385   4.4386   4.6321   4.6321   4.6436
     4.8687   4.8687

[...]

          k =-0.0919 0.0531 0.0000 ( 15968 PWs)   bands (ev):

[...]

     the Fermi energy is     3.0394 ev

!    total energy              =   -2398.44418265 Ry
     Harris-Foulkes estimate   =   -2398.44418396 Ry
     estimated scf accuracy    <       0.00000160 Ry

     The total energy is the sum of the following terms:

     one-electron contribution =  -21520.01767106 Ry
     hartree contribution      =   10742.35067410 Ry
     xc contribution           =    -464.93462717 Ry
     ewald contribution        =    8844.22303740 Ry
     electric field correction =       0.00000148 Ry
     smearing contrib. (-TS)   =      -0.06559741 Ry

     convergence has been achieved in  16 iterations

 BEEF-vdW xc energy contributions
           1 :   -407.370443354984
           2 :    377.580956707317
           3 :   -324.927378569437
           4 :    260.825523563561
           5 :   -197.634384294365
           6 :    145.260281525298
           7 :   -108.920885322489
           8 :    88.6001515671160
           9 :   -80.1789903661017
          10 :    77.6366438415377
          11 :   -75.4222009248491
          12 :    70.1488245759978
          13 :   -61.1598127221435
          14 :    49.9980327146711
          15 :   -39.2055753069432
          16 :    31.0213379416285
          17 :   -26.4797180122392
[...]
00030 suncat2040 pw.x -in pw.inp   Done                     01/16/2018 10:16:07
00031 suncat2040 pw.x -in pw.inp   Done                     01/16/2018 10:16:07

[...]

   This run was terminated on:  10:20:42  16Jan2018

[...]

     Total force =     0.094540     Total SCF correction =     0.010090
     SCF correction compared to forces is large: reduce conv_thr to get better values

[...]

     Total force =     0.085285     Total SCF correction =     0.010496
     SCF correction compared to forces is large: reduce conv_thr to get better values

[...]

     Program PWSCF v.5.1rc2 (svn rev. 11289) starts on 16Jan2018 at 10:33:47

     Current dimensions of program PWSCF are:
     Max number of different atomic species (ntypx) = 10
     Max number of k-points (npk) =  40000
     Max angular momentum in pseudopotentials (lmaxx) =  3
     Presently stress not available with electric field

     IMPORTANT: XC functional enforced from input :
     Exchange-correlation      = BEEF-VDW ( 1  4 27 13 2)
     Any further DFT definition will be discarded
     Please, verify this is what you really want

     Subspace diagonalization in iterative solution of the eigenvalue problem:
     a serial algorithm will be used

     bravais-lattice index     =            0
     lattice parameter (alat)  =       1.8897  a.u.
     unit-cell volume          =    4228.3700 (a.u.)^3
     number of atoms/cell      =           13
     number of atomic types    =            2
     number of electrons       =       193.00
     number of Kohn-Sham states=          106
     kinetic-energy cutoff     =      36.7493  Ry
     charge density cutoff     =     367.4932  Ry
     convergence threshold     =      1.0E-05
     mixing beta               =       0.3000
     number of iterations used =           10  plain     mixing
     Exchange-correlation      = BEEF-VDW ( 1  4 27 13 2)
     nstep                     =           50

     celldm(1)=   1.889726  celldm(2)=   0.000000  celldm(3)=   0.000000
     celldm(4)=   0.000000  celldm(5)=   0.000000  celldm(6)=   0.000000

     crystal axes: (cart. coord. in units of alat)
               a(1) = (   5.440665   0.000000   0.000000 )
               a(2) = (   2.720332   4.711754   0.000000 )
               a(3) = (   0.000000   0.000000  24.442284 )

     reciprocal axes: (cart. coord. in units 2 pi/alat)
               b(1) = (  0.183801 -0.106118  0.000000 )
               b(2) = (  0.000000  0.212235  0.000000 )
               b(3) = (  0.000000  0.000000  0.040913 )

     PseudoPot. # 1 for Os read from file:
     /afs/slac.stanford.edu/u/if/mamunm/psp/gbrv1.5pbe/Os.UPF
     MD5 check sum: a3fb40a04f0c37c25c34bbc47164c9a8
     Pseudo is Ultrasoft + core correction, Zval = 16.0
     Generated by new atomic code, or converted to UPF format
     Using radial grid of  983 points,  8 beta functions with:
                l(1) =   0
                l(2) =   0
                l(3) =   1
                l(4) =   1
                l(5) =   2
                l(6) =   2
                l(7) =   3
                l(8) =   3
     Q(r) pseudized with  8 coefficients,  rinner =    1.150   1.150   1.150
                                                       1.150   1.150   1.150
                                                       1.150

     PseudoPot. # 2 for H  read from file:
     /afs/slac.stanford.edu/u/if/mamunm/psp/gbrv1.5pbe/H.UPF
     MD5 check sum: 761ae9a214b05c3daf00ab9f6b793d6f
     Pseudo is Ultrasoft, Zval =  1.0
     Generated by new atomic code, or converted to UPF format
     Using radial grid of  615 points,  2 beta functions with:
                l(1) =   0
                l(2) =   0
     Q(r) pseudized with  8 coefficients,  rinner =    0.700

     vdW kernel table read from file vdW_kernel_table
     MD5 check sum: 095c7af220d748ca6e76c0b4c6cfb241

     atomic species   valence    mass     pseudopotential
        Os1           16.00   190.23000     Os( 1.00)
        H1             1.00     1.00800     H ( 1.00)

     No symmetry found

   Cartesian axes

     site n.     atom                  positions (alat units)
         1           Os1 tau(   1) = (   1.3601662   0.7852923  10.0000000  )
         2           Os1 tau(   2) = (   4.0804987   0.7852923  10.0000000  )
         3           Os1 tau(   3) = (   2.7203325   3.1411694  10.0000000  )
         4           Os1 tau(   4) = (   5.4406649   3.1411694  10.0000000  )
         5           Os1 tau(   5) = (   5.4406649   1.5705847  12.2211422  )
         6           Os1 tau(   6) = (   2.7203325   1.5705847  12.2211422  )
         7           Os1 tau(   7) = (   6.8008312   3.9264617  12.2211422  )
         8           Os1 tau(   8) = (   4.0804987   3.9264617  12.2211422  )
         9           Os1 tau(   9) = (   2.7204373   4.7114781  14.3432688  )
        10           Os1 tau(  10) = (   5.4406661   4.6673241  14.3784658  )
        11           Os1 tau(  11) = (   6.7625991   2.3781622  14.3788943  )
        12           Os1 tau(  12) = (   4.1188996   2.3782433  14.3785924  )
        13           H1  tau(  13) = (   2.7202692   1.5705597  15.4224524  )

     number of k points=    20  Fermi-Dirac smearing, width (Ry)=  0.0110
                       cart. coord. in units 2pi/alat
        k(    1) = (   0.0000000   0.0000000   0.0000000), wk =   0.0555556
        k(    2) = (   0.0000000   0.0353725   0.0000000), wk =   0.1111111
        k(    3) = (   0.0000000   0.0707451   0.0000000), wk =   0.1111111
        k(    4) = (   0.0000000  -0.1061176   0.0000000), wk =   0.0555556
        k(    5) = (   0.0306335  -0.0176863   0.0000000), wk =   0.1111111
        k(    6) = (   0.0306335   0.0176863   0.0000000), wk =   0.1111111
        k(    7) = (   0.0306335   0.0530588   0.0000000), wk =   0.1111111
        k(    8) = (   0.0306335  -0.1238039   0.0000000), wk =   0.1111111
        k(    9) = (   0.0306335  -0.0884313   0.0000000), wk =   0.1111111
        k(   10) = (   0.0306335  -0.0530588   0.0000000), wk =   0.1111111
        k(   11) = (   0.0612670  -0.0353725   0.0000000), wk =   0.1111111
        k(   12) = (   0.0612670   0.0000000   0.0000000), wk =   0.1111111
        k(   13) = (   0.0612670   0.0353725   0.0000000), wk =   0.1111111
        k(   14) = (   0.0612670  -0.1414901   0.0000000), wk =   0.1111111
        k(   15) = (   0.0612670  -0.1061176   0.0000000), wk =   0.1111111
        k(   16) = (   0.0612670  -0.0707451   0.0000000), wk =   0.1111111
        k(   17) = (  -0.0919005   0.0530588   0.0000000), wk =   0.0555556
        k(   18) = (  -0.0919005   0.0884313   0.0000000), wk =   0.1111111
        k(   19) = (  -0.0919005   0.1238039   0.0000000), wk =   0.1111111
        k(   20) = (  -0.0919005  -0.0530588   0.0000000), wk =   0.0555556

     Largest allocated arrays     est. size (Mb)     dimensions
     Largest temporary arrays     est. size (Mb)     dimensions

     Initial potential from superposition of free atoms
     Check: negative starting charge=   -1.489607

     starting charge  186.99955, renormalised to  193.00000

[...]

     *
     * You are using vdW-DF for exchange-correlation in this calculation.
     * Please cite the following three references that made this development
     * possible:
     *
     *   M. Dion, H. Rydberg, E. Schroder, D. C. Langreth, and
     *   B. I. Lundqvist, Phys. Rev. Lett. 92, 246401 (2004).
     *
     *   T. Thonhauser, V. R. Cooper, S. Li, A. Puzder, P. Hyldgaard, and
     *   D. C. Langreth, Phys. Rev. B 76, 125112 (2007).
     *
     *   G. Roman-Perez and J. M. Soler, Phys. Rev. Lett. 103, 096102 (2009).
     *
     *
     * If you are using vdW-DF2, please also cite:
     *
     *   K. Lee, E. D. Murray, L. Kong, B. I. Lundqvist, and
     *   D. C. Langreth, Phys. Rev. B 82, 081101(R) (2010).
     *
     *
     * If you are calculating the stress with vdW-DF, please also cite:
     *
     *   R. Sabatini, E. Kucukbenli, B. Kolb, T. Thonhauser, and
     *   S. de Gironcoli, J. Phys.: Condens. Matter 24, 424209 (2012).
     *

     Carrying out vdW-DF run using the following parameters:

     Nqs =      20    Nr_points =    1024   r_max =   100.000
     q_mesh =
               0.00001000     0.04494208     0.09755937     0.15916263
               0.23128650     0.31572767     0.41458969     0.53033537
               0.66584808     0.82450364     1.01025438     1.22772762
               1.48234092     1.78043706     2.12944203     2.53805004
               3.01644009     3.57652955     4.23227104     5.00000000

     Gradients computed in reciprocal space

[...]

     Starting wfc are  157 randomized atomic wfcs

     Self-consistent Calculation

[...]

     total energy              =   -2398.51295412 Ry
     Harris-Foulkes estimate   =   -2398.51295592 Ry
     estimated scf accuracy    <       0.00001164 Ry

     iteration # 14     ecut=    36.75 Ry     beta=0.30
     Davidson diagonalization with overlap
     ethr =  6.03E-09,  avg # of iterations =  3.9

[...]

     negative rho (up, down):  1.509E+00 0.000E+00

     Adding external electric field

     Computed dipole along edir(3) :
        Dipole                0.0576 Ry au,          0.1463 Debye
        Dipole field          0.0002 Ry au

        Potential amp.       -0.0154 Ry
        Total length         45.0345 bohr

     End of self-consistent calculation

[...]

          k = 0.0613-0.0707 0.0000 ( 15922 PWs)   bands (ev):

[...]

          k =-0.0919-0.0531 0.0000 ( 15968 PWs)   bands (ev):

   -84.0039 -83.9942 -83.9724 -83.9477 -83.5865 -83.5659 -83.5515 -83.4859
   -83.4543 -83.4519 -83.4247 -83.4225 -43.5808 -43.5588 -43.4883 -43.4606
   -43.4041 -43.3672 -43.3470 -43.3347 -43.2871 -43.2700 -43.1007 -43.0174
   -43.0039 -43.0005 -42.9399 -42.8925 -42.8902 -42.8374 -42.8098 -42.7891
   -42.7624 -42.7551 -42.7461 -42.7194 -42.7126 -42.7057 -42.6614 -42.6590
   -42.6409 -42.6360 -42.6237 -42.6125 -42.5853 -42.5143 -42.4346 -42.4323
    -4.9922  -4.7377  -4.0945  -3.1402  -2.8580  -2.8319  -2.7548  -2.6891
    -2.6690  -2.6236  -2.2631  -1.9996  -1.9698  -1.6290  -1.5451  -1.4936
    -1.3480  -1.1237  -1.0943  -1.0586  -0.9826  -0.5680  -0.5606  -0.0474
     0.0486   0.2536   0.2807   0.3177   0.4105   0.4670   0.5181   0.6578
     0.7046   0.7601   0.8741   0.8761   0.9539   0.9869   1.0060   1.0862
     1.8946   1.9549   2.0305   2.1067   2.3134   2.3185   2.5993   2.6181
     2.8204   3.0421   3.0969   3.1637   3.1795   3.2862   3.4871   3.5940
     3.7899   3.8528

     the Fermi energy is     3.0952 ev

!    total energy              =   -2398.51295355 Ry
     Harris-Foulkes estimate   =   -2398.51295601 Ry
     estimated scf accuracy    <       0.00000255 Ry

     The total energy is the sum of the following terms:

     one-electron contribution =  -21793.88204187 Ry
     hartree contribution      =   10879.48939081 Ry
     xc contribution           =    -465.31524149 Ry
     ewald contribution        =    8981.25690641 Ry
     electric field correction =       0.00000985 Ry
     smearing contrib. (-TS)   =      -0.06197725 Ry

     convergence has been achieved in  14 iterations

 BEEF-vdW xc energy contributions
           1 :   -407.753823999048
           2 :    378.081111356632
           3 :   -325.581260846456
           4 :    261.565674184571
           5 :   -198.319706740206
           6 :    145.740840265194
           7 :   -109.109480269920
           8 :    88.5164835714442
           9 :   -79.9433470878799
          10 :    77.4163267578195
          11 :   -75.3577560782471
          12 :    70.2948386505918
          13 :   -61.4674496032358
          14 :    50.3447727916569
          15 :   -39.4552314156001
          16 :    31.0861698148365
          17 :   -26.3568941358814
          18 :    24.9369379647239
          19 :   -25.4028198682250
          20 :    25.9786595332932
          21 :   -25.3015086794140
          22 :    22.8941439311593
          23 :   -19.2006879243025
          24 :    15.2345813426011
          25 :   -12.0436500591171
          26 :    10.2406150953168
          27 :   -9.79148489762247
          28 :    10.1165843398757
          29 :   -10.4211649800117
          30 :    10.0800141228967
          31 :   -38.6236773984394
          32 :   -29.5271584655272

     Forces acting on atoms (Ry/au):

     negative rho (up, down):  1.509E+00 0.000E+00
     atom    1 type  1   force =     0.00040975    0.00024929    0.03176165
     atom    2 type  1   force =    -0.00040958    0.00024635    0.03179820
     atom    3 type  1   force =    -0.00000212   -0.00047940    0.03172679
     atom    4 type  1   force =     0.00000092   -0.00001274    0.02378443
     atom    5 type  1   force =     0.00010765   -0.00096554   -0.02888828
     atom    6 type  1   force =    -0.00009306    0.00003232   -0.03207951
     atom    7 type  1   force =     0.00086810    0.00041014   -0.02889682
     atom    8 type  1   force =    -0.00085832    0.00052671   -0.02899636
     atom    9 type  1   force =    -0.00003052    0.00013515   -0.00075794
     atom   10 type  1   force =     0.00003526    0.00164012    0.00091965
     atom   11 type  1   force =     0.00132445   -0.00086262    0.00070944
     atom   12 type  1   force =    -0.00135561   -0.00091760    0.00085488
     atom   13 type  2   force =     0.00000309   -0.00000218   -0.00193613

     Total force =     0.084555     Total SCF correction =     0.007051

     entering subroutine stress ...

     negative rho (up, down):  1.509E+00 0.000E+00
          total   stress  (Ry/bohr**3)                   (kbar)     P=  -21.75
  -0.00015711   0.00000000  -0.00000005        -23.11      0.00     -0.01
   0.00000000  -0.00015708   0.00000001          0.00    -23.11      0.00
  -0.00000005   0.00000001  -0.00012945         -0.01      0.00    -19.04

 !ASE

     Writing output data file calc.save

     General routines

     Parallel routines

   This run was terminated on:  10:38:14  16Jan2018

   JOB DONE.
Job  /afs/slac/g/suncat/bin/suncat-tsmpirun -x LD_LIBRARY_PATH -wdir /scratch/qe842464_IMP2j pw.x -in pw.inp

TID   HOST_NAME   COMMAND_LINE            STATUS            TERMINATION_TIME
00000 suncat2041 pw.x -in pw.inp   Done                     01/16/2018 10:38:14
00001 suncat2041 pw.x -in pw.inp   Done                     01/16/2018 10:38:14
00002 suncat2041 pw.x -in pw.inp   Done                     01/16/2018 10:38:14
00003 suncat2041 pw.x -in pw.inp   Done                     01/16/2018 10:38:14
00004 suncat2041 pw.x -in pw.inp   Done                     01/16/2018 10:38:14
00005 suncat2041 pw.x -in pw.inp   Done                     01/16/2018 10:38:14
00006 suncat2041 pw.x -in pw.inp   Done                     01/16/2018 10:38:14
00007 suncat2041 pw.x -in pw.inp   Done                     01/16/2018 10:38:14
00008 suncat2041 pw.x -in pw.inp   Done                     01/16/2018 10:38:14
00009 suncat2041 pw.x -in pw.inp   Done                     01/16/2018 10:38:14
00010 suncat2041 pw.x -in pw.inp   Done                     01/16/2018 10:38:14
00011 suncat2041 pw.x -in pw.inp   Done                     01/16/2018 10:38:14
00012 suncat2041 pw.x -in pw.inp   Done                     01/16/2018 10:38:14
00013 suncat2041 pw.x -in pw.inp   Done                     01/16/2018 10:38:14
00014 suncat2041 pw.x -in pw.inp   Done                     01/16/2018 10:38:14
00015 suncat2041 pw.x -in pw.inp   Done                     01/16/2018 10:38:14
00016 suncat2040 pw.x -in pw.inp   Done                     01/16/2018 10:38:14
00017 suncat2040 pw.x -in pw.inp   Done                     01/16/2018 10:38:14
00018 suncat2040 pw.x -in pw.inp   Done                     01/16/2018 10:38:14
00019 suncat2040 pw.x -in pw.inp   Done                     01/16/2018 10:38:14
00020 suncat2040 pw.x -in pw.inp   Done                     01/16/2018 10:38:14
00021 suncat2040 pw.x -in pw.inp   Done                     01/16/2018 10:38:14
00022 suncat2040 pw.x -in pw.inp   Done                     01/16/2018 10:38:14
00023 suncat2040 pw.x -in pw.inp   Done                     01/16/2018 10:38:14
00024 suncat2040 pw.x -in pw.inp   Done                     01/16/2018 10:38:14
00025 suncat2040 pw.x -in pw.inp   Done                     01/16/2018 10:38:14
00026 suncat2040 pw.x -in pw.inp   Done                     01/16/2018 10:38:14
00027 suncat2040 pw.x -in pw.inp   Done                     01/16/2018 10:38:14
00028 suncat2040 pw.x -in pw.inp   Done                     01/16/2018 10:38:14
00029 suncat2040 pw.x -in pw.inp   Done                     01/16/2018 10:38:14
00030 suncat2040 pw.x -in pw.inp   Done                     01/16/2018 10:38:14
00031 suncat2040 pw.x -in pw.inp   Done                     01/16/2018 10:38:14