     Program PWSCF v.6.1 starts on  8Jan2019 at  1:27:35

     Current dimensions of program PWSCF are:
     Max number of different atomic species (ntypx) = 10
     Max number of k-points (npk) =  40000
     Max angular momentum in pseudopotentials (lmaxx) =  3

     IMPORTANT: XC functional enforced from input :
     Exchange-correlation      = BEEF-VDW ( 1  4 29 14 2 0)
     Any further DFT definition will be discarded
     Please, verify this is what you really want

     bravais-lattice index     =            0
     lattice parameter (alat)  =      10.5953  a.u.
     unit-cell volume          =    4515.4206 (a.u.)^3
     number of atoms/cell      =           13
     number of atomic types    =            2
     number of electrons       =       245.00
     number of Kohn-Sham states=          132
     kinetic-energy cutoff     =      36.7493  Ry
     charge density cutoff     =     367.4933  Ry
     convergence threshold     =      1.0E-04
     mixing beta               =       0.2000
     number of iterations used =            8  plain     mixing
     Exchange-correlation      = BEEF-VDW ( 1  4 29 14 2 0)
     nstep                     =           50

     celldm(1)=  10.595266  celldm(2)=   0.000000  celldm(3)=   0.000000
     celldm(4)=   0.000000  celldm(5)=   0.000000  celldm(6)=   0.000000

     crystal axes: (cart. coord. in units of alat)
               a(1) = (   1.000000   0.000000   0.000000 )
               a(2) = (   0.500000   0.866025   0.000000 )
               a(3) = (   0.000000   0.000000   4.383611 )

     reciprocal axes: (cart. coord. in units 2 pi/alat)
               b(1) = (  1.000000 -0.577350  0.000000 )
               b(2) = (  0.000000  1.154701  0.000000 )
               b(3) = (  0.000000  0.000000  0.228122 )

     PseudoPot. # 1 for Zn read from file:
     /home/users/jrboes/code/decaf-espresso/gbrv15pbe/Zn.UPF
     MD5 check sum: df62231357ef9e81f77b2b3087fa5675
     Pseudo is Ultrasoft, Zval = 20.0
     Generated by new atomic code, or converted to UPF format
     Using radial grid of  943 points,  6 beta functions with:
                l(1) =   0
                l(2) =   0
                l(3) =   1
                l(4) =   1
                l(5) =   2
                l(6) =   2
     Q(r) pseudized with  8 coefficients,  rinner =    1.100   1.100   1.100
                                                       1.100   1.100

     PseudoPot. # 2 for N  read from file:
     /home/users/jrboes/code/decaf-espresso/gbrv15pbe/N.UPF
     MD5 check sum: 95339753478d7afb44899504a8723017
     Pseudo is Ultrasoft + core correction, Zval =  5.0
     Generated by new atomic code, or converted to UPF format
     Using radial grid of  729 points,  4 beta functions with:
                l(1) =   0
                l(2) =   0
                l(3) =   1
                l(4) =   1
     Q(r) pseudized with  8 coefficients,  rinner =    0.900   0.900   0.900

     vdW kernel table read from file vdW_kernel_table
     MD5 check sum: 095c7af220d748ca6e76c0b4c6cfb241

     atomic species   valence    mass     pseudopotential
        Zn            20.00    65.38000     Zn( 1.00)
        N              5.00    14.00700     N ( 1.00)

     No symmetry found

   Cartesian axes

     site n.     atom                  positions (alat units)
         1           Zn  tau(   1) = (   0.2500000   0.1443376   1.7835570  )
         2           Zn  tau(   2) = (   0.7500000   0.1443376   1.7835570  )
         3           Zn  tau(   3) = (   0.5000000   0.5773503   1.7835570  )
         4           Zn  tau(   4) = (   1.0000000   0.5773503   1.7835570  )
         5           Zn  tau(   5) = (   1.0000000   0.2886751   2.1918053  )
         6           Zn  tau(   6) = (   0.5000000   0.2886751   2.1918053  )
         7           Zn  tau(   7) = (   1.2500000   0.7216878   2.1918053  )
         8           Zn  tau(   8) = (   0.7500000   0.7216878   2.1918053  )
         9           Zn  tau(   9) = (   0.0000081  -0.0000001   2.5656236  )
        10           Zn  tau(  10) = (   0.5000646   0.0001713   2.9306018  )
        11           Zn  tau(  11) = (   0.2501799   0.4329117   2.9305973  )
        12           Zn  tau(  12) = (   0.7498904   0.4328677   2.9305958  )
        13           N   tau(  13) = (  -0.0001480   0.0000842   2.8977316  )

     number of k points=    20  Fermi-Dirac smearing, width (Ry)=  0.0110
                       cart. coord. in units 2pi/alat
        k(    1) = (   0.0000000   0.0000000   0.0000000), wk =   0.0555556
        k(    2) = (   0.0000000   0.1924501   0.0000000), wk =   0.1111111
        k(    3) = (   0.0000000   0.3849002   0.0000000), wk =   0.1111111
        k(    4) = (   0.0000000  -0.5773503   0.0000000), wk =   0.0555556
        k(    5) = (   0.1666667  -0.0962250   0.0000000), wk =   0.1111111
        k(    6) = (   0.1666667   0.0962250   0.0000000), wk =   0.1111111
        k(    7) = (   0.1666667   0.2886751   0.0000000), wk =   0.1111111
        k(    8) = (   0.1666667  -0.6735753   0.0000000), wk =   0.1111111
        k(    9) = (   0.1666667  -0.4811252   0.0000000), wk =   0.1111111
        k(   10) = (   0.1666667  -0.2886751   0.0000000), wk =   0.1111111
        k(   11) = (   0.3333333  -0.1924501   0.0000000), wk =   0.1111111
        k(   12) = (   0.3333333   0.0000000   0.0000000), wk =   0.1111111
        k(   13) = (   0.3333333   0.1924501   0.0000000), wk =   0.1111111
        k(   14) = (   0.3333333  -0.7698004   0.0000000), wk =   0.1111111
        k(   15) = (   0.3333333  -0.5773503   0.0000000), wk =   0.1111111
        k(   16) = (   0.3333333  -0.3849002   0.0000000), wk =   0.1111111
        k(   17) = (  -0.5000000   0.2886751   0.0000000), wk =   0.0555556
        k(   18) = (  -0.5000000   0.4811252   0.0000000), wk =   0.1111111
        k(   19) = (  -0.5000000   0.6735753   0.0000000), wk =   0.1111111
        k(   20) = (  -0.5000000  -0.2886751   0.0000000), wk =   0.0555556

     Initial potential from superposition of free atoms
     Check: negative starting charge=   -0.000724

     starting charge  244.99830, renormalised to  245.00000

     negative rho (up, down):  7.239E-04 0.000E+00

     %%%%%%%%%%%%%%%%%%%%%%%%%%%%%%%%%%%%%%%%%%%%%%%%%%%%%%%%%%%%%%%%%%%%%%%%
     %                                                                      %
     % You are using vdW-DF, which was implemented by the Thonhauser group. %
     % Please cite the following two papers that made this development      %
     % possible and the two reviews that describe the various versions:     %
     %                                                                      %
     %   T. Thonhauser et al., PRL 115, 136402 (2015).                      %
     %   T. Thonhauser et al., PRB 76, 125112 (2007).                       %
     %   K. Berland et al., Rep. Prog. Phys. 78, 066501 (2015).             %
     %   D.C. Langreth et al., J. Phys.: Condens. Matter 21, 084203 (2009). %
     %                                                                      %
     %                                                                      %
     % If you are calculating the stress with vdW-DF, please also cite:     %
     %                                                                      %
     %   R. Sabatini et al., J. Phys.: Condens. Matter 24, 424209 (2012).   %
     %                                                                      %
     %%%%%%%%%%%%%%%%%%%%%%%%%%%%%%%%%%%%%%%%%%%%%%%%%%%%%%%%%%%%%%%%%%%%%%%%

     Adding external electric field

     Computed dipole along edir(3) :
        Dipole               -0.0002 Ry au,         -0.0004 Debye
        Dipole field         -0.0000 Ry au,

        Potential amp.        0.0000 Ry
        Total length         41.8010 bohr

     Starting wfc are  160 randomized atomic wfcs

     Self-consistent Calculation

     iteration #  1     ecut=    36.75 Ry     beta=0.20
     Davidson diagonalization with overlap
     ethr =  1.00E-02,  avg # of iterations =  2.0

[...]

     total energy              =   -5572.86466497 Ry
     Harris-Foulkes estimate   =   -5573.70238203 Ry
     estimated scf accuracy    <       2.56630895 Ry

[...]

     End of self-consistent calculation

          k = 0.0000 0.0000 0.0000 ( 16931 PWs)   bands (ev):

  -126.0918-126.0909-126.0908-126.0418-125.9737-125.9728-125.9728-125.9692
  -125.6952-125.6943-125.6943-125.6360 -80.2748 -80.2737 -80.2737 -80.2718
   -80.2675 -80.2675 -80.2605 -80.2588 -80.2588 -80.2290 -80.2141 -80.2141
   -80.1614 -80.1604 -80.1604 -80.1587 -80.1529 -80.1514 -80.1514 -80.1418
   -80.1412 -80.1412 -80.1370 -80.1370 -79.9343 -79.9334 -79.9334 -79.8652
   -79.8554 -79.8554 -79.8470 -79.8470 -79.8439 -79.8328 -79.8328 -79.7663
   -12.3953  -8.4514  -7.6778  -7.6088  -7.5786  -7.5786  -7.5146  -7.4741
    -7.4741  -7.4367  -7.4367  -7.4213  -7.1795  -7.1497  -7.1410  -7.1409
    -7.0874  -7.0874  -7.0827  -6.9996  -6.9996  -6.9644  -6.9644  -6.9441
    -6.8816  -6.8816  -6.8441  -6.8108  -6.8108  -6.7446  -6.7446  -6.7230
    -6.6864  -6.6864  -6.6690  -6.6145  -6.6145  -6.6045  -6.6045  -6.6045
    -6.5976  -6.5632  -6.5632  -6.5037  -6.4942  -6.4942  -6.4899  -6.4899
    -6.4540  -6.4539  -6.4485  -6.4203  -6.4203  -6.4021  -6.3909  -6.3909
    -6.3868  -6.3739  -6.3739  -6.3048  -6.3047  -6.1028  -5.0539  -4.0603
    -2.5200  -1.6007  -1.6007  -1.5364  -1.3223  -1.3222  -1.2031  -1.1654
    -1.1654  -0.5011   0.3225   1.0019   1.0023   1.0576   1.5088   1.5094
     1.8128   1.8129   1.8487   2.0104

[...]

          k =-0.5000 0.2887 0.0000 ( 17028 PWs)   bands (ev):

[...]

     the Fermi energy is     0.6321 ev

!    total energy              =   -5573.35243308 Ry
     Harris-Foulkes estimate   =   -5573.35244042 Ry
     estimated scf accuracy    <       0.00000742 Ry

     The total energy is the sum of the following terms:

     one-electron contribution =  -30129.32364918 Ry
     hartree contribution      =   15047.60316616 Ry
     xc contribution           =    -525.86866892 Ry
     ewald contribution        =   10034.25672420 Ry
     electric field correction =       0.00001563 Ry
     smearing contrib. (-TS)   =      -0.02002096 Ry

     convergence has been achieved in  11 iterations

[...]

     Forces acting on atoms (cartesian axes, Ry/au):

     atom    1 type  1   force =    -0.00043245   -0.00024163   -0.01195334
     atom    2 type  1   force =     0.00042796   -0.00025439   -0.01195587
     atom    3 type  1   force =    -0.00000917    0.00049729   -0.01195192
     atom    4 type  1   force =     0.00001368    0.00000239   -0.01325069
     atom    5 type  1   force =     0.00000165    0.00794303    0.01515109
     atom    6 type  1   force =    -0.00001080   -0.00000124    0.01518678
     atom    7 type  1   force =    -0.00687205   -0.00397181    0.01515118
     atom    8 type  1   force =     0.00687612   -0.00396564    0.01518009
     atom    9 type  1   force =     0.00001539   -0.00000479   -0.00298111
     atom   10 type  1   force =     0.00005613   -0.00050122   -0.00344249
     atom   11 type  1   force =    -0.00038474    0.00022361   -0.00343003
     atom   12 type  1   force =     0.00046409    0.00019221   -0.00343125
     atom   13 type  2   force =    -0.00014581    0.00008217    0.00172754

     Total force =     0.006928     Total SCF correction =     0.015538
     SCF correction compared to forces is large: reduce conv_thr to get better values

     BFGS Geometry Optimization

     number of scf cycles    =   1
     number of bfgs steps    =   0

     energy   new            =   -5573.3524330827 Ry

     new trust radius        =       0.0034792362 bohr
     new conv_thr            =       0.0001000000 Ry

ATOMIC_POSITIONS (angstrom)
Zn       1.401693333   0.809268023  10.000000000    0   0   0
Zn       4.205080001   0.809268023  10.000000000    0   0   0
Zn       2.803386667   3.237072094  10.000000000    0   0   0
Zn       5.606773334   3.237072094  10.000000000    0   0   0
Zn       5.606773334   1.618536047  12.288955629    0   0   0
Zn       2.803386667   1.618536047  12.288955629    0   0   0
Zn       7.008466668   4.046340117  12.288955629    0   0   0
Zn       4.205080001   4.046340117  12.288955629    0   0   0
Zn       0.000053344  -0.000002916  14.383292436
Zn       2.803778395   0.000695276  16.429398589
Zn       1.402498250   2.427356122  16.429379766
Zn       4.204710946   2.427092758  16.429370371
N       -0.000906962   0.000515304  16.247838385

     Writing output data file calc.save
     Check: negative starting charge=   -0.000724
     NEW-OLD atomic charge density approx. for the potential
     Check: negative starting charge=   -0.000725

[...]

     energy   old            =   -5573.3524330827 Ry
     energy   new            =   -5573.3523899644 Ry

     CASE: energy  _new > energy  _old

[...]

     new trust radius        =       0.0000086213 bohr

     trust_radius < trust_radius_min

     resetting bfgs history

     new conv_thr            =       0.0001000000 Ry

[...]

     new trust radius        =       0.0002261367 bohr
     new conv_thr            =       0.0001000000 Ry

[...]

     Self-consistent Calculation

[...]

     total energy              =   -5573.35240569 Ry
     Harris-Foulkes estimate   =   -5573.35248198 Ry
     estimated scf accuracy    <       0.00066427 Ry

     iteration #  4     ecut=    36.75 Ry     beta=0.20
     Davidson diagonalization with overlap
     ethr =  2.71E-07,  avg # of iterations =  2.0

[...]

     End of self-consistent calculation

[...]

          k = 0.3333-0.3849 0.0000 ( 16986 PWs)   bands (ev):

[...]

          k =-0.5000-0.2887 0.0000 ( 17028 PWs)   bands (ev):

  -126.0901-126.0898-126.0895-126.0397-125.9702-125.9699-125.9696-125.9657
  -125.6936-125.6933-125.6930-125.6399 -80.2732 -80.2728 -80.2723 -80.2677
   -80.2631 -80.2630 -80.2629 -80.2623 -80.2578 -80.2271 -80.2131 -80.2125
   -80.1580 -80.1576 -80.1571 -80.1552 -80.1471 -80.1451 -80.1425 -80.1425
   -80.1419 -80.1380 -80.1374 -80.1346 -79.9326 -79.9322 -79.9317 -79.8608
   -79.8569 -79.8535 -79.8471 -79.8458 -79.8440 -79.8365 -79.8363 -79.7707
   -12.3514  -7.5561  -7.4687  -7.3887  -7.3679  -7.3552  -7.3365  -7.3122
    -7.2894  -7.2547  -7.2432  -7.2284  -7.2084  -7.1233  -7.0958  -7.0906
    -7.0738  -7.0216  -6.9716  -6.9672  -6.9565  -6.9514  -6.9299  -6.9186
    -6.8935  -6.8805  -6.8197  -6.8064  -6.8015  -6.7903  -6.7724  -6.7683
    -6.7592  -6.7530  -6.7352  -6.7002  -6.6725  -6.6591  -6.6551  -6.6497
    -6.6396  -6.6383  -6.6120  -6.6073  -6.5997  -6.5894  -6.5725  -6.5645
    -6.5588  -6.5507  -6.5496  -6.5471  -6.4990  -6.4961  -6.4485  -6.4258
    -6.4211  -6.4015  -6.3861  -6.3630  -6.2786  -6.2387  -6.1504  -4.3877
    -3.9528  -3.0503  -2.9178  -2.8960  -2.5812  -1.8742  -1.7751  -0.2136
     0.0050   0.4920   0.8143   0.9197   2.1566   2.5416   2.5576   3.3515
     3.3754   3.4594   3.5915   3.7304

     the Fermi energy is     0.6316 ev

!    total energy              =   -5573.35236581 Ry
     Harris-Foulkes estimate   =   -5573.35246263 Ry
     estimated scf accuracy    <       0.00007975 Ry

     The total energy is the sum of the following terms:

     one-electron contribution =  -30129.56007003 Ry
     hartree contribution      =   15047.63337466 Ry
     xc contribution           =    -525.87032633 Ry
     ewald contribution        =   10034.46459403 Ry
     electric field correction =       0.00000138 Ry
     smearing contrib. (-TS)   =      -0.01993952 Ry

     convergence has been achieved in   4 iterations

[...]

     Forces acting on atoms (cartesian axes, Ry/au):

     atom    1 type  1   force =    -0.00025460   -0.00015032   -0.00702311
     atom    2 type  1   force =     0.00025696   -0.00014846   -0.00702479
     atom    3 type  1   force =     0.00000331    0.00029579   -0.00702340
     atom    4 type  1   force =    -0.00000237    0.00000135   -0.00787451
     atom    5 type  1   force =     0.00000374    0.00641337    0.00895632
     atom    6 type  1   force =    -0.00000042    0.00000018    0.00738884
     atom    7 type  1   force =    -0.00555212   -0.00320978    0.00895651
     atom    8 type  1   force =     0.00554952   -0.00320388    0.00897457
     atom    9 type  1   force =     0.00001229   -0.00000741   -0.01401225
     atom   10 type  1   force =     0.00005160   -0.00057996   -0.00021415
     atom   11 type  1   force =    -0.00045106    0.00026279   -0.00021109
     atom   12 type  1   force =     0.00052837    0.00024351   -0.00021154
     atom   13 type  2   force =    -0.00014521    0.00008283    0.00931858

     Total force =     0.016861     Total SCF correction =     0.058918
     SCF correction compared to forces is large: reduce conv_thr to get better values

     number of scf cycles    =  50
     number of bfgs steps    =   1

     energy   old            =   -5573.3524330827 Ry
     energy   new            =   -5573.3523658069 Ry

     CASE: energy  _new > energy  _old

     new trust radius        =       0.0000050104 bohr

     trust_radius < trust_radius_min

     resetting bfgs history

     new conv_thr            =       0.0001000000 Ry

ATOMIC_POSITIONS (angstrom)
Zn       1.401693333   0.809268023  10.000000000    0   0   0
Zn       4.205080001   0.809268023  10.000000000    0   0   0
Zn       2.803386667   3.237072094  10.000000000    0   0   0
Zn       5.606773334   3.237072094  10.000000000    0   0   0
Zn       5.606773334   1.618536047  12.288955629    0   0   0
Zn       2.803386667   1.618536047  12.288955629    0   0   0
Zn       7.008466668   4.046340117  12.288955629    0   0   0
Zn       4.205080001   4.046340117  12.288955629    0   0   0
Zn       0.000053344  -0.000002916  14.383292436
Zn       2.803778395   0.000695276  16.429398589
Zn       1.402498250   2.427356122  16.429379766
Zn       4.204710946   2.427092758  16.429370371
N       -0.000906962   0.000515304  16.247838385

     Writing output data file calc.save
     Check: negative starting charge=   -0.000724
     NEW-OLD atomic charge density approx. for the potential
     Check: negative starting charge=   -0.000725

     negative rho (up, down):  1.024E-03 0.000E+00

     Adding external electric field

     Computed dipole along edir(3) :
        Dipole                0.0223 Ry au,          0.0566 Debye
        Dipole field          0.0001 Ry au,

        Potential amp.       -0.0052 Ry
        Total length         41.8010 bohr

     Writing output data file calc.save

     General routines

     Parallel routines

   This run was terminated on:   2:22:14   8Jan2019

   JOB DONE.