     Program PWSCF v.5.1rc2 (svn rev. 11289) starts on 30Apr2018 at 16:50:11

     Current dimensions of program PWSCF are:
     Max number of different atomic species (ntypx) = 10
     Max number of k-points (npk) =  40000
     Max angular momentum in pseudopotentials (lmaxx) =  3
     Presently stress not available with electric field

     IMPORTANT: XC functional enforced from input :
     Exchange-correlation      = BEEF-VDW ( 1  4 27 13 2)
     Any further DFT definition will be discarded
     Please, verify this is what you really want

     Subspace diagonalization in iterative solution of the eigenvalue problem:
     a serial algorithm will be used

     bravais-lattice index     =            0
     lattice parameter (alat)  =       1.8897  a.u.
     unit-cell volume          =    4650.5773 (a.u.)^3
     number of atoms/cell      =           13
     number of atomic types    =            2
     number of electrons       =        42.00
     number of Kohn-Sham states=           31
     kinetic-energy cutoff     =      36.7493  Ry
     charge density cutoff     =     367.4932  Ry
     convergence threshold     =      1.0E-05
     mixing beta               =       0.3000
     number of iterations used =           10  plain     mixing
     Exchange-correlation      = BEEF-VDW ( 1  4 27 13 2)
     nstep                     =           50

     celldm(1)=   1.889726  celldm(2)=   0.000000  celldm(3)=   0.000000
     celldm(4)=   0.000000  celldm(5)=   0.000000  celldm(6)=   0.000000

     crystal axes: (cart. coord. in units of alat)
               a(1) = (   5.682886   0.000000   0.000000 )
               a(2) = (   2.841443   4.921524   0.000000 )
               a(3) = (   0.000000   0.000000  24.640057 )

     reciprocal axes: (cart. coord. in units 2 pi/alat)
               b(1) = (  0.175967 -0.101595  0.000000 )
               b(2) = (  0.000000  0.203189  0.000000 )
               b(3) = (  0.000000  0.000000  0.040584 )

     PseudoPot. # 1 for Al read from file:
     /u/if/mamunm/psp/gbrv1.5pbe/Al.UPF
     MD5 check sum: 0a6289f5291fc8f409219462bc851e1f
     Pseudo is Ultrasoft + core correction, Zval =  3.0
     Generated by new atomic code, or converted to UPF format
     Using radial grid of  893 points,  3 beta functions with:
                l(1) =   0
                l(2) =   1
                l(3) =   2
     Q(r) pseudized with  8 coefficients,  rinner =    0.900   0.900   0.900
                                                       0.900   0.900

     PseudoPot. # 2 for O  read from file:
     /u/if/mamunm/psp/gbrv1.5pbe/O.UPF
     MD5 check sum: 734c27235a0248c51dbae37a1fbe46ec
     Pseudo is Ultrasoft + core correction, Zval =  6.0
     Generated by new atomic code, or converted to UPF format
     Using radial grid of  737 points,  5 beta functions with:
                l(1) =   0
                l(2) =   0
                l(3) =   1
                l(4) =   1
                l(5) =   2
     Q(r) pseudized with  8 coefficients,  rinner =    0.900   0.900   0.900
                                                       0.900   0.900

     vdW kernel table read from file vdW_kernel_table
     MD5 check sum: 095c7af220d748ca6e76c0b4c6cfb241

     atomic species   valence    mass     pseudopotential
        Al1            3.00    26.98154     Al( 1.00)
        O1             6.00    15.99900     O ( 1.00)

     No symmetry found

   Cartesian axes

     site n.     atom                  positions (alat units)
         1           Al1 tau(   1) = (   1.4207216   0.8202540  10.0000000  )
         2           Al1 tau(   2) = (   4.2621647   0.8202540  10.0000000  )
         3           Al1 tau(   3) = (   2.8414431   3.2810159  10.0000000  )
         4           Al1 tau(   4) = (   5.6828862   3.2810159  10.0000000  )
         5           Al1 tau(   5) = (   5.6828862   1.6405079  12.3200286  )
         6           Al1 tau(   6) = (   2.8414431   1.6405079  12.3200286  )
         7           Al1 tau(   7) = (   7.1036078   4.1012699  12.3200286  )
         8           Al1 tau(   8) = (   4.2621647   4.1012699  12.3200286  )
         9           Al1 tau(   9) = (   0.0000000   0.0000000  14.6400572  )
        10           Al1 tau(  10) = (   2.8414431   0.0000000  14.6400572  )
        11           Al1 tau(  11) = (   1.4207216   2.4607619  14.6400572  )
        12           Al1 tau(  12) = (   4.2621647   2.4607619  14.6400572  )
        13           O1  tau(  13) = (   0.0000000   0.0000000  16.2295572  )

     number of k points=    20  Fermi-Dirac smearing, width (Ry)=  0.0110
                       cart. coord. in units 2pi/alat
        k(    1) = (   0.0000000   0.0000000   0.0000000), wk =   0.0555556
        k(    2) = (   0.0000000   0.0338648   0.0000000), wk =   0.1111111
        k(    3) = (   0.0000000   0.0677297   0.0000000), wk =   0.1111111
        k(    4) = (   0.0000000  -0.1015945   0.0000000), wk =   0.0555556
        k(    5) = (   0.0293278  -0.0169324   0.0000000), wk =   0.1111111
        k(    6) = (   0.0293278   0.0169324   0.0000000), wk =   0.1111111
        k(    7) = (   0.0293278   0.0507973   0.0000000), wk =   0.1111111
        k(    8) = (   0.0293278  -0.1185270   0.0000000), wk =   0.1111111
        k(    9) = (   0.0293278  -0.0846621   0.0000000), wk =   0.1111111
        k(   10) = (   0.0293278  -0.0507973   0.0000000), wk =   0.1111111
        k(   11) = (   0.0586556  -0.0338648   0.0000000), wk =   0.1111111
        k(   12) = (   0.0586556   0.0000000   0.0000000), wk =   0.1111111
        k(   13) = (   0.0586556   0.0338648   0.0000000), wk =   0.1111111
        k(   14) = (   0.0586556  -0.1354594   0.0000000), wk =   0.1111111
        k(   15) = (   0.0586556  -0.1015945   0.0000000), wk =   0.1111111
        k(   16) = (   0.0586556  -0.0677297   0.0000000), wk =   0.1111111
        k(   17) = (  -0.0879835   0.0507973   0.0000000), wk =   0.0555556
        k(   18) = (  -0.0879835   0.0846621   0.0000000), wk =   0.1111111
        k(   19) = (  -0.0879835   0.1185270   0.0000000), wk =   0.1111111
        k(   20) = (  -0.0879835  -0.0507973   0.0000000), wk =   0.0555556

     Largest allocated arrays     est. size (Mb)     dimensions
     Largest temporary arrays     est. size (Mb)     dimensions

     Initial potential from superposition of free atoms
     Check: negative starting charge=   -0.000319

     starting charge   41.97041, renormalised to   42.00000

     negative rho (up, down):  3.192E-04 0.000E+00

     *
     * You are using vdW-DF for exchange-correlation in this calculation.
     * Please cite the following three references that made this development
     * possible:
     *
     *   M. Dion, H. Rydberg, E. Schroder, D. C. Langreth, and
     *   B. I. Lundqvist, Phys. Rev. Lett. 92, 246401 (2004).
     *
     *   T. Thonhauser, V. R. Cooper, S. Li, A. Puzder, P. Hyldgaard, and
     *   D. C. Langreth, Phys. Rev. B 76, 125112 (2007).
     *
     *   G. Roman-Perez and J. M. Soler, Phys. Rev. Lett. 103, 096102 (2009).
     *
     *
     * If you are using vdW-DF2, please also cite:
     *
     *   K. Lee, E. D. Murray, L. Kong, B. I. Lundqvist, and
     *   D. C. Langreth, Phys. Rev. B 82, 081101(R) (2010).
     *
     *
     * If you are calculating the stress with vdW-DF, please also cite:
     *
     *   R. Sabatini, E. Kucukbenli, B. Kolb, T. Thonhauser, and
     *   S. de Gironcoli, J. Phys.: Condens. Matter 24, 424209 (2012).
     *

     Carrying out vdW-DF run using the following parameters:

     Nqs =      20    Nr_points =    1024   r_max =   100.000
     q_mesh =
               0.00001000     0.04494208     0.09755937     0.15916263
               0.23128650     0.31572767     0.41458969     0.53033537
               0.66584808     0.82450364     1.01025438     1.22772762
               1.48234092     1.78043706     2.12944203     2.53805004
               3.01644009     3.57652955     4.23227104     5.00000000

     Gradients computed in reciprocal space

     Adding external electric field

     Computed dipole along edir(3) :
        Dipole               -0.0312 Ry au,         -0.0794 Debye
        Dipole field         -0.0001 Ry au

        Potential amp.        0.0077 Ry
        Total length         45.3989 bohr

     Starting wfc are   52 randomized atomic wfcs

     Self-consistent Calculation

     iteration #  1     ecut=    36.75 Ry     beta=0.30
     Davidson diagonalization with overlap
     ethr =  1.00E-02,  avg # of iterations =  3.0

[...]

     total energy              =    -114.30727679 Ry
     Harris-Foulkes estimate   =    -115.30614426 Ry
     estimated scf accuracy    <       2.22772797 Ry

[...]

     End of self-consistent calculation

          k = 0.0000 0.0000 0.0000 ( 17579 PWs)   bands (ev):

   -18.3513 -12.1271 -10.3357  -7.5564  -6.2390  -6.2390  -6.2262  -6.1826
    -6.1826  -6.1561  -5.0007  -5.0007  -4.8588  -4.4595  -4.3997  -4.3207
    -4.3207  -3.4082  -3.1152  -3.1152  -1.7978  -1.7978  -1.7653  -1.1093
    -1.1093  -0.9819  -0.3420   1.1715   1.2428   1.2428   1.4805

[...]

          k =-0.0880 0.0508 0.0000 ( 17464 PWs)   bands (ev):

[...]

     the Fermi energy is    -1.5238 ev

!    total energy              =    -114.90803042 Ry
     Harris-Foulkes estimate   =    -114.90806977 Ry
     estimated scf accuracy    <       0.00000406 Ry

     The total energy is the sum of the following terms:

     one-electron contribution =    -783.09998707 Ry
     hartree contribution      =     400.44794732 Ry
     xc contribution           =     -60.76103783 Ry
     ewald contribution        =     328.53352739 Ry
     electric field correction =       0.00120567 Ry
     smearing contrib. (-TS)   =      -0.02968589 Ry

     convergence has been achieved in  12 iterations

 BEEF-vdW xc energy contributions
           1 :   -50.0529759013126
           2 :    42.9409706820458
           3 :   -32.0326177688320
           4 :    21.6176795004033
           5 :   -14.4368086294378
           6 :    10.6946791662756
           7 :   -8.86645043746410
           8 :    7.34126850539135
           9 :   -5.56674503785018
          10 :    3.99695765323682
          11 :   -3.22388133712310
          12 :    3.23060426298095
          13 :   -3.39761827602548
          14 :    3.10984868181625
          15 :   -2.29757944731752
          16 :    1.40263989747184
          17 :  -0.882564104988333
          18 :   0.786638189299268
          19 :  -0.786881413522899
          20 :   0.557826546660436
          21 :  -9.192052224320690E-002
          22 :  -0.339302666594776
          23 :   0.488826702752363
          24 :  -0.377554981276809
          25 :   0.251613554860612
          26 :  -0.324528776681092
          27 :   0.572386603468942
          28 :  -0.778309957859705
          29 :   0.760742089417121
          30 :  -0.548438167627864
          31 :   -7.28558744719553
          32 :   -5.25926315229469

     Forces acting on atoms (Ry/au):

     negative rho (up, down):  5.380E-04 0.000E+00
     atom    1 type  1   force =     0.00170834    0.00098648   -0.00078078
     atom    2 type  1   force =    -0.00170865    0.00098655   -0.00078099
     atom    3 type  1   force =    -0.00000001   -0.00197289   -0.00078100
     atom    4 type  1   force =     0.00000002   -0.00000008   -0.00156986
     atom    5 type  1   force =    -0.00000015   -0.00085722    0.00471351
     atom    6 type  1   force =    -0.00000007   -0.00000008   -0.00480006
     atom    7 type  1   force =     0.00074223    0.00042871    0.00471357
     atom    8 type  1   force =    -0.00074241    0.00042879    0.00471340
     atom    9 type  1   force =    -0.00000007   -0.00000007   -0.12986731
     atom   10 type  1   force =     0.00000010   -0.00290252    0.00044704
     atom   11 type  1   force =    -0.00251363    0.00145146    0.00044718
     atom   12 type  1   force =     0.00251335    0.00145122    0.00044707
     atom   13 type  2   force =     0.00000098   -0.00000034    0.12309821

     Total force =     0.179010     Total SCF correction =     0.001593

     entering subroutine stress ...

     negative rho (up, down):  5.380E-04 0.000E+00
          total   stress  (Ry/bohr**3)                   (kbar)     P=   -1.44
  -0.00005321   0.00000000  -0.00000000         -7.83      0.00     -0.00
   0.00000000  -0.00005321   0.00000000          0.00     -7.83      0.00
  -0.00000000   0.00000000   0.00007700         -0.00      0.00     11.33

     BFGS Geometry Optimization

     number of scf cycles    =   1
     number of bfgs steps    =   0

     energy   new            =    -114.9080304152 Ry

     new trust radius        =       0.1298673051 bohr
     new conv_thr            =       0.0000099958 Ry

ATOMIC_POSITIONS (crystal)
Al1      0.166666667   0.166666667   0.405843214    0   0   0
Al1      0.666666667   0.166666667   0.405843214    0   0   0
Al1      0.166666667   0.666666667   0.405843214    0   0   0
Al1      0.666666667   0.666666667   0.405843214    0   0   0
Al1      0.833333333   0.333333333   0.500000000    0   0   0
Al1      0.333333333   0.333333333   0.500000000    0   0   0
Al1      0.833333333   0.833333333   0.500000000    0   0   0
Al1      0.333333333   0.833333333   0.500000000    0   0   0
Al1     -0.000000003  -0.000000008   0.591367717
Al1      0.500156053  -0.000312088   0.594166387
Al1     -0.000312096   0.500156066   0.594166390
Al1      0.500156017   0.500156040   0.594166387
O1       0.000000109  -0.000000036   0.661309259

     Writing output data file calc.save
     Check: negative starting charge=   -0.000319
     NEW-OLD atomic charge density approx. for the potential
     Check: negative starting charge=   -0.000318

[...]

     energy   old            =    -114.9080304152 Ry
     energy   new            =    -114.9164447653 Ry

     CASE: energy  _new < energy  _old

[...]

     Threshold (ethr) on eigenvalues was too large:
     Diagonalizing with lowered threshold

     Davidson diagonalization with overlap
     ethr =  5.22E-08,  avg # of iterations =  1.0

[...]

     WARNING: bfgs curvature condition failed, Theta= 0.870
     new trust radius        =       0.0055060534 bohr
     new conv_thr            =       0.0000001000 Ry

[...]

     Threshold (ethr) on eigenvalues was too large:
     Diagonalizing with lowered threshold

     Davidson diagonalization with overlap
     ethr =  9.02E-08,  avg # of iterations =  1.2

[...]

     Total force =     0.003824     Total SCF correction =     0.000404
     SCF correction compared to forces is large: reduce conv_thr to get better values

[...]

     Total force =     0.003998     Total SCF correction =     0.000268

[...]

     number of scf cycles    =  11
     number of bfgs steps    =  10

     energy   old            =    -114.9186322294 Ry
     energy   new            =    -114.9186530935 Ry

     CASE: energy  _new < energy  _old

     new trust radius        =       0.0158861122 bohr
     new conv_thr            =       0.0000001000 Ry

ATOMIC_POSITIONS (crystal)
Al1      0.166666667   0.166666667   0.405843214    0   0   0
Al1      0.666666667   0.166666667   0.405843214    0   0   0
Al1      0.166666667   0.666666667   0.405843214    0   0   0
Al1      0.666666667   0.666666667   0.405843214    0   0   0
Al1      0.833333333   0.333333333   0.500000000    0   0   0
Al1      0.333333333   0.333333333   0.500000000    0   0   0
Al1      0.833333333   0.833333333   0.500000000    0   0   0
Al1      0.333333333   0.833333333   0.500000000    0   0   0
Al1     -0.000000135   0.000000066   0.589896883
Al1      0.501300692  -0.002601516   0.595463287
Al1     -0.002601581   0.501300773   0.595463287
Al1      0.501300717   0.501300808   0.595463289
O1       0.000000412  -0.000000170   0.658193313

     Writing output data file calc.save
     Check: negative starting charge=   -0.000313
     NEW-OLD atomic charge density approx. for the potential
     Check: negative starting charge=   -0.000312

[...]

     Self-consistent Calculation

[...]

     total energy              =    -114.91868431 Ry
     Harris-Foulkes estimate   =    -114.91868428 Ry
     estimated scf accuracy    <       0.00000022 Ry

     iteration #  7     ecut=    36.75 Ry     beta=0.30
     Davidson diagonalization with overlap
     ethr =  5.32E-10,  avg # of iterations =  1.8

[...]

     negative rho (up, down):  5.219E-04 0.000E+00

     Adding external electric field

     Computed dipole along edir(3) :
        Dipole               -0.6521 Ry au,         -1.6575 Debye
        Dipole field         -0.0018 Ry au

        Potential amp.        0.1600 Ry
        Total length         45.3989 bohr

     End of self-consistent calculation

[...]

          k = 0.0587-0.0677 0.0000 ( 17495 PWs)   bands (ev):

[...]

          k =-0.0880-0.0508 0.0000 ( 17464 PWs)   bands (ev):

   -18.1214 -10.5956 -10.5766  -8.9092  -8.7720  -7.6204  -7.6193  -6.2831
    -6.0857  -6.0255  -5.8552  -3.9315  -3.9166  -3.6228  -3.2685  -2.4453
    -2.4176  -2.2691  -1.8688  -1.7905  -1.5360  -1.4132  -0.4611  -0.2163
    -0.0020   0.2135   0.3804   0.4157   0.5090   1.1468   1.2992

     the Fermi energy is    -1.4744 ev

!    total energy              =    -114.91868432 Ry
     Harris-Foulkes estimate   =    -114.91868470 Ry
     estimated scf accuracy    <       0.00000003 Ry

     The total energy is the sum of the following terms:

     one-electron contribution =    -783.12466013 Ry
     hartree contribution      =     400.49646741 Ry
     xc contribution           =     -60.68814427 Ry
     ewald contribution        =     328.42680424 Ry
     electric field correction =       0.00114904 Ry
     smearing contrib. (-TS)   =      -0.03030060 Ry

     convergence has been achieved in   7 iterations

 BEEF-vdW xc energy contributions
           1 :   -49.9834329542413
           2 :    42.8688789936623
           3 :   -31.9575528679506
           4 :    21.5457342636266
           5 :   -14.3797977316350
           6 :    10.6627199260399
           7 :   -8.86065347874141
           8 :    7.35227933341569
           9 :   -5.57960051658564
          10 :    3.99836687009102
          11 :   -3.20713415698333
          12 :    3.19601633592346
          13 :   -3.34977078047275
          14 :    3.05365669142761
          15 :   -2.23544447691084
          16 :    1.33523108233648
          17 :  -0.811936926441781
          18 :   0.717608492035566
          19 :  -0.724895215014030
          20 :   0.505075466971476
          21 :  -4.589222893614675E-002
          22 :  -0.382568595787660
          23 :   0.530081887340522
          24 :  -0.413204220987453
          25 :   0.277904698856659
          26 :  -0.343412833690479
          27 :   0.592727771144737
          28 :  -0.810011024049047
          29 :   0.806414476610243
          30 :  -0.600299976012451
          31 :   -7.28175406406075
          32 :   -5.25523665208929

     Forces acting on atoms (Ry/au):

     negative rho (up, down):  5.219E-04 0.000E+00
     atom    1 type  1   force =     0.00175974    0.00101599   -0.00061404
     atom    2 type  1   force =    -0.00175974    0.00101599   -0.00061405
     atom    3 type  1   force =    -0.00000000   -0.00203197   -0.00061404
     atom    4 type  1   force =    -0.00000001    0.00000000   -0.00188479
     atom    5 type  1   force =     0.00000000    0.00303449    0.00266082
     atom    6 type  1   force =    -0.00000000    0.00000000   -0.00118911
     atom    7 type  1   force =    -0.00262795   -0.00151725    0.00266082
     atom    8 type  1   force =     0.00262794   -0.00151724    0.00266086
     atom    9 type  1   force =    -0.00000007    0.00000001    0.00009469
     atom   10 type  1   force =    -0.00000003    0.00135757   -0.00070924
     atom   11 type  1   force =     0.00117566   -0.00067875   -0.00070924
     atom   12 type  1   force =    -0.00117573   -0.00067875   -0.00070925
     atom   13 type  2   force =     0.00000020   -0.00000009   -0.00103341

     Total force =     0.002849     Total SCF correction =     0.000379
     SCF correction compared to forces is large: reduce conv_thr to get better values

     entering subroutine stress ...

     negative rho (up, down):  5.219E-04 0.000E+00
          total   stress  (Ry/bohr**3)                   (kbar)     P=   -5.29
  -0.00005341  -0.00000000   0.00000000         -7.86     -0.00      0.00
  -0.00000000  -0.00005341  -0.00000000         -0.00     -7.86     -0.00
   0.00000000  -0.00000000  -0.00000106          0.00     -0.00     -0.16

     bfgs converged in  12 scf cycles and  11 bfgs steps
     (criteria: energy <  1.0E+00, force <  1.9E-03)

     End of BFGS Geometry Optimization

     Final energy   =    -114.9186843197 Ry
Begin final coordinates

ATOMIC_POSITIONS (crystal)
Al1      0.166666667   0.166666667   0.405843214    0   0   0
Al1      0.666666667   0.166666667   0.405843214    0   0   0
Al1      0.166666667   0.666666667   0.405843214    0   0   0
Al1      0.666666667   0.666666667   0.405843214    0   0   0
Al1      0.833333333   0.333333333   0.500000000    0   0   0
Al1      0.333333333   0.333333333   0.500000000    0   0   0
Al1      0.833333333   0.833333333   0.500000000    0   0   0
Al1      0.333333333   0.833333333   0.500000000    0   0   0
Al1     -0.000000135   0.000000066   0.589896883
Al1      0.501300692  -0.002601516   0.595463287
Al1     -0.002601581   0.501300773   0.595463287
Al1      0.501300717   0.501300808   0.595463289
O1       0.000000412  -0.000000170   0.658193313
End final coordinates

     Writing output data file calc.save

     General routines

     Parallel routines

   This run was terminated on:  17:16:18  30Apr2018

   JOB DONE.
Job  /afs/slac/g/suncat/bin/suncat-tsmpirun -x LD_LIBRARY_PATH -wdir /scratch/qe532397_C4IAL pw.x -npool 4 -in pw.inp

TID   HOST_NAME   COMMAND_LINE            STATUS            TERMINATION_TIME
00000 suncat0142 pw.x -npool 4 -i  Done                     04/30/2018 17:16:18
00001 suncat0142 pw.x -npool 4 -i  Done                     04/30/2018 17:16:18
00002 suncat0142 pw.x -npool 4 -i  Done                     04/30/2018 17:16:18
00003 suncat0142 pw.x -npool 4 -i  Done                     04/30/2018 17:16:18
00004 suncat0142 pw.x -npool 4 -i  Done                     04/30/2018 17:16:18
00005 suncat0142 pw.x -npool 4 -i  Done                     04/30/2018 17:16:18
00006 suncat0142 pw.x -npool 4 -i  Done                     04/30/2018 17:16:18
00007 suncat0142 pw.x -npool 4 -i  Done                     04/30/2018 17:16:18
00008 suncat0126 pw.x -npool 4 -i  Done                     04/30/2018 17:16:18
00009 suncat0126 pw.x -npool 4 -i  Done                     04/30/2018 17:16:18
00010 suncat0126 pw.x -npool 4 -i  Done                     04/30/2018 17:16:18
00011 suncat0126 pw.x -npool 4 -i  Done                     04/30/2018 17:16:18
00012 suncat0126 pw.x -npool 4 -i  Done                     04/30/2018 17:16:18
00013 suncat0126 pw.x -npool 4 -i  Done                     04/30/2018 17:16:18
00014 suncat0126 pw.x -npool 4 -i  Done                     04/30/2018 17:16:18
00015 suncat0126 pw.x -npool 4 -i  Done                     04/30/2018 17:16:18
00016 suncat0108 pw.x -npool 4 -i  Done                     04/30/2018 17:16:18
00017 suncat0108 pw.x -npool 4 -i  Done                     04/30/2018 17:16:18
00018 suncat0108 pw.x -npool 4 -i  Done                     04/30/2018 17:16:18
00019 suncat0108 pw.x -npool 4 -i  Done                     04/30/2018 17:16:18
00020 suncat0108 pw.x -npool 4 -i  Done                     04/30/2018 17:16:18
00021 suncat0108 pw.x -npool 4 -i  Done                     04/30/2018 17:16:18
00022 suncat0108 pw.x -npool 4 -i  Done                     04/30/2018 17:16:18
00023 suncat0108 pw.x -npool 4 -i  Done                     04/30/2018 17:16:18
00024 suncat0106 pw.x -npool 4 -i  Done                     04/30/2018 17:16:18
00025 suncat0106 pw.x -npool 4 -i  Done                     04/30/2018 17:16:18
00026 suncat0106 pw.x -npool 4 -i  Done                     04/30/2018 17:16:18
00027 suncat0106 pw.x -npool 4 -i  Done                     04/30/2018 17:16:18
00028 suncat0106 pw.x -npool 4 -i  Done                     04/30/2018 17:16:18
00029 suncat0106 pw.x -npool 4 -i  Done                     04/30/2018 17:16:18
00030 suncat0106 pw.x -npool 4 -i  Done                     04/30/2018 17:16:18
00031 suncat0106 pw.x -npool 4 -i  Done                     04/30/2018 17:16:18