     Program PWSCF v.5.1rc2 (svn rev. 11289) starts on  2May2018 at 13: 6:46

     Current dimensions of program PWSCF are:
     Max number of different atomic species (ntypx) = 10
     Max number of k-points (npk) =  40000
     Max angular momentum in pseudopotentials (lmaxx) =  3
     Presently stress not available with electric field

     IMPORTANT: XC functional enforced from input :
     Exchange-correlation      = BEEF-VDW ( 1  4 27 13 2)
     Any further DFT definition will be discarded
     Please, verify this is what you really want

     Subspace diagonalization in iterative solution of the eigenvalue problem:
     a serial algorithm will be used

     bravais-lattice index     =            0
     lattice parameter (alat)  =       1.8897  a.u.
     unit-cell volume          =    3724.3394 (a.u.)^3
     number of atoms/cell      =           13
     number of atomic types    =            2
     number of electrons       =       172.00
     number of Kohn-Sham states=           96
     kinetic-energy cutoff     =      36.7493  Ry
     charge density cutoff     =     367.4932  Ry
     convergence threshold     =      1.0E-05
     mixing beta               =       0.3000
     number of iterations used =           10  plain     mixing
     Exchange-correlation      = BEEF-VDW ( 1  4 27 13 2)
     nstep                     =           50

     celldm(1)=   1.889726  celldm(2)=   0.000000  celldm(3)=   0.000000
     celldm(4)=   0.000000  celldm(5)=   0.000000  celldm(6)=   0.000000

     crystal axes: (cart. coord. in units of alat)
               a(1) = (   5.132588   0.000000   0.000000 )
               a(2) = (   2.566294   4.444952   0.000000 )
               a(3) = (   0.000000   0.000000  24.190741 )

     reciprocal axes: (cart. coord. in units 2 pi/alat)
               b(1) = (  0.194833 -0.112487  0.000000 )
               b(2) = (  0.000000  0.224974  0.000000 )
               b(3) = (  0.000000  0.000000  0.041338 )

     PseudoPot. # 1 for Cr read from file:
     /u/if/mamunm/psp/gbrv1.5pbe/Cr.UPF
     MD5 check sum: 0d52af634a40206e4dee301ad30da4bf
     Pseudo is Ultrasoft + core correction, Zval = 14.0
     Generated by new atomic code, or converted to UPF format
     Using radial grid of  857 points,  6 beta functions with:
                l(1) =   0
                l(2) =   0
                l(3) =   1
                l(4) =   1
                l(5) =   2
                l(6) =   2
     Q(r) pseudized with  8 coefficients,  rinner =    0.950   0.950   0.950
                                                       0.950   0.950

     PseudoPot. # 2 for C  read from file:
     /u/if/mamunm/psp/gbrv1.5pbe/C.UPF
     MD5 check sum: d1aef80898a10debaa0f26306b886e00
     Pseudo is Ultrasoft + core correction, Zval =  4.0
     Generated by new atomic code, or converted to UPF format
     Using radial grid of  721 points,  4 beta functions with:
                l(1) =   0
                l(2) =   0
                l(3) =   1
                l(4) =   1
     Q(r) pseudized with  8 coefficients,  rinner =    1.100   1.100   1.100

     vdW kernel table read from file vdW_kernel_table
     MD5 check sum: 095c7af220d748ca6e76c0b4c6cfb241

     atomic species   valence    mass     pseudopotential
        Cr1           14.00    51.99610     Cr( 1.00)
        C1             4.00    12.01100     C ( 1.00)

     No symmetry found

   Cartesian axes

     site n.     atom                  positions (alat units)
         1           Cr1 tau(   1) = (   1.2831471   0.7408253  10.0000000  )
         2           Cr1 tau(   2) = (   3.8494412   0.7408253  10.0000000  )
         3           Cr1 tau(   3) = (   2.5662941   2.9633012  10.0000000  )
         4           Cr1 tau(   4) = (   5.1325882   2.9633012  10.0000000  )
         5           Cr1 tau(   5) = (   5.1325882   1.4816506  12.0953704  )
         6           Cr1 tau(   6) = (   2.5662941   1.4816506  12.0953704  )
         7           Cr1 tau(   7) = (   6.4157353   3.7041265  12.0953704  )
         8           Cr1 tau(   8) = (   3.8494412   3.7041265  12.0953704  )
         9           Cr1 tau(   9) = (   0.0000000   0.0000000  14.1907408  )
        10           Cr1 tau(  10) = (   2.5662941   0.0000000  14.1907408  )
        11           Cr1 tau(  11) = (   1.2831471   2.2224759  14.1907408  )
        12           Cr1 tau(  12) = (   3.8494412   2.2224759  14.1907408  )
        13           C1  tau(  13) = (   1.2831471   0.7408253  15.5882408  )

     number of k points=    20  Fermi-Dirac smearing, width (Ry)=  0.0110
                       cart. coord. in units 2pi/alat
        k(    1) = (   0.0000000   0.0000000   0.0000000), wk =   0.0555556
        k(    2) = (   0.0000000   0.0374957   0.0000000), wk =   0.1111111
        k(    3) = (   0.0000000   0.0749914   0.0000000), wk =   0.1111111
        k(    4) = (   0.0000000  -0.1124872   0.0000000), wk =   0.0555556
        k(    5) = (   0.0324722  -0.0187479   0.0000000), wk =   0.1111111
        k(    6) = (   0.0324722   0.0187479   0.0000000), wk =   0.1111111
        k(    7) = (   0.0324722   0.0562436   0.0000000), wk =   0.1111111
        k(    8) = (   0.0324722  -0.1312350   0.0000000), wk =   0.1111111
        k(    9) = (   0.0324722  -0.0937393   0.0000000), wk =   0.1111111
        k(   10) = (   0.0324722  -0.0562436   0.0000000), wk =   0.1111111
        k(   11) = (   0.0649445  -0.0374957   0.0000000), wk =   0.1111111
        k(   12) = (   0.0649445   0.0000000   0.0000000), wk =   0.1111111
        k(   13) = (   0.0649445   0.0374957   0.0000000), wk =   0.1111111
        k(   14) = (   0.0649445  -0.1499829   0.0000000), wk =   0.1111111
        k(   15) = (   0.0649445  -0.1124872   0.0000000), wk =   0.1111111
        k(   16) = (   0.0649445  -0.0749914   0.0000000), wk =   0.1111111
        k(   17) = (  -0.0974167   0.0562436   0.0000000), wk =   0.0555556
        k(   18) = (  -0.0974167   0.0937393   0.0000000), wk =   0.1111111
        k(   19) = (  -0.0974167   0.1312350   0.0000000), wk =   0.1111111
        k(   20) = (  -0.0974167  -0.0562436   0.0000000), wk =   0.0555556

     Largest allocated arrays     est. size (Mb)     dimensions
     Largest temporary arrays     est. size (Mb)     dimensions

     Check: negative/imaginary core charge=   -0.000004    0.000000

     Initial potential from superposition of free atoms
     Check: negative starting charge=   -0.014938

     starting charge  159.99977, renormalised to  172.00000

     negative rho (up, down):  1.606E-02 0.000E+00

     *
     * You are using vdW-DF for exchange-correlation in this calculation.
     * Please cite the following three references that made this development
     * possible:
     *
     *   M. Dion, H. Rydberg, E. Schroder, D. C. Langreth, and
     *   B. I. Lundqvist, Phys. Rev. Lett. 92, 246401 (2004).
     *
     *   T. Thonhauser, V. R. Cooper, S. Li, A. Puzder, P. Hyldgaard, and
     *   D. C. Langreth, Phys. Rev. B 76, 125112 (2007).
     *
     *   G. Roman-Perez and J. M. Soler, Phys. Rev. Lett. 103, 096102 (2009).
     *
     *
     * If you are using vdW-DF2, please also cite:
     *
     *   K. Lee, E. D. Murray, L. Kong, B. I. Lundqvist, and
     *   D. C. Langreth, Phys. Rev. B 82, 081101(R) (2010).
     *
     *
     * If you are calculating the stress with vdW-DF, please also cite:
     *
     *   R. Sabatini, E. Kucukbenli, B. Kolb, T. Thonhauser, and
     *   S. de Gironcoli, J. Phys.: Condens. Matter 24, 424209 (2012).
     *

     Carrying out vdW-DF run using the following parameters:

     Nqs =      20    Nr_points =    1024   r_max =   100.000
     q_mesh =
               0.00001000     0.04494208     0.09755937     0.15916263
               0.23128650     0.31572767     0.41458969     0.53033537
               0.66584808     0.82450364     1.01025438     1.22772762
               1.48234092     1.78043706     2.12944203     2.53805004
               3.01644009     3.57652955     4.23227104     5.00000000

     Gradients computed in reciprocal space

     Adding external electric field

     Computed dipole along edir(3) :
        Dipole               -1.9799 Ry au,         -5.0325 Debye
        Dipole field         -0.0067 Ry au

        Potential amp.        0.5955 Ry
        Total length         44.5710 bohr

     Starting wfc are  124 randomized atomic wfcs

     Self-consistent Calculation

     iteration #  1     ecut=    36.75 Ry     beta=0.30
     Davidson diagonalization with overlap
     ethr =  1.00E-02,  avg # of iterations =  5.8

[...]

     total energy              =   -2031.69527948 Ry
     Harris-Foulkes estimate   =   -2132.06265156 Ry
     estimated scf accuracy    <     209.19108679 Ry

[...]

     End of self-consistent calculation

          k = 0.0000 0.0000 0.0000 ( 14081 PWs)   bands (ev):

   -70.8940 -70.8200 -70.7641 -70.7393 -70.7392 -70.7273 -70.7146 -70.7109
   -70.7108 -70.6206 -70.6200 -70.6145 -42.4827 -42.4714 -42.4713 -42.4255
   -42.4112 -42.4111 -42.4098 -42.2888 -42.2842 -42.2839 -42.1548 -42.0936
   -42.0573 -42.0570 -42.0145 -42.0141 -42.0120 -41.9738 -41.9737 -41.9562
   -41.8944 -41.8941 -41.8939 -41.8750 -41.8749 -41.8633 -41.8382 -41.8011
   -41.8011 -41.7664 -41.7661 -41.7607 -41.7432 -41.7431 -41.6302 -41.6302
    -8.7103  -5.6827  -3.8291  -2.9806  -2.8832  -2.8831  -2.7965  -2.5875
    -2.5875  -2.5095  -2.1833  -2.0945  -2.0944  -2.0524  -2.0524  -1.9816
    -1.2847  -1.2846  -1.1342  -0.4095  -0.4094  -0.1542  -0.0213   0.0409
     0.0409   0.0983   0.4265   0.4265   0.5619   0.6139   0.6140   0.6830
     0.6831   0.6962   0.7589   0.7589   0.8358   0.9639   0.9640   1.0353
     1.6021   1.6021   1.7715   2.0036   2.0036   2.0667   2.0667   2.3250

[...]

          k =-0.0974 0.0562 0.0000 ( 14010 PWs)   bands (ev):

[...]

     the Fermi energy is     0.8560 ev

!    total energy              =   -2126.40254448 Ry
     Harris-Foulkes estimate   =   -2126.40255995 Ry
     estimated scf accuracy    <       0.00000326 Ry

     The total energy is the sum of the following terms:

     one-electron contribution =  -19866.17502358 Ry
     hartree contribution      =    9923.58490021 Ry
     xc contribution           =    -282.59432108 Ry
     ewald contribution        =    8098.91149883 Ry
     electric field correction =       0.00016356 Ry
     smearing contrib. (-TS)   =      -0.12976240 Ry

     convergence has been achieved in  40 iterations

 BEEF-vdW xc energy contributions
           1 :   -244.612597778593
           2 :    220.293077154793
           3 :   -179.668234060901
           4 :    134.939173660728
           5 :   -97.2094677679468
           6 :    72.4372682523971
           7 :   -60.3117617011194
           8 :    56.0920164638760
           9 :   -53.9971376616442
          10 :    50.1978162201681
          11 :   -44.0363210764503
          12 :    37.2741510916435
          13 :   -32.2344345439950
          14 :    30.1027529707565
          15 :   -30.3064332473313
          16 :    31.1053655857665
          17 :   -30.8181129865486
          18 :    28.8370367380310
          19 :   -25.8414136263733
          20 :    23.1776708033846
          21 :   -21.8948937855432
          22 :    22.0828804969038
          23 :   -22.9025135088186
          24 :    23.2156624168427
          25 :   -22.3490797879930
          26 :    20.4854640137327
          27 :   -18.4660838541963
          28 :    17.1863721866471
          29 :   -17.0104168124569
          30 :    17.5767806072836
          31 :   -24.2718260143300
          32 :   -17.4754924330866

     Forces acting on atoms (Ry/au):

     negative rho (up, down):  1.473E-02 0.000E+00
     atom    1 type  1   force =    -0.00000463    0.00000515   -0.00077191
     atom    2 type  1   force =     0.00000198    0.00106518   -0.00159668
     atom    3 type  1   force =     0.00092505   -0.00053534   -0.00163001
     atom    4 type  1   force =    -0.00092165   -0.00053535   -0.00156003
     atom    5 type  1   force =     0.00026641   -0.00016059    0.00725720
     atom    6 type  1   force =    -0.00026553   -0.00013887    0.00721660
     atom    7 type  1   force =     0.00002256   -0.00000062    0.00479548
     atom    8 type  1   force =    -0.00002546    0.00030022    0.00724170
     atom    9 type  1   force =     0.00274984    0.00159341    0.05244826
     atom   10 type  1   force =    -0.00275606    0.00159177    0.05243665
     atom   11 type  1   force =     0.00000136   -0.00318173    0.05244681
     atom   12 type  1   force =     0.00000439   -0.00000045   -0.02165867
     atom   13 type  2   force =     0.00000174   -0.00000278   -0.15662541

     Total force =     0.182434     Total SCF correction =     0.005191

     entering subroutine stress ...

     negative rho (up, down):  1.473E-02 0.000E+00
          total   stress  (Ry/bohr**3)                   (kbar)     P=  -27.94
  -0.00021916   0.00000000  -0.00000000        -32.24      0.00     -0.00
   0.00000000  -0.00021915  -0.00000001          0.00    -32.24     -0.00
  -0.00000000  -0.00000001  -0.00013152         -0.00     -0.00    -19.35

     BFGS Geometry Optimization

     number of scf cycles    =   1
     number of bfgs steps    =   0

     energy   new            =   -2126.4025444775 Ry

     new trust radius        =       0.1566254120 bohr
     new conv_thr            =       0.0000099958 Ry

ATOMIC_POSITIONS (crystal)
Cr1      0.166666667   0.166666667   0.413381306    0   0   0
Cr1      0.666666667   0.166666667   0.413381306    0   0   0
Cr1      0.166666667   0.666666667   0.413381306    0   0   0
Cr1      0.666666667   0.666666667   0.413381306    0   0   0
Cr1      0.833333333   0.333333333   0.500000000    0   0   0
Cr1      0.333333333   0.333333333   0.500000000    0   0   0
Cr1      0.833333333   0.833333333   0.500000000    0   0   0
Cr1      0.333333333   0.833333333   0.500000000    0   0   0
Cr1      0.000188664   0.000189697   0.587766010
Cr1      0.499621096   0.000189502   0.587765756
Cr1      0.000189535   0.499621211   0.587765979
Cr1      0.500000479   0.499999947   0.586144907
C1       0.166667011   0.166666336   0.640962520

     Writing output data file calc.save
     Check: negative starting charge=   -0.014938
     NEW-OLD atomic charge density approx. for the potential

     Check: negative/imaginary core charge=   -0.000004    0.000000
     Check: negative starting charge=   -0.014536

[...]

     energy   old            =   -2126.4025444775 Ry
     energy   new            =   -2126.4313959078 Ry

     CASE: energy  _new < energy  _old

[...]

     Total force =     0.003757     Total SCF correction =     0.000277

[...]

     new trust radius        =       0.0030456789 bohr
     new conv_thr            =       0.0000001000 Ry

[...]

     Total force =     0.003618     Total SCF correction =     0.000699
     SCF correction compared to forces is large: reduce conv_thr to get better values

[...]

     number of scf cycles    =  13
     number of bfgs steps    =  12

     energy   old            =   -2126.4678699945 Ry
     energy   new            =   -2126.4678844309 Ry

     CASE: energy  _new < energy  _old

     WARNING: bfgs curvature condition failed, Theta= 0.956
     new trust radius        =       0.0033502468 bohr
     new conv_thr            =       0.0000001000 Ry

ATOMIC_POSITIONS (crystal)
Cr1      0.166666667   0.166666667   0.413381306    0   0   0
Cr1      0.666666667   0.166666667   0.413381306    0   0   0
Cr1      0.166666667   0.666666667   0.413381306    0   0   0
Cr1      0.666666667   0.666666667   0.413381306    0   0   0
Cr1      0.833333333   0.333333333   0.500000000    0   0   0
Cr1      0.333333333   0.333333333   0.500000000    0   0   0
Cr1      0.833333333   0.833333333   0.500000000    0   0   0
Cr1      0.333333333   0.833333333   0.500000000    0   0   0
Cr1     -0.004257617  -0.004258521   0.588250681
Cr1      0.508516022  -0.004259286   0.588251062
Cr1     -0.004257251   0.508513566   0.588251410
Cr1      0.500000079   0.499998781   0.573032826
C1       0.166666112   0.166665901   0.631920524

     Writing output data file calc.save
     Check: negative starting charge=   -0.012727
     NEW-OLD atomic charge density approx. for the potential

     Check: negative/imaginary core charge=   -0.000004    0.000000
     Check: negative starting charge=   -0.012649

[...]

     Self-consistent Calculation

[...]

     total energy              =   -2126.46790157 Ry
     Harris-Foulkes estimate   =   -2126.46790154 Ry
     estimated scf accuracy    <       0.00000012 Ry

     iteration # 18     ecut=    36.75 Ry     beta=0.30
     Davidson diagonalization with overlap
     ethr =  6.79E-11,  avg # of iterations =  4.8

[...]

     negative rho (up, down):  1.271E-02 0.000E+00

     Adding external electric field

     Computed dipole along edir(3) :
        Dipole               -0.1685 Ry au,         -0.4283 Debye
        Dipole field         -0.0006 Ry au

        Potential amp.        0.0507 Ry
        Total length         44.5710 bohr

     End of self-consistent calculation

[...]

          k = 0.0649-0.0750 0.0000 ( 13990 PWs)   bands (ev):

[...]

          k =-0.0974-0.0562 0.0000 ( 14010 PWs)   bands (ev):

   -70.7762 -70.7541 -70.6939 -70.6751 -70.6569 -70.6510 -70.6282 -70.6164
   -70.6020 -70.5829 -70.5549 -70.5543 -42.4342 -42.3239 -42.3133 -42.2899
   -42.2724 -42.2224 -42.1857 -42.1524 -42.1141 -42.1018 -42.0848 -42.0594
   -42.0323 -41.9874 -41.9699 -41.9658 -41.9292 -41.9178 -41.9152 -41.9052
   -41.8847 -41.8814 -41.8688 -41.8487 -41.8328 -41.8311 -41.8268 -41.8150
   -41.7872 -41.7572 -41.7442 -41.7053 -41.6722 -41.6332 -41.6258 -41.6236
    -8.9328  -4.0618  -3.8593  -2.9429  -2.4496  -2.2065  -2.1739  -2.0660
    -2.0123  -1.9168  -1.9141  -1.8207  -1.5079  -1.3447  -1.1688  -1.1587
    -1.1540  -1.0233  -0.9028  -0.8817  -0.6550  -0.5509  -0.4595  -0.4036
    -0.3928  -0.3808  -0.2066  -0.0091   0.0316   0.1205   0.1945   0.2112
     0.2941   0.3870   0.4851   0.6242   0.6309   0.6838   0.8436   0.9344
     0.9813   1.4160   1.4697   1.4733   1.5613   1.5790   1.6712   1.7633

     the Fermi energy is     0.9315 ev

!    total energy              =   -2126.46790154 Ry
     Harris-Foulkes estimate   =   -2126.46790162 Ry
     estimated scf accuracy    <       0.00000005 Ry

     The total energy is the sum of the following terms:

     one-electron contribution =  -20075.29412458 Ry
     hartree contribution      =   10028.52812955 Ry
     xc contribution           =    -282.94877115 Ry
     ewald contribution        =    8203.36644718 Ry
     electric field correction =       0.00009579 Ry
     smearing contrib. (-TS)   =      -0.11967834 Ry

     convergence has been achieved in  18 iterations

 BEEF-vdW xc energy contributions
           1 :   -244.971835579616
           2 :    220.739885360919
           3 :   -180.198018004489
           4 :    135.442343720861
           5 :   -97.5380853592484
           6 :    72.4957475418191
           7 :   -60.1134560871146
           8 :    55.7518643183528
           9 :   -53.6702875721527
          10 :    50.0005865173991
          11 :   -43.9899499011757
          12 :    37.2995514021646
          13 :   -32.2023916790945
          14 :    29.9146555259428
          15 :   -29.9585521319462
          16 :    30.6952596068400
          17 :   -30.4871657075417
          18 :    28.6846522226656
          19 :   -25.8662423374722
          20 :    23.2831161762306
          21 :   -21.9524078394147
          22 :    22.0096362453600
          23 :   -22.7047457057831
          24 :    22.9750488279578
          25 :   -22.1658018675708
          26 :    20.4150920045890
          27 :   -18.4872169936279
          28 :    17.2155502447984
          29 :   -16.9535486505454
          30 :    17.3856876122691
          31 :   -24.2946009772862
          32 :   -17.5119519992225

     Forces acting on atoms (Ry/au):

     negative rho (up, down):  1.271E-02 0.000E+00
     atom    1 type  1   force =    -0.00000025   -0.00000080    0.00683536
     atom    2 type  1   force =     0.00000022    0.00049715   -0.00219919
     atom    3 type  1   force =     0.00043024   -0.00024747   -0.00220140
     atom    4 type  1   force =    -0.00043001   -0.00024857   -0.00219984
     atom    5 type  1   force =     0.01786732   -0.01031398   -0.00506398
     atom    6 type  1   force =    -0.01786788   -0.01031395   -0.00506441
     atom    7 type  1   force =     0.00000003   -0.00000263    0.01074663
     atom    8 type  1   force =    -0.00000019    0.02062860   -0.00506398
     atom    9 type  1   force =    -0.00083157   -0.00048196    0.00114394
     atom   10 type  1   force =     0.00083051   -0.00048077    0.00114276
     atom   11 type  1   force =    -0.00000008    0.00095988    0.00114014
     atom   12 type  1   force =     0.00000039    0.00000127   -0.00096067
     atom   13 type  2   force =     0.00000127    0.00000324    0.00174465

     Total force =     0.003263     Total SCF correction =     0.000357
     SCF correction compared to forces is large: reduce conv_thr to get better values

     entering subroutine stress ...

     negative rho (up, down):  1.271E-02 0.000E+00
          total   stress  (Ry/bohr**3)                   (kbar)     P=  -11.15
  -0.00011126   0.00000000   0.00000000        -16.37      0.00      0.00
   0.00000000  -0.00011126   0.00000000          0.00    -16.37      0.00
   0.00000000   0.00000000  -0.00000482          0.00      0.00     -0.71

     bfgs converged in  14 scf cycles and  13 bfgs steps
     (criteria: energy <  1.0E+00, force <  1.9E-03)

     End of BFGS Geometry Optimization

     Final energy   =   -2126.4679015395 Ry
Begin final coordinates

ATOMIC_POSITIONS (crystal)
Cr1      0.166666667   0.166666667   0.413381306    0   0   0
Cr1      0.666666667   0.166666667   0.413381306    0   0   0
Cr1      0.166666667   0.666666667   0.413381306    0   0   0
Cr1      0.666666667   0.666666667   0.413381306    0   0   0
Cr1      0.833333333   0.333333333   0.500000000    0   0   0
Cr1      0.333333333   0.333333333   0.500000000    0   0   0
Cr1      0.833333333   0.833333333   0.500000000    0   0   0
Cr1      0.333333333   0.833333333   0.500000000    0   0   0
Cr1     -0.004257617  -0.004258521   0.588250681
Cr1      0.508516022  -0.004259286   0.588251062
Cr1     -0.004257251   0.508513566   0.588251410
Cr1      0.500000079   0.499998781   0.573032826
C1       0.166666112   0.166665901   0.631920524
End final coordinates

     Writing output data file calc.save

     General routines

     Parallel routines

   This run was terminated on:  15: 8:31   2May2018

   JOB DONE.
Job  /afs/slac/g/suncat/bin/suncat-tsmpirun -x LD_LIBRARY_PATH -wdir /scratch/qe635254_TldO5 pw.x -npool 4 -in pw.inp

TID   HOST_NAME   COMMAND_LINE            STATUS            TERMINATION_TIME
00000 suncat0026 pw.x -npool 4 -i  Done                     05/02/2018 15:08:31
00001 suncat0026 pw.x -npool 4 -i  Done                     05/02/2018 15:08:31
00002 suncat0026 pw.x -npool 4 -i  Done                     05/02/2018 15:08:31
00003 suncat0026 pw.x -npool 4 -i  Done                     05/02/2018 15:08:31
00004 suncat0026 pw.x -npool 4 -i  Done                     05/02/2018 15:08:31
00005 suncat0026 pw.x -npool 4 -i  Done                     05/02/2018 15:08:31
00006 suncat0026 pw.x -npool 4 -i  Done                     05/02/2018 15:08:31
00007 suncat0026 pw.x -npool 4 -i  Done                     05/02/2018 15:08:31
00008 suncat0015 pw.x -npool 4 -i  Done                     05/02/2018 15:08:31
00009 suncat0015 pw.x -npool 4 -i  Done                     05/02/2018 15:08:31
00010 suncat0015 pw.x -npool 4 -i  Done                     05/02/2018 15:08:31
00011 suncat0015 pw.x -npool 4 -i  Done                     05/02/2018 15:08:31
00012 suncat0015 pw.x -npool 4 -i  Done                     05/02/2018 15:08:31
00013 suncat0015 pw.x -npool 4 -i  Done                     05/02/2018 15:08:31
00014 suncat0015 pw.x -npool 4 -i  Done                     05/02/2018 15:08:31
00015 suncat0015 pw.x -npool 4 -i  Done                     05/02/2018 15:08:31
00016 suncat0276 pw.x -npool 4 -i  Done                     05/02/2018 15:08:31
00017 suncat0276 pw.x -npool 4 -i  Done                     05/02/2018 15:08:31
00018 suncat0276 pw.x -npool 4 -i  Done                     05/02/2018 15:08:31
00019 suncat0276 pw.x -npool 4 -i  Done                     05/02/2018 15:08:31
00020 suncat0276 pw.x -npool 4 -i  Done                     05/02/2018 15:08:31
00021 suncat0276 pw.x -npool 4 -i  Done                     05/02/2018 15:08:31
00022 suncat0276 pw.x -npool 4 -i  Done                     05/02/2018 15:08:31
00023 suncat0276 pw.x -npool 4 -i  Done                     05/02/2018 15:08:31
00024 suncat0270 pw.x -npool 4 -i  Done                     05/02/2018 15:08:31
00025 suncat0270 pw.x -npool 4 -i  Done                     05/02/2018 15:08:31
00026 suncat0270 pw.x -npool 4 -i  Done                     05/02/2018 15:08:31
00027 suncat0270 pw.x -npool 4 -i  Done                     05/02/2018 15:08:31
00028 suncat0270 pw.x -npool 4 -i  Done                     05/02/2018 15:08:31
00029 suncat0270 pw.x -npool 4 -i  Done                     05/02/2018 15:08:31
00030 suncat0270 pw.x -npool 4 -i  Done                     05/02/2018 15:08:31
00031 suncat0270 pw.x -npool 4 -i  Done                     05/02/2018 15:08:31