     Program PWSCF v.5.1rc2 (svn rev. 11289) starts on 23Apr2018 at 13:28:27

     Current dimensions of program PWSCF are:
     Max number of different atomic species (ntypx) = 10
     Max number of k-points (npk) =  40000
     Max angular momentum in pseudopotentials (lmaxx) =  3
     Presently stress not available with electric field

     IMPORTANT: XC functional enforced from input :
     Exchange-correlation      = BEEF-VDW ( 1  4 27 13 2)
     Any further DFT definition will be discarded
     Please, verify this is what you really want

     Subspace diagonalization in iterative solution of the eigenvalue problem:
     a serial algorithm will be used

     bravais-lattice index     =            0
     lattice parameter (alat)  =       1.8897  a.u.
     unit-cell volume          =    4301.6107 (a.u.)^3
     number of atoms/cell      =           14
     number of atomic types    =            3
     number of electrons       =       187.00
     number of Kohn-Sham states=          103
     kinetic-energy cutoff     =      36.7493  Ry
     charge density cutoff     =     367.4932  Ry
     convergence threshold     =      1.0E-05
     mixing beta               =       0.3000
     number of iterations used =           10  plain     mixing
     Exchange-correlation      = BEEF-VDW ( 1  4 27 13 2)
     nstep                     =           50

     celldm(1)=   1.889726  celldm(2)=   0.000000  celldm(3)=   0.000000
     celldm(4)=   0.000000  celldm(5)=   0.000000  celldm(6)=   0.000000

     crystal axes: (cart. coord. in units of alat)
               a(1) = (   5.483647   0.000000   0.000000 )
               a(2) = (   2.741823   4.748977   0.000000 )
               a(3) = (   0.000000   0.000000  24.477379 )

     reciprocal axes: (cart. coord. in units 2 pi/alat)
               b(1) = (  0.182360 -0.105286  0.000000 )
               b(2) = (  0.000000  0.210572  0.000000 )
               b(3) = (  0.000000  0.000000  0.040854 )

     PseudoPot. # 1 for Tc read from file:
     /u/if/mamunm/psp/gbrv1.5pbe/Tc.UPF
     MD5 check sum: 9eb49e5b028550b2339a02317eb7b844
     Pseudo is Ultrasoft + core correction, Zval = 15.0
     Generated by new atomic code, or converted to UPF format
     Using radial grid of  965 points,  6 beta functions with:
                l(1) =   0
                l(2) =   0
                l(3) =   1
                l(4) =   1
                l(5) =   2
                l(6) =   2
     Q(r) pseudized with  8 coefficients,  rinner =    1.300   1.300   1.300
                                                       1.300   1.300

     PseudoPot. # 2 for S  read from file:
     /u/if/mamunm/psp/gbrv1.5pbe/S.UPF
     MD5 check sum: 88d86576ff6df21479756cfb9bdac1df
     Pseudo is Ultrasoft + core correction, Zval =  6.0
     Generated by new atomic code, or converted to UPF format
     Using radial grid of  907 points,  6 beta functions with:
                l(1) =   0
                l(2) =   0
                l(3) =   1
                l(4) =   1
                l(5) =   2
                l(6) =   2
     Q(r) pseudized with  8 coefficients,  rinner =    1.300   1.300   1.300
                                                       1.300   1.300

     PseudoPot. # 3 for H  read from file:
     /u/if/mamunm/psp/gbrv1.5pbe/H.UPF
     MD5 check sum: 761ae9a214b05c3daf00ab9f6b793d6f
     Pseudo is Ultrasoft, Zval =  1.0
     Generated by new atomic code, or converted to UPF format
     Using radial grid of  615 points,  2 beta functions with:
                l(1) =   0
                l(2) =   0
     Q(r) pseudized with  8 coefficients,  rinner =    0.700

     vdW kernel table read from file vdW_kernel_table
     MD5 check sum: 095c7af220d748ca6e76c0b4c6cfb241

     atomic species   valence    mass     pseudopotential
        Tc1           15.00    97.90721     Tc( 1.00)
        S1             6.00    32.06000     S ( 1.00)
        H1             1.00     1.00800     H ( 1.00)

     No symmetry found

   Cartesian axes

     site n.     atom                  positions (alat units)
         1           Tc1 tau(   1) = (   1.3709117   0.7914962  10.0000000  )
         2           Tc1 tau(   2) = (   4.1127351   0.7914962  10.0000000  )
         3           Tc1 tau(   3) = (   2.7418234   3.1659850  10.0000000  )
         4           Tc1 tau(   4) = (   5.4836469   3.1659850  10.0000000  )
         5           Tc1 tau(   5) = (   5.4836469   1.5829925  12.2386895  )
         6           Tc1 tau(   6) = (   2.7418234   1.5829925  12.2386895  )
         7           Tc1 tau(   7) = (   6.8545586   3.9574812  12.2386895  )
         8           Tc1 tau(   8) = (   4.1127351   3.9574812  12.2386895  )
         9           Tc1 tau(   9) = (   0.0000000   0.0000000  14.4773789  )
        10           Tc1 tau(  10) = (   2.7418234   0.0000000  14.4773789  )
        11           Tc1 tau(  11) = (   1.3709117   2.3744887  14.4773789  )
        12           Tc1 tau(  12) = (   4.1127351   2.3744887  14.4773789  )
        13           S1  tau(  13) = (   0.0000000   0.0000000  16.6193789  )
        14           H1  tau(  14) = (   0.0000000   0.0000000  17.8693789  )

     number of k points=    20  Fermi-Dirac smearing, width (Ry)=  0.0110
                       cart. coord. in units 2pi/alat
        k(    1) = (   0.0000000   0.0000000   0.0000000), wk =   0.0555556
        k(    2) = (   0.0000000   0.0350953   0.0000000), wk =   0.1111111
        k(    3) = (   0.0000000   0.0701905   0.0000000), wk =   0.1111111
        k(    4) = (   0.0000000  -0.1052858   0.0000000), wk =   0.0555556
        k(    5) = (   0.0303934  -0.0175476   0.0000000), wk =   0.1111111
        k(    6) = (   0.0303934   0.0175476   0.0000000), wk =   0.1111111
        k(    7) = (   0.0303934   0.0526429   0.0000000), wk =   0.1111111
        k(    8) = (   0.0303934  -0.1228335   0.0000000), wk =   0.1111111
        k(    9) = (   0.0303934  -0.0877382   0.0000000), wk =   0.1111111
        k(   10) = (   0.0303934  -0.0526429   0.0000000), wk =   0.1111111
        k(   11) = (   0.0607868  -0.0350953   0.0000000), wk =   0.1111111
        k(   12) = (   0.0607868   0.0000000   0.0000000), wk =   0.1111111
        k(   13) = (   0.0607868   0.0350953   0.0000000), wk =   0.1111111
        k(   14) = (   0.0607868  -0.1403811   0.0000000), wk =   0.1111111
        k(   15) = (   0.0607868  -0.1052858   0.0000000), wk =   0.1111111
        k(   16) = (   0.0607868  -0.0701905   0.0000000), wk =   0.1111111
        k(   17) = (  -0.0911802   0.0526429   0.0000000), wk =   0.0555556
        k(   18) = (  -0.0911802   0.0877382   0.0000000), wk =   0.1111111
        k(   19) = (  -0.0911802   0.1228335   0.0000000), wk =   0.1111111
        k(   20) = (  -0.0911802  -0.0526429   0.0000000), wk =   0.0555556

     Largest allocated arrays     est. size (Mb)     dimensions
     Largest temporary arrays     est. size (Mb)     dimensions

     Check: negative/imaginary core charge=   -0.000022    0.000000

     Initial potential from superposition of free atoms
     Check: negative starting charge=   -1.504778

     starting charge  174.99962, renormalised to  187.00000

     negative rho (up, down):  1.608E+00 0.000E+00

     *
     * You are using vdW-DF for exchange-correlation in this calculation.
     * Please cite the following three references that made this development
     * possible:
     *
     *   M. Dion, H. Rydberg, E. Schroder, D. C. Langreth, and
     *   B. I. Lundqvist, Phys. Rev. Lett. 92, 246401 (2004).
     *
     *   T. Thonhauser, V. R. Cooper, S. Li, A. Puzder, P. Hyldgaard, and
     *   D. C. Langreth, Phys. Rev. B 76, 125112 (2007).
     *
     *   G. Roman-Perez and J. M. Soler, Phys. Rev. Lett. 103, 096102 (2009).
     *
     *
     * If you are using vdW-DF2, please also cite:
     *
     *   K. Lee, E. D. Murray, L. Kong, B. I. Lundqvist, and
     *   D. C. Langreth, Phys. Rev. B 82, 081101(R) (2010).
     *
     *
     * If you are calculating the stress with vdW-DF, please also cite:
     *
     *   R. Sabatini, E. Kucukbenli, B. Kolb, T. Thonhauser, and
     *   S. de Gironcoli, J. Phys.: Condens. Matter 24, 424209 (2012).
     *

     Carrying out vdW-DF run using the following parameters:

     Nqs =      20    Nr_points =    1024   r_max =   100.000
     q_mesh =
               0.00001000     0.04494208     0.09755937     0.15916263
               0.23128650     0.31572767     0.41458969     0.53033537
               0.66584808     0.82450364     1.01025438     1.22772762
               1.48234092     1.78043706     2.12944203     2.53805004
               3.01644009     3.57652955     4.23227104     5.00000000

     Gradients computed in reciprocal space

     Adding external electric field

     Computed dipole along edir(3) :
        Dipole               -4.1353 Ry au,        -10.5108 Debye
        Dipole field         -0.0121 Ry au

        Potential amp.        1.0896 Ry
        Total length         45.0992 bohr

     Starting wfc are  161 randomized atomic wfcs

     Self-consistent Calculation

     iteration #  1     ecut=    36.75 Ry     beta=0.30
     Davidson diagonalization with overlap
     ethr =  1.00E-02,  avg # of iterations =  7.3

[...]

     total energy              =   -1802.22012707 Ry
     Harris-Foulkes estimate   =   -2121.60106595 Ry
     estimated scf accuracy    <     671.11503438 Ry

     iteration #  2     ecut=    36.75 Ry     beta=0.30
     Davidson diagonalization with overlap
     c_bands:  1 eigenvalues not converged
     c_bands:  1 eigenvalues not converged
     c_bands:  2 eigenvalues not converged
     ethr =  1.00E-02,  avg # of iterations = 19.6

[...]

     End of self-consistent calculation

          k = 0.0000 0.0000 0.0000 ( 16073 PWs)   bands (ev):

   -64.1055 -64.0183 -63.9512 -63.9385 -63.9372 -63.8378 -63.7708 -63.7180
   -63.7115 -63.7110 -63.6887 -63.6886 -36.5694 -36.5324 -36.5319 -36.4534
   -36.3783 -36.3781 -36.3422 -36.2359 -36.2357 -36.1928 -36.1581 -35.8731
   -35.8725 -35.8694 -35.8269 -35.8034 -35.8029 -35.7989 -35.7430 -35.7427
   -35.6747 -35.6146 -35.6143 -35.5906 -35.5905 -35.5646 -35.5644 -35.5555
   -35.5240 -35.5003 -35.5000 -35.4911 -35.3388 -35.3388 -35.3038 -35.3038
   -11.3042  -4.5562  -3.1949  -2.0921  -2.0919  -2.0306  -1.9848  -1.8833
    -1.5879  -1.5877  -1.5466  -1.5466  -1.4845  -1.3892  -1.0877  -1.0876
    -1.0508  -0.6698  -0.6698   0.1341   0.6763   0.6764   0.9265   1.2192
     1.3045   1.3046   1.5027   1.5027   1.5258   1.8070   1.8070   1.9111
     1.9164   1.9166   2.0554   2.0554   2.3124   2.4615   2.4616   3.4109
     3.4821   3.4822   3.5450   3.5851   3.8548   3.8551   3.8932   3.8932
     4.2070   4.3498   4.3498   4.8800   4.8801   5.1791   5.1871

[...]

          k =-0.0912 0.0526 0.0000 ( 16164 PWs)   bands (ev):

[...]

     the Fermi energy is     3.1988 ev

!    total energy              =   -2128.93548051 Ry
     Harris-Foulkes estimate   =   -2128.93548499 Ry
     estimated scf accuracy    <       0.00000499 Ry

     The total energy is the sum of the following terms:

     one-electron contribution =  -18952.88629782 Ry
     hartree contribution      =    9481.83380865 Ry
     xc contribution           =    -406.64333330 Ry
     ewald contribution        =    7748.85696299 Ry
     electric field correction =       0.00032172 Ry
     smearing contrib. (-TS)   =      -0.09694276 Ry

     convergence has been achieved in  27 iterations

 BEEF-vdW xc energy contributions
           1 :   -356.029450688671
           2 :    326.981446519903
           3 :   -275.438339285047
           4 :    211.870964254383
           5 :   -147.347931092024
           6 :    90.5123941048248
           7 :   -45.9317761298651
           8 :    14.0070450335828
           9 :    7.73427512437001
          10 :   -22.7442740586021
          11 :    33.7313888911879
          12 :   -41.7652287449687
          13 :    46.3370065042355
          14 :   -46.1842753737002
          15 :    40.3741078552496
          16 :   -29.1618379875817
          17 :    14.2574333948039
          18 :    1.55930955268167
          19 :   -15.2868378425173
          20 :    24.6145499325019
          21 :   -28.5322879167285
          22 :    27.4074075143988
          23 :   -22.5730594213284
          24 :    15.6638345752484
          25 :   -8.03135792407340
          26 :   0.470631561427865
          27 :    6.69092951506997
          28 :   -13.2798457288605
          29 :    18.9600968600104
          30 :   -23.1076867730275
          31 :   -34.0765345040145
          32 :   -24.9523187949038

     Forces acting on atoms (Ry/au):

     negative rho (up, down):  1.586E+00 0.000E+00
     atom    1 type  1   force =     0.00097646    0.00054384    0.02674932
     atom    2 type  1   force =    -0.00098465    0.00067105    0.02659468
     atom    3 type  1   force =     0.00010595   -0.00117042    0.02661816
     atom    4 type  1   force =    -0.00010502   -0.00003882    0.02718650
     atom    5 type  1   force =    -0.00001332    0.00400549    0.00745782
     atom    6 type  1   force =     0.00000446    0.00004608   -0.00323935
     atom    7 type  1   force =    -0.00341859   -0.00201593    0.00738762
     atom    8 type  1   force =     0.00342153   -0.00203263    0.00739285
     atom    9 type  1   force =     0.00010722    0.00004145   -0.09303709
     atom   10 type  1   force =    -0.00010508   -0.00612854   -0.04185892
     atom   11 type  1   force =    -0.00533453    0.00297604   -0.04183615
     atom   12 type  1   force =     0.00534060    0.00310287   -0.04196568
     atom   13 type  2   force =     0.00000778    0.00000131   -0.03224201
     atom   14 type  3   force =    -0.00000281   -0.00000180    0.12479224

     Total force =     0.175058     Total SCF correction =     0.003583

     entering subroutine stress ...

     negative rho (up, down):  1.586E+00 0.000E+00
          total   stress  (Ry/bohr**3)                   (kbar)     P=  -23.99
  -0.00020212   0.00000001   0.00000001        -29.73      0.00      0.00
   0.00000001  -0.00020208   0.00000001          0.00    -29.73      0.00
   0.00000001   0.00000001  -0.00008504          0.00      0.00    -12.51

     BFGS Geometry Optimization

     number of scf cycles    =   1
     number of bfgs steps    =   0

     energy   new            =   -2128.9354805136 Ry

     new trust radius        =       0.1247922427 bohr
     new conv_thr            =       0.0000099958 Ry

ATOMIC_POSITIONS (crystal)
Tc1      0.166666667   0.166666667   0.408540475    0   0   0
Tc1      0.666666667   0.166666667   0.408540475    0   0   0
Tc1      0.166666667   0.666666667   0.408540475    0   0   0
Tc1      0.666666667   0.666666667   0.408540475    0   0   0
Tc1      0.833333333   0.333333333   0.500000000    0   0   0
Tc1      0.333333333   0.333333333   0.500000000    0   0   0
Tc1      0.833333333   0.833333333   0.500000000    0   0   0
Tc1      0.333333333   0.833333333   0.500000000    0   0   0
Tc1      0.000008038   0.000004618   0.589448153
Tc1      0.500331310  -0.000682902   0.590554576
Tc1     -0.000680597   0.500331620   0.590555068
Tc1      0.500342497   0.500345752   0.590552268
S1       0.000000677   0.000000146   0.678271854
H1      -0.000000171  -0.000000200   0.732734342

     Writing output data file calc.save
     Check: negative starting charge=   -1.504778
     NEW-OLD atomic charge density approx. for the potential

     Check: negative/imaginary core charge=   -0.000022    0.000000
     Check: negative starting charge=   -1.511503

[...]

     Total force =     0.110142     Total SCF correction =     0.011484
     SCF correction compared to forces is large: reduce conv_thr to get better values

[...]

     energy   old            =   -2128.9354805136 Ry
     energy   new            =   -2128.9560046167 Ry

     CASE: energy  _new < energy  _old

[...]

     iteration #  1     ecut=    36.75 Ry     beta=0.30
     Davidson diagonalization with overlap
     c_bands:  1 eigenvalues not converged
     ethr =  1.00E-06,  avg # of iterations =  7.5

[...]

     Total force =     0.004392     Total SCF correction =     0.000683
     SCF correction compared to forces is large: reduce conv_thr to get better values

[...]

     number of scf cycles    =  13
     number of bfgs steps    =  12

     energy   old            =   -2128.9793003452 Ry
     energy   new            =   -2128.9793853410 Ry

     CASE: energy  _new < energy  _old

     new trust radius        =       0.0045821829 bohr
     new conv_thr            =       0.0000001000 Ry

ATOMIC_POSITIONS (crystal)
Tc1      0.166666667   0.166666667   0.408540475    0   0   0
Tc1      0.666666667   0.166666667   0.408540475    0   0   0
Tc1      0.166666667   0.666666667   0.408540475    0   0   0
Tc1      0.666666667   0.666666667   0.408540475    0   0   0
Tc1      0.833333333   0.333333333   0.500000000    0   0   0
Tc1      0.333333333   0.333333333   0.500000000    0   0   0
Tc1      0.833333333   0.833333333   0.500000000    0   0   0
Tc1      0.333333333   0.833333333   0.500000000    0   0   0
Tc1      0.000005521   0.000000459   0.589287989
Tc1      0.500689479  -0.001380621   0.585860843
Tc1     -0.001380933   0.500689469   0.585861136
Tc1      0.500691475   0.500689874   0.585860733
S1      -0.000011174   0.000000865   0.684674512
H1       0.000008092  -0.000000698   0.739845715

     Writing output data file calc.save
     Check: negative starting charge=   -1.506131
     NEW-OLD atomic charge density approx. for the potential

     Check: negative/imaginary core charge=   -0.000022    0.000000
     Check: negative starting charge=   -1.506017

[...]

     Self-consistent Calculation

[...]

     total energy              =   -2128.97939815 Ry
     Harris-Foulkes estimate   =   -2128.97939817 Ry
     estimated scf accuracy    <       0.00000021 Ry

     iteration # 11     ecut=    36.75 Ry     beta=0.30
     Davidson diagonalization with overlap
     ethr =  1.12E-10,  avg # of iterations =  3.4

[...]

     negative rho (up, down):  1.588E+00 0.000E+00

     Adding external electric field

     Computed dipole along edir(3) :
        Dipole                0.2209 Ry au,          0.5615 Debye
        Dipole field          0.0006 Ry au

        Potential amp.       -0.0582 Ry
        Total length         45.0992 bohr

     End of self-consistent calculation

[...]

          k = 0.0608-0.0702 0.0000 ( 16203 PWs)   bands (ev):

[...]

          k =-0.0912-0.0526 0.0000 ( 16164 PWs)   bands (ev):

   -64.2637 -64.2577 -64.1818 -64.1720 -64.1303 -64.0063 -64.0032 -63.9435
   -63.9407 -63.9395 -63.9081 -63.8829 -36.6428 -36.6385 -36.6067 -36.5796
   -36.5182 -36.5092 -36.3972 -36.3825 -36.3311 -36.3281 -36.2779 -36.2508
   -36.1169 -36.0776 -36.0294 -36.0102 -35.9926 -35.9916 -35.9768 -35.9654
   -35.9548 -35.9480 -35.9340 -35.9247 -35.9128 -35.9070 -35.8721 -35.8443
   -35.7927 -35.7481 -35.7093 -35.6896 -35.6723 -35.6398 -35.6264 -35.5871
   -10.4220  -3.6724  -2.0270  -1.9802  -1.4335  -1.3988  -1.3719  -1.3688
    -1.1606  -1.0729  -0.8992  -0.7967  -0.7102  -0.6230  -0.4931  -0.4008
    -0.3384  -0.3238  -0.1254   0.0710   0.1817   0.2659   0.3886   0.4407
     0.5313   0.6075   0.9737   1.1316   1.2279   1.3292   1.4455   1.5015
     1.5508   1.6021   1.6992   1.7165   1.7629   1.8311   1.8568   1.9043
     1.9432   1.9909   2.2800   2.4803   2.7260   2.7698   2.9840   3.0345
     3.0582   3.1089   3.3764   3.4325   3.5183   3.5802   3.6750

     the Fermi energy is     2.9851 ev

!    total energy              =   -2128.97939814 Ry
     Harris-Foulkes estimate   =   -2128.97939765 Ry
     estimated scf accuracy    <       0.00000002 Ry

     The total energy is the sum of the following terms:

     one-electron contribution =  -19178.89871519 Ry
     hartree contribution      =    9593.70587774 Ry
     xc contribution           =    -406.74488859 Ry
     ewald contribution        =    7863.05303646 Ry
     electric field correction =       0.00014256 Ry
     smearing contrib. (-TS)   =      -0.09485113 Ry

     convergence has been achieved in  11 iterations

 BEEF-vdW xc energy contributions
           1 :   -356.136437941811
           2 :    327.132556680629
           3 :   -275.667957312774
           4 :    212.170592062642
           5 :   -147.647279427106
           6 :    90.7085757243809
           7 :   -45.9499194463522
           8 :    13.8531227465966
           9 :    7.96549194856817
          10 :   -22.9128996072192
          11 :    33.7232338180548
          12 :   -41.5489372143509
          13 :    45.9806839105103
          14 :   -45.8237489234490
          15 :    40.1502401857859
          16 :   -29.1571206745412
          17 :    14.4583912662509
          18 :    1.25666461971133
          19 :   -15.0300216639687
          20 :    24.5271401396060
          21 :   -28.6545201323450
          22 :    27.6732547594406
          23 :   -22.8386962234705
          24 :    15.7789298476533
          25 :   -7.91586474883360
          26 :   0.157366432684455
          27 :    7.06974709916341
          28 :   -13.5569576745586
          29 :    19.0151230487114
          30 :   -22.9253996062789
          31 :   -34.0832020649265
          32 :   -24.9680690896416

     Forces acting on atoms (Ry/au):

     negative rho (up, down):  1.588E+00 0.000E+00
     atom    1 type  1   force =     0.00047585    0.00027429    0.01416556
     atom    2 type  1   force =    -0.00047618    0.00027416    0.01416667
     atom    3 type  1   force =    -0.00000019   -0.00054921    0.01416602
     atom    4 type  1   force =     0.00000090    0.00000060    0.01311818
     atom    5 type  1   force =    -0.00000000    0.00081770   -0.01153239
     atom    6 type  1   force =     0.00000029   -0.00000355   -0.02000161
     atom    7 type  1   force =    -0.00071116   -0.00040668   -0.01152894
     atom    8 type  1   force =     0.00071130   -0.00040700   -0.01152617
     atom    9 type  1   force =    -0.00000384   -0.00000336   -0.00069592
     atom   10 type  1   force =     0.00000859   -0.00062829   -0.00022222
     atom   11 type  1   force =    -0.00054026    0.00032005   -0.00022059
     atom   12 type  1   force =     0.00054111    0.00031112   -0.00021730
     atom   13 type  2   force =    -0.00001482    0.00000073    0.00117348
     atom   14 type  3   force =     0.00000840   -0.00000057   -0.00084475

     Total force =     0.001975     Total SCF correction =     0.000169

     entering subroutine stress ...

     negative rho (up, down):  1.588E+00 0.000E+00
          total   stress  (Ry/bohr**3)                   (kbar)     P=  -18.81
  -0.00015585  -0.00000000  -0.00000000        -22.93     -0.00     -0.00
  -0.00000000  -0.00015585   0.00000000         -0.00    -22.93      0.00
  -0.00000000   0.00000000  -0.00007181         -0.00      0.00    -10.56

     bfgs converged in  14 scf cycles and  13 bfgs steps
     (criteria: energy <  1.0E+00, force <  1.9E-03)

     End of BFGS Geometry Optimization

     Final energy   =   -2128.9793981421 Ry
Begin final coordinates

ATOMIC_POSITIONS (crystal)
Tc1      0.166666667   0.166666667   0.408540475    0   0   0
Tc1      0.666666667   0.166666667   0.408540475    0   0   0
Tc1      0.166666667   0.666666667   0.408540475    0   0   0
Tc1      0.666666667   0.666666667   0.408540475    0   0   0
Tc1      0.833333333   0.333333333   0.500000000    0   0   0
Tc1      0.333333333   0.333333333   0.500000000    0   0   0
Tc1      0.833333333   0.833333333   0.500000000    0   0   0
Tc1      0.333333333   0.833333333   0.500000000    0   0   0
Tc1      0.000005521   0.000000459   0.589287989
Tc1      0.500689479  -0.001380621   0.585860843
Tc1     -0.001380933   0.500689469   0.585861136
Tc1      0.500691475   0.500689874   0.585860733
S1      -0.000011174   0.000000865   0.684674512
H1       0.000008092  -0.000000698   0.739845715
End final coordinates

     Writing output data file calc.save

     General routines

     Parallel routines

   This run was terminated on:  14:31:35  23Apr2018

   JOB DONE.
Job  /afs/slac/g/suncat/bin/suncat-tsmpirun -x LD_LIBRARY_PATH -wdir /scratch/qe15505_hAf94 pw.x -npool 3 -in pw.inp

TID   HOST_NAME   COMMAND_LINE            STATUS            TERMINATION_TIME
00000 suncat2065 pw.x -npool 3 -i  Done                     04/23/2018 14:31:35
00001 suncat2065 pw.x -npool 3 -i  Done                     04/23/2018 14:31:35
00002 suncat2065 pw.x -npool 3 -i  Done                     04/23/2018 14:31:35
00003 suncat2065 pw.x -npool 3 -i  Done                     04/23/2018 14:31:35
00004 suncat2021 pw.x -npool 3 -i  Done                     04/23/2018 14:31:35
00005 suncat2021 pw.x -npool 3 -i  Done                     04/23/2018 14:31:35
00006 suncat2021 pw.x -npool 3 -i  Done                     04/23/2018 14:31:35
00007 suncat2021 pw.x -npool 3 -i  Done                     04/23/2018 14:31:35
00008 suncat2021 pw.x -npool 3 -i  Done                     04/23/2018 14:31:35
00009 suncat2021 pw.x -npool 3 -i  Done                     04/23/2018 14:31:35
00010 suncat2021 pw.x -npool 3 -i  Done                     04/23/2018 14:31:35
00011 suncat2021 pw.x -npool 3 -i  Done                     04/23/2018 14:31:35
00012 suncat2021 pw.x -npool 3 -i  Done                     04/23/2018 14:31:35
00013 suncat2021 pw.x -npool 3 -i  Done                     04/23/2018 14:31:35
00014 suncat2021 pw.x -npool 3 -i  Done                     04/23/2018 14:31:35
00015 suncat2021 pw.x -npool 3 -i  Done                     04/23/2018 14:31:35
00016 suncat2021 pw.x -npool 3 -i  Done                     04/23/2018 14:31:35
00017 suncat2021 pw.x -npool 3 -i  Done                     04/23/2018 14:31:35
00018 suncat2021 pw.x -npool 3 -i  Done                     04/23/2018 14:31:35
00019 suncat2021 pw.x -npool 3 -i  Done                     04/23/2018 14:31:35
00020 suncat2001 pw.x -npool 3 -i  Done                     04/23/2018 14:31:35
00021 suncat2001 pw.x -npool 3 -i  Done                     04/23/2018 14:31:35
00022 suncat2001 pw.x -npool 3 -i  Done                     04/23/2018 14:31:35
00023 suncat2001 pw.x -npool 3 -i  Done                     04/23/2018 14:31:35
00024 suncat2001 pw.x -npool 3 -i  Done                     04/23/2018 14:31:35
00025 suncat2001 pw.x -npool 3 -i  Done                     04/23/2018 14:31:35
00026 suncat2001 pw.x -npool 3 -i  Done                     04/23/2018 14:31:35
00027 suncat2001 pw.x -npool 3 -i  Done                     04/23/2018 14:31:35
00028 suncat2001 pw.x -npool 3 -i  Done                     04/23/2018 14:31:35
00029 suncat2001 pw.x -npool 3 -i  Done                     04/23/2018 14:31:35
00030 suncat2001 pw.x -npool 3 -i  Done                     04/23/2018 14:31:35
00031 suncat2001 pw.x -npool 3 -i  Done                     04/23/2018 14:31:35
00032 suncat2001 pw.x -npool 3 -i  Done                     04/23/2018 14:31:35
00033 suncat2001 pw.x -npool 3 -i  Done                     04/23/2018 14:31:35
00034 suncat2001 pw.x -npool 3 -i  Done                     04/23/2018 14:31:35
00035 suncat2001 pw.x -npool 3 -i  Done                     04/23/2018 14:31:35