     Program PWSCF v.5.1rc2 (svn rev. ) starts on 17Apr2018 at  8:35:47

     Current dimensions of program PWSCF are:
     Max number of different atomic species (ntypx) = 10
     Max number of k-points (npk) =  40000
     Max angular momentum in pseudopotentials (lmaxx) =  3
     Presently stress not available with electric field

     IMPORTANT: XC functional enforced from input :
     Exchange-correlation      = BEEF-VDW ( 1  4 27 13 2)
     Any further DFT definition will be discarded
     Please, verify this is what you really want

     Subspace diagonalization in iterative solution of the eigenvalue problem:
     a serial algorithm will be used

     bravais-lattice index     =            0
     lattice parameter (alat)  =       1.8897  a.u.
     unit-cell volume          =    3807.2308 (a.u.)^3
     number of atoms/cell      =           14
     number of atomic types    =            3
     number of electrons       =       234.00
     number of Kohn-Sham states=          127
     kinetic-energy cutoff     =      36.7493  Ry
     charge density cutoff     =     367.4932  Ry
     convergence threshold     =      1.0E-05
     mixing beta               =       0.3000
     number of iterations used =           10  plain     mixing
     Exchange-correlation      = BEEF-VDW ( 1  4 27 13 2)
     nstep                     =           50

     celldm(1)=   1.889726  celldm(2)=   0.000000  celldm(3)=   0.000000
     celldm(4)=   0.000000  celldm(5)=   0.000000  celldm(6)=   0.000000

     crystal axes: (cart. coord. in units of alat)
               a(1) = (   5.184823   0.000000   0.000000 )
               a(2) = (   2.592411   4.490188   0.000000 )
               a(3) = (   0.000000   0.000000  24.233390 )

     reciprocal axes: (cart. coord. in units 2 pi/alat)
               b(1) = (  0.192871 -0.111354  0.000000 )
               b(2) = (  0.000000  0.222708  0.000000 )
               b(3) = (  0.000000  0.000000  0.041265 )

     PseudoPot. # 1 for Cu read from file:
     /home/mamunm/src/pseudo/gbrv1.5pbe/Cu.UPF
     MD5 check sum: 6e991ff952a84172a2a52a1c1e996048
     Pseudo is Ultrasoft + core correction, Zval = 19.0
     Generated by new atomic code, or converted to UPF format
     Using radial grid of  867 points,  6 beta functions with:
                l(1) =   0
                l(2) =   0
                l(3) =   1
                l(4) =   1
                l(5) =   2
                l(6) =   2
     Q(r) pseudized with  8 coefficients,  rinner =    1.150   1.150   1.150
                                                       1.150   1.150

     PseudoPot. # 2 for N  read from file:
     /home/mamunm/src/pseudo/gbrv1.5pbe/N.UPF
     MD5 check sum: 95339753478d7afb44899504a8723017
     Pseudo is Ultrasoft + core correction, Zval =  5.0
     Generated by new atomic code, or converted to UPF format
     Using radial grid of  729 points,  4 beta functions with:
                l(1) =   0
                l(2) =   0
                l(3) =   1
                l(4) =   1
     Q(r) pseudized with  8 coefficients,  rinner =    0.900   0.900   0.900

     PseudoPot. # 3 for H  read from file:
     /home/mamunm/src/pseudo/gbrv1.5pbe/H.UPF
     MD5 check sum: 761ae9a214b05c3daf00ab9f6b793d6f
     Pseudo is Ultrasoft, Zval =  1.0
     Generated by new atomic code, or converted to UPF format
     Using radial grid of  615 points,  2 beta functions with:
                l(1) =   0
                l(2) =   0
     Q(r) pseudized with  8 coefficients,  rinner =    0.700

     vdW kernel table read from file vdW_kernel_table
     MD5 check sum: 095c7af220d748ca6e76c0b4c6cfb241

     atomic species   valence    mass     pseudopotential
        Cu1           19.00    63.54600     Cu( 1.00)
        N1             5.00    14.00700     N ( 1.00)
        H1             1.00     1.00800     H ( 1.00)

     No symmetry found

   Cartesian axes

     site n.     atom                  positions (alat units)
         1           Cu1 tau(   1) = (   1.2962057   0.7483647  10.0000000  )
         2           Cu1 tau(   2) = (   3.8886170   0.7483647  10.0000000  )
         3           Cu1 tau(   3) = (   2.5924113   2.9934587  10.0000000  )
         4           Cu1 tau(   4) = (   5.1848226   2.9934587  10.0000000  )
         5           Cu1 tau(   5) = (   5.1848226   1.4967294  12.1166950  )
         6           Cu1 tau(   6) = (   2.5924113   1.4967294  12.1166950  )
         7           Cu1 tau(   7) = (   6.4810283   3.7418234  12.1166950  )
         8           Cu1 tau(   8) = (   3.8886170   3.7418234  12.1166950  )
         9           Cu1 tau(   9) = (   0.0000000   0.0000000  14.2333899  )
        10           Cu1 tau(  10) = (   2.5924113   0.0000000  14.2333899  )
        11           Cu1 tau(  11) = (   1.2962057   2.2450940  14.2333899  )
        12           Cu1 tau(  12) = (   3.8886170   2.2450940  14.2333899  )
        13           N1  tau(  13) = (   2.5924113   1.4967294  15.5528899  )
        14           H1  tau(  14) = (   2.5924113   1.4967294  16.6028899  )

     number of k points=    20  Fermi-Dirac smearing, width (Ry)=  0.0110
                       cart. coord. in units 2pi/alat
        k(    1) = (   0.0000000   0.0000000   0.0000000), wk =   0.0555556
        k(    2) = (   0.0000000   0.0371180   0.0000000), wk =   0.1111111
        k(    3) = (   0.0000000   0.0742359   0.0000000), wk =   0.1111111
        k(    4) = (   0.0000000  -0.1113539   0.0000000), wk =   0.0555556
        k(    5) = (   0.0321451  -0.0185590   0.0000000), wk =   0.1111111
        k(    6) = (   0.0321451   0.0185590   0.0000000), wk =   0.1111111
        k(    7) = (   0.0321451   0.0556770   0.0000000), wk =   0.1111111
        k(    8) = (   0.0321451  -0.1299129   0.0000000), wk =   0.1111111
        k(    9) = (   0.0321451  -0.0927949   0.0000000), wk =   0.1111111
        k(   10) = (   0.0321451  -0.0556770   0.0000000), wk =   0.1111111
        k(   11) = (   0.0642902  -0.0371180   0.0000000), wk =   0.1111111
        k(   12) = (   0.0642902  -0.0000000   0.0000000), wk =   0.1111111
        k(   13) = (   0.0642902   0.0371180   0.0000000), wk =   0.1111111
        k(   14) = (   0.0642902  -0.1484719   0.0000000), wk =   0.1111111
        k(   15) = (   0.0642902  -0.1113539   0.0000000), wk =   0.1111111
        k(   16) = (   0.0642902  -0.0742359   0.0000000), wk =   0.1111111
        k(   17) = (  -0.0964353   0.0556770   0.0000000), wk =   0.0555556
        k(   18) = (  -0.0964353   0.0927949   0.0000000), wk =   0.1111111
        k(   19) = (  -0.0964353   0.1299129   0.0000000), wk =   0.1111111
        k(   20) = (  -0.0964353  -0.0556770   0.0000000), wk =   0.0555556

     Largest allocated arrays     est. size (Mb)     dimensions
     Largest temporary arrays     est. size (Mb)     dimensions

     Initial potential from superposition of free atoms
     Check: negative starting charge=   -0.000112

     starting charge  221.99996, renormalised to  234.00000

     negative rho (up, down):  1.180E-04 0.000E+00

     *
     * You are using vdW-DF for exchange-correlation in this calculation.
     * Please cite the following three references that made this development
     * possible:
     *
     *   M. Dion, H. Rydberg, E. Schroder, D. C. Langreth, and
     *   B. I. Lundqvist, Phys. Rev. Lett. 92, 246401 (2004).
     *
     *   T. Thonhauser, V. R. Cooper, S. Li, A. Puzder, P. Hyldgaard, and
     *   D. C. Langreth, Phys. Rev. B 76, 125112 (2007).
     *
     *   G. Roman-Perez and J. M. Soler, Phys. Rev. Lett. 103, 096102 (2009).
     *
     *
     * If you are using vdW-DF2, please also cite:
     *
     *   K. Lee, E. D. Murray, L. Kong, B. I. Lundqvist, and
     *   D. C. Langreth, Phys. Rev. B 82, 081101(R) (2010).
     *
     *
     * If you are calculating the stress with vdW-DF, please also cite:
     *
     *   R. Sabatini, E. Kucukbenli, B. Kolb, T. Thonhauser, and
     *   S. de Gironcoli, J. Phys.: Condens. Matter 24, 424209 (2012).
     *

     Carrying out vdW-DF run using the following parameters:

     Nqs =      20    Nr_points =    1024   r_max =   100.000
     q_mesh =
               0.00001000     0.04494208     0.09755937     0.15916263
               0.23128650     0.31572767     0.41458969     0.53033537
               0.66584808     0.82450364     1.01025438     1.22772762
               1.48234092     1.78043706     2.12944203     2.53805004
               3.01644009     3.57652955     4.23227104     5.00000000

     Gradients computed in reciprocal space

     Adding external electric field

     Computed dipole along edir(3) :
        Dipole               -2.2131 Ry au,         -5.6252 Debye
        Dipole field         -0.0073 Ry au

        Potential amp.        0.6523 Ry
        Total length         44.6496 bohr

     Starting wfc are  161 randomized atomic wfcs

     Self-consistent Calculation

     iteration #  1     ecut=    36.75 Ry     beta=0.30
     Davidson diagonalization with overlap
     ethr =  1.00E-02,  avg # of iterations =  7.9

[...]

     total energy              =   -4565.41013041 Ry
     Harris-Foulkes estimate   =   -4880.01433495 Ry
     estimated scf accuracy    <     661.72738755 Ry

     iteration #  2     ecut=    36.75 Ry     beta=0.30
     Davidson diagonalization with overlap
     c_bands:  1 eigenvalues not converged
     c_bands:  1 eigenvalues not converged
     c_bands:  4 eigenvalues not converged
     c_bands:  1 eigenvalues not converged
     c_bands:  3 eigenvalues not converged
     c_bands:  2 eigenvalues not converged
     ethr =  1.00E-02,  avg # of iterations = 19.6

[...]

     End of self-consistent calculation

          k = 0.0000 0.0000 0.0000 ( 14321 PWs)   bands (ev):

  -111.9647-111.9591-111.9587-111.9229-111.9178-111.9163-111.8648-111.6938
  -111.6869-111.6860-111.6859-111.5407 -69.3903 -69.3874 -69.3871 -69.3770
   -69.3616 -69.3613 -69.3523 -69.3511 -69.3382 -69.3379 -69.3268 -69.3265
   -69.3224 -69.3219 -69.3126 -69.2844 -69.2625 -69.2622 -69.2500 -69.2483
   -69.2474 -69.1466 -69.1462 -69.1453 -69.0955 -69.0954 -69.0950 -69.0778
   -69.0777 -69.0447 -69.0387 -69.0379 -69.0359 -68.9708 -68.9708 -68.9040
   -14.2693  -7.7031  -6.5149  -5.1622  -4.1604  -4.0141  -4.0139  -3.9058
    -3.7831  -3.7830  -3.5787  -3.5020  -3.5019  -3.3597  -3.3318  -3.3317
    -3.1124  -2.9175  -2.9174  -2.5612  -2.5610  -2.5484  -2.3578  -2.3577
    -2.3293  -2.2423  -2.2343  -2.2343  -2.1113  -2.1093  -2.1091  -2.0841
    -2.0312  -2.0312  -1.9817  -1.9815  -1.7970  -1.7105  -1.7102  -1.5311
    -1.4942  -1.4939  -1.4381  -1.4379  -1.2859  -1.2857  -1.2157  -1.1771
    -1.1767  -1.1057  -1.0604  -1.0602  -1.0127  -1.0125  -0.9940  -0.9827
    -0.9586  -0.9584  -0.9383  -0.8343  -0.8339  -0.7556  -0.7546  -0.7543
    -0.3882  -0.1014  -0.1011   0.8209   0.8706   0.8707   1.3096   1.9541
     1.9542   2.0954   2.3247   2.3247   3.4269   4.4571   4.7965

[...]

          k =-0.0964 0.0557 0.0000 ( 14294 PWs)   bands (ev):

[...]

     the Fermi energy is     0.6775 ev

!    total energy              =   -4880.72320490 Ry
     Harris-Foulkes estimate   =   -4880.72320355 Ry
     estimated scf accuracy    <       0.00000189 Ry

     The total energy is the sum of the following terms:

     one-electron contribution =  -37920.03711039 Ry
     hartree contribution      =   18978.17122225 Ry
     xc contribution           =    -486.32233915 Ry
     ewald contribution        =   14547.49294343 Ry
     electric field correction =       0.00004332 Ry
     smearing contrib. (-TS)   =      -0.02796436 Ry

     convergence has been achieved in  38 iterations

 BEEF-vdW xc energy contributions
           1 :   -430.846331646202
           2 :    390.525861294865
           3 :   -322.234744868025
           4 :    244.762702011234
           5 :   -175.201880980856
           6 :    122.837832222232
           7 :   -87.7013985205195
           8 :    63.7212824328373
           9 :   -44.0229068217370
          10 :    25.1059549420644
          11 :   -7.80874190272959
          12 :   -4.80336236239589
          13 :    10.6359324978558
          14 :   -10.5294698753580
          15 :    7.84669015464090
          16 :   -6.28203632784528
          17 :    7.60209220037416
          18 :   -10.8780056284137
          19 :    13.5809774446118
          20 :   -13.6137161710139
          21 :    10.8108750246859
          22 :   -6.94335517501230
          23 :    4.36171057108857
          24 :   -4.33465714009344
          25 :    6.25709308860576
          26 :   -8.21354138459560
          27 :    8.41136329837838
          28 :   -6.43337026539808
          29 :    3.45140026583391
          30 :   -1.31315955703792
          31 :   -34.5082269986334
          32 :   -23.5800659324344

     Forces acting on atoms (Ry/au):

     negative rho (up, down):  1.181E-03 0.000E+00
     atom    1 type  1   force =    -0.00024065   -0.00012309    0.00187244
     atom    2 type  1   force =     0.00025748   -0.00012569    0.00141266
     atom    3 type  1   force =     0.00001252    0.00030971    0.00191409
     atom    4 type  1   force =    -0.00001940   -0.00003545   -0.00228428
     atom    5 type  1   force =     0.00027252    0.00368380    0.00316681
     atom    6 type  1   force =    -0.00024748    0.00003187   -0.01544879
     atom    7 type  1   force =    -0.00309606   -0.00195705    0.00324813
     atom    8 type  1   force =     0.00312399   -0.00173163    0.00297388
     atom    9 type  1   force =    -0.00003389   -0.00002144   -0.00767525
     atom   10 type  1   force =     0.00001908   -0.00194585    0.02415334
     atom   11 type  1   force =    -0.00166060    0.00096758    0.02428376
     atom   12 type  1   force =     0.00163594    0.00093954    0.02428575
     atom   13 type  2   force =    -0.00001871    0.00000868   -0.01711950
     atom   14 type  3   force =    -0.00000474   -0.00000099   -0.04478304

     Total force =     0.064276     Total SCF correction =     0.003040

     entering subroutine stress ...

     negative rho (up, down):  1.181E-03 0.000E+00
          total   stress  (Ry/bohr**3)                   (kbar)     P=  -19.23
  -0.00012747  -0.00000002   0.00000008        -18.75     -0.00      0.01
  -0.00000002  -0.00012750  -0.00000004         -0.00    -18.76     -0.01
   0.00000008  -0.00000004  -0.00013713          0.01     -0.01    -20.17

     BFGS Geometry Optimization

     number of scf cycles    =   1
     number of bfgs steps    =   0

     energy   new            =   -4880.7232048979 Ry

     new trust radius        =       0.0447830398 bohr
     new conv_thr            =       0.0000099958 Ry

ATOMIC_POSITIONS (crystal)
Cu1      0.166666667   0.166666667   0.412653782    0   0   0
Cu1      0.666666667   0.166666667   0.412653782    0   0   0
Cu1      0.166666667   0.666666667   0.412653782    0   0   0
Cu1      0.666666667   0.666666667   0.412653782    0   0   0
Cu1      0.833333333   0.333333333   0.500000000    0   0   0
Cu1      0.333333333   0.333333333   0.500000000    0   0   0
Cu1      0.833333333   0.833333333   0.500000000    0   0   0
Cu1      0.333333333   0.833333333   0.500000000    0   0   0
Cu1     -0.000002196  -0.000002527   0.587178616
Cu1      0.500116609  -0.000229322   0.587873647
Cu1     -0.000226500   0.500114031   0.587876495
Cu1      0.500111605   0.500110726   0.587876539
N1       0.333330912   0.333334356   0.641422051
H1       0.333332908   0.333333217   0.684146618

     Writing output data file calc.save
     Check: negative starting charge=   -0.000112
     NEW-OLD atomic charge density approx. for the potential
     Check: negative starting charge=   -0.000114

[...]

     Total force =     0.055630     Total SCF correction =     0.011690
     SCF correction compared to forces is large: reduce conv_thr to get better values

[...]

     energy   old            =   -4880.7232048979 Ry
     energy   new            =   -4880.7267939852 Ry

     CASE: energy  _new < energy  _old

[...]

     iteration #  1     ecut=    36.75 Ry     beta=0.30
     Davidson diagonalization with overlap
     c_bands:  1 eigenvalues not converged
     ethr =  1.00E-06,  avg # of iterations = 11.6

[...]

     WARNING: bfgs curvature condition failed, Theta= 0.914
     new trust radius        =       0.0062031854 bohr
     new conv_thr            =       0.0000001000 Ry

[...]

     Total force =     0.004758     Total SCF correction =     0.000302

[...]

     number of scf cycles    =  11
     number of bfgs steps    =  10

     energy   old            =   -4880.7380196156 Ry
     energy   new            =   -4880.7381168665 Ry

     CASE: energy  _new < energy  _old

     new trust radius        =       0.0209357508 bohr
     new conv_thr            =       0.0000001000 Ry

ATOMIC_POSITIONS (crystal)
Cu1      0.166666667   0.166666667   0.412653782    0   0   0
Cu1      0.666666667   0.166666667   0.412653782    0   0   0
Cu1      0.166666667   0.666666667   0.412653782    0   0   0
Cu1      0.666666667   0.666666667   0.412653782    0   0   0
Cu1      0.833333333   0.333333333   0.500000000    0   0   0
Cu1      0.333333333   0.333333333   0.500000000    0   0   0
Cu1      0.833333333   0.833333333   0.500000000    0   0   0
Cu1      0.333333333   0.833333333   0.500000000    0   0   0
Cu1      0.000005343  -0.000003011   0.583516472
Cu1      0.506092392  -0.012179493   0.589935821
Cu1     -0.012172094   0.506082037   0.589932890
Cu1      0.506095139   0.506078591   0.589937552
N1       0.333348879   0.333316806   0.636086908
H1       0.333327699   0.333321465   0.678237556

     Writing output data file calc.save
     Check: negative starting charge=   -0.000120
     NEW-OLD atomic charge density approx. for the potential
     Check: negative starting charge=   -0.000121

[...]

     Self-consistent Calculation

[...]

     total energy              =   -4880.73819906 Ry
     Harris-Foulkes estimate   =   -4880.73819904 Ry
     estimated scf accuracy    <       0.00000010 Ry

     iteration # 11     ecut=    36.75 Ry     beta=0.30
     Davidson diagonalization with overlap
     ethr =  4.43E-11,  avg # of iterations =  2.2

[...]

     negative rho (up, down):  1.277E-03 0.000E+00

     Adding external electric field

     Computed dipole along edir(3) :
        Dipole                0.1670 Ry au,          0.4244 Debye
        Dipole field          0.0006 Ry au

        Potential amp.       -0.0492 Ry
        Total length         44.6496 bohr

     End of self-consistent calculation

[...]

          k = 0.0643-0.0742 0.0000 ( 14299 PWs)   bands (ev):

[...]

          k =-0.0964-0.0557 0.0000 ( 14294 PWs)   bands (ev):

  -111.9287-111.9250-111.9236-111.8736-111.8718-111.8699-111.7336-111.6051
  -111.5886-111.5865-111.5849-111.5202 -69.4061 -69.3843 -69.3734 -69.3256
   -69.3212 -69.3078 -69.2935 -69.2804 -69.2762 -69.2724 -69.2705 -69.2675
   -69.2616 -69.2602 -69.2483 -69.2442 -69.2412 -69.2370 -69.1394 -69.1353
   -69.1225 -69.0431 -69.0313 -69.0269 -69.0110 -69.0073 -69.0072 -68.9931
   -68.9846 -68.9562 -68.9444 -68.9430 -68.9397 -68.9378 -68.9363 -68.8967
   -14.7726  -6.7706  -5.8465  -5.4941  -4.5284  -3.9500  -3.8762  -3.6163
    -3.4736  -3.3677  -3.2843  -3.1929  -3.1778  -3.0588  -2.9542  -2.9101
    -2.8290  -2.8069  -2.7089  -2.6845  -2.5522  -2.5383  -2.5195  -2.5104
    -2.4535  -2.4436  -2.3004  -2.2516  -2.2084  -2.1671  -2.1161  -2.0759
    -2.0143  -1.9972  -1.9382  -1.9379  -1.9124  -1.9037  -1.8845  -1.8557
    -1.8377  -1.7828  -1.6332  -1.6217  -1.5946  -1.5672  -1.5427  -1.5268
    -1.4830  -1.4250  -1.4243  -1.3617  -1.2964  -1.2568  -1.2337  -1.2304
    -1.1708  -1.1532  -1.0529  -1.0263  -0.9419  -0.9365  -0.9151  -0.8497
    -0.8038  -0.3308  -0.1227   0.0914   0.7606   0.8532   1.4307   1.8735
     2.3365   2.8385   3.8431   4.1345   4.9327   5.1708   5.6929

     the Fermi energy is     0.7804 ev

!    total energy              =   -4880.73819906 Ry
     Harris-Foulkes estimate   =   -4880.73819896 Ry
     estimated scf accuracy    <       0.00000002 Ry

     The total energy is the sum of the following terms:

     one-electron contribution =  -37882.31987728 Ry
     hartree contribution      =   18959.65960098 Ry
     xc contribution           =    -486.40225850 Ry
     ewald contribution        =   14528.35115430 Ry
     electric field correction =       0.00009202 Ry
     smearing contrib. (-TS)   =      -0.02691057 Ry

     convergence has been achieved in  11 iterations

 BEEF-vdW xc energy contributions
           1 :   -430.930962491857
           2 :    390.637157206793
           3 :   -322.361703553518
           4 :    244.858751107147
           5 :   -175.220489275990
           6 :    122.768140168419
           7 :   -87.5782812938742
           8 :    63.6031522232581
           9 :   -43.9544574962738
          10 :    25.0930782135366
          11 :   -7.82155291755760
          12 :   -4.80393637041470
          13 :    10.6677923333455
          14 :   -10.5771256692966
          15 :    7.87447606890521
          16 :   -6.26128358536789
          17 :    7.53291684343912
          18 :   -10.7916372994541
          19 :    13.5207081975481
          20 :   -13.6078642645686
          21 :    10.8562704845019
          22 :   -7.00870233323229
          23 :    4.40756076668310
          24 :   -4.33700041153099
          25 :    6.21995380314945
          26 :   -8.16389798500711
          27 :    8.37979311839928
          28 :   -6.43259911318933
          29 :    3.46679466533556
          30 :   -1.31265273777876
          31 :   -34.5139152241218
          32 :   -23.5889280266513

     Forces acting on atoms (Ry/au):

     negative rho (up, down):  1.277E-03 0.000E+00
     atom    1 type  1   force =    -0.00007745   -0.00004490    0.00284151
     atom    2 type  1   force =     0.00007789   -0.00004499    0.00284180
     atom    3 type  1   force =     0.00000011    0.00008929    0.00284128
     atom    4 type  1   force =     0.00000031   -0.00000026   -0.00040613
     atom    5 type  1   force =    -0.00000272    0.00688868    0.00097053
     atom    6 type  1   force =     0.00000259   -0.00000124   -0.00818911
     atom    7 type  1   force =    -0.00596687   -0.00344293    0.00097058
     atom    8 type  1   force =     0.00596840   -0.00344721    0.00097495
     atom    9 type  1   force =     0.00000101   -0.00000419    0.00152936
     atom   10 type  1   force =    -0.00000118    0.00048060   -0.00050887
     atom   11 type  1   force =     0.00044443   -0.00025220   -0.00048409
     atom   12 type  1   force =    -0.00042495   -0.00023865   -0.00051000
     atom   13 type  2   force =    -0.00002421    0.00001873   -0.00138234
     atom   14 type  3   force =     0.00000265   -0.00000071   -0.00148947

     Total force =     0.002820     Total SCF correction =     0.000341
     SCF correction compared to forces is large: reduce conv_thr to get better values

     entering subroutine stress ...

     negative rho (up, down):  1.277E-03 0.000E+00
          total   stress  (Ry/bohr**3)                   (kbar)     P=  -17.58
  -0.00012921   0.00000001  -0.00000001        -19.01      0.00     -0.00
   0.00000001  -0.00012920   0.00000001          0.00    -19.01      0.00
  -0.00000001   0.00000001  -0.00010007         -0.00      0.00    -14.72

     bfgs converged in  12 scf cycles and  11 bfgs steps
     (criteria: energy <  1.0E+00, force <  1.9E-03)

     End of BFGS Geometry Optimization

     Final energy   =   -4880.7381990550 Ry
Begin final coordinates

ATOMIC_POSITIONS (crystal)
Cu1      0.166666667   0.166666667   0.412653782    0   0   0
Cu1      0.666666667   0.166666667   0.412653782    0   0   0
Cu1      0.166666667   0.666666667   0.412653782    0   0   0
Cu1      0.666666667   0.666666667   0.412653782    0   0   0
Cu1      0.833333333   0.333333333   0.500000000    0   0   0
Cu1      0.333333333   0.333333333   0.500000000    0   0   0
Cu1      0.833333333   0.833333333   0.500000000    0   0   0
Cu1      0.333333333   0.833333333   0.500000000    0   0   0
Cu1      0.000005343  -0.000003011   0.583516472
Cu1      0.506092392  -0.012179493   0.589935821
Cu1     -0.012172094   0.506082037   0.589932890
Cu1      0.506095139   0.506078591   0.589937552
N1       0.333348879   0.333316806   0.636086908
H1       0.333327699   0.333321465   0.678237556
End final coordinates

     Writing output data file calc.save

     General routines

     Parallel routines

   This run was terminated on:   9:16:58  17Apr2018

   JOB DONE.