     Program PWSCF v.5.1rc2 (svn rev. 11289) starts on 24Apr2018 at 21:28:49

     Current dimensions of program PWSCF are:
     Max number of different atomic species (ntypx) = 10
     Max number of k-points (npk) =  40000
     Max angular momentum in pseudopotentials (lmaxx) =  3
     Presently stress not available with electric field

     IMPORTANT: XC functional enforced from input :
     Exchange-correlation      = BEEF-VDW ( 1  4 27 13 2)
     Any further DFT definition will be discarded
     Please, verify this is what you really want

     Subspace diagonalization in iterative solution of the eigenvalue problem:
     a serial algorithm will be used

     bravais-lattice index     =            0
     lattice parameter (alat)  =       1.8897  a.u.
     unit-cell volume          =    7725.1200 (a.u.)^3
     number of atoms/cell      =           14
     number of atomic types    =            3
     number of electrons       =       138.00
     number of Kohn-Sham states=           79
     kinetic-energy cutoff     =      36.7493  Ry
     charge density cutoff     =     367.4932  Ry
     convergence threshold     =      1.0E-05
     mixing beta               =       0.3000
     number of iterations used =           10  plain     mixing
     Exchange-correlation      = BEEF-VDW ( 1  4 27 13 2)
     nstep                     =           50

     celldm(1)=   1.889726  celldm(2)=   0.000000  celldm(3)=   0.000000
     celldm(4)=   0.000000  celldm(5)=   0.000000  celldm(6)=   0.000000

     crystal axes: (cart. coord. in units of alat)
               a(1) = (   7.152277   0.000000   0.000000 )
               a(2) = (   3.576139   6.194054   0.000000 )
               a(3) = (   0.000000   0.000000  25.839810 )

     reciprocal axes: (cart. coord. in units 2 pi/alat)
               b(1) = (  0.139816 -0.080723  0.000000 )
               b(2) = (  0.000000  0.161445  0.000000 )
               b(3) = (  0.000000  0.000000  0.038700 )

     PseudoPot. # 1 for Y  read from file:
     /u/if/mamunm/psp/gbrv1.5pbe/Y.UPF
     MD5 check sum: d034151ed7554c50b6e82763ed42c788
     Pseudo is Ultrasoft + core correction, Zval = 11.0
     Generated by new atomic code, or converted to UPF format
     Using radial grid of  885 points,  6 beta functions with:
                l(1) =   0
                l(2) =   0
                l(3) =   1
                l(4) =   1
                l(5) =   2
                l(6) =   2
     Q(r) pseudized with  8 coefficients,  rinner =    1.200   1.200   1.200
                                                       1.200   1.200

     PseudoPot. # 2 for N  read from file:
     /u/if/mamunm/psp/gbrv1.5pbe/N.UPF
     MD5 check sum: 95339753478d7afb44899504a8723017
     Pseudo is Ultrasoft + core correction, Zval =  5.0
     Generated by new atomic code, or converted to UPF format
     Using radial grid of  729 points,  4 beta functions with:
                l(1) =   0
                l(2) =   0
                l(3) =   1
                l(4) =   1
     Q(r) pseudized with  8 coefficients,  rinner =    0.900   0.900   0.900

     PseudoPot. # 3 for H  read from file:
     /u/if/mamunm/psp/gbrv1.5pbe/H.UPF
     MD5 check sum: 761ae9a214b05c3daf00ab9f6b793d6f
     Pseudo is Ultrasoft, Zval =  1.0
     Generated by new atomic code, or converted to UPF format
     Using radial grid of  615 points,  2 beta functions with:
                l(1) =   0
                l(2) =   0
     Q(r) pseudized with  8 coefficients,  rinner =    0.700

     vdW kernel table read from file vdW_kernel_table
     MD5 check sum: 095c7af220d748ca6e76c0b4c6cfb241

     atomic species   valence    mass     pseudopotential
        Y1            11.00    88.90584     Y ( 1.00)
        N1             5.00    14.00700     N ( 1.00)
        H1             1.00     1.00800     H ( 1.00)

     No symmetry found

   Cartesian axes

     site n.     atom                  positions (alat units)
         1           Y1  tau(   1) = (   1.7880693   1.0323423  10.0000000  )
         2           Y1  tau(   2) = (   5.3642080   1.0323423  10.0000000  )
         3           Y1  tau(   3) = (   3.5761386   4.1293692  10.0000000  )
         4           Y1  tau(   4) = (   7.1522773   4.1293692  10.0000000  )
         5           Y1  tau(   5) = (   7.1522773   2.0646846  12.9199050  )
         6           Y1  tau(   6) = (   3.5761386   2.0646846  12.9199050  )
         7           Y1  tau(   7) = (   8.9403466   5.1617115  12.9199050  )
         8           Y1  tau(   8) = (   5.3642080   5.1617115  12.9199050  )
         9           Y1  tau(   9) = (   0.0000000   0.0000000  15.8398100  )
        10           Y1  tau(  10) = (   3.5761386   0.0000000  15.8398100  )
        11           Y1  tau(  11) = (   1.7880693   3.0970269  15.8398100  )
        12           Y1  tau(  12) = (   5.3642080   3.0970269  15.8398100  )
        13           N1  tau(  13) = (   1.7880693   1.0323423  17.5363100  )
        14           H1  tau(  14) = (   1.7880693   1.0323423  18.5863100  )

     number of k points=    20  Fermi-Dirac smearing, width (Ry)=  0.0110
                       cart. coord. in units 2pi/alat
        k(    1) = (   0.0000000   0.0000000   0.0000000), wk =   0.0555556
        k(    2) = (   0.0000000   0.0269075   0.0000000), wk =   0.1111111
        k(    3) = (   0.0000000   0.0538151   0.0000000), wk =   0.1111111
        k(    4) = (   0.0000000  -0.0807226   0.0000000), wk =   0.0555556
        k(    5) = (   0.0233026  -0.0134538   0.0000000), wk =   0.1111111
        k(    6) = (   0.0233026   0.0134538   0.0000000), wk =   0.1111111
        k(    7) = (   0.0233026   0.0403613   0.0000000), wk =   0.1111111
        k(    8) = (   0.0233026  -0.0941763   0.0000000), wk =   0.1111111
        k(    9) = (   0.0233026  -0.0672688   0.0000000), wk =   0.1111111
        k(   10) = (   0.0233026  -0.0403613   0.0000000), wk =   0.1111111
        k(   11) = (   0.0466052  -0.0269075   0.0000000), wk =   0.1111111
        k(   12) = (   0.0466052   0.0000000   0.0000000), wk =   0.1111111
        k(   13) = (   0.0466052   0.0269075   0.0000000), wk =   0.1111111
        k(   14) = (   0.0466052  -0.1076301   0.0000000), wk =   0.1111111
        k(   15) = (   0.0466052  -0.0807226   0.0000000), wk =   0.1111111
        k(   16) = (   0.0466052  -0.0538151   0.0000000), wk =   0.1111111
        k(   17) = (  -0.0699078   0.0403613   0.0000000), wk =   0.0555556
        k(   18) = (  -0.0699078   0.0672688   0.0000000), wk =   0.1111111
        k(   19) = (  -0.0699078   0.0941763   0.0000000), wk =   0.1111111
        k(   20) = (  -0.0699078  -0.0403613   0.0000000), wk =   0.0555556

     Largest allocated arrays     est. size (Mb)     dimensions
     Largest temporary arrays     est. size (Mb)     dimensions

     Initial potential from superposition of free atoms
     Check: negative starting charge=   -0.000529

     starting charge  137.94635, renormalised to  138.00000

     negative rho (up, down):  5.293E-04 0.000E+00

     *
     * You are using vdW-DF for exchange-correlation in this calculation.
     * Please cite the following three references that made this development
     * possible:
     *
     *   M. Dion, H. Rydberg, E. Schroder, D. C. Langreth, and
     *   B. I. Lundqvist, Phys. Rev. Lett. 92, 246401 (2004).
     *
     *   T. Thonhauser, V. R. Cooper, S. Li, A. Puzder, P. Hyldgaard, and
     *   D. C. Langreth, Phys. Rev. B 76, 125112 (2007).
     *
     *   G. Roman-Perez and J. M. Soler, Phys. Rev. Lett. 103, 096102 (2009).
     *
     *
     * If you are using vdW-DF2, please also cite:
     *
     *   K. Lee, E. D. Murray, L. Kong, B. I. Lundqvist, and
     *   D. C. Langreth, Phys. Rev. B 82, 081101(R) (2010).
     *
     *
     * If you are calculating the stress with vdW-DF, please also cite:
     *
     *   R. Sabatini, E. Kucukbenli, B. Kolb, T. Thonhauser, and
     *   S. de Gironcoli, J. Phys.: Condens. Matter 24, 424209 (2012).
     *

     Carrying out vdW-DF run using the following parameters:

     Nqs =      20    Nr_points =    1024   r_max =   100.000
     q_mesh =
               0.00001000     0.04494208     0.09755937     0.15916263
               0.23128650     0.31572767     0.41458969     0.53033537
               0.66584808     0.82450364     1.01025438     1.22772762
               1.48234092     1.78043706     2.12944203     2.53805004
               3.01644009     3.57652955     4.23227104     5.00000000

     Gradients computed in reciprocal space

     Adding external electric field

     Computed dipole along edir(3) :
        Dipole               -0.0210 Ry au,         -0.0533 Debye
        Dipole field         -0.0000 Ry au

        Potential amp.        0.0032 Ry
        Total length         47.6094 bohr

     Starting wfc are  161 randomized atomic wfcs

     Self-consistent Calculation

     iteration #  1     ecut=    36.75 Ry     beta=0.30
     Davidson diagonalization with overlap
     ethr =  1.00E-02,  avg # of iterations =  2.0

[...]

     total energy              =   -1143.91281447 Ry
     Harris-Foulkes estimate   =   -1146.51680942 Ry
     estimated scf accuracy    <       5.65959028 Ry

[...]

     End of self-consistent calculation

          k = 0.0000 0.0000 0.0000 ( 28997 PWs)   bands (ev):

   -42.4132 -42.3423 -42.3000 -42.2993 -42.2992 -42.2270 -42.1968 -42.1967
   -41.7801 -41.7408 -41.7356 -41.7356 -22.4733 -22.4513 -22.4513 -22.4486
   -22.4356 -22.4356 -22.3774 -22.3531 -22.3048 -22.3047 -22.3027 -22.2008
   -22.1920 -22.1920 -22.1238 -22.1237 -22.1214 -22.0819 -22.0819 -22.0398
   -22.0239 -22.0239 -21.9275 -21.9275 -21.8996 -21.8844 -21.8844 -21.6860
   -21.6649 -21.6590 -21.6589 -21.6016 -21.6015 -21.5969 -21.5028 -21.5028
   -12.7822  -4.0232  -3.1720  -2.1852  -1.2286  -0.9291  -0.9291  -0.5710
    -0.5710  -0.5355  -0.4764  -0.3852  -0.3852  -0.0472   0.1424   0.1424
     0.3379   0.3379   0.4035   0.8251   0.8251   0.9528   1.1906   1.5471
     1.6236   1.7147   1.7228   1.7229   1.9535   1.9535   2.1848

[...]

          k =-0.0699 0.0404 0.0000 ( 29048 PWs)   bands (ev):

[...]

     the Fermi energy is     1.0035 ev

!    total energy              =   -1145.89140624 Ry
     Harris-Foulkes estimate   =   -1145.89141196 Ry
     estimated scf accuracy    <       0.00000312 Ry

     The total energy is the sum of the following terms:

     one-electron contribution =   -5558.89033822 Ry
     hartree contribution      =    2774.00609028 Ry
     xc contribution           =    -345.07718025 Ry
     ewald contribution        =    1984.19464686 Ry
     electric field correction =       0.00000438 Ry
     smearing contrib. (-TS)   =      -0.12462930 Ry

     convergence has been achieved in  15 iterations

 BEEF-vdW xc energy contributions
           1 :   -300.848102356345
           2 :    270.033394341185
           3 :   -217.046172814359
           4 :    154.967661711601
           5 :   -95.9112878379475
           6 :    47.4411212616827
           7 :   -12.0754464835780
           8 :   -10.9151298824578
           9 :    23.2388468572772
          10 :   -26.3411520256335
          11 :    21.5342470440713
          12 :   -10.8268015709315
          13 :   -2.57344986474021
          14 :    14.7136491508161
          15 :   -22.1502759836571
          16 :    23.2125079210290
          17 :   -18.4680097441209
          18 :    10.1413622391851
          19 :  -0.933909658873233
          20 :   -7.00572090406354
          21 :    12.4755292997834
          22 :   -15.0424483214731
          23 :    14.7058646178676
          24 :   -11.7585650078080
          25 :    6.87633243649532
          26 :   -1.19931531569699
          27 :   -3.84552206198964
          28 :    7.00229920498487
          29 :   -7.68586294163350
          30 :    6.19740114463877
          31 :   -28.9136374301281
          32 :   -19.7602930640099

     Forces acting on atoms (Ry/au):

     negative rho (up, down):  5.225E-04 0.000E+00
     atom    1 type  1   force =     0.00000251    0.00001612    0.00383236
     atom    2 type  1   force =    -0.00000159   -0.00053400    0.00482445
     atom    3 type  1   force =    -0.00047427    0.00025755    0.00483481
     atom    4 type  1   force =     0.00047429    0.00026184    0.00482495
     atom    5 type  1   force =    -0.00229571    0.00132063    0.00023647
     atom    6 type  1   force =     0.00229680    0.00130080    0.00021170
     atom    7 type  1   force =    -0.00001409    0.00001820   -0.01124571
     atom    8 type  1   force =     0.00001285   -0.00264528    0.00022439
     atom    9 type  1   force =     0.04301983    0.02485978    0.04217261
     atom   10 type  1   force =    -0.04301262    0.02484699    0.04217293
     atom   11 type  1   force =    -0.00001090   -0.04968624    0.04217690
     atom   12 type  1   force =     0.00000522   -0.00001786   -0.01040563
     atom   13 type  2   force =    -0.00000152    0.00000016   -0.08463116
     atom   14 type  3   force =    -0.00000080    0.00000131   -0.03922907

     Total force =     0.146801     Total SCF correction =     0.001710

     entering subroutine stress ...

     negative rho (up, down):  5.225E-04 0.000E+00
          total   stress  (Ry/bohr**3)                   (kbar)     P=   -7.50
  -0.00003423   0.00000000   0.00000000         -5.03      0.00      0.00
   0.00000000  -0.00003423  -0.00000000          0.00     -5.03     -0.00
   0.00000000  -0.00000000  -0.00008457          0.00     -0.00    -12.44

     BFGS Geometry Optimization

     number of scf cycles    =   1
     number of bfgs steps    =   0

     energy   new            =   -1145.8914062421 Ry

     new trust radius        =       0.0846311561 bohr
     new conv_thr            =       0.0000099958 Ry

ATOMIC_POSITIONS (crystal)
Y1       0.166666667   0.166666667   0.386999750    0   0   0
Y1       0.666666667   0.166666667   0.386999750    0   0   0
Y1       0.166666667   0.666666667   0.386999750    0   0   0
Y1       0.666666667   0.666666667   0.386999750    0   0   0
Y1       0.833333333   0.333333333   0.500000000    0   0   0
Y1       0.333333333   0.333333333   0.500000000    0   0   0
Y1       0.833333333   0.833333333   0.500000000    0   0   0
Y1       0.333333333   0.833333333   0.500000000    0   0   0
Y1       0.002120994   0.002123848   0.613863909
Y1       0.495756238   0.002122755   0.613863915
Y1       0.002121618   0.495755151   0.613863996
Y1       0.500001149   0.499998474   0.612787151
N1       0.166666547   0.166666680   0.676921584
H1       0.166666552   0.166666778   0.718486353

     Writing output data file calc.save
     Check: negative starting charge=   -0.000529
     NEW-OLD atomic charge density approx. for the potential
     Check: negative starting charge=   -0.000531

[...]

     energy   old            =   -1145.8914062421 Ry
     energy   new            =   -1145.9112949274 Ry

     CASE: energy  _new < energy  _old

     WARNING: bfgs curvature condition failed, Theta= 0.948
     new trust radius        =       0.0930942717 bohr
     new conv_thr            =       0.0000001000 Ry

[...]

     iteration #  1     ecut=    36.75 Ry     beta=0.30
     Davidson diagonalization with overlap
     c_bands:  1 eigenvalues not converged
     ethr =  1.00E-06,  avg # of iterations = 14.8

[...]

     Threshold (ethr) on eigenvalues was too large:
     Diagonalizing with lowered threshold

     Davidson diagonalization with overlap
     ethr =  9.97E-08,  avg # of iterations =  2.0

[...]

     Total force =     0.005291     Total SCF correction =     0.000609
     SCF correction compared to forces is large: reduce conv_thr to get better values

[...]

     Threshold (ethr) on eigenvalues was too large:
     Diagonalizing with lowered threshold

     Davidson diagonalization with overlap
     ethr =  7.91E-08,  avg # of iterations =  3.6

[...]

     Total force =     0.003999     Total SCF correction =     0.000390

[...]

     number of scf cycles    =  21
     number of bfgs steps    =  20

     energy   old            =   -1145.9942735684 Ry
     energy   new            =   -1145.9943363919 Ry

     CASE: energy  _new < energy  _old

     new trust radius        =       0.0175350805 bohr
     new conv_thr            =       0.0000001000 Ry

ATOMIC_POSITIONS (crystal)
Y1       0.166666667   0.166666667   0.386999750    0   0   0
Y1       0.666666667   0.166666667   0.386999750    0   0   0
Y1       0.166666667   0.666666667   0.386999750    0   0   0
Y1       0.666666667   0.666666667   0.386999750    0   0   0
Y1       0.833333333   0.333333333   0.500000000    0   0   0
Y1       0.333333333   0.333333333   0.500000000    0   0   0
Y1       0.833333333   0.833333333   0.500000000    0   0   0
Y1       0.333333333   0.833333333   0.500000000    0   0   0
Y1       0.005204554   0.005203796   0.616325438
Y1       0.489587658   0.005207206   0.616325772
Y1       0.005205663   0.489592101   0.616325356
Y1       0.499999372   0.499999443   0.605354216
N1       0.166668939   0.166665084   0.657865250
H1       0.166666455   0.166667081   0.697750176

     Writing output data file calc.save
     Check: negative starting charge=   -0.000566
     NEW-OLD atomic charge density approx. for the potential
     Check: negative starting charge=   -0.000566

[...]

     Self-consistent Calculation

[...]

     total energy              =   -1145.99435431 Ry
     Harris-Foulkes estimate   =   -1145.99435438 Ry
     estimated scf accuracy    <       0.00000067 Ry

     iteration # 10     ecut=    36.75 Ry     beta=0.30
     Davidson diagonalization with overlap
     ethr =  4.85E-10,  avg # of iterations =  6.0

[...]

     negative rho (up, down):  4.729E-04 0.000E+00

     Adding external electric field

     Computed dipole along edir(3) :
        Dipole                0.1482 Ry au,          0.3767 Debye
        Dipole field          0.0002 Ry au

        Potential amp.       -0.0230 Ry
        Total length         47.6094 bohr

     End of self-consistent calculation

[...]

          k = 0.0466-0.0538 0.0000 ( 29098 PWs)   bands (ev):

[...]

          k =-0.0699-0.0404 0.0000 ( 29048 PWs)   bands (ev):

   -42.1484 -42.1291 -42.1146 -42.1077 -41.9829 -41.9185 -41.8984 -41.8902
   -41.6606 -41.5432 -41.5317 -41.5221 -22.1892 -22.1783 -22.1652 -22.1469
   -22.1167 -22.1074 -22.0967 -22.0761 -22.0554 -22.0505 -22.0307 -22.0246
   -22.0145 -21.9831 -21.9443 -21.9182 -21.9159 -21.8972 -21.8935 -21.8826
   -21.8346 -21.7850 -21.7300 -21.6869 -21.6512 -21.6050 -21.5977 -21.5683
   -21.4967 -21.4725 -21.4678 -21.4513 -21.4425 -21.4411 -21.3870 -21.3354
   -13.9027  -5.0300  -2.3502  -1.9944  -1.8397  -1.6835  -0.9447  -0.7547
    -0.1654  -0.1585   0.0341   0.1233   0.2796   0.2886   0.8904   0.9360
     0.9775   1.0049   1.0517   1.0829   1.1891   1.2319   1.2901   1.3391
     1.3793   1.4070   1.4760   1.5511   1.6906   1.7449   1.7648

     the Fermi energy is     1.1877 ev

!    total energy              =   -1145.99435435 Ry
     Harris-Foulkes estimate   =   -1145.99435393 Ry
     estimated scf accuracy    <       0.00000004 Ry

     The total energy is the sum of the following terms:

     one-electron contribution =   -5631.90005796 Ry
     hartree contribution      =    2811.27114386 Ry
     xc contribution           =    -345.36819625 Ry
     ewald contribution        =    2020.13029449 Ry
     electric field correction =       0.00003572 Ry
     smearing contrib. (-TS)   =      -0.12757422 Ry

     convergence has been achieved in  10 iterations

 BEEF-vdW xc energy contributions
           1 :   -301.143903964474
           2 :    270.414064812117
           3 :   -217.502226218211
           4 :    155.400780196249
           5 :   -96.2054886255114
           6 :    47.5288381641873
           7 :   -11.9638801429656
           8 :   -11.1593149139528
           9 :    23.5219978900558
          10 :   -26.5749418886318
          11 :    21.6657120334265
          12 :   -10.8586382770224
          13 :   -2.58918230608481
          14 :    14.7125380228049
          15 :   -22.1003414218868
          16 :    23.1311059607914
          17 :   -18.3967206300549
          18 :    10.1042707246451
          19 :  -0.918819253080642
          20 :   -7.03107768135601
          21 :    12.5324307062097
          22 :   -15.1231159410492
          23 :    14.7811542806139
          24 :   -11.8040349386599
          25 :    6.89636017359135
          26 :   -1.22870250546157
          27 :   -3.76755580349862
          28 :    6.86607777574142
          29 :   -7.52222191580995
          30 :    6.05473964357674
          31 :   -28.9323448016952
          32 :   -19.7965931306030

     Forces acting on atoms (Ry/au):

     negative rho (up, down):  4.729E-04 0.000E+00
     atom    1 type  1   force =    -0.00000009   -0.00000015    0.00508868
     atom    2 type  1   force =    -0.00000000   -0.00198943    0.00553754
     atom    3 type  1   force =    -0.00172236    0.00099470    0.00553713
     atom    4 type  1   force =     0.00172246    0.00099477    0.00553737
     atom    5 type  1   force =    -0.00038969    0.00022513   -0.00447183
     atom    6 type  1   force =     0.00038940    0.00022574   -0.00447200
     atom    7 type  1   force =    -0.00000024   -0.00000025   -0.00715430
     atom    8 type  1   force =    -0.00000074   -0.00045028   -0.00447201
     atom    9 type  1   force =     0.00006805    0.00004044   -0.00012613
     atom   10 type  1   force =    -0.00006019    0.00003332   -0.00013047
     atom   11 type  1   force =    -0.00000232   -0.00007964   -0.00012486
     atom   12 type  1   force =     0.00000144    0.00000099   -0.00049102
     atom   13 type  2   force =    -0.00000533    0.00000451   -0.00102173
     atom   14 type  3   force =    -0.00000039    0.00000016    0.00076364

     Total force =     0.001391     Total SCF correction =     0.000425
     SCF correction compared to forces is large: reduce conv_thr to get better values

     entering subroutine stress ...

     negative rho (up, down):  4.729E-04 0.000E+00
          total   stress  (Ry/bohr**3)                   (kbar)     P=   -0.78
   0.00000081  -0.00000000  -0.00000000          0.12     -0.00     -0.00
  -0.00000000   0.00000081   0.00000000         -0.00      0.12      0.00
  -0.00000000   0.00000000  -0.00001759         -0.00      0.00     -2.59

     bfgs converged in  22 scf cycles and  21 bfgs steps
     (criteria: energy <  1.0E+00, force <  1.9E-03)

     End of BFGS Geometry Optimization

     Final energy   =   -1145.9943543539 Ry
Begin final coordinates

ATOMIC_POSITIONS (crystal)
Y1       0.166666667   0.166666667   0.386999750    0   0   0
Y1       0.666666667   0.166666667   0.386999750    0   0   0
Y1       0.166666667   0.666666667   0.386999750    0   0   0
Y1       0.666666667   0.666666667   0.386999750    0   0   0
Y1       0.833333333   0.333333333   0.500000000    0   0   0
Y1       0.333333333   0.333333333   0.500000000    0   0   0
Y1       0.833333333   0.833333333   0.500000000    0   0   0
Y1       0.333333333   0.833333333   0.500000000    0   0   0
Y1       0.005204554   0.005203796   0.616325438
Y1       0.489587658   0.005207206   0.616325772
Y1       0.005205663   0.489592101   0.616325356
Y1       0.499999372   0.499999443   0.605354216
N1       0.166668939   0.166665084   0.657865250
H1       0.166666455   0.166667081   0.697750176
End final coordinates

     Writing output data file calc.save

     General routines

     Parallel routines

   This run was terminated on:   1:28: 9  25Apr2018

   JOB DONE.
Job  /afs/slac/g/suncat/bin/suncat-tsmpirun -x LD_LIBRARY_PATH -wdir /scratch/qe222643_Mfp64 pw.x -npool 4 -in pw.inp

TID   HOST_NAME   COMMAND_LINE            STATUS            TERMINATION_TIME
00000 suncat0165 pw.x -npool 4 -i  Done                     04/25/2018 01:28:09
00001 suncat0165 pw.x -npool 4 -i  Done                     04/25/2018 01:28:09
00002 suncat0165 pw.x -npool 4 -i  Done                     04/25/2018 01:28:09
00003 suncat0165 pw.x -npool 4 -i  Done                     04/25/2018 01:28:09
00004 suncat0165 pw.x -npool 4 -i  Done                     04/25/2018 01:28:09
00005 suncat0165 pw.x -npool 4 -i  Done                     04/25/2018 01:28:09
00006 suncat0165 pw.x -npool 4 -i  Done                     04/25/2018 01:28:09
00007 suncat0165 pw.x -npool 4 -i  Done                     04/25/2018 01:28:09
00008 suncat0115 pw.x -npool 4 -i  Done                     04/25/2018 01:28:09
00009 suncat0115 pw.x -npool 4 -i  Done                     04/25/2018 01:28:09
00010 suncat0115 pw.x -npool 4 -i  Done                     04/25/2018 01:28:09
00011 suncat0115 pw.x -npool 4 -i  Done                     04/25/2018 01:28:09
00012 suncat0115 pw.x -npool 4 -i  Done                     04/25/2018 01:28:09
00013 suncat0115 pw.x -npool 4 -i  Done                     04/25/2018 01:28:09
00014 suncat0115 pw.x -npool 4 -i  Done                     04/25/2018 01:28:09
00015 suncat0115 pw.x -npool 4 -i  Done                     04/25/2018 01:28:09
00016 suncat0278 pw.x -npool 4 -i  Done                     04/25/2018 01:28:09
00017 suncat0278 pw.x -npool 4 -i  Done                     04/25/2018 01:28:09
00018 suncat0278 pw.x -npool 4 -i  Done                     04/25/2018 01:28:09
00019 suncat0278 pw.x -npool 4 -i  Done                     04/25/2018 01:28:09
00020 suncat0278 pw.x -npool 4 -i  Done                     04/25/2018 01:28:09
00021 suncat0278 pw.x -npool 4 -i  Done                     04/25/2018 01:28:09
00022 suncat0278 pw.x -npool 4 -i  Done                     04/25/2018 01:28:09
00023 suncat0278 pw.x -npool 4 -i  Done                     04/25/2018 01:28:09
00024 suncat0259 pw.x -npool 4 -i  Done                     04/25/2018 01:28:09
00025 suncat0259 pw.x -npool 4 -i  Done                     04/25/2018 01:28:09
00026 suncat0259 pw.x -npool 4 -i  Done                     04/25/2018 01:28:09
00027 suncat0259 pw.x -npool 4 -i  Done                     04/25/2018 01:28:09
00028 suncat0259 pw.x -npool 4 -i  Done                     04/25/2018 01:28:09
00029 suncat0259 pw.x -npool 4 -i  Done                     04/25/2018 01:28:09
00030 suncat0259 pw.x -npool 4 -i  Done                     04/25/2018 01:28:09
00031 suncat0259 pw.x -npool 4 -i  Done                     04/25/2018 01:28:09