     Program PWSCF v.5.1rc2 (svn rev. 11289) starts on 21Jan2018 at 13:40:56

     Current dimensions of program PWSCF are:
     Max number of different atomic species (ntypx) = 10
     Max number of k-points (npk) =  40000
     Max angular momentum in pseudopotentials (lmaxx) =  3
     Presently stress not available with electric field

     IMPORTANT: XC functional enforced from input :
     Exchange-correlation      = BEEF-VDW ( 1  4 27 13 2)
     Any further DFT definition will be discarded
     Please, verify this is what you really want

     Subspace diagonalization in iterative solution of the eigenvalue problem:
     a serial algorithm will be used

     bravais-lattice index     =            0
     lattice parameter (alat)  =       1.8897  a.u.
     unit-cell volume          =    4806.0858 (a.u.)^3
     number of atoms/cell      =           13
     number of atomic types    =            2
     number of electrons       =       148.00
     number of Kohn-Sham states=           84
     kinetic-energy cutoff     =      36.7493  Ry
     charge density cutoff     =     367.4932  Ry
     convergence threshold     =      1.0E-05
     mixing beta               =       0.3000
     number of iterations used =           10  plain     mixing
     Exchange-correlation      = BEEF-VDW ( 1  4 27 13 2)
     nstep                     =           50

     celldm(1)=   1.889726  celldm(2)=   0.000000  celldm(3)=   0.000000
     celldm(4)=   0.000000  celldm(5)=   0.000000  celldm(6)=   0.000000

     crystal axes: (cart. coord. in units of alat)
               a(1) = (   5.768903   0.000000   0.000000 )
               a(2) = (   2.884451   4.996016   0.000000 )
               a(3) = (   0.000000   0.000000  24.710289 )

     reciprocal axes: (cart. coord. in units 2 pi/alat)
               b(1) = (  0.173343 -0.100080  0.000000 )
               b(2) = (  0.000000  0.200159  0.000000 )
               b(3) = (  0.000000  0.000000  0.040469 )

     PseudoPot. # 1 for Ti read from file:
     /afs/slac.stanford.edu/u/if/mamunm/psp/gbrv1.5pbe/Ti.UPF
     MD5 check sum: 88a00a6731bd790ddea75d31a80cb452
     Pseudo is Ultrasoft + core correction, Zval = 12.0
     Generated by new atomic code, or converted to UPF format
     Using radial grid of  851 points,  6 beta functions with:
                l(1) =   0
                l(2) =   0
                l(3) =   1
                l(4) =   1
                l(5) =   2
                l(6) =   2
     Q(r) pseudized with  6 coefficients,  rinner =    1.000   1.000   1.000
                                                       1.000   1.000

     PseudoPot. # 2 for C  read from file:
     /afs/slac.stanford.edu/u/if/mamunm/psp/gbrv1.5pbe/C.UPF
     MD5 check sum: d1aef80898a10debaa0f26306b886e00
     Pseudo is Ultrasoft + core correction, Zval =  4.0
     Generated by new atomic code, or converted to UPF format
     Using radial grid of  721 points,  4 beta functions with:
                l(1) =   0
                l(2) =   0
                l(3) =   1
                l(4) =   1
     Q(r) pseudized with  8 coefficients,  rinner =    1.100   1.100   1.100

     vdW kernel table read from file vdW_kernel_table
     MD5 check sum: 095c7af220d748ca6e76c0b4c6cfb241

     atomic species   valence    mass     pseudopotential
        Ti1           12.00    47.86700     Ti( 1.00)
        C1             4.00    12.01100     C ( 1.00)

     No symmetry found

   Cartesian axes

     site n.     atom                  positions (alat units)
         1           Ti1 tau(   1) = (   1.4422257   0.8326694  10.0000000  )
         2           Ti1 tau(   2) = (   4.3266771   0.8326694  10.0000000  )
         3           Ti1 tau(   3) = (   2.8844514   3.3306776  10.0000000  )
         4           Ti1 tau(   4) = (   5.7689029   3.3306776  10.0000000  )
         5           Ti1 tau(   5) = (   5.7689029   1.6653388  12.3551447  )
         6           Ti1 tau(   6) = (   2.8844514   1.6653388  12.3551447  )
         7           Ti1 tau(   7) = (   7.2111286   4.1633470  12.3551447  )
         8           Ti1 tau(   8) = (   4.3266771   4.1633470  12.3551447  )
         9           Ti1 tau(   9) = (   0.0000000   0.0000000  14.7102895  )
        10           Ti1 tau(  10) = (   2.8844514   0.0000000  14.7102895  )
        11           Ti1 tau(  11) = (   1.4422257   2.4980082  14.7102895  )
        12           Ti1 tau(  12) = (   4.3266771   2.4980082  14.7102895  )
        13           C1  tau(  13) = (   2.8844514   1.6653388  17.0702895  )

     number of k points=    20  Fermi-Dirac smearing, width (Ry)=  0.0110
                       cart. coord. in units 2pi/alat
        k(    1) = (   0.0000000   0.0000000   0.0000000), wk =   0.0555556
        k(    2) = (   0.0000000   0.0333599   0.0000000), wk =   0.1111111
        k(    3) = (   0.0000000   0.0667198   0.0000000), wk =   0.1111111
        k(    4) = (   0.0000000  -0.1000797   0.0000000), wk =   0.0555556
        k(    5) = (   0.0288905  -0.0166800   0.0000000), wk =   0.1111111
        k(    6) = (   0.0288905   0.0166800   0.0000000), wk =   0.1111111
        k(    7) = (   0.0288905   0.0500399   0.0000000), wk =   0.1111111
        k(    8) = (   0.0288905  -0.1167597   0.0000000), wk =   0.1111111
        k(    9) = (   0.0288905  -0.0833998   0.0000000), wk =   0.1111111
        k(   10) = (   0.0288905  -0.0500399   0.0000000), wk =   0.1111111
        k(   11) = (   0.0577811  -0.0333599   0.0000000), wk =   0.1111111
        k(   12) = (   0.0577811  -0.0000000   0.0000000), wk =   0.1111111
        k(   13) = (   0.0577811   0.0333599   0.0000000), wk =   0.1111111
        k(   14) = (   0.0577811  -0.1334396   0.0000000), wk =   0.1111111
        k(   15) = (   0.0577811  -0.1000797   0.0000000), wk =   0.1111111
        k(   16) = (   0.0577811  -0.0667198   0.0000000), wk =   0.1111111
        k(   17) = (  -0.0866716   0.0500399   0.0000000), wk =   0.0555556
        k(   18) = (  -0.0866716   0.0833998   0.0000000), wk =   0.1111111
        k(   19) = (  -0.0866716   0.1167597   0.0000000), wk =   0.1111111
        k(   20) = (  -0.0866716  -0.0500399   0.0000000), wk =   0.0555556

     Largest allocated arrays     est. size (Mb)     dimensions
     Largest temporary arrays     est. size (Mb)     dimensions

     Check: negative/imaginary core charge=   -0.000006    0.000000

     Initial potential from superposition of free atoms
     Check: negative starting charge=   -0.012665

     starting charge  135.99943, renormalised to  148.00000

     negative rho (up, down):  1.378E-02 0.000E+00

     *
     * You are using vdW-DF for exchange-correlation in this calculation.
     * Please cite the following three references that made this development
     * possible:
     *
     *   M. Dion, H. Rydberg, E. Schroder, D. C. Langreth, and
     *   B. I. Lundqvist, Phys. Rev. Lett. 92, 246401 (2004).
     *
     *   T. Thonhauser, V. R. Cooper, S. Li, A. Puzder, P. Hyldgaard, and
     *   D. C. Langreth, Phys. Rev. B 76, 125112 (2007).
     *
     *   G. Roman-Perez and J. M. Soler, Phys. Rev. Lett. 103, 096102 (2009).
     *
     *
     * If you are using vdW-DF2, please also cite:
     *
     *   K. Lee, E. D. Murray, L. Kong, B. I. Lundqvist, and
     *   D. C. Langreth, Phys. Rev. B 82, 081101(R) (2010).
     *
     *
     * If you are calculating the stress with vdW-DF, please also cite:
     *
     *   R. Sabatini, E. Kucukbenli, B. Kolb, T. Thonhauser, and
     *   S. de Gironcoli, J. Phys.: Condens. Matter 24, 424209 (2012).
     *

     Carrying out vdW-DF run using the following parameters:

     Nqs =      20    Nr_points =    1024   r_max =   100.000
     q_mesh =
               0.00001000     0.04494208     0.09755937     0.15916263
               0.23128650     0.31572767     0.41458969     0.53033537
               0.66584808     0.82450364     1.01025438     1.22772762
               1.48234092     1.78043706     2.12944203     2.53805004
               3.01644009     3.57652955     4.23227104     5.00000000

     Gradients computed in reciprocal space

     Adding external electric field

     Computed dipole along edir(3) :
        Dipole               -3.1446 Ry au,         -7.9928 Debye
        Dipole field         -0.0082 Ry au

        Potential amp.        0.7487 Ry
        Total length         45.5283 bohr

     Starting wfc are  124 randomized atomic wfcs

     Self-consistent Calculation

     iteration #  1     ecut=    36.75 Ry     beta=0.30
     Davidson diagonalization with overlap
     ethr =  1.00E-02,  avg # of iterations =  6.2

[...]

     total energy              =   -1358.71963935 Ry
     Harris-Foulkes estimate   =   -1451.91170552 Ry
     estimated scf accuracy    <     193.11816967 Ry

[...]

     iteration # 31     ecut=    36.75 Ry     beta=0.30
     Davidson diagonalization with overlap
     c_bands:  1 eigenvalues not converged
     ethr =  2.48E-06,  avg # of iterations =  9.3

[...]

     End of self-consistent calculation

          k = 0.0000 0.0000 0.0000 ( 18103 PWs)   bands (ev):

   -56.8084 -56.7513 -56.7250 -56.6856 -56.6845 -56.6601 -56.6596 -56.6582
   -56.5591 -56.4845 -56.4838 -56.4744 -33.2546 -33.2541 -33.2343 -33.2089
   -33.1964 -33.1958 -33.1868 -33.1363 -33.1136 -33.1131 -33.0397 -32.9706
   -32.9367 -32.9355 -32.8525 -32.8474 -32.8468 -32.8150 -32.8147 -32.8121
   -32.7807 -32.7800 -32.7798 -32.6838 -32.6837 -32.6745 -32.6742 -32.6736
   -32.6532 -32.6532 -32.6503 -32.5870 -32.5791 -32.5788 -32.4684 -32.4684
    -7.8528  -5.1828  -3.8142  -2.6202  -2.0745  -2.0744  -2.0568  -1.9513
    -1.9512  -1.9408  -1.5332  -1.5330  -1.5208  -1.2874  -1.2823  -1.2822
    -0.6904  -0.6632  -0.6629   0.0514   0.1622   0.1798   0.1799   0.4687
     0.5484   0.5484   0.6935   0.7620   0.8730   1.0256   1.0258   1.0715
     1.0717   1.2208   1.2210   1.2365

[...]

          k =-0.0867 0.0500 0.0000 ( 18044 PWs)   bands (ev):

[...]

     the Fermi energy is     0.2496 ev

!    total energy              =   -1449.76788182 Ry
     Harris-Foulkes estimate   =   -1449.76789146 Ry
     estimated scf accuracy    <       0.00000715 Ry

     The total energy is the sum of the following terms:

     one-electron contribution =  -10976.22833019 Ry
     hartree contribution      =    5472.35482992 Ry
     xc contribution           =    -227.98969285 Ry
     ewald contribution        =    4282.22894126 Ry
     electric field correction =       0.00062933 Ry
     smearing contrib. (-TS)   =      -0.13425930 Ry

     convergence has been achieved in  41 iterations

 BEEF-vdW xc energy contributions
           1 :   -195.883715461766
           2 :    174.944808410329
           3 :   -140.662414330195
           4 :    104.008167998161
           5 :   -73.9358104756627
           6 :    53.9290044770256
           7 :   -42.0293921808776
           8 :    33.6111038768417
           9 :   -24.7780647883779
          10 :    14.3256332810317
          11 :   -3.53638639344422
          12 :   -5.49390972773477
          13 :    11.5842711542771
          14 :   -15.1385221524475
          15 :    17.5406842952785
          16 :   -19.9531419868025
[...]

[...]

     Total force =     0.109519     Total SCF correction =     0.014264
     SCF correction compared to forces is large: reduce conv_thr to get better values

[...]

     Total force =     0.056310     Total SCF correction =     0.002945

[...]

   This run was terminated on:  17: 7:52  21Jan2018

[...]

     Program PWSCF v.5.1rc2 (svn rev. 11289) starts on 21Jan2018 at 17: 7:58

[...]

   This run was terminated on:  17:52: 4  21Jan2018

[...]

     iteration # 24     ecut=    36.75 Ry     beta=0.30
     Davidson diagonalization with overlap
     c_bands:  1 eigenvalues not converged
     ethr =  3.47E-07,  avg # of iterations =  8.0

[...]

     Program PWSCF v.5.1rc2 (svn rev. 11289) starts on 21Jan2018 at 19:10:35

     Current dimensions of program PWSCF are:
     Max number of different atomic species (ntypx) = 10
     Max number of k-points (npk) =  40000
     Max angular momentum in pseudopotentials (lmaxx) =  3
     Presently stress not available with electric field

     IMPORTANT: XC functional enforced from input :
     Exchange-correlation      = BEEF-VDW ( 1  4 27 13 2)
     Any further DFT definition will be discarded
     Please, verify this is what you really want

     Subspace diagonalization in iterative solution of the eigenvalue problem:
     a serial algorithm will be used

     bravais-lattice index     =            0
     lattice parameter (alat)  =       1.8897  a.u.
     unit-cell volume          =    4806.0858 (a.u.)^3
     number of atoms/cell      =           13
     number of atomic types    =            2
     number of electrons       =       148.00
     number of Kohn-Sham states=           84
     kinetic-energy cutoff     =      36.7493  Ry
     charge density cutoff     =     367.4932  Ry
     convergence threshold     =      1.0E-05
     mixing beta               =       0.3000
     number of iterations used =           10  plain     mixing
     Exchange-correlation      = BEEF-VDW ( 1  4 27 13 2)
     nstep                     =           50

     celldm(1)=   1.889726  celldm(2)=   0.000000  celldm(3)=   0.000000
     celldm(4)=   0.000000  celldm(5)=   0.000000  celldm(6)=   0.000000

     crystal axes: (cart. coord. in units of alat)
               a(1) = (   5.768903   0.000000   0.000000 )
               a(2) = (   2.884451   4.996016   0.000000 )
               a(3) = (   0.000000   0.000000  24.710289 )

     reciprocal axes: (cart. coord. in units 2 pi/alat)
               b(1) = (  0.173343 -0.100080  0.000000 )
               b(2) = (  0.000000  0.200159  0.000000 )
               b(3) = (  0.000000  0.000000  0.040469 )

     PseudoPot. # 1 for Ti read from file:
     /afs/slac.stanford.edu/u/if/mamunm/psp/gbrv1.5pbe/Ti.UPF
     MD5 check sum: 88a00a6731bd790ddea75d31a80cb452
     Pseudo is Ultrasoft + core correction, Zval = 12.0
     Generated by new atomic code, or converted to UPF format
     Using radial grid of  851 points,  6 beta functions with:
                l(1) =   0
                l(2) =   0
                l(3) =   1
                l(4) =   1
                l(5) =   2
                l(6) =   2
     Q(r) pseudized with  6 coefficients,  rinner =    1.000   1.000   1.000
                                                       1.000   1.000

     PseudoPot. # 2 for C  read from file:
     /afs/slac.stanford.edu/u/if/mamunm/psp/gbrv1.5pbe/C.UPF
     MD5 check sum: d1aef80898a10debaa0f26306b886e00
     Pseudo is Ultrasoft + core correction, Zval =  4.0
     Generated by new atomic code, or converted to UPF format
     Using radial grid of  721 points,  4 beta functions with:
                l(1) =   0
                l(2) =   0
                l(3) =   1
                l(4) =   1
     Q(r) pseudized with  8 coefficients,  rinner =    1.100   1.100   1.100

     vdW kernel table read from file vdW_kernel_table
     MD5 check sum: 095c7af220d748ca6e76c0b4c6cfb241

     atomic species   valence    mass     pseudopotential
        Ti1           12.00    47.86700     Ti( 1.00)
        C1             4.00    12.01100     C ( 1.00)

     No symmetry found

   Cartesian axes

     site n.     atom                  positions (alat units)
         1           Ti1 tau(   1) = (   1.4422257   0.8326694  10.0000000  )
         2           Ti1 tau(   2) = (   4.3266771   0.8326694  10.0000000  )
         3           Ti1 tau(   3) = (   2.8844514   3.3306776  10.0000000  )
         4           Ti1 tau(   4) = (   5.7689029   3.3306776  10.0000000  )
         5           Ti1 tau(   5) = (   5.7689029   1.6653388  12.3551447  )
         6           Ti1 tau(   6) = (   2.8844514   1.6653388  12.3551447  )
         7           Ti1 tau(   7) = (   7.2111286   4.1633470  12.3551447  )
         8           Ti1 tau(   8) = (   4.3266771   4.1633470  12.3551447  )
         9           Ti1 tau(   9) = (   0.0001407   0.0000171  14.6408869  )
        10           Ti1 tau(  10) = (   5.7688157   4.9275349  14.7098380  )
        11           Ti1 tau(  11) = (   7.1515858   2.5323158  14.7094531  )
        12           Ti1 tau(  12) = (   4.3859481   2.5322479  14.7096099  )
        13           C1  tau(  13) = (   2.8847154   1.6654855  15.6053798  )

     number of k points=    20  Fermi-Dirac smearing, width (Ry)=  0.0110
                       cart. coord. in units 2pi/alat
        k(    1) = (   0.0000000   0.0000000   0.0000000), wk =   0.0555556
        k(    2) = (   0.0000000   0.0333599   0.0000000), wk =   0.1111111
        k(    3) = (   0.0000000   0.0667198   0.0000000), wk =   0.1111111
        k(    4) = (   0.0000000  -0.1000797   0.0000000), wk =   0.0555556
        k(    5) = (   0.0288905  -0.0166800   0.0000000), wk =   0.1111111
        k(    6) = (   0.0288905   0.0166800   0.0000000), wk =   0.1111111
        k(    7) = (   0.0288905   0.0500399   0.0000000), wk =   0.1111111
        k(    8) = (   0.0288905  -0.1167597   0.0000000), wk =   0.1111111
        k(    9) = (   0.0288905  -0.0833998   0.0000000), wk =   0.1111111
        k(   10) = (   0.0288905  -0.0500399   0.0000000), wk =   0.1111111
        k(   11) = (   0.0577811  -0.0333599   0.0000000), wk =   0.1111111
        k(   12) = (   0.0577811  -0.0000000   0.0000000), wk =   0.1111111
        k(   13) = (   0.0577811   0.0333599   0.0000000), wk =   0.1111111
        k(   14) = (   0.0577811  -0.1334396   0.0000000), wk =   0.1111111
        k(   15) = (   0.0577811  -0.1000797   0.0000000), wk =   0.1111111
        k(   16) = (   0.0577811  -0.0667198   0.0000000), wk =   0.1111111
        k(   17) = (  -0.0866716   0.0500399   0.0000000), wk =   0.0555556
        k(   18) = (  -0.0866716   0.0833998   0.0000000), wk =   0.1111111
        k(   19) = (  -0.0866716   0.1167597   0.0000000), wk =   0.1111111
        k(   20) = (  -0.0866716  -0.0500399   0.0000000), wk =   0.0555556

     Largest allocated arrays     est. size (Mb)     dimensions
     Largest temporary arrays     est. size (Mb)     dimensions

     Check: negative/imaginary core charge=   -0.000006    0.000000

     Initial potential from superposition of free atoms
     Check: negative starting charge=   -0.014045

     starting charge  135.99943, renormalised to  148.00000

[...]

     *
     * You are using vdW-DF for exchange-correlation in this calculation.
     * Please cite the following three references that made this development
     * possible:
     *
     *   M. Dion, H. Rydberg, E. Schroder, D. C. Langreth, and
     *   B. I. Lundqvist, Phys. Rev. Lett. 92, 246401 (2004).
     *
     *   T. Thonhauser, V. R. Cooper, S. Li, A. Puzder, P. Hyldgaard, and
     *   D. C. Langreth, Phys. Rev. B 76, 125112 (2007).
     *
     *   G. Roman-Perez and J. M. Soler, Phys. Rev. Lett. 103, 096102 (2009).
     *
     *
     * If you are using vdW-DF2, please also cite:
     *
     *   K. Lee, E. D. Murray, L. Kong, B. I. Lundqvist, and
     *   D. C. Langreth, Phys. Rev. B 82, 081101(R) (2010).
     *
     *
     * If you are calculating the stress with vdW-DF, please also cite:
     *
     *   R. Sabatini, E. Kucukbenli, B. Kolb, T. Thonhauser, and
     *   S. de Gironcoli, J. Phys.: Condens. Matter 24, 424209 (2012).
     *

     Carrying out vdW-DF run using the following parameters:

     Nqs =      20    Nr_points =    1024   r_max =   100.000
     q_mesh =
               0.00001000     0.04494208     0.09755937     0.15916263
               0.23128650     0.31572767     0.41458969     0.53033537
               0.66584808     0.82450364     1.01025438     1.22772762
               1.48234092     1.78043706     2.12944203     2.53805004
               3.01644009     3.57652955     4.23227104     5.00000000

     Gradients computed in reciprocal space

[...]

     Starting wfc are  124 randomized atomic wfcs

     Self-consistent Calculation

[...]

     total energy              =   -1450.10437484 Ry
     Harris-Foulkes estimate   =   -1450.10437632 Ry
     estimated scf accuracy    <       0.00001082 Ry

     iteration # 28     ecut=    36.75 Ry     beta=0.30
     Davidson diagonalization with overlap
     ethr =  7.31E-09,  avg # of iterations =  5.6

[...]

     negative rho (up, down):  8.847E-03 0.000E+00

     Adding external electric field

     Computed dipole along edir(3) :
        Dipole               -0.1521 Ry au,         -0.3866 Debye
        Dipole field         -0.0004 Ry au

        Potential amp.        0.0362 Ry
        Total length         45.5283 bohr

     End of self-consistent calculation

[...]

          k = 0.0578-0.0667 0.0000 ( 18031 PWs)   bands (ev):

[...]

          k =-0.0867-0.0500 0.0000 ( 18044 PWs)   bands (ev):

   -56.3821 -56.3536 -56.3499 -56.3067 -56.3038 -56.2263 -56.1428 -56.1151
   -56.0929 -56.0921 -56.0761 -56.0559 -32.8031 -32.7631 -32.7517 -32.7249
   -32.6927 -32.6863 -32.6679 -32.6502 -32.6036 -32.5949 -32.5795 -32.5647
   -32.5629 -32.5499 -32.5060 -32.5007 -32.4969 -32.4372 -32.4145 -32.3801
   -32.3768 -32.3670 -32.3585 -32.3440 -32.3353 -32.3082 -32.2947 -32.2816
   -32.2508 -32.2278 -32.2250 -32.2134 -32.1985 -32.1898 -32.1292 -32.0828
    -8.4890  -3.3921  -3.1902  -2.4720  -1.9549  -1.7061  -1.6326  -1.3417
    -1.2539  -1.1076  -1.0343  -0.9310  -0.7037  -0.5826  -0.3060  -0.3049
    -0.2570  -0.2336  -0.1219  -0.0127   0.1736   0.2005   0.2495   0.3016
     0.3141   0.3899   0.5178   0.5704   0.5914   0.6813   0.8355   0.9065
     1.0141   1.0636   1.2138   1.2768

     the Fermi energy is     0.6070 ev

!    total energy              =   -1450.10437179 Ry
     Harris-Foulkes estimate   =   -1450.10438324 Ry
     estimated scf accuracy    <       0.00000475 Ry

     The total energy is the sum of the following terms:

     one-electron contribution =  -11257.41021655 Ry
     hartree contribution      =    5614.87028164 Ry
     xc contribution           =    -228.66508675 Ry
     ewald contribution        =    4421.21990248 Ry
     electric field correction =       0.00006048 Ry
     smearing contrib. (-TS)   =      -0.11931310 Ry

     convergence has been achieved in  28 iterations

 BEEF-vdW xc energy contributions
           1 :   -196.559643477206
           2 :    175.795504900374
           3 :   -141.663294519482
           4 :    104.944213102021
           5 :   -74.5581615891275
           6 :    54.1022359804329
           7 :   -41.7913827550324
           8 :    33.1314277332547
           9 :   -24.2530741862517
          10 :    13.8786561194823
          11 :   -3.17993251864931
          12 :   -5.82203660552165
          13 :    11.9423483851420
          14 :   -15.5191309665694
          15 :    17.8714164873963
          16 :   -20.1520637158319
          17 :    22.5099096864934
          18 :   -24.1314163197979
          19 :    24.0164856747129
          20 :   -21.8292356711015
          21 :    18.1729712615775
          22 :   -14.1436799975427
          23 :    10.5680816997120
          24 :   -7.53180775659837
          25 :    4.51182352334135
          26 :  -0.945447391577716
          27 :   -3.23790186096264
          28 :    7.50907172506578
          29 :   -11.0926448552718
          30 :    13.4744386506977
          31 :   -20.9432584480692
          32 :   -14.9573122660590

     Forces acting on atoms (Ry/au):

     negative rho (up, down):  8.847E-03 0.000E+00
     atom    1 type  1   force =     0.00287980    0.00166668    0.01121835
     atom    2 type  1   force =    -0.00288928    0.00167144    0.01123717
     atom    3 type  1   force =    -0.00000023   -0.00334127    0.01119212
     atom    4 type  1   force =    -0.00000861   -0.00000729    0.00801981
     atom    5 type  1   force =     0.00001506   -0.00155260   -0.00857006
     atom    6 type  1   force =    -0.00003949   -0.00000803   -0.01646264
     atom    7 type  1   force =     0.00132556    0.00077873   -0.00852934
     atom    8 type  1   force =    -0.00132363    0.00078883   -0.00856074
     atom    9 type  1   force =    -0.00004684    0.00000415    0.00047098
     atom   10 type  1   force =     0.00000626   -0.00074895   -0.00026917
     atom   11 type  1   force =    -0.00049132    0.00028481   -0.00016290
     atom   12 type  1   force =     0.00074367    0.00042770   -0.00033545
     atom   13 type  2   force =    -0.00017095    0.00003579    0.00075186

     Total force =     0.031231     Total SCF correction =     0.006880
     SCF correction compared to forces is large: reduce conv_thr to get better values

     entering subroutine stress ...

     negative rho (up, down):  8.847E-03 0.000E+00
          total   stress  (Ry/bohr**3)                   (kbar)     P=    4.06
   0.00006231   0.00000003  -0.00000005          9.17      0.00     -0.01
   0.00000003   0.00006234   0.00000001          0.00      9.17      0.00
  -0.00000005   0.00000001  -0.00004183         -0.01      0.00     -6.15

 !ASE

     Writing output data file calc.save

     General routines

     Parallel routines

   This run was terminated on:  19:29:25  21Jan2018

   JOB DONE.
Job  /afs/slac/g/suncat/bin/suncat-tsmpirun -x LD_LIBRARY_PATH -wdir /scratch/qe870136_PRieM pw.x -in pw.inp

TID   HOST_NAME   COMMAND_LINE            STATUS            TERMINATION_TIME
00000 suncat1042 pw.x -in pw.inp   Done                     01/21/2018 19:29:25
00001 suncat1042 pw.x -in pw.inp   Done                     01/21/2018 19:29:25
00002 suncat1042 pw.x -in pw.inp   Done                     01/21/2018 19:29:25
00003 suncat1042 pw.x -in pw.inp   Done                     01/21/2018 19:29:25
00004 suncat1042 pw.x -in pw.inp   Done                     01/21/2018 19:29:25
00005 suncat1042 pw.x -in pw.inp   Done                     01/21/2018 19:29:25
00006 suncat1042 pw.x -in pw.inp   Done                     01/21/2018 19:29:25
00007 suncat1042 pw.x -in pw.inp   Done                     01/21/2018 19:29:25
00008 suncat1033 pw.x -in pw.inp   Done                     01/21/2018 19:29:25
00009 suncat1033 pw.x -in pw.inp   Done                     01/21/2018 19:29:25
00010 suncat1033 pw.x -in pw.inp   Done                     01/21/2018 19:29:25
00011 suncat1033 pw.x -in pw.inp   Done                     01/21/2018 19:29:25
00012 suncat1033 pw.x -in pw.inp   Done                     01/21/2018 19:29:25
00013 suncat1033 pw.x -in pw.inp   Done                     01/21/2018 19:29:25
00014 suncat1033 pw.x -in pw.inp   Done                     01/21/2018 19:29:25
00015 suncat1033 pw.x -in pw.inp   Done                     01/21/2018 19:29:25
00016 suncat1033 pw.x -in pw.inp   Done                     01/21/2018 19:29:25
00017 suncat1033 pw.x -in pw.inp   Done                     01/21/2018 19:29:25
00018 suncat1033 pw.x -in pw.inp   Done                     01/21/2018 19:29:25
00019 suncat1033 pw.x -in pw.inp   Done                     01/21/2018 19:29:25
00020 suncat1006 pw.x -in pw.inp   Done                     01/21/2018 19:29:25
00021 suncat1006 pw.x -in pw.inp   Done                     01/21/2018 19:29:25
00022 suncat1006 pw.x -in pw.inp   Done                     01/21/2018 19:29:25
00023 suncat1006 pw.x -in pw.inp   Done                     01/21/2018 19:29:25
00024 suncat1006 pw.x -in pw.inp   Done                     01/21/2018 19:29:25
00025 suncat1006 pw.x -in pw.inp   Done                     01/21/2018 19:29:25
00026 suncat1006 pw.x -in pw.inp   Done                     01/21/2018 19:29:25
00027 suncat1006 pw.x -in pw.inp   Done                     01/21/2018 19:29:25
00028 suncat1006 pw.x -in pw.inp   Done                     01/21/2018 19:29:25
00029 suncat1006 pw.x -in pw.inp   Done                     01/21/2018 19:29:25
00030 suncat1006 pw.x -in pw.inp   Done                     01/21/2018 19:29:25
00031 suncat1006 pw.x -in pw.inp   Done                     01/21/2018 19:29:25