     Program PWSCF v.5.1rc2 (svn rev. ) starts on 16Apr2018 at 10:13: 2

     Current dimensions of program PWSCF are:
     Max number of different atomic species (ntypx) = 10
     Max number of k-points (npk) =  40000
     Max angular momentum in pseudopotentials (lmaxx) =  3
     Presently stress not available with electric field

     IMPORTANT: XC functional enforced from input :
     Exchange-correlation      = BEEF-VDW ( 1  4 27 13 2)
     Any further DFT definition will be discarded
     Please, verify this is what you really want

     Subspace diagonalization in iterative solution of the eigenvalue problem:
     a serial algorithm will be used

     bravais-lattice index     =            0
     lattice parameter (alat)  =       1.8897  a.u.
     unit-cell volume          =    5174.6160 (a.u.)^3
     number of atoms/cell      =           15
     number of atomic types    =            3
     number of electrons       =       234.00
     number of Kohn-Sham states=          127
     kinetic-energy cutoff     =      36.7493  Ry
     charge density cutoff     =     367.4932  Ry
     convergence threshold     =      1.0E-05
     mixing beta               =       0.3000
     number of iterations used =           10  plain     mixing
     Exchange-correlation      = BEEF-VDW ( 1  4 27 13 2)
     nstep                     =           50

     celldm(1)=   1.889726  celldm(2)=   0.000000  celldm(3)=   0.000000
     celldm(4)=   0.000000  celldm(5)=   0.000000  celldm(6)=   0.000000

     crystal axes: (cart. coord. in units of alat)
               a(1) = (   5.966546   0.000000   0.000000 )
               a(2) = (   2.983273   5.167181   0.000000 )
               a(3) = (   0.000000   0.000000  24.871665 )

     reciprocal axes: (cart. coord. in units 2 pi/alat)
               b(1) = (  0.167601 -0.096765  0.000000 )
               b(2) = (  0.000000  0.193529  0.000000 )
               b(3) = (  0.000000  0.000000  0.040206 )

     PseudoPot. # 1 for Ag read from file:
     /home/mamunm/src/pseudo/gbrv1.5pbe/Ag.UPF
     MD5 check sum: d66d668201baa78d5eb5b04ef7011058
     Pseudo is Ultrasoft + core correction, Zval = 19.0
     Generated by new atomic code, or converted to UPF format
     Using radial grid of  887 points,  6 beta functions with:
                l(1) =   0
                l(2) =   0
                l(3) =   1
                l(4) =   1
                l(5) =   2
                l(6) =   2
     Q(r) pseudized with  6 coefficients,  rinner =    1.300   1.300   1.300
                                                       1.300   1.300

     PseudoPot. # 2 for C  read from file:
     /home/mamunm/src/pseudo/gbrv1.5pbe/C.UPF
     MD5 check sum: d1aef80898a10debaa0f26306b886e00
     Pseudo is Ultrasoft + core correction, Zval =  4.0
     Generated by new atomic code, or converted to UPF format
     Using radial grid of  721 points,  4 beta functions with:
                l(1) =   0
                l(2) =   0
                l(3) =   1
                l(4) =   1
     Q(r) pseudized with  8 coefficients,  rinner =    1.100   1.100   1.100

     PseudoPot. # 3 for H  read from file:
     /home/mamunm/src/pseudo/gbrv1.5pbe/H.UPF
     MD5 check sum: 761ae9a214b05c3daf00ab9f6b793d6f
     Pseudo is Ultrasoft, Zval =  1.0
     Generated by new atomic code, or converted to UPF format
     Using radial grid of  615 points,  2 beta functions with:
                l(1) =   0
                l(2) =   0
     Q(r) pseudized with  8 coefficients,  rinner =    0.700

     vdW kernel table read from file vdW_kernel_table
     MD5 check sum: 095c7af220d748ca6e76c0b4c6cfb241

     atomic species   valence    mass     pseudopotential
        Ag1           19.00   107.86820     Ag( 1.00)
        C1             4.00    12.01100     C ( 1.00)
        H1             1.00     1.00800     H ( 1.00)

     No symmetry found

   Cartesian axes

     site n.     atom                  positions (alat units)
         1           Ag1 tau(   1) = (   1.4916366   0.8611968  10.0000000  )
         2           Ag1 tau(   2) = (   4.4749098   0.8611968  10.0000000  )
         3           Ag1 tau(   3) = (   2.9832732   3.4447871  10.0000000  )
         4           Ag1 tau(   4) = (   5.9665464   3.4447871  10.0000000  )
         5           Ag1 tau(   5) = (   5.9665464   1.7223936  12.4358324  )
         6           Ag1 tau(   6) = (   2.9832732   1.7223936  12.4358324  )
         7           Ag1 tau(   7) = (   7.4581830   4.3059839  12.4358324  )
         8           Ag1 tau(   8) = (   4.4749098   4.3059839  12.4358324  )
         9           Ag1 tau(   9) = (   0.0000000   0.0000000  14.8716647  )
        10           Ag1 tau(  10) = (   2.9832732   0.0000000  14.8716647  )
        11           Ag1 tau(  11) = (   1.4916366   2.5835904  14.8716647  )
        12           Ag1 tau(  12) = (   4.4749098   2.5835904  14.8716647  )
        13           C1  tau(  13) = (   1.4916366   0.8611968  16.3081647  )
        14           H1  tau(  14) = (   2.1216366   1.4911968  16.9381647  )
        15           H1  tau(  15) = (   0.8616366   0.2311968  16.9381647  )

     number of k points=    20  Fermi-Dirac smearing, width (Ry)=  0.0110
                       cart. coord. in units 2pi/alat
        k(    1) = (   0.0000000   0.0000000   0.0000000), wk =   0.0555556
        k(    2) = (   0.0000000   0.0322549   0.0000000), wk =   0.1111111
        k(    3) = (   0.0000000   0.0645097   0.0000000), wk =   0.1111111
        k(    4) = (   0.0000000  -0.0967646   0.0000000), wk =   0.0555556
        k(    5) = (   0.0279335  -0.0161274   0.0000000), wk =   0.1111111
        k(    6) = (   0.0279335   0.0161274   0.0000000), wk =   0.1111111
        k(    7) = (   0.0279335   0.0483823   0.0000000), wk =   0.1111111
        k(    8) = (   0.0279335  -0.1128920   0.0000000), wk =   0.1111111
        k(    9) = (   0.0279335  -0.0806371   0.0000000), wk =   0.1111111
        k(   10) = (   0.0279335  -0.0483823   0.0000000), wk =   0.1111111
        k(   11) = (   0.0558670  -0.0322549   0.0000000), wk =   0.1111111
        k(   12) = (   0.0558670   0.0000000   0.0000000), wk =   0.1111111
        k(   13) = (   0.0558670   0.0322549   0.0000000), wk =   0.1111111
        k(   14) = (   0.0558670  -0.1290194   0.0000000), wk =   0.1111111
        k(   15) = (   0.0558670  -0.0967646   0.0000000), wk =   0.1111111
        k(   16) = (   0.0558670  -0.0645097   0.0000000), wk =   0.1111111
        k(   17) = (  -0.0838006   0.0483823   0.0000000), wk =   0.0555556
        k(   18) = (  -0.0838006   0.0806371   0.0000000), wk =   0.1111111
        k(   19) = (  -0.0838006   0.1128920   0.0000000), wk =   0.1111111
        k(   20) = (  -0.0838006  -0.0483823   0.0000000), wk =   0.0555556

     Largest allocated arrays     est. size (Mb)     dimensions
     Largest temporary arrays     est. size (Mb)     dimensions

     Initial potential from superposition of free atoms
     Check: negative starting charge=   -0.002044

     starting charge  227.99937, renormalised to  234.00000

     negative rho (up, down):  2.098E-03 0.000E+00

     *
     * You are using vdW-DF for exchange-correlation in this calculation.
     * Please cite the following three references that made this development
     * possible:
     *
     *   M. Dion, H. Rydberg, E. Schroder, D. C. Langreth, and
     *   B. I. Lundqvist, Phys. Rev. Lett. 92, 246401 (2004).
     *
     *   T. Thonhauser, V. R. Cooper, S. Li, A. Puzder, P. Hyldgaard, and
     *   D. C. Langreth, Phys. Rev. B 76, 125112 (2007).
     *
     *   G. Roman-Perez and J. M. Soler, Phys. Rev. Lett. 103, 096102 (2009).
     *
     *
     * If you are using vdW-DF2, please also cite:
     *
     *   K. Lee, E. D. Murray, L. Kong, B. I. Lundqvist, and
     *   D. C. Langreth, Phys. Rev. B 82, 081101(R) (2010).
     *
     *
     * If you are calculating the stress with vdW-DF, please also cite:
     *
     *   R. Sabatini, E. Kucukbenli, B. Kolb, T. Thonhauser, and
     *   S. de Gironcoli, J. Phys.: Condens. Matter 24, 424209 (2012).
     *

     Carrying out vdW-DF run using the following parameters:

     Nqs =      20    Nr_points =    1024   r_max =   100.000
     q_mesh =
               0.00001000     0.04494208     0.09755937     0.15916263
               0.23128650     0.31572767     0.41458969     0.53033537
               0.66584808     0.82450364     1.01025438     1.22772762
               1.48234092     1.78043706     2.12944203     2.53805004
               3.01644009     3.57652955     4.23227104     5.00000000

     Gradients computed in reciprocal space

     Adding external electric field

     Computed dipole along edir(3) :
        Dipole               -1.2177 Ry au,         -3.0952 Debye
        Dipole field         -0.0030 Ry au

        Potential amp.        0.2710 Ry
        Total length         45.8256 bohr

     Starting wfc are  162 randomized atomic wfcs

     Self-consistent Calculation

     iteration #  1     ecut=    36.75 Ry     beta=0.30
     Davidson diagonalization with overlap
     ethr =  1.00E-02,  avg # of iterations =  5.3

[...]

     total energy              =   -3562.49865795 Ry
     Harris-Foulkes estimate   =   -3577.07394441 Ry
     estimated scf accuracy    <      31.49950517 Ry

[...]

     End of self-consistent calculation

          k = 0.0000 0.0000 0.0000 ( 19435 PWs)   bands (ev):

   -90.6652 -90.6270 -90.6168 -90.6103 -90.6050 -90.6002 -90.5953 -90.4438
   -90.4409 -90.4366 -90.4234 -90.3984 -54.1858 -54.1821 -54.1694 -54.1636
   -54.1385 -54.1326 -54.1305 -54.1267 -54.1167 -54.1144 -54.1127 -54.1050
   -54.0942 -54.0896 -54.0874 -54.0805 -54.0801 -54.0747 -54.0736 -54.0549
   -54.0368 -53.9846 -53.9743 -53.9675 -53.9432 -53.9390 -53.9279 -53.9218
   -53.9212 -53.9173 -53.9102 -53.9088 -53.8991 -53.8861 -53.8816 -53.8711
   -10.9102  -5.4775  -5.1167  -4.7981  -4.3953  -4.3839  -4.3799  -4.3410
    -4.2982  -4.2354  -4.2030  -4.1821  -4.1705  -4.1452  -4.0317  -4.0158
    -3.9776  -3.5396  -3.5133  -3.3598  -3.3150  -3.3061  -3.2999  -3.2293
    -3.2012  -3.2006  -3.1995  -3.0727  -3.0340  -3.0157  -2.9829  -2.9595
    -2.9469  -2.6660  -2.4940  -2.4663  -2.4539  -2.4398  -2.4080  -2.3889
    -2.3853  -2.2764  -2.2661  -2.1809  -2.1590  -2.1565  -2.0193  -1.9398
    -1.9012  -1.8815  -1.8526  -1.8421  -1.8313  -1.8290  -1.7290  -1.7252
    -1.7220  -1.6752  -1.6497  -1.6323  -1.5769  -1.5345  -1.5219  -1.5172
    -0.4410   0.6562   0.9207   1.9115   1.9736   2.0054   2.2512   2.6597
     2.7516   2.9142   3.1028   3.2675   4.0157   4.9249   5.0795

[...]

          k =-0.0838 0.0484 0.0000 ( 19500 PWs)   bands (ev):

[...]

     the Fermi energy is     1.4103 ev

!    total energy              =   -3573.68593954 Ry
     Harris-Foulkes estimate   =   -3573.68593987 Ry
     estimated scf accuracy    <       0.00000343 Ry

     The total energy is the sum of the following terms:

     one-electron contribution =  -26225.24084074 Ry
     hartree contribution      =   13106.41424077 Ry
     xc contribution           =    -366.20107520 Ry
     ewald contribution        =    9911.36462380 Ry
     electric field correction =       0.00000112 Ry
     smearing contrib. (-TS)   =      -0.02288929 Ry

     convergence has been achieved in  15 iterations

 BEEF-vdW xc energy contributions
           1 :   -317.195803845364
           2 :    287.119437798570
           3 :   -236.971741129211
           4 :    181.900272099933
           5 :   -135.638901304073
           6 :    105.577322151750
           7 :   -91.3902816590391
           8 :    87.2228068221249
           9 :   -85.7868860110858
          10 :    82.0440890831939
          11 :   -74.7839921668115
          12 :    65.8048858861470
          13 :   -57.7522723516589
          14 :    52.1688318924141
          15 :   -48.8272838868953
          16 :    46.3923532085557
          17 :   -43.6374575773119
          18 :    40.2633079492198
          19 :   -36.8522347991532
          20 :    34.1769990662716
          21 :   -32.4952138994898
          22 :    31.3543492766195
          23 :   -29.9842396677595
          24 :    27.9149063572628
          25 :   -25.3388637168569
          26 :    22.9639436703918
          27 :   -21.4935860417291
          28 :    21.1267493197202
          29 :   -21.4323578360397
          30 :    21.6639096574080
          31 :   -31.7885340007886
          32 :   -23.1246469659718

     Forces acting on atoms (Ry/au):

     negative rho (up, down):  2.115E-03 0.000E+00
     atom    1 type  1   force =    -0.00054766    0.00001740    0.00329597
     atom    2 type  1   force =     0.00050576    0.00004362   -0.00057394
     atom    3 type  1   force =     0.00005961    0.00024523   -0.00129523
     atom    4 type  1   force =     0.00003296   -0.00028332   -0.00016695
     atom    5 type  1   force =    -0.00150752    0.00094762   -0.00401580
     atom    6 type  1   force =     0.00151562    0.00072935   -0.00200948
     atom    7 type  1   force =     0.00011119   -0.00000332    0.01037860
     atom    8 type  1   force =     0.00019493   -0.00169895   -0.00294825
     atom    9 type  1   force =    -0.01829438   -0.00313824   -0.02032836
     atom   10 type  1   force =     0.00717950   -0.01124172    0.00449232
     atom   11 type  1   force =    -0.01239197    0.01487077   -0.00759738
     atom   12 type  1   force =     0.00574019    0.00005390   -0.00794695
     atom   13 type  2   force =     0.01957041    0.00033595    0.00075705
     atom   14 type  3   force =    -0.00352987   -0.00282527    0.01239993
     atom   15 type  3   force =     0.00136123    0.00194696    0.01555847

     Total force =     0.047854     Total SCF correction =     0.012316
     SCF correction compared to forces is large: reduce conv_thr to get better values

     entering subroutine stress ...

     negative rho (up, down):  2.115E-03 0.000E+00
          total   stress  (Ry/bohr**3)                   (kbar)     P=   -5.45
  -0.00005386  -0.00000217   0.00000817         -7.92     -0.32      1.20
  -0.00000217  -0.00005410  -0.00000049         -0.32     -7.96     -0.07
   0.00000817  -0.00000049  -0.00000308          1.20     -0.07     -0.45

     BFGS Geometry Optimization

     number of scf cycles    =   1
     number of bfgs steps    =   0

     energy   new            =   -3573.6859395430 Ry

     new trust radius        =       0.0275277102 bohr
     new conv_thr            =       0.0000099958 Ry

ATOMIC_POSITIONS (crystal)
Ag1      0.166666667   0.166666667   0.402063960    0   0   0
Ag1      0.666666667   0.166666667   0.402063960    0   0   0
Ag1      0.166666667   0.666666667   0.402063960    0   0   0
Ag1      0.666666667   0.666666667   0.402063960    0   0   0
Ag1      0.833333333   0.333333333   0.500000000    0   0   0
Ag1      0.333333333   0.333333333   0.500000000    0   0   0
Ag1      0.833333333   0.833333333   0.500000000    0   0   0
Ag1      0.333333333   0.833333333   0.500000000    0   0   0
Ag1     -0.001461846  -0.000321391   0.597503528
Ag1      0.501212394  -0.001151278   0.598031620
Ag1     -0.001860519   0.501522934   0.597774396
Ag1      0.500506342   0.500005520   0.597766958
C1       0.168385177   0.166701072   0.655708635
H1       0.211125314   0.288300681   0.681286382
H1       0.122060655   0.044942704   0.681353584

     Writing output data file calc.save
     Check: negative starting charge=   -0.002044
     NEW-OLD atomic charge density approx. for the potential
     Check: negative starting charge=   -0.002044

[...]

     energy   old            =   -3573.6859395430 Ry
     energy   new            =   -3573.6878857076 Ry

     CASE: energy  _new < energy  _old

[...]

     Total force =     0.027344     Total SCF correction =     0.000550

[...]

     Threshold (ethr) on eigenvalues was too large:
     Diagonalizing with lowered threshold

     Davidson diagonalization with overlap
     ethr =  3.38E-08,  avg # of iterations =  1.0

[...]

     Total force =     0.008915     Total SCF correction =     0.000712

[...]

     Threshold (ethr) on eigenvalues was too large:
     Diagonalizing with lowered threshold

     Davidson diagonalization with overlap
     ethr =  6.95E-08,  avg # of iterations =  1.0

[...]

     number of scf cycles    =  36
     number of bfgs steps    =  35

     energy   old            =   -3573.6970048245 Ry
     energy   new            =   -3573.6970991199 Ry

     CASE: energy  _new < energy  _old

     new trust radius        =       0.0554939152 bohr
     new conv_thr            =       0.0000001000 Ry

ATOMIC_POSITIONS (crystal)
Ag1      0.166666667   0.166666667   0.402063960    0   0   0
Ag1      0.666666667   0.166666667   0.402063960    0   0   0
Ag1      0.166666667   0.666666667   0.402063960    0   0   0
Ag1      0.666666667   0.666666667   0.402063960    0   0   0
Ag1      0.833333333   0.333333333   0.500000000    0   0   0
Ag1      0.333333333   0.333333333   0.500000000    0   0   0
Ag1      0.833333333   0.833333333   0.500000000    0   0   0
Ag1      0.333333333   0.833333333   0.500000000    0   0   0
Ag1     -0.001382333  -0.005327217   0.594978034
Ag1      0.507348004  -0.010336591   0.601155890
Ag1     -0.006610529   0.504611505   0.602356543
Ag1      0.503555106   0.499067464   0.594827827
C1       0.208947908   0.200663257   0.662519088
H1       0.292936117   0.272860641   0.692210834
H1       0.112690895   0.113090740   0.684309566

     Writing output data file calc.save
     Check: negative starting charge=   -0.002047
     NEW-OLD atomic charge density approx. for the potential
     Check: negative starting charge=   -0.002047

[...]

     Self-consistent Calculation

[...]

     total energy              =   -3573.69720462 Ry
     Harris-Foulkes estimate   =   -3573.69720453 Ry
     estimated scf accuracy    <       0.00000016 Ry

     iteration #  8     ecut=    36.75 Ry     beta=0.30
     Davidson diagonalization with overlap
     ethr =  6.64E-11,  avg # of iterations =  3.0

[...]

     negative rho (up, down):  2.112E-03 0.000E+00

     Adding external electric field

     Computed dipole along edir(3) :
        Dipole               -0.0440 Ry au,         -0.1118 Debye
        Dipole field         -0.0001 Ry au

        Potential amp.        0.0098 Ry
        Total length         45.8256 bohr

     End of self-consistent calculation

[...]

          k = 0.0559-0.0645 0.0000 ( 19479 PWs)   bands (ev):

[...]

          k =-0.0838-0.0484 0.0000 ( 19500 PWs)   bands (ev):

   -90.7401 -90.7222 -90.7187 -90.6832 -90.6558 -90.6394 -90.5337 -90.5302
   -90.5250 -90.5199 -90.5107 -90.4933 -54.2502 -54.2478 -54.2371 -54.2330
   -54.2227 -54.2178 -54.2158 -54.2134 -54.1931 -54.1919 -54.1854 -54.1802
   -54.1686 -54.1585 -54.1361 -54.1201 -54.1022 -54.0719 -54.0651 -54.0554
   -54.0444 -54.0358 -54.0329 -54.0315 -54.0195 -54.0148 -54.0115 -54.0105
   -54.0081 -54.0078 -54.0005 -53.9995 -53.9979 -53.9896 -53.9822 -53.9668
   -10.4989  -4.8213  -4.4283  -4.2225  -4.1645  -4.0846  -4.0300  -4.0095
    -3.9403  -3.9329  -3.8496  -3.8203  -3.8012  -3.7716  -3.7315  -3.6879
    -3.6159  -3.5531  -3.4426  -3.3962  -3.3567  -3.3457  -3.3323  -3.3277
    -3.2738  -3.1947  -3.1255  -3.0939  -3.0687  -3.0371  -2.9938  -2.9830
    -2.9041  -2.8589  -2.8169  -2.7962  -2.7459  -2.7156  -2.7010  -2.6843
    -2.6563  -2.6543  -2.5929  -2.5439  -2.5267  -2.4975  -2.4709  -2.4316
    -2.4025  -2.4005  -2.3837  -2.3571  -2.3500  -2.2762  -2.2203  -2.1884
    -2.1568  -2.1408  -1.9903  -1.9371  -1.8625  -1.8508  -1.7754  -1.7053
    -1.1989  -0.7397   0.3043   0.6257   1.1971   1.3302   1.7300   2.0263
     2.9032   3.3233   4.2518   4.3221   5.2662   5.6895   5.8266

     the Fermi energy is     1.3199 ev

!    total energy              =   -3573.69720464 Ry
     Harris-Foulkes estimate   =   -3573.69720463 Ry
     estimated scf accuracy    <       0.00000003 Ry

     The total energy is the sum of the following terms:

     one-electron contribution =  -26123.15005567 Ry
     hartree contribution      =   13054.98200133 Ry
     xc contribution           =    -366.15395443 Ry
     ewald contribution        =    9860.64941862 Ry
     electric field correction =       0.00000470 Ry
     smearing contrib. (-TS)   =      -0.02461918 Ry

     convergence has been achieved in   8 iterations

 BEEF-vdW xc energy contributions
           1 :   -317.139912846279
           2 :    287.013533098094
           3 :   -236.811663468383
           4 :    181.725468174139
           5 :   -135.498556437390
           6 :    105.499945607505
           7 :   -91.3735066824040
           8 :    87.2445179900834
           9 :   -85.8245890797003
          10 :    82.0874146966174
          11 :   -74.8333555480727
          12 :    65.8597966927694
          13 :   -57.8015269507991
          14 :    52.1920255931058
          15 :   -48.8075317141245
          16 :    46.3309539032336
          17 :   -43.5574774206059
          18 :    40.1975614315792
          19 :   -36.8233165367242
          20 :    34.1838973354808
          21 :   -32.5163209484399
          22 :    31.3640886591286
          23 :   -29.9713335992388
          24 :    27.8893148113733
          25 :   -25.3229532048526
          26 :    22.9754245649244
          27 :   -21.5327761331739
          28 :    21.1760116540955
          29 :   -21.4659110493582
          30 :    21.6598816307823
          31 :   -31.7839933304850
          32 :   -23.1073596281883

     Forces acting on atoms (Ry/au):

     negative rho (up, down):  2.112E-03 0.000E+00
     atom    1 type  1   force =     0.00015174    0.00005319    0.00231728
     atom    2 type  1   force =    -0.00006870   -0.00029706   -0.00134204
     atom    3 type  1   force =    -0.00026890    0.00010921   -0.00121618
     atom    4 type  1   force =     0.00026494    0.00017908   -0.00126573
     atom    5 type  1   force =     0.00254457    0.00179130   -0.00301895
     atom    6 type  1   force =    -0.00260123   -0.00124302    0.00025492
     atom    7 type  1   force =    -0.00361437   -0.00250280    0.00856318
     atom    8 type  1   force =     0.00274117    0.00054299   -0.00385157
     atom    9 type  1   force =     0.00042589    0.00020503    0.00019780
     atom   10 type  1   force =    -0.00059747    0.00027557    0.00031672
     atom   11 type  1   force =     0.00091245   -0.00074255   -0.00056236
     atom   12 type  1   force =    -0.00098431    0.00020417    0.00104769
     atom   13 type  2   force =     0.00070231    0.00120515    0.00055386
     atom   14 type  3   force =    -0.00005295    0.00053151   -0.00172879
     atom   15 type  3   force =     0.00044488   -0.00031178   -0.00026582

     Total force =     0.003240     Total SCF correction =     0.000641
     SCF correction compared to forces is large: reduce conv_thr to get better values

     entering subroutine stress ...

     negative rho (up, down):  2.112E-03 0.000E+00
          total   stress  (Ry/bohr**3)                   (kbar)     P=   -6.12
  -0.00005133   0.00000038   0.00000151         -7.55      0.06      0.22
   0.00000038  -0.00005168   0.00000208          0.06     -7.60      0.31
   0.00000151   0.00000208  -0.00002182          0.22      0.31     -3.21

     bfgs converged in  37 scf cycles and  36 bfgs steps
     (criteria: energy <  1.0E+00, force <  1.9E-03)

     End of BFGS Geometry Optimization

     Final energy   =   -3573.6972046426 Ry
Begin final coordinates

ATOMIC_POSITIONS (crystal)
Ag1      0.166666667   0.166666667   0.402063960    0   0   0
Ag1      0.666666667   0.166666667   0.402063960    0   0   0
Ag1      0.166666667   0.666666667   0.402063960    0   0   0
Ag1      0.666666667   0.666666667   0.402063960    0   0   0
Ag1      0.833333333   0.333333333   0.500000000    0   0   0
Ag1      0.333333333   0.333333333   0.500000000    0   0   0
Ag1      0.833333333   0.833333333   0.500000000    0   0   0
Ag1      0.333333333   0.833333333   0.500000000    0   0   0
Ag1     -0.001382333  -0.005327217   0.594978034
Ag1      0.507348004  -0.010336591   0.601155890
Ag1     -0.006610529   0.504611505   0.602356543
Ag1      0.503555106   0.499067464   0.594827827
C1       0.208947908   0.200663257   0.662519088
H1       0.292936117   0.272860641   0.692210834
H1       0.112690895   0.113090740   0.684309566
End final coordinates

     Writing output data file calc.save

     General routines

     Parallel routines

   This run was terminated on:  12:22:24  16Apr2018

   JOB DONE.