     Program PWSCF v.6.1 starts on 12Jan2019 at  0:53:24

     Current dimensions of program PWSCF are:
     Max number of different atomic species (ntypx) = 10
     Max number of k-points (npk) =  40000
     Max angular momentum in pseudopotentials (lmaxx) =  3

     IMPORTANT: XC functional enforced from input :
     Exchange-correlation      = BEEF-VDW ( 1  4 29 14 2 0)
     Any further DFT definition will be discarded
     Please, verify this is what you really want

     bravais-lattice index     =            0
     lattice parameter (alat)  =      12.6383  a.u.
     unit-cell volume          =    6655.4372 (a.u.)^3
     number of atoms/cell      =           13
     number of atomic types    =            2
     number of electrons       =       161.00
     number of Kohn-Sham states=           90
     kinetic-energy cutoff     =      36.7493  Ry
     charge density cutoff     =     367.4933  Ry
     convergence threshold     =      1.0E-04
     mixing beta               =       0.2000
     number of iterations used =            8  plain     mixing
     Exchange-correlation      = BEEF-VDW ( 1  4 29 14 2 0)
     nstep                     =           50

     celldm(1)=  12.638304  celldm(2)=   0.000000  celldm(3)=   0.000000
     celldm(4)=   0.000000  celldm(5)=   0.000000  celldm(6)=   0.000000

     crystal axes: (cart. coord. in units of alat)
               a(1) = (   1.000000   0.000000   0.000000 )
               a(2) = (   0.500000   0.866025   0.000000 )
               a(3) = (   0.000000   0.000000   3.806971 )

     reciprocal axes: (cart. coord. in units 2 pi/alat)
               b(1) = (  1.000000 -0.577350  0.000000 )
               b(2) = (  0.000000  1.154701  0.000000 )
               b(3) = (  0.000000  0.000000  0.262676 )

     PseudoPot. # 1 for Tl read from file:
     /home/users/mamunm/src/decaf-espresso/gbrv15pbe/Tl.UPF
     MD5 check sum: b76cf1f7e72655a2b2c53cf6385d7059
     Pseudo is Ultrasoft + core correction, Zval = 13.0
     Generated by new atomic code, or converted to UPF format
     Using radial grid of  899 points,  6 beta functions with:
                l(1) =   0
                l(2) =   0
                l(3) =   1
                l(4) =   1
                l(5) =   2
                l(6) =   2
     Q(r) pseudized with  6 coefficients,  rinner =    1.100   1.100   1.100
                                                       1.100   1.100

     PseudoPot. # 2 for N  read from file:
     /home/users/mamunm/src/decaf-espresso/gbrv15pbe/N.UPF
     MD5 check sum: 95339753478d7afb44899504a8723017
     Pseudo is Ultrasoft + core correction, Zval =  5.0
     Generated by new atomic code, or converted to UPF format
     Using radial grid of  729 points,  4 beta functions with:
                l(1) =   0
                l(2) =   0
                l(3) =   1
                l(4) =   1
     Q(r) pseudized with  8 coefficients,  rinner =    0.900   0.900   0.900

     vdW kernel table read from file vdW_kernel_table
     MD5 check sum: 095c7af220d748ca6e76c0b4c6cfb241

     atomic species   valence    mass     pseudopotential
        Tl            13.00   204.38000     Tl( 1.00)
        N              5.00    14.00700     N ( 1.00)

     No symmetry found

   Cartesian axes

     site n.     atom                  positions (alat units)
         1           Tl  tau(   1) = (   0.2500000   0.1443376   1.4952371  )
         2           Tl  tau(   2) = (   0.7500000   0.1443376   1.4952371  )
         3           Tl  tau(   3) = (   0.5000000   0.5773503   1.4952371  )
         4           Tl  tau(   4) = (   1.0000000   0.5773503   1.4952371  )
         5           Tl  tau(   5) = (   1.0000000   0.2886751   1.9034854  )
         6           Tl  tau(   6) = (   0.5000000   0.2886751   1.9034854  )
         7           Tl  tau(   7) = (   1.2500000   0.7216878   1.9034854  )
         8           Tl  tau(   8) = (   0.7500000   0.7216878   1.9034854  )
         9           Tl  tau(   9) = (  -0.0087874  -0.0050724   2.3775677  )
        10           Tl  tau(  10) = (   0.5087838  -0.0050709   2.3775710  )
        11           Tl  tau(  11) = (   0.2499996   0.4431550   2.3775684  )
        12           Tl  tau(  12) = (   0.7499972   0.4330121   2.3658058  )
        13           N   tau(  13) = (   0.2499978   0.1443374   2.5321089  )

     number of k points=    20  Fermi-Dirac smearing, width (Ry)=  0.0110
                       cart. coord. in units 2pi/alat
        k(    1) = (   0.0000000   0.0000000   0.0000000), wk =   0.0555556
        k(    2) = (   0.0000000   0.1924501   0.0000000), wk =   0.1111111
        k(    3) = (   0.0000000   0.3849002   0.0000000), wk =   0.1111111
        k(    4) = (   0.0000000  -0.5773503   0.0000000), wk =   0.0555556
        k(    5) = (   0.1666667  -0.0962250   0.0000000), wk =   0.1111111
        k(    6) = (   0.1666667   0.0962250   0.0000000), wk =   0.1111111
        k(    7) = (   0.1666667   0.2886751   0.0000000), wk =   0.1111111
        k(    8) = (   0.1666667  -0.6735753   0.0000000), wk =   0.1111111
        k(    9) = (   0.1666667  -0.4811252   0.0000000), wk =   0.1111111
        k(   10) = (   0.1666667  -0.2886751   0.0000000), wk =   0.1111111
        k(   11) = (   0.3333333  -0.1924501   0.0000000), wk =   0.1111111
        k(   12) = (   0.3333333  -0.0000000   0.0000000), wk =   0.1111111
        k(   13) = (   0.3333333   0.1924501   0.0000000), wk =   0.1111111
        k(   14) = (   0.3333333  -0.7698004   0.0000000), wk =   0.1111111
        k(   15) = (   0.3333333  -0.5773503   0.0000000), wk =   0.1111111
        k(   16) = (   0.3333333  -0.3849002   0.0000000), wk =   0.1111111
        k(   17) = (  -0.5000000   0.2886751   0.0000000), wk =   0.0555556
        k(   18) = (  -0.5000000   0.4811252   0.0000000), wk =   0.1111111
        k(   19) = (  -0.5000000   0.6735753   0.0000000), wk =   0.1111111
        k(   20) = (  -0.5000000  -0.2886751   0.0000000), wk =   0.0555556

     Check: negative/imaginary core charge=   -0.000001    0.000000

     Initial potential from superposition of free atoms
     Check: negative starting charge=   -0.602307

     starting charge  160.94160, renormalised to  161.00000

     negative rho (up, down):  6.025E-01 0.000E+00

     %%%%%%%%%%%%%%%%%%%%%%%%%%%%%%%%%%%%%%%%%%%%%%%%%%%%%%%%%%%%%%%%%%%%%%%%
     %                                                                      %
     % You are using vdW-DF, which was implemented by the Thonhauser group. %
     % Please cite the following two papers that made this development      %
     % possible and the two reviews that describe the various versions:     %
     %                                                                      %
     %   T. Thonhauser et al., PRL 115, 136402 (2015).                      %
     %   T. Thonhauser et al., PRB 76, 125112 (2007).                       %
     %   K. Berland et al., Rep. Prog. Phys. 78, 066501 (2015).             %
     %   D.C. Langreth et al., J. Phys.: Condens. Matter 21, 084203 (2009). %
     %                                                                      %
     %                                                                      %
     % If you are calculating the stress with vdW-DF, please also cite:     %
     %                                                                      %
     %   R. Sabatini et al., J. Phys.: Condens. Matter 24, 424209 (2012).   %
     %                                                                      %
     %%%%%%%%%%%%%%%%%%%%%%%%%%%%%%%%%%%%%%%%%%%%%%%%%%%%%%%%%%%%%%%%%%%%%%%%

     Adding external electric field

     Computed dipole along edir(3) :
        Dipole               -0.0139 Ry au,         -0.0352 Debye
        Dipole field         -0.0000 Ry au,

        Potential amp.        0.0023 Ry
        Total length         43.3023 bohr

     Starting wfc are  112 randomized atomic wfcs

     Self-consistent Calculation

     iteration #  1     ecut=    36.75 Ry     beta=0.20
     Davidson diagonalization with overlap
     ethr =  1.00E-02,  avg # of iterations =  2.0

[...]

     total energy              =   -1780.99485406 Ry
     Harris-Foulkes estimate   =   -1781.93213824 Ry
     estimated scf accuracy    <       2.85093200 Ry

[...]

     End of self-consistent calculation

          k = 0.0000 0.0000 0.0000 ( 24957 PWs)   bands (ev):

   -13.2302 -11.4114 -11.4114 -11.4109 -11.3108 -11.3108 -11.2921 -11.2846
   -11.2703 -11.2703 -11.2583 -11.2582 -11.2509 -11.2251 -11.1462 -11.1067
   -11.1067 -11.0862 -11.0824 -11.0824 -11.0611 -11.0611 -11.0365 -11.0365
   -10.9503 -10.9503 -10.9487 -10.8830 -10.8830 -10.8820 -10.7791 -10.7791
   -10.7137 -10.7137 -10.7016 -10.6640 -10.6621 -10.6621 -10.6537 -10.6352
   -10.6352 -10.6044 -10.6044 -10.5731 -10.5726 -10.5726 -10.5361 -10.4987
   -10.4973 -10.4973 -10.4861 -10.4861 -10.4667 -10.4666 -10.4572 -10.4432
   -10.4432 -10.2805 -10.2805 -10.1740  -9.8249  -8.8418  -7.0529  -5.7425
    -4.2849  -4.2849  -4.2607  -4.0919  -4.0918  -3.7668  -3.2943  -3.2943
    -3.0125  -1.5222  -1.5222  -1.4775  -1.0058  -0.5744  -0.5744  -0.5616
    -0.2662  -0.2662  -0.1527   1.3484   1.3484   1.7186   2.9399   3.6231
     3.7525   3.7525

[...]

          k =-0.5000 0.2887 0.0000 ( 25090 PWs)   bands (ev):

[...]

     the Fermi energy is     0.9800 ev

!    total energy              =   -1781.67887539 Ry
     Harris-Foulkes estimate   =   -1781.67892419 Ry
     estimated scf accuracy    <       0.00003952 Ry

     The total energy is the sum of the following terms:

     one-electron contribution =   -8448.60627502 Ry
     hartree contribution      =    4308.58783642 Ry
     xc contribution           =    -773.82373470 Ry
     ewald contribution        =    3132.20336656 Ry
     electric field correction =       0.00019548 Ry
     smearing contrib. (-TS)   =      -0.04026412 Ry

     convergence has been achieved in  12 iterations

[...]

     Forces acting on atoms (cartesian axes, Ry/au):

     atom    1 type  1   force =     0.00001161   -0.00000798   -0.01214856
     atom    2 type  1   force =    -0.00004711    0.00020984   -0.01413186
     atom    3 type  1   force =     0.00018512   -0.00011683   -0.01411917
     atom    4 type  1   force =    -0.00017218   -0.00010504   -0.01409028
     atom    5 type  1   force =     0.00095414   -0.00050612    0.02138697
     atom    6 type  1   force =    -0.00093379   -0.00056104    0.02141447
     atom    7 type  1   force =    -0.00003715   -0.00000296    0.01960266
     atom    8 type  1   force =     0.00002240    0.00108347    0.02139068
     atom    9 type  1   force =    -0.00294720   -0.00167636   -0.00681243
     atom   10 type  1   force =     0.00294894   -0.00169304   -0.00679467
     atom   11 type  1   force =     0.00002516    0.00339590   -0.00679496
     atom   12 type  1   force =    -0.00000986   -0.00002158   -0.00871912
     atom   13 type  2   force =    -0.00000008    0.00000174   -0.00018373

     Total force =     0.015792     Total SCF correction =     0.024808
     SCF correction compared to forces is large: reduce conv_thr to get better values

     BFGS Geometry Optimization

     number of scf cycles    =   1
     number of bfgs steps    =   0

     energy   new            =   -1781.6788753910 Ry

     new trust radius        =       0.0087191499 bohr
     new conv_thr            =       0.0001000000 Ry

ATOMIC_POSITIONS (angstrom)
Tl       1.671975640   0.965315586  10.000000000    0   0   0
Tl       5.015926920   0.965315586  10.000000000    0   0   0
Tl       3.343951280   3.861262344  10.000000000    0   0   0
Tl       6.687902560   3.861262344  10.000000000    0   0   0
Tl       6.687902560   1.930631172  12.730324787    0   0   0
Tl       3.343951280   1.930631172  12.730324787    0   0   0
Tl       8.359878201   4.826577930  12.730324787    0   0   0
Tl       5.015926920   4.826577930  12.730324787    0   0   0
Tl      -0.060329094  -0.034811051  15.897336432
Tl       3.404257297  -0.034809793  15.897367547
Tl       1.671986382   2.965574334  15.897350080
Tl       5.015903063   2.895931435  15.817664563
N        1.671961018   0.965315447  16.934400643

     Writing output data file calc.save
     Check: negative starting charge=   -0.602307
     NEW-OLD atomic charge density approx. for the potential

     Check: negative/imaginary core charge=   -0.000001    0.000000
     Check: negative starting charge=   -0.602171

[...]

     number of scf cycles    =   2
     number of bfgs steps    =   1

     energy   old            =   -1781.6788753910 Ry
     energy   new            =   -1781.6788881752 Ry

     CASE: energy  _new < energy  _old

     new trust radius        =       0.0022391792 bohr
     new conv_thr            =       0.0000010000 Ry

ATOMIC_POSITIONS (angstrom)
Tl       1.671975640   0.965315586  10.000000000    0   0   0
Tl       5.015926920   0.965315586  10.000000000    0   0   0
Tl       3.343951280   3.861262344  10.000000000    0   0   0
Tl       6.687902560   3.861262344  10.000000000    0   0   0
Tl       6.687902560   1.930631172  12.730324787    0   0   0
Tl       3.343951280   1.930631172  12.730324787    0   0   0
Tl       8.359878201   4.826577930  12.730324787    0   0   0
Tl       5.015926920   4.826577930  12.730324787    0   0   0
Tl      -0.059786047  -0.034503564  15.898343702
Tl       3.403715689  -0.034500805  15.898371747
Tl       1.671982477   2.964955014  15.898356737
Tl       5.015903688   2.895933561  15.817289351
N        1.671962047   0.965315511  16.934194603

     Writing output data file calc.save
     Check: negative starting charge=   -0.602171
     NEW-OLD atomic charge density approx. for the potential

     Check: negative/imaginary core charge=   -0.000001    0.000000
     Check: negative starting charge=   -0.602223

[...]

     Self-consistent Calculation

[...]

     Threshold (ethr) on eigenvalues was too large:
     Diagonalizing with lowered threshold

     Davidson diagonalization with overlap
     ethr =  3.17E-08,  avg # of iterations =  2.6

[...]

     total energy              =   -1781.67889916 Ry
     Harris-Foulkes estimate   =   -1781.67891217 Ry
     estimated scf accuracy    <       0.00012459 Ry

     iteration #  4     ecut=    36.75 Ry     beta=0.20
     Davidson diagonalization with overlap
     ethr =  3.56E-08,  avg # of iterations =  1.3

[...]

     Adding external electric field

     Computed dipole along edir(3) :
        Dipole               -0.3317 Ry au,         -0.8431 Debye
        Dipole field         -0.0006 Ry au,

        Potential amp.        0.0542 Ry
        Total length         43.3023 bohr

     End of self-consistent calculation

[...]

          k = 0.3333-0.3849 0.0000 ( 25036 PWs)   bands (ev):

[...]

          k =-0.5000-0.2887 0.0000 ( 25090 PWs)   bands (ev):

   -13.1500 -11.2999 -11.2863 -11.2571 -11.1966 -11.1869 -11.1845 -11.1832
   -11.1720 -11.1671 -11.1376 -11.1259 -11.1243 -11.0955 -11.0857 -11.0849
   -11.0549 -11.0539 -11.0221 -11.0129 -10.9885 -10.9854 -10.9715 -10.9615
   -10.9295 -10.9242 -10.9094 -10.8844 -10.8729 -10.8589 -10.8458 -10.8077
   -10.8045 -10.7946 -10.7935 -10.7743 -10.7640 -10.7490 -10.7431 -10.7408
   -10.7360 -10.7333 -10.7225 -10.7034 -10.6619 -10.6477 -10.6442 -10.6343
   -10.6322 -10.6187 -10.6177 -10.6006 -10.5608 -10.5485 -10.5446 -10.5408
   -10.5120 -10.5006 -10.4326 -10.2876  -9.6237  -7.6317  -7.5420  -6.5589
    -5.7906  -5.1106  -5.0796  -5.0199  -4.6847  -4.4506  -3.5652  -3.1770
    -2.9678  -1.0925   0.0785   0.1508   0.4464   0.5481   0.7353   0.9522
     1.0627   1.3170   1.8354   2.2562   2.3539   2.4671   2.7797   3.2640
     3.5741   3.6227

     the Fermi energy is     0.9717 ev

!    total energy              =   -1781.67890297 Ry
     Harris-Foulkes estimate   =   -1781.67890741 Ry
     estimated scf accuracy    <       0.00000040 Ry

     The total energy is the sum of the following terms:

     one-electron contribution =   -8452.59516595 Ry
     hartree contribution      =    4310.75752791 Ry
     xc contribution           =    -773.82443034 Ry
     ewald contribution        =    3134.02322941 Ry
     electric field correction =       0.00020774 Ry
     smearing contrib. (-TS)   =      -0.04027176 Ry

     convergence has been achieved in   4 iterations

     negative rho (up, down):  6.310E-01 0.000E+00

     Forces acting on atoms (cartesian axes, Ry/au):

     atom    1 type  1   force =    -0.00000066   -0.00000054   -0.02012323
     atom    2 type  1   force =    -0.00000767    0.00028974   -0.02222350
     atom    3 type  1   force =     0.00025021   -0.00014712   -0.02222518
     atom    4 type  1   force =    -0.00024911   -0.00014616   -0.02221324
     atom    5 type  1   force =     0.00058402   -0.00032554    0.02140562
     atom    6 type  1   force =    -0.00057737   -0.00033712    0.02141658
     atom    7 type  1   force =    -0.00001198   -0.00000198    0.01978254
     atom    8 type  1   force =     0.00000915    0.00066531    0.02141238
     atom    9 type  1   force =     0.00120380    0.00070341    0.00148349
     atom   10 type  1   force =    -0.00120290    0.00069395    0.00148688
     atom   11 type  1   force =     0.00000234   -0.00139254    0.00147846
     atom   12 type  1   force =     0.00000463    0.00000065   -0.00138464
     atom   13 type  2   force =    -0.00000445   -0.00000207   -0.00029616

     Total force =     0.003797     Total SCF correction =     0.002287
     SCF correction compared to forces is large: reduce conv_thr to get better values

     bfgs converged in   3 scf cycles and   2 bfgs steps
     (criteria: energy <  1.0E+12 Ry, force <  1.9E-03 Ry/Bohr)

     End of BFGS Geometry Optimization

     Final energy   =   -1781.6789029748 Ry
Begin final coordinates

ATOMIC_POSITIONS (angstrom)
Tl       1.671975640   0.965315586  10.000000000    0   0   0
Tl       5.015926920   0.965315586  10.000000000    0   0   0
Tl       3.343951280   3.861262344  10.000000000    0   0   0
Tl       6.687902560   3.861262344  10.000000000    0   0   0
Tl       6.687902560   1.930631172  12.730324787    0   0   0
Tl       3.343951280   1.930631172  12.730324787    0   0   0
Tl       8.359878201   4.826577930  12.730324787    0   0   0
Tl       5.015926920   4.826577930  12.730324787    0   0   0
Tl      -0.059786047  -0.034503564  15.898343702
Tl       3.403715689  -0.034500805  15.898371747
Tl       1.671982477   2.964955014  15.898356737
Tl       5.015903688   2.895933561  15.817289351
N        1.671962047   0.965315511  16.934194603
End final coordinates

     Writing output data file calc.save

     General routines

     Parallel routines

   This run was terminated on:   0:59: 1  12Jan2019

   JOB DONE.