     Program PWSCF v.5.1rc2 (svn rev. ) starts on  4Feb2018 at 13:26:56

     Current dimensions of program PWSCF are:
     Max number of different atomic species (ntypx) = 10
     Max number of k-points (npk) =  40000
     Max angular momentum in pseudopotentials (lmaxx) =  3
     Presently stress not available with electric field

     IMPORTANT: XC functional enforced from input :
     Exchange-correlation      = BEEF-VDW ( 1  4 27 13 2)
     Any further DFT definition will be discarded
     Please, verify this is what you really want

     Subspace diagonalization in iterative solution of the eigenvalue problem:
     a serial algorithm will be used

     bravais-lattice index     =            0
     lattice parameter (alat)  =       1.8897  a.u.
     unit-cell volume          =    5739.2980 (a.u.)^3
     number of atoms/cell      =           13
     number of atomic types    =            2
     number of electrons       =       148.00
     number of Kohn-Sham states=           84
     kinetic-energy cutoff     =      36.7493  Ry
     charge density cutoff     =     367.4932  Ry
     convergence threshold     =      1.0E-05
     mixing beta               =       0.3000
     number of iterations used =           10  plain     mixing
     Exchange-correlation      = BEEF-VDW ( 1  4 27 13 2)
     nstep                     =           50

     celldm(1)=   1.889726  celldm(2)=   0.000000  celldm(3)=   0.000000
     celldm(4)=   0.000000  celldm(5)=   0.000000  celldm(6)=   0.000000

     crystal axes: (cart. coord. in units of alat)
               a(1) = (   6.254208   0.000000   0.000000 )
               a(2) = (   3.127104   5.416303   0.000000 )
               a(3) = (   0.000000   0.000000  25.106540 )

     reciprocal axes: (cart. coord. in units 2 pi/alat)
               b(1) = (  0.159892 -0.092314  0.000000 )
               b(2) = (  0.000000  0.184628  0.000000 )
               b(3) = (  0.000000  0.000000  0.039830 )

     PseudoPot. # 1 for Cd read from file:
     /home/mamunm/src/pseudo/gbrv1.5pbe/Cd.UPF
     MD5 check sum: 17164a7926edb8e0dc231208abae86a6
     Pseudo is Ultrasoft + core correction, Zval = 12.0
     Generated by new atomic code, or converted to UPF format
     Using radial grid of  889 points,  6 beta functions with:
                l(1) =   0
                l(2) =   0
                l(3) =   1
                l(4) =   1
                l(5) =   2
                l(6) =   2
     Q(r) pseudized with  6 coefficients,  rinner =    1.000   1.000   1.000
                                                       1.000   1.000

     PseudoPot. # 2 for C  read from file:
     /home/mamunm/src/pseudo/gbrv1.5pbe/C.UPF
     MD5 check sum: d1aef80898a10debaa0f26306b886e00
     Pseudo is Ultrasoft + core correction, Zval =  4.0
     Generated by new atomic code, or converted to UPF format
     Using radial grid of  721 points,  4 beta functions with:
                l(1) =   0
                l(2) =   0
                l(3) =   1
                l(4) =   1
     Q(r) pseudized with  8 coefficients,  rinner =    1.100   1.100   1.100

     vdW kernel table read from file vdW_kernel_table
     MD5 check sum: 095c7af220d748ca6e76c0b4c6cfb241

     atomic species   valence    mass     pseudopotential
        Cd1           12.00   112.41400     Cd( 1.00)
        C1             4.00    12.01100     C ( 1.00)

     No symmetry found

   Cartesian axes

     site n.     atom                  positions (alat units)
         1           Cd1 tau(   1) = (   1.5635521   0.9027172  10.0000000  )
         2           Cd1 tau(   2) = (   4.6906562   0.9027172  10.0000000  )
         3           Cd1 tau(   3) = (   3.1271041   3.6108688  10.0000000  )
         4           Cd1 tau(   4) = (   6.2542083   3.6108688  10.0000000  )
         5           Cd1 tau(   5) = (   6.2542083   1.8054344  12.5532698  )
         6           Cd1 tau(   6) = (   3.1271041   1.8054344  12.5532698  )
         7           Cd1 tau(   7) = (   7.8177603   4.5135860  12.5532698  )
         8           Cd1 tau(   8) = (   4.6906562   4.5135860  12.5532698  )
         9           Cd1 tau(   9) = (   0.0000000   0.0000000  15.1065397  )
        10           Cd1 tau(  10) = (   3.1271041   0.0000000  15.1065397  )
        11           Cd1 tau(  11) = (   1.5635521   2.7081516  15.1065397  )
        12           Cd1 tau(  12) = (   4.6906562   2.7081516  15.1065397  )
        13           C1  tau(  13) = (   1.5635521   0.9027172  16.5365397  )

     number of k points=    20  Fermi-Dirac smearing, width (Ry)=  0.0110
                       cart. coord. in units 2pi/alat
        k(    1) = (   0.0000000   0.0000000   0.0000000), wk =   0.0555556
        k(    2) = (   0.0000000   0.0307713   0.0000000), wk =   0.1111111
        k(    3) = (   0.0000000   0.0615426   0.0000000), wk =   0.1111111
        k(    4) = (   0.0000000  -0.0923139   0.0000000), wk =   0.0555556
        k(    5) = (   0.0266487  -0.0153856   0.0000000), wk =   0.1111111
        k(    6) = (   0.0266487   0.0153856   0.0000000), wk =   0.1111111
        k(    7) = (   0.0266487   0.0461569   0.0000000), wk =   0.1111111
        k(    8) = (   0.0266487  -0.1076995   0.0000000), wk =   0.1111111
        k(    9) = (   0.0266487  -0.0769282   0.0000000), wk =   0.1111111
        k(   10) = (   0.0266487  -0.0461569   0.0000000), wk =   0.1111111
        k(   11) = (   0.0532974  -0.0307713   0.0000000), wk =   0.1111111
        k(   12) = (   0.0532974   0.0000000   0.0000000), wk =   0.1111111
        k(   13) = (   0.0532974   0.0307713   0.0000000), wk =   0.1111111
        k(   14) = (   0.0532974  -0.1230852   0.0000000), wk =   0.1111111
        k(   15) = (   0.0532974  -0.0923139   0.0000000), wk =   0.1111111
        k(   16) = (   0.0532974  -0.0615426   0.0000000), wk =   0.1111111
        k(   17) = (  -0.0799462   0.0461569   0.0000000), wk =   0.0555556
        k(   18) = (  -0.0799462   0.0769282   0.0000000), wk =   0.1111111
        k(   19) = (  -0.0799462   0.1076995   0.0000000), wk =   0.1111111
        k(   20) = (  -0.0799462  -0.0461569   0.0000000), wk =   0.0555556

     Largest allocated arrays     est. size (Mb)     dimensions
     Largest temporary arrays     est. size (Mb)     dimensions

     Initial potential from superposition of free atoms
     Check: negative starting charge=   -0.257849

     starting charge  141.99946, renormalised to  148.00000

     negative rho (up, down):  2.687E-01 0.000E+00

     *
     * You are using vdW-DF for exchange-correlation in this calculation.
     * Please cite the following three references that made this development
     * possible:
     *
     *   M. Dion, H. Rydberg, E. Schroder, D. C. Langreth, and
     *   B. I. Lundqvist, Phys. Rev. Lett. 92, 246401 (2004).
     *
     *   T. Thonhauser, V. R. Cooper, S. Li, A. Puzder, P. Hyldgaard, and
     *   D. C. Langreth, Phys. Rev. B 76, 125112 (2007).
     *
     *   G. Roman-Perez and J. M. Soler, Phys. Rev. Lett. 103, 096102 (2009).
     *
     *
     * If you are using vdW-DF2, please also cite:
     *
     *   K. Lee, E. D. Murray, L. Kong, B. I. Lundqvist, and
     *   D. C. Langreth, Phys. Rev. B 82, 081101(R) (2010).
     *
     *
     * If you are calculating the stress with vdW-DF, please also cite:
     *
     *   R. Sabatini, E. Kucukbenli, B. Kolb, T. Thonhauser, and
     *   S. de Gironcoli, J. Phys.: Condens. Matter 24, 424209 (2012).
     *

     Carrying out vdW-DF run using the following parameters:

     Nqs =      20    Nr_points =    1024   r_max =   100.000
     q_mesh =
               0.00001000     0.04494208     0.09755937     0.15916263
               0.23128650     0.31572767     0.41458969     0.53033537
               0.66584808     0.82450364     1.01025438     1.22772762
               1.48234092     1.78043706     2.12944203     2.53805004
               3.01644009     3.57652955     4.23227104     5.00000000

     Gradients computed in reciprocal space

     Adding external electric field

     Computed dipole along edir(3) :
        Dipole               -1.2720 Ry au,         -3.2331 Debye
        Dipole field         -0.0028 Ry au

        Potential amp.        0.2577 Ry
        Total length         46.2584 bohr

     Starting wfc are  112 randomized atomic wfcs

     Self-consistent Calculation

     iteration #  1     ecut=    36.75 Ry     beta=0.30
     Davidson diagonalization with overlap
     ethr =  1.00E-02,  avg # of iterations =  5.0

[...]

     total energy              =   -1403.00305799 Ry
     Harris-Foulkes estimate   =   -1404.78842771 Ry
     estimated scf accuracy    <       3.76945847 Ry

[...]

     End of self-consistent calculation

          k = 0.0000 0.0000 0.0000 ( 21643 PWs)   bands (ev):

   -10.4650  -9.7294  -9.7294  -9.7271  -9.5888  -9.5866  -9.5866  -9.5809
    -9.4672  -9.4672  -9.4384  -9.3546  -9.3546  -9.2557  -9.2017  -9.2017
    -9.1974  -9.1435  -9.1435  -9.1407  -9.0607  -9.0607  -9.0526  -9.0508
    -9.0389  -9.0389  -9.0246  -9.0246  -8.8949  -8.8949  -8.7067  -8.7065
    -8.7065  -8.6162  -8.6162  -8.5794  -8.5542  -8.5383  -8.5383  -8.5083
    -8.5083  -8.4890  -8.4890  -8.4460  -8.4460  -8.4309  -8.3789  -8.3789
    -8.3441  -8.3304  -8.3252  -8.3252  -8.2523  -8.2523  -8.2214  -8.2214
    -8.2088  -8.1577  -8.0925  -8.0925  -8.0439  -7.4335  -5.8075  -3.1053
    -2.0627  -2.0627  -2.0268  -1.9294  -1.9293  -1.7389  -1.2419  -1.2419
    -0.9804  -0.3765  -0.1640  -0.1640  -0.1126   0.4712   0.4712   1.1593
     1.8198   1.8198   2.0970   2.7508

[...]

          k =-0.0799 0.0462 0.0000 ( 21576 PWs)   bands (ev):

[...]

     the Fermi energy is     0.1938 ev

!    total energy              =   -1404.27003033 Ry
     Harris-Foulkes estimate   =   -1404.27006745 Ry
     estimated scf accuracy    <       0.00000765 Ry

     The total energy is the sum of the following terms:

     one-electron contribution =   -8966.67918586 Ry
     hartree contribution      =    4575.76957113 Ry
     xc contribution           =    -493.14893539 Ry
     ewald contribution        =    3479.81966015 Ry
     electric field correction =       0.00047072 Ry
     smearing contrib. (-TS)   =      -0.03161108 Ry

     convergence has been achieved in  10 iterations

 BEEF-vdW xc energy contributions
           1 :   -432.064552893942
           2 :    395.294778817020
           3 :   -333.218703954455
           4 :    263.417842841756
           5 :   -202.151866448325
           6 :    158.576891996315
           7 :   -132.989944864082
           8 :    119.275472283911
           9 :   -109.643094940723
          10 :    98.8889549122762
          11 :   -86.1367035643250
          12 :    73.7331071617191
          13 :   -64.5990473064203
          14 :    59.9383984497458
          15 :   -58.5947359385272
          16 :    58.0839978806858
          17 :   -56.3012457625870
          18 :    52.6914150451269
          19 :   -48.2482245762963
          20 :    44.5536667018908
          21 :   -42.6313607557002
          22 :    42.3637780231290
          23 :   -42.7334434494205
          24 :    42.5854967969373
          25 :   -41.3420110510432
          26 :    39.2384869239046
          27 :   -37.0298748217638
          28 :    35.4444156682519
          29 :   -34.7589477612735
          30 :    34.7214058287920
          31 :   -39.0267854030822
          32 :   -28.5156481180209

     Forces acting on atoms (Ry/au):

     negative rho (up, down):  2.664E-01 0.000E+00
     atom    1 type  1   force =     0.00000084   -0.00000388   -0.01622558
     atom    2 type  1   force =     0.00000996   -0.00008041   -0.01529246
     atom    3 type  1   force =    -0.00007726    0.00003879   -0.01529354
     atom    4 type  1   force =     0.00006612    0.00002774   -0.01527989
     atom    5 type  1   force =     0.00007897   -0.00002630   -0.00168948
     atom    6 type  1   force =    -0.00008914   -0.00004974   -0.00170507
     atom    7 type  1   force =    -0.00001463    0.00000676    0.01255986
     atom    8 type  1   force =     0.00000245    0.00009291   -0.00169591
     atom    9 type  1   force =    -0.01147123   -0.00660105    0.02705661
     atom   10 type  1   force =     0.01146414   -0.00663805    0.02705213
     atom   11 type  1   force =    -0.00000101    0.01324477    0.02706692
     atom   12 type  1   force =     0.00002466   -0.00000641    0.01191971
     atom   13 type  2   force =     0.00000613   -0.00000513   -0.03847330

     Total force =     0.065915     Total SCF correction =     0.006572

     entering subroutine stress ...

     negative rho (up, down):  2.664E-01 0.000E+00
          total   stress  (Ry/bohr**3)                   (kbar)     P=    5.48
   0.00001975   0.00000000   0.00000000          2.90      0.00      0.00
   0.00000000   0.00001975   0.00000000          0.00      2.91      0.00
   0.00000000   0.00000000   0.00007220          0.00      0.00     10.62

     BFGS Geometry Optimization

     number of scf cycles    =   1
     number of bfgs steps    =   0

     energy   new            =   -1404.2700303333 Ry

     new trust radius        =       0.0384733053 bohr
     new conv_thr            =       0.0000099958 Ry

ATOMIC_POSITIONS (crystal)
Cd1      0.166666667   0.166666667   0.398302599    0   0   0
Cd1      0.666666667   0.166666667   0.398302599    0   0   0
Cd1      0.166666667   0.666666667   0.398302599    0   0   0
Cd1      0.666666667   0.666666667   0.398302599    0   0   0
Cd1      0.833333333   0.333333333   0.500000000    0   0   0
Cd1      0.333333333   0.333333333   0.500000000    0   0   0
Cd1      0.833333333   0.833333333   0.500000000    0   0   0
Cd1      0.333333333   0.833333333   0.500000000    0   0   0
Cd1     -0.000648133  -0.000644927   0.602267680
Cd1      0.501294269  -0.000648543   0.602267586
Cd1     -0.000647098   0.501294025   0.602267898
Cd1      0.500002399   0.499999374   0.601948636
C1       0.166667436   0.166666165   0.657843761

     Writing output data file calc.save
     Check: negative starting charge=   -0.257849
     NEW-OLD atomic charge density approx. for the potential
     Check: negative starting charge=   -0.259081

[...]

     Total force =     0.060110     Total SCF correction =     0.016226
     SCF correction compared to forces is large: reduce conv_thr to get better values

[...]

     energy   old            =   -1404.2700303333 Ry
     energy   new            =   -1404.2743557436 Ry

     CASE: energy  _new < energy  _old

     WARNING: bfgs curvature condition failed, Theta= 0.881
     new trust radius        =       0.0577099580 bohr
     new conv_thr            =       0.0000001000 Ry

[...]

     Threshold (ethr) on eigenvalues was too large:
     Diagonalizing with lowered threshold

     Davidson diagonalization with overlap
     ethr =  5.00E-08,  avg # of iterations =  1.0

[...]

     WARNING: bfgs curvature condition failed, Theta= 0.745
     new trust radius        =       0.0254998002 bohr
     new conv_thr            =       0.0000001000 Ry

[...]

     CASE: energy  _new > energy  _old

[...]

     Threshold (ethr) on eigenvalues was too large:
     Diagonalizing with lowered threshold

     Davidson diagonalization with overlap
     ethr =  5.41E-08,  avg # of iterations =  3.0

[...]

     Total force =     0.005860     Total SCF correction =     0.000373

[...]

     number of scf cycles    =  34
     number of bfgs steps    =  32

     energy   old            =   -1404.3180192836 Ry
     energy   new            =   -1404.3180813480 Ry

     CASE: energy  _new < energy  _old

     new trust radius        =       0.0470137835 bohr
     new conv_thr            =       0.0000001000 Ry

ATOMIC_POSITIONS (crystal)
Cd1      0.166666667   0.166666667   0.398302599    0   0   0
Cd1      0.666666667   0.166666667   0.398302599    0   0   0
Cd1      0.166666667   0.666666667   0.398302599    0   0   0
Cd1      0.666666667   0.666666667   0.398302599    0   0   0
Cd1      0.833333333   0.333333333   0.500000000    0   0   0
Cd1      0.333333333   0.333333333   0.500000000    0   0   0
Cd1      0.833333333   0.833333333   0.500000000    0   0   0
Cd1      0.333333333   0.833333333   0.500000000    0   0   0
Cd1     -0.015905700  -0.015923488   0.621264775
Cd1      0.531607566  -0.015828455   0.621257727
Cd1     -0.015787335   0.531585676   0.621267695
Cd1      0.500069068   0.499973991   0.608834277
C1       0.166598883   0.166550268   0.653134376

     Writing output data file calc.save
     Check: negative starting charge=   -0.258689
     NEW-OLD atomic charge density approx. for the potential
     Check: negative starting charge=   -0.258502

[...]

     Self-consistent Calculation

[...]

     total energy              =   -1404.31814423 Ry
     Harris-Foulkes estimate   =   -1404.31814363 Ry
     estimated scf accuracy    <       0.00000035 Ry

     iteration #  8     ecut=    36.75 Ry     beta=0.30
     Davidson diagonalization with overlap
     ethr =  2.35E-10,  avg # of iterations =  3.0

[...]

     negative rho (up, down):  2.673E-01 0.000E+00

     Adding external electric field

     Computed dipole along edir(3) :
        Dipole               -0.3094 Ry au,         -0.7865 Debye
        Dipole field         -0.0007 Ry au

        Potential amp.        0.0627 Ry
        Total length         46.2584 bohr

     End of self-consistent calculation

[...]

          k = 0.0533-0.0615 0.0000 ( 21571 PWs)   bands (ev):

[...]

          k =-0.0799-0.0462 0.0000 ( 21576 PWs)   bands (ev):

   -10.5329  -9.1970  -9.1914  -9.0993  -9.0895  -9.0634  -9.0551  -9.0414
    -9.0101  -9.0069  -8.9855  -8.9851  -8.8899  -8.8804  -8.8589  -8.8513
    -8.8297  -8.8173  -8.7903  -8.7412  -8.7277  -8.7109  -8.6961  -8.6660
    -8.6463  -8.6430  -8.6265  -8.6217  -8.5951  -8.5914  -8.5350  -8.5087
    -8.4981  -8.4945  -8.4704  -8.4684  -8.4613  -8.4426  -8.4371  -8.3978
    -8.3969  -8.3851  -8.3790  -8.3622  -8.3613  -8.3124  -8.2700  -8.2671
    -8.2384  -8.2353  -8.2270  -8.2166  -8.1766  -8.1139  -8.0918  -8.0888
    -8.0865  -8.0174  -7.9974  -7.8330  -6.9261  -6.0442  -5.8184  -4.7063
    -3.6888  -2.9662  -2.8267  -2.6306  -2.1724  -2.0258  -0.7310  -0.2063
    -0.1558   0.2205   1.2976   1.4102   1.8957   2.4304   2.7417   2.8088
     3.1562   3.3384   3.5304   3.8538

     the Fermi energy is     0.4554 ev

!    total energy              =   -1404.31814440 Ry
     Harris-Foulkes estimate   =   -1404.31814287 Ry
     estimated scf accuracy    <       0.00000005 Ry

     The total energy is the sum of the following terms:

     one-electron contribution =   -8501.73276297 Ry
     hartree contribution      =    4344.65521422 Ry
     xc contribution           =    -493.13805043 Ry
     ewald contribution        =    3245.92284717 Ry
     electric field correction =       0.00020965 Ry
     smearing contrib. (-TS)   =      -0.02560203 Ry

     convergence has been achieved in   8 iterations

 BEEF-vdW xc energy contributions
           1 :   -432.044429724116
           2 :    395.173120205522
           3 :   -332.959008512242
           4 :    263.078124199067
           5 :   -201.838091468915
           6 :    158.353926471440
           7 :   -132.833307907484
           8 :    119.105088103685
           9 :   -109.406085738016
          10 :    98.6169851274140
          11 :   -85.9261310133794
          12 :    73.6631139433213
          13 :   -64.6573873496511
          14 :    60.0207330461267
          15 :   -58.5820761991249
          16 :    57.9383100331231
          17 :   -56.1035900217885
          18 :    52.5867189171973
          19 :   -48.3324044736554
          20 :    44.7909388971124
          21 :   -42.8713238376429
          22 :    42.4506490233932
          23 :   -42.6244225575149
          24 :    42.3836765660809
          25 :   -41.2157687368436
          26 :    39.2893731612652
          27 :   -37.2116809722552
          28 :    35.5969828775456
          29 :   -34.7316793637291
          30 :    34.4914546363991
          31 :   -39.0212645822811
          32 :   -28.4780317342656

     Forces acting on atoms (Ry/au):

     negative rho (up, down):  2.673E-01 0.000E+00
     atom    1 type  1   force =     0.00000246    0.00000067   -0.01911450
     atom    2 type  1   force =     0.00000257    0.00039322   -0.01882373
     atom    3 type  1   force =     0.00034280   -0.00019478   -0.01882447
     atom    4 type  1   force =    -0.00033806   -0.00019520   -0.01882497
     atom    5 type  1   force =     0.00274692   -0.00158401    0.01772977
     atom    6 type  1   force =    -0.00273902   -0.00158044    0.01773373
     atom    7 type  1   force =     0.00000220   -0.00000090    0.02041557
     atom    8 type  1   force =     0.00000093    0.00316729    0.01773471
     atom    9 type  1   force =     0.00103676    0.00058686    0.00076909
     atom   10 type  1   force =    -0.00103248    0.00054796    0.00078494
     atom   11 type  1   force =    -0.00003799   -0.00118389    0.00078781
     atom   12 type  1   force =    -0.00003606    0.00000353   -0.00040500
     atom   13 type  2   force =     0.00004898    0.00003968    0.00003705

     Total force =     0.002487     Total SCF correction =     0.001230
     SCF correction compared to forces is large: reduce conv_thr to get better values

     entering subroutine stress ...

     negative rho (up, down):  2.673E-01 0.000E+00
          total   stress  (Ry/bohr**3)                   (kbar)     P=    4.43
   0.00002645   0.00000006   0.00000001          3.89      0.01      0.00
   0.00000006   0.00002638   0.00000001          0.01      3.88      0.00
   0.00000001   0.00000001   0.00003752          0.00      0.00      5.52

     bfgs converged in  35 scf cycles and  33 bfgs steps
     (criteria: energy <  1.0E+00, force <  1.9E-03)

     End of BFGS Geometry Optimization

     Final energy   =   -1404.3181444013 Ry
Begin final coordinates

ATOMIC_POSITIONS (crystal)
Cd1      0.166666667   0.166666667   0.398302599    0   0   0
Cd1      0.666666667   0.166666667   0.398302599    0   0   0
Cd1      0.166666667   0.666666667   0.398302599    0   0   0
Cd1      0.666666667   0.666666667   0.398302599    0   0   0
Cd1      0.833333333   0.333333333   0.500000000    0   0   0
Cd1      0.333333333   0.333333333   0.500000000    0   0   0
Cd1      0.833333333   0.833333333   0.500000000    0   0   0
Cd1      0.333333333   0.833333333   0.500000000    0   0   0
Cd1     -0.015905700  -0.015923488   0.621264775
Cd1      0.531607566  -0.015828455   0.621257727
Cd1     -0.015787335   0.531585676   0.621267695
Cd1      0.500069068   0.499973991   0.608834277
C1       0.166598883   0.166550268   0.653134376
End final coordinates

     Writing output data file calc.save

     General routines

     Parallel routines

   This run was terminated on:  15:26:54   4Feb2018

   JOB DONE.