     Program PWSCF v.5.1rc2 (svn rev. 11289) starts on 15Jan2018 at  1:19:10

     Current dimensions of program PWSCF are:
     Max number of different atomic species (ntypx) = 10
     Max number of k-points (npk) =  40000
     Max angular momentum in pseudopotentials (lmaxx) =  3
     Presently stress not available with electric field

     IMPORTANT: XC functional enforced from input :
     Exchange-correlation      = BEEF-VDW ( 1  4 27 13 2)
     Any further DFT definition will be discarded
     Please, verify this is what you really want

     Subspace diagonalization in iterative solution of the eigenvalue problem:
     a serial algorithm will be used

     bravais-lattice index     =            0
     lattice parameter (alat)  =       1.8897  a.u.
     unit-cell volume          =    4299.0717 (a.u.)^3
     number of atoms/cell      =           13
     number of atomic types    =            2
     number of electrons       =       185.00
     number of Kohn-Sham states=          102
     kinetic-energy cutoff     =      36.7493  Ry
     charge density cutoff     =     367.4932  Ry
     convergence threshold     =      1.0E-05
     mixing beta               =       0.3000
     number of iterations used =           10  plain     mixing
     Exchange-correlation      = BEEF-VDW ( 1  4 27 13 2)
     nstep                     =           50

     celldm(1)=   1.889726  celldm(2)=   0.000000  celldm(3)=   0.000000
     celldm(4)=   0.000000  celldm(5)=   0.000000  celldm(6)=   0.000000

     crystal axes: (cart. coord. in units of alat)
               a(1) = (   5.482164   0.000000   0.000000 )
               a(2) = (   2.741082   4.747693   0.000000 )
               a(3) = (   0.000000   0.000000  24.476168 )

     reciprocal axes: (cart. coord. in units 2 pi/alat)
               b(1) = (  0.182410 -0.105314  0.000000 )
               b(2) = (  0.000000  0.210629  0.000000 )
               b(3) = (  0.000000  0.000000  0.040856 )

     PseudoPot. # 1 for Ir read from file:
     /afs/slac.stanford.edu/u/if/mamunm/psp/gbrv1.5pbe/Ir.UPF
     MD5 check sum: 8836f839c3459d2b385c504ce6d91f2c
     Pseudo is Ultrasoft + core correction, Zval = 15.0
     Generated by new atomic code, or converted to UPF format
     Using radial grid of  983 points,  7 beta functions with:
                l(1) =   0
                l(2) =   0
                l(3) =   1
                l(4) =   1
                l(5) =   1
                l(6) =   2
                l(7) =   2
     Q(r) pseudized with  8 coefficients,  rinner =    1.400   1.400   1.400
                                                       1.400   1.400

     PseudoPot. # 2 for N  read from file:
     /afs/slac.stanford.edu/u/if/mamunm/psp/gbrv1.5pbe/N.UPF
     MD5 check sum: 95339753478d7afb44899504a8723017
     Pseudo is Ultrasoft + core correction, Zval =  5.0
     Generated by new atomic code, or converted to UPF format
     Using radial grid of  729 points,  4 beta functions with:
                l(1) =   0
                l(2) =   0
                l(3) =   1
                l(4) =   1
     Q(r) pseudized with  8 coefficients,  rinner =    0.900   0.900   0.900

     vdW kernel table read from file vdW_kernel_table
     MD5 check sum: 095c7af220d748ca6e76c0b4c6cfb241

     atomic species   valence    mass     pseudopotential
        Ir1           15.00   192.21700     Ir( 1.00)
        N1             5.00    14.00700     N ( 1.00)

     No symmetry found

   Cartesian axes

     site n.     atom                  positions (alat units)
         1           Ir1 tau(   1) = (   1.3705410   0.7912822  10.0000000  )
         2           Ir1 tau(   2) = (   4.1116229   0.7912822  10.0000000  )
         3           Ir1 tau(   3) = (   2.7410819   3.1651288  10.0000000  )
         4           Ir1 tau(   4) = (   5.4821639   3.1651288  10.0000000  )
         5           Ir1 tau(   5) = (   5.4821639   1.5825644  12.2380840  )
         6           Ir1 tau(   6) = (   2.7410819   1.5825644  12.2380840  )
         7           Ir1 tau(   7) = (   6.8527049   3.9564110  12.2380840  )
         8           Ir1 tau(   8) = (   4.1116229   3.9564110  12.2380840  )
         9           Ir1 tau(   9) = (   0.0000000   0.0000000  14.4761681  )
        10           Ir1 tau(  10) = (   2.7410819   0.0000000  14.4761681  )
        11           Ir1 tau(  11) = (   1.3705410   2.3738466  14.4761681  )
        12           Ir1 tau(  12) = (   4.1116229   2.3738466  14.4761681  )
        13           N1  tau(  13) = (   1.3705410   0.7912822  16.5961681  )

     number of k points=    20  Fermi-Dirac smearing, width (Ry)=  0.0110
                       cart. coord. in units 2pi/alat
        k(    1) = (   0.0000000   0.0000000   0.0000000), wk =   0.0555556
        k(    2) = (   0.0000000   0.0351048   0.0000000), wk =   0.1111111
        k(    3) = (   0.0000000   0.0702095   0.0000000), wk =   0.1111111
        k(    4) = (   0.0000000  -0.1053143   0.0000000), wk =   0.0555556
        k(    5) = (   0.0304016  -0.0175524   0.0000000), wk =   0.1111111
        k(    6) = (   0.0304016   0.0175524   0.0000000), wk =   0.1111111
        k(    7) = (   0.0304016   0.0526572   0.0000000), wk =   0.1111111
        k(    8) = (   0.0304016  -0.1228667   0.0000000), wk =   0.1111111
        k(    9) = (   0.0304016  -0.0877619   0.0000000), wk =   0.1111111
        k(   10) = (   0.0304016  -0.0526572   0.0000000), wk =   0.1111111
        k(   11) = (   0.0608032  -0.0351048   0.0000000), wk =   0.1111111
        k(   12) = (   0.0608032   0.0000000   0.0000000), wk =   0.1111111
        k(   13) = (   0.0608032   0.0351048   0.0000000), wk =   0.1111111
        k(   14) = (   0.0608032  -0.1404191   0.0000000), wk =   0.1111111
        k(   15) = (   0.0608032  -0.1053143   0.0000000), wk =   0.1111111
        k(   16) = (   0.0608032  -0.0702095   0.0000000), wk =   0.1111111
        k(   17) = (  -0.0912049   0.0526572   0.0000000), wk =   0.0555556
        k(   18) = (  -0.0912049   0.0877619   0.0000000), wk =   0.1111111
        k(   19) = (  -0.0912049   0.1228667   0.0000000), wk =   0.1111111
        k(   20) = (  -0.0912049  -0.0526572   0.0000000), wk =   0.0555556

     Largest allocated arrays     est. size (Mb)     dimensions
     Largest temporary arrays     est. size (Mb)     dimensions

     Initial potential from superposition of free atoms
     Check: negative starting charge=   -4.361759

     starting charge  178.99961, renormalised to  185.00000

     negative rho (up, down):  4.508E+00 0.000E+00

     *
     * You are using vdW-DF for exchange-correlation in this calculation.
     * Please cite the following three references that made this development
     * possible:
     *
     *   M. Dion, H. Rydberg, E. Schroder, D. C. Langreth, and
     *   B. I. Lundqvist, Phys. Rev. Lett. 92, 246401 (2004).
     *
     *   T. Thonhauser, V. R. Cooper, S. Li, A. Puzder, P. Hyldgaard, and
     *   D. C. Langreth, Phys. Rev. B 76, 125112 (2007).
     *
     *   G. Roman-Perez and J. M. Soler, Phys. Rev. Lett. 103, 096102 (2009).
     *
     *
     * If you are using vdW-DF2, please also cite:
     *
     *   K. Lee, E. D. Murray, L. Kong, B. I. Lundqvist, and
     *   D. C. Langreth, Phys. Rev. B 82, 081101(R) (2010).
     *
     *
     * If you are calculating the stress with vdW-DF, please also cite:
     *
     *   R. Sabatini, E. Kucukbenli, B. Kolb, T. Thonhauser, and
     *   S. de Gironcoli, J. Phys.: Condens. Matter 24, 424209 (2012).
     *

     Carrying out vdW-DF run using the following parameters:

     Nqs =      20    Nr_points =    1024   r_max =   100.000
     q_mesh =
               0.00001000     0.04494208     0.09755937     0.15916263
               0.23128650     0.31572767     0.41458969     0.53033537
               0.66584808     0.82450364     1.01025438     1.22772762
               1.48234092     1.78043706     2.12944203     2.53805004
               3.01644009     3.57652955     4.23227104     5.00000000

     Gradients computed in reciprocal space

     Adding external electric field

     Computed dipole along edir(3) :
        Dipole               -1.3803 Ry au,         -3.5083 Debye
        Dipole field         -0.0040 Ry au

        Potential amp.        0.3639 Ry
        Total length         45.0969 bohr

     Starting wfc are  148 randomized atomic wfcs

     Self-consistent Calculation

     iteration #  1     ecut=    36.75 Ry     beta=0.30
     Davidson diagonalization with overlap
     ethr =  1.00E-02,  avg # of iterations =  2.5

[...]

     total energy              =   -2195.43992916 Ry
     Harris-Foulkes estimate   =   -2222.96651481 Ry
     estimated scf accuracy    <      58.24836936 Ry

[...]

     End of self-consistent calculation

          k = 0.0000 0.0000 0.0000 ( 16073 PWs)   bands (ev):

   -48.1335 -48.1121 -48.1120 -47.9957 -47.9243 -47.9242 -47.8582 -47.7412
   -47.6886 -47.6885 -47.6824 -47.6397 -47.6396 -47.5572 -47.5572 -47.5385
   -47.5383 -47.5155 -47.3544 -47.3541 -47.3506 -47.3110 -47.2674 -47.2671
   -47.1742 -47.1741 -47.1739 -47.1704 -47.1253 -47.1151 -47.1119 -47.1118
   -47.1079 -47.1076 -47.0443 -47.0443 -10.0623  -7.4795  -5.5612  -5.2362
    -4.9341  -4.9254  -4.9254  -4.6418  -4.6357  -4.6357  -4.1451  -4.1344
    -4.1343  -3.8637  -3.8513  -3.8512  -2.3949  -2.3727  -2.3726  -1.8153
    -1.8153  -1.8045  -1.6214  -1.4736  -1.4736  -1.2546  -1.0318  -1.0318
    -0.9870  -0.9679  -0.9678  -0.7221  -0.7221  -0.4735  -0.4734  -0.4102
     0.4321   0.6374   0.6374   0.8737   0.9227   0.9227   0.9737   0.9737
     1.1343   1.4845   1.4845   1.7276   1.7276   1.8882   2.3941   2.4043
     2.4044   2.4203   2.5792   2.5792   2.6969   2.6969   2.9122   2.9548
     2.9549   3.0488   3.3600   3.4045   3.4047   3.4998

[...]

          k =-0.0912 0.0527 0.0000 ( 16164 PWs)   bands (ev):

[...]

     the Fermi energy is     1.9800 ev

!    total energy              =   -2219.80645797 Ry
     Harris-Foulkes estimate   =   -2219.80641777 Ry
     estimated scf accuracy    <       0.00000929 Ry

     The total energy is the sum of the following terms:

     one-electron contribution =  -18693.07104881 Ry
     hartree contribution      =    9375.82902264 Ry
     xc contribution           =    -628.60179972 Ry
     ewald contribution        =    7726.13368109 Ry
     electric field correction =       0.00046514 Ry
     smearing contrib. (-TS)   =      -0.09677831 Ry

     convergence has been achieved in  21 iterations

 BEEF-vdW xc energy contributions
           1 :   -556.601237180659
           2 :    517.568972876457
           3 :   -447.881700061734
           4 :    361.327201042615
           5 :   -272.956220290940
           6 :    195.238495546188
           7 :   -135.462742724004
           8 :    94.9467373048222
           9 :   -70.0958757749565
          10 :    54.7312353760800
          11 :   -42.7392217107285
          12 :    30.0905792731610
          13 :   -15.6597250743999
          14 :   0.807937861588243
          15 :    11.8680346035449
          16 :   -20.0201252825584
          17 :    22.6695597989238
          18 :   -20.5904873670056
[...]

[...]

   This run was terminated on:   2:54: 3  15Jan2018

[...]

     Program PWSCF v.5.1rc2 (svn rev. 11289) starts on 15Jan2018 at  2:54: 9

[...]

   This run was terminated on:   3: 7:30  15Jan2018

[...]

     Program PWSCF v.5.1rc2 (svn rev. 11289) starts on 15Jan2018 at  3: 7:37

[...]

     Total force =     0.050884     Total SCF correction =     0.002633

[...]

     Program PWSCF v.5.1rc2 (svn rev. 11289) starts on 15Jan2018 at  3:21:37

     Current dimensions of program PWSCF are:
     Max number of different atomic species (ntypx) = 10
     Max number of k-points (npk) =  40000
     Max angular momentum in pseudopotentials (lmaxx) =  3
     Presently stress not available with electric field

     IMPORTANT: XC functional enforced from input :
     Exchange-correlation      = BEEF-VDW ( 1  4 27 13 2)
     Any further DFT definition will be discarded
     Please, verify this is what you really want

     Subspace diagonalization in iterative solution of the eigenvalue problem:
     a serial algorithm will be used

     bravais-lattice index     =            0
     lattice parameter (alat)  =       1.8897  a.u.
     unit-cell volume          =    4299.0717 (a.u.)^3
     number of atoms/cell      =           13
     number of atomic types    =            2
     number of electrons       =       185.00
     number of Kohn-Sham states=          102
     kinetic-energy cutoff     =      36.7493  Ry
     charge density cutoff     =     367.4932  Ry
     convergence threshold     =      1.0E-05
     mixing beta               =       0.3000
     number of iterations used =           10  plain     mixing
     Exchange-correlation      = BEEF-VDW ( 1  4 27 13 2)
     nstep                     =           50

     celldm(1)=   1.889726  celldm(2)=   0.000000  celldm(3)=   0.000000
     celldm(4)=   0.000000  celldm(5)=   0.000000  celldm(6)=   0.000000

     crystal axes: (cart. coord. in units of alat)
               a(1) = (   5.482164   0.000000   0.000000 )
               a(2) = (   2.741082   4.747693   0.000000 )
               a(3) = (   0.000000   0.000000  24.476168 )

     reciprocal axes: (cart. coord. in units 2 pi/alat)
               b(1) = (  0.182410 -0.105314  0.000000 )
               b(2) = (  0.000000  0.210629  0.000000 )
               b(3) = (  0.000000  0.000000  0.040856 )

     PseudoPot. # 1 for Ir read from file:
     /afs/slac.stanford.edu/u/if/mamunm/psp/gbrv1.5pbe/Ir.UPF
     MD5 check sum: 8836f839c3459d2b385c504ce6d91f2c
     Pseudo is Ultrasoft + core correction, Zval = 15.0
     Generated by new atomic code, or converted to UPF format
     Using radial grid of  983 points,  7 beta functions with:
                l(1) =   0
                l(2) =   0
                l(3) =   1
                l(4) =   1
                l(5) =   1
                l(6) =   2
                l(7) =   2
     Q(r) pseudized with  8 coefficients,  rinner =    1.400   1.400   1.400
                                                       1.400   1.400

     PseudoPot. # 2 for N  read from file:
     /afs/slac.stanford.edu/u/if/mamunm/psp/gbrv1.5pbe/N.UPF
     MD5 check sum: 95339753478d7afb44899504a8723017
     Pseudo is Ultrasoft + core correction, Zval =  5.0
     Generated by new atomic code, or converted to UPF format
     Using radial grid of  729 points,  4 beta functions with:
                l(1) =   0
                l(2) =   0
                l(3) =   1
                l(4) =   1
     Q(r) pseudized with  8 coefficients,  rinner =    0.900   0.900   0.900

     vdW kernel table read from file vdW_kernel_table
     MD5 check sum: 095c7af220d748ca6e76c0b4c6cfb241

     atomic species   valence    mass     pseudopotential
        Ir1           15.00   192.21700     Ir( 1.00)
        N1             5.00    14.00700     N ( 1.00)

     No symmetry found

   Cartesian axes

     site n.     atom                  positions (alat units)
         1           Ir1 tau(   1) = (   1.3705410   0.7912822  10.0000000  )
         2           Ir1 tau(   2) = (   4.1116229   0.7912822  10.0000000  )
         3           Ir1 tau(   3) = (   2.7410819   3.1651288  10.0000000  )
         4           Ir1 tau(   4) = (   5.4821639   3.1651288  10.0000000  )
         5           Ir1 tau(   5) = (   5.4821639   1.5825644  12.2380840  )
         6           Ir1 tau(   6) = (   2.7410819   1.5825644  12.2380840  )
         7           Ir1 tau(   7) = (   6.8527049   3.9564110  12.2380840  )
         8           Ir1 tau(   8) = (   4.1116229   3.9564110  12.2380840  )
         9           Ir1 tau(   9) = (   8.1866600   4.7266581  14.5194151  )
        10           Ir1 tau(  10) = (   5.5186551   4.7263993  14.5194721  )
        11           Ir1 tau(  11) = (   6.8524160   2.4159787  14.5194200  )
        12           Ir1 tau(  12) = (   4.1120122   2.3739278  14.4143205  )
        13           N1  tau(  13) = (   1.3705403   0.7914152  15.6498256  )

     number of k points=    20  Fermi-Dirac smearing, width (Ry)=  0.0110
                       cart. coord. in units 2pi/alat
        k(    1) = (   0.0000000   0.0000000   0.0000000), wk =   0.0555556
        k(    2) = (   0.0000000   0.0351048   0.0000000), wk =   0.1111111
        k(    3) = (   0.0000000   0.0702095   0.0000000), wk =   0.1111111
        k(    4) = (   0.0000000  -0.1053143   0.0000000), wk =   0.0555556
        k(    5) = (   0.0304016  -0.0175524   0.0000000), wk =   0.1111111
        k(    6) = (   0.0304016   0.0175524   0.0000000), wk =   0.1111111
        k(    7) = (   0.0304016   0.0526572   0.0000000), wk =   0.1111111
        k(    8) = (   0.0304016  -0.1228667   0.0000000), wk =   0.1111111
        k(    9) = (   0.0304016  -0.0877619   0.0000000), wk =   0.1111111
        k(   10) = (   0.0304016  -0.0526572   0.0000000), wk =   0.1111111
        k(   11) = (   0.0608032  -0.0351048   0.0000000), wk =   0.1111111
        k(   12) = (   0.0608032   0.0000000   0.0000000), wk =   0.1111111
        k(   13) = (   0.0608032   0.0351048   0.0000000), wk =   0.1111111
        k(   14) = (   0.0608032  -0.1404191   0.0000000), wk =   0.1111111
        k(   15) = (   0.0608032  -0.1053143   0.0000000), wk =   0.1111111
        k(   16) = (   0.0608032  -0.0702095   0.0000000), wk =   0.1111111
        k(   17) = (  -0.0912049   0.0526572   0.0000000), wk =   0.0555556
        k(   18) = (  -0.0912049   0.0877619   0.0000000), wk =   0.1111111
        k(   19) = (  -0.0912049   0.1228667   0.0000000), wk =   0.1111111
        k(   20) = (  -0.0912049  -0.0526572   0.0000000), wk =   0.0555556

     Largest allocated arrays     est. size (Mb)     dimensions
     Largest temporary arrays     est. size (Mb)     dimensions

     Initial potential from superposition of free atoms
     Check: negative starting charge=   -4.368567

     starting charge  178.99961, renormalised to  185.00000

[...]

     *
     * You are using vdW-DF for exchange-correlation in this calculation.
     * Please cite the following three references that made this development
     * possible:
     *
     *   M. Dion, H. Rydberg, E. Schroder, D. C. Langreth, and
     *   B. I. Lundqvist, Phys. Rev. Lett. 92, 246401 (2004).
     *
     *   T. Thonhauser, V. R. Cooper, S. Li, A. Puzder, P. Hyldgaard, and
     *   D. C. Langreth, Phys. Rev. B 76, 125112 (2007).
     *
     *   G. Roman-Perez and J. M. Soler, Phys. Rev. Lett. 103, 096102 (2009).
     *
     *
     * If you are using vdW-DF2, please also cite:
     *
     *   K. Lee, E. D. Murray, L. Kong, B. I. Lundqvist, and
     *   D. C. Langreth, Phys. Rev. B 82, 081101(R) (2010).
     *
     *
     * If you are calculating the stress with vdW-DF, please also cite:
     *
     *   R. Sabatini, E. Kucukbenli, B. Kolb, T. Thonhauser, and
     *   S. de Gironcoli, J. Phys.: Condens. Matter 24, 424209 (2012).
     *

     Carrying out vdW-DF run using the following parameters:

     Nqs =      20    Nr_points =    1024   r_max =   100.000
     q_mesh =
               0.00001000     0.04494208     0.09755937     0.15916263
               0.23128650     0.31572767     0.41458969     0.53033537
               0.66584808     0.82450364     1.01025438     1.22772762
               1.48234092     1.78043706     2.12944203     2.53805004
               3.01644009     3.57652955     4.23227104     5.00000000

     Gradients computed in reciprocal space

[...]

     Starting wfc are  148 randomized atomic wfcs

     Self-consistent Calculation

[...]

     iteration #  2     ecut=    36.75 Ry     beta=0.30
     Davidson diagonalization with overlap
     c_bands:  3 eigenvalues not converged
     ethr =  1.00E-02,  avg # of iterations = 16.8

[...]

     total energy              =   -2220.05578831 Ry
     Harris-Foulkes estimate   =   -2220.05579526 Ry
     estimated scf accuracy    <       0.00002827 Ry

     iteration # 19     ecut=    36.75 Ry     beta=0.30
     Davidson diagonalization with overlap
     ethr =  1.53E-08,  avg # of iterations =  3.1

[...]

     negative rho (up, down):  3.887E+00 0.000E+00

     Adding external electric field

     Computed dipole along edir(3) :
        Dipole               -0.1015 Ry au,         -0.2581 Debye
        Dipole field         -0.0003 Ry au

        Potential amp.        0.0268 Ry
        Total length         45.0969 bohr

     End of self-consistent calculation

[...]

          k = 0.0608-0.0702 0.0000 ( 16191 PWs)   bands (ev):

[...]

          k =-0.0912-0.0527 0.0000 ( 16164 PWs)   bands (ev):

   -47.6811 -47.6044 -47.5259 -47.5183 -47.4970 -47.4803 -47.4603 -47.4239
   -47.4225 -47.3872 -47.3806 -47.2440 -47.2365 -47.2228 -47.2153 -47.2130
   -47.1205 -47.0807 -47.0739 -47.0714 -47.0497 -47.0323 -47.0032 -46.9351
   -46.9207 -46.9039 -46.8873 -46.8276 -46.7824 -46.7671 -46.7656 -46.7520
   -46.7422 -46.7343 -46.7335 -46.7324 -12.9936  -5.3943  -5.2045  -4.3542
    -3.8033  -3.6675  -3.6229  -3.5175  -3.3795  -3.3657  -3.3260  -3.1972
    -2.9450  -2.6573  -2.6497  -2.6033  -2.5163  -2.3327  -2.1959  -2.0482
    -1.9620  -1.9079  -1.9049  -1.7510  -1.5958  -1.5311  -1.1960  -1.1152
    -0.9049  -0.9024  -0.7586  -0.5667  -0.5477  -0.4451  -0.3828  -0.3779
    -0.3015  -0.2341  -0.2182  -0.1571  -0.1232   0.3299   0.5188   0.5519
     0.5688   0.7423   0.8352   0.9534   1.0197   1.1523   1.2275   1.4129
     1.4573   1.4929   1.7991   1.8514   1.9024   2.0958   2.3628   2.4083
     2.4509   2.7688   2.8173   3.0505   3.3222   3.6595

     the Fermi energy is     2.3685 ev

!    total energy              =   -2220.05578439 Ry
     Harris-Foulkes estimate   =   -2220.05578572 Ry
     estimated scf accuracy    <       0.00000633 Ry

     The total energy is the sum of the following terms:

     one-electron contribution =  -18941.37878322 Ry
     hartree contribution      =    9501.80618713 Ry
     xc contribution           =    -629.19485836 Ry
     ewald contribution        =    7848.80837499 Ry
     electric field correction =       0.00003014 Ry
     smearing contrib. (-TS)   =      -0.09673507 Ry

     convergence has been achieved in  19 iterations

 BEEF-vdW xc energy contributions
           1 :   -557.212317854512
           2 :    518.384100878186
           3 :   -448.930122488160
           4 :    362.450006497011
           5 :   -273.908753925166
           6 :    195.806675559143
           7 :   -135.548159378643
           8 :    94.5994836122306
           9 :   -69.4886323444714
          10 :    54.0872594101262
          11 :   -42.2456231560542
          12 :    29.8376840716040
          13 :   -15.6317508321554
          14 :   0.917114604775065
          15 :    11.7287752202172
          16 :   -19.9300035550899
          17 :    22.6561056343450
          18 :   -20.6323878629006
          19 :    15.9614295841794
          20 :   -11.2197774608989
          21 :    8.45415300861248
          22 :   -8.48626575293895
          23 :    10.7688387680506
          24 :   -13.7985674877604
          25 :    15.8689702346568
          26 :   -15.8290326507284
          27 :    13.5319105005052
          28 :   -9.81682555999248
          29 :    6.07345567189748
          30 :   -3.60711869907459
          31 :   -47.8694571735738
          32 :   -35.9021988250859

     Forces acting on atoms (Ry/au):

     negative rho (up, down):  3.887E+00 0.000E+00
     atom    1 type  1   force =     0.00000234   -0.00004501    0.01521466
     atom    2 type  1   force =    -0.00001050    0.00298961    0.01967337
     atom    3 type  1   force =     0.00262246   -0.00148264    0.01975923
     atom    4 type  1   force =    -0.00263117   -0.00146261    0.01971797
     atom    5 type  1   force =    -0.00177998    0.00097812   -0.02047589
     atom    6 type  1   force =     0.00181158    0.00100006   -0.02042874
     atom    7 type  1   force =     0.00002315    0.00006158   -0.01719995
     atom    8 type  1   force =    -0.00002497   -0.00201853   -0.02041766
     atom    9 type  1   force =    -0.00107312   -0.00073155    0.00100701
     atom   10 type  1   force =     0.00110630   -0.00049490    0.00100198
     atom   11 type  1   force =     0.00022448    0.00134926    0.00100522
     atom   12 type  1   force =    -0.00027702   -0.00003340    0.00155386
     atom   13 type  2   force =     0.00000645   -0.00010998   -0.00041106

     Total force =     0.054748     Total SCF correction =     0.016426
     SCF correction compared to forces is large: reduce conv_thr to get better values

     entering subroutine stress ...

     negative rho (up, down):  3.887E+00 0.000E+00
          total   stress  (Ry/bohr**3)                   (kbar)     P=  -26.41
  -0.00021010  -0.00000002   0.00000000        -30.91     -0.00      0.00
  -0.00000002  -0.00021015  -0.00000002         -0.00    -30.91     -0.00
   0.00000000  -0.00000002  -0.00011839          0.00     -0.00    -17.42

 !ASE

     Writing output data file calc.save

     General routines

     Parallel routines

   This run was terminated on:   3:34:48  15Jan2018

   JOB DONE.
Job  /afs/slac/g/suncat/bin/suncat-tsmpirun -x LD_LIBRARY_PATH -wdir /scratch/qe842452_egLGZ pw.x -in pw.inp

TID   HOST_NAME   COMMAND_LINE            STATUS            TERMINATION_TIME
00000 suncat0253 pw.x -in pw.inp   Done                     01/15/2018 03:34:48
00001 suncat0253 pw.x -in pw.inp   Done                     01/15/2018 03:34:48
00002 suncat0253 pw.x -in pw.inp   Done                     01/15/2018 03:34:48
00003 suncat0253 pw.x -in pw.inp   Done                     01/15/2018 03:34:48
00004 suncat0253 pw.x -in pw.inp   Done                     01/15/2018 03:34:48
00005 suncat0253 pw.x -in pw.inp   Done                     01/15/2018 03:34:48
00006 suncat0253 pw.x -in pw.inp   Done                     01/15/2018 03:34:48
00007 suncat0253 pw.x -in pw.inp   Done                     01/15/2018 03:34:48
00008 suncat0249 pw.x -in pw.inp   Done                     01/15/2018 03:34:48
00009 suncat0249 pw.x -in pw.inp   Done                     01/15/2018 03:34:48
00010 suncat0249 pw.x -in pw.inp   Done                     01/15/2018 03:34:48
00011 suncat0249 pw.x -in pw.inp   Done                     01/15/2018 03:34:48
00012 suncat0249 pw.x -in pw.inp   Done                     01/15/2018 03:34:48
00013 suncat0249 pw.x -in pw.inp   Done                     01/15/2018 03:34:48
00014 suncat0249 pw.x -in pw.inp   Done                     01/15/2018 03:34:48
00015 suncat0249 pw.x -in pw.inp   Done                     01/15/2018 03:34:48
00016 suncat0248 pw.x -in pw.inp   Done                     01/15/2018 03:34:48
00017 suncat0248 pw.x -in pw.inp   Done                     01/15/2018 03:34:48
00018 suncat0248 pw.x -in pw.inp   Done                     01/15/2018 03:34:48
00019 suncat0248 pw.x -in pw.inp   Done                     01/15/2018 03:34:48
00020 suncat0248 pw.x -in pw.inp   Done                     01/15/2018 03:34:48
00021 suncat0248 pw.x -in pw.inp   Done                     01/15/2018 03:34:48
00022 suncat0248 pw.x -in pw.inp   Done                     01/15/2018 03:34:48
00023 suncat0248 pw.x -in pw.inp   Done                     01/15/2018 03:34:48
00024 suncat0247 pw.x -in pw.inp   Done                     01/15/2018 03:34:48
00025 suncat0247 pw.x -in pw.inp   Done                     01/15/2018 03:34:48
00026 suncat0247 pw.x -in pw.inp   Done                     01/15/2018 03:34:48
00027 suncat0247 pw.x -in pw.inp   Done                     01/15/2018 03:34:48
00028 suncat0247 pw.x -in pw.inp   Done                     01/15/2018 03:34:48
00029 suncat0247 pw.x -in pw.inp   Done                     01/15/2018 03:34:48
00030 suncat0247 pw.x -in pw.inp   Done                     01/15/2018 03:34:48
00031 suncat0247 pw.x -in pw.inp   Done                     01/15/2018 03:34:48