     Program PWSCF v.5.1rc2 (svn rev. 11289) starts on 21Apr2018 at 22:10:25

     Current dimensions of program PWSCF are:
     Max number of different atomic species (ntypx) = 10
     Max number of k-points (npk) =  40000
     Max angular momentum in pseudopotentials (lmaxx) =  3
     Presently stress not available with electric field

     IMPORTANT: XC functional enforced from input :
     Exchange-correlation      = BEEF-VDW ( 1  4 27 13 2)
     Any further DFT definition will be discarded
     Please, verify this is what you really want

     Subspace diagonalization in iterative solution of the eigenvalue problem:
     a serial algorithm will be used

     bravais-lattice index     =            0
     lattice parameter (alat)  =       1.8897  a.u.
     unit-cell volume          =    4569.9960 (a.u.)^3
     number of atoms/cell      =           14
     number of atomic types    =            3
     number of electrons       =       198.00
     number of Kohn-Sham states=          109
     kinetic-energy cutoff     =      36.7493  Ry
     charge density cutoff     =     367.4932  Ry
     convergence threshold     =      1.0E-05
     mixing beta               =       0.3000
     number of iterations used =           10  plain     mixing
     Exchange-correlation      = BEEF-VDW ( 1  4 27 13 2)
     nstep                     =           50

     celldm(1)=   1.889726  celldm(2)=   0.000000  celldm(3)=   0.000000
     celldm(4)=   0.000000  celldm(5)=   0.000000  celldm(6)=   0.000000

     crystal axes: (cart. coord. in units of alat)
               a(1) = (   5.637663   0.000000   0.000000 )
               a(2) = (   2.818831   4.882359   0.000000 )
               a(3) = (   0.000000   0.000000  24.603132 )

     reciprocal axes: (cart. coord. in units 2 pi/alat)
               b(1) = (  0.177378 -0.102410  0.000000 )
               b(2) = (  0.000000  0.204819  0.000000 )
               b(3) = (  0.000000  0.000000  0.040645 )

     PseudoPot. # 1 for Pd read from file:
     /u/if/mamunm/psp/gbrv1.5pbe/Pd.UPF
     MD5 check sum: 2d733d2bc2cbfd217af676df1668a4bc
     Pseudo is Ultrasoft + core correction, Zval = 16.0
     Generated by new atomic code, or converted to UPF format
     Using radial grid of  887 points,  6 beta functions with:
                l(1) =   0
                l(2) =   0
                l(3) =   1
                l(4) =   1
                l(5) =   2
                l(6) =   2
     Q(r) pseudized with  8 coefficients,  rinner =    1.130   1.130   1.130
                                                       1.130   1.130

     PseudoPot. # 2 for N  read from file:
     /u/if/mamunm/psp/gbrv1.5pbe/N.UPF
     MD5 check sum: 95339753478d7afb44899504a8723017
     Pseudo is Ultrasoft + core correction, Zval =  5.0
     Generated by new atomic code, or converted to UPF format
     Using radial grid of  729 points,  4 beta functions with:
                l(1) =   0
                l(2) =   0
                l(3) =   1
                l(4) =   1
     Q(r) pseudized with  8 coefficients,  rinner =    0.900   0.900   0.900

     PseudoPot. # 3 for H  read from file:
     /u/if/mamunm/psp/gbrv1.5pbe/H.UPF
     MD5 check sum: 761ae9a214b05c3daf00ab9f6b793d6f
     Pseudo is Ultrasoft, Zval =  1.0
     Generated by new atomic code, or converted to UPF format
     Using radial grid of  615 points,  2 beta functions with:
                l(1) =   0
                l(2) =   0
     Q(r) pseudized with  8 coefficients,  rinner =    0.700

     vdW kernel table read from file vdW_kernel_table
     MD5 check sum: 095c7af220d748ca6e76c0b4c6cfb241

     atomic species   valence    mass     pseudopotential
        Pd1           16.00   106.42000     Pd( 1.00)
        N1             5.00    14.00700     N ( 1.00)
        H1             1.00     1.00800     H ( 1.00)

     No symmetry found

   Cartesian axes

     site n.     atom                  positions (alat units)
         1           Pd1 tau(   1) = (   1.4094157   0.8137265  10.0000000  )
         2           Pd1 tau(   2) = (   4.2282471   0.8137265  10.0000000  )
         3           Pd1 tau(   3) = (   2.8188314   3.2549061  10.0000000  )
         4           Pd1 tau(   4) = (   5.6376627   3.2549061  10.0000000  )
         5           Pd1 tau(   5) = (   5.6376627   1.6274531  12.3015662  )
         6           Pd1 tau(   6) = (   2.8188314   1.6274531  12.3015662  )
         7           Pd1 tau(   7) = (   7.0470784   4.0686326  12.3015662  )
         8           Pd1 tau(   8) = (   4.2282471   4.0686326  12.3015662  )
         9           Pd1 tau(   9) = (   0.0000000   0.0000000  14.6031324  )
        10           Pd1 tau(  10) = (   2.8188314   0.0000000  14.6031324  )
        11           Pd1 tau(  11) = (   1.4094157   2.4411796  14.6031324  )
        12           Pd1 tau(  12) = (   4.2282471   2.4411796  14.6031324  )
        13           N1  tau(  13) = (   1.4094157   0.8137265  15.9681324  )
        14           H1  tau(  14) = (   1.4094157   0.8137265  17.0181324  )

     number of k points=    20  Fermi-Dirac smearing, width (Ry)=  0.0110
                       cart. coord. in units 2pi/alat
        k(    1) = (   0.0000000   0.0000000   0.0000000), wk =   0.0555556
        k(    2) = (   0.0000000   0.0341365   0.0000000), wk =   0.1111111
        k(    3) = (   0.0000000   0.0682730   0.0000000), wk =   0.1111111
        k(    4) = (   0.0000000  -0.1024095   0.0000000), wk =   0.0555556
        k(    5) = (   0.0295631  -0.0170683   0.0000000), wk =   0.1111111
        k(    6) = (   0.0295631   0.0170683   0.0000000), wk =   0.1111111
        k(    7) = (   0.0295631   0.0512048   0.0000000), wk =   0.1111111
        k(    8) = (   0.0295631  -0.1194778   0.0000000), wk =   0.1111111
        k(    9) = (   0.0295631  -0.0853413   0.0000000), wk =   0.1111111
        k(   10) = (   0.0295631  -0.0512048   0.0000000), wk =   0.1111111
        k(   11) = (   0.0591262  -0.0341365   0.0000000), wk =   0.1111111
        k(   12) = (   0.0591262  -0.0000000   0.0000000), wk =   0.1111111
        k(   13) = (   0.0591262   0.0341365   0.0000000), wk =   0.1111111
        k(   14) = (   0.0591262  -0.1365460   0.0000000), wk =   0.1111111
        k(   15) = (   0.0591262  -0.1024095   0.0000000), wk =   0.1111111
        k(   16) = (   0.0591262  -0.0682730   0.0000000), wk =   0.1111111
        k(   17) = (  -0.0886892   0.0512048   0.0000000), wk =   0.0555556
        k(   18) = (  -0.0886892   0.0853413   0.0000000), wk =   0.1111111
        k(   19) = (  -0.0886892   0.1194778   0.0000000), wk =   0.1111111
        k(   20) = (  -0.0886892  -0.0512048   0.0000000), wk =   0.0555556

     Largest allocated arrays     est. size (Mb)     dimensions
     Largest temporary arrays     est. size (Mb)     dimensions

     Initial potential from superposition of free atoms
     Check: negative starting charge=   -0.904066

     starting charge  191.99990, renormalised to  198.00000

     negative rho (up, down):  9.323E-01 0.000E+00

     *
     * You are using vdW-DF for exchange-correlation in this calculation.
     * Please cite the following three references that made this development
     * possible:
     *
     *   M. Dion, H. Rydberg, E. Schroder, D. C. Langreth, and
     *   B. I. Lundqvist, Phys. Rev. Lett. 92, 246401 (2004).
     *
     *   T. Thonhauser, V. R. Cooper, S. Li, A. Puzder, P. Hyldgaard, and
     *   D. C. Langreth, Phys. Rev. B 76, 125112 (2007).
     *
     *   G. Roman-Perez and J. M. Soler, Phys. Rev. Lett. 103, 096102 (2009).
     *
     *
     * If you are using vdW-DF2, please also cite:
     *
     *   K. Lee, E. D. Murray, L. Kong, B. I. Lundqvist, and
     *   D. C. Langreth, Phys. Rev. B 82, 081101(R) (2010).
     *
     *
     * If you are calculating the stress with vdW-DF, please also cite:
     *
     *   R. Sabatini, E. Kucukbenli, B. Kolb, T. Thonhauser, and
     *   S. de Gironcoli, J. Phys.: Condens. Matter 24, 424209 (2012).
     *

     Carrying out vdW-DF run using the following parameters:

     Nqs =      20    Nr_points =    1024   r_max =   100.000
     q_mesh =
               0.00001000     0.04494208     0.09755937     0.15916263
               0.23128650     0.31572767     0.41458969     0.53033537
               0.66584808     0.82450364     1.01025438     1.22772762
               1.48234092     1.78043706     2.12944203     2.53805004
               3.01644009     3.57652955     4.23227104     5.00000000

     Gradients computed in reciprocal space

     Adding external electric field

     Computed dipole along edir(3) :
        Dipole               -1.3610 Ry au,         -3.4594 Debye
        Dipole field         -0.0037 Ry au

        Potential amp.        0.3393 Ry
        Total length         45.3309 bohr

     Starting wfc are  149 randomized atomic wfcs

     Self-consistent Calculation

     iteration #  1     ecut=    36.75 Ry     beta=0.30
     Davidson diagonalization with overlap
     ethr =  1.00E-02,  avg # of iterations =  5.3

[...]

     total energy              =   -2369.15478749 Ry
     Harris-Foulkes estimate   =   -2421.66631839 Ry
     estimated scf accuracy    <     111.02617948 Ry

[...]

     End of self-consistent calculation

          k = 0.0000 0.0000 0.0000 ( 17231 PWs)   bands (ev):

   -49.0713 -48.9512 -48.9503 -48.7498 -48.7490 -48.6594 -48.6532 -48.6313
   -48.6310 -48.5695 -48.5550 -48.5373 -48.5365 -48.4600 -48.4559 -48.4555
   -48.4307 -48.4306 -48.4226 -48.3485 -48.3482 -48.3415 -48.3302 -48.3296
   -48.1764 -48.1756 -48.1606 -48.1130 -48.1129 -48.0949 -48.0949 -48.0368
   -48.0066 -47.9939 -47.9922 -47.9582 -13.9380  -5.9681  -4.3468  -3.4328
    -3.4327  -3.2474  -3.1486  -3.1247  -3.0694  -3.0693  -2.8703  -2.8487
    -2.8486  -2.6976  -2.6973  -2.6456  -2.2999  -2.2996  -2.2408  -1.5122
    -1.5121  -1.4068  -1.4066  -1.4065  -1.2637  -1.2226  -1.1523  -1.1522
    -0.9654  -0.9653  -0.9247  -0.8299  -0.8298  -0.7283  -0.7282  -0.6524
    -0.2086  -0.2083  -0.1285  -0.0030   0.1371   0.1372   0.3278   0.3282
     0.4558   0.4558   0.6855   0.7665   0.7668   0.8904   0.9551   0.9555
     1.0647   1.0648   1.0812   1.1226   1.2162   1.2164   1.2918   1.2920
     1.3284   1.5093   1.5100   1.5217   1.6711   1.6713   1.9014   3.0822
     3.7508   3.7509   3.9410   4.8230   4.8983

[...]

          k =-0.0887 0.0512 0.0000 ( 17240 PWs)   bands (ev):

[...]

     the Fermi energy is     1.2941 ev

!    total energy              =   -2418.89222247 Ry
     Harris-Foulkes estimate   =   -2418.89223968 Ry
     estimated scf accuracy    <       0.00000737 Ry

     The total energy is the sum of the following terms:

     one-electron contribution =  -20708.30636279 Ry
     hartree contribution      =   10407.24831646 Ry
     xc contribution           =    -396.30204480 Ry
     ewald contribution        =    8278.57962791 Ry
     electric field correction =       0.00012049 Ry
     smearing contrib. (-TS)   =      -0.11187974 Ry

     convergence has been achieved in  20 iterations

 BEEF-vdW xc energy contributions
           1 :   -344.909666956998
           2 :    315.027022857147
           3 :   -264.089487174988
           4 :    205.818560689535
           5 :   -153.458111001948
           6 :    115.433803816171
           7 :   -93.5471050732068
           8 :    83.9943334356768
           9 :   -80.3440243811041
          10 :    76.8755121478683
          11 :   -70.7710550793466
          12 :    62.4141455623279
          13 :   -54.0866169207317
          14 :    48.0662055410463
          15 :   -45.2253164748518
          16 :    44.7471852930184
          17 :   -44.8686830358930
          18 :    44.0191173143768
          19 :   -41.6417139148698
          20 :    38.2910559943520
          21 :   -35.0817032577137
          22 :    32.9146192179833
          23 :   -31.9675071417919
          24 :    31.7001215248175
          25 :   -31.2902741363117
          26 :    30.1750916174872
          27 :   -28.3575946436042
          28 :    26.3216668869081
          29 :   -24.6590390843813
          30 :    23.6747699911527
          31 :   -33.7276276334244
          32 :   -24.8920813968303

     Forces acting on atoms (Ry/au):

     negative rho (up, down):  9.425E-01 0.000E+00
     atom    1 type  1   force =     0.00002846   -0.00000532    0.00094127
     atom    2 type  1   force =    -0.00003978    0.00163908   -0.00184785
     atom    3 type  1   force =     0.00141872   -0.00084034   -0.00184280
     atom    4 type  1   force =    -0.00143172   -0.00080285   -0.00187363
     atom    5 type  1   force =    -0.00313871    0.00189656   -0.00834587
     atom    6 type  1   force =     0.00312280    0.00175400   -0.00826790
     atom    7 type  1   force =    -0.00011131   -0.00001415    0.02184976
     atom    8 type  1   force =     0.00010979   -0.00362559   -0.00831855
     atom    9 type  1   force =     0.00257881    0.00147497    0.02881246
     atom   10 type  1   force =    -0.00257178    0.00147376    0.02881463
     atom   11 type  1   force =     0.00000351   -0.00295626    0.02882223
     atom   12 type  1   force =    -0.00001470    0.00000573   -0.00112857
     atom   13 type  2   force =     0.00004790    0.00000308   -0.03854691
     atom   14 type  3   force =    -0.00000197   -0.00000268   -0.03906828

     Total force =     0.074371     Total SCF correction =     0.010716
     SCF correction compared to forces is large: reduce conv_thr to get better values

     entering subroutine stress ...

     negative rho (up, down):  9.425E-01 0.000E+00
          total   stress  (Ry/bohr**3)                   (kbar)     P=  -12.39
  -0.00009172  -0.00000002  -0.00000007        -13.49     -0.00     -0.01
  -0.00000002  -0.00009170  -0.00000001         -0.00    -13.49     -0.00
  -0.00000007  -0.00000001  -0.00006933         -0.01     -0.00    -10.20

     BFGS Geometry Optimization

     number of scf cycles    =   1
     number of bfgs steps    =   0

     energy   new            =   -2418.8922224729 Ry

     new trust radius        =       0.0390682841 bohr
     new conv_thr            =       0.0000099958 Ry

ATOMIC_POSITIONS (crystal)
Pd1      0.166666667   0.166666667   0.406452311    0   0   0
Pd1      0.666666667   0.166666667   0.406452311    0   0   0
Pd1      0.166666667   0.666666667   0.406452311    0   0   0
Pd1      0.666666667   0.666666667   0.406452311    0   0   0
Pd1      0.833333333   0.333333333   0.500000000    0   0   0
Pd1      0.333333333   0.333333333   0.500000000    0   0   0
Pd1      0.833333333   0.833333333   0.500000000    0   0   0
Pd1      0.333333333   0.833333333   0.500000000    0   0   0
Pd1      0.000162126   0.000159865   0.594167403
Pd1      0.499678734   0.000159734   0.594167449
Pd1      0.000160537   0.499679584   0.594167613
Pd1      0.499998309   0.500000621   0.593523415
N1       0.166670996   0.166667001   0.648199342
H1       0.166666627   0.166666376   0.690865621

     Writing output data file calc.save
     Check: negative starting charge=   -0.904066
     NEW-OLD atomic charge density approx. for the potential
     Check: negative starting charge=   -0.903486

[...]

     energy   old            =   -2418.8922224729 Ry
     energy   new            =   -2418.8973059017 Ry

     CASE: energy  _new < energy  _old

     WARNING: bfgs curvature condition failed, Theta= 0.962
     new trust radius        =       0.0429751125 bohr
     new conv_thr            =       0.0000001000 Ry

[...]

     Total force =     0.051607     Total SCF correction =     0.000129

[...]

     Total force =     0.004667     Total SCF correction =     0.000099

[...]

     number of scf cycles    =  13
     number of bfgs steps    =  12

     energy   old            =   -2418.9125509237 Ry
     energy   new            =   -2418.9127083951 Ry

     CASE: energy  _new < energy  _old

     new trust radius        =       0.0059787974 bohr
     new conv_thr            =       0.0000001000 Ry

ATOMIC_POSITIONS (crystal)
Pd1      0.166666667   0.166666667   0.406452311    0   0   0
Pd1      0.666666667   0.166666667   0.406452311    0   0   0
Pd1      0.166666667   0.666666667   0.406452311    0   0   0
Pd1      0.666666667   0.666666667   0.406452311    0   0   0
Pd1      0.833333333   0.333333333   0.500000000    0   0   0
Pd1      0.333333333   0.333333333   0.500000000    0   0   0
Pd1      0.833333333   0.833333333   0.500000000    0   0   0
Pd1      0.333333333   0.833333333   0.500000000    0   0   0
Pd1     -0.004865357  -0.004863119   0.595191786
Pd1      0.509730622  -0.004863451   0.595192796
Pd1     -0.004863657   0.509729012   0.595191962
Pd1      0.500003401   0.499997695   0.593268385
N1       0.166667243   0.166666300   0.640392213
H1       0.166669895   0.166666323   0.682045940

     Writing output data file calc.save
     Check: negative starting charge=   -0.901904
     NEW-OLD atomic charge density approx. for the potential
     Check: negative starting charge=   -0.901845

[...]

     Self-consistent Calculation

[...]

     Threshold (ethr) on eigenvalues was too large:
     Diagonalizing with lowered threshold

     Davidson diagonalization with overlap
     ethr =  1.79E-08,  avg # of iterations =  2.0

[...]

     total energy              =   -2418.91272884 Ry
     Harris-Foulkes estimate   =   -2418.91272912 Ry
     estimated scf accuracy    <       0.00000048 Ry

     iteration #  8     ecut=    36.75 Ry     beta=0.30
     Davidson diagonalization with overlap
     ethr =  2.43E-10,  avg # of iterations =  1.1

[...]

     negative rho (up, down):  9.414E-01 0.000E+00

     Adding external electric field

     Computed dipole along edir(3) :
        Dipole                0.2765 Ry au,          0.7027 Debye
        Dipole field          0.0008 Ry au

        Potential amp.       -0.0689 Ry
        Total length         45.3309 bohr

     End of self-consistent calculation

[...]

          k = 0.0591-0.0683 0.0000 ( 17183 PWs)   bands (ev):

[...]

          k =-0.0887-0.0512 0.0000 ( 17240 PWs)   bands (ev):

   -49.1823 -49.1198 -49.0760 -48.7699 -48.7544 -48.7123 -48.6114 -48.5807
   -48.5537 -48.4676 -48.4427 -48.4296 -48.4043 -48.3826 -48.3703 -48.3701
   -48.3458 -48.3454 -48.3267 -48.3095 -48.2653 -48.2094 -48.2082 -48.1525
   -48.1346 -48.1300 -48.1177 -48.0542 -48.0534 -48.0370 -48.0275 -47.9474
   -47.9062 -47.9002 -47.8948 -47.8931 -14.6478  -6.2763  -4.1046  -3.6072
    -3.0000  -2.8864  -2.5298  -2.4976  -2.4451  -2.3631  -2.2426  -2.2149
    -2.1574  -2.0722  -2.0079  -1.9925  -1.9448  -1.8558  -1.8072  -1.7423
    -1.5420  -1.4851  -1.4184  -1.3747  -1.3746  -1.2929  -1.2002  -1.1112
    -1.0944  -0.8753  -0.8489  -0.7876  -0.7414  -0.6511  -0.6223  -0.5356
    -0.4906  -0.4822  -0.4512  -0.3545  -0.3461  -0.2917  -0.2243  -0.1545
    -0.1414  -0.0578  -0.0146   0.0539   0.0597   0.1123   0.2201   0.2742
     0.3562   0.3815   0.5313   0.5763   0.6092   0.6773   0.8990   0.9441
     1.0520   1.1252   1.1993   1.3176   1.3592   1.7720   1.8730   2.6006
     3.7304   3.9355   4.1839   4.2779   5.2906

     the Fermi energy is     1.3760 ev

!    total energy              =   -2418.91272888 Ry
     Harris-Foulkes estimate   =   -2418.91272836 Ry
     estimated scf accuracy    <       0.00000007 Ry

     The total energy is the sum of the following terms:

     one-electron contribution =  -20709.69789833 Ry
     hartree contribution      =   10408.18395120 Ry
     xc contribution           =    -396.42049898 Ry
     ewald contribution        =    8279.12827326 Ry
     electric field correction =       0.00021016 Ry
     smearing contrib. (-TS)   =      -0.10676620 Ry

     convergence has been achieved in   8 iterations

 BEEF-vdW xc energy contributions
           1 :   -345.033620025601
           2 :    315.189447571899
           3 :   -264.287789072131
           4 :    206.009084344975
           5 :   -153.585583899215
           6 :    115.462594487694
           7 :   -93.4778448440371
           8 :    83.8609744986456
           9 :   -80.1967756019536
          10 :    76.7595727562083
          11 :   -70.7100906366676
          12 :    62.4053055454029
          13 :   -54.1075225079340
          14 :    48.0888192040799
          15 :   -45.2298537538998
          16 :    44.7300393639972
          17 :   -44.8411106300362
          18 :    43.9992324993446
          19 :   -41.6441941451255
          20 :    38.3185109309337
          21 :   -35.1209760191725
          22 :    32.9398876827008
          23 :   -31.9506285824154
          24 :    31.6254060608500
          25 :   -31.1657245981784
          26 :    30.0324992099953
          27 :   -28.2396244350336
          28 :    26.2614328058621
          29 :   -24.6630806461334
          30 :    23.7185225238613
          31 :   -33.7352246850138
          32 :   -24.9065949828143

     Forces acting on atoms (Ry/au):

     negative rho (up, down):  9.414E-01 0.000E+00
     atom    1 type  1   force =    -0.00000896    0.00000768    0.00003533
     atom    2 type  1   force =     0.00000871    0.00204503   -0.00273325
     atom    3 type  1   force =     0.00176555   -0.00102175   -0.00274191
     atom    4 type  1   force =    -0.00176403   -0.00103066   -0.00273520
     atom    5 type  1   force =    -0.00073531    0.00042423   -0.00384300
     atom    6 type  1   force =     0.00073336    0.00041764   -0.00383864
     atom    7 type  1   force =    -0.00000394    0.00000262    0.01832743
     atom    8 type  1   force =     0.00000416   -0.00084486   -0.00383466
     atom    9 type  1   force =     0.00060389    0.00035503    0.00064142
     atom   10 type  1   force =    -0.00059713    0.00034245    0.00063841
     atom   11 type  1   force =    -0.00000690   -0.00070068    0.00063823
     atom   12 type  1   force =     0.00000464   -0.00000114    0.00051685
     atom   13 type  2   force =    -0.00000215    0.00000403   -0.00074251
     atom   14 type  3   force =    -0.00000189    0.00000036   -0.00032851

     Total force =     0.001900     Total SCF correction =     0.000904
     SCF correction compared to forces is large: reduce conv_thr to get better values

     entering subroutine stress ...

     negative rho (up, down):  9.414E-01 0.000E+00
          total   stress  (Ry/bohr**3)                   (kbar)     P=   -6.30
  -0.00005990  -0.00000000  -0.00000000         -8.81     -0.00     -0.00
  -0.00000000  -0.00005990  -0.00000000         -0.00     -8.81     -0.00
  -0.00000000  -0.00000000  -0.00000863         -0.00     -0.00     -1.27

     bfgs converged in  14 scf cycles and  13 bfgs steps
     (criteria: energy <  1.0E+00, force <  1.9E-03)

     End of BFGS Geometry Optimization

     Final energy   =   -2418.9127288832 Ry
Begin final coordinates

ATOMIC_POSITIONS (crystal)
Pd1      0.166666667   0.166666667   0.406452311    0   0   0
Pd1      0.666666667   0.166666667   0.406452311    0   0   0
Pd1      0.166666667   0.666666667   0.406452311    0   0   0
Pd1      0.666666667   0.666666667   0.406452311    0   0   0
Pd1      0.833333333   0.333333333   0.500000000    0   0   0
Pd1      0.333333333   0.333333333   0.500000000    0   0   0
Pd1      0.833333333   0.833333333   0.500000000    0   0   0
Pd1      0.333333333   0.833333333   0.500000000    0   0   0
Pd1     -0.004865357  -0.004863119   0.595191786
Pd1      0.509730622  -0.004863451   0.595192796
Pd1     -0.004863657   0.509729012   0.595191962
Pd1      0.500003401   0.499997695   0.593268385
N1       0.166667243   0.166666300   0.640392213
H1       0.166669895   0.166666323   0.682045940
End final coordinates

     Writing output data file calc.save

     General routines

     Parallel routines

   This run was terminated on:  23:41:52  21Apr2018

   JOB DONE.
Job  /afs/slac/g/suncat/bin/suncat-tsmpirun -x LD_LIBRARY_PATH -wdir /scratch/qe465572_gpXOe pw.x -npool 4 -in pw.inp

TID   HOST_NAME   COMMAND_LINE            STATUS            TERMINATION_TIME
00000 suncat0057 pw.x -npool 4 -i  Done                     04/21/2018 23:41:52
00001 suncat0057 pw.x -npool 4 -i  Done                     04/21/2018 23:41:52
00002 suncat0057 pw.x -npool 4 -i  Done                     04/21/2018 23:41:52
00003 suncat0057 pw.x -npool 4 -i  Done                     04/21/2018 23:41:52
00004 suncat0057 pw.x -npool 4 -i  Done                     04/21/2018 23:41:52
00005 suncat0057 pw.x -npool 4 -i  Done                     04/21/2018 23:41:52
00006 suncat0057 pw.x -npool 4 -i  Done                     04/21/2018 23:41:52
00007 suncat0057 pw.x -npool 4 -i  Done                     04/21/2018 23:41:52
00008 suncat0041 pw.x -npool 4 -i  Done                     04/21/2018 23:41:52
00009 suncat0041 pw.x -npool 4 -i  Done                     04/21/2018 23:41:52
00010 suncat0041 pw.x -npool 4 -i  Done                     04/21/2018 23:41:52
00011 suncat0041 pw.x -npool 4 -i  Done                     04/21/2018 23:41:52
00012 suncat0041 pw.x -npool 4 -i  Done                     04/21/2018 23:41:52
00013 suncat0041 pw.x -npool 4 -i  Done                     04/21/2018 23:41:52
00014 suncat0041 pw.x -npool 4 -i  Done                     04/21/2018 23:41:52
00015 suncat0041 pw.x -npool 4 -i  Done                     04/21/2018 23:41:52
00016 suncat0139 pw.x -npool 4 -i  Done                     04/21/2018 23:41:52
00017 suncat0139 pw.x -npool 4 -i  Done                     04/21/2018 23:41:52
00018 suncat0139 pw.x -npool 4 -i  Done                     04/21/2018 23:41:52
00019 suncat0139 pw.x -npool 4 -i  Done                     04/21/2018 23:41:52
00020 suncat0139 pw.x -npool 4 -i  Done                     04/21/2018 23:41:52
00021 suncat0139 pw.x -npool 4 -i  Done                     04/21/2018 23:41:52
00022 suncat0139 pw.x -npool 4 -i  Done                     04/21/2018 23:41:52
00023 suncat0139 pw.x -npool 4 -i  Done                     04/21/2018 23:41:52
00024 suncat0243 pw.x -npool 4 -i  Done                     04/21/2018 23:41:52
00025 suncat0243 pw.x -npool 4 -i  Done                     04/21/2018 23:41:52
00026 suncat0243 pw.x -npool 4 -i  Done                     04/21/2018 23:41:52
00027 suncat0243 pw.x -npool 4 -i  Done                     04/21/2018 23:41:52
00028 suncat0243 pw.x -npool 4 -i  Done                     04/21/2018 23:41:52
00029 suncat0243 pw.x -npool 4 -i  Done                     04/21/2018 23:41:52
00030 suncat0243 pw.x -npool 4 -i  Done                     04/21/2018 23:41:52
00031 suncat0243 pw.x -npool 4 -i  Done                     04/21/2018 23:41:52