     Program PWSCF v.5.1rc2 (svn rev. 11289) starts on  3May2018 at  6:52:48

     Current dimensions of program PWSCF are:
     Max number of different atomic species (ntypx) = 10
     Max number of k-points (npk) =  40000
     Max angular momentum in pseudopotentials (lmaxx) =  3
     Presently stress not available with electric field

     IMPORTANT: XC functional enforced from input :
     Exchange-correlation      = BEEF-VDW ( 1  4 27 13 2)
     Any further DFT definition will be discarded
     Please, verify this is what you really want

     Subspace diagonalization in iterative solution of the eigenvalue problem:
     a serial algorithm will be used

     bravais-lattice index     =            0
     lattice parameter (alat)  =       1.8897  a.u.
     unit-cell volume          =    5185.0501 (a.u.)^3
     number of atoms/cell      =           13
     number of atomic types    =            2
     number of electrons       =       157.00
     number of Kohn-Sham states=           88
     kinetic-energy cutoff     =      36.7493  Ry
     charge density cutoff     =     367.4932  Ry
     convergence threshold     =      1.0E-05
     mixing beta               =       0.3000
     number of iterations used =           10  plain     mixing
     Exchange-correlation      = BEEF-VDW ( 1  4 27 13 2)
     nstep                     =           50

     celldm(1)=   1.889726  celldm(2)=   0.000000  celldm(3)=   0.000000
     celldm(4)=   0.000000  celldm(5)=   0.000000  celldm(6)=   0.000000

     crystal axes: (cart. coord. in units of alat)
               a(1) = (   5.972022   0.000000   0.000000 )
               a(2) = (   2.986011   5.171923   0.000000 )
               a(3) = (   0.000000   0.000000  24.876136 )

     reciprocal axes: (cart. coord. in units 2 pi/alat)
               b(1) = (  0.167447 -0.096676  0.000000 )
               b(2) = (  0.000000  0.193352  0.000000 )
               b(3) = (  0.000000  0.000000  0.040199 )

     PseudoPot. # 1 for Ta read from file:
     /u/if/mamunm/psp/gbrv1.5pbe/Ta.UPF
     MD5 check sum: f8bbe9446314a3b8ea5d9f3e3836c939
     Pseudo is Ultrasoft + core correction, Zval = 13.0
     Generated by new atomic code, or converted to UPF format
     Using radial grid of  921 points,  7 beta functions with:
                l(1) =   0
                l(2) =   0
                l(3) =   1
                l(4) =   1
                l(5) =   2
                l(6) =   2
                l(7) =   3
     Q(r) pseudized with  6 coefficients,  rinner =    1.300   1.300   1.300
                                                       1.300   1.300   1.300
                                                       1.300

     PseudoPot. # 2 for H  read from file:
     /u/if/mamunm/psp/gbrv1.5pbe/H.UPF
     MD5 check sum: 761ae9a214b05c3daf00ab9f6b793d6f
     Pseudo is Ultrasoft, Zval =  1.0
     Generated by new atomic code, or converted to UPF format
     Using radial grid of  615 points,  2 beta functions with:
                l(1) =   0
                l(2) =   0
     Q(r) pseudized with  8 coefficients,  rinner =    0.700

     vdW kernel table read from file vdW_kernel_table
     MD5 check sum: 095c7af220d748ca6e76c0b4c6cfb241

     atomic species   valence    mass     pseudopotential
        Ta1           13.00   180.94788     Ta( 1.00)
        H1             1.00     1.00800     H ( 1.00)

     No symmetry found

   Cartesian axes

     site n.     atom                  positions (alat units)
         1           Ta1 tau(   1) = (   1.4930055   0.8619871  10.0000000  )
         2           Ta1 tau(   2) = (   4.4790165   0.8619871  10.0000000  )
         3           Ta1 tau(   3) = (   2.9860110   3.4479485  10.0000000  )
         4           Ta1 tau(   4) = (   5.9720221   3.4479485  10.0000000  )
         5           Ta1 tau(   5) = (   5.9720221   1.7239743  12.4380678  )
         6           Ta1 tau(   6) = (   2.9860110   1.7239743  12.4380678  )
         7           Ta1 tau(   7) = (   7.4650276   4.3099357  12.4380678  )
         8           Ta1 tau(   8) = (   4.4790165   4.3099357  12.4380678  )
         9           Ta1 tau(   9) = (   0.0000000   0.0000000  14.8761356  )
        10           Ta1 tau(  10) = (   2.9860110   0.0000000  14.8761356  )
        11           Ta1 tau(  11) = (   1.4930055   2.5859614  14.8761356  )
        12           Ta1 tau(  12) = (   4.4790165   2.5859614  14.8761356  )
        13           H1  tau(  13) = (   2.9860110   1.7239743  16.1826356  )

     number of k points=    20  Fermi-Dirac smearing, width (Ry)=  0.0110
                       cart. coord. in units 2pi/alat
        k(    1) = (   0.0000000   0.0000000   0.0000000), wk =   0.0555556
        k(    2) = (   0.0000000   0.0322253   0.0000000), wk =   0.1111111
        k(    3) = (   0.0000000   0.0644506   0.0000000), wk =   0.1111111
        k(    4) = (   0.0000000  -0.0966758   0.0000000), wk =   0.0555556
        k(    5) = (   0.0279079  -0.0161126   0.0000000), wk =   0.1111111
        k(    6) = (   0.0279079   0.0161126   0.0000000), wk =   0.1111111
        k(    7) = (   0.0279079   0.0483379   0.0000000), wk =   0.1111111
        k(    8) = (   0.0279079  -0.1127885   0.0000000), wk =   0.1111111
        k(    9) = (   0.0279079  -0.0805632   0.0000000), wk =   0.1111111
        k(   10) = (   0.0279079  -0.0483379   0.0000000), wk =   0.1111111
        k(   11) = (   0.0558158  -0.0322253   0.0000000), wk =   0.1111111
        k(   12) = (   0.0558158   0.0000000   0.0000000), wk =   0.1111111
        k(   13) = (   0.0558158   0.0322253   0.0000000), wk =   0.1111111
        k(   14) = (   0.0558158  -0.1289011   0.0000000), wk =   0.1111111
        k(   15) = (   0.0558158  -0.0966758   0.0000000), wk =   0.1111111
        k(   16) = (   0.0558158  -0.0644506   0.0000000), wk =   0.1111111
        k(   17) = (  -0.0837237   0.0483379   0.0000000), wk =   0.0555556
        k(   18) = (  -0.0837237   0.0805632   0.0000000), wk =   0.1111111
        k(   19) = (  -0.0837237   0.1127885   0.0000000), wk =   0.1111111
        k(   20) = (  -0.0837237  -0.0483379   0.0000000), wk =   0.0555556

     Largest allocated arrays     est. size (Mb)     dimensions
     Largest temporary arrays     est. size (Mb)     dimensions

     Initial potential from superposition of free atoms
     Check: negative starting charge=   -1.121611

     starting charge  156.98665, renormalised to  157.00000

     negative rho (up, down):  1.122E+00 0.000E+00

     *
     * You are using vdW-DF for exchange-correlation in this calculation.
     * Please cite the following three references that made this development
     * possible:
     *
     *   M. Dion, H. Rydberg, E. Schroder, D. C. Langreth, and
     *   B. I. Lundqvist, Phys. Rev. Lett. 92, 246401 (2004).
     *
     *   T. Thonhauser, V. R. Cooper, S. Li, A. Puzder, P. Hyldgaard, and
     *   D. C. Langreth, Phys. Rev. B 76, 125112 (2007).
     *
     *   G. Roman-Perez and J. M. Soler, Phys. Rev. Lett. 103, 096102 (2009).
     *
     *
     * If you are using vdW-DF2, please also cite:
     *
     *   K. Lee, E. D. Murray, L. Kong, B. I. Lundqvist, and
     *   D. C. Langreth, Phys. Rev. B 82, 081101(R) (2010).
     *
     *
     * If you are calculating the stress with vdW-DF, please also cite:
     *
     *   R. Sabatini, E. Kucukbenli, B. Kolb, T. Thonhauser, and
     *   S. de Gironcoli, J. Phys.: Condens. Matter 24, 424209 (2012).
     *

     Carrying out vdW-DF run using the following parameters:

     Nqs =      20    Nr_points =    1024   r_max =   100.000
     q_mesh =
               0.00001000     0.04494208     0.09755937     0.15916263
               0.23128650     0.31572767     0.41458969     0.53033537
               0.66584808     0.82450364     1.01025438     1.22772762
               1.48234092     1.78043706     2.12944203     2.53805004
               3.01644009     3.57652955     4.23227104     5.00000000

     Gradients computed in reciprocal space

     Adding external electric field

     Computed dipole along edir(3) :
        Dipole               -0.0005 Ry au,         -0.0014 Debye
        Dipole field         -0.0000 Ry au

        Potential amp.        0.0001 Ry
        Total length         45.8339 bohr

     Starting wfc are  157 randomized atomic wfcs

     Self-consistent Calculation

     iteration #  1     ecut=    36.75 Ry     beta=0.30
     Davidson diagonalization with overlap
     ethr =  1.00E-02,  avg # of iterations =  2.0

[...]

     total energy              =   -1717.67428870 Ry
     Harris-Foulkes estimate   =   -1719.89593922 Ry
     estimated scf accuracy    <       4.78592846 Ry

[...]

     End of self-consistent calculation

          k = 0.0000 0.0000 0.0000 ( 19447 PWs)   bands (ev):

   -66.3797 -66.3427 -66.3259 -66.3258 -66.3015 -66.2876 -66.2806 -66.2805
   -66.2670 -66.2268 -66.2142 -66.2140 -33.1040 -33.0848 -33.0848 -33.0628
   -33.0408 -33.0294 -33.0294 -32.9822 -32.9736 -32.9736 -32.7982 -32.6967
   -32.6966 -32.6918 -32.6289 -32.6230 -32.6230 -32.5006 -32.5005 -32.4892
   -32.4308 -32.4307 -32.4251 -32.4195 -32.4134 -32.4133 -32.3687 -32.3403
   -32.3403 -32.3339 -32.2914 -32.2914 -32.2502 -32.2501 -32.1954 -32.1954
    -5.5982  -4.3099  -3.1269  -2.3976  -2.1200  -2.1200  -2.1177  -1.9270
    -1.9269  -1.5772  -1.2363  -1.2363  -0.9986  -0.9835  -0.9835  -0.6394
     0.2100   0.2100   0.5281   1.2700   1.5078   1.5078   1.5959   1.8674
     1.9586   1.9993   1.9994   2.1776   2.3246   2.3246   2.6214   2.6214
     2.6581   2.6872   2.6872   2.7029   2.7968   2.7968   2.9464   2.9465

[...]

          k =-0.0837 0.0483 0.0000 ( 19532 PWs)   bands (ev):

[...]

     the Fermi energy is     1.9771 ev

!    total energy              =   -1719.52017381 Ry
     Harris-Foulkes estimate   =   -1719.52017426 Ry
     estimated scf accuracy    <       0.00000654 Ry

     The total energy is the sum of the following terms:

     one-electron contribution =  -11432.06045821 Ry
     hartree contribution      =    5698.14389554 Ry
     xc contribution           =    -523.42092898 Ry
     ewald contribution        =    4537.92236083 Ry
     electric field correction =       0.00000003 Ry
     smearing contrib. (-TS)   =      -0.10504302 Ry

     convergence has been achieved in  12 iterations

 BEEF-vdW xc energy contributions
           1 :   -460.882859080218
           2 :    425.508258749903
           3 :   -363.703958836565
           4 :    289.741468759286
           5 :   -217.992140319091
           6 :    158.468504480941
           7 :   -114.791018115487
           8 :    84.9928468856976
           9 :   -64.2495982628541
          10 :    47.9154647367238
          11 :   -33.4360007304941
          12 :    20.5666006670943
          13 :   -10.2977369622670
          14 :    3.44078807282989
          15 :   0.241611365656411
          16 :   -1.99411299311720
          17 :    3.34161224845110
          18 :   -5.24482542940825
          19 :    7.67414214034852
          20 :   -9.81515458714250
          21 :    10.7244836271230
          22 :   -10.0076229821373
          23 :    8.10977880936713
          24 :   -6.06895462639989
          25 :    4.91385694791052
          26 :   -5.09100252668452
          27 :    6.26154665951475
          28 :   -7.56325260557941
          29 :    8.14870783490227
          30 :   -7.66191635407790
          31 :   -41.1184310084260
          32 :   -30.5217298456391

     Forces acting on atoms (Ry/au):

     negative rho (up, down):  1.177E+00 0.000E+00
     atom    1 type  1   force =    -0.00075570   -0.00044871    0.00395546
     atom    2 type  1   force =     0.00075321   -0.00045207    0.00398075
     atom    3 type  1   force =     0.00000131    0.00088281    0.00396173
     atom    4 type  1   force =     0.00000667    0.00001694    0.00516905
     atom    5 type  1   force =     0.00000161   -0.00055595   -0.00118012
     atom    6 type  1   force =    -0.00000575   -0.00001534    0.00007285
     atom    7 type  1   force =     0.00045594    0.00028139   -0.00116013
     atom    8 type  1   force =    -0.00045626    0.00029187   -0.00114235
     atom    9 type  1   force =     0.00000611   -0.00001380   -0.01722367
     atom   10 type  1   force =    -0.00000529    0.00172883    0.01164016
     atom   11 type  1   force =     0.00151032   -0.00085887    0.01165192
     atom   12 type  1   force =    -0.00151221   -0.00085515    0.01166359
     atom   13 type  2   force =     0.00000004   -0.00000195   -0.03138924

     Total force =     0.041210     Total SCF correction =     0.004073

     entering subroutine stress ...

     negative rho (up, down):  1.177E+00 0.000E+00
          total   stress  (Ry/bohr**3)                   (kbar)     P=  -33.07
  -0.00029296  -0.00000000   0.00000000        -43.10     -0.00      0.00
  -0.00000000  -0.00029299  -0.00000000         -0.00    -43.10     -0.00
   0.00000000  -0.00000000  -0.00008854          0.00     -0.00    -13.02

     BFGS Geometry Optimization

     number of scf cycles    =   1
     number of bfgs steps    =   0

     energy   new            =   -1719.5201738113 Ry

     new trust radius        =       0.0313892442 bohr
     new conv_thr            =       0.0000099958 Ry

ATOMIC_POSITIONS (crystal)
Ta1      0.166666667   0.166666667   0.401991699    0   0   0
Ta1      0.666666667   0.166666667   0.401991699    0   0   0
Ta1      0.166666667   0.666666667   0.401991699    0   0   0
Ta1      0.666666667   0.666666667   0.401991699    0   0   0
Ta1      0.833333333   0.333333333   0.500000000    0   0   0
Ta1      0.333333333   0.333333333   0.500000000    0   0   0
Ta1      0.833333333   0.833333333   0.500000000    0   0   0
Ta1      0.333333333   0.833333333   0.500000000    0   0   0
Ta1      0.000001247  -0.000001412   0.597641911
Ta1      0.499911087   0.000176889   0.598255916
Ta1      0.000177767   0.499912123   0.598256167
Ta1      0.499909753   0.499912503   0.598256415
H1       0.333333437   0.333333134   0.649860790

     Writing output data file calc.save
     Check: negative starting charge=   -1.121611
     NEW-OLD atomic charge density approx. for the potential
     Check: negative starting charge=   -1.120338

[...]

     Total force =     0.036837     Total SCF correction =     0.005423
     SCF correction compared to forces is large: reduce conv_thr to get better values

[...]

     energy   old            =   -1719.5201738113 Ry
     energy   new            =   -1719.5217768818 Ry

     CASE: energy  _new < energy  _old

     WARNING: bfgs curvature condition failed, Theta= 0.899
     new trust radius        =       0.0345281686 bohr
     new conv_thr            =       0.0000001000 Ry

[...]

     Threshold (ethr) on eigenvalues was too large:
     Diagonalizing with lowered threshold

     Davidson diagonalization with overlap
     ethr =  7.34E-08,  avg # of iterations =  3.0

[...]

     WARNING: bfgs curvature condition failed, Theta= 0.992
     new trust radius        =       0.0184931690 bohr
     new conv_thr            =       0.0000001000 Ry

[...]

     Total force =     0.005223     Total SCF correction =     0.000213

[...]

     number of scf cycles    =  11
     number of bfgs steps    =  10

     energy   old            =   -1719.5292014857 Ry
     energy   new            =   -1719.5292319409 Ry

     CASE: energy  _new < energy  _old

     new trust radius        =       0.0067964583 bohr
     new conv_thr            =       0.0000001000 Ry

ATOMIC_POSITIONS (crystal)
Ta1      0.166666667   0.166666667   0.401991699    0   0   0
Ta1      0.666666667   0.166666667   0.401991699    0   0   0
Ta1      0.166666667   0.666666667   0.401991699    0   0   0
Ta1      0.666666667   0.666666667   0.401991699    0   0   0
Ta1      0.833333333   0.333333333   0.500000000    0   0   0
Ta1      0.333333333   0.333333333   0.500000000    0   0   0
Ta1      0.833333333   0.833333333   0.500000000    0   0   0
Ta1      0.333333333   0.833333333   0.500000000    0   0   0
Ta1      0.000000769  -0.000000736   0.592203553
Ta1      0.501697350  -0.003395060   0.598602447
Ta1     -0.003396201   0.501698047   0.598602650
Ta1      0.501697581   0.501697592   0.598602856
H1       0.333333451   0.333331802   0.642305597

     Writing output data file calc.save
     Check: negative starting charge=   -1.122229
     NEW-OLD atomic charge density approx. for the potential
     Check: negative starting charge=   -1.122120

[...]

     Self-consistent Calculation

[...]

     Threshold (ethr) on eigenvalues was too large:
     Diagonalizing with lowered threshold

     Davidson diagonalization with overlap
     ethr =  7.40E-08,  avg # of iterations =  1.6

[...]

     total energy              =   -1719.52925895 Ry
     Harris-Foulkes estimate   =   -1719.52925897 Ry
     estimated scf accuracy    <       0.00000026 Ry

     iteration #  8     ecut=    36.75 Ry     beta=0.30
     Davidson diagonalization with overlap
     ethr =  1.66E-10,  avg # of iterations =  3.0

[...]

     negative rho (up, down):  1.177E+00 0.000E+00

     Adding external electric field

     Computed dipole along edir(3) :
        Dipole                0.0223 Ry au,          0.0567 Debye
        Dipole field          0.0001 Ry au

        Potential amp.       -0.0050 Ry
        Total length         45.8339 bohr

     End of self-consistent calculation

[...]

          k = 0.0558-0.0645 0.0000 ( 19521 PWs)   bands (ev):

[...]

          k =-0.0837-0.0483 0.0000 ( 19532 PWs)   bands (ev):

   -66.3474 -66.3337 -66.3176 -66.2889 -66.2867 -66.2585 -66.2566 -66.2484
   -66.2118 -66.1925 -66.1790 -66.1662 -32.9549 -32.9369 -32.9344 -32.9319
   -32.9176 -32.9039 -32.8313 -32.8094 -32.8055 -32.7998 -32.7614 -32.7541
   -32.6618 -32.6485 -32.6115 -32.6013 -32.5964 -32.5861 -32.5599 -32.5535
   -32.5186 -32.5116 -32.4920 -32.4774 -32.4638 -32.4549 -32.3883 -32.3728
   -32.3668 -32.3483 -32.3246 -32.3026 -32.2875 -32.2655 -32.2490 -32.2114
    -4.2527  -3.6798  -3.3091  -2.2329  -1.8175  -1.3849  -1.3680  -1.1498
    -1.0225  -1.0072  -0.7615  -0.1412  -0.1393   0.1100   0.1134   0.1863
     0.2553   0.5038   0.5349   0.6294   0.7139   0.8545   0.8926   1.1833
     1.1858   1.2674   1.3918   1.4214   1.5167   1.6126   1.6385   1.6918
     1.8688   2.2378   2.2527   2.3426   2.3678   2.4166   3.1101   3.2187

     the Fermi energy is     1.9985 ev

!    total energy              =   -1719.52925896 Ry
     Harris-Foulkes estimate   =   -1719.52925901 Ry
     estimated scf accuracy    <       0.00000004 Ry

     The total energy is the sum of the following terms:

     one-electron contribution =  -11480.87640882 Ry
     hartree contribution      =    5722.70543473 Ry
     xc contribution           =    -523.52214324 Ry
     ewald contribution        =    4562.26599420 Ry
     electric field correction =       0.00000121 Ry
     smearing contrib. (-TS)   =      -0.10213705 Ry

     convergence has been achieved in   8 iterations

 BEEF-vdW xc energy contributions
           1 :   -460.983364139722
           2 :    425.631138685321
           3 :   -363.847691710532
           4 :    289.877833367857
           5 :   -218.082487542787
           6 :    158.486770282462
           7 :   -114.740799700688
           8 :    84.9078047687436
           9 :   -64.1760683489836
          10 :    47.8872477540370
          11 :   -33.4563009191011
          12 :    20.6083274854918
          13 :   -10.3219918135121
          14 :    3.42170947703249
          15 :   0.301355463207415
          16 :   -2.06665018478509
          17 :    3.39322982378258
          18 :   -5.25841637481312
          19 :    7.65997631027119
          20 :   -9.80301664006345
          21 :    10.7431546747886
          22 :   -10.0659966649928
          23 :    8.19164624884093
          24 :   -6.14381299940635
          25 :    4.95589598994809
          26 :   -5.09403145613089
          27 :    6.24130635324900
          28 :   -7.54688316922500
          29 :    8.15858510105181
          30 :   -7.70348666009409
          31 :   -41.1253343154169
          32 :   -30.5323514344992

     Forces acting on atoms (Ry/au):

     negative rho (up, down):  1.177E+00 0.000E+00
     atom    1 type  1   force =     0.00081026    0.00046782    0.00503725
     atom    2 type  1   force =    -0.00081024    0.00046783    0.00503732
     atom    3 type  1   force =     0.00000003   -0.00093571    0.00503730
     atom    4 type  1   force =    -0.00000005   -0.00000002    0.00509562
     atom    5 type  1   force =    -0.00000033    0.00764250   -0.00899304
     atom    6 type  1   force =     0.00000025    0.00000052    0.00673160
     atom    7 type  1   force =    -0.00661824   -0.00382114   -0.00899432
     atom    8 type  1   force =     0.00661853   -0.00382172   -0.00899419
     atom    9 type  1   force =    -0.00000048    0.00000040    0.00097168
     atom   10 type  1   force =     0.00000001    0.00101143    0.00002853
     atom   11 type  1   force =     0.00087656   -0.00050644    0.00002764
     atom   12 type  1   force =    -0.00087644   -0.00050627    0.00002668
     atom   13 type  2   force =     0.00000014    0.00000079   -0.00101208

     Total force =     0.002246     Total SCF correction =     0.000610
     SCF correction compared to forces is large: reduce conv_thr to get better values

     entering subroutine stress ...

     negative rho (up, down):  1.177E+00 0.000E+00
          total   stress  (Ry/bohr**3)                   (kbar)     P=  -29.60
  -0.00026854   0.00000000  -0.00000000        -39.50      0.00     -0.00
   0.00000000  -0.00026854   0.00000000          0.00    -39.50      0.00
  -0.00000000   0.00000000  -0.00006663         -0.00      0.00     -9.80

     bfgs converged in  12 scf cycles and  11 bfgs steps
     (criteria: energy <  1.0E+00, force <  1.9E-03)

     End of BFGS Geometry Optimization

     Final energy   =   -1719.5292589586 Ry
Begin final coordinates

ATOMIC_POSITIONS (crystal)
Ta1      0.166666667   0.166666667   0.401991699    0   0   0
Ta1      0.666666667   0.166666667   0.401991699    0   0   0
Ta1      0.166666667   0.666666667   0.401991699    0   0   0
Ta1      0.666666667   0.666666667   0.401991699    0   0   0
Ta1      0.833333333   0.333333333   0.500000000    0   0   0
Ta1      0.333333333   0.333333333   0.500000000    0   0   0
Ta1      0.833333333   0.833333333   0.500000000    0   0   0
Ta1      0.333333333   0.833333333   0.500000000    0   0   0
Ta1      0.000000769  -0.000000736   0.592203553
Ta1      0.501697350  -0.003395060   0.598602447
Ta1     -0.003396201   0.501698047   0.598602650
Ta1      0.501697581   0.501697592   0.598602856
H1       0.333333451   0.333331802   0.642305597
End final coordinates

     Writing output data file calc.save

     General routines

     Parallel routines

   This run was terminated on:   8:26:58   3May2018

   JOB DONE.
Job  /afs/slac/g/suncat/bin/suncat-tsmpirun -x LD_LIBRARY_PATH -wdir /scratch/qe654176_l25Hu pw.x -npool 4 -in pw.inp

TID   HOST_NAME   COMMAND_LINE            STATUS            TERMINATION_TIME
00000 suncat0145 pw.x -npool 4 -i  Done                     05/03/2018 08:26:58
00001 suncat0145 pw.x -npool 4 -i  Done                     05/03/2018 08:26:58
00002 suncat0145 pw.x -npool 4 -i  Done                     05/03/2018 08:26:58
00003 suncat0145 pw.x -npool 4 -i  Done                     05/03/2018 08:26:58
00004 suncat0145 pw.x -npool 4 -i  Done                     05/03/2018 08:26:58
00005 suncat0145 pw.x -npool 4 -i  Done                     05/03/2018 08:26:58
00006 suncat0145 pw.x -npool 4 -i  Done                     05/03/2018 08:26:58
00007 suncat0145 pw.x -npool 4 -i  Done                     05/03/2018 08:26:58
00008 suncat0143 pw.x -npool 4 -i  Done                     05/03/2018 08:26:58
00009 suncat0143 pw.x -npool 4 -i  Done                     05/03/2018 08:26:58
00010 suncat0143 pw.x -npool 4 -i  Done                     05/03/2018 08:26:58
00011 suncat0143 pw.x -npool 4 -i  Done                     05/03/2018 08:26:58
00012 suncat0143 pw.x -npool 4 -i  Done                     05/03/2018 08:26:58
00013 suncat0143 pw.x -npool 4 -i  Done                     05/03/2018 08:26:58
00014 suncat0143 pw.x -npool 4 -i  Done                     05/03/2018 08:26:58
00015 suncat0143 pw.x -npool 4 -i  Done                     05/03/2018 08:26:58
00016 suncat0110 pw.x -npool 4 -i  Done                     05/03/2018 08:26:58
00017 suncat0110 pw.x -npool 4 -i  Done                     05/03/2018 08:26:58
00018 suncat0110 pw.x -npool 4 -i  Done                     05/03/2018 08:26:58
00019 suncat0110 pw.x -npool 4 -i  Done                     05/03/2018 08:26:58
00020 suncat0110 pw.x -npool 4 -i  Done                     05/03/2018 08:26:58
00021 suncat0110 pw.x -npool 4 -i  Done                     05/03/2018 08:26:58
00022 suncat0110 pw.x -npool 4 -i  Done                     05/03/2018 08:26:58
00023 suncat0110 pw.x -npool 4 -i  Done                     05/03/2018 08:26:58
00024 suncat0241 pw.x -npool 4 -i  Done                     05/03/2018 08:26:58
00025 suncat0241 pw.x -npool 4 -i  Done                     05/03/2018 08:26:58
00026 suncat0241 pw.x -npool 4 -i  Done                     05/03/2018 08:26:58
00027 suncat0241 pw.x -npool 4 -i  Done                     05/03/2018 08:26:58
00028 suncat0241 pw.x -npool 4 -i  Done                     05/03/2018 08:26:58
00029 suncat0241 pw.x -npool 4 -i  Done                     05/03/2018 08:26:58
00030 suncat0241 pw.x -npool 4 -i  Done                     05/03/2018 08:26:58
00031 suncat0241 pw.x -npool 4 -i  Done                     05/03/2018 08:26:58