     Program PWSCF v.5.1rc2 starts on 21May2018 at 11:26:52

     Current dimensions of program PWSCF are:
     Max number of different atomic species (ntypx) = 10
     Max number of k-points (npk) =  40000
     Max angular momentum in pseudopotentials (lmaxx) =  3
     Presently stress not available with electric field

     IMPORTANT: XC functional enforced from input :
     Exchange-correlation      = BEEF-VDW ( 1  4 27 13 2)
     Any further DFT definition will be discarded
     Please, verify this is what you really want

     Generating pointlists ...
     new r_m :   0.4125 (alat units)  0.7795 (a.u.) for type    1
     new r_m :   0.4125 (alat units)  0.7795 (a.u.) for type    2
     new r_m :   0.4125 (alat units)  0.7795 (a.u.) for type    3

     bravais-lattice index     =            0
     lattice parameter (alat)  =       1.8897  a.u.
     unit-cell volume          =    3797.2497 (a.u.)^3
     number of atoms/cell      =           14
     number of atomic types    =            3
     number of electrons       =       197.00
     number of Kohn-Sham states=          108
     kinetic-energy cutoff     =      36.7493  Ry
     charge density cutoff     =     367.4932  Ry
     convergence threshold     =      1.0E-05
     mixing beta               =       0.3000
     number of iterations used =           10  plain     mixing
     Exchange-correlation      = BEEF-VDW ( 1  4 27 13 2)
     nstep                     =           50

     celldm(1)=   1.889726  celldm(2)=   0.000000  celldm(3)=   0.000000
     celldm(4)=   0.000000  celldm(5)=   0.000000  celldm(6)=   0.000000

     crystal axes: (cart. coord. in units of alat)
               a(1) = (   5.178568   0.000000   0.000000 )
               a(2) = (   2.589284   4.484771   0.000000 )
               a(3) = (   0.000000   0.000000  24.228283 )

     reciprocal axes: (cart. coord. in units 2 pi/alat)
               b(1) = (  0.193104 -0.111488  0.000000 )
               b(2) = (  0.000000  0.222977  0.000000 )
               b(3) = (  0.000000  0.000000  0.041274 )

     PseudoPot. # 1 for Fe read from file:
     /home/users/winther/src/pseudo/Fe.UPF
     MD5 check sum: a130daea23fe5165f5d574ae7f82ed95
     Pseudo is Ultrasoft + core correction, Zval = 16.0
     Generated by new atomic code, or converted to UPF format
     Using radial grid of  861 points,  6 beta functions with:
                l(1) =   0
                l(2) =   0
                l(3) =   1
                l(4) =   1
                l(5) =   2
                l(6) =   2
     Q(r) pseudized with  8 coefficients,  rinner =    1.000   1.000   1.000
                                                       1.000   1.000

     PseudoPot. # 2 for C  read from file:
     /home/users/winther/src/pseudo/C.UPF
     MD5 check sum: d1aef80898a10debaa0f26306b886e00
     Pseudo is Ultrasoft + core correction, Zval =  4.0
     Generated by new atomic code, or converted to UPF format
     Using radial grid of  721 points,  4 beta functions with:
                l(1) =   0
                l(2) =   0
                l(3) =   1
                l(4) =   1
     Q(r) pseudized with  8 coefficients,  rinner =    1.100   1.100   1.100

     PseudoPot. # 3 for H  read from file:
     /home/users/winther/src/pseudo/H.UPF
     MD5 check sum: 761ae9a214b05c3daf00ab9f6b793d6f
     Pseudo is Ultrasoft, Zval =  1.0
     Generated by new atomic code, or converted to UPF format
     Using radial grid of  615 points,  2 beta functions with:
                l(1) =   0
                l(2) =   0
     Q(r) pseudized with  8 coefficients,  rinner =    0.700

     vdW kernel table read from file vdW_kernel_table
     MD5 check sum: 095c7af220d748ca6e76c0b4c6cfb241

     atomic species   valence    mass     pseudopotential
        Fe1           16.00    55.84500     Fe( 1.00)
        C1             4.00    12.01100     C ( 1.00)
        H1             1.00     1.00800     H ( 1.00)

     Starting magnetic structure
     atomic species   magnetization
        Fe1          0.131
        C1           0.000
        H1           0.000

     No symmetry found

   Cartesian axes

     site n.     atom                  positions (alat units)
         1           Fe1 tau(   1) = (   0.0000000   0.0000000  10.0000000  )
         2           Fe1 tau(   2) = (   1.2946419   2.2423855  10.0000000  )
         3           Fe1 tau(   3) = (   2.5892838   0.0000000  10.0000000  )
         4           Fe1 tau(   4) = (   3.8839257   2.2423855  10.0000000  )
         5           Fe1 tau(   5) = (   5.1785676   2.9898474  12.1141414  )
         6           Fe1 tau(   6) = (   3.8839257   0.7474618  12.1141414  )
         7           Fe1 tau(   7) = (   2.5892838   2.9898474  12.1141414  )
         8           Fe1 tau(   8) = (   1.2946419   0.7474618  12.1141414  )
         9           Fe1 tau(   9) = (   2.5887394   1.4950346  14.2271317  )
        10           Fe1 tau(  10) = (   3.8843014   3.7367086  14.2279910  )
        11           Fe1 tau(  11) = (   5.1779659   1.4967760  14.2282692  )
        12           Fe1 tau(  12) = (   6.4721518   3.7381318  14.2270619  )
        13           C1  tau(  13) = (   5.1787764   4.4828114  15.5191539  )
        14           H1  tau(  14) = (   1.2948388   0.7482003  14.6322553  )

     number of k points=    40  Fermi-Dirac smearing, width (Ry)=  0.0110
                       cart. coord. in units 2pi/alat
        k(    1) = (   0.0000000   0.0000000   0.0000000), wk =   0.0277778
        k(    2) = (   0.0000000   0.0371628   0.0000000), wk =   0.0555556
        k(    3) = (   0.0000000   0.0743256   0.0000000), wk =   0.0555556
        k(    4) = (   0.0000000  -0.1114884   0.0000000), wk =   0.0277778
        k(    5) = (   0.0321839  -0.0185814   0.0000000), wk =   0.0555556
        k(    6) = (   0.0321839   0.0185814   0.0000000), wk =   0.0555556
        k(    7) = (   0.0321839   0.0557442   0.0000000), wk =   0.0555556
        k(    8) = (   0.0321839  -0.1300698   0.0000000), wk =   0.0555556
        k(    9) = (   0.0321839  -0.0929070   0.0000000), wk =   0.0555556
        k(   10) = (   0.0321839  -0.0557442   0.0000000), wk =   0.0555556
        k(   11) = (   0.0643679  -0.0371628   0.0000000), wk =   0.0555556
        k(   12) = (   0.0643679  -0.0000000   0.0000000), wk =   0.0555556
        k(   13) = (   0.0643679   0.0371628   0.0000000), wk =   0.0555556
        k(   14) = (   0.0643679  -0.1486512   0.0000000), wk =   0.0555556
        k(   15) = (   0.0643679  -0.1114884   0.0000000), wk =   0.0555556
        k(   16) = (   0.0643679  -0.0743256   0.0000000), wk =   0.0555556
        k(   17) = (  -0.0965518   0.0557442   0.0000000), wk =   0.0277778
        k(   18) = (  -0.0965518   0.0929070   0.0000000), wk =   0.0555556
        k(   19) = (  -0.0965518   0.1300698   0.0000000), wk =   0.0555556
        k(   20) = (  -0.0965518  -0.0557442   0.0000000), wk =   0.0277778
        k(   21) = (   0.0000000   0.0000000   0.0000000), wk =   0.0277778
        k(   22) = (   0.0000000   0.0371628   0.0000000), wk =   0.0555556
        k(   23) = (   0.0000000   0.0743256   0.0000000), wk =   0.0555556
        k(   24) = (   0.0000000  -0.1114884   0.0000000), wk =   0.0277778
        k(   25) = (   0.0321839  -0.0185814   0.0000000), wk =   0.0555556
        k(   26) = (   0.0321839   0.0185814   0.0000000), wk =   0.0555556
        k(   27) = (   0.0321839   0.0557442   0.0000000), wk =   0.0555556
        k(   28) = (   0.0321839  -0.1300698   0.0000000), wk =   0.0555556
        k(   29) = (   0.0321839  -0.0929070   0.0000000), wk =   0.0555556
        k(   30) = (   0.0321839  -0.0557442   0.0000000), wk =   0.0555556
        k(   31) = (   0.0643679  -0.0371628   0.0000000), wk =   0.0555556
        k(   32) = (   0.0643679  -0.0000000   0.0000000), wk =   0.0555556
        k(   33) = (   0.0643679   0.0371628   0.0000000), wk =   0.0555556
        k(   34) = (   0.0643679  -0.1486512   0.0000000), wk =   0.0555556
        k(   35) = (   0.0643679  -0.1114884   0.0000000), wk =   0.0555556
        k(   36) = (   0.0643679  -0.0743256   0.0000000), wk =   0.0555556
        k(   37) = (  -0.0965518   0.0557442   0.0000000), wk =   0.0277778
        k(   38) = (  -0.0965518   0.0929070   0.0000000), wk =   0.0555556
        k(   39) = (  -0.0965518   0.1300698   0.0000000), wk =   0.0555556
        k(   40) = (  -0.0965518  -0.0557442   0.0000000), wk =   0.0277778

     Largest allocated arrays     est. size (Mb)     dimensions
     Largest temporary arrays     est. size (Mb)     dimensions

     Check: negative/imaginary core charge=   -0.000008    0.000000

     Initial potential from superposition of free atoms
     Check: negative starting charge=(component1):   -0.000115

     starting charge  184.99988, renormalised to  197.00000

     negative rho (up, down):  1.229E-04 9.901E-05

     *
     * You are using vdW-DF for exchange-correlation in this calculation.
     * Please cite the following three references that made this development
     * possible:
     *
     *   M. Dion, H. Rydberg, E. Schroder, D. C. Langreth, and
     *   B. I. Lundqvist, Phys. Rev. Lett. 92, 246401 (2004).
     *
     *   T. Thonhauser, V. R. Cooper, S. Li, A. Puzder, P. Hyldgaard, and
     *   D. C. Langreth, Phys. Rev. B 76, 125112 (2007).
     *
     *   G. Roman-Perez and J. M. Soler, Phys. Rev. Lett. 103, 096102 (2009).
     *
     *
     * If you are using vdW-DF2, please also cite:
     *
     *   K. Lee, E. D. Murray, L. Kong, B. I. Lundqvist, and
     *   D. C. Langreth, Phys. Rev. B 82, 081101(R) (2010).
     *
     *
     * If you are calculating the stress with vdW-DF, please also cite:
     *
     *   R. Sabatini, E. Kucukbenli, B. Kolb, T. Thonhauser, and
     *   S. de Gironcoli, J. Phys.: Condens. Matter 24, 424209 (2012).
     *

     Carrying out vdW-DF run using the following parameters:

     Nqs =      20    Nr_points =    1024   r_max =   100.000
     q_mesh =
               0.00001000     0.04494208     0.09755937     0.15916263
               0.23128650     0.31572767     0.41458969     0.53033537
               0.66584808     0.82450364     1.01025438     1.22772762
               1.48234092     1.78043706     2.12944203     2.53805004
               3.01644009     3.57652955     4.23227104     5.00000000

     Gradients computed in reciprocal space

     Adding external electric field

     Computed dipole along edir(3) :
        Dipole               -1.9780 Ry au,         -5.0276 Debye
        Dipole field         -0.0065 Ry au

        Potential amp.        0.5844 Ry
        Total length         44.6402 bohr

[...]

     Starting wfc are  161 randomized atomic wfcs

     Self-consistent Calculation

     iteration #  1     ecut=    36.75 Ry     beta=0.30
     Davidson diagonalization with overlap
     ethr =  1.00E-02,  avg # of iterations =  4.6

[...]

     Magnetic moment per site:
     atom:    1    charge:    7.3489    magn:    0.8215    constr:    0.0000
     atom:    2    charge:    7.3489    magn:    0.8216    constr:    0.0000
     atom:    3    charge:    7.3488    magn:    0.8212    constr:    0.0000
[...]
     atom:   10    charge:    6.6709    magn:    0.7423    constr:    0.0000
     atom:   11    charge:    6.6615    magn:    0.7473    constr:    0.0000
     atom:   12    charge:    6.6588    magn:    0.7405    constr:    0.0000
     atom:   13    charge:    0.6560    magn:   -0.0039    constr:    0.0000
     atom:   14    charge:    0.3735    magn:    0.0057    constr:    0.0000

     total energy              =   -2866.92287883 Ry
     Harris-Foulkes estimate   =   -3031.67249673 Ry
     estimated scf accuracy    <     341.09093716 Ry

     total magnetization       =    11.30 Bohr mag/cell
     absolute magnetization    =    13.17 Bohr mag/cell

[...]

     iteration # 88     ecut=    36.75 Ry     beta=0.30
     Davidson diagonalization with overlap
     c_bands:  1 eigenvalues not converged
     c_bands:  1 eigenvalues not converged
     c_bands:  1 eigenvalues not converged
     ethr =  5.92E-06,  avg # of iterations =  7.1

[...]

     End of self-consistent calculation

 ------ SPIN UP ------------

          k = 0.0000 0.0000 0.0000 ( 14285 PWs)   bands (ev):

   -87.9859 -87.9556 -87.9428 -87.9417 -87.9268 -87.8939 -87.8748 -87.8671
   -87.8510 -85.5092 -85.4883 -85.3543 -54.1452 -54.1082 -54.1058 -54.1029
   -54.0488 -54.0455 -54.0441 -53.9982 -53.9965 -53.9933 -53.9656 -53.9510
   -53.9394 -53.9138 -53.8946 -53.8719 -53.8626 -53.8599 -53.8569 -53.8281
   -53.8243 -53.8195 -53.8002 -53.7967 -53.7720 -53.7609 -53.7423 -51.7999
   -51.6764 -51.6220 -51.5577 -51.5524 -51.4820 -51.4383 -51.3531 -51.3156
   -10.5894  -6.9600  -6.3970  -4.7551  -3.9397  -3.9061  -3.8888  -3.8445
    -3.7758  -3.6850  -3.6150  -3.4335  -3.4139  -3.3964  -3.2053  -2.9096
    -2.5367  -2.4663  -2.4646  -2.3245  -2.1985  -2.1054  -1.8459  -1.8403
    -1.8238  -1.7743  -1.7683  -1.7132  -1.7093  -1.7031  -1.6455  -1.5955
    -1.5490  -1.3477  -1.2304  -1.2236  -0.9948  -0.9826  -0.8613  -0.8507
    -0.7035  -0.6885  -0.5574  -0.5487  -0.5449  -0.5197  -0.3527  -0.1665
    -0.0705  -0.0031   0.0012   0.0171   0.0762   0.0834   0.0869   0.3092
     0.4293   0.7471   0.7494   0.8188

[...]

          k =-0.0966 0.0557 0.0000 ( 14254 PWs)   bands (ev):

[...]

 ------ SPIN DOWN ----------

[...]

     the Fermi energy is     0.6781 ev

!    total energy              =   -3028.50709499 Ry
     Harris-Foulkes estimate   =   -3028.50710161 Ry
     estimated scf accuracy    <       0.00000438 Ry

     The total energy is the sum of the following terms:

     one-electron contribution =  -26150.97260088 Ry
     hartree contribution      =   13073.61732186 Ry
     xc contribution           =    -367.59666139 Ry
     ewald contribution        =   10416.53669543 Ry
     electric field correction =       0.00018416 Ry
     smearing contrib. (-TS)   =      -0.09203417 Ry

[...]

     convergence has been achieved in 414 iterations

 BEEF-vdW xc energy contributions
           1 :   -321.568229823745
           2 :    290.776613705358
           3 :   -239.276539465620
           4 :    182.269145505948
           5 :   -133.339527236584
           6 :    99.4991966977639
           7 :   -80.1364879144458
           8 :    69.6083072886996
           9 :   -61.4557928284931
          10 :    51.7791142892817
          11 :   -40.3048192180972
          12 :    29.1857704942239
          13 :   -20.8054587257335
          14 :    16.0798769173887
          15 :   -14.1295139557044
          16 :    13.1488667596575
          17 :   -11.6474031523118
          18 :    9.20031496882450
          19 :   -6.38212217735395
          20 :    4.11217737477347
          21 :   -2.95526302692940
          22 :    2.80171046429109
          23 :   -3.04036885836376
          24 :    3.00010030870635
          25 :   -2.34284763525710
          26 :    1.18262697027910
          27 :   6.561351645319746E-002
          28 :  -0.966965863527662
          29 :    1.29767892445420
          30 :   -1.13528466394717
          31 :   -28.5779083329766
          32 :   -20.1939969005032

     Forces acting on atoms (Ry/au):

     negative rho (up, down):  7.271E-04 7.420E-04
     atom    1 type  1   force =     0.00019188   -0.00093414   -0.00025097
     atom    2 type  1   force =     0.00091842    0.00027996   -0.00030601
     atom    3 type  1   force =    -0.00043053    0.00026744    0.00298245
     atom    4 type  1   force =    -0.00086776    0.00046355   -0.00081140
     atom    5 type  1   force =    -0.00032954   -0.00186015    0.01176252
     atom    6 type  1   force =     0.00147449    0.00121544    0.01181709
     atom    7 type  1   force =     0.00075290   -0.00041904    0.00338307
     atom    8 type  1   force =    -0.00132388    0.00069040    0.00631575
     atom    9 type  1   force =     0.05195623   -0.00134964    0.02099364
     atom   10 type  1   force =     0.02683376   -0.04341643    0.02115309
     atom   11 type  1   force =    -0.06217983    0.03551889   -0.05871923
     atom   12 type  1   force =    -0.02662309    0.01554490    0.03532922
     atom   13 type  2   force =     0.03042130   -0.01746862   -0.09738904
     atom   14 type  3   force =    -0.02079437    0.01146745    0.04373980

     Total force =     0.173670     Total SCF correction =     0.004565

     entering subroutine stress ...

     negative rho (up, down):  7.271E-04 7.420E-04
          total   stress  (Ry/bohr**3)                   (kbar)     P=  -20.73
  -0.00014755  -0.00001468   0.00001517        -21.71     -2.16      2.23
  -0.00001468  -0.00016495  -0.00000873         -2.16    -24.26     -1.28
   0.00001517  -0.00000873  -0.00011026          2.23     -1.28    -16.22

     BFGS Geometry Optimization

     number of scf cycles    =   1
     number of bfgs steps    =   0

     energy   new            =   -3028.5070949904 Ry

     new trust radius        =       0.1035144088 bohr
     new conv_thr            =       0.0000099958 Ry

ATOMIC_POSITIONS (crystal)
Fe1      0.000000000   0.000000000   0.412740767    0   0   0
Fe1     -0.000000000   0.500000000   0.412740767    0   0   0
Fe1      0.500000000   0.000000000   0.412740767    0   0   0
Fe1      0.500000000   0.500000000   0.412740767    0   0   0
Fe1      0.666666667   0.666666667   0.500000000    0   0   0
Fe1      0.666666667   0.166666667   0.500000000    0   0   0
Fe1      0.166666667   0.666666667   0.500000000    0   0   0
Fe1      0.166666667   0.166666667   0.500000000    0   0   0
Fe1      0.338604670   0.333198817   0.587670255
Fe1      0.338776326   0.828076515   0.587709204
Fe1      0.824561212   0.337937374   0.585976171
Fe1      0.829399770   0.835350951   0.587980480
C1       0.504398043   0.997501842   0.638411645
H1       0.163820911   0.168184421   0.604888161

     Writing output data file calc.save
     Check: negative starting charge=(component1):   -0.000208
     NEW-OLD atomic charge density approx. for the potential

     Check: negative/imaginary core charge=   -0.000008    0.000000
     Check: negative starting charge=(component1):   -0.000212

[...]

     energy   old            =   -3028.5070949904 Ry
     energy   new            =   -3028.5332116850 Ry

     CASE: energy  _new < energy  _old

[...]

     iteration #  1     ecut=    36.75 Ry     beta=0.30
     Davidson diagonalization with overlap
     c_bands:  1 eigenvalues not converged
     ethr =  1.00E-06,  avg # of iterations =  5.0

[...]

     Total force =     0.005974     Total SCF correction =     0.000327

[...]

     number of scf cycles    =  18
     number of bfgs steps    =  17

     energy   old            =   -3028.5963669922 Ry
     energy   new            =   -3028.5965049373 Ry

     CASE: energy  _new < energy  _old

     new trust radius        =       0.0081099956 bohr
     new conv_thr            =       0.0000001000 Ry

ATOMIC_POSITIONS (crystal)
Fe1      0.000000000   0.000000000   0.412740767    0   0   0
Fe1     -0.000000000   0.500000000   0.412740767    0   0   0
Fe1      0.500000000   0.000000000   0.412740767    0   0   0
Fe1      0.500000000   0.500000000   0.412740767    0   0   0
Fe1      0.666666667   0.666666667   0.500000000    0   0   0
Fe1      0.666666667   0.166666667   0.500000000    0   0   0
Fe1      0.166666667   0.666666667   0.500000000    0   0   0
Fe1      0.166666667   0.166666667   0.500000000    0   0   0
Fe1      0.325373169   0.327613819   0.592071378
Fe1      0.325229243   0.847088097   0.592055653
Fe1      0.805272872   0.347423699   0.577974942
Fe1      0.854324401   0.823003821   0.583309511
C1       0.562002462   0.968786721   0.629969014
H1       0.086064389   0.206918663   0.623282297

     Writing output data file calc.save
     Check: negative starting charge=(component1):   -0.000216
     NEW-OLD atomic charge density approx. for the potential

     Check: negative/imaginary core charge=   -0.000008    0.000000
     Check: negative starting charge=(component1):   -0.000216

[...]

     Self-consistent Calculation

[...]

     total energy              =   -3028.59655240 Ry
     Harris-Foulkes estimate   =   -3028.59655242 Ry
     estimated scf accuracy    <       0.00000024 Ry

[...]

     iteration # 26     ecut=    36.75 Ry     beta=0.30
     Davidson diagonalization with overlap
     ethr =  1.24E-10,  avg # of iterations =  4.8

[...]

     negative rho (up, down):  6.534E-04 8.258E-04

[...]

     Adding external electric field

     Computed dipole along edir(3) :
        Dipole               -0.1629 Ry au,         -0.4140 Debye
        Dipole field         -0.0005 Ry au

        Potential amp.        0.0481 Ry
        Total length         44.6402 bohr

     Magnetic moment per site:
     atom:    1    charge:    7.0975    magn:    1.3313    constr:    0.0000
     atom:    2    charge:    7.0976    magn:    1.3313    constr:    0.0000
     atom:    3    charge:    7.0976    magn:    1.3393    constr:    0.0000
     atom:    4    charge:    7.0975    magn:    1.3323    constr:    0.0000
     atom:    5    charge:    7.0943    magn:    1.1681    constr:    0.0000
     atom:    6    charge:    7.0942    magn:    1.1679    constr:    0.0000
     atom:    7    charge:    7.0960    magn:    1.2427    constr:    0.0000
     atom:    8    charge:    7.0959    magn:    1.2353    constr:    0.0000
     atom:    9    charge:    6.5755    magn:   -0.9858    constr:    0.0000
     atom:   10    charge:    6.5779    magn:   -0.9844    constr:    0.0000
     atom:   11    charge:    5.4340    magn:    0.7423    constr:    0.0000
     atom:   12    charge:    6.5614    magn:   -0.7305    constr:    0.0000
     atom:   13    charge:    0.4884    magn:    0.0420    constr:    0.0000
     atom:   14    charge:    0.2072    magn:    0.0012    constr:    0.0000

     End of self-consistent calculation

 ------ SPIN UP ------------

[...]

 ------ SPIN DOWN ----------

[...]

          k = 0.0644-0.0743 0.0000 ( 14261 PWs)   bands (ev):

[...]

          k =-0.0966-0.0557 0.0000 ( 14254 PWs)   bands (ev):

   -87.9965 -87.9862 -87.5635 -85.0439 -84.7243 -84.7204 -84.7004 -84.6581
   -84.4438 -84.4434 -84.4251 -84.4247 -54.1481 -54.1386 -54.0123 -53.9747
   -53.9188 -53.8690 -53.7385 -53.5696 -53.4577 -51.2165 -51.1519 -51.1166
   -50.9062 -50.8764 -50.8599 -50.8584 -50.8422 -50.8104 -50.8020 -50.7748
   -50.7605 -50.7381 -50.6952 -50.6490 -50.6263 -50.6203 -50.5477 -50.5463
   -50.5293 -50.5277 -50.5256 -50.5245 -50.5166 -50.5150 -50.4505 -50.4471
    -9.9670  -5.8789  -4.8540  -4.6487  -3.8399  -3.5029  -3.3660  -2.9869
    -2.8200  -2.7412  -2.5842  -2.3070  -2.2170  -2.0580  -1.9932  -1.9621
    -1.8787  -1.7454  -1.7262  -1.5345  -1.4748  -1.3153  -1.1095  -0.9411
    -0.7761  -0.7401  -0.6900  -0.6048  -0.5352  -0.3996  -0.2787  -0.2223
    -0.1381  -0.0733   0.1735   0.1760   0.2126   0.2514   0.2965   0.5044
     0.6331   0.6605   0.7201   0.7463   0.8692   0.9080   1.2037   1.3057
     1.3904   1.4815   1.5103   1.5930   1.7090   1.8144   1.8700   1.9436
     2.0061   2.0581   2.1261   2.1720

     the Fermi energy is     0.7809 ev

!    total energy              =   -3028.59655241 Ry
     Harris-Foulkes estimate   =   -3028.59655202 Ry
     estimated scf accuracy    <       0.00000008 Ry

     The total energy is the sum of the following terms:

     one-electron contribution =  -26256.12053503 Ry
     hartree contribution      =   13126.93651566 Ry
     xc contribution           =    -367.67454448 Ry
     ewald contribution        =   10468.35008997 Ry
     electric field correction =       0.00008779 Ry
     smearing contrib. (-TS)   =      -0.08816631 Ry

     total magnetization       =    17.02 Bohr mag/cell
     absolute magnetization    =    30.40 Bohr mag/cell

     convergence has been achieved in  26 iterations

 BEEF-vdW xc energy contributions
           1 :   -321.645922340237
           2 :    290.889266578475
           3 :   -239.421073650752
           4 :    182.401930822561
           5 :   -133.408901176595
           6 :    99.4805397336894
           7 :   -80.0482388847775
           8 :    69.5001450615450
           9 :   -61.3810245712953
          10 :    51.7663112187402
          11 :   -40.3430340161472
          12 :    29.2308878563059
          13 :   -20.8064858929482
          14 :    16.0085805125384
          15 :   -13.9948684117036
          16 :    12.9892772319357
          17 :   -11.5094790768355
          18 :    9.11563606507764
          19 :   -6.35171861818878
          20 :    4.10597173830337
          21 :   -2.93020497613833
          22 :    2.72820253239246
          23 :   -2.91880650645783
          24 :    2.85507749016745
          25 :   -2.20280703402142
          26 :    1.06454275352331
          27 :   0.154006983856050
          28 :   -1.01503641759604
          29 :    1.28638274408871
          30 :   -1.04752019126300
          31 :   -28.5895895560407
          32 :   -20.2106332283262

     Forces acting on atoms (Ry/au):

     negative rho (up, down):  6.534E-04 8.258E-04
     atom    1 type  1   force =    -0.00014917   -0.00040010   -0.00163396
     atom    2 type  1   force =     0.00028414    0.00032785   -0.00163194
     atom    3 type  1   force =     0.00026857   -0.00014227    0.00432349
     atom    4 type  1   force =     0.00001030   -0.00001553   -0.00169293
     atom    5 type  1   force =    -0.00437465    0.00725869   -0.00327613
     atom    6 type  1   force =    -0.00847709    0.00021244   -0.00328599
     atom    7 type  1   force =     0.01805591   -0.01048234    0.00480070
     atom    8 type  1   force =     0.00071208   -0.00039695    0.00422777
     atom    9 type  1   force =    -0.00106097    0.00122721   -0.00102216
     atom   10 type  1   force =    -0.00159044    0.00029745   -0.00103931
     atom   11 type  1   force =    -0.00092986    0.00059758   -0.00135949
     atom   12 type  1   force =    -0.00171541    0.00099970    0.00021284
     atom   13 type  2   force =    -0.00017655    0.00001505    0.00147185
     atom   14 type  3   force =    -0.00085686    0.00050123   -0.00009475

     Total force =     0.004198     Total SCF correction =     0.000533
     SCF correction compared to forces is large: reduce conv_thr to get better values

     entering subroutine stress ...

     negative rho (up, down):  6.534E-04 8.258E-04
          total   stress  (Ry/bohr**3)                   (kbar)     P=  -14.89
  -0.00013713  -0.00001701  -0.00000747        -20.17     -2.50     -1.10
  -0.00001701  -0.00015699   0.00000424         -2.50    -23.09      0.62
  -0.00000747   0.00000424  -0.00000948         -1.10      0.62     -1.39

     bfgs converged in  19 scf cycles and  18 bfgs steps
     (criteria: energy <  1.0E+00, force <  1.9E-03)

     End of BFGS Geometry Optimization

     Final energy   =   -3028.5965524054 Ry
Begin final coordinates

ATOMIC_POSITIONS (crystal)
Fe1      0.000000000   0.000000000   0.412740767    0   0   0
Fe1     -0.000000000   0.500000000   0.412740767    0   0   0
Fe1      0.500000000   0.000000000   0.412740767    0   0   0
Fe1      0.500000000   0.500000000   0.412740767    0   0   0
Fe1      0.666666667   0.666666667   0.500000000    0   0   0
Fe1      0.666666667   0.166666667   0.500000000    0   0   0
Fe1      0.166666667   0.666666667   0.500000000    0   0   0
Fe1      0.166666667   0.166666667   0.500000000    0   0   0
Fe1      0.325373169   0.327613819   0.592071378
Fe1      0.325229243   0.847088097   0.592055653
Fe1      0.805272872   0.347423699   0.577974942
Fe1      0.854324401   0.823003821   0.583309511
C1       0.562002462   0.968786721   0.629969014
H1       0.086064389   0.206918663   0.623282297
End final coordinates

     Writing output data file calc.save

     General routines

     Parallel routines

   This run was terminated on:  16:11:44  21May2018

   JOB DONE.