     Program PWSCF v.5.1rc2 (svn rev. 11289) starts on 28Jan2019 at  2:37: 3

     Current dimensions of program PWSCF are:
     Max number of different atomic species (ntypx) = 10
     Max number of k-points (npk) =  40000
     Max angular momentum in pseudopotentials (lmaxx) =  3

     IMPORTANT: XC functional enforced from input :
     Exchange-correlation      = BEEF-VDW ( 1  4 27 13 2)
     Any further DFT definition will be discarded
     Please, verify this is what you really want

     Subspace diagonalization in iterative solution of the eigenvalue problem:
     a serial algorithm will be used

     Generating pointlists ...
     new r_m :   0.1289 (alat units)  1.2614 (a.u.) for type    1
     new r_m :   0.1420 (alat units)  1.3894 (a.u.) for type    2
     new r_m :   0.1289 (alat units)  1.2614 (a.u.) for type    3

     bravais-lattice index     =            0
     lattice parameter (alat)  =       9.7861  a.u.
     unit-cell volume          =    3797.2498 (a.u.)^3
     number of atoms/cell      =           14
     number of atomic types    =            3
     number of electrons       =       199.00
     number of Kohn-Sham states=          109
     kinetic-energy cutoff     =      36.7493  Ry
     charge density cutoff     =     367.4933  Ry
     convergence threshold     =      1.0E-04
     mixing beta               =       0.3000
     number of iterations used =            8  plain     mixing
     Exchange-correlation      = BEEF-VDW ( 1  4 27 13 2)
     nstep                     =           50

     celldm(1)=   9.786074  celldm(2)=   0.000000  celldm(3)=   0.000000
     celldm(4)=   0.000000  celldm(5)=   0.000000  celldm(6)=   0.000000

     crystal axes: (cart. coord. in units of alat)
               a(1) = (   1.000000   0.000000   0.000000 )
               a(2) = (   0.500000   0.866025   0.000000 )
               a(3) = (   0.000000   0.000000   4.678568 )

     reciprocal axes: (cart. coord. in units 2 pi/alat)
               b(1) = (  1.000000 -0.577350  0.000000 )
               b(2) = (  0.000000  1.154701  0.000000 )
               b(3) = (  0.000000  0.000000  0.213741 )

     PseudoPot. # 1 for Fe read from file:
     /nfs/slac/staas/fs1/g/suncat/jboes/src/decaf-espresso/gbrv15pbe/Fe.UPF
     MD5 check sum: a130daea23fe5165f5d574ae7f82ed95
     Pseudo is Ultrasoft + core correction, Zval = 16.0
     Generated by new atomic code, or converted to UPF format
     Using radial grid of  861 points,  6 beta functions with:
                l(1) =   0
                l(2) =   0
                l(3) =   1
                l(4) =   1
                l(5) =   2
                l(6) =   2
     Q(r) pseudized with  8 coefficients,  rinner =    1.000   1.000   1.000
                                                       1.000   1.000

     PseudoPot. # 2 for O  read from file:
     /nfs/slac/staas/fs1/g/suncat/jboes/src/decaf-espresso/gbrv15pbe/O.UPF
     MD5 check sum: 734c27235a0248c51dbae37a1fbe46ec
     Pseudo is Ultrasoft + core correction, Zval =  6.0
     Generated by new atomic code, or converted to UPF format
     Using radial grid of  737 points,  5 beta functions with:
                l(1) =   0
                l(2) =   0
                l(3) =   1
                l(4) =   1
                l(5) =   2
     Q(r) pseudized with  8 coefficients,  rinner =    0.900   0.900   0.900
                                                       0.900   0.900

     PseudoPot. # 3 for H  read from file:
     /nfs/slac/staas/fs1/g/suncat/jboes/src/decaf-espresso/gbrv15pbe/H.UPF
     MD5 check sum: 761ae9a214b05c3daf00ab9f6b793d6f
     Pseudo is Ultrasoft, Zval =  1.0
     Generated by new atomic code, or converted to UPF format
     Using radial grid of  615 points,  2 beta functions with:
                l(1) =   0
                l(2) =   0
     Q(r) pseudized with  8 coefficients,  rinner =    0.700

     vdW kernel table read from file vdW_kernel_table
     MD5 check sum: 095c7af220d748ca6e76c0b4c6cfb241

     atomic species   valence    mass     pseudopotential
        Fe            16.00    55.84500     Fe( 1.00)
        O              6.00    15.99900     O ( 1.00)
        H              1.00     1.00800     H ( 1.00)

     Starting magnetic structure
     atomic species   magnetization
        Fe           0.131
        O            0.000
        H            0.000

     No symmetry found

   Cartesian axes

     site n.     atom                  positions (alat units)
         1           Fe  tau(   1) = (   1.1149526   0.2223227   2.2030068  )
         2           Fe  tau(   2) = (   0.8649526   0.6553354   2.2030068  )
         3           Fe  tau(   3) = (   1.3649526   0.6553354   2.2030068  )
         4           Fe  tau(   4) = (   0.6149526   0.2223227   2.2030068  )
         5           Fe  tau(   5) = (   1.1149526   0.7996730   2.6112551  )
         6           Fe  tau(   6) = (   0.3649526   0.3666602   2.6112551  )
         7           Fe  tau(   7) = (   0.8649526   0.3666602   2.6112551  )
         8           Fe  tau(   8) = (   0.6149526   0.7996730   2.6112551  )
         9           Fe  tau(   9) = (   1.0944425   0.5228377   2.9941676  )
        10           Fe  tau(  10) = (   0.6100146   0.5089748   3.0331156  )
        11           Fe  tau(  11) = (   0.8693778   0.0754099   2.9663021  )
        12           Fe  tau(  12) = (   0.3642535   0.0832954   3.0331175  )
        13           O   tau(  13) = (   0.3086540   0.3991776   3.2335300  )
        14           H   tau(  14) = (   0.6824770   0.1833333   3.1922583  )

     number of k points=    40  Fermi-Dirac smearing, width (Ry)=  0.0110
                       cart. coord. in units 2pi/alat
        k(    1) = (   0.0000000   0.0000000   0.0000000), wk =   0.0277778
        k(    2) = (   0.0000000   0.1924501   0.0000000), wk =   0.0555556
        k(    3) = (   0.0000000   0.3849002   0.0000000), wk =   0.0555556
        k(    4) = (   0.0000000  -0.5773503   0.0000000), wk =   0.0277778
        k(    5) = (   0.1666667  -0.0962250   0.0000000), wk =   0.0555556
        k(    6) = (   0.1666667   0.0962250   0.0000000), wk =   0.0555556
        k(    7) = (   0.1666667   0.2886751   0.0000000), wk =   0.0555556
        k(    8) = (   0.1666667  -0.6735753   0.0000000), wk =   0.0555556
        k(    9) = (   0.1666667  -0.4811252   0.0000000), wk =   0.0555556
        k(   10) = (   0.1666667  -0.2886751   0.0000000), wk =   0.0555556
        k(   11) = (   0.3333333  -0.1924501   0.0000000), wk =   0.0555556
        k(   12) = (   0.3333333   0.0000000   0.0000000), wk =   0.0555556
        k(   13) = (   0.3333333   0.1924501   0.0000000), wk =   0.0555556
        k(   14) = (   0.3333333  -0.7698004   0.0000000), wk =   0.0555556
        k(   15) = (   0.3333333  -0.5773503   0.0000000), wk =   0.0555556
        k(   16) = (   0.3333333  -0.3849002   0.0000000), wk =   0.0555556
        k(   17) = (  -0.5000000   0.2886751   0.0000000), wk =   0.0277778
        k(   18) = (  -0.5000000   0.4811252   0.0000000), wk =   0.0555556
        k(   19) = (  -0.5000000   0.6735753   0.0000000), wk =   0.0555556
        k(   20) = (  -0.5000000  -0.2886751   0.0000000), wk =   0.0277778
        k(   21) = (   0.0000000   0.0000000   0.0000000), wk =   0.0277778
        k(   22) = (   0.0000000   0.1924501   0.0000000), wk =   0.0555556
        k(   23) = (   0.0000000   0.3849002   0.0000000), wk =   0.0555556
        k(   24) = (   0.0000000  -0.5773503   0.0000000), wk =   0.0277778
        k(   25) = (   0.1666667  -0.0962250   0.0000000), wk =   0.0555556
        k(   26) = (   0.1666667   0.0962250   0.0000000), wk =   0.0555556
        k(   27) = (   0.1666667   0.2886751   0.0000000), wk =   0.0555556
        k(   28) = (   0.1666667  -0.6735753   0.0000000), wk =   0.0555556
        k(   29) = (   0.1666667  -0.4811252   0.0000000), wk =   0.0555556
        k(   30) = (   0.1666667  -0.2886751   0.0000000), wk =   0.0555556
        k(   31) = (   0.3333333  -0.1924501   0.0000000), wk =   0.0555556
        k(   32) = (   0.3333333   0.0000000   0.0000000), wk =   0.0555556
        k(   33) = (   0.3333333   0.1924501   0.0000000), wk =   0.0555556
        k(   34) = (   0.3333333  -0.7698004   0.0000000), wk =   0.0555556
        k(   35) = (   0.3333333  -0.5773503   0.0000000), wk =   0.0555556
        k(   36) = (   0.3333333  -0.3849002   0.0000000), wk =   0.0555556
        k(   37) = (  -0.5000000   0.2886751   0.0000000), wk =   0.0277778
        k(   38) = (  -0.5000000   0.4811252   0.0000000), wk =   0.0555556
        k(   39) = (  -0.5000000   0.6735753   0.0000000), wk =   0.0555556
        k(   40) = (  -0.5000000  -0.2886751   0.0000000), wk =   0.0277778

     Largest allocated arrays     est. size (Mb)     dimensions
     Largest temporary arrays     est. size (Mb)     dimensions

     Check: negative/imaginary core charge=   -0.000008    0.000000

     Initial potential from superposition of free atoms
     Check: negative starting charge=(component1):   -0.000185
     Check: negative starting charge=(component2):   -0.000165

     starting charge  186.99992, renormalised to  199.00000

     negative rho (up, down):  1.966E-04 1.756E-04

     *
     * You are using vdW-DF for exchange-correlation in this calculation.
     * Please cite the following three references that made this development
     * possible:
     *
     *   M. Dion, H. Rydberg, E. Schroder, D. C. Langreth, and
     *   B. I. Lundqvist, Phys. Rev. Lett. 92, 246401 (2004).
     *
     *   T. Thonhauser, V. R. Cooper, S. Li, A. Puzder, P. Hyldgaard, and
     *   D. C. Langreth, Phys. Rev. B 76, 125112 (2007).
     *
     *   G. Roman-Perez and J. M. Soler, Phys. Rev. Lett. 103, 096102 (2009).
     *
     *
     * If you are using vdW-DF2, please also cite:
     *
     *   K. Lee, E. D. Murray, L. Kong, B. I. Lundqvist, and
     *   D. C. Langreth, Phys. Rev. B 82, 081101(R) (2010).
     *
     *
     * If you are calculating the stress with vdW-DF, please also cite:
     *
     *   R. Sabatini, E. Kucukbenli, B. Kolb, T. Thonhauser, and
     *   S. de Gironcoli, J. Phys.: Condens. Matter 24, 424209 (2012).
     *

     Carrying out vdW-DF run using the following parameters:

     Nqs =      20    Nr_points =    1024   r_max =   100.000
     q_mesh =
               0.00001000     0.04494208     0.09755937     0.15916263
               0.23128650     0.31572767     0.41458969     0.53033537
               0.66584808     0.82450364     1.01025438     1.22772762
               1.48234092     1.78043706     2.12944203     2.53805004
               3.01644009     3.57652955     4.23227104     5.00000000

     Gradients computed in reciprocal space

     Adding external electric field

     Computed dipole along edir(3) :
        Dipole               -2.7283 Ry au,         -6.9346 Debye
        Dipole field         -0.0090 Ry au

        Potential amp.        0.7441 Ry
        Total length         41.2063 bohr

[...]

     Starting wfc are  161 randomized atomic wfcs

     Self-consistent Calculation

     iteration #  1     ecut=    36.75 Ry     beta=0.30
     Davidson diagonalization with overlap
[...]
     Harris-Foulkes estimate   =   -3050.35273858 Ry
     estimated scf accuracy    <     572.83567465 Ry

     total magnetization       =     7.55 Bohr mag/cell
     absolute magnetization    =    10.37 Bohr mag/cell

     iteration #  2     ecut=    36.75 Ry     beta=0.30
     Davidson diagonalization with overlap
     c_bands:  1 eigenvalues not converged
     c_bands:  2 eigenvalues not converged
     c_bands:  2 eigenvalues not converged
     c_bands:  4 eigenvalues not converged
     c_bands:  2 eigenvalues not converged
     c_bands:  3 eigenvalues not converged
     c_bands:  1 eigenvalues not converged
     c_bands:  1 eigenvalues not converged
     c_bands:  4 eigenvalues not converged
     c_bands:  5 eigenvalues not converged
     c_bands:  3 eigenvalues not converged
     c_bands:  2 eigenvalues not converged
     c_bands:  2 eigenvalues not converged
     c_bands:  1 eigenvalues not converged
     ethr =  1.00E-02,  avg # of iterations = 19.4

[...]

     End of self-consistent calculation

 ------ SPIN UP ------------

          k = 0.0000 0.0000 0.0000 ( 14285 PWs)   bands (ev):

   -88.1086 -88.0894 -87.9193 -87.8680 -87.8467 -87.8386 -87.7752 -87.5374
   -87.5188 -87.2730 -85.7074 -85.5089 -54.3171 -54.2508 -54.1360 -54.1111
   -54.0694 -54.0419 -54.0297 -54.0229 -54.0006 -53.9515 -53.9490 -53.9047
   -53.8810 -53.8362 -53.8351 -53.7651 -53.7626 -53.7310 -53.7046 -53.6857
   -53.6839 -53.6601 -53.5763 -53.5376 -53.5252 -53.5056 -53.4546 -53.3667
   -53.2550 -53.2309 -51.9637 -51.7078 -51.6829 -51.5923 -51.5846 -51.5622
   -18.3487  -7.0241  -5.8740  -5.0760  -4.8022  -4.7824  -4.2782  -3.8839
    -3.7179  -3.6810  -3.5589  -3.4902  -3.4682  -3.3180  -3.2601  -3.1801
    -3.1631  -2.9640  -2.8495  -2.6337  -2.3536  -2.3422  -2.1768  -1.9961
    -1.8680  -1.8074  -1.6984  -1.6953  -1.6797  -1.6453  -1.6054  -1.5671
    -1.4476  -1.4301  -1.3911  -1.3772  -1.3173  -1.2163  -1.0460  -1.0446
    -1.0340  -0.9079  -0.7598  -0.7273  -0.6019  -0.5344  -0.4200  -0.4124
    -0.3308  -0.1618  -0.1517   0.0120   0.0367   0.1214   0.1261   0.1621
     0.2784   0.3817   0.5218   0.7885   0.9213

[...]

          k =-0.5000 0.2887 0.0000 ( 14254 PWs)   bands (ev):

[...]

 ------ SPIN DOWN ----------

[...]

     the Fermi energy is     0.7298 ev

!    total energy              =   -3049.70483611 Ry
     Harris-Foulkes estimate   =   -3049.70489893 Ry
     estimated scf accuracy    <       0.00009383 Ry

     The total energy is the sum of the following terms:

     one-electron contribution =  -26717.24774951 Ry
     hartree contribution      =   13358.09399422 Ry
     xc contribution           =    -371.48794215 Ry
     ewald contribution        =   10681.01624787 Ry
     electric field correction =       0.00008689 Ry
     smearing contrib. (-TS)   =      -0.07947342 Ry

[...]

     convergence has been achieved in 236 iterations

     Forces acting on atoms (Ry/au):

     negative rho (up, down):  6.955E-04 8.795E-04
     atom    1 type  1   force =     0.00056295   -0.00061761    0.00757169
     atom    2 type  1   force =     0.00090214    0.00039370    0.00657559
     atom    3 type  1   force =     0.00006883    0.00027839    0.00821956
     atom    4 type  1   force =    -0.00153517    0.00000388   -0.00316880
     atom    5 type  1   force =    -0.00744473    0.00115522   -0.00885295
     atom    6 type  1   force =     0.00285249   -0.00167255   -0.00014233
     atom    7 type  1   force =    -0.00469094    0.00586740   -0.00903896
     atom    8 type  1   force =     0.01767448   -0.01010620   -0.00600777
     atom    9 type  1   force =    -0.00146355    0.00209807    0.00856181
     atom   10 type  1   force =    -0.00181312   -0.00748942   -0.00480316
     atom   11 type  1   force =    -0.01577367    0.00793217    0.00445463
     atom   12 type  1   force =     0.00628126    0.00486830   -0.00538530
     atom   13 type  2   force =     0.00735326   -0.00443865   -0.00268489
     atom   14 type  3   force =    -0.00297422    0.00172730    0.00470087

     Total force =     0.026475     Total SCF correction =     0.012359
     SCF correction compared to forces is large: reduce conv_thr to get better values

     BFGS Geometry Optimization

     number of scf cycles    =   1
     number of bfgs steps    =   0

     energy   new            =   -3049.7048361088 Ry

     new trust radius        =       0.0182091124 bohr
     new conv_thr            =       0.0001000000 Ry

ATOMIC_POSITIONS (angstrom)
Fe       5.773857146   1.151313032  11.408419609    0   0   0
Fe       4.479215251   3.393698571  11.408419609    0   0   0
Fe       7.068499040   3.393698571  11.408419609    0   0   0
Fe       3.184573356   1.151313032  11.408419609    0   0   0
Fe       5.773857146   4.141160418  13.522560970    0   0   0
Fe       1.889931461   1.898774878  13.522560970    0   0   0
Fe       4.479215251   1.898774878  13.522560970    0   0   0
Fe       3.184573356   4.141160418  13.522560970    0   0   0
Fe       5.666869947   2.708660469  15.510030117
Fe       3.158042299   2.631797366  15.704652151
Fe       4.493784700   0.394713001  15.363553304
Fe       1.889635247   0.433927210  15.704354197
O        1.602276983   2.064819189  16.743632621
H        3.532679364   0.950317910  16.533812923

     Writing output data file calc.save
     Check: negative starting charge=(component1):   -0.000349
     NEW-OLD atomic charge density approx. for the potential

     Check: negative/imaginary core charge=   -0.000008    0.000000
     Check: negative starting charge=(component1):   -0.000349

[...]

     energy   old            =   -3049.7048361088 Ry
     energy   new            =   -3049.7055605162 Ry

     CASE: energy  _new < energy  _old

     WARNING: bfgs curvature condition failed, Theta= 0.988
     new trust radius        =       0.0200300236 bohr
     new conv_thr            =       0.0000010000 Ry

[...]

     Total force =     0.017148     Total SCF correction =     0.001706

[...]

     iteration #  5     ecut=    36.75 Ry     beta=0.30
     Davidson diagonalization with overlap
     c_bands:  1 eigenvalues not converged
     c_bands:  1 eigenvalues not converged
     ethr =  1.68E-07,  avg # of iterations =  5.1

[...]

     number of scf cycles    =  12
     number of bfgs steps    =  11

     energy   old            =   -3049.7093942544 Ry
     energy   new            =   -3049.7094730878 Ry

     CASE: energy  _new < energy  _old

     new trust radius        =       0.0275533522 bohr
     new conv_thr            =       0.0000010000 Ry

ATOMIC_POSITIONS (angstrom)
Fe       5.773857146   1.151313032  11.408419609    0   0   0
Fe       4.479215251   3.393698571  11.408419609    0   0   0
Fe       7.068499040   3.393698571  11.408419609    0   0   0
Fe       3.184573356   1.151313032  11.408419609    0   0   0
Fe       5.773857146   4.141160418  13.522560970    0   0   0
Fe       1.889931461   1.898774878  13.522560970    0   0   0
Fe       4.479215251   1.898774878  13.522560970    0   0   0
Fe       3.184573356   4.141160418  13.522560970    0   0   0
Fe       5.638192686   2.723754332  15.539429960
Fe       3.145169730   2.616065981  15.639804821
Fe       4.400157306   0.450400794  15.384002614
Fe       1.895654878   0.452887013  15.639422588
O        1.632829296   2.046609711  16.706126486
H        3.550689859   0.940496923  16.648379285

     Writing output data file calc.save
     Check: negative starting charge=(component1):   -0.000343
     NEW-OLD atomic charge density approx. for the potential

     Check: negative/imaginary core charge=   -0.000008    0.000000
     Check: negative starting charge=(component1):   -0.000342

[...]

     Self-consistent Calculation

[...]

     total energy              =   -3049.70954183 Ry
     Harris-Foulkes estimate   =   -3049.70954183 Ry
     estimated scf accuracy    <       0.00000207 Ry

[...]

     iteration # 17     ecut=    36.75 Ry     beta=0.30
     Davidson diagonalization with overlap
     ethr =  1.04E-09,  avg # of iterations =  1.8

     negative rho (up, down):  6.724E-04 9.464E-04

[...]

     Adding external electric field

     Computed dipole along edir(3) :
        Dipole               -0.1607 Ry au,         -0.4086 Debye
        Dipole field         -0.0005 Ry au

        Potential amp.        0.0438 Ry
        Total length         41.2063 bohr

     Magnetic moment per site:
     atom:    1    charge:   12.0105    magn:    2.2135    constr:    0.0000
     atom:    2    charge:   12.0096    magn:    2.2153    constr:    0.0000
     atom:    3    charge:   12.0105    magn:    2.2136    constr:    0.0000
     atom:    4    charge:   12.0088    magn:    2.3075    constr:    0.0000
     atom:    5    charge:   11.9969    magn:    1.6129    constr:    0.0000
     atom:    6    charge:   11.9982    magn:    1.9448    constr:    0.0000
     atom:    7    charge:   11.9968    magn:    1.6128    constr:    0.0000
     atom:    8    charge:   11.9694    magn:   -2.1137    constr:    0.0000
     atom:    9    charge:   11.9492    magn:   -2.0659    constr:    0.0000
     atom:   10    charge:   11.9424    magn:    1.9370    constr:    0.0000
     atom:   11    charge:   11.8524    magn:    1.4406    constr:    0.0000
     atom:   12    charge:   11.9417    magn:    1.9369    constr:    0.0000
     atom:   13    charge:    4.8940    magn:   -0.0320    constr:    0.0000
     atom:   14    charge:    0.8697    magn:   -0.0267    constr:    0.0000

     End of self-consistent calculation

 ------ SPIN UP ------------

[...]

 ------ SPIN DOWN ----------

[...]

          k = 0.3333-0.3849 0.0000 ( 14261 PWs)   bands (ev):

[...]

          k =-0.5000-0.2887 0.0000 ( 14254 PWs)   bands (ev):

   -88.7821 -88.6448 -85.2002 -85.1722 -85.1665 -85.1200 -85.1147 -84.8963
   -84.5953 -84.5820 -84.5747 -84.4995 -54.9047 -54.7367 -54.7146 -54.6860
   -54.6480 -54.5909 -51.4682 -51.4403 -51.4063 -51.3634 -51.3288 -51.2805
   -51.2531 -51.2424 -51.2338 -51.2169 -51.1861 -51.1314 -51.1010 -51.0886
   -51.0466 -51.0201 -50.9648 -50.8813 -50.7890 -50.7335 -50.7226 -50.7138
   -50.6992 -50.6680 -50.6489 -50.6433 -50.6061 -50.5886 -50.5780 -50.5373
   -18.5078  -5.9429  -5.3261  -5.0184  -4.7211  -4.5427  -4.1006  -3.4460
    -3.2046  -3.1851  -3.0608  -2.8465  -2.8101  -2.6095  -2.5859  -2.4668
    -2.2118  -2.1838  -2.0468  -2.0163  -1.5916  -1.4712  -1.0991  -0.9247
    -0.8638  -0.7970  -0.7367  -0.5790  -0.4734  -0.4483  -0.3491  -0.3176
    -0.0511  -0.0459  -0.0149   0.0947   0.1217   0.1757   0.2808   0.3582
     0.3778   0.5057   0.5909   0.6822   0.7413   0.8805   0.9724   1.1853
     1.2536   1.2765   1.3751   1.4283   1.5282   1.6217   1.6815   1.7389
     1.8061   1.8968   1.9337   1.9567   2.0109

     the Fermi energy is     0.7188 ev

!    total energy              =   -3049.70954115 Ry
     Harris-Foulkes estimate   =   -3049.70954348 Ry
     estimated scf accuracy    <       0.00000098 Ry

     The total energy is the sum of the following terms:

     one-electron contribution =  -26798.72108233 Ry
     hartree contribution      =   13398.71844798 Ry
     xc contribution           =    -371.50656177 Ry
     ewald contribution        =   10721.87787208 Ry
     electric field correction =       0.00008551 Ry
     smearing contrib. (-TS)   =      -0.07830261 Ry

     total magnetization       =    17.77 Bohr mag/cell
     absolute magnetization    =    29.72 Bohr mag/cell

     convergence has been achieved in  17 iterations

     Forces acting on atoms (Ry/au):

     negative rho (up, down):  6.724E-04 9.464E-04
     atom    1 type  1   force =    -0.00056721   -0.00005267    0.00832261
     atom    2 type  1   force =     0.00016452   -0.00009213    0.00876540
     atom    3 type  1   force =    -0.00022674    0.00052165    0.00831436
     atom    4 type  1   force =    -0.00035437    0.00021241   -0.00189303
     atom    5 type  1   force =    -0.00765222   -0.00454308   -0.01021221
     atom    6 type  1   force =    -0.00163841    0.00090583   -0.00370352
     atom    7 type  1   force =     0.00010984    0.00891963   -0.01043066
     atom    8 type  1   force =     0.00980824   -0.00563856   -0.00090402
     atom    9 type  1   force =    -0.00047247    0.00060340   -0.00019464
     atom   10 type  1   force =     0.00013050   -0.00080082    0.00167656
     atom   11 type  1   force =    -0.00138168    0.00045504   -0.00156999
     atom   12 type  1   force =     0.00099299    0.00009541    0.00166256
     atom   13 type  2   force =    -0.00030084    0.00018972   -0.00012106
     atom   14 type  3   force =     0.00138786   -0.00077581    0.00028764

     Total force =     0.003897     Total SCF correction =     0.002969
     SCF correction compared to forces is large: reduce conv_thr to get better values

     bfgs converged in  13 scf cycles and  12 bfgs steps
     (criteria: energy <  1.0E+12, force <  1.9E-03)

     End of BFGS Geometry Optimization

     Final energy   =   -3049.7095411469 Ry
Begin final coordinates

ATOMIC_POSITIONS (angstrom)
Fe       5.773857146   1.151313032  11.408419609    0   0   0
Fe       4.479215251   3.393698571  11.408419609    0   0   0
Fe       7.068499040   3.393698571  11.408419609    0   0   0
Fe       3.184573356   1.151313032  11.408419609    0   0   0
Fe       5.773857146   4.141160418  13.522560970    0   0   0
Fe       1.889931461   1.898774878  13.522560970    0   0   0
Fe       4.479215251   1.898774878  13.522560970    0   0   0
Fe       3.184573356   4.141160418  13.522560970    0   0   0
Fe       5.638192686   2.723754332  15.539429960
Fe       3.145169730   2.616065981  15.639804821
Fe       4.400157306   0.450400794  15.384002614
Fe       1.895654878   0.452887013  15.639422588
O        1.632829296   2.046609711  16.706126486
H        3.550689859   0.940496923  16.648379285
End final coordinates

     Writing output data file calc.save

     General routines

     Parallel routines

   This run was terminated on:   5:52: 2  28Jan2019

   JOB DONE.
Job  /afs/slac/g/suncat/bin/suncat-tsmpirun -x LD_LIBRARY_PATH -wdir /tmp/qe_228401qw0e95s0_scratch pw.x -npool 2 -in pw.pwi

TID   HOST_NAME   COMMAND_LINE            STATUS            TERMINATION_TIME
00000 suncat2073 pw.x -npool 2 -i  Done                     01/28/2019 05:52:02
00001 suncat2073 pw.x -npool 2 -i  Done                     01/28/2019 05:52:02
00002 suncat2073 pw.x -npool 2 -i  Done                     01/28/2019 05:52:02
00003 suncat2073 pw.x -npool 2 -i  Done                     01/28/2019 05:52:02
00004 suncat2073 pw.x -npool 2 -i  Done                     01/28/2019 05:52:02
00005 suncat2073 pw.x -npool 2 -i  Done                     01/28/2019 05:52:02
00006 suncat2073 pw.x -npool 2 -i  Done                     01/28/2019 05:52:02
00007 suncat2073 pw.x -npool 2 -i  Done                     01/28/2019 05:52:02
00008 suncat2073 pw.x -npool 2 -i  Done                     01/28/2019 05:52:02
00009 suncat2073 pw.x -npool 2 -i  Done                     01/28/2019 05:52:02
00010 suncat2073 pw.x -npool 2 -i  Done                     01/28/2019 05:52:02
00011 suncat2073 pw.x -npool 2 -i  Done                     01/28/2019 05:52:02
00012 suncat2073 pw.x -npool 2 -i  Done                     01/28/2019 05:52:02
00013 suncat2073 pw.x -npool 2 -i  Done                     01/28/2019 05:52:02
00014 suncat2073 pw.x -npool 2 -i  Done                     01/28/2019 05:52:02
00015 suncat2073 pw.x -npool 2 -i  Done                     01/28/2019 05:52:02
00016 suncat2037 pw.x -npool 2 -i  Done                     01/28/2019 05:52:02
00017 suncat2037 pw.x -npool 2 -i  Done                     01/28/2019 05:52:02
00018 suncat2037 pw.x -npool 2 -i  Done                     01/28/2019 05:52:02
00019 suncat2037 pw.x -npool 2 -i  Done                     01/28/2019 05:52:02
00020 suncat2037 pw.x -npool 2 -i  Done                     01/28/2019 05:52:02
00021 suncat2037 pw.x -npool 2 -i  Done                     01/28/2019 05:52:02
00022 suncat2037 pw.x -npool 2 -i  Done                     01/28/2019 05:52:02
00023 suncat2037 pw.x -npool 2 -i  Done                     01/28/2019 05:52:02
00024 suncat2037 pw.x -npool 2 -i  Done                     01/28/2019 05:52:02
00025 suncat2037 pw.x -npool 2 -i  Done                     01/28/2019 05:52:02
00026 suncat2037 pw.x -npool 2 -i  Done                     01/28/2019 05:52:02
00027 suncat2037 pw.x -npool 2 -i  Done                     01/28/2019 05:52:02
00028 suncat2037 pw.x -npool 2 -i  Done                     01/28/2019 05:52:02
00029 suncat2037 pw.x -npool 2 -i  Done                     01/28/2019 05:52:02
00030 suncat2037 pw.x -npool 2 -i  Done                     01/28/2019 05:52:02
00031 suncat2037 pw.x -npool 2 -i  Done                     01/28/2019 05:52:02