     Program PWSCF v.5.1rc2 (svn rev. 11289) starts on 24Apr2018 at 10:26:47

     Current dimensions of program PWSCF are:
     Max number of different atomic species (ntypx) = 10
     Max number of k-points (npk) =  40000
     Max angular momentum in pseudopotentials (lmaxx) =  3
     Presently stress not available with electric field

     IMPORTANT: XC functional enforced from input :
     Exchange-correlation      = BEEF-VDW ( 1  4 27 13 2)
     Any further DFT definition will be discarded
     Please, verify this is what you really want

     Subspace diagonalization in iterative solution of the eigenvalue problem:
     a serial algorithm will be used

     bravais-lattice index     =            0
     lattice parameter (alat)  =       1.8897  a.u.
     unit-cell volume          =    4158.3597 (a.u.)^3
     number of atoms/cell      =           14
     number of atomic types    =            3
     number of electrons       =       162.00
     number of Kohn-Sham states=           91
     kinetic-energy cutoff     =      36.7493  Ry
     charge density cutoff     =     367.4932  Ry
     convergence threshold     =      1.0E-05
     mixing beta               =       0.3000
     number of iterations used =           10  plain     mixing
     Exchange-correlation      = BEEF-VDW ( 1  4 27 13 2)
     nstep                     =           50

     celldm(1)=   1.889726  celldm(2)=   0.000000  celldm(3)=   0.000000
     celldm(4)=   0.000000  celldm(5)=   0.000000  celldm(6)=   0.000000

     crystal axes: (cart. coord. in units of alat)
               a(1) = (   5.399178   0.000000   0.000000 )
               a(2) = (   2.699589   4.675825   0.000000 )
               a(3) = (   0.000000   0.000000  24.408411 )

     reciprocal axes: (cart. coord. in units 2 pi/alat)
               b(1) = (  0.185213 -0.106933  0.000000 )
               b(2) = (  0.000000  0.213866  0.000000 )
               b(3) = (  0.000000  0.000000  0.040969 )

     PseudoPot. # 1 for V  read from file:
     /u/if/mamunm/psp/gbrv1.5pbe/V.UPF
     MD5 check sum: 22b79981416ebb76fdaf5b1b8640f6fb
     Pseudo is Ultrasoft + core correction, Zval = 13.0
     Generated by new atomic code, or converted to UPF format
     Using radial grid of  853 points,  6 beta functions with:
                l(1) =   0
                l(2) =   0
                l(3) =   1
                l(4) =   1
                l(5) =   2
                l(6) =   2
     Q(r) pseudized with  8 coefficients,  rinner =    1.100   1.100   1.100
                                                       1.100   1.100

     PseudoPot. # 2 for N  read from file:
     /u/if/mamunm/psp/gbrv1.5pbe/N.UPF
     MD5 check sum: 95339753478d7afb44899504a8723017
     Pseudo is Ultrasoft + core correction, Zval =  5.0
     Generated by new atomic code, or converted to UPF format
     Using radial grid of  729 points,  4 beta functions with:
                l(1) =   0
                l(2) =   0
                l(3) =   1
                l(4) =   1
     Q(r) pseudized with  8 coefficients,  rinner =    0.900   0.900   0.900

     PseudoPot. # 3 for H  read from file:
     /u/if/mamunm/psp/gbrv1.5pbe/H.UPF
     MD5 check sum: 761ae9a214b05c3daf00ab9f6b793d6f
     Pseudo is Ultrasoft, Zval =  1.0
     Generated by new atomic code, or converted to UPF format
     Using radial grid of  615 points,  2 beta functions with:
                l(1) =   0
                l(2) =   0
     Q(r) pseudized with  8 coefficients,  rinner =    0.700

     vdW kernel table read from file vdW_kernel_table
     MD5 check sum: 095c7af220d748ca6e76c0b4c6cfb241

     atomic species   valence    mass     pseudopotential
        V1            13.00    50.94150     V ( 1.00)
        N1             5.00    14.00700     N ( 1.00)
        H1             1.00     1.00800     H ( 1.00)

     No symmetry found

   Cartesian axes

     site n.     atom                  positions (alat units)
         1           V1  tau(   1) = (   1.3497945   0.7793042  10.0000000  )
         2           V1  tau(   2) = (   4.0493836   0.7793042  10.0000000  )
         3           V1  tau(   3) = (   2.6995891   3.1172170  10.0000000  )
         4           V1  tau(   4) = (   5.3991782   3.1172170  10.0000000  )
         5           V1  tau(   5) = (   5.3991782   1.5586085  12.2042053  )
         6           V1  tau(   6) = (   2.6995891   1.5586085  12.2042053  )
         7           V1  tau(   7) = (   6.7489727   3.8965212  12.2042053  )
         8           V1  tau(   8) = (   4.0493836   3.8965212  12.2042053  )
         9           V1  tau(   9) = (   0.0000000   0.0000000  14.4084105  )
        10           V1  tau(  10) = (   2.6995891   0.0000000  14.4084105  )
        11           V1  tau(  11) = (   1.3497945   2.3379127  14.4084105  )
        12           V1  tau(  12) = (   4.0493836   2.3379127  14.4084105  )
        13           N1  tau(  13) = (   0.0000000   0.0000000  16.3124105  )
        14           H1  tau(  14) = (   0.0000000   0.0000000  17.3624105  )

     number of k points=    20  Fermi-Dirac smearing, width (Ry)=  0.0110
                       cart. coord. in units 2pi/alat
        k(    1) = (   0.0000000   0.0000000   0.0000000), wk =   0.0555556
        k(    2) = (   0.0000000   0.0356443   0.0000000), wk =   0.1111111
        k(    3) = (   0.0000000   0.0712887   0.0000000), wk =   0.1111111
        k(    4) = (   0.0000000  -0.1069330   0.0000000), wk =   0.0555556
        k(    5) = (   0.0308689  -0.0178222   0.0000000), wk =   0.1111111
        k(    6) = (   0.0308689   0.0178222   0.0000000), wk =   0.1111111
        k(    7) = (   0.0308689   0.0534665   0.0000000), wk =   0.1111111
        k(    8) = (   0.0308689  -0.1247552   0.0000000), wk =   0.1111111
        k(    9) = (   0.0308689  -0.0891108   0.0000000), wk =   0.1111111
        k(   10) = (   0.0308689  -0.0534665   0.0000000), wk =   0.1111111
        k(   11) = (   0.0617378  -0.0356443   0.0000000), wk =   0.1111111
        k(   12) = (   0.0617378   0.0000000   0.0000000), wk =   0.1111111
        k(   13) = (   0.0617378   0.0356443   0.0000000), wk =   0.1111111
        k(   14) = (   0.0617378  -0.1425773   0.0000000), wk =   0.1111111
        k(   15) = (   0.0617378  -0.1069330   0.0000000), wk =   0.1111111
        k(   16) = (   0.0617378  -0.0712887   0.0000000), wk =   0.1111111
        k(   17) = (  -0.0926067   0.0534665   0.0000000), wk =   0.0555556
        k(   18) = (  -0.0926067   0.0891108   0.0000000), wk =   0.1111111
        k(   19) = (  -0.0926067   0.1247552   0.0000000), wk =   0.1111111
        k(   20) = (  -0.0926067  -0.0534665   0.0000000), wk =   0.0555556

     Largest allocated arrays     est. size (Mb)     dimensions
     Largest temporary arrays     est. size (Mb)     dimensions

     Check: negative/imaginary core charge=   -0.000001    0.000000

     Initial potential from superposition of free atoms
     Check: negative starting charge=   -0.011485

     starting charge  161.98525, renormalised to  162.00000

     negative rho (up, down):  1.149E-02 0.000E+00

     *
     * You are using vdW-DF for exchange-correlation in this calculation.
     * Please cite the following three references that made this development
     * possible:
     *
     *   M. Dion, H. Rydberg, E. Schroder, D. C. Langreth, and
     *   B. I. Lundqvist, Phys. Rev. Lett. 92, 246401 (2004).
     *
     *   T. Thonhauser, V. R. Cooper, S. Li, A. Puzder, P. Hyldgaard, and
     *   D. C. Langreth, Phys. Rev. B 76, 125112 (2007).
     *
     *   G. Roman-Perez and J. M. Soler, Phys. Rev. Lett. 103, 096102 (2009).
     *
     *
     * If you are using vdW-DF2, please also cite:
     *
     *   K. Lee, E. D. Murray, L. Kong, B. I. Lundqvist, and
     *   D. C. Langreth, Phys. Rev. B 82, 081101(R) (2010).
     *
     *
     * If you are calculating the stress with vdW-DF, please also cite:
     *
     *   R. Sabatini, E. Kucukbenli, B. Kolb, T. Thonhauser, and
     *   S. de Gironcoli, J. Phys.: Condens. Matter 24, 424209 (2012).
     *

     Carrying out vdW-DF run using the following parameters:

     Nqs =      20    Nr_points =    1024   r_max =   100.000
     q_mesh =
               0.00001000     0.04494208     0.09755937     0.15916263
               0.23128650     0.31572767     0.41458969     0.53033537
               0.66584808     0.82450364     1.01025438     1.22772762
               1.48234092     1.78043706     2.12944203     2.53805004
               3.01644009     3.57652955     4.23227104     5.00000000

     Gradients computed in reciprocal space

     Adding external electric field

     Computed dipole along edir(3) :
        Dipole               -0.0043 Ry au,         -0.0108 Debye
        Dipole field         -0.0000 Ry au

        Potential amp.        0.0012 Ry
        Total length         44.9721 bohr

     Starting wfc are  125 randomized atomic wfcs

     Self-consistent Calculation

     iteration #  1     ecut=    36.75 Ry     beta=0.30
     Davidson diagonalization with overlap
     ethr =  1.00E-02,  avg # of iterations =  2.4

[...]

     total energy              =   -1765.19070998 Ry
     Harris-Foulkes estimate   =   -1771.17201182 Ry
     estimated scf accuracy    <      12.36089951 Ry

[...]

     End of self-consistent calculation

          k = 0.0000 0.0000 0.0000 ( 15569 PWs)   bands (ev):

   -62.9700 -62.8765 -62.8456 -62.8140 -62.8135 -62.7814 -62.7495 -62.7235
   -62.7230 -62.6967 -62.6953 -62.6944 -37.0293 -37.0290 -37.0118 -36.9679
   -36.9676 -36.9663 -36.9358 -36.8642 -36.8637 -36.8548 -36.7673 -36.7146
   -36.6800 -36.6795 -36.5707 -36.5703 -36.5697 -36.5499 -36.5176 -36.5175
   -36.4555 -36.4399 -36.4398 -36.4356 -36.4267 -36.4262 -36.3951 -36.3568
   -36.3564 -36.3465 -36.3319 -36.3316 -36.2879 -36.2878 -36.2249 -36.2249
   -13.2487  -4.9659  -4.3461  -3.0127  -2.0300  -1.7339  -1.7339  -1.6312
    -1.4179  -1.4178  -1.3536  -1.0945  -1.0945  -0.9384  -0.9382  -0.9274
    -0.8543  -0.7307  -0.7306  -0.0422   0.3209   0.3211   0.8960   1.0093
     1.1589   1.1590   1.2514   1.3829   1.5436   1.5436   1.6264   1.6267
     1.7013   1.7013   1.7827   1.7872   1.8058   1.8060   1.8265   1.8265
     2.2425   2.4487   2.5698

[...]

          k =-0.0926 0.0535 0.0000 ( 15660 PWs)   bands (ev):

[...]

     the Fermi energy is     1.4053 ev

!    total energy              =   -1770.39819166 Ry
     Harris-Foulkes estimate   =   -1770.39819416 Ry
     estimated scf accuracy    <       0.00000306 Ry

     The total energy is the sum of the following terms:

     one-electron contribution =  -15236.51947391 Ry
     hartree contribution      =    7609.51387568 Ry
     xc contribution           =    -250.39482385 Ry
     ewald contribution        =    6107.14423976 Ry
     electric field correction =       0.00012563 Ry
     smearing contrib. (-TS)   =      -0.14213496 Ry

     convergence has been achieved in  33 iterations

 BEEF-vdW xc energy contributions
           1 :   -215.652743765341
           2 :    193.360169306782
           3 :   -156.628460328738
           4 :    117.065121777424
           5 :   -84.6766721638962
           6 :    64.1479413360807
           7 :   -54.2857416826965
           8 :    50.2800870539702
           9 :   -47.0837420133583
          10 :    41.9598100213410
          11 :   -35.1116126088392
          12 :    28.5362059970119
          13 :   -24.1668633364644
          14 :    22.5162307846770
          15 :   -22.5178253521583
          16 :    22.4371815092672
          17 :   -21.0966764563349
          18 :    18.5542043167682
          19 :   -15.8567584053640
          20 :    14.1560582977676
          21 :   -13.8717268940919
          22 :    14.4651717104553
          23 :   -14.9051133047572
          24 :    14.4198572836818
          25 :   -12.9905750796568
          26 :    11.2800922866294
          27 :   -10.1095605803748
          28 :    9.88039073769815
          29 :   -10.3366942429726
          30 :    10.7976805071775
          31 :   -22.4446338620939
          32 :   -16.1560023991220

     Forces acting on atoms (Ry/au):

     negative rho (up, down):  1.547E-02 0.000E+00
     atom    1 type  1   force =    -0.00009461   -0.00002458   -0.00131066
     atom    2 type  1   force =     0.00007877   -0.00003747   -0.00127747
     atom    3 type  1   force =    -0.00001016    0.00008089   -0.00130399
     atom    4 type  1   force =     0.00001613   -0.00001716   -0.00025427
     atom    5 type  1   force =     0.00002157    0.00395901   -0.00540087
     atom    6 type  1   force =    -0.00002789   -0.00000356    0.00994216
     atom    7 type  1   force =    -0.00341244   -0.00198718   -0.00540178
     atom    8 type  1   force =     0.00342936   -0.00196891   -0.00542054
     atom    9 type  1   force =    -0.00000747    0.00001812    0.16593324
     atom   10 type  1   force =     0.00000926    0.00307495   -0.00287095
     atom   11 type  1   force =     0.00264779   -0.00154390   -0.00285673
     atom   12 type  1   force =    -0.00264845   -0.00155059   -0.00286727
     atom   13 type  2   force =    -0.00000161   -0.00000084   -0.10139012
     atom   14 type  3   force =    -0.00000026    0.00000124   -0.04552075

     Total force =     0.199847     Total SCF correction =     0.001352

     entering subroutine stress ...

     negative rho (up, down):  1.547E-02 0.000E+00
          total   stress  (Ry/bohr**3)                   (kbar)     P=  -24.17
  -0.00017575   0.00000002   0.00000000        -25.85      0.00      0.00
   0.00000002  -0.00017576   0.00000000          0.00    -25.86      0.00
   0.00000000   0.00000000  -0.00014145          0.00      0.00    -20.81

     BFGS Geometry Optimization

     number of scf cycles    =   1
     number of bfgs steps    =   0

     energy   new            =   -1770.3981916612 Ry

     new trust radius        =       0.1659332362 bohr
     new conv_thr            =       0.0000099958 Ry

ATOMIC_POSITIONS (crystal)
V1       0.166666667   0.166666667   0.409694847    0   0   0
V1       0.666666667   0.166666667   0.409694847    0   0   0
V1       0.166666667   0.666666667   0.409694847    0   0   0
V1       0.666666667   0.666666667   0.409694847    0   0   0
V1       0.833333333   0.333333333   0.500000000    0   0   0
V1       0.333333333   0.333333333   0.500000000    0   0   0
V1       0.833333333   0.833333333   0.500000000    0   0   0
V1       0.333333333   0.833333333   0.500000000    0   0   0
V1      -0.000001758   0.000002051   0.593902606
V1       0.499826907   0.000348001   0.590242911
V1       0.000346876   0.499825272   0.590243219
V1       0.499828167   0.499824515   0.590242991
N1      -0.000000110  -0.000000096   0.666112903
H1      -0.000000096   0.000000140   0.710342116

     Writing output data file calc.save
     Check: negative starting charge=   -0.011485
     NEW-OLD atomic charge density approx. for the potential

     Check: negative/imaginary core charge=   -0.000001    0.000000
     Check: negative starting charge=   -0.011505

[...]

     energy   old            =   -1770.3981916612 Ry
     energy   new            =   -1770.4263420023 Ry

     CASE: energy  _new < energy  _old

[...]

     Threshold (ethr) on eigenvalues was too large:
     Diagonalizing with lowered threshold

     Davidson diagonalization with overlap
     ethr =  5.45E-08,  avg # of iterations =  2.0

[...]

     Total force =     0.003029     Total SCF correction =     0.000638
     SCF correction compared to forces is large: reduce conv_thr to get better values

[...]

     Total force =     0.003057     Total SCF correction =     0.000188

[...]

     number of scf cycles    =  14
     number of bfgs steps    =  13

     energy   old            =   -1770.4382407665 Ry
     energy   new            =   -1770.4382586315 Ry

     CASE: energy  _new < energy  _old

     new trust radius        =       0.0049536411 bohr
     new conv_thr            =       0.0000001000 Ry

ATOMIC_POSITIONS (crystal)
V1       0.166666667   0.166666667   0.409694847    0   0   0
V1       0.666666667   0.166666667   0.409694847    0   0   0
V1       0.166666667   0.666666667   0.409694847    0   0   0
V1       0.666666667   0.666666667   0.409694847    0   0   0
V1       0.833333333   0.333333333   0.500000000    0   0   0
V1       0.333333333   0.333333333   0.500000000    0   0   0
V1       0.833333333   0.833333333   0.500000000    0   0   0
V1       0.333333333   0.833333333   0.500000000    0   0   0
V1       0.000000772  -0.000001278   0.598342765
V1       0.499006655   0.001990015   0.586986812
V1       0.001992435   0.499002061   0.586987124
V1       0.499007658   0.499000983   0.586985351
N1       0.000001193  -0.000001251   0.667850007
H1       0.000000295  -0.000000640   0.709582408

     Writing output data file calc.save
     Check: negative starting charge=   -0.011321
     NEW-OLD atomic charge density approx. for the potential

     Check: negative/imaginary core charge=   -0.000001    0.000000
     Check: negative starting charge=   -0.011355

[...]

     Self-consistent Calculation

[...]

     Threshold (ethr) on eigenvalues was too large:
     Diagonalizing with lowered threshold

     Davidson diagonalization with overlap
     ethr =  3.45E-08,  avg # of iterations =  2.2

[...]

     total energy              =   -1770.43826394 Ry
     Harris-Foulkes estimate   =   -1770.43826389 Ry
     estimated scf accuracy    <       0.00000020 Ry

     iteration # 12     ecut=    36.75 Ry     beta=0.30
     Davidson diagonalization with overlap
     ethr =  1.23E-10,  avg # of iterations =  4.2

[...]

     negative rho (up, down):  1.562E-02 0.000E+00

     Adding external electric field

     Computed dipole along edir(3) :
        Dipole                0.2144 Ry au,          0.5449 Debye
        Dipole field          0.0006 Ry au

        Potential amp.       -0.0583 Ry
        Total length         44.9721 bohr

     End of self-consistent calculation

[...]

          k = 0.0617-0.0713 0.0000 ( 15642 PWs)   bands (ev):

[...]

          k =-0.0926-0.0535 0.0000 ( 15660 PWs)   bands (ev):

   -62.8482 -62.8285 -62.7802 -62.7730 -62.7728 -62.7620 -62.7331 -62.7211
   -62.7173 -62.7148 -62.6868 -62.6857 -36.9103 -36.9000 -36.8874 -36.8746
   -36.8318 -36.8157 -36.7695 -36.7509 -36.7461 -36.7373 -36.7212 -36.7062
   -36.6183 -36.5982 -36.5794 -36.5766 -36.5519 -36.5425 -36.5414 -36.5178
   -36.4903 -36.4898 -36.4839 -36.4805 -36.4755 -36.4690 -36.4075 -36.3876
   -36.3865 -36.3732 -36.3606 -36.3478 -36.3322 -36.3157 -36.2758 -36.2698
   -13.4680  -4.9336  -2.9714  -2.8740  -1.8606  -1.5899  -1.5068  -1.4109
    -0.9978  -0.9203  -0.8891  -0.8377  -0.7554  -0.6865  -0.2057  -0.1870
    -0.1351  -0.0099  -0.0074   0.0969   0.3779   0.4056   0.4902   0.5164
     0.5586   0.6193   0.7235   0.8621   0.9657   0.9902   1.0359   1.1214
     1.2266   1.2324   1.2807   1.3446   1.5681   1.5824   1.6823   1.7397
     1.8113   2.0283   2.3542

     the Fermi energy is     1.4090 ev

!    total energy              =   -1770.43826390 Ry
     Harris-Foulkes estimate   =   -1770.43826376 Ry
     estimated scf accuracy    <       0.00000008 Ry

     The total energy is the sum of the following terms:

     one-electron contribution =  -15266.55646647 Ry
     hartree contribution      =    7624.65149371 Ry
     xc contribution           =    -250.56484622 Ry
     ewald contribution        =    6122.17236717 Ry
     electric field correction =       0.00013886 Ry
     smearing contrib. (-TS)   =      -0.14095094 Ry

     convergence has been achieved in  12 iterations

 BEEF-vdW xc energy contributions
           1 :   -215.824708206110
           2 :    193.571784109484
           3 :   -156.883616282887
           4 :    117.318764049088
           5 :   -84.8633557995900
           6 :    64.2302758234827
           7 :   -54.2778389555702
           8 :    50.2311859791899
           9 :   -47.0427598732842
          10 :    41.9493992233681
          11 :   -35.1239939890093
          12 :    28.5457425137531
          13 :   -24.1481241429241
          14 :    22.4569879420775
          15 :   -22.4242895150787
          16 :    22.3333257151032
          17 :   -21.0126359671751
          18 :    18.5068036110833
          19 :   -15.8382532577616
          20 :    14.1404489236386
          21 :   -13.8326365958035
          22 :    14.3918695033244
          23 :   -14.8057070427001
          24 :    14.3109064583397
          25 :   -12.8831749603002
          26 :    11.1736318848307
          27 :   -9.99571923603213
          28 :    9.75302727474752
          29 :   -10.2017512400139
          30 :    10.6750056531118
          31 :   -22.4551066995735
          32 :   -16.1737506683602

     Forces acting on atoms (Ry/au):

     negative rho (up, down):  1.562E-02 0.000E+00
     atom    1 type  1   force =    -0.00084074   -0.00048355    0.00013291
     atom    2 type  1   force =     0.00084106   -0.00048602    0.00013699
     atom    3 type  1   force =    -0.00000269    0.00097050    0.00013796
     atom    4 type  1   force =     0.00000183   -0.00000001    0.00091570
     atom    5 type  1   force =     0.00000528   -0.00664756    0.00034922
     atom    6 type  1   force =    -0.00000577   -0.00000088   -0.00408148
     atom    7 type  1   force =     0.00575583    0.00332177    0.00035470
     atom    8 type  1   force =    -0.00575675    0.00332773    0.00034688
     atom    9 type  1   force =     0.00000048   -0.00000132    0.00067034
     atom   10 type  1   force =     0.00000163    0.00074527    0.00022473
     atom   11 type  1   force =     0.00064644   -0.00037188    0.00022450
     atom   12 type  1   force =    -0.00064728   -0.00037368    0.00022372
     atom   13 type  2   force =     0.00000068   -0.00000040   -0.00000541
     atom   14 type  3   force =     0.00000000    0.00000004    0.00036924

     Total force =     0.001551     Total SCF correction =     0.000505
     SCF correction compared to forces is large: reduce conv_thr to get better values

     entering subroutine stress ...

     negative rho (up, down):  1.562E-02 0.000E+00
          total   stress  (Ry/bohr**3)                   (kbar)     P=  -14.53
  -0.00014512  -0.00000000   0.00000000        -21.35     -0.00      0.00
  -0.00000000  -0.00014512  -0.00000000         -0.00    -21.35     -0.00
   0.00000000  -0.00000000  -0.00000599          0.00     -0.00     -0.88

     bfgs converged in  15 scf cycles and  14 bfgs steps
     (criteria: energy <  1.0E+00, force <  1.9E-03)

     End of BFGS Geometry Optimization

     Final energy   =   -1770.4382638954 Ry
Begin final coordinates

ATOMIC_POSITIONS (crystal)
V1       0.166666667   0.166666667   0.409694847    0   0   0
V1       0.666666667   0.166666667   0.409694847    0   0   0
V1       0.166666667   0.666666667   0.409694847    0   0   0
V1       0.666666667   0.666666667   0.409694847    0   0   0
V1       0.833333333   0.333333333   0.500000000    0   0   0
V1       0.333333333   0.333333333   0.500000000    0   0   0
V1       0.833333333   0.833333333   0.500000000    0   0   0
V1       0.333333333   0.833333333   0.500000000    0   0   0
V1       0.000000772  -0.000001278   0.598342765
V1       0.499006655   0.001990015   0.586986812
V1       0.001992435   0.499002061   0.586987124
V1       0.499007658   0.499000983   0.586985351
N1       0.000001193  -0.000001251   0.667850007
H1       0.000000295  -0.000000640   0.709582408
End final coordinates

     Writing output data file calc.save

     General routines

     Parallel routines

   This run was terminated on:  12:13:12  24Apr2018

   JOB DONE.
Job  /afs/slac/g/suncat/bin/suncat-tsmpirun -x LD_LIBRARY_PATH -wdir /scratch/qe732976_WU9Fu pw.x -npool 4 -in pw.inp

TID   HOST_NAME   COMMAND_LINE            STATUS            TERMINATION_TIME
00000 suncat0167 pw.x -npool 4 -i  Done                     04/24/2018 12:13:12
00001 suncat0167 pw.x -npool 4 -i  Done                     04/24/2018 12:13:12
00002 suncat0167 pw.x -npool 4 -i  Done                     04/24/2018 12:13:12
00003 suncat0167 pw.x -npool 4 -i  Done                     04/24/2018 12:13:12
00004 suncat0167 pw.x -npool 4 -i  Done                     04/24/2018 12:13:12
00005 suncat0167 pw.x -npool 4 -i  Done                     04/24/2018 12:13:12
00006 suncat0167 pw.x -npool 4 -i  Done                     04/24/2018 12:13:12
00007 suncat0167 pw.x -npool 4 -i  Done                     04/24/2018 12:13:12
00008 suncat0107 pw.x -npool 4 -i  Done                     04/24/2018 12:13:12
00009 suncat0107 pw.x -npool 4 -i  Done                     04/24/2018 12:13:12
00010 suncat0107 pw.x -npool 4 -i  Done                     04/24/2018 12:13:12
00011 suncat0107 pw.x -npool 4 -i  Done                     04/24/2018 12:13:12
00012 suncat0107 pw.x -npool 4 -i  Done                     04/24/2018 12:13:12
00013 suncat0107 pw.x -npool 4 -i  Done                     04/24/2018 12:13:12
00014 suncat0107 pw.x -npool 4 -i  Done                     04/24/2018 12:13:12
00015 suncat0107 pw.x -npool 4 -i  Done                     04/24/2018 12:13:12
00016 suncat0279 pw.x -npool 4 -i  Done                     04/24/2018 12:13:12
00017 suncat0279 pw.x -npool 4 -i  Done                     04/24/2018 12:13:12
00018 suncat0279 pw.x -npool 4 -i  Done                     04/24/2018 12:13:12
00019 suncat0279 pw.x -npool 4 -i  Done                     04/24/2018 12:13:12
00020 suncat0279 pw.x -npool 4 -i  Done                     04/24/2018 12:13:12
00021 suncat0279 pw.x -npool 4 -i  Done                     04/24/2018 12:13:12
00022 suncat0279 pw.x -npool 4 -i  Done                     04/24/2018 12:13:12
00023 suncat0279 pw.x -npool 4 -i  Done                     04/24/2018 12:13:12
00024 suncat0242 pw.x -npool 4 -i  Done                     04/24/2018 12:13:12
00025 suncat0242 pw.x -npool 4 -i  Done                     04/24/2018 12:13:12
00026 suncat0242 pw.x -npool 4 -i  Done                     04/24/2018 12:13:12
00027 suncat0242 pw.x -npool 4 -i  Done                     04/24/2018 12:13:12
00028 suncat0242 pw.x -npool 4 -i  Done                     04/24/2018 12:13:12
00029 suncat0242 pw.x -npool 4 -i  Done                     04/24/2018 12:13:12
00030 suncat0242 pw.x -npool 4 -i  Done                     04/24/2018 12:13:12
00031 suncat0242 pw.x -npool 4 -i  Done                     04/24/2018 12:13:12