     Program PWSCF v.5.1rc2 starts on 27Apr2018 at 11:25:12

     Current dimensions of program PWSCF are:
     Max number of different atomic species (ntypx) = 10
     Max number of k-points (npk) =  40000
     Max angular momentum in pseudopotentials (lmaxx) =  3
     Presently stress not available with electric field

     IMPORTANT: XC functional enforced from input :
     Exchange-correlation      = BEEF-VDW ( 1  4 27 13 2)
     Any further DFT definition will be discarded
     Please, verify this is what you really want

     bravais-lattice index     =            0
     lattice parameter (alat)  =       1.8897  a.u.
     unit-cell volume          =    6082.7792 (a.u.)^3
     number of atoms/cell      =           16
     number of atomic types    =            3
     number of electrons       =       151.00
     number of Kohn-Sham states=           85
     kinetic-energy cutoff     =      36.7493  Ry
     charge density cutoff     =     367.4932  Ry
     convergence threshold     =      1.0E-05
     mixing beta               =       0.3000
     number of iterations used =           10  plain     mixing
     Exchange-correlation      = BEEF-VDW ( 1  4 27 13 2)
     nstep                     =           50

     celldm(1)=   1.889726  celldm(2)=   0.000000  celldm(3)=   0.000000
     celldm(4)=   0.000000  celldm(5)=   0.000000  celldm(6)=   0.000000

     crystal axes: (cart. coord. in units of alat)
               a(1) = (   6.421223   0.000000   0.000000 )
               a(2) = (   3.210611   5.560942   0.000000 )
               a(3) = (   0.000000   0.000000  25.242906 )

     reciprocal axes: (cart. coord. in units 2 pi/alat)
               b(1) = (  0.155734 -0.089913  0.000000 )
               b(2) = (  0.000000  0.179826  0.000000 )
               b(3) = (  0.000000  0.000000  0.039615 )

     PseudoPot. # 1 for Zr read from file:
     /home/users/mamunm/src/pseudo/gbrv1.5pbe/Zr.UPF
     MD5 check sum: 5db81b1e868ab7776c4564c113de050b
     Pseudo is Ultrasoft + core correction, Zval = 12.0
     Generated by new atomic code, or converted to UPF format
     Using radial grid of  887 points,  6 beta functions with:
                l(1) =   0
                l(2) =   0
                l(3) =   1
                l(4) =   1
                l(5) =   2
                l(6) =   2
     Q(r) pseudized with  6 coefficients,  rinner =    1.200   1.200   1.200
                                                       1.200   1.200

     PseudoPot. # 2 for C  read from file:
     /home/users/mamunm/src/pseudo/gbrv1.5pbe/C.UPF
     MD5 check sum: d1aef80898a10debaa0f26306b886e00
     Pseudo is Ultrasoft + core correction, Zval =  4.0
     Generated by new atomic code, or converted to UPF format
     Using radial grid of  721 points,  4 beta functions with:
                l(1) =   0
                l(2) =   0
                l(3) =   1
                l(4) =   1
     Q(r) pseudized with  8 coefficients,  rinner =    1.100   1.100   1.100

     PseudoPot. # 3 for H  read from file:
     /home/users/mamunm/src/pseudo/gbrv1.5pbe/H.UPF
     MD5 check sum: 761ae9a214b05c3daf00ab9f6b793d6f
     Pseudo is Ultrasoft, Zval =  1.0
     Generated by new atomic code, or converted to UPF format
     Using radial grid of  615 points,  2 beta functions with:
                l(1) =   0
                l(2) =   0
     Q(r) pseudized with  8 coefficients,  rinner =    0.700

     vdW kernel table read from file vdW_kernel_table
     MD5 check sum: 095c7af220d748ca6e76c0b4c6cfb241

     atomic species   valence    mass     pseudopotential
        Zr1           12.00    91.22400     Zr( 1.00)
        C1             4.00    12.01100     C ( 1.00)
        H1             1.00     1.00800     H ( 1.00)

     No symmetry found

   Cartesian axes

     site n.     atom                  positions (alat units)
         1           Zr1 tau(   1) = (   1.6053057   0.9268237  10.0000000  )
         2           Zr1 tau(   2) = (   4.8159170   0.9268237  10.0000000  )
         3           Zr1 tau(   3) = (   3.2106113   3.7072946  10.0000000  )
         4           Zr1 tau(   4) = (   6.4212227   3.7072946  10.0000000  )
         5           Zr1 tau(   5) = (   6.4212227   1.8536473  12.6214532  )
         6           Zr1 tau(   6) = (   3.2106113   1.8536473  12.6214532  )
         7           Zr1 tau(   7) = (   8.0265283   4.6341183  12.6214532  )
         8           Zr1 tau(   8) = (   4.8159170   4.6341183  12.6214532  )
         9           Zr1 tau(   9) = (   0.0000000   0.0000000  15.2429064  )
        10           Zr1 tau(  10) = (   3.2106113   0.0000000  15.2429064  )
        11           Zr1 tau(  11) = (   1.6053057   2.7804710  15.2429064  )
        12           Zr1 tau(  12) = (   4.8159170   2.7804710  15.2429064  )
        13           C1  tau(  13) = (   3.2106113   1.8536473  16.8744064  )
        14           H1  tau(  14) = (   4.3006113   1.8536473  17.5044064  )
        15           H1  tau(  15) = (   2.7606113   2.7431473  17.5044064  )
        16           H1  tau(  16) = (   2.7606113   0.9641473  17.5044064  )

     number of k points=    20  Fermi-Dirac smearing, width (Ry)=  0.0110
                       cart. coord. in units 2pi/alat
        k(    1) = (   0.0000000   0.0000000   0.0000000), wk =   0.0555556
        k(    2) = (   0.0000000   0.0299709   0.0000000), wk =   0.1111111
        k(    3) = (   0.0000000   0.0599419   0.0000000), wk =   0.1111111
        k(    4) = (   0.0000000  -0.0899128   0.0000000), wk =   0.0555556
        k(    5) = (   0.0259556  -0.0149855   0.0000000), wk =   0.1111111
        k(    6) = (   0.0259556   0.0149855   0.0000000), wk =   0.1111111
        k(    7) = (   0.0259556   0.0449564   0.0000000), wk =   0.1111111
        k(    8) = (   0.0259556  -0.1048983   0.0000000), wk =   0.1111111
        k(    9) = (   0.0259556  -0.0749274   0.0000000), wk =   0.1111111
        k(   10) = (   0.0259556  -0.0449564   0.0000000), wk =   0.1111111
        k(   11) = (   0.0519112  -0.0299709   0.0000000), wk =   0.1111111
        k(   12) = (   0.0519112   0.0000000   0.0000000), wk =   0.1111111
        k(   13) = (   0.0519112   0.0299709   0.0000000), wk =   0.1111111
        k(   14) = (   0.0519112  -0.1198838   0.0000000), wk =   0.1111111
        k(   15) = (   0.0519112  -0.0899128   0.0000000), wk =   0.1111111
        k(   16) = (   0.0519112  -0.0599419   0.0000000), wk =   0.1111111
        k(   17) = (  -0.0778668   0.0449564   0.0000000), wk =   0.0555556
        k(   18) = (  -0.0778668   0.0749274   0.0000000), wk =   0.1111111
        k(   19) = (  -0.0778668   0.1048983   0.0000000), wk =   0.1111111
        k(   20) = (  -0.0778668  -0.0449564   0.0000000), wk =   0.0555556

     Largest allocated arrays     est. size (Mb)     dimensions
     Largest temporary arrays     est. size (Mb)     dimensions

     Initial potential from superposition of free atoms
     Check: negative starting charge=   -0.728992

     starting charge  150.97414, renormalised to  151.00000

     negative rho (up, down):  7.291E-01 0.000E+00

     *
     * You are using vdW-DF for exchange-correlation in this calculation.
     * Please cite the following three references that made this development
     * possible:
     *
     *   M. Dion, H. Rydberg, E. Schroder, D. C. Langreth, and
     *   B. I. Lundqvist, Phys. Rev. Lett. 92, 246401 (2004).
     *
     *   T. Thonhauser, V. R. Cooper, S. Li, A. Puzder, P. Hyldgaard, and
     *   D. C. Langreth, Phys. Rev. B 76, 125112 (2007).
     *
     *   G. Roman-Perez and J. M. Soler, Phys. Rev. Lett. 103, 096102 (2009).
     *
     *
     * If you are using vdW-DF2, please also cite:
     *
     *   K. Lee, E. D. Murray, L. Kong, B. I. Lundqvist, and
     *   D. C. Langreth, Phys. Rev. B 82, 081101(R) (2010).
     *
     *
     * If you are calculating the stress with vdW-DF, please also cite:
     *
     *   R. Sabatini, E. Kucukbenli, B. Kolb, T. Thonhauser, and
     *   S. de Gironcoli, J. Phys.: Condens. Matter 24, 424209 (2012).
     *

     Carrying out vdW-DF run using the following parameters:

     Nqs =      20    Nr_points =    1024   r_max =   100.000
     q_mesh =
               0.00001000     0.04494208     0.09755937     0.15916263
               0.23128650     0.31572767     0.41458969     0.53033537
               0.66584808     0.82450364     1.01025438     1.22772762
               1.48234092     1.78043706     2.12944203     2.53805004
               3.01644009     3.57652955     4.23227104     5.00000000

     Gradients computed in reciprocal space

     Adding external electric field

     Computed dipole along edir(3) :
        Dipole               -0.0097 Ry au,         -0.0246 Debye
        Dipole field         -0.0000 Ry au

        Potential amp.        0.0019 Ry
        Total length         46.5096 bohr

     Starting wfc are  163 randomized atomic wfcs

     Self-consistent Calculation

     iteration #  1     ecut=    36.75 Ry     beta=0.30
     Davidson diagonalization with overlap
     ethr =  1.00E-02,  avg # of iterations =  2.0

[...]

     total energy              =   -1209.15210665 Ry
     Harris-Foulkes estimate   =   -1212.83973513 Ry
     estimated scf accuracy    <       7.80729201 Ry

[...]

     End of self-consistent calculation

          k = 0.0000 0.0000 0.0000 ( 22923 PWs)   bands (ev):

   -47.4305 -47.4129 -47.3410 -47.3400 -47.3391 -47.3267 -47.3229 -47.3180
   -47.1061 -47.0255 -47.0248 -47.0230 -25.7297 -25.7207 -25.7190 -25.6836
   -25.6708 -25.6677 -25.6343 -25.5494 -25.5475 -25.5424 -25.4531 -25.3500
   -25.3459 -25.3446 -25.2059 -25.2043 -25.1998 -25.1676 -25.1673 -25.1671
   -25.1454 -25.1435 -25.1407 -24.9997 -24.9997 -24.9801 -24.9792 -24.9411
   -24.9400 -24.9367 -24.9218 -24.8490 -24.8413 -24.8410 -24.6937 -24.6934
   -11.7492  -4.8605  -4.4467  -3.3712  -2.7936  -1.7679  -1.1021  -0.7145
    -0.7136  -0.6227  -0.5345  -0.5288  -0.4744  -0.1314  -0.1276   0.0254
     0.0297   0.0423   0.2820   0.8810   0.8957   1.2038   1.7558   1.9537
     2.0277   2.0338   2.3537   2.4422   2.5743   2.6143   2.6227   2.7136
     2.7262   2.7358   2.9203   2.9491   3.0111

[...]

          k =-0.0779 0.0450 0.0000 ( 22880 PWs)   bands (ev):

[...]

     the Fermi energy is     1.8462 ev

!    total energy              =   -1212.12416097 Ry
     Harris-Foulkes estimate   =   -1212.12418036 Ry
     estimated scf accuracy    <       0.00000349 Ry

     The total energy is the sum of the following terms:

     one-electron contribution =   -8486.48895157 Ry
     hartree contribution      =    4237.84921549 Ry
     xc contribution           =    -226.44966153 Ry
     ewald contribution        =    3263.08604037 Ry
     electric field correction =       0.00012200 Ry
     smearing contrib. (-TS)   =      -0.12092574 Ry

     convergence has been achieved in  17 iterations

 BEEF-vdW xc energy contributions
           1 :   -193.826813655643
           2 :    175.317843213354
           3 :   -144.163825464705
           4 :    109.165660535930
           5 :   -78.2318810588380
           6 :    55.6417661884067
           7 :   -41.3889117947313
           8 :    32.5118450280897
           9 :   -25.4041297557155
          10 :    17.7917952972204
          11 :   -9.48557016075429
          12 :    1.81763370267171
          13 :    3.62486722879305
          14 :   -6.11868253065225
          15 :    6.18691720881330
          16 :   -5.17546816378805
          17 :    4.40890799444534
          18 :   -4.48547717273783
          19 :    5.11012464514130
          20 :   -5.49146342859561
          21 :    4.98375520736286
          22 :   -3.54359738501691
          23 :    1.73529601266463
          24 :  -0.334198152237065
          25 :  -0.171619035115071
          26 :  -0.150362048622895
          27 :   0.785433635170676
          28 :   -1.14620567465064
          29 :   0.946918961176493
          30 :  -0.342283847947471
          31 :   -22.5867547429427
          32 :   -16.8248737999845

     Forces acting on atoms (Ry/au):

     negative rho (up, down):  7.487E-01 0.000E+00
     atom    1 type  1   force =     0.00026941    0.00005289    0.01424182
     atom    2 type  1   force =    -0.00019766    0.00025099    0.01403504
     atom    3 type  1   force =    -0.00005450   -0.00030240    0.01405028
     atom    4 type  1   force =     0.00001524   -0.00006657    0.01522980
     atom    5 type  1   force =    -0.00050177    0.00237415   -0.00358158
     atom    6 type  1   force =    -0.00002386   -0.00017858   -0.00030718
     atom    7 type  1   force =    -0.00174236   -0.00196051   -0.00308875
     atom    8 type  1   force =     0.00233240   -0.00032590   -0.00391179
     atom    9 type  1   force =     0.00162275    0.00011613   -0.03539832
     atom   10 type  1   force =    -0.00612613    0.00320028   -0.01075505
     atom   11 type  1   force =     0.00417964    0.00322784   -0.01168978
     atom   12 type  1   force =     0.00047471   -0.00548819   -0.00805785
     atom   13 type  2   force =     0.04220450   -0.00110325    0.17164754
     atom   14 type  3   force =    -0.07152391    0.00772002   -0.06508046
     atom   15 type  3   force =     0.00807717   -0.04439930   -0.04417848
     atom   16 type  3   force =     0.02099436    0.03688240   -0.04315525

     Total force =     0.223577     Total SCF correction =     0.003061

     entering subroutine stress ...

     negative rho (up, down):  7.487E-01 0.000E+00
          total   stress  (Ry/bohr**3)                   (kbar)     P=  -14.62
  -0.00010053  -0.00000013  -0.00000855        -14.79     -0.02     -1.26
  -0.00000013  -0.00009545  -0.00000025         -0.02    -14.04     -0.04
  -0.00000855  -0.00000025  -0.00010214         -1.26     -0.04    -15.03

     BFGS Geometry Optimization

     number of scf cycles    =   1
     number of bfgs steps    =   0

     energy   new            =   -1212.1241609721 Ry

     new trust radius        =       0.1767634416 bohr
     new conv_thr            =       0.0000099958 Ry

ATOMIC_POSITIONS (crystal)
Zr1      0.166666667   0.166666667   0.396150897    0   0   0
Zr1      0.666666667   0.166666667   0.396150897    0   0   0
Zr1      0.166666667   0.666666667   0.396150897    0   0   0
Zr1      0.666666667   0.666666667   0.396150897    0   0   0
Zr1      0.833333333   0.333333333   0.500000000    0   0   0
Zr1      0.333333333   0.333333333   0.500000000    0   0   0
Zr1      0.833333333   0.833333333   0.500000000    0   0   0
Zr1      0.333333333   0.833333333   0.500000000    0   0   0
Zr1      0.000128207   0.000011051   0.603107034
Zr1      0.499342873   0.000304537   0.603623640
Zr1      0.000190867   0.500307160   0.603604045
Zr1      0.500300248   0.499477746   0.603680183
C1       0.336863926   0.333228349   0.672079438
H1       0.496821286   0.334067967   0.692074320
H1       0.186053920   0.489063227   0.692512497
H1       0.343205981   0.176888134   0.692533947

     Writing output data file calc.save
     Check: negative starting charge=   -0.728992
     NEW-OLD atomic charge density approx. for the potential
     Check: negative starting charge=   -0.729574

[...]

     energy   old            =   -1212.1241609721 Ry
     energy   new            =   -1212.1580039363 Ry

     CASE: energy  _new < energy  _old

[...]

     Threshold (ethr) on eigenvalues was too large:
     Diagonalizing with lowered threshold

     Davidson diagonalization with overlap
     ethr =  9.86E-08,  avg # of iterations =  3.1

[...]

     Threshold (ethr) on eigenvalues was too large:
     Diagonalizing with lowered threshold

     Davidson diagonalization with overlap
     ethr =  5.34E-08,  avg # of iterations =  5.7

[...]

     Total force =     0.005619     Total SCF correction =     0.000374

[...]

     number of scf cycles    =  28
     number of bfgs steps    =  27

     energy   old            =   -1212.1792646452 Ry
     energy   new            =   -1212.1793789532 Ry

     CASE: energy  _new < energy  _old

     new trust radius        =       0.0497173975 bohr
     new conv_thr            =       0.0000001000 Ry

ATOMIC_POSITIONS (crystal)
Zr1      0.166666667   0.166666667   0.396150897    0   0   0
Zr1      0.666666667   0.166666667   0.396150897    0   0   0
Zr1      0.166666667   0.666666667   0.396150897    0   0   0
Zr1      0.666666667   0.666666667   0.396150897    0   0   0
Zr1      0.833333333   0.333333333   0.500000000    0   0   0
Zr1      0.333333333   0.333333333   0.500000000    0   0   0
Zr1      0.833333333   0.833333333   0.500000000    0   0   0
Zr1      0.333333333   0.833333333   0.500000000    0   0   0
Zr1      0.001365543  -0.000087128   0.595051890
Zr1      0.497519468   0.007867069   0.602009831
Zr1      0.009734690   0.496304552   0.601972068
Zr1      0.497985992   0.495520788   0.602091390
C1       0.333917074   0.333135746   0.674255529
H1       0.423486133   0.423574646   0.693112998
H1       0.153559101   0.423535894   0.692968121
H1       0.424391485   0.152488916   0.692855037

     Writing output data file calc.save
     Check: negative starting charge=   -0.728317
     NEW-OLD atomic charge density approx. for the potential
     Check: negative starting charge=   -0.728015

[...]

     Self-consistent Calculation

[...]

     total energy              =   -1212.17944344 Ry
     Harris-Foulkes estimate   =   -1212.17944339 Ry
     estimated scf accuracy    <       0.00000014 Ry

     iteration # 10     ecut=    36.75 Ry     beta=0.30
     Davidson diagonalization with overlap
     ethr =  9.29E-11,  avg # of iterations =  4.0

[...]

     negative rho (up, down):  7.476E-01 0.000E+00

     Adding external electric field

     Computed dipole along edir(3) :
        Dipole                0.2069 Ry au,          0.5258 Debye
        Dipole field          0.0004 Ry au

        Potential amp.       -0.0398 Ry
        Total length         46.5096 bohr

     End of self-consistent calculation

[...]

          k = 0.0519-0.0599 0.0000 ( 22856 PWs)   bands (ev):

[...]

          k =-0.0779-0.0450 0.0000 ( 22880 PWs)   bands (ev):

   -47.4544 -47.4484 -47.4478 -47.4275 -47.4037 -47.4032 -47.4017 -47.2448
   -47.0836 -47.0731 -47.0394 -47.0362 -25.6791 -25.6507 -25.6297 -25.6214
   -25.6029 -25.5875 -25.5330 -25.5273 -25.5095 -25.4963 -25.4641 -25.4559
   -25.4477 -25.4173 -25.4078 -25.3685 -25.3582 -25.3552 -25.3539 -25.2721
   -25.1646 -25.1488 -25.1462 -25.1367 -25.1135 -25.0844 -25.0257 -25.0161
   -24.9840 -24.9802 -24.9384 -24.9240 -24.9131 -24.8675 -24.7929 -24.7732
   -12.0426  -5.1258  -5.1001  -2.3335  -1.7165  -1.6185  -0.7650  -0.5967
    -0.1111  -0.1044  -0.0249  -0.0012   0.0470   0.1325   0.6664   0.7171
     0.7815   0.7932   0.8185   0.9338   1.1642   1.2316   1.2673   1.2846
     1.3683   1.3890   1.5707   1.5910   1.6636   1.7925   1.8110   1.8147
     1.9382   2.0222   2.1054   2.1962   2.4608

     the Fermi energy is     1.7782 ev

!    total energy              =   -1212.17944343 Ry
     Harris-Foulkes estimate   =   -1212.17944335 Ry
     estimated scf accuracy    <       0.00000005 Ry

     The total energy is the sum of the following terms:

     one-electron contribution =   -8568.13869657 Ry
     hartree contribution      =    4278.51573270 Ry
     xc contribution           =    -226.70588636 Ry
     ewald contribution        =    3304.26554842 Ry
     electric field correction =       0.00008840 Ry
     smearing contrib. (-TS)   =      -0.11623004 Ry

     convergence has been achieved in  10 iterations

 BEEF-vdW xc energy contributions
           1 :   -194.059344977205
           2 :    175.542822783605
           3 :   -144.380239867058
           4 :    109.361661753507
           5 :   -78.3790071053209
           6 :    55.7199505442730
           7 :   -41.4129877543187
           8 :    32.5298285394080
           9 :   -25.4678507880898
          10 :    17.9224899254219
          11 :   -9.65809396433707
          12 :    1.97316822558622
          13 :    3.54470059897130
          14 :   -6.13659902922603
          15 :    6.27434290463432
          16 :   -5.26605291225374
          17 :    4.43656370483922
          18 :   -4.42635938852663
          19 :    4.99988199728054
          20 :   -5.40342947890679
          21 :    4.98111218494245
          22 :   -3.63779161265555
          23 :    1.87928654793814
          24 :  -0.454244159676165
          25 :  -0.128471467526026
          26 :  -0.115942595455124
          27 :   0.721120115333065
          28 :   -1.11343935578532
          29 :   0.980431509186559
          30 :  -0.429895248707112
          31 :   -22.6025961204085
          32 :   -16.8385605592441

     Forces acting on atoms (Ry/au):

     negative rho (up, down):  7.476E-01 0.000E+00
     atom    1 type  1   force =    -0.00028962   -0.00015016    0.01243929
     atom    2 type  1   force =     0.00027249   -0.00019084    0.01246131
     atom    3 type  1   force =    -0.00001157    0.00033270    0.01244916
     atom    4 type  1   force =    -0.00001771    0.00000667    0.01120364
     atom    5 type  1   force =     0.00037452    0.01095396   -0.01447395
     atom    6 type  1   force =     0.00047223   -0.00002517   -0.00435722
     atom    7 type  1   force =    -0.00921199   -0.00529648   -0.01485542
     atom    8 type  1   force =     0.00974145   -0.00571631   -0.01428457
     atom    9 type  1   force =    -0.00042088    0.00001148   -0.00034334
     atom   10 type  1   force =    -0.00022398   -0.00022999    0.00031991
     atom   11 type  1   force =    -0.00085479   -0.00004208    0.00046042
     atom   12 type  1   force =    -0.00033033    0.00033132    0.00024453
     atom   13 type  2   force =     0.00065547    0.00052827    0.00070665
     atom   14 type  3   force =     0.00078513   -0.00026013   -0.00087527
     atom   15 type  3   force =    -0.00063692   -0.00058556   -0.00074372
     atom   16 type  3   force =    -0.00030348    0.00033234   -0.00035140

     Total force =     0.002451     Total SCF correction =     0.000614
     SCF correction compared to forces is large: reduce conv_thr to get better values

     entering subroutine stress ...

     negative rho (up, down):  7.476E-01 0.000E+00
          total   stress  (Ry/bohr**3)                   (kbar)     P=   -8.52
  -0.00006582  -0.00000083  -0.00000073         -9.68     -0.12     -0.11
  -0.00000083  -0.00006654  -0.00000000         -0.12     -9.79     -0.00
  -0.00000073  -0.00000000  -0.00004137         -0.11     -0.00     -6.09

     bfgs converged in  29 scf cycles and  28 bfgs steps
     (criteria: energy <  1.0E+00, force <  1.9E-03)

     End of BFGS Geometry Optimization

     Final energy   =   -1212.1794434347 Ry
Begin final coordinates

ATOMIC_POSITIONS (crystal)
Zr1      0.166666667   0.166666667   0.396150897    0   0   0
Zr1      0.666666667   0.166666667   0.396150897    0   0   0
Zr1      0.166666667   0.666666667   0.396150897    0   0   0
Zr1      0.666666667   0.666666667   0.396150897    0   0   0
Zr1      0.833333333   0.333333333   0.500000000    0   0   0
Zr1      0.333333333   0.333333333   0.500000000    0   0   0
Zr1      0.833333333   0.833333333   0.500000000    0   0   0
Zr1      0.333333333   0.833333333   0.500000000    0   0   0
Zr1      0.001365543  -0.000087128   0.595051890
Zr1      0.497519468   0.007867069   0.602009831
Zr1      0.009734690   0.496304552   0.601972068
Zr1      0.497985992   0.495520788   0.602091390
C1       0.333917074   0.333135746   0.674255529
H1       0.423486133   0.423574646   0.693112998
H1       0.153559101   0.423535894   0.692968121
H1       0.424391485   0.152488916   0.692855037
End final coordinates

     Writing output data file calc.save

     General routines

     Parallel routines

   This run was terminated on:  12:51:40  27Apr2018

   JOB DONE.