     Program PWSCF v.5.1rc2 (svn rev. 11289) starts on  4May2018 at  9:50:40

     Current dimensions of program PWSCF are:
     Max number of different atomic species (ntypx) = 10
     Max number of k-points (npk) =  40000
     Max angular momentum in pseudopotentials (lmaxx) =  3
     Presently stress not available with electric field

     IMPORTANT: XC functional enforced from input :
     Exchange-correlation      = BEEF-VDW ( 1  4 27 13 2)
     Any further DFT definition will be discarded
     Please, verify this is what you really want

     Subspace diagonalization in iterative solution of the eigenvalue problem:
     a serial algorithm will be used

     bravais-lattice index     =            0
     lattice parameter (alat)  =       1.8897  a.u.
     unit-cell volume          =    5144.9564 (a.u.)^3
     number of atoms/cell      =           13
     number of atomic types    =            2
     number of electrons       =       138.00
     number of Kohn-Sham states=           79
     kinetic-energy cutoff     =      36.7493  Ry
     charge density cutoff     =     367.4932  Ry
     convergence threshold     =      1.0E-05
     mixing beta               =       0.3000
     number of iterations used =           10  plain     mixing
     Exchange-correlation      = BEEF-VDW ( 1  4 27 13 2)
     nstep                     =           50

     celldm(1)=   1.889726  celldm(2)=   0.000000  celldm(3)=   0.000000
     celldm(4)=   0.000000  celldm(5)=   0.000000  celldm(6)=   0.000000

     crystal axes: (cart. coord. in units of alat)
               a(1) = (   5.950946   0.000000   0.000000 )
               a(2) = (   2.975473   5.153671   0.000000 )
               a(3) = (   0.000000   0.000000  24.858927 )

     reciprocal axes: (cart. coord. in units 2 pi/alat)
               b(1) = (  0.168040 -0.097018  0.000000 )
               b(2) = (  0.000000  0.194036  0.000000 )
               b(3) = (  0.000000  0.000000  0.040227 )

     PseudoPot. # 1 for Au read from file:
     /u/if/mamunm/psp/gbrv1.5pbe/Au.UPF
     MD5 check sum: 9d7f43293ad2c663164586bc4b293ffc
     Pseudo is Ultrasoft + core correction, Zval = 11.0
     Generated by new atomic code, or converted to UPF format
     Using radial grid of  985 points,  7 beta functions with:
                l(1) =   0
                l(2) =   0
                l(3) =   1
                l(4) =   1
                l(5) =   2
                l(6) =   2
                l(7) =   3
     Q(r) pseudized with  6 coefficients,  rinner =    1.900   1.900   1.900
                                                       1.900   1.900   1.900
                                                       1.900

     PseudoPot. # 2 for O  read from file:
     /u/if/mamunm/psp/gbrv1.5pbe/O.UPF
     MD5 check sum: 734c27235a0248c51dbae37a1fbe46ec
     Pseudo is Ultrasoft + core correction, Zval =  6.0
     Generated by new atomic code, or converted to UPF format
     Using radial grid of  737 points,  5 beta functions with:
                l(1) =   0
                l(2) =   0
                l(3) =   1
                l(4) =   1
                l(5) =   2
     Q(r) pseudized with  8 coefficients,  rinner =    0.900   0.900   0.900
                                                       0.900   0.900

     vdW kernel table read from file vdW_kernel_table
     MD5 check sum: 095c7af220d748ca6e76c0b4c6cfb241

     atomic species   valence    mass     pseudopotential
        Au1           11.00   196.96657     Au( 1.00)
        O1             6.00    15.99900     O ( 1.00)

     No symmetry found

   Cartesian axes

     site n.     atom                  positions (alat units)
         1           Au1 tau(   1) = (   1.4877366   0.8589451  10.0000000  )
         2           Au1 tau(   2) = (   4.4632098   0.8589451  10.0000000  )
         3           Au1 tau(   3) = (   2.9754732   3.4357805  10.0000000  )
         4           Au1 tau(   4) = (   5.9509464   3.4357805  10.0000000  )
         5           Au1 tau(   5) = (   5.9509464   1.7178903  12.4294637  )
         6           Au1 tau(   6) = (   2.9754732   1.7178903  12.4294637  )
         7           Au1 tau(   7) = (   7.4386830   4.2947256  12.4294637  )
         8           Au1 tau(   8) = (   4.4632098   4.2947256  12.4294637  )
         9           Au1 tau(   9) = (   0.0000000   0.0000000  14.8589274  )
        10           Au1 tau(  10) = (   2.9754732   0.0000000  14.8589274  )
        11           Au1 tau(  11) = (   1.4877366   2.5768354  14.8589274  )
        12           Au1 tau(  12) = (   4.4632098   2.5768354  14.8589274  )
        13           O1  tau(  13) = (   1.4877366   0.8589451  16.1719274  )

     number of k points=    20  Fermi-Dirac smearing, width (Ry)=  0.0110
                       cart. coord. in units 2pi/alat
        k(    1) = (   0.0000000   0.0000000   0.0000000), wk =   0.0555556
        k(    2) = (   0.0000000   0.0323394   0.0000000), wk =   0.1111111
        k(    3) = (   0.0000000   0.0646788   0.0000000), wk =   0.1111111
        k(    4) = (   0.0000000  -0.0970182   0.0000000), wk =   0.0555556
        k(    5) = (   0.0280067  -0.0161697   0.0000000), wk =   0.1111111
        k(    6) = (   0.0280067   0.0161697   0.0000000), wk =   0.1111111
        k(    7) = (   0.0280067   0.0485091   0.0000000), wk =   0.1111111
        k(    8) = (   0.0280067  -0.1131879   0.0000000), wk =   0.1111111
        k(    9) = (   0.0280067  -0.0808485   0.0000000), wk =   0.1111111
        k(   10) = (   0.0280067  -0.0485091   0.0000000), wk =   0.1111111
        k(   11) = (   0.0560135  -0.0323394   0.0000000), wk =   0.1111111
        k(   12) = (   0.0560135   0.0000000   0.0000000), wk =   0.1111111
        k(   13) = (   0.0560135   0.0323394   0.0000000), wk =   0.1111111
        k(   14) = (   0.0560135  -0.1293576   0.0000000), wk =   0.1111111
        k(   15) = (   0.0560135  -0.0970182   0.0000000), wk =   0.1111111
        k(   16) = (   0.0560135  -0.0646788   0.0000000), wk =   0.1111111
        k(   17) = (  -0.0840202   0.0485091   0.0000000), wk =   0.0555556
        k(   18) = (  -0.0840202   0.0808485   0.0000000), wk =   0.1111111
        k(   19) = (  -0.0840202   0.1131879   0.0000000), wk =   0.1111111
        k(   20) = (  -0.0840202  -0.0485091   0.0000000), wk =   0.0555556

     Largest allocated arrays     est. size (Mb)     dimensions
     Largest temporary arrays     est. size (Mb)     dimensions

     Check: negative/imaginary core charge=   -0.000002    0.000000

     Initial potential from superposition of free atoms
     Check: negative starting charge=   -0.000289

     starting charge  137.99853, renormalised to  138.00000

     negative rho (up, down):  2.892E-04 0.000E+00

     *
     * You are using vdW-DF for exchange-correlation in this calculation.
     * Please cite the following three references that made this development
     * possible:
     *
     *   M. Dion, H. Rydberg, E. Schroder, D. C. Langreth, and
     *   B. I. Lundqvist, Phys. Rev. Lett. 92, 246401 (2004).
     *
     *   T. Thonhauser, V. R. Cooper, S. Li, A. Puzder, P. Hyldgaard, and
     *   D. C. Langreth, Phys. Rev. B 76, 125112 (2007).
     *
     *   G. Roman-Perez and J. M. Soler, Phys. Rev. Lett. 103, 096102 (2009).
     *
     *
     * If you are using vdW-DF2, please also cite:
     *
     *   K. Lee, E. D. Murray, L. Kong, B. I. Lundqvist, and
     *   D. C. Langreth, Phys. Rev. B 82, 081101(R) (2010).
     *
     *
     * If you are calculating the stress with vdW-DF, please also cite:
     *
     *   R. Sabatini, E. Kucukbenli, B. Kolb, T. Thonhauser, and
     *   S. de Gironcoli, J. Phys.: Condens. Matter 24, 424209 (2012).
     *

     Carrying out vdW-DF run using the following parameters:

     Nqs =      20    Nr_points =    1024   r_max =   100.000
     q_mesh =
               0.00001000     0.04494208     0.09755937     0.15916263
               0.23128650     0.31572767     0.41458969     0.53033537
               0.66584808     0.82450364     1.01025438     1.22772762
               1.48234092     1.78043706     2.12944203     2.53805004
               3.01644009     3.57652955     4.23227104     5.00000000

     Gradients computed in reciprocal space

     Adding external electric field

     Computed dipole along edir(3) :
        Dipole               -0.0004 Ry au,         -0.0011 Debye
        Dipole field         -0.0000 Ry au

        Potential amp.        0.0001 Ry
        Total length         45.8022 bohr

     Starting wfc are  112 randomized atomic wfcs

     Self-consistent Calculation

     iteration #  1     ecut=    36.75 Ry     beta=0.30
     Davidson diagonalization with overlap
     ethr =  1.00E-02,  avg # of iterations =  2.3

[...]

     total energy              =   -1432.28692548 Ry
     Harris-Foulkes estimate   =   -1433.11484241 Ry
     estimated scf accuracy    <       1.84322165 Ry

[...]

     End of self-consistent calculation

          k = 0.0000 0.0000 0.0000 ( 19315 PWs)   bands (ev):

   -17.8437  -8.1296  -6.6952  -6.4199  -6.1427  -6.1427  -6.1150  -6.0969
    -6.0969  -6.0466  -5.7200  -5.6659  -5.6659  -5.6059  -5.6059  -5.5889
    -4.9841  -4.9841  -4.5776  -4.4338  -4.4338  -4.4179  -4.3324  -4.3324
    -4.3183  -4.2732  -4.2732  -3.9978  -3.9978  -3.9569  -3.9247  -3.9247
    -3.8238  -3.6563  -3.6563  -3.3436  -3.2795  -3.2795  -3.0392  -3.0392
    -3.0163  -2.9932  -2.7960  -2.7960  -2.6723  -2.6723  -2.4286  -2.4286
    -2.2870  -2.2160  -2.2160  -2.1853  -2.1853  -2.1777  -2.0518  -2.0518
    -2.0407  -1.8867  -1.8867  -1.8822  -1.7755  -1.7755  -1.7593  -1.5835
    -1.1203  -1.0248  -1.0248   0.5351   0.5351   0.6281   0.9135   1.2497
     1.2497   1.3558   1.6803   1.6803   2.3998   3.2523   3.2523

[...]

          k =-0.0840 0.0485 0.0000 ( 19380 PWs)   bands (ev):

[...]

     the Fermi energy is    -0.0897 ev

!    total energy              =   -1432.88484327 Ry
     Harris-Foulkes estimate   =   -1432.88483154 Ry
     estimated scf accuracy    <       0.00000750 Ry

     The total energy is the sum of the following terms:

     one-electron contribution =   -8404.15592203 Ry
     hartree contribution      =    4299.85722328 Ry
     xc contribution           =    -775.62145342 Ry
     ewald contribution        =    3447.06237420 Ry
     electric field correction =       0.00018227 Ry
     smearing contrib. (-TS)   =      -0.02724758 Ry

     convergence has been achieved in  11 iterations

 BEEF-vdW xc energy contributions
           1 :   -693.105218049029
           2 :    644.008275633306
           3 :   -556.315811740600
           4 :    447.143451393302
           5 :   -334.872843652924
           6 :    234.423768538476
           7 :   -154.470023549867
           8 :    97.0258642120259
           9 :   -59.0891159790419
          10 :    35.3253381685552
          11 :   -20.5862493818611
          12 :    11.3368760946910
          13 :   -5.77679147900540
          14 :    3.07372606416857
          15 :   -2.43616286004180
          16 :    2.60868779656244
          17 :   -2.02374897455365
          18 :  -0.580035487815849
          19 :    5.50677889931910
          20 :   -11.8576844195238
          21 :    17.8698256515124
          22 :   -21.6949101181243
          23 :    22.2264878826636
          24 :   -19.5709068697674
          25 :    14.9408026262797
          26 :   -10.0574155096103
          27 :    6.38265614633428
          28 :   -4.56695761720005
          29 :    4.35095421437040
          30 :   -4.91333845226825
          31 :   -54.9114244535340
          32 :   -39.9695416507130

     Forces acting on atoms (Ry/au):

     negative rho (up, down):  3.909E-04 0.000E+00
     atom    1 type  1   force =    -0.00000017   -0.00000316    0.00118651
     atom    2 type  1   force =     0.00000558    0.00018839   -0.00208122
     atom    3 type  1   force =     0.00016874   -0.00008511   -0.00207506
     atom    4 type  1   force =    -0.00016471   -0.00009587   -0.00206571
     atom    5 type  1   force =    -0.00142658    0.00080814   -0.00084847
     atom    6 type  1   force =     0.00141212    0.00081320   -0.00084439
     atom    7 type  1   force =    -0.00000389    0.00000363    0.02424151
     atom    8 type  1   force =     0.00000083   -0.00163129   -0.00083700
     atom    9 type  1   force =    -0.03615775   -0.02087855   -0.00125420
     atom   10 type  1   force =     0.03616270   -0.02088258   -0.00125821
     atom   11 type  1   force =     0.00000056    0.04175269   -0.00125906
     atom   12 type  1   force =     0.00000063    0.00000878   -0.01294658
     atom   13 type  2   force =     0.00000193    0.00000175    0.00004188

     Total force =     0.073503     Total SCF correction =     0.011183
     SCF correction compared to forces is large: reduce conv_thr to get better values

     entering subroutine stress ...

     negative rho (up, down):  3.909E-04 0.000E+00
          total   stress  (Ry/bohr**3)                   (kbar)     P=   -7.13
  -0.00007310   0.00000000   0.00000000        -10.75      0.00      0.00
   0.00000000  -0.00007310   0.00000000          0.00    -10.75      0.00
   0.00000000   0.00000000   0.00000081          0.00      0.00      0.12

     BFGS Geometry Optimization

     number of scf cycles    =   1
     number of bfgs steps    =   0

     energy   new            =   -1432.8848432717 Ry

     new trust radius        =       0.0417780632 bohr
     new conv_thr            =       0.0000099958 Ry

ATOMIC_POSITIONS (crystal)
Au1      0.166666667   0.166666667   0.402269971    0   0   0
Au1      0.666666667   0.166666667   0.402269971    0   0   0
Au1      0.166666667   0.666666667   0.402269971    0   0   0
Au1      0.666666667   0.666666667   0.402269971    0   0   0
Au1      0.833333333   0.333333333   0.500000000    0   0   0
Au1      0.333333333   0.333333333   0.500000000    0   0   0
Au1      0.833333333   0.833333333   0.500000000    0   0   0
Au1      0.333333333   0.833333333   0.500000000    0   0   0
Au1     -0.002143361  -0.002143803   0.597703331
Au1      0.504287812  -0.002144217   0.597703245
Au1     -0.002143526   0.504287152   0.597703227
Au1      0.499999606   0.500000901   0.597454433
O1       0.166666748   0.166666847   0.650548968

     Writing output data file calc.save
     Check: negative starting charge=   -0.000289
     NEW-OLD atomic charge density approx. for the potential

     Check: negative/imaginary core charge=   -0.000002    0.000000
     Check: negative starting charge=   -0.000289

[...]

     Total force =     0.053861     Total SCF correction =     0.003220

[...]

     energy   old            =   -1432.8848432717 Ry
     energy   new            =   -1432.8893447426 Ry

     CASE: energy  _new < energy  _old

[...]

     Threshold (ethr) on eigenvalues was too large:
     Diagonalizing with lowered threshold

     Davidson diagonalization with overlap
     ethr =  6.61E-09,  avg # of iterations =  4.0

[...]

     WARNING: bfgs curvature condition failed, Theta= 0.833
     new trust radius        =       0.0045154124 bohr
     new conv_thr            =       0.0000001000 Ry

[...]

     Total force =     0.003055     Total SCF correction =     0.000209

[...]

     number of scf cycles    =  11
     number of bfgs steps    =  10

     energy   old            =   -1432.9016561360 Ry
     energy   new            =   -1432.9016779249 Ry

     CASE: energy  _new < energy  _old

     new trust radius        =       0.0101596779 bohr
     new conv_thr            =       0.0000001000 Ry

ATOMIC_POSITIONS (crystal)
Au1      0.166666667   0.166666667   0.402269971    0   0   0
Au1      0.666666667   0.166666667   0.402269971    0   0   0
Au1      0.166666667   0.666666667   0.402269971    0   0   0
Au1      0.666666667   0.666666667   0.402269971    0   0   0
Au1      0.833333333   0.333333333   0.500000000    0   0   0
Au1      0.333333333   0.333333333   0.500000000    0   0   0
Au1      0.833333333   0.833333333   0.500000000    0   0   0
Au1      0.333333333   0.833333333   0.500000000    0   0   0
Au1     -0.011639539  -0.011639334   0.600444655
Au1      0.523280100  -0.011639726   0.600444399
Au1     -0.011638864   0.523278773   0.600444303
Au1      0.499999879   0.500000627   0.593201809
O1       0.166667988   0.166666387   0.644176080

     Writing output data file calc.save
     Check: negative starting charge=   -0.000284
     NEW-OLD atomic charge density approx. for the potential

     Check: negative/imaginary core charge=   -0.000002    0.000000
     Check: negative starting charge=   -0.000284

[...]

     Self-consistent Calculation

[...]

     Threshold (ethr) on eigenvalues was too large:
     Diagonalizing with lowered threshold

     Davidson diagonalization with overlap
     ethr =  6.27E-09,  avg # of iterations =  2.4

[...]

     total energy              =   -1432.90170131 Ry
     Harris-Foulkes estimate   =   -1432.90170120 Ry
     estimated scf accuracy    <       0.00000014 Ry

     iteration #  6     ecut=    36.75 Ry     beta=0.30
     Davidson diagonalization with overlap
     ethr =  9.94E-11,  avg # of iterations =  2.0

[...]

     negative rho (up, down):  3.699E-04 0.000E+00

     Adding external electric field

     Computed dipole along edir(3) :
        Dipole               -0.2147 Ry au,         -0.5458 Debye
        Dipole field         -0.0005 Ry au

        Potential amp.        0.0480 Ry
        Total length         45.8022 bohr

     End of self-consistent calculation

[...]

          k = 0.0560-0.0647 0.0000 ( 19376 PWs)   bands (ev):

[...]

          k =-0.0840-0.0485 0.0000 ( 19380 PWs)   bands (ev):

   -17.9178  -6.8400  -6.6010  -6.1154  -5.6142  -5.4908  -5.4684  -5.4438
    -5.3324  -5.3082  -5.3065  -5.2192  -5.0722  -4.9787  -4.9666  -4.9139
    -4.8498  -4.7126  -4.6886  -4.5986  -4.5315  -4.4658  -4.4467  -4.4053
    -4.3519  -4.2755  -4.1920  -4.1221  -3.9994  -3.9959  -3.8255  -3.7917
    -3.7775  -3.6795  -3.6339  -3.6312  -3.6256  -3.6230  -3.5442  -3.4824
    -3.4422  -3.3924  -3.3352  -3.2668  -3.1644  -3.1117  -3.1090  -3.0239
    -3.0172  -2.9398  -2.9164  -2.8478  -2.8426  -2.6194  -2.6128  -2.5083
    -2.4726  -2.4159  -2.2522  -2.1707  -2.1336  -2.0634  -2.0628  -1.9059
    -1.9023  -1.3986  -0.9966  -0.5007   0.0002   0.1025   0.4825   0.6570
     1.5879   1.8605   3.2709   3.5482   3.5950   4.0330   5.3899

     the Fermi energy is    -0.0187 ev

!    total energy              =   -1432.90170133 Ry
     Harris-Foulkes estimate   =   -1432.90170125 Ry
     estimated scf accuracy    <       0.00000002 Ry

     The total energy is the sum of the following terms:

     one-electron contribution =   -8411.47361682 Ry
     hartree contribution      =    4303.77667016 Ry
     xc contribution           =    -775.66137018 Ry
     ewald contribution        =    3450.48254972 Ry
     electric field correction =       0.00011261 Ry
     smearing contrib. (-TS)   =      -0.02604682 Ry

     convergence has been achieved in   6 iterations

 BEEF-vdW xc energy contributions
           1 :   -693.150327449108
           2 :    644.066095914851
           3 :   -556.375200007184
           4 :    447.175493581864
           5 :   -334.851401984540
           6 :    234.339484454500
           7 :   -154.335110110381
           8 :    96.8716333171086
           9 :   -58.9576299056133
          10 :    35.2563499274632
          11 :   -20.6026299333627
          12 :    11.4347618460720
          13 :   -5.92348725930833
          14 :    3.21498352253423
          15 :   -2.51512603697188
          16 :    2.59147398871835
          17 :   -1.91841363369451
          18 :  -0.723566042627453
          19 :    5.61847559343039
          20 :   -11.8820061844214
          21 :    17.7954911482346
          22 :   -21.5633237795020
          23 :    22.1116823328811
          24 :   -19.5390363136345
          25 :    15.0119847355908
          26 :   -10.1915395679397
          27 :    6.49875965486649
          28 :   -4.58784198156138
          29 :    4.24872575189124
          30 :   -4.72902497537177
          31 :   -54.9146878787391
          32 :   -39.9723184546554

     Forces acting on atoms (Ry/au):

     negative rho (up, down):  3.699E-04 0.000E+00
     atom    1 type  1   force =    -0.00000001   -0.00000001    0.00048323
     atom    2 type  1   force =     0.00000001    0.00024594   -0.00514476
     atom    3 type  1   force =     0.00021299   -0.00012298   -0.00514478
     atom    4 type  1   force =    -0.00021301   -0.00012300   -0.00514484
     atom    5 type  1   force =     0.00476458   -0.00275103    0.00059868
     atom    6 type  1   force =    -0.00476451   -0.00275089    0.00059851
     atom    7 type  1   force =     0.00000018    0.00000007    0.01229110
     atom    8 type  1   force =    -0.00000011    0.00550187    0.00059857
     atom    9 type  1   force =     0.00010407    0.00005975    0.00032804
     atom   10 type  1   force =    -0.00010381    0.00005964    0.00032805
     atom   11 type  1   force =    -0.00000014   -0.00011937    0.00032842
     atom   12 type  1   force =     0.00000020   -0.00000018   -0.00110978
     atom   13 type  2   force =    -0.00000044    0.00000018    0.00098957

     Total force =     0.001605     Total SCF correction =     0.000165
     SCF correction compared to forces is large: reduce conv_thr to get better values

     entering subroutine stress ...

     negative rho (up, down):  3.699E-04 0.000E+00
          total   stress  (Ry/bohr**3)                   (kbar)     P=   -4.07
  -0.00004767  -0.00000000  -0.00000000         -7.01     -0.00     -0.00
  -0.00000000  -0.00004767   0.00000000         -0.00     -7.01      0.00
  -0.00000000   0.00000000   0.00001243         -0.00      0.00      1.83

     bfgs converged in  12 scf cycles and  11 bfgs steps
     (criteria: energy <  1.0E+00, force <  1.9E-03)

     End of BFGS Geometry Optimization

     Final energy   =   -1432.9017013308 Ry
Begin final coordinates

ATOMIC_POSITIONS (crystal)
Au1      0.166666667   0.166666667   0.402269971    0   0   0
Au1      0.666666667   0.166666667   0.402269971    0   0   0
Au1      0.166666667   0.666666667   0.402269971    0   0   0
Au1      0.666666667   0.666666667   0.402269971    0   0   0
Au1      0.833333333   0.333333333   0.500000000    0   0   0
Au1      0.333333333   0.333333333   0.500000000    0   0   0
Au1      0.833333333   0.833333333   0.500000000    0   0   0
Au1      0.333333333   0.833333333   0.500000000    0   0   0
Au1     -0.011639539  -0.011639334   0.600444655
Au1      0.523280100  -0.011639726   0.600444399
Au1     -0.011638864   0.523278773   0.600444303
Au1      0.499999879   0.500000627   0.593201809
O1       0.166667988   0.166666387   0.644176080
End final coordinates

     Writing output data file calc.save

     General routines

     Parallel routines

   This run was terminated on:  11: 8: 3   4May2018

   JOB DONE.
Job  /afs/slac/g/suncat/bin/suncat-tsmpirun -x LD_LIBRARY_PATH -wdir /scratch/qe929568_xocOP pw.x -npool 4 -in pw.inp

TID   HOST_NAME   COMMAND_LINE            STATUS            TERMINATION_TIME
00000 suncat0019 pw.x -npool 4 -i  Done                     05/04/2018 11:08:03
00001 suncat0019 pw.x -npool 4 -i  Done                     05/04/2018 11:08:03
00002 suncat0019 pw.x -npool 4 -i  Done                     05/04/2018 11:08:03
00003 suncat0019 pw.x -npool 4 -i  Done                     05/04/2018 11:08:03
00004 suncat0019 pw.x -npool 4 -i  Done                     05/04/2018 11:08:03
00005 suncat0019 pw.x -npool 4 -i  Done                     05/04/2018 11:08:03
00006 suncat0019 pw.x -npool 4 -i  Done                     05/04/2018 11:08:03
00007 suncat0019 pw.x -npool 4 -i  Done                     05/04/2018 11:08:03
00008 suncat0192 pw.x -npool 4 -i  Done                     05/04/2018 11:08:03
00009 suncat0192 pw.x -npool 4 -i  Done                     05/04/2018 11:08:03
00010 suncat0192 pw.x -npool 4 -i  Done                     05/04/2018 11:08:03
00011 suncat0192 pw.x -npool 4 -i  Done                     05/04/2018 11:08:03
00012 suncat0192 pw.x -npool 4 -i  Done                     05/04/2018 11:08:03
00013 suncat0192 pw.x -npool 4 -i  Done                     05/04/2018 11:08:03
00014 suncat0192 pw.x -npool 4 -i  Done                     05/04/2018 11:08:03
00015 suncat0192 pw.x -npool 4 -i  Done                     05/04/2018 11:08:03
00016 suncat0256 pw.x -npool 4 -i  Done                     05/04/2018 11:08:03
00017 suncat0256 pw.x -npool 4 -i  Done                     05/04/2018 11:08:03
00018 suncat0256 pw.x -npool 4 -i  Done                     05/04/2018 11:08:03
00019 suncat0256 pw.x -npool 4 -i  Done                     05/04/2018 11:08:03
00020 suncat0256 pw.x -npool 4 -i  Done                     05/04/2018 11:08:03
00021 suncat0256 pw.x -npool 4 -i  Done                     05/04/2018 11:08:03
00022 suncat0256 pw.x -npool 4 -i  Done                     05/04/2018 11:08:03
00023 suncat0256 pw.x -npool 4 -i  Done                     05/04/2018 11:08:03
00024 suncat0255 pw.x -npool 4 -i  Done                     05/04/2018 11:08:03
00025 suncat0255 pw.x -npool 4 -i  Done                     05/04/2018 11:08:03
00026 suncat0255 pw.x -npool 4 -i  Done                     05/04/2018 11:08:03
00027 suncat0255 pw.x -npool 4 -i  Done                     05/04/2018 11:08:03
00028 suncat0255 pw.x -npool 4 -i  Done                     05/04/2018 11:08:03
00029 suncat0255 pw.x -npool 4 -i  Done                     05/04/2018 11:08:03
00030 suncat0255 pw.x -npool 4 -i  Done                     05/04/2018 11:08:03
00031 suncat0255 pw.x -npool 4 -i  Done                     05/04/2018 11:08:03