     Program PWSCF v.5.1rc2 (svn rev. 11289) starts on 21Jan2018 at 15:23:53

     Current dimensions of program PWSCF are:
     Max number of different atomic species (ntypx) = 10
     Max number of k-points (npk) =  40000
     Max angular momentum in pseudopotentials (lmaxx) =  3
     Presently stress not available with electric field

     IMPORTANT: XC functional enforced from input :
     Exchange-correlation      = BEEF-VDW ( 1  4 27 13 2)
     Any further DFT definition will be discarded
     Please, verify this is what you really want

     Subspace diagonalization in iterative solution of the eigenvalue problem:
     a serial algorithm will be used

     bravais-lattice index     =            0
     lattice parameter (alat)  =       1.8897  a.u.
     unit-cell volume          =    4198.3539 (a.u.)^3
     number of atoms/cell      =           13
     number of atomic types    =            2
     number of electrons       =       198.00
     number of Kohn-Sham states=          109
     kinetic-energy cutoff     =      36.7493  Ry
     charge density cutoff     =     367.4932  Ry
     convergence threshold     =      1.0E-05
     mixing beta               =       0.3000
     number of iterations used =           10  plain     mixing
     Exchange-correlation      = BEEF-VDW ( 1  4 27 13 2)
     nstep                     =           50

     celldm(1)=   1.889726  celldm(2)=   0.000000  celldm(3)=   0.000000
     celldm(4)=   0.000000  celldm(5)=   0.000000  celldm(6)=   0.000000

     crystal axes: (cart. coord. in units of alat)
               a(1) = (   5.422927   0.000000   0.000000 )
               a(2) = (   2.711463   4.696392   0.000000 )
               a(3) = (   0.000000   0.000000  24.427801 )

     reciprocal axes: (cart. coord. in units 2 pi/alat)
               b(1) = (  0.184402 -0.106465  0.000000 )
               b(2) = (  0.000000  0.212929  0.000000 )
               b(3) = (  0.000000  0.000000  0.040937 )

     PseudoPot. # 1 for Ru read from file:
     /afs/slac.stanford.edu/u/if/mamunm/psp/gbrv1.5pbe/Ru.UPF
     MD5 check sum: 7158a806dd851261a58e6920c40ebe78
     Pseudo is Ultrasoft + core correction, Zval = 16.0
     Generated by new atomic code, or converted to UPF format
     Using radial grid of  967 points,  6 beta functions with:
                l(1) =   0
                l(2) =   0
                l(3) =   1
                l(4) =   1
                l(5) =   2
                l(6) =   2
     Q(r) pseudized with  8 coefficients,  rinner =    1.300   1.300   1.300
                                                       1.300   1.300

     PseudoPot. # 2 for S  read from file:
     /afs/slac.stanford.edu/u/if/mamunm/psp/gbrv1.5pbe/S.UPF
     MD5 check sum: 88d86576ff6df21479756cfb9bdac1df
     Pseudo is Ultrasoft + core correction, Zval =  6.0
     Generated by new atomic code, or converted to UPF format
     Using radial grid of  907 points,  6 beta functions with:
                l(1) =   0
                l(2) =   0
                l(3) =   1
                l(4) =   1
                l(5) =   2
                l(6) =   2
     Q(r) pseudized with  8 coefficients,  rinner =    1.300   1.300   1.300
                                                       1.300   1.300

     vdW kernel table read from file vdW_kernel_table
     MD5 check sum: 095c7af220d748ca6e76c0b4c6cfb241

     atomic species   valence    mass     pseudopotential
        Ru1           16.00   101.07000     Ru( 1.00)
        S1             6.00    32.06000     S ( 1.00)

     No symmetry found

   Cartesian axes

     site n.     atom                  positions (alat units)
         1           Ru1 tau(   1) = (   1.3557316   0.7827320  10.0000000  )
         2           Ru1 tau(   2) = (   4.0671949   0.7827320  10.0000000  )
         3           Ru1 tau(   3) = (   2.7114633   3.1309281  10.0000000  )
         4           Ru1 tau(   4) = (   5.4229265   3.1309281  10.0000000  )
         5           Ru1 tau(   5) = (   5.4229265   1.5654640  12.2139005  )
         6           Ru1 tau(   6) = (   2.7114633   1.5654640  12.2139005  )
         7           Ru1 tau(   7) = (   6.7786581   3.9136601  12.2139005  )
         8           Ru1 tau(   8) = (   4.0671949   3.9136601  12.2139005  )
         9           Ru1 tau(   9) = (   0.0000000   0.0000000  14.4278010  )
        10           Ru1 tau(  10) = (   2.7114633   0.0000000  14.4278010  )
        11           Ru1 tau(  11) = (   1.3557316   2.3481961  14.4278010  )
        12           Ru1 tau(  12) = (   4.0671949   2.3481961  14.4278010  )
        13           S1  tau(  13) = (   2.7114633   1.5654640  16.9378010  )

     number of k points=    20  Fermi-Dirac smearing, width (Ry)=  0.0110
                       cart. coord. in units 2pi/alat
        k(    1) = (   0.0000000   0.0000000   0.0000000), wk =   0.0555556
        k(    2) = (   0.0000000   0.0354882   0.0000000), wk =   0.1111111
        k(    3) = (   0.0000000   0.0709765   0.0000000), wk =   0.1111111
        k(    4) = (   0.0000000  -0.1064647   0.0000000), wk =   0.0555556
        k(    5) = (   0.0307337  -0.0177441   0.0000000), wk =   0.1111111
        k(    6) = (   0.0307337   0.0177441   0.0000000), wk =   0.1111111
        k(    7) = (   0.0307337   0.0532324   0.0000000), wk =   0.1111111
        k(    8) = (   0.0307337  -0.1242088   0.0000000), wk =   0.1111111
        k(    9) = (   0.0307337  -0.0887206   0.0000000), wk =   0.1111111
        k(   10) = (   0.0307337  -0.0532324   0.0000000), wk =   0.1111111
        k(   11) = (   0.0614674  -0.0354882   0.0000000), wk =   0.1111111
        k(   12) = (   0.0614674   0.0000000   0.0000000), wk =   0.1111111
        k(   13) = (   0.0614674   0.0354882   0.0000000), wk =   0.1111111
        k(   14) = (   0.0614674  -0.1419529   0.0000000), wk =   0.1111111
        k(   15) = (   0.0614674  -0.1064647   0.0000000), wk =   0.1111111
        k(   16) = (   0.0614674  -0.0709765   0.0000000), wk =   0.1111111
        k(   17) = (  -0.0922011   0.0532324   0.0000000), wk =   0.0555556
        k(   18) = (  -0.0922011   0.0887206   0.0000000), wk =   0.1111111
        k(   19) = (  -0.0922011   0.1242088   0.0000000), wk =   0.1111111
        k(   20) = (  -0.0922011  -0.0532324   0.0000000), wk =   0.0555556

     Largest allocated arrays     est. size (Mb)     dimensions
     Largest temporary arrays     est. size (Mb)     dimensions

     Initial potential from superposition of free atoms
     Check: negative starting charge=   -0.873598

     starting charge  185.99978, renormalised to  198.00000

     negative rho (up, down):  9.300E-01 0.000E+00

     *
     * You are using vdW-DF for exchange-correlation in this calculation.
     * Please cite the following three references that made this development
     * possible:
     *
     *   M. Dion, H. Rydberg, E. Schroder, D. C. Langreth, and
     *   B. I. Lundqvist, Phys. Rev. Lett. 92, 246401 (2004).
     *
     *   T. Thonhauser, V. R. Cooper, S. Li, A. Puzder, P. Hyldgaard, and
     *   D. C. Langreth, Phys. Rev. B 76, 125112 (2007).
     *
     *   G. Roman-Perez and J. M. Soler, Phys. Rev. Lett. 103, 096102 (2009).
     *
     *
     * If you are using vdW-DF2, please also cite:
     *
     *   K. Lee, E. D. Murray, L. Kong, B. I. Lundqvist, and
     *   D. C. Langreth, Phys. Rev. B 82, 081101(R) (2010).
     *
     *
     * If you are calculating the stress with vdW-DF, please also cite:
     *
     *   R. Sabatini, E. Kucukbenli, B. Kolb, T. Thonhauser, and
     *   S. de Gironcoli, J. Phys.: Condens. Matter 24, 424209 (2012).
     *

     Carrying out vdW-DF run using the following parameters:

     Nqs =      20    Nr_points =    1024   r_max =   100.000
     q_mesh =
               0.00001000     0.04494208     0.09755937     0.15916263
               0.23128650     0.31572767     0.41458969     0.53033537
               0.66584808     0.82450364     1.01025438     1.22772762
               1.48234092     1.78043706     2.12944203     2.53805004
               3.01644009     3.57652955     4.23227104     5.00000000

     Gradients computed in reciprocal space

     Adding external electric field

     Computed dipole along edir(3) :
        Dipole               -3.4553 Ry au,         -8.7825 Debye
        Dipole field         -0.0103 Ry au

        Potential amp.        0.9310 Ry
        Total length         45.0078 bohr

     Starting wfc are  160 randomized atomic wfcs

     Self-consistent Calculation

     iteration #  1     ecut=    36.75 Ry     beta=0.30
     Davidson diagonalization with overlap
     ethr =  1.00E-02,  avg # of iterations =  6.2

[...]

     total energy              =   -2109.49487714 Ry
     Harris-Foulkes estimate   =   -2361.33340414 Ry
     estimated scf accuracy    <     528.20727043 Ry

[...]

     End of self-consistent calculation

          k = 0.0000 0.0000 0.0000 ( 15761 PWs)   bands (ev):

   -71.1760 -71.0844 -71.0476 -71.0472 -70.7776 -70.6923 -70.6922 -70.6777
   -70.6289 -70.5823 -70.5813 -70.5775 -41.4427 -41.4425 -41.4354 -41.2807
   -41.2077 -41.1705 -41.1703 -41.0044 -40.9744 -40.9741 -40.8915 -40.8913
   -40.8616 -40.8349 -40.8089 -40.8086 -40.7042 -40.7042 -40.6692 -40.6042
   -40.6041 -40.5557 -40.4900 -40.4872 -40.4869 -40.4785 -40.4720 -40.4715
   -40.4652 -40.4023 -40.4019 -40.4010 -40.3180 -40.3180 -40.2390 -40.2390
    -8.9083  -4.6072  -3.4011  -3.3909  -3.3908  -3.2937  -3.1536  -3.0270
    -3.0206  -3.0205  -2.7737  -2.7735  -2.7727  -2.4336  -2.4092  -2.4090
    -1.3671  -1.2620  -1.2619  -0.7182  -0.6613  -0.6613  -0.4277  -0.2725
    -0.2725  -0.1615   0.1165   0.1165   0.1548   0.1548   0.1802   0.3814
     0.3814   0.6103   0.6105   0.7436   0.9293   1.5066   1.5067   1.7842
     1.8199   1.8200   1.9301   1.9301   1.9731   2.0004   2.0004   2.5181
     2.5181   2.6283   3.1156   3.1583   3.1584   3.1748   3.3124   3.3125
     3.3361   3.3362   3.6778   3.6780   3.6939

[...]

          k =-0.0922 0.0532 0.0000 ( 15808 PWs)   bands (ev):

[...]

     the Fermi energy is     2.1107 ev

!    total energy              =   -2365.63504327 Ry
     Harris-Foulkes estimate   =   -2365.63504073 Ry
     estimated scf accuracy    <       0.00000929 Ry

     The total energy is the sum of the following terms:

     one-electron contribution =  -22073.48255830 Ry
     hartree contribution      =   11037.31454707 Ry
     xc contribution           =    -330.26081634 Ry
     ewald contribution        =    9000.88719038 Ry
     electric field correction =       0.00033929 Ry
     smearing contrib. (-TS)   =      -0.09374536 Ry

     convergence has been achieved in  25 iterations

 BEEF-vdW xc energy contributions
           1 :   -286.218273344374
           2 :    262.333866403551
           3 :   -221.074492654816
           4 :    172.736831045820
           5 :   -127.709913775438
           6 :    93.3547447818058
           7 :   -72.3428874265276
           8 :    62.8188427502941
           9 :   -60.0749079730239
          10 :    58.8995277279160
          11 :   -55.6085657190611
          12 :    49.0384695961006
          13 :   -40.3179197688112
          14 :    31.7627942766186
[...]

[...]

     iteration #  3     ecut=    36.75 Ry     beta=0.30
     Davidson diagonalization with overlap
     c_bands:  4 eigenvalues not converged
     c_bands:  3 eigenvalues not converged
     c_bands:  1 eigenvalues not converged
     c_bands:  4 eigenvalues not converged
     ethr =  1.00E-02,  avg # of iterations = 14.0

[...]

     Total force =     0.073989     Total SCF correction =     0.011580
     SCF correction compared to forces is large: reduce conv_thr to get better values

[...]

     Program PWSCF v.5.1rc2 (svn rev. 11289) starts on 21Jan2018 at 18:28:59

     Current dimensions of program PWSCF are:
     Max number of different atomic species (ntypx) = 10
     Max number of k-points (npk) =  40000
     Max angular momentum in pseudopotentials (lmaxx) =  3
     Presently stress not available with electric field

     IMPORTANT: XC functional enforced from input :
     Exchange-correlation      = BEEF-VDW ( 1  4 27 13 2)
     Any further DFT definition will be discarded
     Please, verify this is what you really want

     Subspace diagonalization in iterative solution of the eigenvalue problem:
     a serial algorithm will be used

     bravais-lattice index     =            0
     lattice parameter (alat)  =       1.8897  a.u.
     unit-cell volume          =    4198.3539 (a.u.)^3
     number of atoms/cell      =           13
     number of atomic types    =            2
     number of electrons       =       198.00
     number of Kohn-Sham states=          109
     kinetic-energy cutoff     =      36.7493  Ry
     charge density cutoff     =     367.4932  Ry
     convergence threshold     =      1.0E-05
     mixing beta               =       0.3000
     number of iterations used =           10  plain     mixing
     Exchange-correlation      = BEEF-VDW ( 1  4 27 13 2)
     nstep                     =           50

     celldm(1)=   1.889726  celldm(2)=   0.000000  celldm(3)=   0.000000
     celldm(4)=   0.000000  celldm(5)=   0.000000  celldm(6)=   0.000000

     crystal axes: (cart. coord. in units of alat)
               a(1) = (   5.422927   0.000000   0.000000 )
               a(2) = (   2.711463   4.696392   0.000000 )
               a(3) = (   0.000000   0.000000  24.427801 )

     reciprocal axes: (cart. coord. in units 2 pi/alat)
               b(1) = (  0.184402 -0.106465  0.000000 )
               b(2) = (  0.000000  0.212929  0.000000 )
               b(3) = (  0.000000  0.000000  0.040937 )

     PseudoPot. # 1 for Ru read from file:
     /afs/slac.stanford.edu/u/if/mamunm/psp/gbrv1.5pbe/Ru.UPF
     MD5 check sum: 7158a806dd851261a58e6920c40ebe78
     Pseudo is Ultrasoft + core correction, Zval = 16.0
     Generated by new atomic code, or converted to UPF format
     Using radial grid of  967 points,  6 beta functions with:
                l(1) =   0
                l(2) =   0
                l(3) =   1
                l(4) =   1
                l(5) =   2
                l(6) =   2
     Q(r) pseudized with  8 coefficients,  rinner =    1.300   1.300   1.300
                                                       1.300   1.300

     PseudoPot. # 2 for S  read from file:
     /afs/slac.stanford.edu/u/if/mamunm/psp/gbrv1.5pbe/S.UPF
     MD5 check sum: 88d86576ff6df21479756cfb9bdac1df
     Pseudo is Ultrasoft + core correction, Zval =  6.0
     Generated by new atomic code, or converted to UPF format
     Using radial grid of  907 points,  6 beta functions with:
                l(1) =   0
                l(2) =   0
                l(3) =   1
                l(4) =   1
                l(5) =   2
                l(6) =   2
     Q(r) pseudized with  8 coefficients,  rinner =    1.300   1.300   1.300
                                                       1.300   1.300

     vdW kernel table read from file vdW_kernel_table
     MD5 check sum: 095c7af220d748ca6e76c0b4c6cfb241

     atomic species   valence    mass     pseudopotential
        Ru1           16.00   101.07000     Ru( 1.00)
        S1             6.00    32.06000     S ( 1.00)

     No symmetry found

   Cartesian axes

     site n.     atom                  positions (alat units)
         1           Ru1 tau(   1) = (   1.3557316   0.7827320  10.0000000  )
         2           Ru1 tau(   2) = (   4.0671949   0.7827320  10.0000000  )
         3           Ru1 tau(   3) = (   2.7114633   3.1309281  10.0000000  )
         4           Ru1 tau(   4) = (   5.4229265   3.1309281  10.0000000  )
         5           Ru1 tau(   5) = (   5.4229265   1.5654640  12.2139005  )
         6           Ru1 tau(   6) = (   2.7114633   1.5654640  12.2139005  )
         7           Ru1 tau(   7) = (   6.7786581   3.9136601  12.2139005  )
         8           Ru1 tau(   8) = (   4.0671949   3.9136601  12.2139005  )
         9           Ru1 tau(   9) = (   2.7114818   4.6963708  14.2907507  )
        10           Ru1 tau(  10) = (   5.4229060   4.6037809  14.3746881  )
        11           Ru1 tau(  11) = (   6.6984753   2.3945540  14.3750540  )
        12           Ru1 tau(  12) = (   4.1473621   2.3945366  14.3747361  )
        13           S1  tau(  13) = (   2.7114511   1.5654811  16.0034313  )

     number of k points=    20  Fermi-Dirac smearing, width (Ry)=  0.0110
                       cart. coord. in units 2pi/alat
        k(    1) = (   0.0000000   0.0000000   0.0000000), wk =   0.0555556
        k(    2) = (   0.0000000   0.0354882   0.0000000), wk =   0.1111111
        k(    3) = (   0.0000000   0.0709765   0.0000000), wk =   0.1111111
        k(    4) = (   0.0000000  -0.1064647   0.0000000), wk =   0.0555556
        k(    5) = (   0.0307337  -0.0177441   0.0000000), wk =   0.1111111
        k(    6) = (   0.0307337   0.0177441   0.0000000), wk =   0.1111111
        k(    7) = (   0.0307337   0.0532324   0.0000000), wk =   0.1111111
        k(    8) = (   0.0307337  -0.1242088   0.0000000), wk =   0.1111111
        k(    9) = (   0.0307337  -0.0887206   0.0000000), wk =   0.1111111
        k(   10) = (   0.0307337  -0.0532324   0.0000000), wk =   0.1111111
        k(   11) = (   0.0614674  -0.0354882   0.0000000), wk =   0.1111111
        k(   12) = (   0.0614674   0.0000000   0.0000000), wk =   0.1111111
        k(   13) = (   0.0614674   0.0354882   0.0000000), wk =   0.1111111
        k(   14) = (   0.0614674  -0.1419529   0.0000000), wk =   0.1111111
        k(   15) = (   0.0614674  -0.1064647   0.0000000), wk =   0.1111111
        k(   16) = (   0.0614674  -0.0709765   0.0000000), wk =   0.1111111
        k(   17) = (  -0.0922011   0.0532324   0.0000000), wk =   0.0555556
        k(   18) = (  -0.0922011   0.0887206   0.0000000), wk =   0.1111111
        k(   19) = (  -0.0922011   0.1242088   0.0000000), wk =   0.1111111
        k(   20) = (  -0.0922011  -0.0532324   0.0000000), wk =   0.0555556

     Largest allocated arrays     est. size (Mb)     dimensions
     Largest temporary arrays     est. size (Mb)     dimensions

     Initial potential from superposition of free atoms
     Check: negative starting charge=   -0.878053

     starting charge  185.99978, renormalised to  198.00000

[...]

     *
     * You are using vdW-DF for exchange-correlation in this calculation.
     * Please cite the following three references that made this development
     * possible:
     *
     *   M. Dion, H. Rydberg, E. Schroder, D. C. Langreth, and
     *   B. I. Lundqvist, Phys. Rev. Lett. 92, 246401 (2004).
     *
     *   T. Thonhauser, V. R. Cooper, S. Li, A. Puzder, P. Hyldgaard, and
     *   D. C. Langreth, Phys. Rev. B 76, 125112 (2007).
     *
     *   G. Roman-Perez and J. M. Soler, Phys. Rev. Lett. 103, 096102 (2009).
     *
     *
     * If you are using vdW-DF2, please also cite:
     *
     *   K. Lee, E. D. Murray, L. Kong, B. I. Lundqvist, and
     *   D. C. Langreth, Phys. Rev. B 82, 081101(R) (2010).
     *
     *
     * If you are calculating the stress with vdW-DF, please also cite:
     *
     *   R. Sabatini, E. Kucukbenli, B. Kolb, T. Thonhauser, and
     *   S. de Gironcoli, J. Phys.: Condens. Matter 24, 424209 (2012).
     *

     Carrying out vdW-DF run using the following parameters:

     Nqs =      20    Nr_points =    1024   r_max =   100.000
     q_mesh =
               0.00001000     0.04494208     0.09755937     0.15916263
               0.23128650     0.31572767     0.41458969     0.53033537
               0.66584808     0.82450364     1.01025438     1.22772762
               1.48234092     1.78043706     2.12944203     2.53805004
               3.01644009     3.57652955     4.23227104     5.00000000

     Gradients computed in reciprocal space

[...]

     Starting wfc are  160 randomized atomic wfcs

     Self-consistent Calculation

[...]

     total energy              =   -2365.81787641 Ry
     Harris-Foulkes estimate   =   -2365.81787738 Ry
     estimated scf accuracy    <       0.00002282 Ry

     iteration # 27     ecut=    36.75 Ry     beta=0.30
     Davidson diagonalization with overlap
     ethr =  1.15E-08,  avg # of iterations =  1.0

[...]

     negative rho (up, down):  9.156E-01 0.000E+00

     Adding external electric field

     Computed dipole along edir(3) :
        Dipole               -0.0287 Ry au,         -0.0730 Debye
        Dipole field         -0.0001 Ry au

        Potential amp.        0.0077 Ry
        Total length         45.0078 bohr

     End of self-consistent calculation

[...]

          k = 0.0615-0.0710 0.0000 ( 15803 PWs)   bands (ev):

[...]

          k =-0.0922-0.0532 0.0000 ( 15808 PWs)   bands (ev):

   -70.6589 -70.6456 -70.6020 -70.5797 -70.4656 -70.4056 -70.3895 -70.1670
   -70.1163 -70.1048 -70.0674 -70.0463 -40.9398 -40.8667 -40.8428 -40.8172
   -40.7680 -40.7295 -40.6559 -40.6436 -40.6100 -40.6007 -40.5484 -40.4803
   -40.4316 -40.3725 -40.3434 -40.3328 -40.3099 -40.2693 -40.2475 -40.2444
   -40.2189 -40.1752 -40.1124 -40.0891 -40.0792 -40.0631 -40.0536 -40.0171
   -40.0023 -39.9716 -39.9691 -39.9614 -39.9453 -39.9302 -39.8101 -39.7944
   -10.7086  -3.1584  -2.6907  -2.4856  -2.3229  -2.1639  -2.1322  -2.0086
    -1.9829  -1.7831  -1.7152  -1.6828  -1.5648  -1.5041  -1.3621  -1.2790
    -1.1850  -1.1291  -1.0467  -0.8189  -0.6378  -0.5204  -0.4931  -0.4236
    -0.2650  -0.1908  -0.0031   0.1343   0.2723   0.2757   0.5501   0.6177
     0.6542   0.7093   0.7384   0.7801   0.8148   0.9396   0.9852   1.0126
     1.0271   1.2151   1.3804   1.5425   1.6632   1.6871   1.8575   2.0500
     2.0533   2.1284   2.1947   2.3529   2.4742   2.5543   2.7211   2.7638
     2.9440   3.0319   3.0319   3.4150   3.4383

     the Fermi energy is     2.6371 ev

!    total energy              =   -2365.81787629 Ry
     Harris-Foulkes estimate   =   -2365.81787599 Ry
     estimated scf accuracy    <       0.00000075 Ry

     The total energy is the sum of the following terms:

     one-electron contribution =  -22657.74998592 Ry
     hartree contribution      =   11331.86043211 Ry
     xc contribution           =    -330.89691169 Ry
     ewald contribution        =    9291.05266213 Ry
     electric field correction =       0.00000247 Ry
     smearing contrib. (-TS)   =      -0.08407538 Ry

     convergence has been achieved in  27 iterations

 BEEF-vdW xc energy contributions
           1 :   -286.881443977379
           2 :    263.291012551692
           3 :   -222.392073884969
           4 :    174.207935676966
           5 :   -128.985534844590
           6 :    94.1363965970696
           7 :   -72.5309160484250
           8 :    62.5495732065244
           9 :   -59.6364466384076
          10 :    58.5795081835202
          11 :   -55.5575829737347
          12 :    49.2169481763769
          13 :   -40.5453428983506
          14 :    31.8327776719314
          15 :   -25.3161158448714
          16 :    22.1168608790774
          17 :   -21.8634526022756
          18 :    23.0486025981240
          19 :   -23.8532974852282
          20 :    23.0049959888038
          21 :   -20.2767078528578
          22 :    16.4435509142525
          23 :   -12.7830285915418
          24 :    10.4024314906493
          25 :   -9.72426543455771
          26 :    10.3529582488260
          27 :   -11.3458282172711
          28 :    11.7184075335327
          29 :   -10.9193394738417
          30 :    9.05059988998147
          31 :   -29.8993930039477
          32 :   -22.6668808324897

     Forces acting on atoms (Ry/au):

     negative rho (up, down):  9.156E-01 0.000E+00
     atom    1 type  1   force =     0.00440341    0.00254001    0.02863905
     atom    2 type  1   force =    -0.00440354    0.00254086    0.02864727
     atom    3 type  1   force =     0.00000447   -0.00508585    0.02861489
     atom    4 type  1   force =    -0.00000387    0.00000330    0.01517019
     atom    5 type  1   force =     0.00000596   -0.00941005   -0.02159270
     atom    6 type  1   force =    -0.00000223    0.00000402   -0.03528041
     atom    7 type  1   force =     0.00816080    0.00470001   -0.02160044
     atom    8 type  1   force =    -0.00816710    0.00470939   -0.02162274
     atom    9 type  1   force =    -0.00000259    0.00001408   -0.00021213
     atom   10 type  1   force =     0.00001340    0.00033666   -0.00009439
     atom   11 type  1   force =     0.00021851   -0.00014768   -0.00027702
     atom   12 type  1   force =    -0.00026014   -0.00017812   -0.00011244
     atom   13 type  2   force =     0.00003290   -0.00002662   -0.00027915

     Total force =     0.075360     Total SCF correction =     0.004687

     entering subroutine stress ...

     negative rho (up, down):  9.156E-01 0.000E+00
          total   stress  (Ry/bohr**3)                   (kbar)     P=  -17.15
  -0.00012128  -0.00000001   0.00000000        -17.84     -0.00      0.00
  -0.00000001  -0.00012130  -0.00000004         -0.00    -17.84     -0.01
   0.00000000  -0.00000004  -0.00010725          0.00     -0.01    -15.78

 !ASE

     Writing output data file calc.save

     General routines

     Parallel routines

   This run was terminated on:  18:49:40  21Jan2018

   JOB DONE.
Job  /afs/slac/g/suncat/bin/suncat-tsmpirun -x LD_LIBRARY_PATH -wdir /scratch/qe869931_EEdOG pw.x -in pw.inp

TID   HOST_NAME   COMMAND_LINE            STATUS            TERMINATION_TIME
00000 suncat0096 pw.x -in pw.inp   Done                     01/21/2018 18:49:40
00001 suncat0096 pw.x -in pw.inp   Done                     01/21/2018 18:49:40
00002 suncat0096 pw.x -in pw.inp   Done                     01/21/2018 18:49:40
00003 suncat0096 pw.x -in pw.inp   Done                     01/21/2018 18:49:40
00004 suncat0096 pw.x -in pw.inp   Done                     01/21/2018 18:49:40
00005 suncat0096 pw.x -in pw.inp   Done                     01/21/2018 18:49:40
00006 suncat0096 pw.x -in pw.inp   Done                     01/21/2018 18:49:40
00007 suncat0096 pw.x -in pw.inp   Done                     01/21/2018 18:49:40
00008 suncat0283 pw.x -in pw.inp   Done                     01/21/2018 18:49:40
00009 suncat0283 pw.x -in pw.inp   Done                     01/21/2018 18:49:40
00010 suncat0283 pw.x -in pw.inp   Done                     01/21/2018 18:49:40
00011 suncat0283 pw.x -in pw.inp   Done                     01/21/2018 18:49:40
00012 suncat0283 pw.x -in pw.inp   Done                     01/21/2018 18:49:40
00013 suncat0283 pw.x -in pw.inp   Done                     01/21/2018 18:49:40
00014 suncat0283 pw.x -in pw.inp   Done                     01/21/2018 18:49:40
00015 suncat0283 pw.x -in pw.inp   Done                     01/21/2018 18:49:40
00016 suncat0282 pw.x -in pw.inp   Done                     01/21/2018 18:49:40
00017 suncat0282 pw.x -in pw.inp   Done                     01/21/2018 18:49:40
00018 suncat0282 pw.x -in pw.inp   Done                     01/21/2018 18:49:40
00019 suncat0282 pw.x -in pw.inp   Done                     01/21/2018 18:49:40
00020 suncat0282 pw.x -in pw.inp   Done                     01/21/2018 18:49:40
00021 suncat0282 pw.x -in pw.inp   Done                     01/21/2018 18:49:40
00022 suncat0282 pw.x -in pw.inp   Done                     01/21/2018 18:49:40
00023 suncat0282 pw.x -in pw.inp   Done                     01/21/2018 18:49:40
00024 suncat0272 pw.x -in pw.inp   Done                     01/21/2018 18:49:40
00025 suncat0272 pw.x -in pw.inp   Done                     01/21/2018 18:49:40
00026 suncat0272 pw.x -in pw.inp   Done                     01/21/2018 18:49:40
00027 suncat0272 pw.x -in pw.inp   Done                     01/21/2018 18:49:40
00028 suncat0272 pw.x -in pw.inp   Done                     01/21/2018 18:49:40
00029 suncat0272 pw.x -in pw.inp   Done                     01/21/2018 18:49:40
00030 suncat0272 pw.x -in pw.inp   Done                     01/21/2018 18:49:40
00031 suncat0272 pw.x -in pw.inp   Done                     01/21/2018 18:49:40