     Program PWSCF v.5.1rc2 (svn rev. 11289) starts on 18Apr2018 at 21:36:56

     Current dimensions of program PWSCF are:
     Max number of different atomic species (ntypx) = 10
     Max number of k-points (npk) =  40000
     Max angular momentum in pseudopotentials (lmaxx) =  3
     Presently stress not available with electric field

     IMPORTANT: XC functional enforced from input :
     Exchange-correlation      = BEEF-VDW ( 1  4 27 13 2)
     Any further DFT definition will be discarded
     Please, verify this is what you really want

     Subspace diagonalization in iterative solution of the eigenvalue problem:
     a serial algorithm will be used

     bravais-lattice index     =            0
     lattice parameter (alat)  =       1.8897  a.u.
     unit-cell volume          =    8507.0471 (a.u.)^3
     number of atoms/cell      =           14
     number of atomic types    =            3
     number of electrons       =       137.00
     number of Kohn-Sham states=           78
     kinetic-energy cutoff     =      36.7493  Ry
     charge density cutoff     =     367.4932  Ry
     convergence threshold     =      1.0E-05
     mixing beta               =       0.3000
     number of iterations used =           10  plain     mixing
     Exchange-correlation      = BEEF-VDW ( 1  4 27 13 2)
     nstep                     =           50

     celldm(1)=   1.889726  celldm(2)=   0.000000  celldm(3)=   0.000000
     celldm(4)=   0.000000  celldm(5)=   0.000000  celldm(6)=   0.000000

     crystal axes: (cart. coord. in units of alat)
               a(1) = (   7.468327   0.000000   0.000000 )
               a(2) = (   3.734164   6.467761   0.000000 )
               a(3) = (   0.000000   0.000000  26.097863 )

     reciprocal axes: (cart. coord. in units 2 pi/alat)
               b(1) = (  0.133899 -0.077307  0.000000 )
               b(2) = (  0.000000  0.154613  0.000000 )
               b(3) = (  0.000000  0.000000  0.038317 )

     PseudoPot. # 1 for La read from file:
     /u/if/mamunm/psp/gbrv1.5pbe/La.UPF
     MD5 check sum: 5937b0c7494ba0601a847275249473aa
     Pseudo is Ultrasoft + core correction, Zval = 11.0
     Generated by new atomic code, or converted to UPF format
     Using radial grid of  995 points,  8 beta functions with:
                l(1) =   0
                l(2) =   0
                l(3) =   1
                l(4) =   1
                l(5) =   2
                l(6) =   2
                l(7) =   3
                l(8) =   3
     Q(r) pseudized with  8 coefficients,  rinner =    1.700   1.700   1.700
                                                       1.700   1.700   1.700
                                                       1.700

     PseudoPot. # 2 for C  read from file:
     /u/if/mamunm/psp/gbrv1.5pbe/C.UPF
     MD5 check sum: d1aef80898a10debaa0f26306b886e00
     Pseudo is Ultrasoft + core correction, Zval =  4.0
     Generated by new atomic code, or converted to UPF format
     Using radial grid of  721 points,  4 beta functions with:
                l(1) =   0
                l(2) =   0
                l(3) =   1
                l(4) =   1
     Q(r) pseudized with  8 coefficients,  rinner =    1.100   1.100   1.100

     PseudoPot. # 3 for H  read from file:
     /u/if/mamunm/psp/gbrv1.5pbe/H.UPF
     MD5 check sum: 761ae9a214b05c3daf00ab9f6b793d6f
     Pseudo is Ultrasoft, Zval =  1.0
     Generated by new atomic code, or converted to UPF format
     Using radial grid of  615 points,  2 beta functions with:
                l(1) =   0
                l(2) =   0
     Q(r) pseudized with  8 coefficients,  rinner =    0.700

     vdW kernel table read from file vdW_kernel_table
     MD5 check sum: 095c7af220d748ca6e76c0b4c6cfb241

     atomic species   valence    mass     pseudopotential
        La1           11.00   138.90547     La( 1.00)
        C1             4.00    12.01100     C ( 1.00)
        H1             1.00     1.00800     H ( 1.00)

     No symmetry found

   Cartesian axes

     site n.     atom                  positions (alat units)
         1           La1 tau(   1) = (   1.8670818   1.0779602  10.0000000  )
         2           La1 tau(   2) = (   5.6012453   1.0779602  10.0000000  )
         3           La1 tau(   3) = (   3.7341635   4.3118406  10.0000000  )
         4           La1 tau(   4) = (   7.4683270   4.3118406  10.0000000  )
         5           La1 tau(   5) = (   7.4683270   2.1559203  13.0489317  )
         6           La1 tau(   6) = (   3.7341635   2.1559203  13.0489317  )
         7           La1 tau(   7) = (   9.3354088   5.3898008  13.0489317  )
         8           La1 tau(   8) = (   5.6012453   5.3898008  13.0489317  )
         9           La1 tau(   9) = (   0.0000000   0.0000000  16.0978635  )
        10           La1 tau(  10) = (   3.7341635   0.0000000  16.0978635  )
        11           La1 tau(  11) = (   1.8670818   3.2338805  16.0978635  )
        12           La1 tau(  12) = (   5.6012453   3.2338805  16.0978635  )
        13           C1  tau(  13) = (   1.8670818   1.0779602  17.9373635  )
        14           H1  tau(  14) = (   1.8670818   1.0779602  19.0373635  )

     number of k points=    20  Fermi-Dirac smearing, width (Ry)=  0.0110
                       cart. coord. in units 2pi/alat
        k(    1) = (   0.0000000   0.0000000   0.0000000), wk =   0.0555556
        k(    2) = (   0.0000000   0.0257688   0.0000000), wk =   0.1111111
        k(    3) = (   0.0000000   0.0515377   0.0000000), wk =   0.1111111
        k(    4) = (   0.0000000  -0.0773065   0.0000000), wk =   0.0555556
        k(    5) = (   0.0223165  -0.0128844   0.0000000), wk =   0.1111111
        k(    6) = (   0.0223165   0.0128844   0.0000000), wk =   0.1111111
        k(    7) = (   0.0223165   0.0386533   0.0000000), wk =   0.1111111
        k(    8) = (   0.0223165  -0.0901909   0.0000000), wk =   0.1111111
        k(    9) = (   0.0223165  -0.0644221   0.0000000), wk =   0.1111111
        k(   10) = (   0.0223165  -0.0386533   0.0000000), wk =   0.1111111
        k(   11) = (   0.0446329  -0.0257688   0.0000000), wk =   0.1111111
        k(   12) = (   0.0446329   0.0000000   0.0000000), wk =   0.1111111
        k(   13) = (   0.0446329   0.0257688   0.0000000), wk =   0.1111111
        k(   14) = (   0.0446329  -0.1030753   0.0000000), wk =   0.1111111
        k(   15) = (   0.0446329  -0.0773065   0.0000000), wk =   0.1111111
        k(   16) = (   0.0446329  -0.0515377   0.0000000), wk =   0.1111111
        k(   17) = (  -0.0669494   0.0386533   0.0000000), wk =   0.0555556
        k(   18) = (  -0.0669494   0.0644221   0.0000000), wk =   0.1111111
        k(   19) = (  -0.0669494   0.0901909   0.0000000), wk =   0.1111111
        k(   20) = (  -0.0669494  -0.0386533   0.0000000), wk =   0.0555556

     Largest allocated arrays     est. size (Mb)     dimensions
     Largest temporary arrays     est. size (Mb)     dimensions

     Initial potential from superposition of free atoms
     Check: negative starting charge=   -0.830994

     starting charge  136.61513, renormalised to  137.00000

     negative rho (up, down):  8.333E-01 0.000E+00

     *
     * You are using vdW-DF for exchange-correlation in this calculation.
     * Please cite the following three references that made this development
     * possible:
     *
     *   M. Dion, H. Rydberg, E. Schroder, D. C. Langreth, and
     *   B. I. Lundqvist, Phys. Rev. Lett. 92, 246401 (2004).
     *
     *   T. Thonhauser, V. R. Cooper, S. Li, A. Puzder, P. Hyldgaard, and
     *   D. C. Langreth, Phys. Rev. B 76, 125112 (2007).
     *
     *   G. Roman-Perez and J. M. Soler, Phys. Rev. Lett. 103, 096102 (2009).
     *
     *
     * If you are using vdW-DF2, please also cite:
     *
     *   K. Lee, E. D. Murray, L. Kong, B. I. Lundqvist, and
     *   D. C. Langreth, Phys. Rev. B 82, 081101(R) (2010).
     *
     *
     * If you are calculating the stress with vdW-DF, please also cite:
     *
     *   R. Sabatini, E. Kucukbenli, B. Kolb, T. Thonhauser, and
     *   S. de Gironcoli, J. Phys.: Condens. Matter 24, 424209 (2012).
     *

     Carrying out vdW-DF run using the following parameters:

     Nqs =      20    Nr_points =    1024   r_max =   100.000
     q_mesh =
               0.00001000     0.04494208     0.09755937     0.15916263
               0.23128650     0.31572767     0.41458969     0.53033537
               0.66584808     0.82450364     1.01025438     1.22772762
               1.48234092     1.78043706     2.12944203     2.53805004
               3.01644009     3.57652955     4.23227104     5.00000000

     Gradients computed in reciprocal space

     Adding external electric field

     Computed dipole along edir(3) :
        Dipole               -0.1355 Ry au,         -0.3444 Debye
        Dipole field         -0.0002 Ry au

        Potential amp.        0.0192 Ry
        Total length         48.0849 bohr

     Starting wfc are  245 randomized atomic wfcs

     Self-consistent Calculation

     iteration #  1     ecut=    36.75 Ry     beta=0.30
     Davidson diagonalization with overlap
     ethr =  1.00E-02,  avg # of iterations =  2.0

[...]

     total energy              =   -1258.26281025 Ry
     Harris-Foulkes estimate   =   -1261.69893088 Ry
     estimated scf accuracy    <       7.36017343 Ry

[...]

     iteration # 14     ecut=    36.75 Ry     beta=0.30
     Davidson diagonalization with overlap
     c_bands:  1 eigenvalues not converged
     ethr =  1.26E-06,  avg # of iterations = 13.9

[...]

     End of self-consistent calculation

          k = 0.0000 0.0000 0.0000 ( 31997 PWs)   bands (ev):

   -31.6838 -31.6621 -31.5344 -31.5282 -31.5279 -31.4371 -31.3479 -31.3479
   -31.2078 -31.1028 -31.0771 -31.0770 -15.7554 -15.7552 -15.7449 -15.6736
   -15.6736 -15.6117 -15.5936 -15.5129 -15.4954 -15.4953 -15.3079 -15.1390
   -15.0904 -15.0902 -14.9926 -14.9300 -14.9300 -14.9181 -14.9114 -14.9114
   -14.8220 -14.8220 -14.7742 -14.6673 -14.6673 -14.6093 -14.5829 -14.5828
   -14.5380 -14.5328 -14.5328 -14.4772 -14.4771 -14.4726 -14.2558 -14.2558
    -8.2582  -1.9037  -1.0099  -0.2726  -0.0008  -0.0008   0.0419   0.0464
     0.3184   0.3184   0.4331   0.4620   0.4620   0.6245   0.6322   0.6322
     0.9235   1.1987   1.1987   1.7486   1.7486   1.8780   1.9366   2.2336
     2.3878   2.3879   2.5421   2.5745   2.8231   2.8943

[...]

          k =-0.0669 0.0387 0.0000 ( 31970 PWs)   bands (ev):

[...]

     the Fermi energy is     1.6922 ev

!    total energy              =   -1260.86385436 Ry
     Harris-Foulkes estimate   =   -1260.86387282 Ry
     estimated scf accuracy    <       0.00000273 Ry

     The total energy is the sum of the following terms:

     one-electron contribution =   -4748.79596675 Ry
     hartree contribution      =    2387.10710010 Ry
     xc contribution           =    -612.82473853 Ry
     ewald contribution        =    1713.77672238 Ry
     electric field correction =       0.00015452 Ry
     smearing contrib. (-TS)   =      -0.12712608 Ry

     convergence has been achieved in  20 iterations

 BEEF-vdW xc energy contributions
           1 :   -542.882976250935
           2 :    499.375089888073
           3 :   -422.420892437983
           4 :    328.412032221663
           5 :   -234.777293540895
           6 :    155.348091404183
           7 :   -97.7285279233607
           8 :    62.9639119609924
           9 :   -47.0138777311577
          10 :    43.1397489322338
          11 :   -44.3022876126147
          12 :    44.8925798345120
          13 :   -41.5441445513439
          14 :    33.1763951844415
          15 :   -20.6099200154102
          16 :    6.00529591322197
          17 :    7.79624475335402
          18 :   -18.0393084363982
          19 :    22.8496632463706
          20 :   -21.8425266560190
          21 :    16.2899868049091
          22 :   -8.71876933199985
          23 :    2.02904244951344
          24 :    1.54480834161393
          25 :   -1.20551671598048
          26 :   -2.23962487696883
          27 :    6.87748050917924
          28 :   -10.6034641535028
          29 :    12.0152198903720
          30 :   -10.8948009600891
          31 :   -46.2584292488090
          32 :   -33.2024770120444

     Forces acting on atoms (Ry/au):

     negative rho (up, down):  5.841E-01 0.000E+00
     atom    1 type  1   force =    -0.00000890   -0.00000232    0.00359578
     atom    2 type  1   force =     0.00001629   -0.00230523    0.00397051
     atom    3 type  1   force =    -0.00198970    0.00115946    0.00397876
     atom    4 type  1   force =     0.00199059    0.00115051    0.00399357
     atom    5 type  1   force =    -0.00275999    0.00161943   -0.00417097
     atom    6 type  1   force =     0.00277206    0.00161122   -0.00417031
     atom    7 type  1   force =    -0.00002414   -0.00003170   -0.00429679
     atom    8 type  1   force =     0.00001295   -0.00320698   -0.00416442
     atom    9 type  1   force =     0.03402287    0.01964050    0.03080196
     atom   10 type  1   force =    -0.03402919    0.01962915    0.03080328
     atom   11 type  1   force =    -0.00000608   -0.03927736    0.03080398
     atom   12 type  1   force =     0.00000880    0.00000937    0.00536849
     atom   13 type  2   force =    -0.00000341    0.00000155   -0.09904219
     atom   14 type  3   force =    -0.00000217    0.00000241    0.00252836

     Total force =     0.131607     Total SCF correction =     0.000605

     entering subroutine stress ...

     negative rho (up, down):  5.841E-01 0.000E+00
          total   stress  (Ry/bohr**3)                   (kbar)     P=   -4.40
  -0.00001965   0.00000000  -0.00000000         -2.89      0.00     -0.00
   0.00000000  -0.00001964  -0.00000000          0.00     -2.89     -0.00
  -0.00000000  -0.00000000  -0.00005038         -0.00     -0.00     -7.41

     BFGS Geometry Optimization

     number of scf cycles    =   1
     number of bfgs steps    =   0

     energy   new            =   -1260.8638543615 Ry

     new trust radius        =       0.0990421934 bohr
     new conv_thr            =       0.0000099958 Ry

ATOMIC_POSITIONS (crystal)
La1      0.166666667   0.166666667   0.383173129    0   0   0
La1      0.666666667   0.166666667   0.383173129    0   0   0
La1      0.166666667   0.666666667   0.383173129    0   0   0
La1      0.666666667   0.666666667   0.383173129    0   0   0
La1      0.833333333   0.333333333   0.500000000    0   0   0
La1      0.333333333   0.333333333   0.500000000    0   0   0
La1      0.833333333   0.833333333   0.500000000    0   0   0
La1      0.333333333   0.833333333   0.500000000    0   0   0
La1      0.001607261   0.001606940   0.617451432
La1      0.496785815   0.001606012   0.617451458
La1      0.001606361   0.496786417   0.617451473
La1      0.500000240   0.500000767   0.616935726
C1       0.166666362   0.166666793   0.685303324
H1       0.166666414   0.166666864   0.729511879

     Writing output data file calc.save
     Check: negative starting charge=   -0.830994
     NEW-OLD atomic charge density approx. for the potential
     Check: negative starting charge=   -0.831749

[...]

     energy   old            =   -1260.8638543615 Ry
     energy   new            =   -1260.8776957475 Ry

     CASE: energy  _new < energy  _old

[...]

     iteration #  1     ecut=    36.75 Ry     beta=0.30
     Davidson diagonalization with overlap
     c_bands:  2 eigenvalues not converged
     ethr =  1.00E-06,  avg # of iterations = 17.6

[...]

     Threshold (ethr) on eigenvalues was too large:
     Diagonalizing with lowered threshold

     Davidson diagonalization with overlap
     ethr =  5.29E-08,  avg # of iterations =  6.0

[...]

     Threshold (ethr) on eigenvalues was too large:
     Diagonalizing with lowered threshold

     Davidson diagonalization with overlap
     ethr =  3.86E-08,  avg # of iterations =  8.3

[...]

     Total force =     0.006629     Total SCF correction =     0.000376

[...]

     Total force =     0.003373     Total SCF correction =     0.000409
     SCF correction compared to forces is large: reduce conv_thr to get better values

[...]

     number of scf cycles    =  25
     number of bfgs steps    =  24

     energy   old            =   -1260.9516106047 Ry
     energy   new            =   -1260.9516396848 Ry

     CASE: energy  _new < energy  _old

     new trust radius        =       0.0107489405 bohr
     new conv_thr            =       0.0000001000 Ry

ATOMIC_POSITIONS (crystal)
La1      0.166666667   0.166666667   0.383173129    0   0   0
La1      0.666666667   0.166666667   0.383173129    0   0   0
La1      0.166666667   0.666666667   0.383173129    0   0   0
La1      0.666666667   0.666666667   0.383173129    0   0   0
La1      0.833333333   0.333333333   0.500000000    0   0   0
La1      0.333333333   0.333333333   0.500000000    0   0   0
La1      0.833333333   0.833333333   0.500000000    0   0   0
La1      0.333333333   0.833333333   0.500000000    0   0   0
La1      0.000549412   0.000552247   0.623305019
La1      0.498890744   0.000559770   0.623305084
La1      0.000561590   0.498885738   0.623305119
La1      0.499998044   0.499994459   0.611387511
C1       0.166665026   0.166672857   0.662035331
H1       0.166664898   0.166668595   0.704741694

     Writing output data file calc.save
     Check: negative starting charge=   -0.831586
     NEW-OLD atomic charge density approx. for the potential
     Check: negative starting charge=   -0.831334

[...]

     Self-consistent Calculation

[...]

     total energy              =   -1260.95164928 Ry
     Harris-Foulkes estimate   =   -1260.95164932 Ry
     estimated scf accuracy    <       0.00000021 Ry

     iteration #  8     ecut=    36.75 Ry     beta=0.30
     Davidson diagonalization with overlap
     ethr =  1.56E-10,  avg # of iterations = 11.2

[...]

     negative rho (up, down):  5.798E-01 0.000E+00

     Adding external electric field

     Computed dipole along edir(3) :
        Dipole               -0.0364 Ry au,         -0.0925 Debye
        Dipole field         -0.0001 Ry au

        Potential amp.        0.0052 Ry
        Total length         48.0849 bohr

     End of self-consistent calculation

[...]

          k = 0.0446-0.0515 0.0000 ( 31991 PWs)   bands (ev):

[...]

          k =-0.0669-0.0387 0.0000 ( 31970 PWs)   bands (ev):

   -31.3668 -31.3603 -31.3259 -31.2988 -31.2929 -31.0635 -31.0272 -31.0052
   -30.9826 -30.9208 -30.8844 -30.8611 -15.3308 -15.3274 -15.2905 -15.2520
   -15.2005 -15.1994 -15.1420 -15.1232 -15.0798 -15.0119 -14.9958 -14.9553
   -14.9451 -14.9425 -14.8748 -14.8254 -14.8163 -14.8155 -14.7406 -14.6794
   -14.6172 -14.5986 -14.5796 -14.5658 -14.5596 -14.5072 -14.4894 -14.4668
   -14.4146 -14.4078 -14.3332 -14.3171 -14.3130 -14.2858 -14.1894 -14.1449
    -8.2272  -2.0239  -0.1804   0.3445   0.4386   0.4709   0.7968   0.9222
     1.0944   1.1318   1.1860   1.2134   1.2311   1.5039   1.5959   1.6320
     1.7587   1.8142   1.8477   1.8633   2.0050   2.1000   2.1371   2.1419
     2.1692   2.1980   2.3667   2.4015   2.4897   2.4961

     the Fermi energy is     1.9172 ev

!    total energy              =   -1260.95165001 Ry
     Harris-Foulkes estimate   =   -1260.95164931 Ry
     estimated scf accuracy    <       0.00000008 Ry

     The total energy is the sum of the following terms:

     one-electron contribution =   -4763.06237018 Ry
     hartree contribution      =    2395.32938787 Ry
     xc contribution           =    -613.13127675 Ry
     ewald contribution        =    1720.03426456 Ry
     electric field correction =       0.00000196 Ry
     smearing contrib. (-TS)   =      -0.12165747 Ry

     convergence has been achieved in   8 iterations

 BEEF-vdW xc energy contributions
           1 :   -543.184834993374
           2 :    499.737072909945
           3 :   -422.851558918782
           4 :    328.873904255438
           5 :   -235.207906015982
           6 :    155.669006773753
           7 :   -97.8599653162842
           8 :    62.8538707097377
           9 :   -46.6725157906579
          10 :    42.6550475866709
          11 :   -43.8171422255950
          12 :    44.5470457455324
          13 :   -41.4113664996536
          14 :    33.2302128644817
          15 :   -20.7479782899306
          16 :    6.11481986572824
          17 :    7.77463685367218
          18 :   -18.0888529099896
          19 :    22.9032603038787
          20 :   -21.8383692175689
          21 :    16.2206332074850
          22 :   -8.63920432920679
          23 :    2.01778932437696
          24 :    1.44387732305995
          25 :   -1.01876920842710
          26 :   -2.42886033942818
          27 :    6.98136835878677
          28 :   -10.5848142847320
          29 :    11.9092482806985
          30 :   -10.7848598819332
          31 :   -46.2784174797955
          32 :   -33.2366382638909

     Forces acting on atoms (Ry/au):

     negative rho (up, down):  5.798E-01 0.000E+00
     atom    1 type  1   force =    -0.00000009    0.00000035    0.00234630
     atom    2 type  1   force =    -0.00000005   -0.00254988    0.00489652
     atom    3 type  1   force =    -0.00220874    0.00127471    0.00489571
     atom    4 type  1   force =     0.00220863    0.00127454    0.00489597
     atom    5 type  1   force =    -0.00279640    0.00161274   -0.00238928
     atom    6 type  1   force =     0.00279638    0.00161325   -0.00239001
     atom    7 type  1   force =     0.00000033    0.00000013   -0.00961651
     atom    8 type  1   force =    -0.00000118   -0.00322810   -0.00238727
     atom    9 type  1   force =     0.00007322    0.00003974   -0.00000634
     atom   10 type  1   force =    -0.00006316    0.00002830   -0.00001068
     atom   11 type  1   force =    -0.00000549   -0.00005357   -0.00001309
     atom   12 type  1   force =     0.00000450    0.00000379   -0.00016229
     atom   13 type  2   force =    -0.00000753   -0.00001554   -0.00037589
     atom   14 type  3   force =    -0.00000041   -0.00000045    0.00031686

     Total force =     0.000532     Total SCF correction =     0.000463
     SCF correction compared to forces is large: reduce conv_thr to get better values

     entering subroutine stress ...

     negative rho (up, down):  5.798E-01 0.000E+00
          total   stress  (Ry/bohr**3)                   (kbar)     P=    0.08
   0.00000707  -0.00000000  -0.00000000          1.04     -0.00     -0.00
  -0.00000000   0.00000708  -0.00000000         -0.00      1.04     -0.00
  -0.00000000  -0.00000000  -0.00001250         -0.00     -0.00     -1.84

     bfgs converged in  26 scf cycles and  25 bfgs steps
     (criteria: energy <  1.0E+00, force <  1.9E-03)

     End of BFGS Geometry Optimization

     Final energy   =   -1260.9516500054 Ry
Begin final coordinates

ATOMIC_POSITIONS (crystal)
La1      0.166666667   0.166666667   0.383173129    0   0   0
La1      0.666666667   0.166666667   0.383173129    0   0   0
La1      0.166666667   0.666666667   0.383173129    0   0   0
La1      0.666666667   0.666666667   0.383173129    0   0   0
La1      0.833333333   0.333333333   0.500000000    0   0   0
La1      0.333333333   0.333333333   0.500000000    0   0   0
La1      0.833333333   0.833333333   0.500000000    0   0   0
La1      0.333333333   0.833333333   0.500000000    0   0   0
La1      0.000549412   0.000552247   0.623305019
La1      0.498890744   0.000559770   0.623305084
La1      0.000561590   0.498885738   0.623305119
La1      0.499998044   0.499994459   0.611387511
C1       0.166665026   0.166672857   0.662035331
H1       0.166664898   0.166668595   0.704741694
End final coordinates

     Writing output data file calc.save

     General routines

     Parallel routines

   This run was terminated on:   8: 0:28  19Apr2018

   JOB DONE.
Job  /afs/slac/g/suncat/bin/suncat-tsmpirun -x LD_LIBRARY_PATH -wdir /scratch/qe321483_8NICo pw.x -npool 4 -in pw.inp

TID   HOST_NAME   COMMAND_LINE            STATUS            TERMINATION_TIME
00000 suncat0126 pw.x -npool 4 -i  Done                     04/19/2018 08:00:28
00001 suncat0126 pw.x -npool 4 -i  Done                     04/19/2018 08:00:28
00002 suncat0126 pw.x -npool 4 -i  Done                     04/19/2018 08:00:28
00003 suncat0126 pw.x -npool 4 -i  Done                     04/19/2018 08:00:28
00004 suncat0126 pw.x -npool 4 -i  Done                     04/19/2018 08:00:28
00005 suncat0126 pw.x -npool 4 -i  Done                     04/19/2018 08:00:28
00006 suncat0126 pw.x -npool 4 -i  Done                     04/19/2018 08:00:28
00007 suncat0126 pw.x -npool 4 -i  Done                     04/19/2018 08:00:28
00008 suncat0105 pw.x -npool 4 -i  Done                     04/19/2018 08:00:28
00009 suncat0105 pw.x -npool 4 -i  Done                     04/19/2018 08:00:28
00010 suncat0105 pw.x -npool 4 -i  Done                     04/19/2018 08:00:28
00011 suncat0105 pw.x -npool 4 -i  Done                     04/19/2018 08:00:28
00012 suncat0105 pw.x -npool 4 -i  Done                     04/19/2018 08:00:28
00013 suncat0105 pw.x -npool 4 -i  Done                     04/19/2018 08:00:28
00014 suncat0105 pw.x -npool 4 -i  Done                     04/19/2018 08:00:28
00015 suncat0105 pw.x -npool 4 -i  Done                     04/19/2018 08:00:28
00016 suncat0258 pw.x -npool 4 -i  Done                     04/19/2018 08:00:28
00017 suncat0258 pw.x -npool 4 -i  Done                     04/19/2018 08:00:28
00018 suncat0258 pw.x -npool 4 -i  Done                     04/19/2018 08:00:28
00019 suncat0258 pw.x -npool 4 -i  Done                     04/19/2018 08:00:28
00020 suncat0258 pw.x -npool 4 -i  Done                     04/19/2018 08:00:28
00021 suncat0258 pw.x -npool 4 -i  Done                     04/19/2018 08:00:28
00022 suncat0258 pw.x -npool 4 -i  Done                     04/19/2018 08:00:28
00023 suncat0258 pw.x -npool 4 -i  Done                     04/19/2018 08:00:28
00024 suncat0252 pw.x -npool 4 -i  Done                     04/19/2018 08:00:28
00025 suncat0252 pw.x -npool 4 -i  Done                     04/19/2018 08:00:28
00026 suncat0252 pw.x -npool 4 -i  Done                     04/19/2018 08:00:28
00027 suncat0252 pw.x -npool 4 -i  Done                     04/19/2018 08:00:28
00028 suncat0252 pw.x -npool 4 -i  Done                     04/19/2018 08:00:28
00029 suncat0252 pw.x -npool 4 -i  Done                     04/19/2018 08:00:28
00030 suncat0252 pw.x -npool 4 -i  Done                     04/19/2018 08:00:28
00031 suncat0252 pw.x -npool 4 -i  Done                     04/19/2018 08:00:28