     Program PWSCF v.5.1rc2 (svn rev. 11289) starts on 16Apr2018 at 11:52: 9

     Current dimensions of program PWSCF are:
     Max number of different atomic species (ntypx) = 10
     Max number of k-points (npk) =  40000
     Max angular momentum in pseudopotentials (lmaxx) =  3
     Presently stress not available with electric field

     IMPORTANT: XC functional enforced from input :
     Exchange-correlation      = BEEF-VDW ( 1  4 27 13 2)
     Any further DFT definition will be discarded
     Please, verify this is what you really want

     Subspace diagonalization in iterative solution of the eigenvalue problem:
     a serial algorithm will be used

     bravais-lattice index     =            0
     lattice parameter (alat)  =       1.8897  a.u.
     unit-cell volume          =    5144.9564 (a.u.)^3
     number of atoms/cell      =           14
     number of atomic types    =            3
     number of electrons       =       139.00
     number of Kohn-Sham states=           79
     kinetic-energy cutoff     =      36.7493  Ry
     charge density cutoff     =     367.4932  Ry
     convergence threshold     =      1.0E-05
     mixing beta               =       0.3000
     number of iterations used =           10  plain     mixing
     Exchange-correlation      = BEEF-VDW ( 1  4 27 13 2)
     nstep                     =           50

     celldm(1)=   1.889726  celldm(2)=   0.000000  celldm(3)=   0.000000
     celldm(4)=   0.000000  celldm(5)=   0.000000  celldm(6)=   0.000000

     crystal axes: (cart. coord. in units of alat)
               a(1) = (   5.950946   0.000000   0.000000 )
               a(2) = (   2.975473   5.153671   0.000000 )
               a(3) = (   0.000000   0.000000  24.858927 )

     reciprocal axes: (cart. coord. in units 2 pi/alat)
               b(1) = (  0.168040 -0.097018  0.000000 )
               b(2) = (  0.000000  0.194036  0.000000 )
               b(3) = (  0.000000  0.000000  0.040227 )

     PseudoPot. # 1 for Au read from file:
     /u/if/mamunm/psp/gbrv1.5pbe/Au.UPF
     MD5 check sum: 9d7f43293ad2c663164586bc4b293ffc
     Pseudo is Ultrasoft + core correction, Zval = 11.0
     Generated by new atomic code, or converted to UPF format
     Using radial grid of  985 points,  7 beta functions with:
                l(1) =   0
                l(2) =   0
                l(3) =   1
                l(4) =   1
                l(5) =   2
                l(6) =   2
                l(7) =   3
     Q(r) pseudized with  6 coefficients,  rinner =    1.900   1.900   1.900
                                                       1.900   1.900   1.900
                                                       1.900

     PseudoPot. # 2 for O  read from file:
     /u/if/mamunm/psp/gbrv1.5pbe/O.UPF
     MD5 check sum: 734c27235a0248c51dbae37a1fbe46ec
     Pseudo is Ultrasoft + core correction, Zval =  6.0
     Generated by new atomic code, or converted to UPF format
     Using radial grid of  737 points,  5 beta functions with:
                l(1) =   0
                l(2) =   0
                l(3) =   1
                l(4) =   1
                l(5) =   2
     Q(r) pseudized with  8 coefficients,  rinner =    0.900   0.900   0.900
                                                       0.900   0.900

     PseudoPot. # 3 for H  read from file:
     /u/if/mamunm/psp/gbrv1.5pbe/H.UPF
     MD5 check sum: 761ae9a214b05c3daf00ab9f6b793d6f
     Pseudo is Ultrasoft, Zval =  1.0
     Generated by new atomic code, or converted to UPF format
     Using radial grid of  615 points,  2 beta functions with:
                l(1) =   0
                l(2) =   0
     Q(r) pseudized with  8 coefficients,  rinner =    0.700

     vdW kernel table read from file vdW_kernel_table
     MD5 check sum: 095c7af220d748ca6e76c0b4c6cfb241

     atomic species   valence    mass     pseudopotential
        Au1           11.00   196.96657     Au( 1.00)
        O1             6.00    15.99900     O ( 1.00)
        H1             1.00     1.00800     H ( 1.00)

     No symmetry found

   Cartesian axes

     site n.     atom                  positions (alat units)
         1           Au1 tau(   1) = (   1.4877366   0.8589451  10.0000000  )
         2           Au1 tau(   2) = (   4.4632098   0.8589451  10.0000000  )
         3           Au1 tau(   3) = (   2.9754732   3.4357805  10.0000000  )
         4           Au1 tau(   4) = (   5.9509464   3.4357805  10.0000000  )
         5           Au1 tau(   5) = (   5.9509464   1.7178903  12.4294637  )
         6           Au1 tau(   6) = (   2.9754732   1.7178903  12.4294637  )
         7           Au1 tau(   7) = (   7.4386830   4.2947256  12.4294637  )
         8           Au1 tau(   8) = (   4.4632098   4.2947256  12.4294637  )
         9           Au1 tau(   9) = (   0.0000000   0.0000000  14.8589274  )
        10           Au1 tau(  10) = (   2.9754732   0.0000000  14.8589274  )
        11           Au1 tau(  11) = (   1.4877366   2.5768354  14.8589274  )
        12           Au1 tau(  12) = (   4.4632098   2.5768354  14.8589274  )
        13           O1  tau(  13) = (   2.9754732   1.7178903  16.1719274  )
        14           H1  tau(  14) = (   2.9754732   1.7178903  17.1219274  )

     number of k points=    20  Fermi-Dirac smearing, width (Ry)=  0.0110
                       cart. coord. in units 2pi/alat
        k(    1) = (   0.0000000   0.0000000   0.0000000), wk =   0.0555556
        k(    2) = (   0.0000000   0.0323394   0.0000000), wk =   0.1111111
        k(    3) = (   0.0000000   0.0646788   0.0000000), wk =   0.1111111
        k(    4) = (   0.0000000  -0.0970182   0.0000000), wk =   0.0555556
        k(    5) = (   0.0280067  -0.0161697   0.0000000), wk =   0.1111111
        k(    6) = (   0.0280067   0.0161697   0.0000000), wk =   0.1111111
        k(    7) = (   0.0280067   0.0485091   0.0000000), wk =   0.1111111
        k(    8) = (   0.0280067  -0.1131879   0.0000000), wk =   0.1111111
        k(    9) = (   0.0280067  -0.0808485   0.0000000), wk =   0.1111111
        k(   10) = (   0.0280067  -0.0485091   0.0000000), wk =   0.1111111
        k(   11) = (   0.0560135  -0.0323394   0.0000000), wk =   0.1111111
        k(   12) = (   0.0560135   0.0000000   0.0000000), wk =   0.1111111
        k(   13) = (   0.0560135   0.0323394   0.0000000), wk =   0.1111111
        k(   14) = (   0.0560135  -0.1293576   0.0000000), wk =   0.1111111
        k(   15) = (   0.0560135  -0.0970182   0.0000000), wk =   0.1111111
        k(   16) = (   0.0560135  -0.0646788   0.0000000), wk =   0.1111111
        k(   17) = (  -0.0840202   0.0485091   0.0000000), wk =   0.0555556
        k(   18) = (  -0.0840202   0.0808485   0.0000000), wk =   0.1111111
        k(   19) = (  -0.0840202   0.1131879   0.0000000), wk =   0.1111111
        k(   20) = (  -0.0840202  -0.0485091   0.0000000), wk =   0.0555556

     Largest allocated arrays     est. size (Mb)     dimensions
     Largest temporary arrays     est. size (Mb)     dimensions

     Check: negative/imaginary core charge=   -0.000002    0.000000

     Initial potential from superposition of free atoms
     Check: negative starting charge=   -0.000248

     starting charge  138.99852, renormalised to  139.00000

     negative rho (up, down):  2.476E-04 0.000E+00

     *
     * You are using vdW-DF for exchange-correlation in this calculation.
     * Please cite the following three references that made this development
     * possible:
     *
     *   M. Dion, H. Rydberg, E. Schroder, D. C. Langreth, and
     *   B. I. Lundqvist, Phys. Rev. Lett. 92, 246401 (2004).
     *
     *   T. Thonhauser, V. R. Cooper, S. Li, A. Puzder, P. Hyldgaard, and
     *   D. C. Langreth, Phys. Rev. B 76, 125112 (2007).
     *
     *   G. Roman-Perez and J. M. Soler, Phys. Rev. Lett. 103, 096102 (2009).
     *
     *
     * If you are using vdW-DF2, please also cite:
     *
     *   K. Lee, E. D. Murray, L. Kong, B. I. Lundqvist, and
     *   D. C. Langreth, Phys. Rev. B 82, 081101(R) (2010).
     *
     *
     * If you are calculating the stress with vdW-DF, please also cite:
     *
     *   R. Sabatini, E. Kucukbenli, B. Kolb, T. Thonhauser, and
     *   S. de Gironcoli, J. Phys.: Condens. Matter 24, 424209 (2012).
     *

     Carrying out vdW-DF run using the following parameters:

     Nqs =      20    Nr_points =    1024   r_max =   100.000
     q_mesh =
               0.00001000     0.04494208     0.09755937     0.15916263
               0.23128650     0.31572767     0.41458969     0.53033537
               0.66584808     0.82450364     1.01025438     1.22772762
               1.48234092     1.78043706     2.12944203     2.53805004
               3.01644009     3.57652955     4.23227104     5.00000000

     Gradients computed in reciprocal space

     Adding external electric field

     Computed dipole along edir(3) :
        Dipole               -0.0005 Ry au,         -0.0012 Debye
        Dipole field         -0.0000 Ry au

        Potential amp.        0.0001 Ry
        Total length         45.8022 bohr

     Starting wfc are  113 randomized atomic wfcs

     Self-consistent Calculation

     iteration #  1     ecut=    36.75 Ry     beta=0.30
     Davidson diagonalization with overlap
     ethr =  1.00E-02,  avg # of iterations =  2.4

     Threshold (ethr) on eigenvalues was too large:
     Diagonalizing with lowered threshold

     Davidson diagonalization with overlap
     ethr =  6.73E-04,  avg # of iterations =  2.0

[...]

     total energy              =   -1433.96004185 Ry
     Harris-Foulkes estimate   =   -1434.35453827 Ry
     estimated scf accuracy    <       0.97971616 Ry

[...]

     End of self-consistent calculation

          k = 0.0000 0.0000 0.0000 ( 19315 PWs)   bands (ev):

   -19.8740  -8.6118  -7.2367  -5.7689  -5.6010  -5.6010  -5.5052  -5.3286
    -5.2441  -5.2441  -4.9804  -4.9804  -4.9594  -4.8562  -4.7852  -4.7852
    -4.4004  -4.4004  -4.3885  -3.6649  -3.6649  -3.6454  -3.5757  -3.5757
    -3.5102  -3.4455  -3.4455  -3.2166  -3.2166  -3.1809  -3.1175  -3.1175
    -3.1150  -2.9689  -2.9689  -2.8847  -2.5645  -2.4964  -2.4964  -2.2104
    -2.2033  -2.2033  -1.9815  -1.9815  -1.9009  -1.9009  -1.6983  -1.6983
    -1.6072  -1.4903  -1.4339  -1.4339  -1.3863  -1.3863  -1.3436  -1.2488
    -1.2488  -1.2476  -1.0558  -1.0421  -1.0421  -0.9526  -0.9492  -0.9492
    -0.5896  -0.5896  -0.4756   1.2965   1.2965   1.3190   1.5759   2.0028
     2.0028   2.1574   2.2901   2.2901   3.0714   3.8905   4.0130

[...]

          k =-0.0840 0.0485 0.0000 ( 19380 PWs)   bands (ev):

[...]

     the Fermi energy is     0.7184 ev

!    total energy              =   -1434.14414420 Ry
     Harris-Foulkes estimate   =   -1434.14417162 Ry
     estimated scf accuracy    <       0.00000380 Ry

     The total energy is the sum of the following terms:

     one-electron contribution =   -8455.11423626 Ry
     hartree contribution      =    4328.92849245 Ry
     xc contribution           =    -776.68368600 Ry
     ewald contribution        =    3468.75107319 Ry
     electric field correction =       0.00033087 Ry
     smearing contrib. (-TS)   =      -0.02611846 Ry

     convergence has been achieved in  10 iterations

 BEEF-vdW xc energy contributions
           1 :   -694.006466576662
           2 :    644.819495999276
           3 :   -556.960978989902
           4 :    447.586527241816
           5 :   -335.130941892572
           6 :    234.552342713924
           7 :   -154.532585960126
           8 :    97.0639098476709
           9 :   -59.1080706529458
          10 :    35.3002643698603
          11 :   -20.4840426861866
          12 :    11.1476991092363
          13 :   -5.53734588511293
          14 :    2.85549190021243
          15 :   -2.30291820250056
          16 :    2.58098982318234
          17 :   -2.07412550525123
          18 :  -0.507927616390134
          19 :    5.46944956437585
          20 :   -11.8861671046586
          21 :    17.9572744096339
          22 :   -21.8045655110659
          23 :    22.3137529374897
          24 :   -19.6046859871021
          25 :    14.9146705814310
          26 :   -9.98932827761655
          27 :    6.30533886697185
          28 :   -4.51260525032717
          29 :    4.33490910247406
          30 :   -4.92541943390302
          31 :   -55.0247665326493
          32 :   -40.0496063057775

     Forces acting on atoms (Ry/au):

     negative rho (up, down):  4.280E-04 0.000E+00
     atom    1 type  1   force =     0.00116460    0.00066936   -0.00286977
     atom    2 type  1   force =    -0.00116309    0.00067241   -0.00286187
     atom    3 type  1   force =     0.00000630   -0.00134418   -0.00286864
     atom    4 type  1   force =    -0.00000081    0.00000359   -0.00620202
     atom    5 type  1   force =     0.00000219    0.00281928    0.00756123
     atom    6 type  1   force =     0.00000009   -0.00000397   -0.00266641
     atom    7 type  1   force =    -0.00244601   -0.00141566    0.00756304
     atom    8 type  1   force =     0.00243920   -0.00140379    0.00756018
     atom    9 type  1   force =     0.00000136    0.00000228   -0.00628374
     atom   10 type  1   force =    -0.00000642   -0.07799400   -0.03571521
     atom   11 type  1   force =    -0.06754136    0.03900135   -0.03571905
     atom   12 type  1   force =     0.06754411    0.03899384   -0.03572409
     atom   13 type  2   force =    -0.00000014   -0.00000002    0.04961726
     atom   14 type  3   force =    -0.00000004   -0.00000049    0.05860908

     Total force =     0.167370     Total SCF correction =     0.001753

     entering subroutine stress ...

     negative rho (up, down):  4.280E-04 0.000E+00
          total   stress  (Ry/bohr**3)                   (kbar)     P=    1.79
  -0.00002414   0.00000000  -0.00000000         -3.55      0.00     -0.00
   0.00000000  -0.00002414   0.00000000          0.00     -3.55      0.00
  -0.00000000   0.00000000   0.00008470         -0.00      0.00     12.46

     BFGS Geometry Optimization

     number of scf cycles    =   1
     number of bfgs steps    =   0

     energy   new            =   -1434.1441442001 Ry

     new trust radius        =       0.0857842515 bohr
     new conv_thr            =       0.0000099958 Ry

ATOMIC_POSITIONS (crystal)
Au1      0.166666667   0.166666667   0.402269971    0   0   0
Au1      0.666666667   0.166666667   0.402269971    0   0   0
Au1      0.166666667   0.666666667   0.402269971    0   0   0
Au1      0.666666667   0.666666667   0.402269971    0   0   0
Au1      0.833333333   0.333333333   0.500000000    0   0   0
Au1      0.333333333   0.333333333   0.500000000    0   0   0
Au1      0.833333333   0.833333333   0.500000000    0   0   0
Au1      0.333333333   0.833333333   0.500000000    0   0   0
Au1      0.000000003   0.000000235   0.597596266
Au1      0.504003628  -0.008008398   0.596969752
Au1     -0.008008317   0.504004646   0.596969670
Au1      0.504004302   0.504003875   0.596969563
O1       0.333333322   0.333333331   0.651604289
H1       0.333333356   0.333333283   0.690011347

     Writing output data file calc.save
     Check: negative starting charge=   -0.000248
     NEW-OLD atomic charge density approx. for the potential

     Check: negative/imaginary core charge=   -0.000002    0.000000
     Check: negative starting charge=   -0.000246

[...]

     energy   old            =   -1434.1441442001 Ry
     energy   new            =   -1434.1663974249 Ry

     CASE: energy  _new < energy  _old

[...]

     Total force =     0.013831     Total SCF correction =     0.000736

[...]

     Total force =     0.005500     Total SCF correction =     0.000925
     SCF correction compared to forces is large: reduce conv_thr to get better values

[...]

     number of scf cycles    =  15
     number of bfgs steps    =  14

     energy   old            =   -1434.1848110159 Ry
     energy   new            =   -1434.1848668078 Ry

     CASE: energy  _new < energy  _old

     new trust radius        =       0.0030376708 bohr
     new conv_thr            =       0.0000001000 Ry

ATOMIC_POSITIONS (crystal)
Au1      0.166666667   0.166666667   0.402269971    0   0   0
Au1      0.666666667   0.166666667   0.402269971    0   0   0
Au1      0.166666667   0.666666667   0.402269971    0   0   0
Au1      0.666666667   0.666666667   0.402269971    0   0   0
Au1      0.833333333   0.333333333   0.500000000    0   0   0
Au1      0.333333333   0.333333333   0.500000000    0   0   0
Au1      0.833333333   0.833333333   0.500000000    0   0   0
Au1      0.333333333   0.833333333   0.500000000    0   0   0
Au1      0.000000162  -0.000000073   0.596218066
Au1      0.506882807  -0.013766351   0.597356827
Au1     -0.013766281   0.506883234   0.597356759
Au1      0.506883404   0.506883759   0.597357037
O1       0.333333137   0.333333508   0.661370600
H1       0.333333502   0.333333185   0.700641598

     Writing output data file calc.save
     Check: negative starting charge=   -0.000238
     NEW-OLD atomic charge density approx. for the potential

     Check: negative/imaginary core charge=   -0.000002    0.000000
     Check: negative starting charge=   -0.000238

[...]

     Self-consistent Calculation

[...]

     Threshold (ethr) on eigenvalues was too large:
     Diagonalizing with lowered threshold

     Davidson diagonalization with overlap
     ethr =  3.20E-08,  avg # of iterations =  2.9

[...]

     total energy              =   -1434.18487467 Ry
     Harris-Foulkes estimate   =   -1434.18487464 Ry
     estimated scf accuracy    <       0.00000011 Ry

     iteration #  6     ecut=    36.75 Ry     beta=0.30
     Davidson diagonalization with overlap
     ethr =  7.79E-11,  avg # of iterations =  3.0

[...]

     negative rho (up, down):  4.430E-04 0.000E+00

     Adding external electric field

     Computed dipole along edir(3) :
        Dipole                0.1809 Ry au,          0.4598 Debye
        Dipole field          0.0004 Ry au

        Potential amp.       -0.0405 Ry
        Total length         45.8022 bohr

     End of self-consistent calculation

[...]

          k = 0.0560-0.0647 0.0000 ( 19376 PWs)   bands (ev):

[...]

          k =-0.0840-0.0485 0.0000 ( 19380 PWs)   bands (ev):

   -18.3230  -6.8259  -6.2274  -6.0608  -5.1464  -5.0842  -4.9547  -4.9142
    -4.9065  -4.8681  -4.8580  -4.7659  -4.5574  -4.5283  -4.3945  -4.3770
    -4.2154  -4.2126  -4.1700  -4.0851  -4.0431  -4.0202  -3.8892  -3.8743
    -3.6675  -3.6499  -3.5181  -3.5060  -3.4002  -3.3493  -3.3060  -3.2891
    -3.2753  -3.2514  -3.2058  -3.1644  -3.1158  -3.1101  -3.0761  -3.0705
    -2.9959  -2.9166  -2.8360  -2.7979  -2.7179  -2.6369  -2.5740  -2.5304
    -2.4904  -2.4588  -2.4087  -2.3587  -2.3486  -2.2416  -2.1495  -2.0707
    -2.0045  -1.9719  -1.8911  -1.6868  -1.6258  -1.6076  -1.5805  -1.4578
    -1.4099  -1.1459  -0.7995  -0.7636   0.4187   0.4745   0.8407   0.9854
     1.7246   1.8415   3.5276   3.8017   3.9985   4.1521   5.3033

     the Fermi energy is     0.4239 ev

!    total energy              =   -1434.18487469 Ry
     Harris-Foulkes estimate   =   -1434.18487432 Ry
     estimated scf accuracy    <       0.00000003 Ry

     The total energy is the sum of the following terms:

     one-electron contribution =   -8397.83708214 Ry
     hartree contribution      =    4299.54368695 Ry
     xc contribution           =    -776.53432018 Ry
     ewald contribution        =    3440.66929722 Ry
     electric field correction =       0.00007992 Ry
     smearing contrib. (-TS)   =      -0.02653646 Ry

     convergence has been achieved in   6 iterations

 BEEF-vdW xc energy contributions
           1 :   -693.844383270442
           2 :    644.584059111399
           3 :   -556.656382364629
           4 :    447.295240200731
           5 :   -334.954123890640
           6 :    234.543247016091
           7 :   -154.662774692610
           8 :    97.2407856389077
           9 :   -59.2276667982835
          10 :    35.3029354725620
          11 :   -20.3819480013806
          12 :    11.0100578673757
          13 :   -5.44458354786741
          14 :    2.85194735537607
          15 :   -2.37559713524524
          16 :    2.67461399728609
          17 :   -2.13007366707666
          18 :  -0.514789998767242
          19 :    5.51901214679810
          20 :   -11.9298693177684
          21 :    17.9516092407955
          22 :   -21.7405748464123
          23 :    22.2236441100919
          24 :   -19.5418392977391
          25 :    14.9195932586731
          26 :   -10.0619005827944
          27 :    6.40190511138053
          28 :   -4.57080440518837
          29 :    4.31178784251426
          30 :   -4.82531772439665
          31 :   -55.0151259296973
          32 :   -40.0250774264157

     Forces acting on atoms (Ry/au):

     negative rho (up, down):  4.430E-04 0.000E+00
     atom    1 type  1   force =     0.00093280    0.00053854   -0.00272374
     atom    2 type  1   force =    -0.00093281    0.00053856   -0.00272360
     atom    3 type  1   force =     0.00000002   -0.00107711   -0.00272364
     atom    4 type  1   force =     0.00000001   -0.00000001   -0.00579147
     atom    5 type  1   force =    -0.00000017    0.00153218    0.00255209
     atom    6 type  1   force =     0.00000023    0.00000000    0.00583794
     atom    7 type  1   force =    -0.00132689   -0.00076599    0.00255192
     atom    8 type  1   force =     0.00132689   -0.00076620    0.00255200
     atom    9 type  1   force =    -0.00000042    0.00000021    0.00036398
     atom   10 type  1   force =     0.00000052    0.00022095    0.00015246
     atom   11 type  1   force =     0.00019100   -0.00011013    0.00015273
     atom   12 type  1   force =    -0.00019141   -0.00011094    0.00015217
     atom   13 type  2   force =     0.00000024   -0.00000008   -0.00089941
     atom   14 type  3   force =    -0.00000002    0.00000002    0.00054657

     Total force =     0.001207     Total SCF correction =     0.000828
     SCF correction compared to forces is large: reduce conv_thr to get better values

     entering subroutine stress ...

     negative rho (up, down):  4.430E-04 0.000E+00
          total   stress  (Ry/bohr**3)                   (kbar)     P=   -6.53
  -0.00007181   0.00000000   0.00000000        -10.56      0.00      0.00
   0.00000000  -0.00007181  -0.00000000          0.00    -10.56     -0.00
   0.00000000  -0.00000000   0.00001036          0.00     -0.00      1.52

     bfgs converged in  16 scf cycles and  15 bfgs steps
     (criteria: energy <  1.0E+00, force <  1.9E-03)

     End of BFGS Geometry Optimization

     Final energy   =   -1434.1848746875 Ry
Begin final coordinates

ATOMIC_POSITIONS (crystal)
Au1      0.166666667   0.166666667   0.402269971    0   0   0
Au1      0.666666667   0.166666667   0.402269971    0   0   0
Au1      0.166666667   0.666666667   0.402269971    0   0   0
Au1      0.666666667   0.666666667   0.402269971    0   0   0
Au1      0.833333333   0.333333333   0.500000000    0   0   0
Au1      0.333333333   0.333333333   0.500000000    0   0   0
Au1      0.833333333   0.833333333   0.500000000    0   0   0
Au1      0.333333333   0.833333333   0.500000000    0   0   0
Au1      0.000000162  -0.000000073   0.596218066
Au1      0.506882807  -0.013766351   0.597356827
Au1     -0.013766281   0.506883234   0.597356759
Au1      0.506883404   0.506883759   0.597357037
O1       0.333333137   0.333333508   0.661370600
H1       0.333333502   0.333333185   0.700641598
End final coordinates

     Writing output data file calc.save

     General routines

     Parallel routines

   This run was terminated on:  13:42:52  16Apr2018

   JOB DONE.
Job  /afs/slac/g/suncat/bin/suncat-tsmpirun -x LD_LIBRARY_PATH -wdir /scratch/qe119799_EaBjd pw.x -npool 4 -in pw.inp

TID   HOST_NAME   COMMAND_LINE            STATUS            TERMINATION_TIME
00000 suncat0179 pw.x -npool 4 -i  Done                     04/16/2018 13:42:52
00001 suncat0179 pw.x -npool 4 -i  Done                     04/16/2018 13:42:52
00002 suncat0179 pw.x -npool 4 -i  Done                     04/16/2018 13:42:52
00003 suncat0179 pw.x -npool 4 -i  Done                     04/16/2018 13:42:52
00004 suncat0179 pw.x -npool 4 -i  Done                     04/16/2018 13:42:52
00005 suncat0179 pw.x -npool 4 -i  Done                     04/16/2018 13:42:52
00006 suncat0179 pw.x -npool 4 -i  Done                     04/16/2018 13:42:52
00007 suncat0179 pw.x -npool 4 -i  Done                     04/16/2018 13:42:52
00008 suncat0173 pw.x -npool 4 -i  Done                     04/16/2018 13:42:52
00009 suncat0173 pw.x -npool 4 -i  Done                     04/16/2018 13:42:52
00010 suncat0173 pw.x -npool 4 -i  Done                     04/16/2018 13:42:52
00011 suncat0173 pw.x -npool 4 -i  Done                     04/16/2018 13:42:52
00012 suncat0173 pw.x -npool 4 -i  Done                     04/16/2018 13:42:52
00013 suncat0173 pw.x -npool 4 -i  Done                     04/16/2018 13:42:52
00014 suncat0173 pw.x -npool 4 -i  Done                     04/16/2018 13:42:52
00015 suncat0173 pw.x -npool 4 -i  Done                     04/16/2018 13:42:52
00016 suncat0167 pw.x -npool 4 -i  Done                     04/16/2018 13:42:52
00017 suncat0167 pw.x -npool 4 -i  Done                     04/16/2018 13:42:52
00018 suncat0167 pw.x -npool 4 -i  Done                     04/16/2018 13:42:52
00019 suncat0167 pw.x -npool 4 -i  Done                     04/16/2018 13:42:52
00020 suncat0167 pw.x -npool 4 -i  Done                     04/16/2018 13:42:52
00021 suncat0167 pw.x -npool 4 -i  Done                     04/16/2018 13:42:52
00022 suncat0167 pw.x -npool 4 -i  Done                     04/16/2018 13:42:52
00023 suncat0167 pw.x -npool 4 -i  Done                     04/16/2018 13:42:52
00024 suncat0162 pw.x -npool 4 -i  Done                     04/16/2018 13:42:52
00025 suncat0162 pw.x -npool 4 -i  Done                     04/16/2018 13:42:52
00026 suncat0162 pw.x -npool 4 -i  Done                     04/16/2018 13:42:52
00027 suncat0162 pw.x -npool 4 -i  Done                     04/16/2018 13:42:52
00028 suncat0162 pw.x -npool 4 -i  Done                     04/16/2018 13:42:52
00029 suncat0162 pw.x -npool 4 -i  Done                     04/16/2018 13:42:52
00030 suncat0162 pw.x -npool 4 -i  Done                     04/16/2018 13:42:52
00031 suncat0162 pw.x -npool 4 -i  Done                     04/16/2018 13:42:52