     Program PWSCF v.5.1rc2 (svn rev. 11289) starts on 25Apr2018 at  6:56:50

     Current dimensions of program PWSCF are:
     Max number of different atomic species (ntypx) = 10
     Max number of k-points (npk) =  40000
     Max angular momentum in pseudopotentials (lmaxx) =  3
     Presently stress not available with electric field

     IMPORTANT: XC functional enforced from input :
     Exchange-correlation      = BEEF-VDW ( 1  4 27 13 2)
     Any further DFT definition will be discarded
     Please, verify this is what you really want

     Subspace diagonalization in iterative solution of the eigenvalue problem:
     a serial algorithm will be used

     bravais-lattice index     =            0
     lattice parameter (alat)  =       1.8897  a.u.
     unit-cell volume          =    6082.7792 (a.u.)^3
     number of atoms/cell      =           14
     number of atomic types    =            3
     number of electrons       =       149.00
     number of Kohn-Sham states=           84
     kinetic-energy cutoff     =      36.7493  Ry
     charge density cutoff     =     367.4932  Ry
     convergence threshold     =      1.0E-05
     mixing beta               =       0.3000
     number of iterations used =           10  plain     mixing
     Exchange-correlation      = BEEF-VDW ( 1  4 27 13 2)
     nstep                     =           50

     celldm(1)=   1.889726  celldm(2)=   0.000000  celldm(3)=   0.000000
     celldm(4)=   0.000000  celldm(5)=   0.000000  celldm(6)=   0.000000

     crystal axes: (cart. coord. in units of alat)
               a(1) = (   6.421223   0.000000   0.000000 )
               a(2) = (   3.210611   5.560942   0.000000 )
               a(3) = (   0.000000   0.000000  25.242906 )

     reciprocal axes: (cart. coord. in units 2 pi/alat)
               b(1) = (  0.155734 -0.089913  0.000000 )
               b(2) = (  0.000000  0.179826  0.000000 )
               b(3) = (  0.000000  0.000000  0.039615 )

     PseudoPot. # 1 for Zr read from file:
     /u/if/mamunm/psp/gbrv1.5pbe/Zr.UPF
     MD5 check sum: 5db81b1e868ab7776c4564c113de050b
     Pseudo is Ultrasoft + core correction, Zval = 12.0
     Generated by new atomic code, or converted to UPF format
     Using radial grid of  887 points,  6 beta functions with:
                l(1) =   0
                l(2) =   0
                l(3) =   1
                l(4) =   1
                l(5) =   2
                l(6) =   2
     Q(r) pseudized with  6 coefficients,  rinner =    1.200   1.200   1.200
                                                       1.200   1.200

     PseudoPot. # 2 for C  read from file:
     /u/if/mamunm/psp/gbrv1.5pbe/C.UPF
     MD5 check sum: d1aef80898a10debaa0f26306b886e00
     Pseudo is Ultrasoft + core correction, Zval =  4.0
     Generated by new atomic code, or converted to UPF format
     Using radial grid of  721 points,  4 beta functions with:
                l(1) =   0
                l(2) =   0
                l(3) =   1
                l(4) =   1
     Q(r) pseudized with  8 coefficients,  rinner =    1.100   1.100   1.100

     PseudoPot. # 3 for H  read from file:
     /u/if/mamunm/psp/gbrv1.5pbe/H.UPF
     MD5 check sum: 761ae9a214b05c3daf00ab9f6b793d6f
     Pseudo is Ultrasoft, Zval =  1.0
     Generated by new atomic code, or converted to UPF format
     Using radial grid of  615 points,  2 beta functions with:
                l(1) =   0
                l(2) =   0
     Q(r) pseudized with  8 coefficients,  rinner =    0.700

     vdW kernel table read from file vdW_kernel_table
     MD5 check sum: 095c7af220d748ca6e76c0b4c6cfb241

     atomic species   valence    mass     pseudopotential
        Zr1           12.00    91.22400     Zr( 1.00)
        C1             4.00    12.01100     C ( 1.00)
        H1             1.00     1.00800     H ( 1.00)

     No symmetry found

   Cartesian axes

     site n.     atom                  positions (alat units)
         1           Zr1 tau(   1) = (   1.6053057   0.9268237  10.0000000  )
         2           Zr1 tau(   2) = (   4.8159170   0.9268237  10.0000000  )
         3           Zr1 tau(   3) = (   3.2106113   3.7072946  10.0000000  )
         4           Zr1 tau(   4) = (   6.4212227   3.7072946  10.0000000  )
         5           Zr1 tau(   5) = (   6.4212227   1.8536473  12.6214532  )
         6           Zr1 tau(   6) = (   3.2106113   1.8536473  12.6214532  )
         7           Zr1 tau(   7) = (   8.0265283   4.6341183  12.6214532  )
         8           Zr1 tau(   8) = (   4.8159170   4.6341183  12.6214532  )
         9           Zr1 tau(   9) = (   0.0000000   0.0000000  15.2429064  )
        10           Zr1 tau(  10) = (   3.2106113   0.0000000  15.2429064  )
        11           Zr1 tau(  11) = (   1.6053057   2.7804710  15.2429064  )
        12           Zr1 tau(  12) = (   4.8159170   2.7804710  15.2429064  )
        13           C1  tau(  13) = (   3.2106113   1.8536473  16.8744064  )
        14           H1  tau(  14) = (   3.2106113   1.8536473  17.9744064  )

     number of k points=    20  Fermi-Dirac smearing, width (Ry)=  0.0110
                       cart. coord. in units 2pi/alat
        k(    1) = (   0.0000000   0.0000000   0.0000000), wk =   0.0555556
        k(    2) = (   0.0000000   0.0299709   0.0000000), wk =   0.1111111
        k(    3) = (   0.0000000   0.0599419   0.0000000), wk =   0.1111111
        k(    4) = (   0.0000000  -0.0899128   0.0000000), wk =   0.0555556
        k(    5) = (   0.0259556  -0.0149855   0.0000000), wk =   0.1111111
        k(    6) = (   0.0259556   0.0149855   0.0000000), wk =   0.1111111
        k(    7) = (   0.0259556   0.0449564   0.0000000), wk =   0.1111111
        k(    8) = (   0.0259556  -0.1048983   0.0000000), wk =   0.1111111
        k(    9) = (   0.0259556  -0.0749274   0.0000000), wk =   0.1111111
        k(   10) = (   0.0259556  -0.0449564   0.0000000), wk =   0.1111111
        k(   11) = (   0.0519112  -0.0299709   0.0000000), wk =   0.1111111
        k(   12) = (   0.0519112   0.0000000   0.0000000), wk =   0.1111111
        k(   13) = (   0.0519112   0.0299709   0.0000000), wk =   0.1111111
        k(   14) = (   0.0519112  -0.1198838   0.0000000), wk =   0.1111111
        k(   15) = (   0.0519112  -0.0899128   0.0000000), wk =   0.1111111
        k(   16) = (   0.0519112  -0.0599419   0.0000000), wk =   0.1111111
        k(   17) = (  -0.0778668   0.0449564   0.0000000), wk =   0.0555556
        k(   18) = (  -0.0778668   0.0749274   0.0000000), wk =   0.1111111
        k(   19) = (  -0.0778668   0.1048983   0.0000000), wk =   0.1111111
        k(   20) = (  -0.0778668  -0.0449564   0.0000000), wk =   0.0555556

     Largest allocated arrays     est. size (Mb)     dimensions
     Largest temporary arrays     est. size (Mb)     dimensions

     Initial potential from superposition of free atoms
     Check: negative starting charge=   -0.729045

     starting charge  148.97416, renormalised to  149.00000

     negative rho (up, down):  7.292E-01 0.000E+00

     *
     * You are using vdW-DF for exchange-correlation in this calculation.
     * Please cite the following three references that made this development
     * possible:
     *
     *   M. Dion, H. Rydberg, E. Schroder, D. C. Langreth, and
     *   B. I. Lundqvist, Phys. Rev. Lett. 92, 246401 (2004).
     *
     *   T. Thonhauser, V. R. Cooper, S. Li, A. Puzder, P. Hyldgaard, and
     *   D. C. Langreth, Phys. Rev. B 76, 125112 (2007).
     *
     *   G. Roman-Perez and J. M. Soler, Phys. Rev. Lett. 103, 096102 (2009).
     *
     *
     * If you are using vdW-DF2, please also cite:
     *
     *   K. Lee, E. D. Murray, L. Kong, B. I. Lundqvist, and
     *   D. C. Langreth, Phys. Rev. B 82, 081101(R) (2010).
     *
     *
     * If you are calculating the stress with vdW-DF, please also cite:
     *
     *   R. Sabatini, E. Kucukbenli, B. Kolb, T. Thonhauser, and
     *   S. de Gironcoli, J. Phys.: Condens. Matter 24, 424209 (2012).
     *

     Carrying out vdW-DF run using the following parameters:

     Nqs =      20    Nr_points =    1024   r_max =   100.000
     q_mesh =
               0.00001000     0.04494208     0.09755937     0.15916263
               0.23128650     0.31572767     0.41458969     0.53033537
               0.66584808     0.82450364     1.01025438     1.22772762
               1.48234092     1.78043706     2.12944203     2.53805004
               3.01644009     3.57652955     4.23227104     5.00000000

     Gradients computed in reciprocal space

     Adding external electric field

     Computed dipole along edir(3) :
        Dipole               -0.0069 Ry au,         -0.0176 Debye
        Dipole field         -0.0000 Ry au

        Potential amp.        0.0013 Ry
        Total length         46.5096 bohr

     Starting wfc are  161 randomized atomic wfcs

     Self-consistent Calculation

     iteration #  1     ecut=    36.75 Ry     beta=0.30
     Davidson diagonalization with overlap
     ethr =  1.00E-02,  avg # of iterations =  2.0

[...]

     total energy              =   -1206.47427591 Ry
     Harris-Foulkes estimate   =   -1210.29140565 Ry
     estimated scf accuracy    <       8.16792030 Ry

[...]

     End of self-consistent calculation

          k = 0.0000 0.0000 0.0000 ( 22923 PWs)   bands (ev):

   -47.8464 -47.8085 -47.7192 -47.7184 -47.7183 -47.6879 -47.6294 -47.6294
   -47.4948 -47.4204 -47.4203 -47.3926 -26.1009 -26.1009 -26.0875 -26.0510
   -26.0510 -26.0426 -25.9907 -25.9450 -25.9079 -25.9079 -25.8353 -25.7162
   -25.6777 -25.6777 -25.5872 -25.5573 -25.5573 -25.5446 -25.5427 -25.5427
   -25.5053 -25.5053 -25.4791 -25.3780 -25.3780 -25.3338 -25.3338 -25.3273
   -25.3004 -25.3004 -25.2892 -25.2371 -25.2187 -25.2187 -25.0762 -25.0762
    -8.7803  -3.6092  -2.9763  -2.0498  -1.4331  -1.1047  -1.1047  -1.0862
    -1.0862  -1.0003  -0.8492  -0.6236  -0.6236  -0.3467  -0.3467  -0.3391
    -0.1000   0.2597   0.2597   0.8241   0.9732   0.9732   1.3913   1.7213
     1.7213   1.7469   2.0050   2.0496   2.2712   2.3209   2.3209   2.4337
     2.4337   2.4511   2.6357   2.6358

[...]

          k =-0.0779 0.0450 0.0000 ( 22880 PWs)   bands (ev):

[...]

     the Fermi energy is     1.4677 ev

!    total energy              =   -1209.64644845 Ry
     Harris-Foulkes estimate   =   -1209.64644820 Ry
     estimated scf accuracy    <       0.00000220 Ry

     The total energy is the sum of the following terms:

     one-electron contribution =   -8397.96098214 Ry
     hartree contribution      =    4191.61193448 Ry
     xc contribution           =    -224.82662199 Ry
     ewald contribution        =    3221.64190538 Ry
     electric field correction =       0.00000625 Ry
     smearing contrib. (-TS)   =      -0.11269043 Ry

     convergence has been achieved in  18 iterations

 BEEF-vdW xc energy contributions
           1 :   -192.498841164388
           2 :    174.171422373056
           3 :   -143.318353078382
           4 :    108.648721813478
           5 :   -77.9875180810586
           6 :    55.5563045688475
           7 :   -41.3362165886482
           8 :    32.4125367322325
           9 :   -25.2575519413601
          10 :    17.6542887630116
          11 :   -9.41566863301162
          12 :    1.83515400544613
          13 :    3.53910014960366
          14 :   -5.99742631000584
          15 :    6.05670980275417
          16 :   -5.05318623660523
          17 :    4.30378365242674
          18 :   -4.39999317549183
          19 :    5.04279917307306
          20 :   -5.44402309679234
          21 :    4.96877260643311
          22 :   -3.58211416098001
          23 :    1.84069927116838
          24 :  -0.493962255833281
          25 :   1.147895201995652E-003
          26 :  -0.285088992719494
          27 :   0.850344421901838
          28 :   -1.14674770932172
          29 :   0.920764709682970
          30 :  -0.335929702906782
          31 :   -22.3806735297005
          32 :   -16.6791334901457

     Forces acting on atoms (Ry/au):

     negative rho (up, down):  7.500E-01 0.000E+00
     atom    1 type  1   force =     0.00014920    0.00008724    0.01384447
     atom    2 type  1   force =    -0.00014935    0.00008410    0.01384557
     atom    3 type  1   force =    -0.00000177   -0.00017171    0.01384503
     atom    4 type  1   force =     0.00000241   -0.00000011    0.01544043
     atom    5 type  1   force =    -0.00000039   -0.00048155   -0.00375458
     atom    6 type  1   force =     0.00000107    0.00000040   -0.00700176
     atom    7 type  1   force =     0.00041635    0.00024177   -0.00375404
     atom    8 type  1   force =    -0.00041670    0.00023922   -0.00375569
     atom    9 type  1   force =    -0.00000244   -0.00000157   -0.01333546
     atom   10 type  1   force =     0.00000132    0.04469623    0.02802533
     atom   11 type  1   force =     0.03870966   -0.02234624    0.02802540
     atom   12 type  1   force =    -0.03871006   -0.02234852    0.02802358
     atom   13 type  2   force =     0.00000084    0.00000079   -0.10410460
     atom   14 type  3   force =    -0.00000014   -0.00000005   -0.00534367

     Total force =     0.139262     Total SCF correction =     0.006178

     entering subroutine stress ...

     negative rho (up, down):  7.500E-01 0.000E+00
          total   stress  (Ry/bohr**3)                   (kbar)     P=  -14.85
  -0.00008239  -0.00000000   0.00000000        -12.12     -0.00      0.00
  -0.00000000  -0.00008239  -0.00000000         -0.00    -12.12     -0.00
   0.00000000  -0.00000000  -0.00013809          0.00     -0.00    -20.31

     BFGS Geometry Optimization

     number of scf cycles    =   1
     number of bfgs steps    =   0

     energy   new            =   -1209.6464484537 Ry

     new trust radius        =       0.1041046040 bohr
     new conv_thr            =       0.0000099958 Ry

ATOMIC_POSITIONS (crystal)
Zr1      0.166666667   0.166666667   0.396150897    0   0   0
Zr1      0.666666667   0.166666667   0.396150897    0   0   0
Zr1      0.166666667   0.666666667   0.396150897    0   0   0
Zr1      0.666666667   0.666666667   0.396150897    0   0   0
Zr1      0.833333333   0.333333333   0.500000000    0   0   0
Zr1      0.333333333   0.333333333   0.500000000    0   0   0
Zr1      0.833333333   0.833333333   0.500000000    0   0   0
Zr1      0.333333333   0.833333333   0.500000000    0   0   0
Zr1     -0.000000127  -0.000000150   0.603569546
Zr1      0.497873470   0.004253277   0.604436609
Zr1      0.004253319   0.497873540   0.604436610
Zr1      0.497873217   0.497873323   0.604436572
C1       0.333333365   0.333333409   0.666298735
H1       0.333333324   0.333333329   0.711945699

     Writing output data file calc.save
     Check: negative starting charge=   -0.729045
     NEW-OLD atomic charge density approx. for the potential
     Check: negative starting charge=   -0.729532

[...]

     energy   old            =   -1209.6464484537 Ry
     energy   new            =   -1209.6612497894 Ry

     CASE: energy  _new < energy  _old

[...]

     iteration #  1     ecut=    36.75 Ry     beta=0.30
     Davidson diagonalization with overlap
     c_bands:  1 eigenvalues not converged
     ethr =  1.00E-06,  avg # of iterations = 15.6

[...]

     Total force =     0.007934     Total SCF correction =     0.000383

[...]

     number of scf cycles    =  15
     number of bfgs steps    =  14

     energy   old            =   -1209.6958738251 Ry
     energy   new            =   -1209.6960135282 Ry

     CASE: energy  _new < energy  _old

     new trust radius        =       0.0115846952 bohr
     new conv_thr            =       0.0000001000 Ry

ATOMIC_POSITIONS (crystal)
Zr1      0.166666667   0.166666667   0.396150897    0   0   0
Zr1      0.666666667   0.166666667   0.396150897    0   0   0
Zr1      0.166666667   0.666666667   0.396150897    0   0   0
Zr1      0.666666667   0.666666667   0.396150897    0   0   0
Zr1      0.833333333   0.333333333   0.500000000    0   0   0
Zr1      0.333333333   0.333333333   0.500000000    0   0   0
Zr1      0.833333333   0.833333333   0.500000000    0   0   0
Zr1      0.333333333   0.833333333   0.500000000    0   0   0
Zr1     -0.000000768  -0.000000276   0.597515035
Zr1      0.495812956   0.008375604   0.602401575
Zr1      0.008375572   0.495812823   0.602401593
Zr1      0.495811627   0.495811326   0.602401676
C1       0.333333610   0.333333670   0.653517474
H1       0.333333675   0.333333566   0.697254807

     Writing output data file calc.save
     Check: negative starting charge=   -0.729415
     NEW-OLD atomic charge density approx. for the potential
     Check: negative starting charge=   -0.729351

[...]

     Self-consistent Calculation

[...]

     Threshold (ethr) on eigenvalues was too large:
     Diagonalizing with lowered threshold

     Davidson diagonalization with overlap
     ethr =  4.79E-08,  avg # of iterations =  4.2

[...]

     total energy              =   -1209.69604141 Ry
     Harris-Foulkes estimate   =   -1209.69604142 Ry
     estimated scf accuracy    <       0.00000011 Ry

     iteration # 10     ecut=    36.75 Ry     beta=0.30
     Davidson diagonalization with overlap
     ethr =  7.58E-11,  avg # of iterations =  3.1

[...]

     negative rho (up, down):  7.502E-01 0.000E+00

     Adding external electric field

     Computed dipole along edir(3) :
        Dipole                0.0747 Ry au,          0.1898 Debye
        Dipole field          0.0002 Ry au

        Potential amp.       -0.0144 Ry
        Total length         46.5096 bohr

     End of self-consistent calculation

[...]

          k = 0.0519-0.0599 0.0000 ( 22856 PWs)   bands (ev):

[...]

          k =-0.0779-0.0450 0.0000 ( 22880 PWs)   bands (ev):

   -47.6494 -47.6466 -47.6041 -47.6016 -47.5253 -47.4345 -47.3980 -47.3801
   -47.2853 -47.2734 -47.2471 -47.2117 -25.8446 -25.8406 -25.8003 -25.7704
   -25.7171 -25.7160 -25.7026 -25.6845 -25.6754 -25.6334 -25.6208 -25.5879
   -25.5848 -25.5663 -25.5318 -25.5168 -25.4903 -25.4857 -25.3999 -25.3871
   -25.3464 -25.3441 -25.3050 -25.2828 -25.2165 -25.2069 -25.1989 -25.1893
   -25.1661 -25.1471 -25.1190 -25.1005 -25.0923 -25.0788 -24.9786 -24.9666
    -8.9550  -3.1496  -1.9971  -1.8494  -1.1904  -0.8477  -0.5669  -0.5161
    -0.2753  -0.2445  -0.1640  -0.1545  -0.0067   0.3086   0.5433   0.5653
     0.6316   0.6472   0.6857   0.8109   1.0594   1.1088   1.1218   1.1645
     1.2469   1.3172   1.4577   1.5275   1.6163   1.6174   1.6656   1.8376
     1.8625   1.8911   2.0672   2.3037

     the Fermi energy is     1.5791 ev

!    total energy              =   -1209.69604140 Ry
     Harris-Foulkes estimate   =   -1209.69604160 Ry
     estimated scf accuracy    <       0.00000005 Ry

     The total energy is the sum of the following terms:

     one-electron contribution =   -8540.48485460 Ry
     hartree contribution      =    4263.75143215 Ry
     xc contribution           =    -225.17509506 Ry
     ewald contribution        =    3292.32450447 Ry
     electric field correction =       0.00001152 Ry
     smearing contrib. (-TS)   =      -0.11203987 Ry

     convergence has been achieved in  10 iterations

 BEEF-vdW xc energy contributions
           1 :   -192.843304657281
           2 :    174.599627740397
           3 :   -143.838077420222
           4 :    109.179752693304
           5 :   -78.4074309553673
           6 :    55.7691300962534
           7 :   -41.3264794038517
           8 :    32.2526500176355
           9 :   -25.0644641559476
          10 :    17.5220160735447
          11 :   -9.36607858676996
          12 :    1.81742632246414
          13 :    3.60279070299521
          14 :   -6.15156933964658
          15 :    6.27680372656187
          16 :   -5.25812571735270
          17 :    4.40642698473468
          18 :   -4.35984379749823
          19 :    4.88819894284404
          20 :   -5.25349124144833
          21 :    4.82515188123091
          22 :   -3.52895987486386
          23 :    1.86650716794983
          24 :  -0.550820368251379
          25 :   4.258935047522527E-002
          26 :  -0.296448447658463
          27 :   0.852028604421093
          28 :   -1.17096771921348
          29 :   0.981061469083585
          30 :  -0.412572822303446
          31 :   -22.4052169216650
          32 :   -16.7211449076887

     Forces acting on atoms (Ry/au):

     negative rho (up, down):  7.502E-01 0.000E+00
     atom    1 type  1   force =    -0.00028478   -0.00016443    0.01235753
     atom    2 type  1   force =     0.00028480   -0.00016437    0.01235748
     atom    3 type  1   force =     0.00000007    0.00032884    0.01235748
     atom    4 type  1   force =    -0.00000006   -0.00000001    0.01299842
     atom    5 type  1   force =    -0.00000002    0.00326007   -0.01153026
     atom    6 type  1   force =    -0.00000017   -0.00000012   -0.01561790
     atom    7 type  1   force =    -0.00282333   -0.00163008   -0.01153108
     atom    8 type  1   force =     0.00282320   -0.00163002   -0.01153010
     atom    9 type  1   force =     0.00000110    0.00000022   -0.00022772
     atom   10 type  1   force =    -0.00000134   -0.00013333    0.00000142
     atom   11 type  1   force =    -0.00011603    0.00006575    0.00000132
     atom   12 type  1   force =     0.00011802    0.00006845    0.00000008
     atom   13 type  2   force =    -0.00000125   -0.00000084    0.00112311
     atom   14 type  3   force =    -0.00000021   -0.00000011   -0.00075979

     Total force =     0.001395     Total SCF correction =     0.000675
     SCF correction compared to forces is large: reduce conv_thr to get better values

     entering subroutine stress ...

     negative rho (up, down):  7.502E-01 0.000E+00
          total   stress  (Ry/bohr**3)                   (kbar)     P=   -4.85
  -0.00002863   0.00000000  -0.00000000         -4.21      0.00     -0.00
   0.00000000  -0.00002863  -0.00000000          0.00     -4.21     -0.00
  -0.00000000  -0.00000000  -0.00004163         -0.00     -0.00     -6.12

     bfgs converged in  16 scf cycles and  15 bfgs steps
     (criteria: energy <  1.0E+00, force <  1.9E-03)

     End of BFGS Geometry Optimization

     Final energy   =   -1209.6960413953 Ry
Begin final coordinates

ATOMIC_POSITIONS (crystal)
Zr1      0.166666667   0.166666667   0.396150897    0   0   0
Zr1      0.666666667   0.166666667   0.396150897    0   0   0
Zr1      0.166666667   0.666666667   0.396150897    0   0   0
Zr1      0.666666667   0.666666667   0.396150897    0   0   0
Zr1      0.833333333   0.333333333   0.500000000    0   0   0
Zr1      0.333333333   0.333333333   0.500000000    0   0   0
Zr1      0.833333333   0.833333333   0.500000000    0   0   0
Zr1      0.333333333   0.833333333   0.500000000    0   0   0
Zr1     -0.000000768  -0.000000276   0.597515035
Zr1      0.495812956   0.008375604   0.602401575
Zr1      0.008375572   0.495812823   0.602401593
Zr1      0.495811627   0.495811326   0.602401676
C1       0.333333610   0.333333670   0.653517474
H1       0.333333675   0.333333566   0.697254807
End final coordinates

     Writing output data file calc.save

     General routines

     Parallel routines

   This run was terminated on:   9: 1:23  25Apr2018

   JOB DONE.
Job  /afs/slac/g/suncat/bin/suncat-tsmpirun -x LD_LIBRARY_PATH -wdir /scratch/qe384155_GIQTE pw.x -npool 4 -in pw.inp

TID   HOST_NAME   COMMAND_LINE            STATUS            TERMINATION_TIME
00000 suncat0246 pw.x -npool 4 -i  Done                     04/25/2018 09:01:23
00001 suncat0246 pw.x -npool 4 -i  Done                     04/25/2018 09:01:23
00002 suncat0246 pw.x -npool 4 -i  Done                     04/25/2018 09:01:23
00003 suncat0246 pw.x -npool 4 -i  Done                     04/25/2018 09:01:23
00004 suncat0246 pw.x -npool 4 -i  Done                     04/25/2018 09:01:23
00005 suncat0246 pw.x -npool 4 -i  Done                     04/25/2018 09:01:23
00006 suncat0246 pw.x -npool 4 -i  Done                     04/25/2018 09:01:23
00007 suncat0246 pw.x -npool 4 -i  Done                     04/25/2018 09:01:23
00008 suncat0223 pw.x -npool 4 -i  Done                     04/25/2018 09:01:23
00009 suncat0223 pw.x -npool 4 -i  Done                     04/25/2018 09:01:23
00010 suncat0223 pw.x -npool 4 -i  Done                     04/25/2018 09:01:23
00011 suncat0223 pw.x -npool 4 -i  Done                     04/25/2018 09:01:23
00012 suncat0223 pw.x -npool 4 -i  Done                     04/25/2018 09:01:23
00013 suncat0223 pw.x -npool 4 -i  Done                     04/25/2018 09:01:23
00014 suncat0223 pw.x -npool 4 -i  Done                     04/25/2018 09:01:23
00015 suncat0223 pw.x -npool 4 -i  Done                     04/25/2018 09:01:23
00016 suncat0221 pw.x -npool 4 -i  Done                     04/25/2018 09:01:23
00017 suncat0221 pw.x -npool 4 -i  Done                     04/25/2018 09:01:23
00018 suncat0221 pw.x -npool 4 -i  Done                     04/25/2018 09:01:23
00019 suncat0221 pw.x -npool 4 -i  Done                     04/25/2018 09:01:23
00020 suncat0221 pw.x -npool 4 -i  Done                     04/25/2018 09:01:23
00021 suncat0221 pw.x -npool 4 -i  Done                     04/25/2018 09:01:23
00022 suncat0221 pw.x -npool 4 -i  Done                     04/25/2018 09:01:23
00023 suncat0221 pw.x -npool 4 -i  Done                     04/25/2018 09:01:23
00024 suncat0212 pw.x -npool 4 -i  Done                     04/25/2018 09:01:23
00025 suncat0212 pw.x -npool 4 -i  Done                     04/25/2018 09:01:23
00026 suncat0212 pw.x -npool 4 -i  Done                     04/25/2018 09:01:23
00027 suncat0212 pw.x -npool 4 -i  Done                     04/25/2018 09:01:23
00028 suncat0212 pw.x -npool 4 -i  Done                     04/25/2018 09:01:23
00029 suncat0212 pw.x -npool 4 -i  Done                     04/25/2018 09:01:23
00030 suncat0212 pw.x -npool 4 -i  Done                     04/25/2018 09:01:23
00031 suncat0212 pw.x -npool 4 -i  Done                     04/25/2018 09:01:23