     Program PWSCF v.5.1rc2 starts on  9May2018 at  8:40:52

     Current dimensions of program PWSCF are:
     Max number of different atomic species (ntypx) = 10
     Max number of k-points (npk) =  40000
     Max angular momentum in pseudopotentials (lmaxx) =  3
     Presently stress not available with electric field

     IMPORTANT: XC functional enforced from input :
     Exchange-correlation      = BEEF-VDW ( 1  4 27 13 2)
     Any further DFT definition will be discarded
     Please, verify this is what you really want

     Generating pointlists ...
     new r_m :   0.4125 (alat units)  0.7795 (a.u.) for type    1
     new r_m :   0.4125 (alat units)  0.7795 (a.u.) for type    2
     new r_m :   0.4125 (alat units)  0.7795 (a.u.) for type    3

     bravais-lattice index     =            0
     lattice parameter (alat)  =       1.8897  a.u.
     unit-cell volume          =    3747.1846 (a.u.)^3
     number of atoms/cell      =           16
     number of atomic types    =            3
     number of electrons       =       187.00
     number of Kohn-Sham states=          103
     kinetic-energy cutoff     =      36.7493  Ry
     charge density cutoff     =     367.4932  Ry
     convergence threshold     =      1.0E-05
     mixing beta               =       0.3000
     number of iterations used =           10  plain     mixing
     Exchange-correlation      = BEEF-VDW ( 1  4 27 13 2)
     nstep                     =           50

     celldm(1)=   1.889726  celldm(2)=   0.000000  celldm(3)=   0.000000
     celldm(4)=   0.000000  celldm(5)=   0.000000  celldm(6)=   0.000000

     crystal axes: (cart. coord. in units of alat)
               a(1) = (   5.147050   0.000000   0.000000 )
               a(2) = (   2.573525   4.457476   0.000000 )
               a(3) = (   0.000000   0.000000  24.202549 )

     reciprocal axes: (cart. coord. in units 2 pi/alat)
               b(1) = (  0.194286 -0.112171 -0.000000 )
               b(2) = (  0.000000  0.224342  0.000000 )
               b(3) = (  0.000000  0.000000  0.041318 )

     PseudoPot. # 1 for Mn read from file:
     /home/users/winther/src/pseudo/Mn.UPF
     MD5 check sum: 82ef2b46521d7a7d9e736dc3972e4928
     Pseudo is Ultrasoft + core correction, Zval = 15.0
     Generated by new atomic code, or converted to UPF format
     Using radial grid of  859 points,  6 beta functions with:
                l(1) =   0
                l(2) =   0
                l(3) =   1
                l(4) =   1
                l(5) =   2
                l(6) =   2
     Q(r) pseudized with  8 coefficients,  rinner =    0.950   0.950   0.950
                                                       0.950   0.950

     PseudoPot. # 2 for C  read from file:
     /home/users/winther/src/pseudo/C.UPF
     MD5 check sum: d1aef80898a10debaa0f26306b886e00
     Pseudo is Ultrasoft + core correction, Zval =  4.0
     Generated by new atomic code, or converted to UPF format
     Using radial grid of  721 points,  4 beta functions with:
                l(1) =   0
                l(2) =   0
                l(3) =   1
                l(4) =   1
     Q(r) pseudized with  8 coefficients,  rinner =    1.100   1.100   1.100

     PseudoPot. # 3 for H  read from file:
     /home/users/winther/src/pseudo/H.UPF
     MD5 check sum: 761ae9a214b05c3daf00ab9f6b793d6f
     Pseudo is Ultrasoft, Zval =  1.0
     Generated by new atomic code, or converted to UPF format
     Using radial grid of  615 points,  2 beta functions with:
                l(1) =   0
                l(2) =   0
     Q(r) pseudized with  8 coefficients,  rinner =    0.700

     vdW kernel table read from file vdW_kernel_table
     MD5 check sum: 095c7af220d748ca6e76c0b4c6cfb241

     atomic species   valence    mass     pseudopotential
        Mn1           15.00    54.93804     Mn( 1.00)
        C1             4.00    12.01100     C ( 1.00)
        H1             1.00     1.00800     H ( 1.00)

     Starting magnetic structure
     atomic species   magnetization
        Mn1          0.193
        C1           0.000
        H1           0.000

     No symmetry found

   Cartesian axes

     site n.     atom                  positions (alat units)
         1           Mn1 tau(   1) = (   0.0000000   0.0000000  10.0000000  )
         2           Mn1 tau(   2) = (   1.2867625   2.2287380  10.0000000  )
         3           Mn1 tau(   3) = (   2.5735249   0.0000000  10.0000000  )
         4           Mn1 tau(   4) = (   3.8602874   2.2287380  10.0000000  )
         5           Mn1 tau(   5) = (   5.1470499   2.9716506  12.1012743  )
         6           Mn1 tau(   6) = (   3.8602874   0.7429127  12.1012743  )
         7           Mn1 tau(   7) = (   2.5735249   2.9716506  12.1012743  )
         8           Mn1 tau(   8) = (   1.2867625   0.7429127  12.1012743  )
         9           Mn1 tau(   9) = (   2.5729805   1.4859362  14.2013976  )
        10           Mn1 tau(  10) = (   3.8606631   3.7139626  14.2022569  )
        11           Mn1 tau(  11) = (   5.1464482   1.4876776  14.2025351  )
        12           Mn1 tau(  12) = (   6.4327546   3.7153858  14.2013278  )
        13           C1  tau(  13) = (   5.1472587   2.9696910  15.6026944  )
        14           H1  tau(  14) = (   5.6105703   3.7748891  16.1391940  )
        15           H1  tau(  15) = (   4.6836106   2.1688495  16.1375441  )
        16           H1  tau(  16) = (   2.5728051   1.4853647  15.8186057  )

     number of k points=    40  Fermi-Dirac smearing, width (Ry)=  0.0110
                       cart. coord. in units 2pi/alat
        k(    1) = (   0.0000000   0.0000000   0.0000000), wk =   0.0277778
        k(    2) = (   0.0000000   0.0373904   0.0000000), wk =   0.0555556
        k(    3) = (   0.0000000   0.0747807   0.0000000), wk =   0.0555556
        k(    4) = (   0.0000000  -0.1121711   0.0000000), wk =   0.0277778
        k(    5) = (   0.0323810  -0.0186952  -0.0000000), wk =   0.0555556
        k(    6) = (   0.0323810   0.0186952  -0.0000000), wk =   0.0555556
        k(    7) = (   0.0323810   0.0560856  -0.0000000), wk =   0.0555556
        k(    8) = (   0.0323810  -0.1308663  -0.0000000), wk =   0.0555556
        k(    9) = (   0.0323810  -0.0934759  -0.0000000), wk =   0.0555556
        k(   10) = (   0.0323810  -0.0560856  -0.0000000), wk =   0.0555556
        k(   11) = (   0.0647620  -0.0373904  -0.0000000), wk =   0.0555556
        k(   12) = (   0.0647620  -0.0000000  -0.0000000), wk =   0.0555556
        k(   13) = (   0.0647620   0.0373904  -0.0000000), wk =   0.0555556
        k(   14) = (   0.0647620  -0.1495615  -0.0000000), wk =   0.0555556
        k(   15) = (   0.0647620  -0.1121711  -0.0000000), wk =   0.0555556
        k(   16) = (   0.0647620  -0.0747807  -0.0000000), wk =   0.0555556
        k(   17) = (  -0.0971430   0.0560856   0.0000000), wk =   0.0277778
        k(   18) = (  -0.0971430   0.0934759   0.0000000), wk =   0.0555556
        k(   19) = (  -0.0971430   0.1308663   0.0000000), wk =   0.0555556
        k(   20) = (  -0.0971430  -0.0560856   0.0000000), wk =   0.0277778
        k(   21) = (   0.0000000   0.0000000   0.0000000), wk =   0.0277778
        k(   22) = (   0.0000000   0.0373904   0.0000000), wk =   0.0555556
        k(   23) = (   0.0000000   0.0747807   0.0000000), wk =   0.0555556
        k(   24) = (   0.0000000  -0.1121711   0.0000000), wk =   0.0277778
        k(   25) = (   0.0323810  -0.0186952  -0.0000000), wk =   0.0555556
        k(   26) = (   0.0323810   0.0186952  -0.0000000), wk =   0.0555556
        k(   27) = (   0.0323810   0.0560856  -0.0000000), wk =   0.0555556
        k(   28) = (   0.0323810  -0.1308663  -0.0000000), wk =   0.0555556
        k(   29) = (   0.0323810  -0.0934759  -0.0000000), wk =   0.0555556
        k(   30) = (   0.0323810  -0.0560856  -0.0000000), wk =   0.0555556
        k(   31) = (   0.0647620  -0.0373904  -0.0000000), wk =   0.0555556
        k(   32) = (   0.0647620  -0.0000000  -0.0000000), wk =   0.0555556
        k(   33) = (   0.0647620   0.0373904  -0.0000000), wk =   0.0555556
        k(   34) = (   0.0647620  -0.1495615  -0.0000000), wk =   0.0555556
        k(   35) = (   0.0647620  -0.1121711  -0.0000000), wk =   0.0555556
        k(   36) = (   0.0647620  -0.0747807  -0.0000000), wk =   0.0555556
        k(   37) = (  -0.0971430   0.0560856   0.0000000), wk =   0.0277778
        k(   38) = (  -0.0971430   0.0934759   0.0000000), wk =   0.0555556
        k(   39) = (  -0.0971430   0.1308663   0.0000000), wk =   0.0555556
        k(   40) = (  -0.0971430  -0.0560856   0.0000000), wk =   0.0277778

     Largest allocated arrays     est. size (Mb)     dimensions
     Largest temporary arrays     est. size (Mb)     dimensions

     Check: negative/imaginary core charge=   -0.000010    0.000000

     Initial potential from superposition of free atoms
     Check: negative starting charge=(component1):   -0.001561
     Check: negative starting charge=(component2):   -0.001039

     starting charge  180.99891, renormalised to  187.00000

     negative rho (up, down):  1.613E-03 1.074E-03

     *
     * You are using vdW-DF for exchange-correlation in this calculation.
     * Please cite the following three references that made this development
     * possible:
     *
     *   M. Dion, H. Rydberg, E. Schroder, D. C. Langreth, and
     *   B. I. Lundqvist, Phys. Rev. Lett. 92, 246401 (2004).
     *
     *   T. Thonhauser, V. R. Cooper, S. Li, A. Puzder, P. Hyldgaard, and
     *   D. C. Langreth, Phys. Rev. B 76, 125112 (2007).
     *
     *   G. Roman-Perez and J. M. Soler, Phys. Rev. Lett. 103, 096102 (2009).
     *
     *
     * If you are using vdW-DF2, please also cite:
     *
     *   K. Lee, E. D. Murray, L. Kong, B. I. Lundqvist, and
     *   D. C. Langreth, Phys. Rev. B 82, 081101(R) (2010).
     *
     *
     * If you are calculating the stress with vdW-DF, please also cite:
     *
     *   R. Sabatini, E. Kucukbenli, B. Kolb, T. Thonhauser, and
     *   S. de Gironcoli, J. Phys.: Condens. Matter 24, 424209 (2012).
     *

     Carrying out vdW-DF run using the following parameters:

     Nqs =      20    Nr_points =    1024   r_max =   100.000
     q_mesh =
               0.00001000     0.04494208     0.09755937     0.15916263
               0.23128650     0.31572767     0.41458969     0.53033537
               0.66584808     0.82450364     1.01025438     1.22772762
               1.48234092     1.78043706     2.12944203     2.53805004
               3.01644009     3.57652955     4.23227104     5.00000000

     Gradients computed in reciprocal space

     Adding external electric field

     Computed dipole along edir(3) :
        Dipole               -1.6159 Ry au,         -4.1073 Debye
        Dipole field         -0.0054 Ry au

        Potential amp.        0.4833 Ry
        Total length         44.5928 bohr

[...]

     Starting wfc are  163 randomized atomic wfcs

     Self-consistent Calculation

     iteration #  1     ecut=    36.75 Ry     beta=0.30
     Davidson diagonalization with overlap
     ethr =  1.00E-02,  avg # of iterations =  2.0

[...]

     Magnetic moment per site:
[...]
     c_bands:  1 eigenvalues not converged
     c_bands:  1 eigenvalues not converged
     ethr =  3.56E-04,  avg # of iterations =  5.7

[...]

     End of self-consistent calculation

 ------ SPIN UP ------------

          k = 0.0000 0.0000 0.0000 ( 14177 PWs)   bands (ev):

   -79.0610 -79.0292 -79.0030 -78.9971 -78.9958 -78.9906 -78.8860 -78.8592
   -76.7725 -76.7147 -76.7092 -76.6821 -47.9234 -47.9090 -47.8766 -47.8683
   -47.8630 -47.8616 -47.8532 -47.8523 -47.8512 -47.8457 -47.8019 -47.7711
   -47.7268 -47.5641 -47.5634 -47.5619 -47.5566 -47.5441 -47.4922 -47.4877
   -47.4706 -47.4699 -47.4060 -47.3841 -45.7346 -45.7317 -45.7217 -45.4468
   -45.4443 -45.4112 -45.4050 -45.3931 -45.3898 -45.3887 -45.3166 -45.3164
   -11.4531  -6.1145  -5.8678  -4.5320  -3.7144  -2.9533  -2.7891  -2.5651
    -2.5539  -2.5148  -2.4693  -2.4397  -2.4011  -2.2628  -1.9453  -1.8268
    -1.7994  -1.6627  -1.6605  -1.5956  -1.3267  -0.9449  -0.7647  -0.5449
    -0.2598  -0.2548  -0.2075  -0.2001  -0.1104  -0.0772  -0.0368   0.0921
     0.1271   0.1554   0.2409   0.3136   0.3535   0.4286   0.5023   0.5442
     0.5736   0.7346   0.8236   0.8777   1.1911   1.2351   1.2807   1.3982
     1.7614   1.7686   1.8229   1.9231   1.9234   1.9260   1.9586

[...]

          k =-0.0971 0.0561 0.0000 ( 14098 PWs)   bands (ev):

[...]

 ------ SPIN DOWN ----------

[...]

     the Fermi energy is     1.3667 ev

!    total energy              =   -2560.43051600 Ry
     Harris-Foulkes estimate   =   -2560.43052208 Ry
     estimated scf accuracy    <       0.00000980 Ry

     The total energy is the sum of the following terms:

     one-electron contribution =  -23175.13743263 Ry
     hartree contribution      =   11587.20847348 Ry
     xc contribution           =    -336.51098574 Ry
     ewald contribution        =    9364.11983558 Ry
     electric field correction =       0.00000612 Ry
     smearing contrib. (-TS)   =      -0.11041281 Ry

[...]

     convergence has been achieved in 142 iterations

 BEEF-vdW xc energy contributions
           1 :   -293.275757456148
           2 :    264.888288078690
           3 :   -217.432541615285
           4 :    164.879500901977
           5 :   -119.643984069026
           6 :    88.1683297271654
           7 :   -70.0346096567023
           8 :    60.2697782388582
           9 :   -53.0395645883996
          10 :    44.6321590050965
          11 :   -34.4733768582399
          12 :    24.2018354616429
          13 :   -15.8550487706594
          14 :    10.4289631755108
          15 :   -7.51989352645347
          16 :    5.91192671744562
          17 :   -4.46078971364386
          18 :    2.65466017395960
          19 :  -0.634458126585059
          20 :   -1.15510235238230
          21 :    2.34988652578096
          22 :   -2.85938127796021
          23 :    2.84369199769458
          24 :   -2.59013665572331
          25 :    2.39301047552590
          26 :   -2.46525471232644
          27 :    2.86727272627991
          28 :   -3.47278436100868
          29 :    4.01539794792376
          30 :   -4.22881121761731
          31 :   -27.1646775504595
          32 :   -19.3178678897728

     Forces acting on atoms (Ry/au):

     negative rho (up, down):  1.984E-03 1.756E-03
     atom    1 type  1   force =    -0.00001407   -0.00004479    0.01413707
     atom    2 type  1   force =     0.00118859   -0.00064512    0.01351518
     atom    3 type  1   force =     0.00037546    0.00096707    0.01304639
     atom    4 type  1   force =    -0.00067687   -0.00077603    0.01312658
     atom    5 type  1   force =    -0.00028176    0.00010495    0.00238294
     atom    6 type  1   force =     0.00139510   -0.00074270   -0.00595489
     atom    7 type  1   force =    -0.00166442    0.00375533   -0.00338317
     atom    8 type  1   force =    -0.00410155   -0.00040865   -0.00327105
     atom    9 type  1   force =    -0.00282137    0.00174507   -0.01719460
     atom   10 type  1   force =    -0.01404025    0.00817093    0.00353527
     atom   11 type  1   force =     0.00697475   -0.00592581   -0.00514707
     atom   12 type  1   force =     0.00816915   -0.00345980   -0.00460736
     atom   13 type  2   force =    -0.00419842    0.00846312   -0.09082959
     atom   14 type  3   force =     0.01553433    0.01402860    0.03863542
     atom   15 type  3   force =    -0.00681277   -0.02464024    0.04181664
     atom   16 type  3   force =     0.00097410   -0.00059193   -0.00980777

     Total force =     0.116460     Total SCF correction =     0.006127

     entering subroutine stress ...

     negative rho (up, down):  1.984E-03 1.756E-03
          total   stress  (Ry/bohr**3)                   (kbar)     P=  -16.90
  -0.00011937   0.00001089   0.00000941        -17.56      1.60      1.38
   0.00001089  -0.00010652  -0.00000667          1.60    -15.67     -0.98
   0.00000941  -0.00000667  -0.00011886          1.38     -0.98    -17.48

     BFGS Geometry Optimization

     number of scf cycles    =   1
     number of bfgs steps    =   0

     energy   new            =   -2560.4305160018 Ry

     new trust radius        =       0.0913195834 bohr
     new conv_thr            =       0.0000099958 Ry

ATOMIC_POSITIONS (crystal)
Mn1     -0.000000000   0.000000000   0.413179627    0   0   0
Mn1     -0.000000000   0.500000000   0.413179627    0   0   0
Mn1      0.500000000   0.000000000   0.413179627    0   0   0
Mn1      0.500000000   0.500000000   0.413179627    0   0   0
Mn1      0.666666667   0.666666667   0.500000000    0   0   0
Mn1      0.666666667   0.166666667   0.500000000    0   0   0
Mn1      0.166666667   0.666666667   0.500000000    0   0   0
Mn1      0.166666667   0.166666667   0.500000000    0   0   0
Mn1      0.332821470   0.333565387   0.586396865
Mn1      0.331545185   0.834168611   0.586885618
Mn1      0.834077490   0.333045385   0.586707277
Mn1      0.834080821   0.833107129   0.586669193
C1       0.665993061   0.667231744   0.642685600
H1       0.667386476   0.848532390   0.667683360
H1       0.667440145   0.483639283   0.667684746
H1       0.333380433   0.333159720   0.653378119

     Writing output data file calc.save
     Check: negative starting charge=(component1):   -0.002598
     NEW-OLD atomic charge density approx. for the potential

     Check: negative/imaginary core charge=   -0.000010    0.000000
     Check: negative starting charge=(component1):   -0.002599

[...]

     energy   old            =   -2560.4305160018 Ry
     energy   new            =   -2560.4378020116 Ry

     CASE: energy  _new < energy  _old

[...]

     Total force =     0.006813     Total SCF correction =     0.000568

[...]

     Total force =     0.005662     Total SCF correction =     0.000694
     SCF correction compared to forces is large: reduce conv_thr to get better values

[...]

     number of scf cycles    =  16
     number of bfgs steps    =  15

     energy   old            =   -2560.4495453458 Ry
     energy   new            =   -2560.4496220300 Ry

     CASE: energy  _new < energy  _old

     new trust radius        =       0.0129776033 bohr
     new conv_thr            =       0.0000001000 Ry

ATOMIC_POSITIONS (crystal)
Mn1     -0.000000000   0.000000000   0.413179627    0   0   0
Mn1     -0.000000000   0.500000000   0.413179627    0   0   0
Mn1      0.500000000   0.000000000   0.413179627    0   0   0
Mn1      0.500000000   0.500000000   0.413179627    0   0   0
Mn1      0.666666667   0.666666667   0.500000000    0   0   0
Mn1      0.666666667   0.166666667   0.500000000    0   0   0
Mn1      0.166666667   0.666666667   0.500000000    0   0   0
Mn1      0.166666667   0.166666667   0.500000000    0   0   0
Mn1      0.329977705   0.335004194   0.578201738
Mn1      0.317924345   0.841033247   0.587350000
Mn1      0.836676356   0.329250672   0.584593707
Mn1      0.836671218   0.834094895   0.584597551
C1       0.661758179   0.669074460   0.639449677
H1       0.695888084   0.825124725   0.666046335
H1       0.696142055   0.478686210   0.666012562
H1       0.324888978   0.337410790   0.643887766

     Writing output data file calc.save
     Check: negative starting charge=(component1):   -0.002630
     NEW-OLD atomic charge density approx. for the potential

     Check: negative/imaginary core charge=   -0.000010    0.000000
     Check: negative starting charge=(component1):   -0.002631

[...]

     Self-consistent Calculation

[...]

     iteration # 25     ecut=    36.75 Ry     beta=0.30
     Davidson diagonalization with overlap
     c_bands:  1 eigenvalues not converged
     ethr =  9.36E-11,  avg # of iterations =  6.7

[...]

     total energy              =   -2560.44967053 Ry
     Harris-Foulkes estimate   =   -2560.44967053 Ry
     estimated scf accuracy    <       0.00000012 Ry

[...]

     iteration # 30     ecut=    36.75 Ry     beta=0.30
     Davidson diagonalization with overlap
     ethr =  6.23E-11,  avg # of iterations =  1.4

[...]

     negative rho (up, down):  1.995E-03 1.772E-03

[...]

     Adding external electric field

     Computed dipole along edir(3) :
        Dipole                0.0076 Ry au,          0.0193 Debye
        Dipole field          0.0000 Ry au

        Potential amp.       -0.0023 Ry
        Total length         44.5928 bohr

     Magnetic moment per site:
     atom:    1    charge:    6.0006    magn:    0.9903    constr:    0.0000
     atom:    2    charge:    6.0001    magn:    0.9815    constr:    0.0000
     atom:    3    charge:    6.0002    magn:    0.9818    constr:    0.0000
     atom:    4    charge:    6.0001    magn:    0.9818    constr:    0.0000
     atom:    5    charge:    5.9910    magn:   -0.8731    constr:    0.0000
     atom:    6    charge:    5.9886    magn:   -0.7399    constr:    0.0000
     atom:    7    charge:    5.9884    magn:   -0.7239    constr:    0.0000
     atom:    8    charge:    5.9884    magn:   -0.7238    constr:    0.0000
     atom:    9    charge:    4.9928    magn:    0.5678    constr:    0.0000
     atom:   10    charge:    5.8610    magn:    0.7554    constr:    0.0000
     atom:   11    charge:    5.9080    magn:    0.7660    constr:    0.0000
     atom:   12    charge:    5.9123    magn:    0.7669    constr:    0.0000
     atom:   13    charge:    0.6381    magn:   -0.0211    constr:    0.0000
     atom:   14    charge:    0.3689    magn:    0.0054    constr:    0.0000
     atom:   15    charge:    0.3696    magn:    0.0054    constr:    0.0000
     atom:   16    charge:    0.2672    magn:   -0.0066    constr:    0.0000

     End of self-consistent calculation

 ------ SPIN UP ------------

[...]

 ------ SPIN DOWN ----------

[...]

          k = 0.0648-0.0748-0.0000 ( 14076 PWs)   bands (ev):

[...]

          k =-0.0971-0.0561 0.0000 ( 14098 PWs)   bands (ev):

   -79.0956 -78.8524 -78.8269 -78.8175 -76.7473 -76.7198 -76.7058 -76.6296
   -76.2285 -76.2218 -76.1947 -76.1837 -47.8929 -47.8106 -47.7530 -47.6645
   -47.6459 -47.6313 -47.6268 -47.5232 -47.4852 -47.4835 -47.4363 -47.3584
   -45.7666 -45.6571 -45.6216 -45.5588 -45.5124 -45.4570 -45.4260 -45.3514
   -45.3435 -45.3189 -45.2741 -45.2256 -45.1799 -45.1689 -45.0503 -45.0484
   -45.0195 -45.0134 -44.8994 -44.8931 -44.8915 -44.8800 -44.8702 -44.8563
   -11.2799  -5.6661  -4.2517  -3.9604  -3.4862  -2.6374  -2.2300  -2.1234
    -2.0795  -1.8539  -1.8484  -1.7665  -1.7299  -1.5763  -1.4863  -1.3906
    -1.0020  -0.9411  -0.8886  -0.8109  -0.7177  -0.5907  -0.5237  -0.3926
    -0.3243   0.2198   0.3291   0.3624   0.4060   0.4481   0.5287   0.7224
     0.7331   0.8053   0.8665   0.9690   0.9903   1.0259   1.0638   1.1235
     1.2169   1.2685   1.3436   1.3529   1.4568   1.7516   1.8970   2.1433
     2.2200   2.2230   2.4267   2.4604   2.5134   2.5647   2.6575

     the Fermi energy is     1.4289 ev

!    total energy              =   -2560.44967051 Ry
     Harris-Foulkes estimate   =   -2560.44967059 Ry
     estimated scf accuracy    <       0.00000004 Ry

     The total energy is the sum of the following terms:

     one-electron contribution =  -23444.13131971 Ry
     hartree contribution      =   11721.95513999 Ry
     xc contribution           =    -336.45891407 Ry
     ewald contribution        =    9498.29364421 Ry
     electric field correction =       0.00000019 Ry
     smearing contrib. (-TS)   =      -0.10822113 Ry

     total magnetization       =     9.75 Bohr mag/cell
     absolute magnetization    =    25.50 Bohr mag/cell

     convergence has been achieved in  30 iterations

 BEEF-vdW xc energy contributions
           1 :   -293.230956444735
           2 :    264.932140355242
           3 :   -217.565421952072
           4 :    165.006884179676
           5 :   -119.657314066329
           6 :    88.0412335500146
           7 :   -69.8505173566510
           8 :    60.1571593977079
           9 :   -53.0695078037245
          10 :    44.7629183011636
          11 :   -34.5854786467788
          12 :    24.1934870269986
          13 :   -15.7203553134095
          14 :    10.2571741143205
          15 :   -7.41941815542208
          16 :    5.92429832396374
          17 :   -4.53509074697331
          18 :    2.69930427212921
          19 :  -0.598496038627843
          20 :   -1.24125534653155
          21 :    2.40687748271915
          22 :   -2.83324820079997
          23 :    2.75658037331124
          24 :   -2.52444808995790
          25 :    2.42417112234540
          26 :   -2.60110143253070
          27 :    3.04330248670499
          28 :   -3.60421830617872
          29 :    4.06117547424964
          30 :   -4.21600554141668
          31 :   -27.1912479425274
          32 :   -19.3563939828725

     Forces acting on atoms (Ry/au):

     negative rho (up, down):  1.995E-03 1.772E-03
     atom    1 type  1   force =     0.00020023   -0.00012051    0.01291313
     atom    2 type  1   force =     0.00105179   -0.00060304    0.01189391
     atom    3 type  1   force =     0.00005375    0.00080644    0.01179997
     atom    4 type  1   force =    -0.00067741   -0.00044807    0.01180743
     atom    5 type  1   force =    -0.00243309    0.00140667    0.00263191
     atom    6 type  1   force =     0.00688542   -0.00397068   -0.02065865
     atom    7 type  1   force =    -0.00061948    0.01046661   -0.01650686
     atom    8 type  1   force =    -0.00936702   -0.00468452   -0.01650689
     atom    9 type  1   force =     0.00076177   -0.00043654    0.00084590
     atom   10 type  1   force =     0.00064718   -0.00036699   -0.00049500
     atom   11 type  1   force =     0.00110086    0.00152547   -0.00033971
     atom   12 type  1   force =    -0.00078253   -0.00174213   -0.00031520
     atom   13 type  2   force =     0.00057792   -0.00024464    0.00135082
     atom   14 type  3   force =     0.00146040   -0.00126788    0.00038759
     atom   15 type  3   force =     0.00180764   -0.00069623    0.00042218
     atom   16 type  3   force =    -0.00066744    0.00037604    0.00076947

     Total force =     0.004572     Total SCF correction =     0.000882
     SCF correction compared to forces is large: reduce conv_thr to get better values

     entering subroutine stress ...

     negative rho (up, down):  1.995E-03 1.772E-03
          total   stress  (Ry/bohr**3)                   (kbar)     P=  -14.98
  -0.00012255   0.00000295   0.00000754        -18.03      0.43      1.11
   0.00000295  -0.00011909  -0.00000440          0.43    -17.52     -0.65
   0.00000754  -0.00000440  -0.00006387          1.11     -0.65     -9.40

     bfgs converged in  17 scf cycles and  16 bfgs steps
     (criteria: energy <  1.0E+00, force <  1.9E-03)

     End of BFGS Geometry Optimization

     Final energy   =   -2560.4496705065 Ry
Begin final coordinates

ATOMIC_POSITIONS (crystal)
Mn1     -0.000000000   0.000000000   0.413179627    0   0   0
Mn1     -0.000000000   0.500000000   0.413179627    0   0   0
Mn1      0.500000000   0.000000000   0.413179627    0   0   0
Mn1      0.500000000   0.500000000   0.413179627    0   0   0
Mn1      0.666666667   0.666666667   0.500000000    0   0   0
Mn1      0.666666667   0.166666667   0.500000000    0   0   0
Mn1      0.166666667   0.666666667   0.500000000    0   0   0
Mn1      0.166666667   0.166666667   0.500000000    0   0   0
Mn1      0.329977705   0.335004194   0.578201738
Mn1      0.317924345   0.841033247   0.587350000
Mn1      0.836676356   0.329250672   0.584593707
Mn1      0.836671218   0.834094895   0.584597551
C1       0.661758179   0.669074460   0.639449677
H1       0.695888084   0.825124725   0.666046335
H1       0.696142055   0.478686210   0.666012562
H1       0.324888978   0.337410790   0.643887766
End final coordinates

     Writing output data file calc.save

     General routines

     Parallel routines

   This run was terminated on:  11:44:40   9May2018

   JOB DONE.