     Program PWSCF v.5.1rc2 (svn rev. 11289) starts on 19Jan2018 at 10: 6:41

     Current dimensions of program PWSCF are:
     Max number of different atomic species (ntypx) = 10
     Max number of k-points (npk) =  40000
     Max angular momentum in pseudopotentials (lmaxx) =  3
     Presently stress not available with electric field

     IMPORTANT: XC functional enforced from input :
     Exchange-correlation      = BEEF-VDW ( 1  4 27 13 2)
     Any further DFT definition will be discarded
     Please, verify this is what you really want

     Subspace diagonalization in iterative solution of the eigenvalue problem:
     a serial algorithm will be used

     bravais-lattice index     =            0
     lattice parameter (alat)  =       1.8897  a.u.
     unit-cell volume          =    4552.2840 (a.u.)^3
     number of atoms/cell      =           13
     number of atomic types    =            2
     number of electrons       =       172.00
     number of Kohn-Sham states=           96
     kinetic-energy cutoff     =      36.7493  Ry
     charge density cutoff     =     367.4932  Ry
     convergence threshold     =      1.0E-05
     mixing beta               =       0.3000
     number of iterations used =           10  plain     mixing
     Exchange-correlation      = BEEF-VDW ( 1  4 27 13 2)
     nstep                     =           50

     celldm(1)=   1.889726  celldm(2)=   0.000000  celldm(3)=   0.000000
     celldm(4)=   0.000000  celldm(5)=   0.000000  celldm(6)=   0.000000

     crystal axes: (cart. coord. in units of alat)
               a(1) = (   5.627661   0.000000   0.000000 )
               a(2) = (   2.813831   4.873698   0.000000 )
               a(3) = (   0.000000   0.000000  24.594966 )

     reciprocal axes: (cart. coord. in units 2 pi/alat)
               b(1) = (  0.177694 -0.102592  0.000000 )
               b(2) = (  0.000000  0.205183  0.000000 )
               b(3) = (  0.000000  0.000000  0.040659 )

     PseudoPot. # 1 for Mo read from file:
     /afs/slac.stanford.edu/u/if/mamunm/psp/gbrv1.5pbe/Mo.UPF
     MD5 check sum: 30c4dcd161f5d35cd49bb5239c51a633
     Pseudo is Ultrasoft + core correction, Zval = 14.0
     Generated by new atomic code, or converted to UPF format
     Using radial grid of  889 points,  6 beta functions with:
                l(1) =   0
                l(2) =   0
                l(3) =   1
                l(4) =   1
                l(5) =   2
                l(6) =   2
     Q(r) pseudized with  6 coefficients,  rinner =    1.000   1.000   1.000
                                                       1.000   1.000

     PseudoPot. # 2 for C  read from file:
     /afs/slac.stanford.edu/u/if/mamunm/psp/gbrv1.5pbe/C.UPF
     MD5 check sum: d1aef80898a10debaa0f26306b886e00
     Pseudo is Ultrasoft + core correction, Zval =  4.0
     Generated by new atomic code, or converted to UPF format
     Using radial grid of  721 points,  4 beta functions with:
                l(1) =   0
                l(2) =   0
                l(3) =   1
                l(4) =   1
     Q(r) pseudized with  8 coefficients,  rinner =    1.100   1.100   1.100

     vdW kernel table read from file vdW_kernel_table
     MD5 check sum: 095c7af220d748ca6e76c0b4c6cfb241

     atomic species   valence    mass     pseudopotential
        Mo1           14.00    95.95000     Mo( 1.00)
        C1             4.00    12.01100     C ( 1.00)

     No symmetry found

   Cartesian axes

     site n.     atom                  positions (alat units)
         1           Mo1 tau(   1) = (   1.4069153   0.8122829  10.0000000  )
         2           Mo1 tau(   2) = (   4.2207459   0.8122829  10.0000000  )
         3           Mo1 tau(   3) = (   2.8138306   3.2491317  10.0000000  )
         4           Mo1 tau(   4) = (   5.6276612   3.2491317  10.0000000  )
         5           Mo1 tau(   5) = (   5.6276612   1.6245658  12.2974831  )
         6           Mo1 tau(   6) = (   2.8138306   1.6245658  12.2974831  )
         7           Mo1 tau(   7) = (   7.0345765   4.0614146  12.2974831  )
         8           Mo1 tau(   8) = (   4.2207459   4.0614146  12.2974831  )
         9           Mo1 tau(   9) = (   0.0000061   0.0000002  14.6593005  )
        10           Mo1 tau(  10) = (   2.8138446   0.0079641  14.5741056  )
        11           Mo1 tau(  11) = (   1.4138363   2.4328720  14.5739934  )
        12           Mo1 tau(  12) = (   4.2138151   2.4328338  14.5738115  )
        13           C1  tau(  13) = (   2.8138291   4.8736850  16.4547414  )

     number of k points=    20  Fermi-Dirac smearing, width (Ry)=  0.0110
                       cart. coord. in units 2pi/alat
        k(    1) = (   0.0000000   0.0000000   0.0000000), wk =   0.0555556
        k(    2) = (   0.0000000   0.0341972   0.0000000), wk =   0.1111111
        k(    3) = (   0.0000000   0.0683943   0.0000000), wk =   0.1111111
        k(    4) = (   0.0000000  -0.1025915   0.0000000), wk =   0.0555556
        k(    5) = (   0.0296156  -0.0170986   0.0000000), wk =   0.1111111
        k(    6) = (   0.0296156   0.0170986   0.0000000), wk =   0.1111111
        k(    7) = (   0.0296156   0.0512958   0.0000000), wk =   0.1111111
        k(    8) = (   0.0296156  -0.1196901   0.0000000), wk =   0.1111111
        k(    9) = (   0.0296156  -0.0854929   0.0000000), wk =   0.1111111
        k(   10) = (   0.0296156  -0.0512958   0.0000000), wk =   0.1111111
        k(   11) = (   0.0592312  -0.0341972   0.0000000), wk =   0.1111111
        k(   12) = (   0.0592312   0.0000000   0.0000000), wk =   0.1111111
        k(   13) = (   0.0592312   0.0341972   0.0000000), wk =   0.1111111
        k(   14) = (   0.0592312  -0.1367887   0.0000000), wk =   0.1111111
        k(   15) = (   0.0592312  -0.1025915   0.0000000), wk =   0.1111111
        k(   16) = (   0.0592312  -0.0683943   0.0000000), wk =   0.1111111
        k(   17) = (  -0.0888469   0.0512958   0.0000000), wk =   0.0555556
        k(   18) = (  -0.0888469   0.0854929   0.0000000), wk =   0.1111111
        k(   19) = (  -0.0888469   0.1196901   0.0000000), wk =   0.1111111
        k(   20) = (  -0.0888469  -0.0512958   0.0000000), wk =   0.0555556

     Largest allocated arrays     est. size (Mb)     dimensions
     Largest temporary arrays     est. size (Mb)     dimensions

     Initial potential from superposition of free atoms
     Check: negative starting charge=   -0.004803

     starting charge  171.98720, renormalised to  172.00000

     negative rho (up, down):  4.804E-03 0.000E+00

     *
     * You are using vdW-DF for exchange-correlation in this calculation.
     * Please cite the following three references that made this development
     * possible:
     *
     *   M. Dion, H. Rydberg, E. Schroder, D. C. Langreth, and
     *   B. I. Lundqvist, Phys. Rev. Lett. 92, 246401 (2004).
     *
     *   T. Thonhauser, V. R. Cooper, S. Li, A. Puzder, P. Hyldgaard, and
     *   D. C. Langreth, Phys. Rev. B 76, 125112 (2007).
     *
     *   G. Roman-Perez and J. M. Soler, Phys. Rev. Lett. 103, 096102 (2009).
     *
     *
     * If you are using vdW-DF2, please also cite:
     *
     *   K. Lee, E. D. Murray, L. Kong, B. I. Lundqvist, and
     *   D. C. Langreth, Phys. Rev. B 82, 081101(R) (2010).
     *
     *
     * If you are calculating the stress with vdW-DF, please also cite:
     *
     *   R. Sabatini, E. Kucukbenli, B. Kolb, T. Thonhauser, and
     *   S. de Gironcoli, J. Phys.: Condens. Matter 24, 424209 (2012).
     *

     Carrying out vdW-DF run using the following parameters:

     Nqs =      20    Nr_points =    1024   r_max =   100.000
     q_mesh =
               0.00001000     0.04494208     0.09755937     0.15916263
               0.23128650     0.31572767     0.41458969     0.53033537
               0.66584808     0.82450364     1.01025438     1.22772762
               1.48234092     1.78043706     2.12944203     2.53805004
               3.01644009     3.57652955     4.23227104     5.00000000

     Gradients computed in reciprocal space

     Adding external electric field

     Computed dipole along edir(3) :
        Dipole               -0.0020 Ry au,         -0.0051 Debye
        Dipole field         -0.0000 Ry au

        Potential amp.        0.0005 Ry
        Total length         45.3158 bohr

     Starting wfc are  160 randomized atomic wfcs

     Self-consistent Calculation

     iteration #  1     ecut=    36.75 Ry     beta=0.30
     Davidson diagonalization with overlap
     ethr =  1.00E-02,  avg # of iterations =  2.0

[...]

     total energy              =   -1687.91630595 Ry
     Harris-Foulkes estimate   =   -1691.21706020 Ry
     estimated scf accuracy    <       6.88421826 Ry

[...]

     End of self-consistent calculation

          k = 0.0000 0.0000 0.0000 ( 17111 PWs)   bands (ev):

   -58.9826 -58.8972 -58.8092 -58.8086 -58.8085 -58.7602 -58.7394 -58.7393
   -58.7055 -58.6996 -58.6995 -58.3898 -33.5219 -33.5064 -33.5063 -33.4508
   -33.4139 -33.3878 -33.3877 -33.3199 -33.2944 -33.2944 -33.0073 -32.8929
   -32.8927 -32.8164 -32.8076 -32.8075 -32.7601 -32.7054 -32.6823 -32.6822
   -32.5838 -32.5744 -32.5716 -32.5715 -32.5184 -32.5183 -32.4863 -32.4643
   -32.4606 -32.4606 -32.3844 -32.3843 -32.2780 -32.2780 -32.1904 -32.1904
    -6.4774  -3.8252  -2.5226  -2.4562  -2.4561  -2.4380  -2.4076  -1.9602
    -1.9602  -1.9601  -1.8093  -1.8092  -1.7878  -1.5056  -1.4857  -1.4857
    -0.6837  -0.6837  -0.3284   0.3933   0.5172   0.5172   0.8453   0.9189
     1.3394   1.3395   1.3686   1.5117   1.5118   1.6322   1.6323   1.7097
     1.8435   1.8435   1.9503   1.9504   2.2041   2.2041   2.3324   3.0222
     3.2684   3.2684   3.3220   3.4720   3.7130   3.7707   3.7708   4.0333

[...]

          k =-0.0888 0.0513 0.0000 ( 17160 PWs)   bands (ev):

[...]

     the Fermi energy is     2.0748 ev

!    total energy              =   -1690.60760566 Ry
     Harris-Foulkes estimate   =   -1690.60761208 Ry
     estimated scf accuracy    <       0.00000326 Ry

     The total energy is the sum of the following terms:

     one-electron contribution =  -15442.78488869 Ry
     hartree contribution      =    7716.21598268 Ry
     xc contribution           =    -243.70982150 Ry
     ewald contribution        =    6279.77178296 Ry
     electric field correction =       0.00021170 Ry
     smearing contrib. (-TS)   =      -0.10087282 Ry

     convergence has been achieved in  18 iterations

 BEEF-vdW xc energy contributions
           1 :   -209.268230524412
           2 :    191.164246397570
           3 :   -160.190482843285
           4 :    124.543474211403
           5 :   -92.3618237159970
           6 :    69.1759465437825
           7 :   -56.6811380179594
           8 :    53.0116951035785
           9 :   -54.1876780987017
          10 :    55.9878476887094
          11 :   -55.5045419455816
          12 :    51.8550431614472
          13 :   -45.9625837716692
          14 :    39.6687454635436
          15 :   -34.6699675222467
          16 :    31.7338796216843
          17 :   -30.4858768315565
          18 :    29.7663706141870
          19 :   -28.3209246860868
          20 :    25.4454927690948
          21 :   -21.2837233377251
[...]
00026 suncat1056 pw.x -in pw.inp   Done                     01/19/2018 10:21:15
00027 suncat1056 pw.x -in pw.inp   Done                     01/19/2018 10:21:15
00028 suncat1056 pw.x -in pw.inp   Done                     01/19/2018 10:21:15
00029 suncat1056 pw.x -in pw.inp   Done                     01/19/2018 10:21:15
00030 suncat1056 pw.x -in pw.inp   Done                     01/19/2018 10:21:15
00031 suncat1056 pw.x -in pw.inp   Done                     01/19/2018 10:21:15

     Program PWSCF v.5.1rc2 (svn rev. 11289) starts on 19Jan2018 at 10:21:22

[...]

   This run was terminated on:  10:49:27  19Jan2018

[...]

     Program PWSCF v.5.1rc2 (svn rev. 11289) starts on 19Jan2018 at 10:49:33

     Current dimensions of program PWSCF are:
     Max number of different atomic species (ntypx) = 10
     Max number of k-points (npk) =  40000
     Max angular momentum in pseudopotentials (lmaxx) =  3
     Presently stress not available with electric field

     IMPORTANT: XC functional enforced from input :
     Exchange-correlation      = BEEF-VDW ( 1  4 27 13 2)
     Any further DFT definition will be discarded
     Please, verify this is what you really want

     Subspace diagonalization in iterative solution of the eigenvalue problem:
     a serial algorithm will be used

     bravais-lattice index     =            0
     lattice parameter (alat)  =       1.8897  a.u.
     unit-cell volume          =    4552.2840 (a.u.)^3
     number of atoms/cell      =           13
     number of atomic types    =            2
     number of electrons       =       172.00
     number of Kohn-Sham states=           96
     kinetic-energy cutoff     =      36.7493  Ry
     charge density cutoff     =     367.4932  Ry
     convergence threshold     =      1.0E-05
     mixing beta               =       0.3000
     number of iterations used =           10  plain     mixing
     Exchange-correlation      = BEEF-VDW ( 1  4 27 13 2)
     nstep                     =           50

     celldm(1)=   1.889726  celldm(2)=   0.000000  celldm(3)=   0.000000
     celldm(4)=   0.000000  celldm(5)=   0.000000  celldm(6)=   0.000000

     crystal axes: (cart. coord. in units of alat)
               a(1) = (   5.627661   0.000000   0.000000 )
               a(2) = (   2.813831   4.873698   0.000000 )
               a(3) = (   0.000000   0.000000  24.594966 )

     reciprocal axes: (cart. coord. in units 2 pi/alat)
               b(1) = (  0.177694 -0.102592  0.000000 )
               b(2) = (  0.000000  0.205183  0.000000 )
               b(3) = (  0.000000  0.000000  0.040659 )

     PseudoPot. # 1 for Mo read from file:
     /afs/slac.stanford.edu/u/if/mamunm/psp/gbrv1.5pbe/Mo.UPF
     MD5 check sum: 30c4dcd161f5d35cd49bb5239c51a633
     Pseudo is Ultrasoft + core correction, Zval = 14.0
     Generated by new atomic code, or converted to UPF format
     Using radial grid of  889 points,  6 beta functions with:
                l(1) =   0
                l(2) =   0
                l(3) =   1
                l(4) =   1
                l(5) =   2
                l(6) =   2
     Q(r) pseudized with  6 coefficients,  rinner =    1.000   1.000   1.000
                                                       1.000   1.000

     PseudoPot. # 2 for C  read from file:
     /afs/slac.stanford.edu/u/if/mamunm/psp/gbrv1.5pbe/C.UPF
     MD5 check sum: d1aef80898a10debaa0f26306b886e00
     Pseudo is Ultrasoft + core correction, Zval =  4.0
     Generated by new atomic code, or converted to UPF format
     Using radial grid of  721 points,  4 beta functions with:
                l(1) =   0
                l(2) =   0
                l(3) =   1
                l(4) =   1
     Q(r) pseudized with  8 coefficients,  rinner =    1.100   1.100   1.100

     vdW kernel table read from file vdW_kernel_table
     MD5 check sum: 095c7af220d748ca6e76c0b4c6cfb241

     atomic species   valence    mass     pseudopotential
        Mo1           14.00    95.95000     Mo( 1.00)
        C1             4.00    12.01100     C ( 1.00)

     No symmetry found

   Cartesian axes

     site n.     atom                  positions (alat units)
         1           Mo1 tau(   1) = (   1.4069153   0.8122829  10.0000000  )
         2           Mo1 tau(   2) = (   4.2207459   0.8122829  10.0000000  )
         3           Mo1 tau(   3) = (   2.8138306   3.2491317  10.0000000  )
         4           Mo1 tau(   4) = (   5.6276612   3.2491317  10.0000000  )
         5           Mo1 tau(   5) = (   5.6276612   1.6245658  12.2974831  )
         6           Mo1 tau(   6) = (   2.8138306   1.6245658  12.2974831  )
         7           Mo1 tau(   7) = (   7.0345765   4.0614146  12.2974831  )
         8           Mo1 tau(   8) = (   4.2207459   4.0614146  12.2974831  )
         9           Mo1 tau(   9) = (   0.0000065   0.0000060  14.6619549  )
        10           Mo1 tau(  10) = (   2.8138440   0.0073547  14.5744964  )
        11           Mo1 tau(  11) = (   1.4133072   2.4331747  14.5743889  )
        12           Mo1 tau(  12) = (   4.2143398   2.4331340  14.5742151  )
        13           C1  tau(  13) = (   2.8138291   4.8736859  16.4522794  )

     number of k points=    20  Fermi-Dirac smearing, width (Ry)=  0.0110
                       cart. coord. in units 2pi/alat
        k(    1) = (   0.0000000   0.0000000   0.0000000), wk =   0.0555556
        k(    2) = (   0.0000000   0.0341972   0.0000000), wk =   0.1111111
        k(    3) = (   0.0000000   0.0683943   0.0000000), wk =   0.1111111
        k(    4) = (   0.0000000  -0.1025915   0.0000000), wk =   0.0555556
        k(    5) = (   0.0296156  -0.0170986   0.0000000), wk =   0.1111111
        k(    6) = (   0.0296156   0.0170986   0.0000000), wk =   0.1111111
        k(    7) = (   0.0296156   0.0512958   0.0000000), wk =   0.1111111
        k(    8) = (   0.0296156  -0.1196901   0.0000000), wk =   0.1111111
        k(    9) = (   0.0296156  -0.0854929   0.0000000), wk =   0.1111111
        k(   10) = (   0.0296156  -0.0512958   0.0000000), wk =   0.1111111
        k(   11) = (   0.0592312  -0.0341972   0.0000000), wk =   0.1111111
        k(   12) = (   0.0592312   0.0000000   0.0000000), wk =   0.1111111
        k(   13) = (   0.0592312   0.0341972   0.0000000), wk =   0.1111111
        k(   14) = (   0.0592312  -0.1367887   0.0000000), wk =   0.1111111
        k(   15) = (   0.0592312  -0.1025915   0.0000000), wk =   0.1111111
        k(   16) = (   0.0592312  -0.0683943   0.0000000), wk =   0.1111111
        k(   17) = (  -0.0888469   0.0512958   0.0000000), wk =   0.0555556
        k(   18) = (  -0.0888469   0.0854929   0.0000000), wk =   0.1111111
        k(   19) = (  -0.0888469   0.1196901   0.0000000), wk =   0.1111111
        k(   20) = (  -0.0888469  -0.0512958   0.0000000), wk =   0.0555556

     Largest allocated arrays     est. size (Mb)     dimensions
     Largest temporary arrays     est. size (Mb)     dimensions

     Initial potential from superposition of free atoms
     Check: negative starting charge=   -0.004803

     starting charge  171.98720, renormalised to  172.00000

[...]

     *
     * You are using vdW-DF for exchange-correlation in this calculation.
     * Please cite the following three references that made this development
     * possible:
     *
     *   M. Dion, H. Rydberg, E. Schroder, D. C. Langreth, and
     *   B. I. Lundqvist, Phys. Rev. Lett. 92, 246401 (2004).
     *
     *   T. Thonhauser, V. R. Cooper, S. Li, A. Puzder, P. Hyldgaard, and
     *   D. C. Langreth, Phys. Rev. B 76, 125112 (2007).
     *
     *   G. Roman-Perez and J. M. Soler, Phys. Rev. Lett. 103, 096102 (2009).
     *
     *
     * If you are using vdW-DF2, please also cite:
     *
     *   K. Lee, E. D. Murray, L. Kong, B. I. Lundqvist, and
     *   D. C. Langreth, Phys. Rev. B 82, 081101(R) (2010).
     *
     *
     * If you are calculating the stress with vdW-DF, please also cite:
     *
     *   R. Sabatini, E. Kucukbenli, B. Kolb, T. Thonhauser, and
     *   S. de Gironcoli, J. Phys.: Condens. Matter 24, 424209 (2012).
     *

     Carrying out vdW-DF run using the following parameters:

     Nqs =      20    Nr_points =    1024   r_max =   100.000
     q_mesh =
               0.00001000     0.04494208     0.09755937     0.15916263
               0.23128650     0.31572767     0.41458969     0.53033537
               0.66584808     0.82450364     1.01025438     1.22772762
               1.48234092     1.78043706     2.12944203     2.53805004
               3.01644009     3.57652955     4.23227104     5.00000000

     Gradients computed in reciprocal space

[...]

     Starting wfc are  160 randomized atomic wfcs

     Self-consistent Calculation

[...]

     total energy              =   -1690.60732108 Ry
     Harris-Foulkes estimate   =   -1690.60762413 Ry
     estimated scf accuracy    <       0.00006222 Ry

     iteration # 17     ecut=    36.75 Ry     beta=0.30
     Davidson diagonalization with overlap
     ethr =  3.62E-08,  avg # of iterations =  1.1

[...]

     negative rho (up, down):  4.799E-03 0.000E+00

     Adding external electric field

     Computed dipole along edir(3) :
        Dipole               -0.2691 Ry au,         -0.6840 Debye
        Dipole field         -0.0007 Ry au

        Potential amp.        0.0673 Ry
        Total length         45.3158 bohr

     End of self-consistent calculation

[...]

          k = 0.0592-0.0684 0.0000 ( 17122 PWs)   bands (ev):

[...]

          k =-0.0888-0.0513 0.0000 ( 17160 PWs)   bands (ev):

   -58.9101 -58.8756 -58.8289 -58.8206 -58.8073 -58.7614 -58.7505 -58.7443
   -58.7380 -58.7028 -58.6969 -58.3906 -33.3234 -33.3193 -33.3061 -33.2831
   -33.2660 -33.2296 -33.1358 -33.1084 -33.0907 -33.0849 -33.0358 -33.0062
   -32.9028 -32.8557 -32.8323 -32.8322 -32.8235 -32.7879 -32.7501 -32.7178
   -32.7166 -32.7162 -32.6971 -32.6921 -32.6673 -32.5716 -32.5627 -32.5378
   -32.5118 -32.5050 -32.4726 -32.4519 -32.4015 -32.3851 -32.3647 -32.2412
    -6.4272  -2.2916  -2.2609  -1.5414  -1.4714  -1.4277  -1.3987  -1.2500
    -1.1608  -1.0170  -0.9534  -0.7039  -0.6699  -0.6283  -0.5021  -0.3853
    -0.3354  -0.1816   0.0105   0.1754   0.1895   0.2715   0.3423   0.3702
     0.6157   0.7450   0.9434   1.0773   1.1814   1.1931   1.3153   1.3709
     1.3869   1.4222   1.4247   1.5284   1.7224   1.7330   1.7981   2.0996
     2.1121   2.1800   2.6873   2.7408   2.8610   2.9448   2.9578   3.0818

     the Fermi energy is     2.0763 ev

!    total energy              =   -1690.60762072 Ry
     Harris-Foulkes estimate   =   -1690.60733576 Ry
     estimated scf accuracy    <       0.00000794 Ry

     The total energy is the sum of the following terms:

     one-electron contribution =  -15441.40524444 Ry
     hartree contribution      =    7715.55257855 Ry
     xc contribution           =    -243.71351709 Ry
     ewald contribution        =    6279.05918881 Ry
     electric field correction =       0.00019990 Ry
     smearing contrib. (-TS)   =      -0.10082645 Ry

     convergence has been achieved in  17 iterations

 BEEF-vdW xc energy contributions
           1 :   -209.271671801978
           2 :    191.167541719185
           3 :   -160.193489798038
           4 :    124.546183859850
           5 :   -92.3644040338582
           6 :    69.1785738895857
           7 :   -56.6837409825228
           8 :    53.0138408406814
           9 :   -54.1887366520290
          10 :    55.9873515441992
          11 :   -55.5025570015870
          12 :    51.8522878512932
          13 :   -45.9601723716885
          14 :    39.6676675768545
          15 :   -34.6705837923100
          16 :    31.7357169489268
          17 :   -30.4878548989678
          18 :    29.7673619289547
          19 :   -28.3202937292180
          20 :    25.4433893432219
          21 :   -21.2810056642072
          22 :    16.6675794390601
          23 :   -12.6479200112327
          24 :    9.93889867642187
          25 :   -8.60490561890447
          26 :    8.08005729585278
          27 :   -7.49614242926697
          28 :    6.12692781928769
          29 :   -3.72759058273380
          30 :   0.612076974426685
          31 :   -23.9358777182889
          32 :   -18.3590632812868

     Forces acting on atoms (Ry/au):

     negative rho (up, down):  4.799E-03 0.000E+00
     atom    1 type  1   force =     0.00136282    0.00080581   -0.00461267
     atom    2 type  1   force =    -0.00136367    0.00078526   -0.00460732
     atom    3 type  1   force =    -0.00002134   -0.00157655   -0.00462402
     atom    4 type  1   force =     0.00003199   -0.00001786   -0.00788906
     atom    5 type  1   force =     0.00000458    0.00558197    0.00075009
     atom    6 type  1   force =    -0.00001827   -0.00001988    0.01791431
     atom    7 type  1   force =    -0.00485272   -0.00277887    0.00080148
     atom    8 type  1   force =     0.00485217   -0.00277831    0.00074298
     atom    9 type  1   force =    -0.00000786    0.00000884   -0.00077363
     atom   10 type  1   force =     0.00000830   -0.00080920    0.00042556
     atom   11 type  1   force =    -0.00070899    0.00040586    0.00042286
     atom   12 type  1   force =     0.00071152    0.00039279    0.00045924
     atom   13 type  2   force =     0.00000149    0.00000013    0.00099017

     Total force =     0.023539     Total SCF correction =     0.010856
     SCF correction compared to forces is large: reduce conv_thr to get better values

     entering subroutine stress ...

     negative rho (up, down):  4.799E-03 0.000E+00
          total   stress  (Ry/bohr**3)                   (kbar)     P=  -12.54
  -0.00014199   0.00000000   0.00000001        -20.89      0.00      0.00
   0.00000000  -0.00014196   0.00000000          0.00    -20.88      0.00
   0.00000001   0.00000000   0.00002825          0.00      0.00      4.16

 !ASE

     Writing output data file calc.save

     General routines

     Parallel routines

   This run was terminated on:  11: 3:28  19Jan2018

   JOB DONE.
Job  /afs/slac/g/suncat/bin/suncat-tsmpirun -x LD_LIBRARY_PATH -wdir /scratch/qe891410_83T8q pw.x -in pw.inp

TID   HOST_NAME   COMMAND_LINE            STATUS            TERMINATION_TIME
00000 suncat1009 pw.x -in pw.inp   Done                     01/19/2018 11:03:28
00001 suncat1009 pw.x -in pw.inp   Done                     01/19/2018 11:03:28
00002 suncat1009 pw.x -in pw.inp   Done                     01/19/2018 11:03:28
00003 suncat1009 pw.x -in pw.inp   Done                     01/19/2018 11:03:28
00004 suncat1009 pw.x -in pw.inp   Done                     01/19/2018 11:03:28
00005 suncat1009 pw.x -in pw.inp   Done                     01/19/2018 11:03:28
00006 suncat1009 pw.x -in pw.inp   Done                     01/19/2018 11:03:28
00007 suncat1009 pw.x -in pw.inp   Done                     01/19/2018 11:03:28
00008 suncat1059 pw.x -in pw.inp   Done                     01/19/2018 11:03:28
00009 suncat1059 pw.x -in pw.inp   Done                     01/19/2018 11:03:28
00010 suncat1059 pw.x -in pw.inp   Done                     01/19/2018 11:03:28
00011 suncat1059 pw.x -in pw.inp   Done                     01/19/2018 11:03:28
00012 suncat1059 pw.x -in pw.inp   Done                     01/19/2018 11:03:28
00013 suncat1059 pw.x -in pw.inp   Done                     01/19/2018 11:03:28
00014 suncat1059 pw.x -in pw.inp   Done                     01/19/2018 11:03:28
00015 suncat1059 pw.x -in pw.inp   Done                     01/19/2018 11:03:28
00016 suncat1059 pw.x -in pw.inp   Done                     01/19/2018 11:03:28
00017 suncat1059 pw.x -in pw.inp   Done                     01/19/2018 11:03:28
00018 suncat1059 pw.x -in pw.inp   Done                     01/19/2018 11:03:28
00019 suncat1059 pw.x -in pw.inp   Done                     01/19/2018 11:03:28
00020 suncat1056 pw.x -in pw.inp   Done                     01/19/2018 11:03:28
00021 suncat1056 pw.x -in pw.inp   Done                     01/19/2018 11:03:28
00022 suncat1056 pw.x -in pw.inp   Done                     01/19/2018 11:03:28
00023 suncat1056 pw.x -in pw.inp   Done                     01/19/2018 11:03:28
00024 suncat1056 pw.x -in pw.inp   Done                     01/19/2018 11:03:28
00025 suncat1056 pw.x -in pw.inp   Done                     01/19/2018 11:03:28
00026 suncat1056 pw.x -in pw.inp   Done                     01/19/2018 11:03:28
00027 suncat1056 pw.x -in pw.inp   Done                     01/19/2018 11:03:28
00028 suncat1056 pw.x -in pw.inp   Done                     01/19/2018 11:03:28
00029 suncat1056 pw.x -in pw.inp   Done                     01/19/2018 11:03:28
00030 suncat1056 pw.x -in pw.inp   Done                     01/19/2018 11:03:28
00031 suncat1056 pw.x -in pw.inp   Done                     01/19/2018 11:03:28