     Program PWSCF v.5.1rc2 (svn rev. 11289) starts on 17Jan2019 at 13: 0:17

     Current dimensions of program PWSCF are:
     Max number of different atomic species (ntypx) = 10
     Max number of k-points (npk) =  40000
     Max angular momentum in pseudopotentials (lmaxx) =  3

     IMPORTANT: XC functional enforced from input :
     Exchange-correlation      = BEEF-VDW ( 1  4 27 13 2)
     Any further DFT definition will be discarded
     Please, verify this is what you really want

     Subspace diagonalization in iterative solution of the eigenvalue problem:
     a serial algorithm will be used

     Generating pointlists ...
     new r_m :   0.1608 (alat units)  1.5231 (a.u.) for type    1
     new r_m :   0.0898 (alat units)  0.8506 (a.u.) for type    2
     new r_m :   0.0898 (alat units)  0.8506 (a.u.) for type    3

     bravais-lattice index     =            0
     lattice parameter (alat)  =       9.4723  a.u.
     unit-cell volume          =    3537.7769 (a.u.)^3
     number of atoms/cell      =           15
     number of atomic types    =            3
     number of electrons       =       210.00
     number of Kohn-Sham states=          115
     kinetic-energy cutoff     =      36.7493  Ry
     charge density cutoff     =     367.4933  Ry
     convergence threshold     =      1.0E-04
     mixing beta               =       0.1000
     number of iterations used =            8  plain     mixing
     Exchange-correlation      = BEEF-VDW ( 1  4 27 13 2)
     nstep                     =           50

     celldm(1)=   9.472344  celldm(2)=   0.000000  celldm(3)=   0.000000
     celldm(4)=   0.000000  celldm(5)=   0.000000  celldm(6)=   0.000000

     crystal axes: (cart. coord. in units of alat)
               a(1) = (   1.000000   0.000000   0.000000 )
               a(2) = (   0.500000   0.866025   0.000000 )
               a(3) = (   0.000000   0.000000   4.806483 )

     reciprocal axes: (cart. coord. in units 2 pi/alat)
               b(1) = (  1.000000 -0.577350  0.000000 )
               b(2) = (  0.000000  1.154701  0.000000 )
               b(3) = (  0.000000  0.000000  0.208052 )

     PseudoPot. # 1 for Co read from file:
     /nfs/slac/g/suncatfs/mamunm/src/decaf-espresso/gbrv15pbe/Co.UPF
     MD5 check sum: 5f91765df6ddd3222702df6e7b74a16d
     Pseudo is Ultrasoft + core correction, Zval = 17.0
     Generated by new atomic code, or converted to UPF format
     Using radial grid of  863 points,  6 beta functions with:
                l(1) =   0
                l(2) =   0
                l(3) =   1
                l(4) =   1
                l(5) =   2
                l(6) =   2
     Q(r) pseudized with  8 coefficients,  rinner =    1.200   1.200   1.200
                                                       1.200   1.200

     PseudoPot. # 2 for C  read from file:
     /nfs/slac/g/suncatfs/mamunm/src/decaf-espresso/gbrv15pbe/C.UPF
     MD5 check sum: d1aef80898a10debaa0f26306b886e00
     Pseudo is Ultrasoft + core correction, Zval =  4.0
     Generated by new atomic code, or converted to UPF format
     Using radial grid of  721 points,  4 beta functions with:
                l(1) =   0
                l(2) =   0
                l(3) =   1
                l(4) =   1
     Q(r) pseudized with  8 coefficients,  rinner =    1.100   1.100   1.100

     PseudoPot. # 3 for H  read from file:
     /nfs/slac/g/suncatfs/mamunm/src/decaf-espresso/gbrv15pbe/H.UPF
     MD5 check sum: 761ae9a214b05c3daf00ab9f6b793d6f
     Pseudo is Ultrasoft, Zval =  1.0
     Generated by new atomic code, or converted to UPF format
     Using radial grid of  615 points,  2 beta functions with:
                l(1) =   0
                l(2) =   0
     Q(r) pseudized with  8 coefficients,  rinner =    0.700

     vdW kernel table read from file vdW_kernel_table
     MD5 check sum: 095c7af220d748ca6e76c0b4c6cfb241

     atomic species   valence    mass     pseudopotential
        Co            17.00    58.93319     Co( 1.00)
        C              4.00    12.01100     C ( 1.00)
        H              1.00     1.00800     H ( 1.00)

     Starting magnetic structure
     atomic species   magnetization
        Co           0.118
        C            0.000
        H            0.000

     No symmetry found

   Cartesian axes

     site n.     atom                  positions (alat units)
         1           Co  tau(   1) = (   0.2500000   0.1443376   1.9949931  )
         2           Co  tau(   2) = (   0.7500000   0.1443376   1.9949931  )
         3           Co  tau(   3) = (   0.5000000   0.5773503   1.9949931  )
         4           Co  tau(   4) = (   1.0000000   0.5773503   1.9949931  )
         5           Co  tau(   5) = (   1.0000000   0.2886751   2.4032414  )
         6           Co  tau(   6) = (   0.5000000   0.2886751   2.4032414  )
         7           Co  tau(   7) = (   1.2500000   0.7216878   2.4032414  )
         8           Co  tau(   8) = (   0.7500000   0.7216878   2.4032414  )
         9           Co  tau(   9) = (   0.0000000   0.0000000   2.8114897  )
        10           Co  tau(  10) = (   0.5000000   0.0000000   2.8114897  )
        11           Co  tau(  11) = (   0.2500000   0.4330127   2.8114897  )
        12           Co  tau(  12) = (   0.7500000   0.4330127   2.8114897  )
        13           C   tau(  13) = (   0.2500000   0.1443376   3.0734323  )
        14           H   tau(  14) = (   0.3756846   0.2700221   3.1991168  )
        15           H   tau(  15) = (   0.1243154   0.0186530   3.1991168  )

     number of k points=    40  Fermi-Dirac smearing, width (Ry)=  0.0110
                       cart. coord. in units 2pi/alat
        k(    1) = (   0.0000000   0.0000000   0.0000000), wk =   0.0277778
        k(    2) = (   0.0000000   0.1924501   0.0000000), wk =   0.0555556
        k(    3) = (   0.0000000   0.3849002   0.0000000), wk =   0.0555556
        k(    4) = (   0.0000000  -0.5773503   0.0000000), wk =   0.0277778
        k(    5) = (   0.1666667  -0.0962250   0.0000000), wk =   0.0555556
        k(    6) = (   0.1666667   0.0962250   0.0000000), wk =   0.0555556
        k(    7) = (   0.1666667   0.2886751   0.0000000), wk =   0.0555556
        k(    8) = (   0.1666667  -0.6735753   0.0000000), wk =   0.0555556
        k(    9) = (   0.1666667  -0.4811252   0.0000000), wk =   0.0555556
        k(   10) = (   0.1666667  -0.2886751   0.0000000), wk =   0.0555556
        k(   11) = (   0.3333333  -0.1924501   0.0000000), wk =   0.0555556
        k(   12) = (   0.3333333  -0.0000000   0.0000000), wk =   0.0555556
        k(   13) = (   0.3333333   0.1924501   0.0000000), wk =   0.0555556
        k(   14) = (   0.3333333  -0.7698004   0.0000000), wk =   0.0555556
        k(   15) = (   0.3333333  -0.5773503   0.0000000), wk =   0.0555556
        k(   16) = (   0.3333333  -0.3849002   0.0000000), wk =   0.0555556
        k(   17) = (  -0.5000000   0.2886751   0.0000000), wk =   0.0277778
        k(   18) = (  -0.5000000   0.4811252   0.0000000), wk =   0.0555556
        k(   19) = (  -0.5000000   0.6735753   0.0000000), wk =   0.0555556
        k(   20) = (  -0.5000000  -0.2886751   0.0000000), wk =   0.0277778
        k(   21) = (   0.0000000   0.0000000   0.0000000), wk =   0.0277778
        k(   22) = (   0.0000000   0.1924501   0.0000000), wk =   0.0555556
        k(   23) = (   0.0000000   0.3849002   0.0000000), wk =   0.0555556
        k(   24) = (   0.0000000  -0.5773503   0.0000000), wk =   0.0277778
        k(   25) = (   0.1666667  -0.0962250   0.0000000), wk =   0.0555556
        k(   26) = (   0.1666667   0.0962250   0.0000000), wk =   0.0555556
        k(   27) = (   0.1666667   0.2886751   0.0000000), wk =   0.0555556
        k(   28) = (   0.1666667  -0.6735753   0.0000000), wk =   0.0555556
        k(   29) = (   0.1666667  -0.4811252   0.0000000), wk =   0.0555556
        k(   30) = (   0.1666667  -0.2886751   0.0000000), wk =   0.0555556
        k(   31) = (   0.3333333  -0.1924501   0.0000000), wk =   0.0555556
        k(   32) = (   0.3333333  -0.0000000   0.0000000), wk =   0.0555556
        k(   33) = (   0.3333333   0.1924501   0.0000000), wk =   0.0555556
        k(   34) = (   0.3333333  -0.7698004   0.0000000), wk =   0.0555556
        k(   35) = (   0.3333333  -0.5773503   0.0000000), wk =   0.0555556
        k(   36) = (   0.3333333  -0.3849002   0.0000000), wk =   0.0555556
        k(   37) = (  -0.5000000   0.2886751   0.0000000), wk =   0.0277778
        k(   38) = (  -0.5000000   0.4811252   0.0000000), wk =   0.0555556
        k(   39) = (  -0.5000000   0.6735753   0.0000000), wk =   0.0555556
        k(   40) = (  -0.5000000  -0.2886751   0.0000000), wk =   0.0277778

     Largest allocated arrays     est. size (Mb)     dimensions
     Largest temporary arrays     est. size (Mb)     dimensions

     Check: negative/imaginary core charge=   -0.000007    0.000000

     Initial potential from superposition of free atoms
     Check: negative starting charge=(component1):   -0.000188
     Check: negative starting charge=(component2):   -0.000151

     starting charge  197.99986, renormalised to  210.00000

     negative rho (up, down):  1.998E-04 1.599E-04

     *
     * You are using vdW-DF for exchange-correlation in this calculation.
     * Please cite the following three references that made this development
     * possible:
     *
     *   M. Dion, H. Rydberg, E. Schroder, D. C. Langreth, and
     *   B. I. Lundqvist, Phys. Rev. Lett. 92, 246401 (2004).
     *
     *   T. Thonhauser, V. R. Cooper, S. Li, A. Puzder, P. Hyldgaard, and
     *   D. C. Langreth, Phys. Rev. B 76, 125112 (2007).
     *
     *   G. Roman-Perez and J. M. Soler, Phys. Rev. Lett. 103, 096102 (2009).
     *
     *
     * If you are using vdW-DF2, please also cite:
     *
     *   K. Lee, E. D. Murray, L. Kong, B. I. Lundqvist, and
     *   D. C. Langreth, Phys. Rev. B 82, 081101(R) (2010).
     *
     *
     * If you are calculating the stress with vdW-DF, please also cite:
     *
     *   R. Sabatini, E. Kucukbenli, B. Kolb, T. Thonhauser, and
     *   S. de Gironcoli, J. Phys.: Condens. Matter 24, 424209 (2012).
     *

     Carrying out vdW-DF run using the following parameters:

     Nqs =      20    Nr_points =    1024   r_max =   100.000
     q_mesh =
               0.00001000     0.04494208     0.09755937     0.15916263
               0.23128650     0.31572767     0.41458969     0.53033537
               0.66584808     0.82450364     1.01025438     1.22772762
               1.48234092     1.78043706     2.12944203     2.53805004
               3.01644009     3.57652955     4.23227104     5.00000000

     Gradients computed in reciprocal space

     Adding external electric field

     Computed dipole along edir(3) :
        Dipole               -2.4524 Ry au,         -6.2333 Debye
        Dipole field         -0.0087 Ry au

        Potential amp.        0.7139 Ry
        Total length         40.9758 bohr

[...]

     Starting wfc are  162 randomized atomic wfcs

     Self-consistent Calculation

     iteration #  1     ecut=    36.75 Ry     beta=0.10
     Davidson diagonalization with overlap
     ethr =  1.00E-02,  avg # of iterations =  7.3

[...]
     atom:   12    charge:   14.3709    magn:    1.6194    constr:    0.0000
     atom:   13    charge:    0.8432    magn:    0.0012    constr:    0.0000
     atom:   14    charge:    0.4018    magn:    0.0007    constr:    0.0000
     atom:   15    charge:    0.4041    magn:    0.0013    constr:    0.0000

     total energy              =   -3456.04017467 Ry
     Harris-Foulkes estimate   =   -3633.83473874 Ry
     estimated scf accuracy    <     979.08430444 Ry

     total magnetization       =    10.44 Bohr mag/cell
     absolute magnetization    =    11.02 Bohr mag/cell

[...]

     End of self-consistent calculation

 ------ SPIN UP ------------

          k = 0.0000 0.0000 0.0000 ( 13257 PWs)   bands (ev):

   -95.1112 -95.0838 -95.0654 -95.0441 -94.9216 -94.8908 -94.8649 -94.8529
   -94.8458 -94.7439 -94.6644 -94.5892 -58.4603 -58.4485 -58.4329 -58.4095
   -58.3700 -58.3500 -58.3353 -58.2832 -58.2746 -58.2680 -58.2271 -58.2178
   -58.2100 -58.1993 -58.1957 -58.1902 -58.1877 -58.1812 -58.1767 -58.1750
   -58.1684 -58.1625 -58.1480 -58.0409 -58.0381 -58.0337 -58.0309 -57.9820
   -57.9785 -57.9734 -57.9307 -57.9071 -57.8615 -57.8409 -57.8007 -57.7661
   -11.7124  -6.6038  -5.9301  -5.0927  -4.1380  -3.5668  -3.5519  -3.4729
    -3.4691  -3.3982  -3.2248  -3.2123  -2.9277  -2.9270  -2.9241  -2.8524
    -2.7141  -2.3025  -2.2709  -2.0224  -1.7516  -1.6431  -1.6303  -1.5406
    -1.4731  -1.4040  -1.4010  -1.3939  -1.1990  -1.1915  -1.1848  -1.1706
    -1.1437  -1.0886  -1.0325  -0.9842  -0.8594  -0.8206  -0.6753  -0.4112
    -0.3972  -0.3580  -0.3511  -0.3209  -0.1686  -0.0783  -0.0339   0.0321
     0.0956   0.2038   0.2254   0.2336   0.2618   0.3001   0.3048   0.4104
     0.4519   0.4570   0.4741   0.6940   0.6952   0.7003   0.7221   0.7444
     0.8273   1.0601   1.4068

[...]

          k =-0.5000 0.2887 0.0000 ( 13378 PWs)   bands (ev):

[...]

 ------ SPIN DOWN ----------

[...]

     the Fermi energy is     1.4480 ev

!    total energy              =   -3608.28455464 Ry
     Harris-Foulkes estimate   =   -3608.28452091 Ry
     estimated scf accuracy    <       0.00005177 Ry

     The total energy is the sum of the following terms:

     one-electron contribution =  -31959.11332521 Ry
     hartree contribution      =   15991.13596260 Ry
     xc contribution           =    -410.56724309 Ry
     ewald contribution        =   12770.33963046 Ry
     electric field correction =       0.00017700 Ry
     smearing contrib. (-TS)   =      -0.07975641 Ry

[...]

     convergence has been achieved in  30 iterations

     Forces acting on atoms (Ry/au):

     negative rho (up, down):  6.224E-04 3.264E-04
     atom    1 type  1   force =     0.00027998    0.00001840    0.00969012
     atom    2 type  1   force =    -0.00058235   -0.00171565    0.01097526
     atom    3 type  1   force =    -0.00151027    0.00054973    0.01186578
     atom    4 type  1   force =     0.00144464    0.00111174    0.01034390
     atom    5 type  1   force =    -0.00122336    0.00062990   -0.00190917
     atom    6 type  1   force =     0.00291858    0.00125673   -0.00362992
     atom    7 type  1   force =     0.00329109    0.00034161   -0.01394015
     atom    8 type  1   force =     0.00032799   -0.00215746   -0.00246733
     atom    9 type  1   force =    -0.01225581   -0.00324578   -0.01364270
     atom   10 type  1   force =     0.00431833   -0.00640956   -0.00132985
     atom   11 type  1   force =    -0.00665000    0.00956536   -0.00697742
     atom   12 type  1   force =     0.00588228    0.00015190   -0.02257538
     atom   13 type  2   force =     0.02046509    0.00085817   -0.01023757
     atom   14 type  3   force =    -0.00133959    0.00657373    0.01730172
     atom   15 type  3   force =    -0.01536658   -0.00752883    0.01653269

     Total force =     0.050714     Total SCF correction =     0.025026
     SCF correction compared to forces is large: reduce conv_thr to get better values

     BFGS Geometry Optimization

     number of scf cycles    =   1
     number of bfgs steps    =   0

     energy   new            =   -3608.2845546389 Ry

     new trust radius        =       0.0237938046 bohr
     new conv_thr            =       0.0001000000 Ry

ATOMIC_POSITIONS (angstrom)
Co       1.253137179   0.723499087  10.000000000    0   0   0
Co       3.759411536   0.723499087  10.000000000    0   0   0
Co       2.506274357   2.893996350  10.000000000    0   0   0
Co       5.012548715   2.893996350  10.000000000    0   0   0
Co       5.012548715   1.446998175  12.046364444    0   0   0
Co       2.506274357   1.446998175  12.046364444    0   0   0
Co       6.265685894   3.617495438  12.046364444    0   0   0
Co       3.759411536   3.617495438  12.046364444    0   0   0
Co      -0.006485494  -0.001717591  14.085509484
Co       2.508559518  -0.003391792  14.092025161
Co       1.249618149   2.175559034  14.089036598
Co       3.762524303   2.170577646  14.080782508
C        1.263966836   0.723953210  15.400311399
H        1.882428297   1.356977757  16.044884562
H        0.615005532   0.089515000  16.044477611

     Writing output data file calc.save
     Check: negative starting charge=(component1):   -0.000339
     NEW-OLD atomic charge density approx. for the potential

     Check: negative/imaginary core charge=   -0.000007    0.000000
     Check: negative starting charge=(component1):   -0.000338

[...]

     energy   old            =   -3608.2845546389 Ry
     energy   new            =   -3608.2865853776 Ry

     CASE: energy  _new < energy  _old

[...]

     Total force =     0.034764     Total SCF correction =     0.002013

[...]

     Total force =     0.013140     Total SCF correction =     0.001159

[...]

     WARNING: bfgs curvature condition failed, Theta= 0.906
     new trust radius        =       0.0179398471 bohr
     new conv_thr            =       0.0000010000 Ry

[...]

     number of scf cycles    =  36
     number of bfgs steps    =  35

     energy   old            =   -3608.2948982953 Ry
     energy   new            =   -3608.2949438943 Ry

     CASE: energy  _new < energy  _old

     new trust radius        =       0.0174538326 bohr
     new conv_thr            =       0.0000010000 Ry

ATOMIC_POSITIONS (angstrom)
Co       1.253137179   0.723499088  10.000000000    0   0   0
Co       3.759411536   0.723499088  10.000000000    0   0   0
Co       2.506274358   2.893996350  10.000000000    0   0   0
Co       5.012548715   2.893996350  10.000000000    0   0   0
Co       5.012548715   1.446998175  12.046364444    0   0   0
Co       2.506274358   1.446998175  12.046364444    0   0   0
Co       6.265685894   3.617495437  12.046364444    0   0   0
Co       3.759411536   3.617495437  12.046364444    0   0   0
Co      -0.055431433  -0.015524391  14.048012186
Co       2.469517787  -0.015324672  14.115946036
Co       1.214956323   2.157729615  14.099665736
Co       3.743657119   2.169472774  13.997404215
C        1.217765145   0.715703268  15.424102440
H        1.682686410   1.116083950  16.332866199
H        0.325743627   0.131099335  15.829251279

     Writing output data file calc.save
     Check: negative starting charge=(component1):   -0.000326
     NEW-OLD atomic charge density approx. for the potential

     Check: negative/imaginary core charge=   -0.000007    0.000000
     Check: negative starting charge=(component1):   -0.000326

[...]

     Self-consistent Calculation

[...]

     total energy              =   -3608.29498329 Ry
     Harris-Foulkes estimate   =   -3608.29498283 Ry
     estimated scf accuracy    <       0.00000262 Ry

[...]

     iteration # 11     ecut=    36.75 Ry     beta=0.10
     Davidson diagonalization with overlap
     ethr =  1.25E-09,  avg # of iterations =  1.0

     negative rho (up, down):  6.095E-04 3.226E-04

[...]

     Adding external electric field

     Computed dipole along edir(3) :
        Dipole                0.2060 Ry au,          0.5235 Debye
        Dipole field          0.0007 Ry au

        Potential amp.       -0.0600 Ry
        Total length         40.9758 bohr

     Magnetic moment per site:
     atom:    1    charge:   14.2943    magn:    1.7554    constr:    0.0000
     atom:    2    charge:   14.2956    magn:    1.7480    constr:    0.0000
     atom:    3    charge:   14.2956    magn:    1.7486    constr:    0.0000
     atom:    4    charge:   14.2959    magn:    1.7373    constr:    0.0000
     atom:    5    charge:   14.3022    magn:    1.7596    constr:    0.0000
     atom:    6    charge:   14.3012    magn:    1.7357    constr:    0.0000
     atom:    7    charge:   14.2997    magn:    1.6960    constr:    0.0000
     atom:    8    charge:   14.3016    magn:    1.7587    constr:    0.0000
     atom:    9    charge:   14.2952    magn:    1.4664    constr:    0.0000
     atom:   10    charge:   14.2983    magn:    1.3569    constr:    0.0000
     atom:   11    charge:   14.3029    magn:    1.3807    constr:    0.0000
     atom:   12    charge:   14.2455    magn:    1.8091    constr:    0.0000
     atom:   13    charge:    0.8244    magn:   -0.0211    constr:    0.0000
     atom:   14    charge:    0.3389    magn:    0.0032    constr:    0.0000
     atom:   15    charge:    0.3978    magn:    0.0054    constr:    0.0000

     End of self-consistent calculation

 ------ SPIN UP ------------

[...]

 ------ SPIN DOWN ----------

[...]

          k = 0.3333-0.3849 0.0000 ( 13313 PWs)   bands (ev):

[...]

          k =-0.5000-0.2887 0.0000 ( 13378 PWs)   bands (ev):

   -92.7674 -92.7630 -92.7481 -92.6798 -92.6597 -92.6530 -92.6419 -92.4823
   -92.4706 -92.4621 -92.4535 -92.4451 -56.3277 -56.2767 -56.2414 -56.1222
   -56.1108 -56.1031 -56.0974 -56.0792 -56.0422 -56.0377 -56.0277 -56.0231
   -56.0193 -56.0022 -56.0004 -55.9971 -55.9780 -55.9450 -55.9333 -55.9268
   -55.9209 -55.8926 -55.8910 -55.8420 -55.8324 -55.8188 -55.8176 -55.8079
   -55.8044 -55.7998 -55.7803 -55.7769 -55.7710 -55.7653 -55.7408 -55.7360
   -11.5134  -5.7992  -5.0530  -4.6749  -4.1275  -2.9085  -2.5279  -2.3724
    -2.2175  -1.9504  -1.7253  -1.6595  -1.6363  -1.4706  -1.1564  -1.0340
    -0.9849  -0.9585  -0.7802  -0.7397  -0.5001  -0.4788  -0.4575  -0.4437
    -0.4129  -0.2793  -0.2010   0.0039   0.0416   0.0884   0.1309   0.1635
     0.1810   0.2755   0.3000   0.4640   0.5728   0.5809   0.5899   0.7330
     0.7616   0.8075   1.0689   1.1909   1.2215   1.2662   1.3054   1.3453
     1.4319   1.4739   1.5752   1.5929   1.6596   1.6859   1.7159   1.8049
     1.9000   1.9283   1.9991   2.0791   2.1321   2.3174   2.3527   2.4383
     2.5417   2.5737   2.9317

     the Fermi energy is     1.4151 ev

!    total energy              =   -3608.29498452 Ry
     Harris-Foulkes estimate   =   -3608.29498435 Ry
     estimated scf accuracy    <       0.00000071 Ry

     The total energy is the sum of the following terms:

     one-electron contribution =  -32053.80472049 Ry
     hartree contribution      =   16038.18280758 Ry
     xc contribution           =    -410.55320237 Ry
     ewald contribution        =   12817.95838033 Ry
     electric field correction =       0.00015067 Ry
     smearing contrib. (-TS)   =      -0.07840024 Ry

     total magnetization       =    19.39 Bohr mag/cell
     absolute magnetization    =    22.05 Bohr mag/cell

     convergence has been achieved in  11 iterations

     Forces acting on atoms (Ry/au):

     negative rho (up, down):  6.095E-04 3.226E-04
     atom    1 type  1   force =    -0.00029342   -0.00015838    0.00875272
     atom    2 type  1   force =    -0.00067619   -0.00223572    0.01089666
     atom    3 type  1   force =    -0.00217282    0.00068657    0.01125082
     atom    4 type  1   force =     0.00109494    0.00078912    0.00993946
     atom    5 type  1   force =     0.00196661    0.00033452   -0.00932268
     atom    6 type  1   force =    -0.00277294   -0.00185752   -0.00633797
     atom    7 type  1   force =     0.00033662    0.00048413   -0.01712689
     atom    8 type  1   force =     0.00115371    0.00213165   -0.00894379
     atom    9 type  1   force =     0.00181011    0.00034008    0.00154962
     atom   10 type  1   force =    -0.00039448    0.00182012   -0.00092163
     atom   11 type  1   force =    -0.00008323   -0.00035118   -0.00175446
     atom   12 type  1   force =    -0.00048366   -0.00097894    0.00005557
     atom   13 type  2   force =     0.00028906    0.00051133    0.00056382
     atom   14 type  3   force =     0.00043722   -0.00144674    0.00010850
     atom   15 type  3   force =    -0.00021152   -0.00006903    0.00129024

     Total force =     0.004380     Total SCF correction =     0.003264
     SCF correction compared to forces is large: reduce conv_thr to get better values

     bfgs converged in  37 scf cycles and  36 bfgs steps
     (criteria: energy <  1.0E+12, force <  1.9E-03)

     End of BFGS Geometry Optimization

     Final energy   =   -3608.2949845218 Ry
Begin final coordinates

ATOMIC_POSITIONS (angstrom)
Co       1.253137179   0.723499088  10.000000000    0   0   0
Co       3.759411536   0.723499088  10.000000000    0   0   0
Co       2.506274358   2.893996350  10.000000000    0   0   0
Co       5.012548715   2.893996350  10.000000000    0   0   0
Co       5.012548715   1.446998175  12.046364444    0   0   0
Co       2.506274358   1.446998175  12.046364444    0   0   0
Co       6.265685894   3.617495437  12.046364444    0   0   0
Co       3.759411536   3.617495437  12.046364444    0   0   0
Co      -0.055431433  -0.015524391  14.048012186
Co       2.469517787  -0.015324672  14.115946036
Co       1.214956323   2.157729615  14.099665736
Co       3.743657119   2.169472774  13.997404215
C        1.217765145   0.715703268  15.424102440
H        1.682686410   1.116083950  16.332866199
H        0.325743627   0.131099335  15.829251279
End final coordinates

     Writing output data file calc.save

     General routines

     Parallel routines

   This run was terminated on:  15:32:28  17Jan2019

   JOB DONE.
Job  /afs/slac/g/suncat/bin/suncat-tsmpirun -x LD_LIBRARY_PATH -wdir /tmp/qe_6936711c8vmb4f_scratch pw.x -npool 2 -in pw.pwi

TID   HOST_NAME   COMMAND_LINE            STATUS            TERMINATION_TIME
00000 suncat2068 pw.x -npool 2 -i  Done                     01/17/2019 15:32:28
00001 suncat2068 pw.x -npool 2 -i  Done                     01/17/2019 15:32:28
00002 suncat2068 pw.x -npool 2 -i  Done                     01/17/2019 15:32:28
00003 suncat2068 pw.x -npool 2 -i  Done                     01/17/2019 15:32:28
00004 suncat2068 pw.x -npool 2 -i  Done                     01/17/2019 15:32:28
00005 suncat2068 pw.x -npool 2 -i  Done                     01/17/2019 15:32:28
00006 suncat2068 pw.x -npool 2 -i  Done                     01/17/2019 15:32:28
00007 suncat2068 pw.x -npool 2 -i  Done                     01/17/2019 15:32:28
00008 suncat2068 pw.x -npool 2 -i  Done                     01/17/2019 15:32:28
00009 suncat2068 pw.x -npool 2 -i  Done                     01/17/2019 15:32:28
00010 suncat2068 pw.x -npool 2 -i  Done                     01/17/2019 15:32:28
00011 suncat2068 pw.x -npool 2 -i  Done                     01/17/2019 15:32:28
00012 suncat2068 pw.x -npool 2 -i  Done                     01/17/2019 15:32:28
00013 suncat2068 pw.x -npool 2 -i  Done                     01/17/2019 15:32:28
00014 suncat2068 pw.x -npool 2 -i  Done                     01/17/2019 15:32:28
00015 suncat2068 pw.x -npool 2 -i  Done                     01/17/2019 15:32:28
00016 suncat2048 pw.x -npool 2 -i  Done                     01/17/2019 15:32:28
00017 suncat2048 pw.x -npool 2 -i  Done                     01/17/2019 15:32:28
00018 suncat2048 pw.x -npool 2 -i  Done                     01/17/2019 15:32:28
00019 suncat2048 pw.x -npool 2 -i  Done                     01/17/2019 15:32:28
00020 suncat2048 pw.x -npool 2 -i  Done                     01/17/2019 15:32:28
00021 suncat2048 pw.x -npool 2 -i  Done                     01/17/2019 15:32:28
00022 suncat2048 pw.x -npool 2 -i  Done                     01/17/2019 15:32:28
00023 suncat2048 pw.x -npool 2 -i  Done                     01/17/2019 15:32:28
00024 suncat2048 pw.x -npool 2 -i  Done                     01/17/2019 15:32:28
00025 suncat2048 pw.x -npool 2 -i  Done                     01/17/2019 15:32:28
00026 suncat2048 pw.x -npool 2 -i  Done                     01/17/2019 15:32:28
00027 suncat2048 pw.x -npool 2 -i  Done                     01/17/2019 15:32:28
00028 suncat2048 pw.x -npool 2 -i  Done                     01/17/2019 15:32:28
00029 suncat2048 pw.x -npool 2 -i  Done                     01/17/2019 15:32:28
00030 suncat2048 pw.x -npool 2 -i  Done                     01/17/2019 15:32:28
00031 suncat2048 pw.x -npool 2 -i  Done                     01/17/2019 15:32:28