     Program PWSCF v.5.1rc2 (svn rev. ) starts on 17Apr2018 at 23:17:24

     Current dimensions of program PWSCF are:
     Max number of different atomic species (ntypx) = 10
     Max number of k-points (npk) =  40000
     Max angular momentum in pseudopotentials (lmaxx) =  3
     Presently stress not available with electric field

     IMPORTANT: XC functional enforced from input :
     Exchange-correlation      = BEEF-VDW ( 1  4 27 13 2)
     Any further DFT definition will be discarded
     Please, verify this is what you really want

     Subspace diagonalization in iterative solution of the eigenvalue problem:
     a serial algorithm will be used

     bravais-lattice index     =            0
     lattice parameter (alat)  =       1.8897  a.u.
     unit-cell volume          =    5409.9593 (a.u.)^3
     number of atoms/cell      =           14
     number of atomic types    =            3
     number of electrons       =       235.00
     number of Kohn-Sham states=          127
     kinetic-energy cutoff     =      36.7493  Ry
     charge density cutoff     =     367.4932  Ry
     convergence threshold     =      1.0E-05
     mixing beta               =       0.3000
     number of iterations used =           10  plain     mixing
     Exchange-correlation      = BEEF-VDW ( 1  4 27 13 2)
     nstep                     =           50

     celldm(1)=   1.889726  celldm(2)=   0.000000  celldm(3)=   0.000000
     celldm(4)=   0.000000  celldm(5)=   0.000000  celldm(6)=   0.000000

     crystal axes: (cart. coord. in units of alat)
               a(1) = (   6.088539   0.000000   0.000000 )
               a(2) = (   3.044269   5.272829   0.000000 )
               a(3) = (   0.000000   0.000000  24.971271 )

     reciprocal axes: (cart. coord. in units 2 pi/alat)
               b(1) = (  0.164243 -0.094826  0.000000 )
               b(2) = (  0.000000  0.189652  0.000000 )
               b(3) = (  0.000000  0.000000  0.040046 )

     PseudoPot. # 1 for Ga read from file:
     /home/mamunm/src/pseudo/gbrv1.5pbe/Ga.UPF
     MD5 check sum: ccd671392a58a050fbb373893b4fcd66
     Pseudo is Ultrasoft + core correction, Zval = 19.0
     Generated by new atomic code, or converted to UPF format
     Using radial grid of  871 points,  6 beta functions with:
                l(1) =   0
                l(2) =   0
                l(3) =   1
                l(4) =   1
                l(5) =   2
                l(6) =   2
     Q(r) pseudized with  8 coefficients,  rinner =    1.250   1.250   1.250
                                                       1.250   1.250

     PseudoPot. # 2 for S  read from file:
     /home/mamunm/src/pseudo/gbrv1.5pbe/S.UPF
     MD5 check sum: 88d86576ff6df21479756cfb9bdac1df
     Pseudo is Ultrasoft + core correction, Zval =  6.0
     Generated by new atomic code, or converted to UPF format
     Using radial grid of  907 points,  6 beta functions with:
                l(1) =   0
                l(2) =   0
                l(3) =   1
                l(4) =   1
                l(5) =   2
                l(6) =   2
     Q(r) pseudized with  8 coefficients,  rinner =    1.300   1.300   1.300
                                                       1.300   1.300

     PseudoPot. # 3 for H  read from file:
     /home/mamunm/src/pseudo/gbrv1.5pbe/H.UPF
     MD5 check sum: 761ae9a214b05c3daf00ab9f6b793d6f
     Pseudo is Ultrasoft, Zval =  1.0
     Generated by new atomic code, or converted to UPF format
     Using radial grid of  615 points,  2 beta functions with:
                l(1) =   0
                l(2) =   0
     Q(r) pseudized with  8 coefficients,  rinner =    0.700

     vdW kernel table read from file vdW_kernel_table
     MD5 check sum: 095c7af220d748ca6e76c0b4c6cfb241

     atomic species   valence    mass     pseudopotential
        Ga1           19.00    69.72300     Ga( 1.00)
        S1             6.00    32.06000     S ( 1.00)
        H1             1.00     1.00800     H ( 1.00)

     No symmetry found

   Cartesian axes

     site n.     atom                  positions (alat units)
         1           Ga1 tau(   1) = (   1.5221346   0.8788048  10.0000000  )
         2           Ga1 tau(   2) = (   4.5664039   0.8788048  10.0000000  )
         3           Ga1 tau(   3) = (   3.0442693   3.5152194  10.0000000  )
         4           Ga1 tau(   4) = (   6.0885386   3.5152194  10.0000000  )
         5           Ga1 tau(   5) = (   6.0885386   1.7576097  12.4856355  )
         6           Ga1 tau(   6) = (   3.0442693   1.7576097  12.4856355  )
         7           Ga1 tau(   7) = (   7.6106732   4.3940242  12.4856355  )
         8           Ga1 tau(   8) = (   4.5664039   4.3940242  12.4856355  )
         9           Ga1 tau(   9) = (   0.0000000   0.0000000  14.9712709  )
        10           Ga1 tau(  10) = (   3.0442693   0.0000000  14.9712709  )
        11           Ga1 tau(  11) = (   1.5221346   2.6364145  14.9712709  )
        12           Ga1 tau(  12) = (   4.5664039   2.6364145  14.9712709  )
        13           S1  tau(  13) = (   0.0000000   0.0000000  16.9007709  )
        14           H1  tau(  14) = (   0.0000000   0.0000000  18.1507709  )

     number of k points=    20  Fermi-Dirac smearing, width (Ry)=  0.0110
                       cart. coord. in units 2pi/alat
        k(    1) = (   0.0000000   0.0000000   0.0000000), wk =   0.0555556
        k(    2) = (   0.0000000   0.0316086   0.0000000), wk =   0.1111111
        k(    3) = (   0.0000000   0.0632172   0.0000000), wk =   0.1111111
        k(    4) = (   0.0000000  -0.0948258   0.0000000), wk =   0.0555556
        k(    5) = (   0.0273738  -0.0158043   0.0000000), wk =   0.1111111
        k(    6) = (   0.0273738   0.0158043   0.0000000), wk =   0.1111111
        k(    7) = (   0.0273738   0.0474129   0.0000000), wk =   0.1111111
        k(    8) = (   0.0273738  -0.1106300   0.0000000), wk =   0.1111111
        k(    9) = (   0.0273738  -0.0790215   0.0000000), wk =   0.1111111
        k(   10) = (   0.0273738  -0.0474129   0.0000000), wk =   0.1111111
        k(   11) = (   0.0547477  -0.0316086   0.0000000), wk =   0.1111111
        k(   12) = (   0.0547477   0.0000000   0.0000000), wk =   0.1111111
        k(   13) = (   0.0547477   0.0316086   0.0000000), wk =   0.1111111
        k(   14) = (   0.0547477  -0.1264343   0.0000000), wk =   0.1111111
        k(   15) = (   0.0547477  -0.0948258   0.0000000), wk =   0.1111111
        k(   16) = (   0.0547477  -0.0632172   0.0000000), wk =   0.1111111
        k(   17) = (  -0.0821215   0.0474129   0.0000000), wk =   0.0555556
        k(   18) = (  -0.0821215   0.0790215   0.0000000), wk =   0.1111111
        k(   19) = (  -0.0821215   0.1106300   0.0000000), wk =   0.1111111
        k(   20) = (  -0.0821215  -0.0474129   0.0000000), wk =   0.0555556

     Largest allocated arrays     est. size (Mb)     dimensions
     Largest temporary arrays     est. size (Mb)     dimensions

     Initial potential from superposition of free atoms
     Check: negative starting charge=   -0.001028

     starting charge  222.99994, renormalised to  235.00000

     negative rho (up, down):  1.083E-03 0.000E+00

     *
     * You are using vdW-DF for exchange-correlation in this calculation.
     * Please cite the following three references that made this development
     * possible:
     *
     *   M. Dion, H. Rydberg, E. Schroder, D. C. Langreth, and
     *   B. I. Lundqvist, Phys. Rev. Lett. 92, 246401 (2004).
     *
     *   T. Thonhauser, V. R. Cooper, S. Li, A. Puzder, P. Hyldgaard, and
     *   D. C. Langreth, Phys. Rev. B 76, 125112 (2007).
     *
     *   G. Roman-Perez and J. M. Soler, Phys. Rev. Lett. 103, 096102 (2009).
     *
     *
     * If you are using vdW-DF2, please also cite:
     *
     *   K. Lee, E. D. Murray, L. Kong, B. I. Lundqvist, and
     *   D. C. Langreth, Phys. Rev. B 82, 081101(R) (2010).
     *
     *
     * If you are calculating the stress with vdW-DF, please also cite:
     *
     *   R. Sabatini, E. Kucukbenli, B. Kolb, T. Thonhauser, and
     *   S. de Gironcoli, J. Phys.: Condens. Matter 24, 424209 (2012).
     *

     Carrying out vdW-DF run using the following parameters:

     Nqs =      20    Nr_points =    1024   r_max =   100.000
     q_mesh =
               0.00001000     0.04494208     0.09755937     0.15916263
               0.23128650     0.31572767     0.41458969     0.53033537
               0.66584808     0.82450364     1.01025438     1.22772762
               1.48234092     1.78043706     2.12944203     2.53805004
               3.01644009     3.57652955     4.23227104     5.00000000

     Gradients computed in reciprocal space

     Adding external electric field

     Computed dipole along edir(3) :
        Dipole               -3.2695 Ry au,         -8.3103 Debye
        Dipole field         -0.0076 Ry au

        Potential amp.        0.6988 Ry
        Total length         46.0091 bohr

     Starting wfc are  149 randomized atomic wfcs

     Self-consistent Calculation

     iteration #  1     ecut=    36.75 Ry     beta=0.30
     Davidson diagonalization with overlap
     ethr =  1.00E-02,  avg # of iterations =  7.0

[...]

     total energy              =   -4672.70484560 Ry
     Harris-Foulkes estimate   =   -5032.18380102 Ry
     estimated scf accuracy    <     757.95123687 Ry

     iteration #  2     ecut=    36.75 Ry     beta=0.30
     Davidson diagonalization with overlap
     c_bands:  2 eigenvalues not converged
     c_bands:  3 eigenvalues not converged
     c_bands:  1 eigenvalues not converged
     c_bands:  3 eigenvalues not converged
     c_bands:  4 eigenvalues not converged
     c_bands:  1 eigenvalues not converged
     ethr =  1.00E-02,  avg # of iterations = 20.1

[...]

     End of self-consistent calculation

          k = 0.0000 0.0000 0.0000 ( 20347 PWs)   bands (ev):

   -94.8124 -94.7538 -94.7538 -94.3426 -94.3424 -94.3424 -94.3349 -94.3347
   -94.3347 -94.3213 -94.3213 -94.3209 -94.3207 -94.3196 -94.3193 -94.3193
   -94.3188 -94.3187 -94.3184 -94.3184 -94.3179 -94.3128 -94.3128 -94.3122
   -94.3115 -94.3107 -94.3107 -94.3073 -94.3070 -94.3059 -94.3059 -94.2930
   -94.2930 -94.2738 -94.2738 -94.2690 -15.9909 -15.1975 -15.1975 -15.1093
   -15.1093 -14.8120 -14.8089 -14.8089 -14.7767 -14.7681 -14.7594 -14.7594
   -14.7565 -14.7514 -14.7507 -14.7507 -14.7314 -14.7219 -14.7219 -14.7117
   -14.7117 -14.7089 -14.7054 -14.6948 -14.6948 -14.6893 -14.6879 -14.6879
   -14.6848 -14.6848 -14.6757 -14.6535 -14.6535 -14.6279 -14.6183 -14.6183
   -14.6079 -14.6079 -14.6064 -14.6064 -14.5744 -14.5744 -14.5585 -14.5585
   -14.5582 -14.5570 -14.5545 -14.5545 -14.5314 -14.5314 -14.5285 -14.5285
   -14.5219 -14.5163 -14.5160 -14.5089 -14.5089 -14.5082 -14.4967 -14.4967
   -13.6932  -9.7562  -8.7016  -7.4164  -5.5898  -4.5433  -4.5433  -4.4208
    -4.1217  -4.1217  -3.8303  -3.2845  -3.2845  -2.7442  -2.7442  -2.5581
    -2.2788  -1.7737  -1.7737  -1.4894  -0.5394  -0.5394  -0.4154   0.0752
     0.1287   0.1287   1.6116   3.1983   3.2394   3.3722   3.3722

[...]

          k =-0.0821 0.0474 0.0000 ( 20384 PWs)   bands (ev):

[...]

     the Fermi energy is     0.4109 ev

!    total energy              =   -5024.53601968 Ry
     Harris-Foulkes estimate   =   -5024.53602419 Ry
     estimated scf accuracy    <       0.00000175 Ry

     The total energy is the sum of the following terms:

     one-electron contribution =  -27474.73238578 Ry
     hartree contribution      =   13745.27186344 Ry
     xc contribution           =    -606.21193257 Ry
     ewald contribution        =    9311.17428393 Ry
     electric field correction =       0.00001042 Ry
     smearing contrib. (-TS)   =      -0.03785911 Ry

     convergence has been achieved in  18 iterations

 BEEF-vdW xc energy contributions
           1 :   -541.583466920414
           2 :    491.422958461153
           3 :   -407.317900523880
           4 :    313.677488433572
           5 :   -232.133595045014
           6 :    173.485998485130
           7 :   -136.128031741072
           8 :    110.754389511790
           9 :   -87.8069480832139
          10 :    63.0585369083693
          11 :   -38.5209885642220
          12 :    19.1078019060037
          13 :   -8.05285978468373
          14 :    4.37413236242446
          15 :   -3.77948263401629
          16 :    1.84994691913653
          17 :    3.06617581926639
          18 :   -9.27218078823978
          19 :    13.5875620212219
          20 :   -14.0364739669419
          21 :    11.3222084437627
          22 :   -8.14298254686901
          23 :    7.06545805019687
          24 :   -8.66625641226142
          25 :    11.3032420584659
          26 :   -12.5633166697835
          27 :    11.1821984022063
          28 :   -7.96818752161016
          29 :    5.10227428826101
          30 :   -4.43931869168887
          31 :   -40.2935839579367
          32 :   -27.3562222988015

     Forces acting on atoms (Ry/au):

     negative rho (up, down):  8.836E-04 0.000E+00
     atom    1 type  1   force =     0.00239369    0.00138952    0.00032728
     atom    2 type  1   force =    -0.00241998    0.00139268    0.00030514
     atom    3 type  1   force =     0.00000828   -0.00278671    0.00023446
     atom    4 type  1   force =    -0.00003194   -0.00002882   -0.00211210
     atom    5 type  1   force =    -0.00000595    0.00253828    0.00207517
     atom    6 type  1   force =     0.00001674    0.00000506   -0.00313330
     atom    7 type  1   force =    -0.00218695   -0.00125261    0.00204145
     atom    8 type  1   force =     0.00219851   -0.00126974    0.00197698
     atom    9 type  1   force =    -0.00000444   -0.00000052   -0.26706957
     atom   10 type  1   force =     0.00001807    0.00005324   -0.00866853
     atom   11 type  1   force =     0.00004718   -0.00001620   -0.00865946
     atom   12 type  1   force =    -0.00004238   -0.00002928   -0.00855894
     atom   13 type  2   force =     0.00000464    0.00000254    0.16004206
     atom   14 type  3   force =     0.00000453    0.00000257    0.13119935

     Total force =     0.338196     Total SCF correction =     0.003609

     entering subroutine stress ...

     negative rho (up, down):  8.836E-04 0.000E+00
          total   stress  (Ry/bohr**3)                   (kbar)     P=   10.26
  -0.00002586  -0.00000000   0.00000000         -3.80     -0.00      0.00
  -0.00000000  -0.00002586   0.00000000         -0.00     -3.80      0.00
   0.00000000   0.00000000   0.00026087          0.00      0.00     38.38

     BFGS Geometry Optimization

     number of scf cycles    =   1
     number of bfgs steps    =   0

     energy   new            =   -5024.5360196799 Ry

     new trust radius        =       0.2670695654 bohr
     new conv_thr            =       0.0000099958 Ry

ATOMIC_POSITIONS (crystal)
Ga1      0.166666667   0.166666667   0.400460194    0   0   0
Ga1      0.666666667   0.166666667   0.400460194    0   0   0
Ga1      0.166666667   0.666666667   0.400460194    0   0   0
Ga1      0.666666667   0.666666667   0.400460194    0   0   0
Ga1      0.833333333   0.333333333   0.500000000    0   0   0
Ga1      0.333333333   0.333333333   0.500000000    0   0   0
Ga1      0.833333333   0.833333333   0.500000000    0   0   0
Ga1      0.333333333   0.833333333   0.500000000    0   0   0
Ga1     -0.000000359  -0.000000052   0.593880217
Ga1      0.499998899   0.000005343   0.599356107
Ga1      0.000004914   0.499998374   0.599356300
Ga1      0.499997786   0.499997061   0.599358430
S1       0.000000276   0.000000255   0.680200122
H1       0.000000265   0.000000258   0.729646428

     Writing output data file calc.save
     Check: negative starting charge=   -0.001028
     NEW-OLD atomic charge density approx. for the potential
     Check: negative starting charge=   -0.001022

[...]

     energy   old            =   -5024.5360196799 Ry
     energy   new            =   -5024.6035784057 Ry

     CASE: energy  _new < energy  _old

[...]

     Total force =     0.014466     Total SCF correction =     0.000618

[...]

     Total force =     0.011514     Total SCF correction =     0.001492
     SCF correction compared to forces is large: reduce conv_thr to get better values

[...]

     number of scf cycles    =  14
     number of bfgs steps    =  13

     energy   old            =   -5024.6440703550 Ry
     energy   new            =   -5024.6446032208 Ry

     CASE: energy  _new < energy  _old

     new trust radius        =       0.0486645858 bohr
     new conv_thr            =       0.0000001000 Ry

ATOMIC_POSITIONS (crystal)
Ga1      0.166666667   0.166666667   0.400460194    0   0   0
Ga1      0.666666667   0.166666667   0.400460194    0   0   0
Ga1      0.166666667   0.666666667   0.400460194    0   0   0
Ga1      0.666666667   0.666666667   0.400460194    0   0   0
Ga1      0.833333333   0.333333333   0.500000000    0   0   0
Ga1      0.333333333   0.333333333   0.500000000    0   0   0
Ga1      0.833333333   0.833333333   0.500000000    0   0   0
Ga1      0.333333333   0.833333333   0.500000000    0   0   0
Ga1      0.000000469   0.000000671   0.592513160
Ga1      0.501110392  -0.002223624   0.606147976
Ga1     -0.002221896   0.501110447   0.606146504
Ga1      0.501110848   0.501113627   0.606145479
S1       0.000007856  -0.000000010   0.694136175
H1      -0.000003145   0.000000147   0.748423520

     Writing output data file calc.save
     Check: negative starting charge=   -0.000956
     NEW-OLD atomic charge density approx. for the potential
     Check: negative starting charge=   -0.000957

[...]

     Self-consistent Calculation

[...]

     total energy              =   -5024.64467020 Ry
     Harris-Foulkes estimate   =   -5024.64467322 Ry
     estimated scf accuracy    <       0.00001488 Ry

     iteration #  8     ecut=    36.75 Ry     beta=0.30
     Davidson diagonalization with overlap
     ethr =  6.33E-09,  avg # of iterations =  2.0

[...]

     negative rho (up, down):  8.409E-04 0.000E+00

     Adding external electric field

     Computed dipole along edir(3) :
        Dipole               -0.3339 Ry au,         -0.8488 Debye
        Dipole field         -0.0008 Ry au

        Potential amp.        0.0714 Ry
        Total length         46.0091 bohr

     End of self-consistent calculation

[...]

          k = 0.0547-0.0632 0.0000 ( 20377 PWs)   bands (ev):

[...]

          k =-0.0821-0.0474 0.0000 ( 20384 PWs)   bands (ev):

   -94.8997 -94.8820 -94.8820 -94.8582 -94.8582 -94.8581 -94.8420 -94.8420
   -94.8419 -94.8337 -94.8334 -94.8332 -94.8263 -94.8258 -94.8253 -94.8228
   -94.8226 -94.8224 -94.8218 -94.8213 -94.8208 -94.8203 -94.8168 -94.8163
   -94.8160 -94.8159 -94.8158 -94.8157 -94.8156 -94.8156 -94.8153 -94.8054
   -94.8054 -94.7995 -94.7988 -94.7987 -15.3283 -15.2920 -15.2865 -15.2746
   -15.2681 -15.2616 -15.2594 -15.2486 -15.2390 -15.2335 -15.2331 -15.2209
   -15.2208 -15.2182 -15.2115 -15.2062 -15.2061 -15.2026 -15.1983 -15.1936
   -15.1909 -15.1828 -15.1785 -15.1747 -15.1730 -15.1690 -15.1665 -15.1661
   -15.1624 -15.1604 -15.1586 -15.1567 -15.1417 -15.1405 -15.1379 -15.1272
   -15.1244 -15.1174 -15.1174 -15.1142 -15.1137 -15.1103 -15.1089 -15.1045
   -15.1031 -15.1015 -15.0947 -15.0936 -15.0920 -15.0904 -15.0887 -15.0836
   -15.0745 -15.0654 -15.0538 -15.0507 -15.0499 -15.0473 -15.0263 -15.0181
   -12.3741  -8.8357  -8.6899  -7.4644  -7.2924  -6.0663  -5.9984  -5.7958
    -5.2987  -4.9234  -4.6620  -4.0586  -2.8919  -2.6022  -1.5832  -1.2057
    -0.6792  -0.6443  -0.4867  -0.4190  -0.0969  -0.0767   0.8901   0.9531
     1.0465   1.2485   1.9421   2.1711   2.2523   2.2958   2.4452

     the Fermi energy is    -0.0958 ev

!    total energy              =   -5024.64467017 Ry
     Harris-Foulkes estimate   =   -5024.64466912 Ry
     estimated scf accuracy    <       0.00000009 Ry

     The total energy is the sum of the following terms:

     one-electron contribution =  -27017.60751608 Ry
     hartree contribution      =   13513.61265493 Ry
     xc contribution           =    -605.86789879 Ry
     ewald contribution        =    9085.25800915 Ry
     electric field correction =       0.00025902 Ry
     smearing contrib. (-TS)   =      -0.04017840 Ry

     convergence has been achieved in   8 iterations

 BEEF-vdW xc energy contributions
           1 :   -541.232849697514
           2 :    490.941573367834
           3 :   -406.687262269217
           4 :    313.011769663387
           5 :   -231.599737649895
           6 :    173.187915908605
           7 :   -136.039877962428
           8 :    110.748863504086
           9 :   -87.7516543823155
          10 :    62.9084907360077
          11 :   -38.3418106295230
          12 :    19.0160923168526
          13 :   -8.12111704722167
          14 :    4.57348315613626
          15 :   -4.00212615593648
          16 :    1.99131317600927
          17 :    3.03155125036278
          18 :   -9.28012776264495
          19 :    13.5439383434846
          20 :   -13.8973627553528
          21 :    11.1311059385137
          22 :   -7.99600807934189
          23 :    7.03389706007329
          24 :   -8.73967363781844
          25 :    11.3993255289508
          26 :   -12.5968254417191
          27 :    11.1376853782267
          28 :   -7.91685066465141
          29 :    5.14614694940383
          30 :   -4.62371104175645
          31 :   -40.2673550434217
          32 :   -27.2984373095499

     Forces acting on atoms (Ry/au):

     negative rho (up, down):  8.409E-04 0.000E+00
     atom    1 type  1   force =     0.00047767    0.00027584    0.00021035
     atom    2 type  1   force =    -0.00047772    0.00027591    0.00021028
     atom    3 type  1   force =     0.00000004   -0.00055161    0.00021022
     atom    4 type  1   force =    -0.00000006   -0.00000002    0.00161399
     atom    5 type  1   force =     0.00000006    0.00714369   -0.00102635
     atom    6 type  1   force =    -0.00000051   -0.00000038    0.00229224
     atom    7 type  1   force =    -0.00618682   -0.00357155   -0.00102547
     atom    8 type  1   force =     0.00618716   -0.00357167   -0.00102655
     atom    9 type  1   force =    -0.00000289    0.00000005   -0.00050267
     atom   10 type  1   force =     0.00000057    0.00087350   -0.00098324
     atom   11 type  1   force =     0.00075640   -0.00043643   -0.00098229
     atom   12 type  1   force =    -0.00075663   -0.00043719   -0.00098226
     atom   13 type  2   force =     0.00000598   -0.00000026    0.00120689
     atom   14 type  3   force =    -0.00000326    0.00000012    0.00078485

     Total force =     0.002741     Total SCF correction =     0.001477
     SCF correction compared to forces is large: reduce conv_thr to get better values

     entering subroutine stress ...

     negative rho (up, down):  8.409E-04 0.000E+00
          total   stress  (Ry/bohr**3)                   (kbar)     P=   -7.27
  -0.00006942  -0.00000000   0.00000000        -10.21     -0.00      0.00
  -0.00000000  -0.00006942  -0.00000000         -0.00    -10.21     -0.00
   0.00000000  -0.00000000  -0.00000947          0.00     -0.00     -1.39

     bfgs converged in  15 scf cycles and  14 bfgs steps
     (criteria: energy <  1.0E+00, force <  1.9E-03)

     End of BFGS Geometry Optimization

     Final energy   =   -5024.6446701747 Ry
Begin final coordinates

ATOMIC_POSITIONS (crystal)
Ga1      0.166666667   0.166666667   0.400460194    0   0   0
Ga1      0.666666667   0.166666667   0.400460194    0   0   0
Ga1      0.166666667   0.666666667   0.400460194    0   0   0
Ga1      0.666666667   0.666666667   0.400460194    0   0   0
Ga1      0.833333333   0.333333333   0.500000000    0   0   0
Ga1      0.333333333   0.333333333   0.500000000    0   0   0
Ga1      0.833333333   0.833333333   0.500000000    0   0   0
Ga1      0.333333333   0.833333333   0.500000000    0   0   0
Ga1      0.000000469   0.000000671   0.592513160
Ga1      0.501110392  -0.002223624   0.606147976
Ga1     -0.002221896   0.501110447   0.606146504
Ga1      0.501110848   0.501113627   0.606145479
S1       0.000007856  -0.000000010   0.694136175
H1      -0.000003145   0.000000147   0.748423520
End final coordinates

     Writing output data file calc.save

     General routines

     Parallel routines

   This run was terminated on:   0:29:37  18Apr2018

   JOB DONE.