     Program PWSCF v.5.1rc2 (svn rev. 11289) starts on  3May2018 at  6:36:39

     Current dimensions of program PWSCF are:
     Max number of different atomic species (ntypx) = 10
     Max number of k-points (npk) =  40000
     Max angular momentum in pseudopotentials (lmaxx) =  3
     Presently stress not available with electric field

     IMPORTANT: XC functional enforced from input :
     Exchange-correlation      = BEEF-VDW ( 1  4 27 13 2)
     Any further DFT definition will be discarded
     Please, verify this is what you really want

     Subspace diagonalization in iterative solution of the eigenvalue problem:
     a serial algorithm will be used

     bravais-lattice index     =            0
     lattice parameter (alat)  =       1.8897  a.u.
     unit-cell volume          =    5185.0501 (a.u.)^3
     number of atoms/cell      =           13
     number of atomic types    =            2
     number of electrons       =       160.00
     number of Kohn-Sham states=           90
     kinetic-energy cutoff     =      36.7493  Ry
     charge density cutoff     =     367.4932  Ry
     convergence threshold     =      1.0E-05
     mixing beta               =       0.3000
     number of iterations used =           10  plain     mixing
     Exchange-correlation      = BEEF-VDW ( 1  4 27 13 2)
     nstep                     =           50

     celldm(1)=   1.889726  celldm(2)=   0.000000  celldm(3)=   0.000000
     celldm(4)=   0.000000  celldm(5)=   0.000000  celldm(6)=   0.000000

     crystal axes: (cart. coord. in units of alat)
               a(1) = (   5.972022   0.000000   0.000000 )
               a(2) = (   2.986011   5.171923   0.000000 )
               a(3) = (   0.000000   0.000000  24.876136 )

     reciprocal axes: (cart. coord. in units 2 pi/alat)
               b(1) = (  0.167447 -0.096676  0.000000 )
               b(2) = (  0.000000  0.193352  0.000000 )
               b(3) = (  0.000000  0.000000  0.040199 )

     PseudoPot. # 1 for Ta read from file:
     /u/if/mamunm/psp/gbrv1.5pbe/Ta.UPF
     MD5 check sum: f8bbe9446314a3b8ea5d9f3e3836c939
     Pseudo is Ultrasoft + core correction, Zval = 13.0
     Generated by new atomic code, or converted to UPF format
     Using radial grid of  921 points,  7 beta functions with:
                l(1) =   0
                l(2) =   0
                l(3) =   1
                l(4) =   1
                l(5) =   2
                l(6) =   2
                l(7) =   3
     Q(r) pseudized with  6 coefficients,  rinner =    1.300   1.300   1.300
                                                       1.300   1.300   1.300
                                                       1.300

     PseudoPot. # 2 for C  read from file:
     /u/if/mamunm/psp/gbrv1.5pbe/C.UPF
     MD5 check sum: d1aef80898a10debaa0f26306b886e00
     Pseudo is Ultrasoft + core correction, Zval =  4.0
     Generated by new atomic code, or converted to UPF format
     Using radial grid of  721 points,  4 beta functions with:
                l(1) =   0
                l(2) =   0
                l(3) =   1
                l(4) =   1
     Q(r) pseudized with  8 coefficients,  rinner =    1.100   1.100   1.100

     vdW kernel table read from file vdW_kernel_table
     MD5 check sum: 095c7af220d748ca6e76c0b4c6cfb241

     atomic species   valence    mass     pseudopotential
        Ta1           13.00   180.94788     Ta( 1.00)
        C1             4.00    12.01100     C ( 1.00)

     No symmetry found

   Cartesian axes

     site n.     atom                  positions (alat units)
         1           Ta1 tau(   1) = (   1.4930055   0.8619871  10.0000000  )
         2           Ta1 tau(   2) = (   4.4790165   0.8619871  10.0000000  )
         3           Ta1 tau(   3) = (   2.9860110   3.4479485  10.0000000  )
         4           Ta1 tau(   4) = (   5.9720221   3.4479485  10.0000000  )
         5           Ta1 tau(   5) = (   5.9720221   1.7239743  12.4380678  )
         6           Ta1 tau(   6) = (   2.9860110   1.7239743  12.4380678  )
         7           Ta1 tau(   7) = (   7.4650276   4.3099357  12.4380678  )
         8           Ta1 tau(   8) = (   4.4790165   4.3099357  12.4380678  )
         9           Ta1 tau(   9) = (   0.0000000   0.0000000  14.8761356  )
        10           Ta1 tau(  10) = (   2.9860110   0.0000000  14.8761356  )
        11           Ta1 tau(  11) = (   1.4930055   2.5859614  14.8761356  )
        12           Ta1 tau(  12) = (   4.4790165   2.5859614  14.8761356  )
        13           C1  tau(  13) = (   0.0000000   0.0000000  16.9671356  )

     number of k points=    20  Fermi-Dirac smearing, width (Ry)=  0.0110
                       cart. coord. in units 2pi/alat
        k(    1) = (   0.0000000   0.0000000   0.0000000), wk =   0.0555556
        k(    2) = (   0.0000000   0.0322253   0.0000000), wk =   0.1111111
        k(    3) = (   0.0000000   0.0644506   0.0000000), wk =   0.1111111
        k(    4) = (   0.0000000  -0.0966758   0.0000000), wk =   0.0555556
        k(    5) = (   0.0279079  -0.0161126   0.0000000), wk =   0.1111111
        k(    6) = (   0.0279079   0.0161126   0.0000000), wk =   0.1111111
        k(    7) = (   0.0279079   0.0483379   0.0000000), wk =   0.1111111
        k(    8) = (   0.0279079  -0.1127885   0.0000000), wk =   0.1111111
        k(    9) = (   0.0279079  -0.0805632   0.0000000), wk =   0.1111111
        k(   10) = (   0.0279079  -0.0483379   0.0000000), wk =   0.1111111
        k(   11) = (   0.0558158  -0.0322253   0.0000000), wk =   0.1111111
        k(   12) = (   0.0558158   0.0000000   0.0000000), wk =   0.1111111
        k(   13) = (   0.0558158   0.0322253   0.0000000), wk =   0.1111111
        k(   14) = (   0.0558158  -0.1289011   0.0000000), wk =   0.1111111
        k(   15) = (   0.0558158  -0.0966758   0.0000000), wk =   0.1111111
        k(   16) = (   0.0558158  -0.0644506   0.0000000), wk =   0.1111111
        k(   17) = (  -0.0837237   0.0483379   0.0000000), wk =   0.0555556
        k(   18) = (  -0.0837237   0.0805632   0.0000000), wk =   0.1111111
        k(   19) = (  -0.0837237   0.1127885   0.0000000), wk =   0.1111111
        k(   20) = (  -0.0837237  -0.0483379   0.0000000), wk =   0.0555556

     Largest allocated arrays     est. size (Mb)     dimensions
     Largest temporary arrays     est. size (Mb)     dimensions

     Initial potential from superposition of free atoms
     Check: negative starting charge=   -1.121551

     starting charge  159.98661, renormalised to  160.00000

     negative rho (up, down):  1.122E+00 0.000E+00

     *
     * You are using vdW-DF for exchange-correlation in this calculation.
     * Please cite the following three references that made this development
     * possible:
     *
     *   M. Dion, H. Rydberg, E. Schroder, D. C. Langreth, and
     *   B. I. Lundqvist, Phys. Rev. Lett. 92, 246401 (2004).
     *
     *   T. Thonhauser, V. R. Cooper, S. Li, A. Puzder, P. Hyldgaard, and
     *   D. C. Langreth, Phys. Rev. B 76, 125112 (2007).
     *
     *   G. Roman-Perez and J. M. Soler, Phys. Rev. Lett. 103, 096102 (2009).
     *
     *
     * If you are using vdW-DF2, please also cite:
     *
     *   K. Lee, E. D. Murray, L. Kong, B. I. Lundqvist, and
     *   D. C. Langreth, Phys. Rev. B 82, 081101(R) (2010).
     *
     *
     * If you are calculating the stress with vdW-DF, please also cite:
     *
     *   R. Sabatini, E. Kucukbenli, B. Kolb, T. Thonhauser, and
     *   S. de Gironcoli, J. Phys.: Condens. Matter 24, 424209 (2012).
     *

     Carrying out vdW-DF run using the following parameters:

     Nqs =      20    Nr_points =    1024   r_max =   100.000
     q_mesh =
               0.00001000     0.04494208     0.09755937     0.15916263
               0.23128650     0.31572767     0.41458969     0.53033537
               0.66584808     0.82450364     1.01025438     1.22772762
               1.48234092     1.78043706     2.12944203     2.53805004
               3.01644009     3.57652955     4.23227104     5.00000000

     Gradients computed in reciprocal space

     Adding external electric field

     Computed dipole along edir(3) :
        Dipole               -0.0025 Ry au,         -0.0064 Debye
        Dipole field         -0.0000 Ry au

        Potential amp.        0.0006 Ry
        Total length         45.8339 bohr

     Starting wfc are  160 randomized atomic wfcs

     Self-consistent Calculation

     iteration #  1     ecut=    36.75 Ry     beta=0.30
     Davidson diagonalization with overlap
     ethr =  1.00E-02,  avg # of iterations =  2.0

[...]

     total energy              =   -1727.27473487 Ry
     Harris-Foulkes estimate   =   -1729.93042094 Ry
     estimated scf accuracy    <       5.79469672 Ry

[...]

     End of self-consistent calculation

          k = 0.0000 0.0000 0.0000 ( 19447 PWs)   bands (ev):

   -66.7970 -66.7539 -66.7536 -66.6816 -66.6255 -66.6204 -66.6202 -66.5939
   -66.5503 -66.5399 -66.5396 -66.0661 -33.4351 -33.4286 -33.4239 -33.4239
   -33.3688 -33.3688 -33.3590 -33.3259 -33.3098 -33.3098 -33.1724 -33.1165
   -33.1164 -32.9785 -32.9672 -32.9670 -32.9098 -32.8153 -32.8152 -32.7986
   -32.7823 -32.7619 -32.7618 -32.7446 -32.7445 -32.7342 -32.6736 -32.6735
   -32.6724 -32.6008 -32.6008 -32.5347 -32.5347 -32.3485 -32.3430 -32.3430
    -6.8675  -5.6971  -4.0977  -3.1383  -2.4650  -2.4650  -2.4514  -2.2610
    -2.2609  -2.2275  -1.5532  -1.5532  -1.5362  -1.3410  -1.3313  -1.3313
    -0.3011  -0.3010  -0.1349   0.7572   0.8971   0.8971   1.0615   1.2579
     1.5168   1.5402   1.5402   1.6314   1.8820   1.8820   2.0078   2.0079
     2.2993   2.2993   2.3310   2.3444   2.3874   2.3874   2.4877   2.4877
     2.6252   2.8633

[...]

          k =-0.0837 0.0483 0.0000 ( 19532 PWs)   bands (ev):

[...]

     the Fermi energy is     1.6359 ev

!    total energy              =   -1729.59965803 Ry
     Harris-Foulkes estimate   =   -1729.59968574 Ry
     estimated scf accuracy    <       0.00000852 Ry

     The total energy is the sum of the following terms:

     one-electron contribution =  -11537.31351129 Ry
     hartree contribution      =    5750.69739107 Ry
     xc contribution           =    -526.06693001 Ry
     ewald contribution        =    4583.19331510 Ry
     electric field correction =       0.00031599 Ry
     smearing contrib. (-TS)   =      -0.11023889 Ry

     convergence has been achieved in  16 iterations

 BEEF-vdW xc energy contributions
           1 :   -463.081000397341
           2 :    427.426533092413
           3 :   -365.206390695042
           4 :    290.821850747930
           5 :   -218.686054964922
           6 :    158.811107246339
           7 :   -114.832814469560
           8 :    84.8259164440241
           9 :   -63.9986362424355
          10 :    47.6913740087948
          11 :   -33.2902700198620
          12 :    20.4843228234688
          13 :   -10.2321242431325
          14 :    3.35839946442547
          15 :   0.336424870417090
          16 :   -2.06855022647352
          17 :    3.36700571903816
          18 :   -5.22179090087366
          19 :    7.62951982900398
          20 :   -9.77997135016062
          21 :    10.7147730291628
          22 :   -10.0209676276371
          23 :    8.13453652613225
          24 :   -6.09504207611138
          25 :    4.93799823329653
          26 :   -5.11590692361153
          27 :    6.29152113612838
          28 :   -7.60017826762646
          29 :    8.19140845759114
          30 :   -7.70815049807493
          31 :   -41.4471247667683
          32 :   -30.7586996325888

     Forces acting on atoms (Ry/au):

     negative rho (up, down):  1.176E+00 0.000E+00
     atom    1 type  1   force =    -0.00076545   -0.00044995    0.00158419
     atom    2 type  1   force =     0.00076828   -0.00045465    0.00159022
     atom    3 type  1   force =    -0.00000261    0.00089548    0.00160129
     atom    4 type  1   force =     0.00000353    0.00000848    0.00240259
     atom    5 type  1   force =    -0.00001839    0.01152122   -0.00519628
     atom    6 type  1   force =     0.00001764    0.00002930    0.01159017
     atom    7 type  1   force =    -0.00994752   -0.00575771   -0.00520925
     atom    8 type  1   force =     0.00995019   -0.00578080   -0.00519390
     atom    9 type  1   force =    -0.00001800   -0.00003562    0.08846554
     atom   10 type  1   force =     0.00001578    0.00079343    0.00467684
     atom   11 type  1   force =     0.00071357   -0.00037426    0.00467746
     atom   12 type  1   force =    -0.00071537   -0.00039329    0.00466447
     atom   13 type  2   force =    -0.00000165   -0.00000164   -0.10565333

     Total force =     0.138044     Total SCF correction =     0.008332

     entering subroutine stress ...

     negative rho (up, down):  1.176E+00 0.000E+00
          total   stress  (Ry/bohr**3)                   (kbar)     P=  -34.67
  -0.00028391  -0.00000000   0.00000000        -41.76     -0.00      0.00
  -0.00000000  -0.00028391  -0.00000000         -0.00    -41.77     -0.00
   0.00000000  -0.00000000  -0.00013930          0.00     -0.00    -20.49

     BFGS Geometry Optimization

     number of scf cycles    =   1
     number of bfgs steps    =   0

     energy   new            =   -1729.5996580329 Ry

     new trust radius        =       0.1056533269 bohr
     new conv_thr            =       0.0000099958 Ry

ATOMIC_POSITIONS (crystal)
Ta1      0.166666667   0.166666667   0.401991699    0   0   0
Ta1      0.666666667   0.166666667   0.401991699    0   0   0
Ta1      0.166666667   0.666666667   0.401991699    0   0   0
Ta1      0.666666667   0.666666667   0.401991699    0   0   0
Ta1      0.833333333   0.333333333   0.500000000    0   0   0
Ta1      0.333333333   0.333333333   0.500000000    0   0   0
Ta1      0.833333333   0.833333333   0.500000000    0   0   0
Ta1      0.333333333   0.833333333   0.500000000    0   0   0
Ta1      0.000000227  -0.000003644   0.599890183
Ta1      0.499960808   0.000081182   0.598107789
Ta1      0.000082376   0.499961707   0.598107803
Ta1      0.499956732   0.499959760   0.598107526
C1      -0.000000062  -0.000000168   0.679817257

     Writing output data file calc.save
     Check: negative starting charge=   -1.121551
     NEW-OLD atomic charge density approx. for the potential
     Check: negative starting charge=   -1.120938

[...]

     Total force =     0.069673     Total SCF correction =     0.010269
     SCF correction compared to forces is large: reduce conv_thr to get better values

[...]

     energy   old            =   -1729.5996580329 Ry
     energy   new            =   -1729.6143846691 Ry

     CASE: energy  _new < energy  _old

[...]

     WARNING: bfgs curvature condition failed, Theta= 0.955
     new trust radius        =       0.0336753885 bohr
     new conv_thr            =       0.0000001000 Ry

[...]

     number of scf cycles    =   8
     number of bfgs steps    =   7

     energy   old            =   -1729.6217603919 Ry
     energy   new            =   -1729.6228784786 Ry

     CASE: energy  _new < energy  _old

     new trust radius        =       0.0983971455 bohr
     new conv_thr            =       0.0000001000 Ry

ATOMIC_POSITIONS (crystal)
Ta1      0.166666667   0.166666667   0.401991699    0   0   0
Ta1      0.666666667   0.166666667   0.401991699    0   0   0
Ta1      0.166666667   0.666666667   0.401991699    0   0   0
Ta1      0.666666667   0.666666667   0.401991699    0   0   0
Ta1      0.833333333   0.333333333   0.500000000    0   0   0
Ta1      0.333333333   0.333333333   0.500000000    0   0   0
Ta1      0.833333333   0.833333333   0.500000000    0   0   0
Ta1      0.333333333   0.833333333   0.500000000    0   0   0
Ta1     -0.000000005   0.000001923   0.595253564
Ta1      0.499369347   0.001260761   0.598746130
Ta1      0.001261275   0.499368102   0.598746109
Ta1      0.499370494   0.499368428   0.598746126
C1      -0.000000405  -0.000000394   0.671605511

     Writing output data file calc.save
     Check: negative starting charge=   -1.119952
     NEW-OLD atomic charge density approx. for the potential
     Check: negative starting charge=   -1.119414

[...]

     Self-consistent Calculation

[...]

     total energy              =   -1729.62337616 Ry
     Harris-Foulkes estimate   =   -1729.62337611 Ry
     estimated scf accuracy    <       0.00000022 Ry

     iteration # 12     ecut=    36.75 Ry     beta=0.30
     Davidson diagonalization with overlap
     ethr =  1.40E-10,  avg # of iterations =  4.1

[...]

     negative rho (up, down):  1.174E+00 0.000E+00

     Adding external electric field

     Computed dipole along edir(3) :
        Dipole               -0.2625 Ry au,         -0.6673 Debye
        Dipole field         -0.0006 Ry au

        Potential amp.        0.0583 Ry
        Total length         45.8339 bohr

     End of self-consistent calculation

[...]

          k = 0.0558-0.0645 0.0000 ( 19521 PWs)   bands (ev):

[...]

          k =-0.0837-0.0483 0.0000 ( 19532 PWs)   bands (ev):

   -66.7033 -66.6894 -66.6752 -66.5375 -66.5324 -66.5065 -66.5022 -66.4634
   -66.4467 -66.4288 -66.4211 -65.7027 -33.2494 -33.2229 -33.2121 -33.2071
   -33.1463 -33.1387 -33.0887 -33.0791 -33.0696 -33.0615 -33.0440 -32.9875
   -32.9504 -32.9416 -32.9054 -32.8692 -32.8613 -32.8605 -32.7818 -32.7689
   -32.7677 -32.7393 -32.7281 -32.7236 -32.6723 -32.6411 -32.6203 -32.6187
   -32.5977 -32.5805 -32.5761 -32.4926 -32.4875 -32.1490 -32.1439 -32.0785
    -6.8482  -3.8869  -3.8067  -2.4953  -2.3252  -1.6156  -1.6050  -1.4575
    -1.3493  -1.2454  -1.2044  -0.5310  -0.4189  -0.3268  -0.1835  -0.0767
    -0.0574  -0.0415   0.1373   0.2662   0.4678   0.5408   0.5545   0.6292
     0.6800   0.9747   1.0894   1.1103   1.1586   1.1930   1.3918   1.4477
     1.6029   1.6861   1.7895   1.9537   2.0226   2.0417   2.0962   2.4242
     2.8556   2.9820

     the Fermi energy is     1.7531 ev

!    total energy              =   -1729.62337613 Ry
     Harris-Foulkes estimate   =   -1729.62337770 Ry
     estimated scf accuracy    <       0.00000006 Ry

     The total energy is the sum of the following terms:

     one-electron contribution =  -11588.08936128 Ry
     hartree contribution      =    5776.70159007 Ry
     xc contribution           =    -526.24379216 Ry
     ewald contribution        =    4608.11650965 Ry
     electric field correction =       0.00016705 Ry
     smearing contrib. (-TS)   =      -0.10848946 Ry

     convergence has been achieved in  12 iterations

 BEEF-vdW xc energy contributions
           1 :   -463.254660468901
           2 :    427.633673661074
           3 :   -365.449091488621
           4 :    291.069424362773
           5 :   -218.891596903380
           6 :    158.931327224290
           7 :   -114.848355873134
           8 :    84.7544283969494
           9 :   -63.8908361914348
          10 :    47.6083297021490
          11 :   -33.2733607505894
          12 :    20.5362773500561
          13 :   -10.3211643346618
          14 :    3.44096199038893
          15 :   0.291742805998638
          16 :   -2.06887038326744
          17 :    3.39788496649214
          18 :   -5.26156923409292
          19 :    7.66427192419155
          20 :   -9.80813306805243
          21 :    10.7408721853979
          22 :   -10.0454976345254
          23 :    8.14882605038343
          24 :   -6.08555043341426
          25 :    4.89627336196133
          26 :   -5.04605036977898
          27 :    6.20958174372015
          28 :   -7.52570389271364
          29 :    8.13675397146392
          30 :   -7.67271915053306
          31 :   -41.4585493312306
          32 :   -30.7765394655689

     Forces acting on atoms (Ry/au):

     negative rho (up, down):  1.174E+00 0.000E+00
     atom    1 type  1   force =    -0.00076656   -0.00044273    0.00075885
     atom    2 type  1   force =     0.00076654   -0.00044290    0.00075907
     atom    3 type  1   force =    -0.00000016    0.00088536    0.00075923
     atom    4 type  1   force =     0.00000011    0.00000021    0.00100408
     atom    5 type  1   force =    -0.00000009    0.02250786   -0.00733457
     atom    6 type  1   force =    -0.00000010    0.00000013    0.02050585
     atom    7 type  1   force =    -0.01949205   -0.01125391   -0.00733229
     atom    8 type  1   force =     0.01949200   -0.01125399   -0.00733304
     atom    9 type  1   force =    -0.00000124   -0.00000368    0.00084698
     atom   10 type  1   force =     0.00000133   -0.00117085   -0.00074631
     atom   11 type  1   force =    -0.00101178    0.00058792   -0.00074592
     atom   12 type  1   force =     0.00101247    0.00058682   -0.00074553
     atom   13 type  2   force =    -0.00000047   -0.00000024   -0.00039640

     Total force =     0.002579     Total SCF correction =     0.000227

     entering subroutine stress ...

     negative rho (up, down):  1.174E+00 0.000E+00
          total   stress  (Ry/bohr**3)                   (kbar)     P=  -29.68
  -0.00027606  -0.00000000  -0.00000000        -40.61     -0.00     -0.00
  -0.00000000  -0.00027606  -0.00000000         -0.00    -40.61     -0.00
  -0.00000000  -0.00000000  -0.00005319         -0.00     -0.00     -7.82

     bfgs converged in   9 scf cycles and   8 bfgs steps
     (criteria: energy <  1.0E+00, force <  1.9E-03)

     End of BFGS Geometry Optimization

     Final energy   =   -1729.6233761319 Ry
Begin final coordinates

ATOMIC_POSITIONS (crystal)
Ta1      0.166666667   0.166666667   0.401991699    0   0   0
Ta1      0.666666667   0.166666667   0.401991699    0   0   0
Ta1      0.166666667   0.666666667   0.401991699    0   0   0
Ta1      0.666666667   0.666666667   0.401991699    0   0   0
Ta1      0.833333333   0.333333333   0.500000000    0   0   0
Ta1      0.333333333   0.333333333   0.500000000    0   0   0
Ta1      0.833333333   0.833333333   0.500000000    0   0   0
Ta1      0.333333333   0.833333333   0.500000000    0   0   0
Ta1     -0.000000005   0.000001923   0.595253564
Ta1      0.499369347   0.001260761   0.598746130
Ta1      0.001261275   0.499368102   0.598746109
Ta1      0.499370494   0.499368428   0.598746126
C1      -0.000000405  -0.000000394   0.671605511
End final coordinates

     Writing output data file calc.save

     General routines

     Parallel routines

   This run was terminated on:   8: 4:24   3May2018

   JOB DONE.
Job  /afs/slac/g/suncat/bin/suncat-tsmpirun -x LD_LIBRARY_PATH -wdir /scratch/qe638426_BJLuU pw.x -npool 4 -in pw.inp

TID   HOST_NAME   COMMAND_LINE            STATUS            TERMINATION_TIME
00000 suncat0002 pw.x -npool 4 -i  Done                     05/03/2018 08:04:24
00001 suncat0002 pw.x -npool 4 -i  Done                     05/03/2018 08:04:24
00002 suncat0002 pw.x -npool 4 -i  Done                     05/03/2018 08:04:24
00003 suncat0002 pw.x -npool 4 -i  Done                     05/03/2018 08:04:24
00004 suncat0002 pw.x -npool 4 -i  Done                     05/03/2018 08:04:24
00005 suncat0002 pw.x -npool 4 -i  Done                     05/03/2018 08:04:24
00006 suncat0002 pw.x -npool 4 -i  Done                     05/03/2018 08:04:24
00007 suncat0002 pw.x -npool 4 -i  Done                     05/03/2018 08:04:24
00008 suncat0185 pw.x -npool 4 -i  Done                     05/03/2018 08:04:24
00009 suncat0185 pw.x -npool 4 -i  Done                     05/03/2018 08:04:24
00010 suncat0185 pw.x -npool 4 -i  Done                     05/03/2018 08:04:24
00011 suncat0185 pw.x -npool 4 -i  Done                     05/03/2018 08:04:24
00012 suncat0185 pw.x -npool 4 -i  Done                     05/03/2018 08:04:24
00013 suncat0185 pw.x -npool 4 -i  Done                     05/03/2018 08:04:24
00014 suncat0185 pw.x -npool 4 -i  Done                     05/03/2018 08:04:24
00015 suncat0185 pw.x -npool 4 -i  Done                     05/03/2018 08:04:24
00016 suncat0236 pw.x -npool 4 -i  Done                     05/03/2018 08:04:24
00017 suncat0236 pw.x -npool 4 -i  Done                     05/03/2018 08:04:24
00018 suncat0236 pw.x -npool 4 -i  Done                     05/03/2018 08:04:24
00019 suncat0236 pw.x -npool 4 -i  Done                     05/03/2018 08:04:24
00020 suncat0236 pw.x -npool 4 -i  Done                     05/03/2018 08:04:24
00021 suncat0236 pw.x -npool 4 -i  Done                     05/03/2018 08:04:24
00022 suncat0236 pw.x -npool 4 -i  Done                     05/03/2018 08:04:24
00023 suncat0236 pw.x -npool 4 -i  Done                     05/03/2018 08:04:24
00024 suncat0228 pw.x -npool 4 -i  Done                     05/03/2018 08:04:24
00025 suncat0228 pw.x -npool 4 -i  Done                     05/03/2018 08:04:24
00026 suncat0228 pw.x -npool 4 -i  Done                     05/03/2018 08:04:24
00027 suncat0228 pw.x -npool 4 -i  Done                     05/03/2018 08:04:24
00028 suncat0228 pw.x -npool 4 -i  Done                     05/03/2018 08:04:24
00029 suncat0228 pw.x -npool 4 -i  Done                     05/03/2018 08:04:24
00030 suncat0228 pw.x -npool 4 -i  Done                     05/03/2018 08:04:24
00031 suncat0228 pw.x -npool 4 -i  Done                     05/03/2018 08:04:24