     Program PWSCF v.5.1rc2 (svn rev. 11289) starts on 25Apr2018 at  9:41:26

     Current dimensions of program PWSCF are:
     Max number of different atomic species (ntypx) = 10
     Max number of k-points (npk) =  40000
     Max angular momentum in pseudopotentials (lmaxx) =  3
     Presently stress not available with electric field

     IMPORTANT: XC functional enforced from input :
     Exchange-correlation      = BEEF-VDW ( 1  4 27 13 2)
     Any further DFT definition will be discarded
     Please, verify this is what you really want

     Subspace diagonalization in iterative solution of the eigenvalue problem:
     a serial algorithm will be used

     bravais-lattice index     =            0
     lattice parameter (alat)  =       1.8897  a.u.
     unit-cell volume          =    6082.7792 (a.u.)^3
     number of atoms/cell      =           14
     number of atomic types    =            3
     number of electrons       =       150.00
     number of Kohn-Sham states=           85
     kinetic-energy cutoff     =      36.7493  Ry
     charge density cutoff     =     367.4932  Ry
     convergence threshold     =      1.0E-05
     mixing beta               =       0.3000
     number of iterations used =           10  plain     mixing
     Exchange-correlation      = BEEF-VDW ( 1  4 27 13 2)
     nstep                     =           50

     celldm(1)=   1.889726  celldm(2)=   0.000000  celldm(3)=   0.000000
     celldm(4)=   0.000000  celldm(5)=   0.000000  celldm(6)=   0.000000

     crystal axes: (cart. coord. in units of alat)
               a(1) = (   6.421223   0.000000   0.000000 )
               a(2) = (   3.210611   5.560942   0.000000 )
               a(3) = (   0.000000   0.000000  25.242906 )

     reciprocal axes: (cart. coord. in units 2 pi/alat)
               b(1) = (  0.155734 -0.089913  0.000000 )
               b(2) = (  0.000000  0.179826  0.000000 )
               b(3) = (  0.000000  0.000000  0.039615 )

     PseudoPot. # 1 for Zr read from file:
     /u/if/mamunm/psp/gbrv1.5pbe/Zr.UPF
     MD5 check sum: 5db81b1e868ab7776c4564c113de050b
     Pseudo is Ultrasoft + core correction, Zval = 12.0
     Generated by new atomic code, or converted to UPF format
     Using radial grid of  887 points,  6 beta functions with:
                l(1) =   0
                l(2) =   0
                l(3) =   1
                l(4) =   1
                l(5) =   2
                l(6) =   2
     Q(r) pseudized with  6 coefficients,  rinner =    1.200   1.200   1.200
                                                       1.200   1.200

     PseudoPot. # 2 for N  read from file:
     /u/if/mamunm/psp/gbrv1.5pbe/N.UPF
     MD5 check sum: 95339753478d7afb44899504a8723017
     Pseudo is Ultrasoft + core correction, Zval =  5.0
     Generated by new atomic code, or converted to UPF format
     Using radial grid of  729 points,  4 beta functions with:
                l(1) =   0
                l(2) =   0
                l(3) =   1
                l(4) =   1
     Q(r) pseudized with  8 coefficients,  rinner =    0.900   0.900   0.900

     PseudoPot. # 3 for H  read from file:
     /u/if/mamunm/psp/gbrv1.5pbe/H.UPF
     MD5 check sum: 761ae9a214b05c3daf00ab9f6b793d6f
     Pseudo is Ultrasoft, Zval =  1.0
     Generated by new atomic code, or converted to UPF format
     Using radial grid of  615 points,  2 beta functions with:
                l(1) =   0
                l(2) =   0
     Q(r) pseudized with  8 coefficients,  rinner =    0.700

     vdW kernel table read from file vdW_kernel_table
     MD5 check sum: 095c7af220d748ca6e76c0b4c6cfb241

     atomic species   valence    mass     pseudopotential
        Zr1           12.00    91.22400     Zr( 1.00)
        N1             5.00    14.00700     N ( 1.00)
        H1             1.00     1.00800     H ( 1.00)

     No symmetry found

   Cartesian axes

     site n.     atom                  positions (alat units)
         1           Zr1 tau(   1) = (   1.6053057   0.9268237  10.0000000  )
         2           Zr1 tau(   2) = (   4.8159170   0.9268237  10.0000000  )
         3           Zr1 tau(   3) = (   3.2106113   3.7072946  10.0000000  )
         4           Zr1 tau(   4) = (   6.4212227   3.7072946  10.0000000  )
         5           Zr1 tau(   5) = (   6.4212227   1.8536473  12.6214532  )
         6           Zr1 tau(   6) = (   3.2106113   1.8536473  12.6214532  )
         7           Zr1 tau(   7) = (   8.0265283   4.6341183  12.6214532  )
         8           Zr1 tau(   8) = (   4.8159170   4.6341183  12.6214532  )
         9           Zr1 tau(   9) = (   0.0000000   0.0000000  15.2429064  )
        10           Zr1 tau(  10) = (   3.2106113   0.0000000  15.2429064  )
        11           Zr1 tau(  11) = (   1.6053057   2.7804710  15.2429064  )
        12           Zr1 tau(  12) = (   4.8159170   2.7804710  15.2429064  )
        13           N1  tau(  13) = (   1.6053057   0.9268237  16.8419064  )
        14           H1  tau(  14) = (   1.6053057   0.9268237  17.8919064  )

     number of k points=    20  Fermi-Dirac smearing, width (Ry)=  0.0110
                       cart. coord. in units 2pi/alat
        k(    1) = (   0.0000000   0.0000000   0.0000000), wk =   0.0555556
        k(    2) = (   0.0000000   0.0299709   0.0000000), wk =   0.1111111
        k(    3) = (   0.0000000   0.0599419   0.0000000), wk =   0.1111111
        k(    4) = (   0.0000000  -0.0899128   0.0000000), wk =   0.0555556
        k(    5) = (   0.0259556  -0.0149855   0.0000000), wk =   0.1111111
        k(    6) = (   0.0259556   0.0149855   0.0000000), wk =   0.1111111
        k(    7) = (   0.0259556   0.0449564   0.0000000), wk =   0.1111111
        k(    8) = (   0.0259556  -0.1048983   0.0000000), wk =   0.1111111
        k(    9) = (   0.0259556  -0.0749274   0.0000000), wk =   0.1111111
        k(   10) = (   0.0259556  -0.0449564   0.0000000), wk =   0.1111111
        k(   11) = (   0.0519112  -0.0299709   0.0000000), wk =   0.1111111
        k(   12) = (   0.0519112   0.0000000   0.0000000), wk =   0.1111111
        k(   13) = (   0.0519112   0.0299709   0.0000000), wk =   0.1111111
        k(   14) = (   0.0519112  -0.1198838   0.0000000), wk =   0.1111111
        k(   15) = (   0.0519112  -0.0899128   0.0000000), wk =   0.1111111
        k(   16) = (   0.0519112  -0.0599419   0.0000000), wk =   0.1111111
        k(   17) = (  -0.0778668   0.0449564   0.0000000), wk =   0.0555556
        k(   18) = (  -0.0778668   0.0749274   0.0000000), wk =   0.1111111
        k(   19) = (  -0.0778668   0.1048983   0.0000000), wk =   0.1111111
        k(   20) = (  -0.0778668  -0.0449564   0.0000000), wk =   0.0555556

     Largest allocated arrays     est. size (Mb)     dimensions
     Largest temporary arrays     est. size (Mb)     dimensions

     Initial potential from superposition of free atoms
     Check: negative starting charge=   -0.729094

     starting charge  149.97419, renormalised to  150.00000

     negative rho (up, down):  7.292E-01 0.000E+00

     *
     * You are using vdW-DF for exchange-correlation in this calculation.
     * Please cite the following three references that made this development
     * possible:
     *
     *   M. Dion, H. Rydberg, E. Schroder, D. C. Langreth, and
     *   B. I. Lundqvist, Phys. Rev. Lett. 92, 246401 (2004).
     *
     *   T. Thonhauser, V. R. Cooper, S. Li, A. Puzder, P. Hyldgaard, and
     *   D. C. Langreth, Phys. Rev. B 76, 125112 (2007).
     *
     *   G. Roman-Perez and J. M. Soler, Phys. Rev. Lett. 103, 096102 (2009).
     *
     *
     * If you are using vdW-DF2, please also cite:
     *
     *   K. Lee, E. D. Murray, L. Kong, B. I. Lundqvist, and
     *   D. C. Langreth, Phys. Rev. B 82, 081101(R) (2010).
     *
     *
     * If you are calculating the stress with vdW-DF, please also cite:
     *
     *   R. Sabatini, E. Kucukbenli, B. Kolb, T. Thonhauser, and
     *   S. de Gironcoli, J. Phys.: Condens. Matter 24, 424209 (2012).
     *

     Carrying out vdW-DF run using the following parameters:

     Nqs =      20    Nr_points =    1024   r_max =   100.000
     q_mesh =
               0.00001000     0.04494208     0.09755937     0.15916263
               0.23128650     0.31572767     0.41458969     0.53033537
               0.66584808     0.82450364     1.01025438     1.22772762
               1.48234092     1.78043706     2.12944203     2.53805004
               3.01644009     3.57652955     4.23227104     5.00000000

     Gradients computed in reciprocal space

     Adding external electric field

     Computed dipole along edir(3) :
        Dipole               -0.0084 Ry au,         -0.0214 Debye
        Dipole field         -0.0000 Ry au

        Potential amp.        0.0016 Ry
        Total length         46.5096 bohr

     Starting wfc are  161 randomized atomic wfcs

     Self-consistent Calculation

     iteration #  1     ecut=    36.75 Ry     beta=0.30
     Davidson diagonalization with overlap
     ethr =  1.00E-02,  avg # of iterations =  2.0

[...]

     total energy              =   -1215.59973365 Ry
     Harris-Foulkes estimate   =   -1219.24910014 Ry
     estimated scf accuracy    <       7.75973503 Ry

[...]

     End of self-consistent calculation

          k = 0.0000 0.0000 0.0000 ( 22923 PWs)   bands (ev):

   -47.6739 -47.6300 -47.5889 -47.5470 -47.5466 -47.5424 -47.5421 -47.5355
   -47.3093 -47.2365 -47.2360 -47.1882 -25.9524 -25.9522 -25.9248 -25.8915
   -25.8914 -25.8804 -25.8465 -25.7696 -25.7394 -25.7392 -25.6595 -25.5749
   -25.5383 -25.5380 -25.4173 -25.4043 -25.4041 -25.3887 -25.3818 -25.3817
   -25.3640 -25.3598 -25.3596 -25.2121 -25.2120 -25.1988 -25.1988 -25.1501
   -25.1497 -25.1412 -25.0849 -25.0525 -25.0395 -25.0392 -24.8905 -24.8905
   -12.7833  -4.3173  -3.1848  -2.0252  -1.3077  -1.2488  -1.2488  -0.9135
    -0.8411  -0.8411  -0.6619  -0.6192  -0.6192  -0.2584  -0.2167  -0.2166
     0.0431   0.0432   0.0911   0.8618   0.8619   1.1255   1.5599   1.7989
     1.9060   1.9060   2.0045   2.2361   2.3423   2.3534   2.3536   2.5653
     2.5654   2.5817   2.8053   2.8054   2.8203

[...]

          k =-0.0779 0.0450 0.0000 ( 22880 PWs)   bands (ev):

[...]

     the Fermi energy is     1.6465 ev

!    total energy              =   -1218.53544715 Ry
     Harris-Foulkes estimate   =   -1218.53544303 Ry
     estimated scf accuracy    <       0.00000131 Ry

     The total energy is the sum of the following terms:

     one-electron contribution =   -8471.28320904 Ry
     hartree contribution      =    4229.65951737 Ry
     xc contribution           =    -226.74555706 Ry
     ewald contribution        =    3249.94828768 Ry
     electric field correction =       0.00004088 Ry
     smearing contrib. (-TS)   =      -0.11452699 Ry

     convergence has been achieved in  17 iterations

 BEEF-vdW xc energy contributions
           1 :   -194.143531172454
           2 :    175.563655770840
           3 :   -144.297261365717
           4 :    109.187345921061
           5 :   -78.1716252626082
           6 :    55.5230540814679
           7 :   -41.2163328844080
           8 :    32.2941145318527
           9 :   -25.1790373748040
          10 :    17.6145002493888
          11 :   -9.38744361653372
          12 :    1.77543134601058
          13 :    3.67802759165625
          14 :   -6.24980858889569
          15 :    6.42380293584245
          16 :   -5.49735387789323
          17 :    4.76102245944517
          18 :   -4.80384144135297
          19 :    5.34795118890068
          20 :   -5.64011998082617
          21 :    5.07706919205273
          22 :   -3.63832908696742
          23 :    1.87529170377624
          24 :  -0.521729990503644
          25 :   2.368769530957593E-002
          26 :  -0.300837277871324
          27 :   0.862295259183981
          28 :   -1.16078247174877
          29 :   0.937083390855065
          30 :  -0.344569690025224
          31 :   -22.5420250793429
          32 :   -16.7656599327257

     Forces acting on atoms (Ry/au):

     negative rho (up, down):  7.502E-01 0.000E+00
     atom    1 type  1   force =    -0.00001724   -0.00000909    0.01436506
     atom    2 type  1   force =     0.00001533    0.00063791    0.01497109
     atom    3 type  1   force =     0.00056015   -0.00030491    0.01497531
     atom    4 type  1   force =    -0.00055672   -0.00032221    0.01498853
     atom    5 type  1   force =    -0.00225623    0.00129516    0.00003288
     atom    6 type  1   force =     0.00225886    0.00130963    0.00002055
     atom    7 type  1   force =     0.00001038    0.00000165   -0.00588829
     atom    8 type  1   force =    -0.00001034   -0.00260505    0.00003068
     atom    9 type  1   force =     0.02246117    0.01296695    0.03618579
     atom   10 type  1   force =    -0.02246480    0.01296759    0.03620776
     atom   11 type  1   force =    -0.00000139   -0.02593914    0.03620489
     atom   12 type  1   force =     0.00000137    0.00000152   -0.02617760
     atom   13 type  2   force =    -0.00000090   -0.00000041   -0.09223124
     atom   14 type  3   force =     0.00000037    0.00000039   -0.04368539

     Total force =     0.130575     Total SCF correction =     0.002002

     entering subroutine stress ...

     negative rho (up, down):  7.502E-01 0.000E+00
          total   stress  (Ry/bohr**3)                   (kbar)     P=  -16.68
  -0.00008252  -0.00000000  -0.00000000        -12.14     -0.00     -0.00
  -0.00000000  -0.00008252  -0.00000000         -0.00    -12.14     -0.00
  -0.00000000  -0.00000000  -0.00017516         -0.00     -0.00    -25.77

     BFGS Geometry Optimization

     number of scf cycles    =   1
     number of bfgs steps    =   0

     energy   new            =   -1218.5354471453 Ry

     new trust radius        =       0.0922312448 bohr
     new conv_thr            =       0.0000099958 Ry

ATOMIC_POSITIONS (crystal)
Zr1      0.166666667   0.166666667   0.396150897    0   0   0
Zr1      0.666666667   0.166666667   0.396150897    0   0   0
Zr1      0.166666667   0.666666667   0.396150897    0   0   0
Zr1      0.666666667   0.666666667   0.396150897    0   0   0
Zr1      0.833333333   0.333333333   0.500000000    0   0   0
Zr1      0.333333333   0.333333333   0.500000000    0   0   0
Zr1      0.833333333   0.833333333   0.500000000    0   0   0
Zr1      0.333333333   0.833333333   0.500000000    0   0   0
Zr1      0.001234074   0.001233931   0.604607680
Zr1      0.497531665   0.001233991   0.604608141
Zr1      0.001234065   0.497531641   0.604608081
Zr1      0.500000040   0.500000145   0.603300331
N1       0.166666612   0.166666628   0.665260151
H1       0.166666679   0.166666703   0.707873681

     Writing output data file calc.save
     Check: negative starting charge=   -0.729094
     NEW-OLD atomic charge density approx. for the potential
     Check: negative starting charge=   -0.728622

[...]

     energy   old            =   -1218.5354471453 Ry
     energy   new            =   -1218.5505210698 Ry

     CASE: energy  _new < energy  _old

[...]

     iteration #  1     ecut=    36.75 Ry     beta=0.30
     Davidson diagonalization with overlap
     c_bands:  1 eigenvalues not converged
     ethr =  1.00E-06,  avg # of iterations = 12.7

[...]

     iteration #  1     ecut=    36.75 Ry     beta=0.30
     Davidson diagonalization with overlap
     c_bands:  1 eigenvalues not converged
     ethr =  1.00E-06,  avg # of iterations = 13.1

[...]

     Total force =     0.007421     Total SCF correction =     0.000782
     SCF correction compared to forces is large: reduce conv_thr to get better values

[...]

     Threshold (ethr) on eigenvalues was too large:
     Diagonalizing with lowered threshold

     Davidson diagonalization with overlap
     ethr =  3.18E-08,  avg # of iterations =  2.0

[...]

     Total force =     0.006376     Total SCF correction =     0.000583

[...]

     number of scf cycles    =  17
     number of bfgs steps    =  16

     energy   old            =   -1218.6101159864 Ry
     energy   new            =   -1218.6101733472 Ry

     CASE: energy  _new < energy  _old

     new trust radius        =       0.0147325594 bohr
     new conv_thr            =       0.0000001000 Ry

ATOMIC_POSITIONS (crystal)
Zr1      0.166666667   0.166666667   0.396150897    0   0   0
Zr1      0.666666667   0.166666667   0.396150897    0   0   0
Zr1      0.166666667   0.666666667   0.396150897    0   0   0
Zr1      0.666666667   0.666666667   0.396150897    0   0   0
Zr1      0.833333333   0.333333333   0.500000000    0   0   0
Zr1      0.333333333   0.333333333   0.500000000    0   0   0
Zr1      0.833333333   0.833333333   0.500000000    0   0   0
Zr1      0.333333333   0.833333333   0.500000000    0   0   0
Zr1      0.000035748   0.000035449   0.601391309
Zr1      0.499929784   0.000035415   0.601391685
Zr1      0.000035512   0.499929922   0.601391678
Zr1      0.500000262   0.500000392   0.595363510
N1       0.166667477   0.166667415   0.646650375
H1       0.166664097   0.166664108   0.687380992

     Writing output data file calc.save
     Check: negative starting charge=   -0.728645
     NEW-OLD atomic charge density approx. for the potential
     Check: negative starting charge=   -0.728760

[...]

     Self-consistent Calculation

[...]

     Threshold (ethr) on eigenvalues was too large:
     Diagonalizing with lowered threshold

     Davidson diagonalization with overlap
     ethr =  7.29E-08,  avg # of iterations =  2.1

[...]

     total energy              =   -1218.61019433 Ry
     Harris-Foulkes estimate   =   -1218.61019440 Ry
     estimated scf accuracy    <       0.00000013 Ry

     iteration # 10     ecut=    36.75 Ry     beta=0.30
     Davidson diagonalization with overlap
     ethr =  8.42E-11,  avg # of iterations =  2.9

[...]

     negative rho (up, down):  7.502E-01 0.000E+00

     Adding external electric field

     Computed dipole along edir(3) :
        Dipole                0.2520 Ry au,          0.6404 Debye
        Dipole field          0.0005 Ry au

        Potential amp.       -0.0484 Ry
        Total length         46.5096 bohr

     End of self-consistent calculation

[...]

          k = 0.0519-0.0599 0.0000 ( 22856 PWs)   bands (ev):

[...]

          k =-0.0779-0.0450 0.0000 ( 22880 PWs)   bands (ev):

   -47.4616 -47.4575 -47.4168 -47.4116 -47.3694 -47.3566 -47.3210 -47.2975
   -47.0700 -47.0579 -47.0313 -46.9940 -25.6634 -25.6582 -25.6214 -25.6058
   -25.5920 -25.5816 -25.5263 -25.5034 -25.4919 -25.4886 -25.4499 -25.4391
   -25.4266 -25.4189 -25.3970 -25.3672 -25.3634 -25.3499 -25.3196 -25.3049
   -25.1586 -25.1543 -25.1261 -25.1156 -25.0880 -25.0714 -25.0116 -24.9992
   -24.9728 -24.9631 -24.9221 -24.9054 -24.8771 -24.8661 -24.7777 -24.7574
   -13.7964  -5.0590  -2.4040  -1.9994  -1.7068  -1.5220  -0.7135  -0.5340
    -0.1063  -0.0803   0.0022   0.0162   0.0390   0.3014   0.6685   0.7570
     0.7916   0.7971   0.8505   0.8863   1.2000   1.2451   1.2539   1.2879
     1.3539   1.4489   1.5422   1.6837   1.6963   1.7695   1.8438   1.8907
     2.0263   2.0879   2.1138   2.4860   2.5155

     the Fermi energy is     1.7665 ev

!    total energy              =   -1218.61019429 Ry
     Harris-Foulkes estimate   =   -1218.61019500 Ry
     estimated scf accuracy    <       0.00000006 Ry

     The total energy is the sum of the following terms:

     one-electron contribution =   -8689.85409072 Ry
     hartree contribution      =    4339.63803964 Ry
     xc contribution           =    -227.14166012 Ry
     ewald contribution        =    3358.85917485 Ry
     electric field correction =       0.00013115 Ry
     smearing contrib. (-TS)   =      -0.11178910 Ry

     convergence has been achieved in  10 iterations

 BEEF-vdW xc energy contributions
           1 :   -194.542958083028
           2 :    176.084646951554
           3 :   -144.940661501013
           4 :    109.824748893407
           5 :   -78.6313243513733
           6 :    55.6973900433776
           7 :   -41.1249948719525
           8 :    32.0669416702478
           9 :   -24.9771423145754
          10 :    17.5435799477368
          11 :   -9.45351907547519
          12 :    1.90272885089800
          13 :    3.58632264951581
          14 :   -6.24903765840747
          15 :    6.49864678055781
          16 :   -5.58001060483565
          17 :    4.78361380905989
          18 :   -4.74897390660931
          19 :    5.26255921812938
          20 :   -5.60356026642668
          21 :    5.14569631475430
          22 :   -3.80531250265935
          23 :    2.07378024856999
          24 :  -0.668352056699774
          25 :   7.087713898522452E-002
          26 :  -0.262283939138968
          27 :   0.797321954422898
          28 :   -1.13270995996155
          29 :   0.974302153365670
          30 :  -0.427456366945108
          31 :   -22.5693695211330
          32 :   -16.8184687117368

     Forces acting on atoms (Ry/au):

     negative rho (up, down):  7.502E-01 0.000E+00
     atom    1 type  1   force =     0.00000052    0.00000038    0.01025945
     atom    2 type  1   force =    -0.00000051    0.00145199    0.01281358
     atom    3 type  1   force =     0.00125717   -0.00072643    0.01281361
     atom    4 type  1   force =    -0.00125728   -0.00072590    0.01281319
     atom    5 type  1   force =     0.00554656   -0.00320104   -0.01141254
     atom    6 type  1   force =    -0.00554645   -0.00320209   -0.01141135
     atom    7 type  1   force =    -0.00000048   -0.00000043   -0.01418506
     atom    8 type  1   force =     0.00000096    0.00640387   -0.01141280
     atom    9 type  1   force =    -0.00004541   -0.00002587   -0.00010296
     atom   10 type  1   force =     0.00004741   -0.00002655   -0.00010506
     atom   11 type  1   force =     0.00000039    0.00005380   -0.00010501
     atom   12 type  1   force =    -0.00000038   -0.00000044   -0.00001193
     atom   13 type  2   force =    -0.00000384   -0.00000207   -0.00033495
     atom   14 type  3   force =     0.00000133    0.00000079    0.00038182

     Total force =     0.000547     Total SCF correction =     0.000866
     SCF correction compared to forces is large: reduce conv_thr to get better values

     entering subroutine stress ...

     negative rho (up, down):  7.502E-01 0.000E+00
          total   stress  (Ry/bohr**3)                   (kbar)     P=   -3.72
  -0.00001734  -0.00000000  -0.00000000         -2.55     -0.00     -0.00
  -0.00000000  -0.00001733  -0.00000000         -0.00     -2.55     -0.00
  -0.00000000  -0.00000000  -0.00004115         -0.00     -0.00     -6.05

     bfgs converged in  18 scf cycles and  17 bfgs steps
     (criteria: energy <  1.0E+00, force <  1.9E-03)

     End of BFGS Geometry Optimization

     Final energy   =   -1218.6101942935 Ry
Begin final coordinates

ATOMIC_POSITIONS (crystal)
Zr1      0.166666667   0.166666667   0.396150897    0   0   0
Zr1      0.666666667   0.166666667   0.396150897    0   0   0
Zr1      0.166666667   0.666666667   0.396150897    0   0   0
Zr1      0.666666667   0.666666667   0.396150897    0   0   0
Zr1      0.833333333   0.333333333   0.500000000    0   0   0
Zr1      0.333333333   0.333333333   0.500000000    0   0   0
Zr1      0.833333333   0.833333333   0.500000000    0   0   0
Zr1      0.333333333   0.833333333   0.500000000    0   0   0
Zr1      0.000035748   0.000035449   0.601391309
Zr1      0.499929784   0.000035415   0.601391685
Zr1      0.000035512   0.499929922   0.601391678
Zr1      0.500000262   0.500000392   0.595363510
N1       0.166667477   0.166667415   0.646650375
H1       0.166664097   0.166664108   0.687380992
End final coordinates

     Writing output data file calc.save

     General routines

     Parallel routines

   This run was terminated on:  12: 1:47  25Apr2018

   JOB DONE.
Job  /afs/slac/g/suncat/bin/suncat-tsmpirun -x LD_LIBRARY_PATH -wdir /scratch/qe405887_OjP3G pw.x -npool 4 -in pw.inp

TID   HOST_NAME   COMMAND_LINE            STATUS            TERMINATION_TIME
00000 suncat0260 pw.x -npool 4 -i  Done                     04/25/2018 12:01:47
00001 suncat0260 pw.x -npool 4 -i  Done                     04/25/2018 12:01:47
00002 suncat0260 pw.x -npool 4 -i  Done                     04/25/2018 12:01:47
00003 suncat0260 pw.x -npool 4 -i  Done                     04/25/2018 12:01:47
00004 suncat0260 pw.x -npool 4 -i  Done                     04/25/2018 12:01:47
00005 suncat0260 pw.x -npool 4 -i  Done                     04/25/2018 12:01:47
00006 suncat0260 pw.x -npool 4 -i  Done                     04/25/2018 12:01:47
00007 suncat0260 pw.x -npool 4 -i  Done                     04/25/2018 12:01:47
00008 suncat0259 pw.x -npool 4 -i  Done                     04/25/2018 12:01:47
00009 suncat0259 pw.x -npool 4 -i  Done                     04/25/2018 12:01:47
00010 suncat0259 pw.x -npool 4 -i  Done                     04/25/2018 12:01:47
00011 suncat0259 pw.x -npool 4 -i  Done                     04/25/2018 12:01:47
00012 suncat0259 pw.x -npool 4 -i  Done                     04/25/2018 12:01:47
00013 suncat0259 pw.x -npool 4 -i  Done                     04/25/2018 12:01:47
00014 suncat0259 pw.x -npool 4 -i  Done                     04/25/2018 12:01:47
00015 suncat0259 pw.x -npool 4 -i  Done                     04/25/2018 12:01:47
00016 suncat0255 pw.x -npool 4 -i  Done                     04/25/2018 12:01:47
00017 suncat0255 pw.x -npool 4 -i  Done                     04/25/2018 12:01:47
00018 suncat0255 pw.x -npool 4 -i  Done                     04/25/2018 12:01:47
00019 suncat0255 pw.x -npool 4 -i  Done                     04/25/2018 12:01:47
00020 suncat0255 pw.x -npool 4 -i  Done                     04/25/2018 12:01:47
00021 suncat0255 pw.x -npool 4 -i  Done                     04/25/2018 12:01:47
00022 suncat0255 pw.x -npool 4 -i  Done                     04/25/2018 12:01:47
00023 suncat0255 pw.x -npool 4 -i  Done                     04/25/2018 12:01:47
00024 suncat0254 pw.x -npool 4 -i  Done                     04/25/2018 12:01:47
00025 suncat0254 pw.x -npool 4 -i  Done                     04/25/2018 12:01:47
00026 suncat0254 pw.x -npool 4 -i  Done                     04/25/2018 12:01:47
00027 suncat0254 pw.x -npool 4 -i  Done                     04/25/2018 12:01:47
00028 suncat0254 pw.x -npool 4 -i  Done                     04/25/2018 12:01:47
00029 suncat0254 pw.x -npool 4 -i  Done                     04/25/2018 12:01:47
00030 suncat0254 pw.x -npool 4 -i  Done                     04/25/2018 12:01:47
00031 suncat0254 pw.x -npool 4 -i  Done                     04/25/2018 12:01:47