     Program PWSCF v.5.1rc2 (svn rev. 11289) starts on  4May2018 at  9:29: 9

     Current dimensions of program PWSCF are:
     Max number of different atomic species (ntypx) = 10
     Max number of k-points (npk) =  40000
     Max angular momentum in pseudopotentials (lmaxx) =  3
     Presently stress not available with electric field

     IMPORTANT: XC functional enforced from input :
     Exchange-correlation      = BEEF-VDW ( 1  4 27 13 2)
     Any further DFT definition will be discarded
     Please, verify this is what you really want

     Subspace diagonalization in iterative solution of the eigenvalue problem:
     a serial algorithm will be used

     bravais-lattice index     =            0
     lattice parameter (alat)  =       1.8897  a.u.
     unit-cell volume          =    5144.9564 (a.u.)^3
     number of atoms/cell      =           13
     number of atomic types    =            2
     number of electrons       =       138.00
     number of Kohn-Sham states=           79
     kinetic-energy cutoff     =      36.7493  Ry
     charge density cutoff     =     367.4932  Ry
     convergence threshold     =      1.0E-05
     mixing beta               =       0.3000
     number of iterations used =           10  plain     mixing
     Exchange-correlation      = BEEF-VDW ( 1  4 27 13 2)
     nstep                     =           50

     celldm(1)=   1.889726  celldm(2)=   0.000000  celldm(3)=   0.000000
     celldm(4)=   0.000000  celldm(5)=   0.000000  celldm(6)=   0.000000

     crystal axes: (cart. coord. in units of alat)
               a(1) = (   5.950946   0.000000   0.000000 )
               a(2) = (   2.975473   5.153671   0.000000 )
               a(3) = (   0.000000   0.000000  24.858927 )

     reciprocal axes: (cart. coord. in units 2 pi/alat)
               b(1) = (  0.168040 -0.097018  0.000000 )
               b(2) = (  0.000000  0.194036  0.000000 )
               b(3) = (  0.000000  0.000000  0.040227 )

     PseudoPot. # 1 for Au read from file:
     /u/if/mamunm/psp/gbrv1.5pbe/Au.UPF
     MD5 check sum: 9d7f43293ad2c663164586bc4b293ffc
     Pseudo is Ultrasoft + core correction, Zval = 11.0
     Generated by new atomic code, or converted to UPF format
     Using radial grid of  985 points,  7 beta functions with:
                l(1) =   0
                l(2) =   0
                l(3) =   1
                l(4) =   1
                l(5) =   2
                l(6) =   2
                l(7) =   3
     Q(r) pseudized with  6 coefficients,  rinner =    1.900   1.900   1.900
                                                       1.900   1.900   1.900
                                                       1.900

     PseudoPot. # 2 for O  read from file:
     /u/if/mamunm/psp/gbrv1.5pbe/O.UPF
     MD5 check sum: 734c27235a0248c51dbae37a1fbe46ec
     Pseudo is Ultrasoft + core correction, Zval =  6.0
     Generated by new atomic code, or converted to UPF format
     Using radial grid of  737 points,  5 beta functions with:
                l(1) =   0
                l(2) =   0
                l(3) =   1
                l(4) =   1
                l(5) =   2
     Q(r) pseudized with  8 coefficients,  rinner =    0.900   0.900   0.900
                                                       0.900   0.900

     vdW kernel table read from file vdW_kernel_table
     MD5 check sum: 095c7af220d748ca6e76c0b4c6cfb241

     atomic species   valence    mass     pseudopotential
        Au1           11.00   196.96657     Au( 1.00)
        O1             6.00    15.99900     O ( 1.00)

     No symmetry found

   Cartesian axes

     site n.     atom                  positions (alat units)
         1           Au1 tau(   1) = (   1.4877366   0.8589451  10.0000000  )
         2           Au1 tau(   2) = (   4.4632098   0.8589451  10.0000000  )
         3           Au1 tau(   3) = (   2.9754732   3.4357805  10.0000000  )
         4           Au1 tau(   4) = (   5.9509464   3.4357805  10.0000000  )
         5           Au1 tau(   5) = (   5.9509464   1.7178903  12.4294637  )
         6           Au1 tau(   6) = (   2.9754732   1.7178903  12.4294637  )
         7           Au1 tau(   7) = (   7.4386830   4.2947256  12.4294637  )
         8           Au1 tau(   8) = (   4.4632098   4.2947256  12.4294637  )
         9           Au1 tau(   9) = (   0.0000000   0.0000000  14.8589274  )
        10           Au1 tau(  10) = (   2.9754732   0.0000000  14.8589274  )
        11           Au1 tau(  11) = (   1.4877366   2.5768354  14.8589274  )
        12           Au1 tau(  12) = (   4.4632098   2.5768354  14.8589274  )
        13           O1  tau(  13) = (   0.0000000   0.0000000  16.5759274  )

     number of k points=    20  Fermi-Dirac smearing, width (Ry)=  0.0110
                       cart. coord. in units 2pi/alat
        k(    1) = (   0.0000000   0.0000000   0.0000000), wk =   0.0555556
        k(    2) = (   0.0000000   0.0323394   0.0000000), wk =   0.1111111
        k(    3) = (   0.0000000   0.0646788   0.0000000), wk =   0.1111111
        k(    4) = (   0.0000000  -0.0970182   0.0000000), wk =   0.0555556
        k(    5) = (   0.0280067  -0.0161697   0.0000000), wk =   0.1111111
        k(    6) = (   0.0280067   0.0161697   0.0000000), wk =   0.1111111
        k(    7) = (   0.0280067   0.0485091   0.0000000), wk =   0.1111111
        k(    8) = (   0.0280067  -0.1131879   0.0000000), wk =   0.1111111
        k(    9) = (   0.0280067  -0.0808485   0.0000000), wk =   0.1111111
        k(   10) = (   0.0280067  -0.0485091   0.0000000), wk =   0.1111111
        k(   11) = (   0.0560135  -0.0323394   0.0000000), wk =   0.1111111
        k(   12) = (   0.0560135   0.0000000   0.0000000), wk =   0.1111111
        k(   13) = (   0.0560135   0.0323394   0.0000000), wk =   0.1111111
        k(   14) = (   0.0560135  -0.1293576   0.0000000), wk =   0.1111111
        k(   15) = (   0.0560135  -0.0970182   0.0000000), wk =   0.1111111
        k(   16) = (   0.0560135  -0.0646788   0.0000000), wk =   0.1111111
        k(   17) = (  -0.0840202   0.0485091   0.0000000), wk =   0.0555556
        k(   18) = (  -0.0840202   0.0808485   0.0000000), wk =   0.1111111
        k(   19) = (  -0.0840202   0.1131879   0.0000000), wk =   0.1111111
        k(   20) = (  -0.0840202  -0.0485091   0.0000000), wk =   0.0555556

     Largest allocated arrays     est. size (Mb)     dimensions
     Largest temporary arrays     est. size (Mb)     dimensions

     Check: negative/imaginary core charge=   -0.000002    0.000000

     Initial potential from superposition of free atoms
     Check: negative starting charge=   -0.000294

     starting charge  137.99853, renormalised to  138.00000

     negative rho (up, down):  2.940E-04 0.000E+00

     *
     * You are using vdW-DF for exchange-correlation in this calculation.
     * Please cite the following three references that made this development
     * possible:
     *
     *   M. Dion, H. Rydberg, E. Schroder, D. C. Langreth, and
     *   B. I. Lundqvist, Phys. Rev. Lett. 92, 246401 (2004).
     *
     *   T. Thonhauser, V. R. Cooper, S. Li, A. Puzder, P. Hyldgaard, and
     *   D. C. Langreth, Phys. Rev. B 76, 125112 (2007).
     *
     *   G. Roman-Perez and J. M. Soler, Phys. Rev. Lett. 103, 096102 (2009).
     *
     *
     * If you are using vdW-DF2, please also cite:
     *
     *   K. Lee, E. D. Murray, L. Kong, B. I. Lundqvist, and
     *   D. C. Langreth, Phys. Rev. B 82, 081101(R) (2010).
     *
     *
     * If you are calculating the stress with vdW-DF, please also cite:
     *
     *   R. Sabatini, E. Kucukbenli, B. Kolb, T. Thonhauser, and
     *   S. de Gironcoli, J. Phys.: Condens. Matter 24, 424209 (2012).
     *

     Carrying out vdW-DF run using the following parameters:

     Nqs =      20    Nr_points =    1024   r_max =   100.000
     q_mesh =
               0.00001000     0.04494208     0.09755937     0.15916263
               0.23128650     0.31572767     0.41458969     0.53033537
               0.66584808     0.82450364     1.01025438     1.22772762
               1.48234092     1.78043706     2.12944203     2.53805004
               3.01644009     3.57652955     4.23227104     5.00000000

     Gradients computed in reciprocal space

     Adding external electric field

     Computed dipole along edir(3) :
        Dipole               -0.0005 Ry au,         -0.0012 Debye
        Dipole field         -0.0000 Ry au

        Potential amp.        0.0001 Ry
        Total length         45.8022 bohr

     Starting wfc are  112 randomized atomic wfcs

     Self-consistent Calculation

     iteration #  1     ecut=    36.75 Ry     beta=0.30
     Davidson diagonalization with overlap
     ethr =  1.00E-02,  avg # of iterations =  2.3

[...]

     total energy              =   -1432.06737427 Ry
     Harris-Foulkes estimate   =   -1433.08610099 Ry
     estimated scf accuracy    <       2.23562905 Ry

[...]

     End of self-consistent calculation

          k = 0.0000 0.0000 0.0000 ( 19315 PWs)   bands (ev):

   -18.2887  -8.3390  -7.0582  -6.7337  -6.5094  -6.5094  -6.4130  -6.2083
    -6.2083  -6.1115  -6.1036  -6.1036  -6.0439  -5.7679  -5.7679  -5.6988
    -5.5254  -5.4878  -5.4878  -4.6591  -4.6100  -4.6100  -4.5031  -4.4479
    -4.4479  -4.3712  -4.3186  -4.3186  -4.2104  -4.2104  -4.1108  -4.0870
    -4.0870  -3.8611  -3.7595  -3.7595  -3.4871  -3.4871  -3.1934  -3.1934
    -3.0975  -3.0134  -3.0134  -2.9877  -2.7883  -2.7883  -2.7422  -2.5331
    -2.5331  -2.4186  -2.3618  -2.3618  -2.3226  -2.3226  -2.2332  -2.2332
    -2.2093  -2.1371  -2.1371  -1.9393  -1.9393  -1.9336  -1.8827  -1.7222
    -1.1823  -1.1823  -0.1755   0.3245   0.4654   0.4654   1.0127   1.0704
     1.1472   1.1472   1.2913   1.6918   1.6918   2.9853   2.9853

[...]

          k =-0.0840 0.0485 0.0000 ( 19380 PWs)   bands (ev):

[...]

     the Fermi energy is    -0.2667 ev

!    total energy              =   -1432.75449699 Ry
     Harris-Foulkes estimate   =   -1432.75451629 Ry
     estimated scf accuracy    <       0.00000379 Ry

     The total energy is the sum of the following terms:

     one-electron contribution =   -8317.09412786 Ry
     hartree contribution      =    4255.45859364 Ry
     xc contribution           =    -775.62370127 Ry
     ewald contribution        =    3404.53812603 Ry
     electric field correction =       0.00045684 Ry
     smearing contrib. (-TS)   =      -0.03384438 Ry

     convergence has been achieved in  12 iterations

 BEEF-vdW xc energy contributions
           1 :   -693.095394398752
           2 :    643.959284597728
           3 :   -556.266294127627
           4 :    447.174021819362
           5 :   -335.019883747759
           6 :    234.644506832354
           7 :   -154.673476783865
           8 :    97.1304604193760
           9 :   -59.0645386063779
          10 :    35.1997696065357
          11 :   -20.4238460059460
          12 :    11.2015123493914
          13 :   -5.70393384099998
          14 :    3.06456137844270
          15 :   -2.46890103557598
          16 :    2.65429115795780
          17 :   -2.05801033950979
          18 :  -0.570522246593782
          19 :    5.52422051746680
          20 :   -11.8948127028307
          21 :    17.9118682944854
          22 :   -21.7237424076015
          23 :    22.2279825046262
          24 :   -19.5411056891764
          25 :    14.8871344215697
          26 :   -9.99547086073267
          27 :    6.32969933032678
          28 :   -4.53497687489357
          29 :    4.34390281427750
          30 :   -4.92711201286704
          31 :   -54.9082731649341
          32 :   -39.9609212154971

     Forces acting on atoms (Ry/au):

     negative rho (up, down):  4.827E-04 0.000E+00
     atom    1 type  1   force =    -0.00167361   -0.00096543   -0.00430619
     atom    2 type  1   force =     0.00166501   -0.00096174   -0.00432576
     atom    3 type  1   force =     0.00000026    0.00192229   -0.00431655
     atom    4 type  1   force =    -0.00000056    0.00000128   -0.00209095
     atom    5 type  1   force =     0.00000354   -0.00347898    0.00205917
     atom    6 type  1   force =     0.00000136   -0.00000389    0.00233103
     atom    7 type  1   force =     0.00301007    0.00174378    0.00204882
     atom    8 type  1   force =    -0.00300977    0.00173739    0.00204857
     atom    9 type  1   force =     0.00000021   -0.00000022   -0.28493736
     atom   10 type  1   force =    -0.00000047    0.00085788   -0.00353697
     atom   11 type  1   force =     0.00074056   -0.00042532   -0.00353508
     atom   12 type  1   force =    -0.00073657   -0.00042624   -0.00352995
     atom   13 type  2   force =    -0.00000002   -0.00000081    0.30209121

     Total force =     0.415317     Total SCF correction =     0.002748

     entering subroutine stress ...

     negative rho (up, down):  4.827E-04 0.000E+00
          total   stress  (Ry/bohr**3)                   (kbar)     P=    1.74
  -0.00008809   0.00000000   0.00000000        -12.96      0.00      0.00
   0.00000000  -0.00008809  -0.00000000          0.00    -12.96     -0.00
   0.00000000  -0.00000000   0.00021175          0.00     -0.00     31.15

     BFGS Geometry Optimization

     number of scf cycles    =   1
     number of bfgs steps    =   0

     energy   new            =   -1432.7544969869 Ry

     new trust radius        =       0.3020912096 bohr
     new conv_thr            =       0.0000099958 Ry

ATOMIC_POSITIONS (crystal)
Au1      0.166666667   0.166666667   0.402269971    0   0   0
Au1      0.666666667   0.166666667   0.402269971    0   0   0
Au1      0.166666667   0.666666667   0.402269971    0   0   0
Au1      0.666666667   0.666666667   0.402269971    0   0   0
Au1      0.833333333   0.333333333   0.500000000    0   0   0
Au1      0.333333333   0.333333333   0.500000000    0   0   0
Au1      0.833333333   0.833333333   0.500000000    0   0   0
Au1      0.333333333   0.833333333   0.500000000    0   0   0
Au1      0.000000030  -0.000000022   0.591664508
Au1      0.499955914   0.000088087   0.597654737
Au1      0.000087689   0.499956329   0.597654777
Au1      0.499956385   0.499956234   0.597654886
O1       0.000000039  -0.000000083   0.673230462

     Writing output data file calc.save
     Check: negative starting charge=   -0.000294
     NEW-OLD atomic charge density approx. for the potential

     Check: negative/imaginary core charge=   -0.000002    0.000000
     Check: negative starting charge=   -0.000293

[...]

     energy   old            =   -1432.7544969869 Ry
     energy   new            =   -1432.8011566188 Ry

     CASE: energy  _new < energy  _old

[...]

     Total force =     0.010450     Total SCF correction =     0.001405
     SCF correction compared to forces is large: reduce conv_thr to get better values

[...]

     Total force =     0.007118     Total SCF correction =     0.000287

[...]

     number of scf cycles    =   9
     number of bfgs steps    =   8

     energy   old            =   -1432.8064227494 Ry
     energy   new            =   -1432.8067512494 Ry

     CASE: energy  _new < energy  _old

     new trust radius        =       0.0534918195 bohr
     new conv_thr            =       0.0000001000 Ry

ATOMIC_POSITIONS (crystal)
Au1      0.166666667   0.166666667   0.402269971    0   0   0
Au1      0.666666667   0.166666667   0.402269971    0   0   0
Au1      0.166666667   0.666666667   0.402269971    0   0   0
Au1      0.666666667   0.666666667   0.402269971    0   0   0
Au1      0.833333333   0.333333333   0.500000000    0   0   0
Au1      0.333333333   0.333333333   0.500000000    0   0   0
Au1      0.833333333   0.833333333   0.500000000    0   0   0
Au1      0.333333333   0.833333333   0.500000000    0   0   0
Au1     -0.000000162   0.000000128   0.598056720
Au1      0.499376874   0.001246485   0.597503227
Au1      0.001246261   0.499377015   0.597503229
Au1      0.499376758   0.499377033   0.597503263
O1       0.000000072  -0.000000091   0.676171889

     Writing output data file calc.save
     Check: negative starting charge=   -0.000295
     NEW-OLD atomic charge density approx. for the potential

     Check: negative/imaginary core charge=   -0.000002    0.000000
     Check: negative starting charge=   -0.000294

[...]

     Self-consistent Calculation

[...]

     total energy              =   -1432.80685653 Ry
     Harris-Foulkes estimate   =   -1432.80685668 Ry
     estimated scf accuracy    <       0.00000025 Ry

     iteration # 12     ecut=    36.75 Ry     beta=0.30
     Davidson diagonalization with overlap
     ethr =  1.62E-10,  avg # of iterations =  2.0

[...]

     negative rho (up, down):  4.537E-04 0.000E+00

     Adding external electric field

     Computed dipole along edir(3) :
        Dipole               -0.6084 Ry au,         -1.5465 Debye
        Dipole field         -0.0015 Ry au

        Potential amp.        0.1361 Ry
        Total length         45.8022 bohr

     End of self-consistent calculation

[...]

          k = 0.0560-0.0647 0.0000 ( 19376 PWs)   bands (ev):

[...]

          k =-0.0840-0.0485 0.0000 ( 19380 PWs)   bands (ev):

   -16.9312  -7.0869  -7.0724  -6.0708  -6.0142  -5.9418  -5.8834  -5.8029
    -5.7908  -5.7776  -5.7703  -5.5544  -5.4615  -5.4001  -5.2805  -5.1827
    -5.1682  -5.1275  -5.0000  -4.9947  -4.9426  -4.8812  -4.8153  -4.7294
    -4.6434  -4.5140  -4.4909  -4.4253  -4.3065  -4.2464  -4.2169  -4.1609
    -4.1444  -4.1115  -4.0904  -4.0213  -3.9932  -3.9830  -3.9688  -3.9564
    -3.8720  -3.8538  -3.7528  -3.7326  -3.6025  -3.4799  -3.4483  -3.4059
    -3.3976  -3.3576  -3.3161  -3.2501  -3.2376  -3.1638  -3.1127  -2.9636
    -2.9384  -2.8386  -2.5822  -2.5800  -2.5084  -2.5005  -2.4762  -2.3529
    -2.2959  -1.1174  -1.0888  -0.8602  -0.5236  -0.3505  -0.2107   0.3087
     0.7902   1.1110   2.6029   2.7830   3.1042   3.9236   4.8760

     the Fermi energy is    -0.4745 ev

!    total energy              =   -1432.80685652 Ry
     Harris-Foulkes estimate   =   -1432.80685390 Ry
     estimated scf accuracy    <       0.00000001 Ry

     The total energy is the sum of the following terms:

     one-electron contribution =   -8264.59469816 Ry
     hartree contribution      =    4228.69080134 Ry
     xc contribution           =    -775.46400252 Ry
     ewald contribution        =    3378.59653555 Ry
     electric field correction =       0.00090419 Ry
     smearing contrib. (-TS)   =      -0.03639692 Ry

     convergence has been achieved in  12 iterations

 BEEF-vdW xc energy contributions
           1 :   -692.926878894422
           2 :    643.724085518865
           3 :   -555.952992208039
           4 :    446.832106103009
           5 :   -334.725467823316
           6 :    234.459798699187
           7 :   -154.621312315093
           8 :    97.1895989706414
           9 :   -59.1826751098131
          10 :    35.3171119067672
          11 :   -20.4971727796267
          12 :    11.2179992736601
          13 :   -5.67893976946516
          14 :    3.02703565540264
          15 :   -2.44445315549251
          16 :    2.65400293773587
          17 :   -2.07675400506639
          18 :  -0.546782539179844
          19 :    5.50760437233089
          20 :   -11.8882834140443
          21 :    17.9096226612087
          22 :   -21.7183020355571
          23 :    22.2179822544288
          24 :   -19.5339206624828
          25 :    14.8939806430581
          26 :   -10.0219741913311
          27 :    6.36923241762383
          28 :   -4.56981439955609
          29 :    4.35287300014670
          30 :   -4.89666103688455
          31 :   -54.8983371172093
          32 :   -39.9358591099483

     Forces acting on atoms (Ry/au):

     negative rho (up, down):  4.537E-04 0.000E+00
     atom    1 type  1   force =    -0.00154751   -0.00089346   -0.00415583
     atom    2 type  1   force =     0.00154751   -0.00089346   -0.00415583
     atom    3 type  1   force =    -0.00000000    0.00178692   -0.00415583
     atom    4 type  1   force =     0.00000001   -0.00000001   -0.00080191
     atom    5 type  1   force =    -0.00000002   -0.00379803    0.00395486
     atom    6 type  1   force =     0.00000002    0.00000002    0.00141813
     atom    7 type  1   force =     0.00328920    0.00189904    0.00395475
     atom    8 type  1   force =    -0.00328919    0.00189903    0.00395485
     atom    9 type  1   force =     0.00000014    0.00000007   -0.00176055
     atom   10 type  1   force =    -0.00000018   -0.00107770   -0.00000198
     atom   11 type  1   force =    -0.00093334    0.00053875   -0.00000197
     atom   12 type  1   force =     0.00093336    0.00053885   -0.00000208
     atom   13 type  2   force =     0.00000001   -0.00000002    0.00175339

     Total force =     0.003108     Total SCF correction =     0.000662
     SCF correction compared to forces is large: reduce conv_thr to get better values

     entering subroutine stress ...

     negative rho (up, down):  4.537E-04 0.000E+00
          total   stress  (Ry/bohr**3)                   (kbar)     P=   -9.46
  -0.00010181  -0.00000000   0.00000000        -14.98     -0.00      0.00
  -0.00000000  -0.00010181  -0.00000000         -0.00    -14.98     -0.00
   0.00000000  -0.00000000   0.00001065          0.00     -0.00      1.57

     bfgs converged in  10 scf cycles and   9 bfgs steps
     (criteria: energy <  1.0E+00, force <  1.9E-03)

     End of BFGS Geometry Optimization

     Final energy   =   -1432.8068565153 Ry
Begin final coordinates

ATOMIC_POSITIONS (crystal)
Au1      0.166666667   0.166666667   0.402269971    0   0   0
Au1      0.666666667   0.166666667   0.402269971    0   0   0
Au1      0.166666667   0.666666667   0.402269971    0   0   0
Au1      0.666666667   0.666666667   0.402269971    0   0   0
Au1      0.833333333   0.333333333   0.500000000    0   0   0
Au1      0.333333333   0.333333333   0.500000000    0   0   0
Au1      0.833333333   0.833333333   0.500000000    0   0   0
Au1      0.333333333   0.833333333   0.500000000    0   0   0
Au1     -0.000000162   0.000000128   0.598056720
Au1      0.499376874   0.001246485   0.597503227
Au1      0.001246261   0.499377015   0.597503229
Au1      0.499376758   0.499377033   0.597503263
O1       0.000000072  -0.000000091   0.676171889
End final coordinates

     Writing output data file calc.save

     General routines

     Parallel routines

   This run was terminated on:  10:47:17   4May2018

   JOB DONE.
Job  /afs/slac/g/suncat/bin/suncat-tsmpirun -x LD_LIBRARY_PATH -wdir /scratch/qe929039_Wm327 pw.x -npool 4 -in pw.inp

TID   HOST_NAME   COMMAND_LINE            STATUS            TERMINATION_TIME
00000 suncat0050 pw.x -npool 4 -i  Done                     05/04/2018 10:47:17
00001 suncat0050 pw.x -npool 4 -i  Done                     05/04/2018 10:47:17
00002 suncat0050 pw.x -npool 4 -i  Done                     05/04/2018 10:47:17
00003 suncat0050 pw.x -npool 4 -i  Done                     05/04/2018 10:47:17
00004 suncat0050 pw.x -npool 4 -i  Done                     05/04/2018 10:47:17
00005 suncat0050 pw.x -npool 4 -i  Done                     05/04/2018 10:47:17
00006 suncat0050 pw.x -npool 4 -i  Done                     05/04/2018 10:47:17
00007 suncat0050 pw.x -npool 4 -i  Done                     05/04/2018 10:47:17
00008 suncat0048 pw.x -npool 4 -i  Done                     05/04/2018 10:47:17
00009 suncat0048 pw.x -npool 4 -i  Done                     05/04/2018 10:47:17
00010 suncat0048 pw.x -npool 4 -i  Done                     05/04/2018 10:47:17
00011 suncat0048 pw.x -npool 4 -i  Done                     05/04/2018 10:47:17
00012 suncat0048 pw.x -npool 4 -i  Done                     05/04/2018 10:47:17
00013 suncat0048 pw.x -npool 4 -i  Done                     05/04/2018 10:47:17
00014 suncat0048 pw.x -npool 4 -i  Done                     05/04/2018 10:47:17
00015 suncat0048 pw.x -npool 4 -i  Done                     05/04/2018 10:47:17
00016 suncat0034 pw.x -npool 4 -i  Done                     05/04/2018 10:47:17
00017 suncat0034 pw.x -npool 4 -i  Done                     05/04/2018 10:47:17
00018 suncat0034 pw.x -npool 4 -i  Done                     05/04/2018 10:47:17
00019 suncat0034 pw.x -npool 4 -i  Done                     05/04/2018 10:47:17
00020 suncat0034 pw.x -npool 4 -i  Done                     05/04/2018 10:47:17
00021 suncat0034 pw.x -npool 4 -i  Done                     05/04/2018 10:47:17
00022 suncat0034 pw.x -npool 4 -i  Done                     05/04/2018 10:47:17
00023 suncat0034 pw.x -npool 4 -i  Done                     05/04/2018 10:47:17
00024 suncat0022 pw.x -npool 4 -i  Done                     05/04/2018 10:47:17
00025 suncat0022 pw.x -npool 4 -i  Done                     05/04/2018 10:47:17
00026 suncat0022 pw.x -npool 4 -i  Done                     05/04/2018 10:47:17
00027 suncat0022 pw.x -npool 4 -i  Done                     05/04/2018 10:47:17
00028 suncat0022 pw.x -npool 4 -i  Done                     05/04/2018 10:47:17
00029 suncat0022 pw.x -npool 4 -i  Done                     05/04/2018 10:47:17
00030 suncat0022 pw.x -npool 4 -i  Done                     05/04/2018 10:47:17
00031 suncat0022 pw.x -npool 4 -i  Done                     05/04/2018 10:47:17