     Program PWSCF v.5.1rc2 (svn rev. 11289) starts on 28Jan2019 at  1:37:31

     Current dimensions of program PWSCF are:
     Max number of different atomic species (ntypx) = 10
     Max number of k-points (npk) =  40000
     Max angular momentum in pseudopotentials (lmaxx) =  3

     IMPORTANT: XC functional enforced from input :
     Exchange-correlation      = BEEF-VDW ( 1  4 27 13 2)
     Any further DFT definition will be discarded
     Please, verify this is what you really want

     Subspace diagonalization in iterative solution of the eigenvalue problem:
     a serial algorithm will be used

     Generating pointlists ...
     new r_m :   0.1319 (alat units)  1.2491 (a.u.) for type    1
     new r_m :   0.1732 (alat units)  1.6410 (a.u.) for type    2
     new r_m :   0.1319 (alat units)  1.2491 (a.u.) for type    3

     bravais-lattice index     =            0
     lattice parameter (alat)  =       9.4723  a.u.
     unit-cell volume          =    3537.7769 (a.u.)^3
     number of atoms/cell      =           14
     number of atomic types    =            3
     number of electrons       =       211.00
     number of Kohn-Sham states=          115
     kinetic-energy cutoff     =      36.7493  Ry
     charge density cutoff     =     367.4933  Ry
     convergence threshold     =      1.0E-04
     mixing beta               =       0.3000
     number of iterations used =            8  plain     mixing
     Exchange-correlation      = BEEF-VDW ( 1  4 27 13 2)
     nstep                     =           50

     celldm(1)=   9.472344  celldm(2)=   0.000000  celldm(3)=   0.000000
     celldm(4)=   0.000000  celldm(5)=   0.000000  celldm(6)=   0.000000

     crystal axes: (cart. coord. in units of alat)
               a(1) = (   1.000000   0.000000   0.000000 )
               a(2) = (   0.500000   0.866025   0.000000 )
               a(3) = (   0.000000   0.000000   4.806483 )

     reciprocal axes: (cart. coord. in units 2 pi/alat)
               b(1) = (  1.000000 -0.577350  0.000000 )
               b(2) = (  0.000000  1.154701  0.000000 )
               b(3) = (  0.000000  0.000000  0.208052 )

     PseudoPot. # 1 for Co read from file:
     /nfs/slac/staas/fs1/g/suncat/jboes/src/decaf-espresso/gbrv15pbe/Co.UPF
     MD5 check sum: 5f91765df6ddd3222702df6e7b74a16d
     Pseudo is Ultrasoft + core correction, Zval = 17.0
     Generated by new atomic code, or converted to UPF format
     Using radial grid of  863 points,  6 beta functions with:
                l(1) =   0
                l(2) =   0
                l(3) =   1
                l(4) =   1
                l(5) =   2
                l(6) =   2
     Q(r) pseudized with  8 coefficients,  rinner =    1.200   1.200   1.200
                                                       1.200   1.200

     PseudoPot. # 2 for S  read from file:
     /nfs/slac/staas/fs1/g/suncat/jboes/src/decaf-espresso/gbrv15pbe/S.UPF
     MD5 check sum: 88d86576ff6df21479756cfb9bdac1df
     Pseudo is Ultrasoft + core correction, Zval =  6.0
     Generated by new atomic code, or converted to UPF format
     Using radial grid of  907 points,  6 beta functions with:
                l(1) =   0
                l(2) =   0
                l(3) =   1
                l(4) =   1
                l(5) =   2
                l(6) =   2
     Q(r) pseudized with  8 coefficients,  rinner =    1.300   1.300   1.300
                                                       1.300   1.300

     PseudoPot. # 3 for H  read from file:
     /nfs/slac/staas/fs1/g/suncat/jboes/src/decaf-espresso/gbrv15pbe/H.UPF
     MD5 check sum: 761ae9a214b05c3daf00ab9f6b793d6f
     Pseudo is Ultrasoft, Zval =  1.0
     Generated by new atomic code, or converted to UPF format
     Using radial grid of  615 points,  2 beta functions with:
                l(1) =   0
                l(2) =   0
     Q(r) pseudized with  8 coefficients,  rinner =    0.700

     vdW kernel table read from file vdW_kernel_table
     MD5 check sum: 095c7af220d748ca6e76c0b4c6cfb241

     atomic species   valence    mass     pseudopotential
        Co            17.00    58.93319     Co( 1.00)
        S              6.00    32.06000     S ( 1.00)
        H              1.00     1.00800     H ( 1.00)

     Starting magnetic structure
     atomic species   magnetization
        Co           0.065
        S            0.000
        H            0.000

     No symmetry found

   Cartesian axes

     site n.     atom                  positions (alat units)
         1           Co  tau(   1) = (   0.3260518   0.1883113   2.4226919  )
         2           Co  tau(   2) = (   0.8260518   0.1883113   2.4226919  )
         3           Co  tau(   3) = (   1.0760518   0.6213240   2.4226919  )
         4           Co  tau(   4) = (   0.5760518   0.6213240   2.4226919  )
         5           Co  tau(   5) = (   0.8260518   0.7656616   2.8309402  )
         6           Co  tau(   6) = (   1.3260518   0.7656616   2.8309402  )
         7           Co  tau(   7) = (   0.5760518   0.3326488   2.8309402  )
         8           Co  tau(   8) = (   1.0760518   0.3326488   2.8309402  )
         9           Co  tau(   9) = (   0.3242500   0.4773142   3.2490500  )
        10           Co  tau(  10) = (   0.8480567   0.4896767   3.2219475  )
        11           Co  tau(  11) = (   0.0628462   0.0363466   3.2251831  )
        12           Co  tau(  12) = (   0.5754710   0.0422375   3.2490635  )
        13           S   tau(  13) = (   0.6338114   0.3659881   3.5613354  )
        14           H   tau(  14) = (   0.2880239   0.1663270   3.4111801  )

     number of k points=    40  Fermi-Dirac smearing, width (Ry)=  0.0110
                       cart. coord. in units 2pi/alat
        k(    1) = (   0.0000000   0.0000000   0.0000000), wk =   0.0277778
        k(    2) = (   0.0000000   0.1924501   0.0000000), wk =   0.0555556
        k(    3) = (   0.0000000   0.3849002   0.0000000), wk =   0.0555556
        k(    4) = (   0.0000000  -0.5773503   0.0000000), wk =   0.0277778
        k(    5) = (   0.1666667  -0.0962250   0.0000000), wk =   0.0555556
        k(    6) = (   0.1666667   0.0962250   0.0000000), wk =   0.0555556
        k(    7) = (   0.1666667   0.2886751   0.0000000), wk =   0.0555556
        k(    8) = (   0.1666667  -0.6735753   0.0000000), wk =   0.0555556
        k(    9) = (   0.1666667  -0.4811252   0.0000000), wk =   0.0555556
        k(   10) = (   0.1666667  -0.2886751   0.0000000), wk =   0.0555556
        k(   11) = (   0.3333333  -0.1924501   0.0000000), wk =   0.0555556
        k(   12) = (   0.3333333  -0.0000000   0.0000000), wk =   0.0555556
        k(   13) = (   0.3333333   0.1924501   0.0000000), wk =   0.0555556
        k(   14) = (   0.3333333  -0.7698004   0.0000000), wk =   0.0555556
        k(   15) = (   0.3333333  -0.5773503   0.0000000), wk =   0.0555556
        k(   16) = (   0.3333333  -0.3849002   0.0000000), wk =   0.0555556
        k(   17) = (  -0.5000000   0.2886751   0.0000000), wk =   0.0277778
        k(   18) = (  -0.5000000   0.4811252   0.0000000), wk =   0.0555556
        k(   19) = (  -0.5000000   0.6735753   0.0000000), wk =   0.0555556
        k(   20) = (  -0.5000000  -0.2886751   0.0000000), wk =   0.0277778
        k(   21) = (   0.0000000   0.0000000   0.0000000), wk =   0.0277778
        k(   22) = (   0.0000000   0.1924501   0.0000000), wk =   0.0555556
        k(   23) = (   0.0000000   0.3849002   0.0000000), wk =   0.0555556
        k(   24) = (   0.0000000  -0.5773503   0.0000000), wk =   0.0277778
        k(   25) = (   0.1666667  -0.0962250   0.0000000), wk =   0.0555556
        k(   26) = (   0.1666667   0.0962250   0.0000000), wk =   0.0555556
        k(   27) = (   0.1666667   0.2886751   0.0000000), wk =   0.0555556
        k(   28) = (   0.1666667  -0.6735753   0.0000000), wk =   0.0555556
        k(   29) = (   0.1666667  -0.4811252   0.0000000), wk =   0.0555556
        k(   30) = (   0.1666667  -0.2886751   0.0000000), wk =   0.0555556
        k(   31) = (   0.3333333  -0.1924501   0.0000000), wk =   0.0555556
        k(   32) = (   0.3333333  -0.0000000   0.0000000), wk =   0.0555556
        k(   33) = (   0.3333333   0.1924501   0.0000000), wk =   0.0555556
        k(   34) = (   0.3333333  -0.7698004   0.0000000), wk =   0.0555556
        k(   35) = (   0.3333333  -0.5773503   0.0000000), wk =   0.0555556
        k(   36) = (   0.3333333  -0.3849002   0.0000000), wk =   0.0555556
        k(   37) = (  -0.5000000   0.2886751   0.0000000), wk =   0.0277778
        k(   38) = (  -0.5000000   0.4811252   0.0000000), wk =   0.0555556
        k(   39) = (  -0.5000000   0.6735753   0.0000000), wk =   0.0555556
        k(   40) = (  -0.5000000  -0.2886751   0.0000000), wk =   0.0277778

     Largest allocated arrays     est. size (Mb)     dimensions
     Largest temporary arrays     est. size (Mb)     dimensions

     Check: negative/imaginary core charge=   -0.000007    0.000000

     Initial potential from superposition of free atoms
     Check: negative starting charge=(component1):   -0.000170
     Check: negative starting charge=(component2):   -0.000149

     starting charge  198.99987, renormalised to  211.00000

     negative rho (up, down):  1.804E-04 1.578E-04

     *
     * You are using vdW-DF for exchange-correlation in this calculation.
     * Please cite the following three references that made this development
     * possible:
     *
     *   M. Dion, H. Rydberg, E. Schroder, D. C. Langreth, and
     *   B. I. Lundqvist, Phys. Rev. Lett. 92, 246401 (2004).
     *
     *   T. Thonhauser, V. R. Cooper, S. Li, A. Puzder, P. Hyldgaard, and
     *   D. C. Langreth, Phys. Rev. B 76, 125112 (2007).
     *
     *   G. Roman-Perez and J. M. Soler, Phys. Rev. Lett. 103, 096102 (2009).
     *
     *
     * If you are using vdW-DF2, please also cite:
     *
     *   K. Lee, E. D. Murray, L. Kong, B. I. Lundqvist, and
     *   D. C. Langreth, Phys. Rev. B 82, 081101(R) (2010).
     *
     *
     * If you are calculating the stress with vdW-DF, please also cite:
     *
     *   R. Sabatini, E. Kucukbenli, B. Kolb, T. Thonhauser, and
     *   S. de Gironcoli, J. Phys.: Condens. Matter 24, 424209 (2012).
     *

     Carrying out vdW-DF run using the following parameters:

     Nqs =      20    Nr_points =    1024   r_max =   100.000
     q_mesh =
               0.00001000     0.04494208     0.09755937     0.15916263
               0.23128650     0.31572767     0.41458969     0.53033537
               0.66584808     0.82450364     1.01025438     1.22772762
               1.48234092     1.78043706     2.12944203     2.53805004
               3.01644009     3.57652955     4.23227104     5.00000000

     Gradients computed in reciprocal space

     Adding external electric field

     Computed dipole along edir(3) :
        Dipole               -2.8382 Ry au,         -7.2139 Debye
        Dipole field         -0.0101 Ry au

        Potential amp.        0.8262 Ry
        Total length         40.9758 bohr

[...]

     Starting wfc are  161 randomized atomic wfcs

     Self-consistent Calculation

     iteration #  1     ecut=    36.75 Ry     beta=0.30
[...]
     atom:    9    charge:   12.0563    magn:    0.6614    constr:    0.0000
     atom:   10    charge:   12.1009    magn:    0.6688    constr:    0.0000
     atom:   11    charge:   12.0797    magn:    0.6712    constr:    0.0000
     atom:   12    charge:   12.0562    magn:    0.6613    constr:    0.0000
     atom:   13    charge:    3.3688    magn:    0.0028    constr:    0.0000
     atom:   14    charge:    0.8049    magn:    0.0071    constr:    0.0000

     total energy              =   -3057.69166452 Ry
     Harris-Foulkes estimate   =   -3618.22100775 Ry
     estimated scf accuracy    <    1183.31840469 Ry

     total magnetization       =     5.68 Bohr mag/cell
     absolute magnetization    =     6.21 Bohr mag/cell

[...]

     iteration #  3     ecut=    36.75 Ry     beta=0.30
     Davidson diagonalization with overlap
     c_bands:  2 eigenvalues not converged
     c_bands:  2 eigenvalues not converged
     c_bands:  2 eigenvalues not converged
     c_bands:  3 eigenvalues not converged
     c_bands:  2 eigenvalues not converged
     c_bands:  1 eigenvalues not converged
     c_bands:  1 eigenvalues not converged
     c_bands:  1 eigenvalues not converged
     c_bands:  2 eigenvalues not converged
     c_bands:  1 eigenvalues not converged
     c_bands:  1 eigenvalues not converged
     c_bands:  1 eigenvalues not converged
     c_bands:  4 eigenvalues not converged
     ethr =  1.00E-02,  avg # of iterations = 16.6

[...]

     End of self-consistent calculation

 ------ SPIN UP ------------

          k = 0.0000 0.0000 0.0000 ( 13257 PWs)   bands (ev):

   -95.4319 -95.4022 -95.3436 -95.3302 -95.2083 -95.1810 -95.1696 -95.1656
   -95.1128 -95.0401 -95.0216 -95.0028 -58.7668 -58.7660 -58.7487 -58.7097
   -58.6899 -58.6584 -58.6369 -58.5868 -58.5856 -58.5523 -58.5204 -58.5176
   -58.5102 -58.5099 -58.5074 -58.4908 -58.4896 -58.4848 -58.4819 -58.4775
   -58.4724 -58.3991 -58.3750 -58.3714 -58.3601 -58.3555 -58.3474 -58.3384
   -58.3014 -58.3014 -58.2716 -58.2381 -58.2179 -58.1714 -58.1670 -58.1352
   -12.3471  -7.0327  -5.9430  -4.6883  -4.1661  -3.9361  -3.9356  -3.8052
    -3.7972  -3.7246  -3.5304  -3.4002  -3.3841  -3.2256  -3.2177  -3.1733
    -2.7966  -2.7212  -2.6116  -2.4730  -2.1442  -2.0918  -1.9500  -1.8841
    -1.8319  -1.7144  -1.7022  -1.7008  -1.6175  -1.5250  -1.5084  -1.5082
    -1.4646  -1.4452  -1.3628  -1.3589  -1.2060  -1.0930  -0.9459  -0.9445
    -0.7190  -0.6976  -0.6867  -0.6412  -0.5531  -0.4555  -0.3878  -0.3256
    -0.3240  -0.1517  -0.1199  -0.1050  -0.1009  -0.0519   0.0266   0.1293
     0.1480   0.1909   0.3581   0.3687   0.3822   0.3843   0.4051   0.4145
     0.4646   0.5527   0.7392

[...]

          k =-0.5000 0.2887 0.0000 ( 13378 PWs)   bands (ev):

[...]

 ------ SPIN DOWN ----------

[...]

     the Fermi energy is     1.1271 ev

!    total energy              =   -3620.02046610 Ry
     Harris-Foulkes estimate   =   -3620.02050314 Ry
     estimated scf accuracy    <       0.00009335 Ry

     The total energy is the sum of the following terms:

     one-electron contribution =  -32162.15743563 Ry
     hartree contribution      =   16091.20720167 Ry
     xc contribution           =    -414.92162900 Ry
     ewald contribution        =   12865.92822050 Ry
     electric field correction =       0.00002099 Ry
     smearing contrib. (-TS)   =      -0.07684463 Ry

[...]

     convergence has been achieved in  85 iterations

     Forces acting on atoms (Ry/au):

     negative rho (up, down):  6.039E-04 3.160E-04
     atom    1 type  1   force =     0.00108033   -0.00002284    0.00980838
     atom    2 type  1   force =     0.00034416   -0.00155757    0.01160474
     atom    3 type  1   force =     0.00010671    0.00064177    0.01135313
     atom    4 type  1   force =    -0.00062188    0.00133238    0.01227965
     atom    5 type  1   force =     0.00150406    0.00702892   -0.01673975
     atom    6 type  1   force =    -0.01003609   -0.00549770   -0.00901072
     atom    7 type  1   force =    -0.00267119   -0.00188926   -0.00547712
     atom    8 type  1   force =     0.00658739   -0.00245116   -0.01707516
     atom    9 type  1   force =     0.00235129    0.00069569    0.00119762
     atom   10 type  1   force =     0.00038882    0.00100082   -0.00109084
     atom   11 type  1   force =    -0.00033098   -0.00074431   -0.00186403
     atom   12 type  1   force =     0.00122828    0.00144428    0.00068613
     atom   13 type  2   force =    -0.00053496   -0.00029870    0.00221014
     atom   14 type  3   force =     0.00060407    0.00031768    0.00211783

     Total force =     0.005311     Total SCF correction =     0.016863
     SCF correction compared to forces is large: reduce conv_thr to get better values

     BFGS Geometry Optimization

     number of scf cycles    =   1
     number of bfgs steps    =   0

     energy   new            =   -3620.0204661028 Ry

     new trust radius        =       0.0027288884 bohr
     new conv_thr            =       0.0001000000 Ry

ATOMIC_POSITIONS (angstrom)
Co       1.634350586   0.943919477  12.143860979    0   0   0
Co       4.140624944   0.943919477  12.143860979    0   0   0
Co       5.393762123   3.114416740  12.143860979    0   0   0
Co       2.887487765   3.114416740  12.143860979    0   0   0
Co       4.140624944   3.837915827  14.190225422    0   0   0
Co       6.646899301   3.837915827  14.190225422    0   0   0
Co       2.887487765   1.667418565  14.190225422    0   0   0
Co       5.393762123   1.667418565  14.190225422    0   0   0
Co       1.626562925   2.392928773  16.286654969
Co       4.251131484   2.455057963  16.149591547
Co       0.314844616   0.181795084  16.165400800
Co       2.885226180   0.212481992  16.286452385
S        3.176727503   1.834374868  17.852536804
H        1.444053382   0.833890353  17.099827011

     Writing output data file calc.save
     Check: negative starting charge=(component1):   -0.000319
     NEW-OLD atomic charge density approx. for the potential

     Check: negative/imaginary core charge=   -0.000007    0.000000
     Check: negative starting charge=(component1):   -0.000319

[...]

     number of scf cycles    =   2
     number of bfgs steps    =   1

     energy   old            =   -3620.0204661028 Ry
     energy   new            =   -3620.0205004849 Ry

     CASE: energy  _new < energy  _old

     new trust radius        =       0.0041012727 bohr
     new conv_thr            =       0.0000010000 Ry

ATOMIC_POSITIONS (angstrom)
Co       1.634350586   0.943919477  12.143860979    0   0   0
Co       4.140624944   0.943919477  12.143860979    0   0   0
Co       5.393762123   3.114416740  12.143860979    0   0   0
Co       2.887487765   3.114416740  12.143860979    0   0   0
Co       4.140624944   3.837915827  14.190225423    0   0   0
Co       6.646899301   3.837915827  14.190225423    0   0   0
Co       2.887487765   1.667418565  14.190225423    0   0   0
Co       5.393762123   1.667418565  14.190225423    0   0   0
Co       1.628430544   2.393394007  16.287657844
Co       4.251469894   2.455811711  16.148812172
Co       0.315171286   0.181650383  16.164223591
Co       2.886221168   0.213790006  16.287225622
S        3.176262461   1.834075304  17.851863392
H        1.444529449   0.834133505  17.099095878

     Writing output data file calc.save
     Check: negative starting charge=(component1):   -0.000319
     NEW-OLD atomic charge density approx. for the potential

     Check: negative/imaginary core charge=   -0.000007    0.000000
     Check: negative starting charge=(component1):   -0.000319

[...]

     Self-consistent Calculation

[...]

     total energy              =   -3620.02057210 Ry
     Harris-Foulkes estimate   =   -3620.02057218 Ry
     estimated scf accuracy    <       0.00000142 Ry

[...]

     iteration # 24     ecut=    36.75 Ry     beta=0.30
     Davidson diagonalization with overlap
     ethr =  6.71E-10,  avg # of iterations =  1.3

     negative rho (up, down):  6.041E-04 3.158E-04

[...]

     Adding external electric field

     Computed dipole along edir(3) :
        Dipole               -0.0556 Ry au,         -0.1414 Debye
        Dipole field         -0.0002 Ry au

        Potential amp.        0.0162 Ry
        Total length         40.9758 bohr

     Magnetic moment per site:
     atom:    1    charge:   13.0852    magn:    1.5666    constr:    0.0000
     atom:    2    charge:   13.0854    magn:    1.5733    constr:    0.0000
     atom:    3    charge:   13.0859    magn:    1.5931    constr:    0.0000
     atom:    4    charge:   13.0857    magn:    1.5731    constr:    0.0000
     atom:    5    charge:   13.0789    magn:    1.5329    constr:    0.0000
     atom:    6    charge:   13.0771    magn:    1.5688    constr:    0.0000
     atom:    7    charge:   13.0780    magn:    1.6196    constr:    0.0000
     atom:    8    charge:   13.0790    magn:    1.5331    constr:    0.0000
     atom:    9    charge:   13.0909    magn:    1.2827    constr:    0.0000
     atom:   10    charge:   13.0879    magn:    1.2224    constr:    0.0000
     atom:   11    charge:   13.0964    magn:    1.3848    constr:    0.0000
     atom:   12    charge:   13.0910    magn:    1.2827    constr:    0.0000
     atom:   13    charge:    3.2139    magn:   -0.0141    constr:    0.0000
     atom:   14    charge:    0.8566    magn:   -0.0339    constr:    0.0000

     End of self-consistent calculation

 ------ SPIN UP ------------

[...]

 ------ SPIN DOWN ----------

[...]

          k = 0.3333-0.3849 0.0000 ( 13313 PWs)   bands (ev):

[...]

          k =-0.5000-0.2887 0.0000 ( 13378 PWs)   bands (ev):

   -93.1753 -93.0745 -93.0568 -92.9888 -92.9814 -92.9626 -92.9589 -92.9297
   -92.7700 -92.7659 -92.7489 -92.7474 -56.7463 -56.5986 -56.5228 -56.4920
   -56.4736 -56.4602 -56.4399 -56.4213 -56.4008 -56.3912 -56.3496 -56.3487
   -56.3392 -56.3287 -56.3169 -56.3078 -56.3073 -56.2806 -56.2602 -56.2412
   -56.2275 -56.2220 -56.2068 -56.1978 -56.1931 -56.1879 -56.1271 -56.1256
   -56.1102 -56.1091 -56.0772 -56.0724 -56.0673 -56.0643 -56.0402 -56.0369
   -12.2483  -6.3534  -5.1083  -4.7737  -3.6316  -3.0193  -2.9805  -2.8334
    -2.5538  -2.4663  -2.2399  -1.9599  -1.9232  -1.7907  -1.5496  -1.4463
    -1.4425  -1.2937  -1.0970  -1.0793  -1.0379  -0.8293  -0.8051  -0.7901
    -0.7661  -0.6502  -0.6059  -0.4054  -0.3042  -0.2860  -0.2058  -0.2004
    -0.1666  -0.1113  -0.0533   0.0202   0.2586   0.2803   0.2854   0.3428
     0.3469   0.4746   0.5925   0.8337   0.8690   0.9199   0.9648   0.9904
     1.0245   1.1307   1.1862   1.2888   1.3128   1.3807   1.4418   1.4538
     1.5523   1.6036   1.6681   1.7505   1.8323   2.0552   2.0837   2.1021
     2.1585   2.2254   2.2863

     the Fermi energy is     1.1279 ev

!    total energy              =   -3620.02057169 Ry
     Harris-Foulkes estimate   =   -3620.02057337 Ry
     estimated scf accuracy    <       0.00000074 Ry

     The total energy is the sum of the following terms:

     one-electron contribution =  -32162.51453941 Ry
     hartree contribution      =   16091.39765985 Ry
     xc contribution           =    -414.92096701 Ry
     ewald contribution        =   12866.09401545 Ry
     electric field correction =       0.00001099 Ry
     smearing contrib. (-TS)   =      -0.07675157 Ry

     total magnetization       =    18.74 Bohr mag/cell
     absolute magnetization    =    21.42 Bohr mag/cell

     convergence has been achieved in  24 iterations

     Forces acting on atoms (Ry/au):

     negative rho (up, down):  6.041E-04 3.158E-04
     atom    1 type  1   force =     0.00049996    0.00026451    0.00944945
     atom    2 type  1   force =     0.00090689   -0.00080236    0.01101167
     atom    3 type  1   force =    -0.00030801   -0.00015088    0.01059148
     atom    4 type  1   force =    -0.00021982    0.00119328    0.01103422
     atom    5 type  1   force =    -0.00017483    0.00652349   -0.01469511
     atom    6 type  1   force =    -0.00828049   -0.00471782   -0.00811143
     atom    7 type  1   force =    -0.00154487   -0.00094231   -0.00504591
     atom    8 type  1   force =     0.00546294   -0.00340986   -0.01455092
     atom    9 type  1   force =     0.00075719    0.00010205    0.00083121
     atom   10 type  1   force =     0.00069679   -0.00002459   -0.00022405
     atom   11 type  1   force =     0.00127742    0.00106735   -0.00060076
     atom   12 type  1   force =     0.00078054    0.00083291    0.00091110
     atom   13 type  2   force =    -0.00009869   -0.00011017    0.00010605
     atom   14 type  3   force =     0.00024497    0.00017440   -0.00070699

     Total force =     0.002775     Total SCF correction =     0.002904
     SCF correction compared to forces is large: reduce conv_thr to get better values

     bfgs converged in   3 scf cycles and   2 bfgs steps
     (criteria: energy <  1.0E+12, force <  1.9E-03)

     End of BFGS Geometry Optimization

     Final energy   =   -3620.0205716892 Ry
Begin final coordinates

ATOMIC_POSITIONS (angstrom)
Co       1.634350586   0.943919477  12.143860979    0   0   0
Co       4.140624944   0.943919477  12.143860979    0   0   0
Co       5.393762123   3.114416740  12.143860979    0   0   0
Co       2.887487765   3.114416740  12.143860979    0   0   0
Co       4.140624944   3.837915827  14.190225423    0   0   0
Co       6.646899301   3.837915827  14.190225423    0   0   0
Co       2.887487765   1.667418565  14.190225423    0   0   0
Co       5.393762123   1.667418565  14.190225423    0   0   0
Co       1.628430544   2.393394007  16.287657844
Co       4.251469894   2.455811711  16.148812172
Co       0.315171286   0.181650383  16.164223591
Co       2.886221168   0.213790006  16.287225622
S        3.176262461   1.834075304  17.851863392
H        1.444529449   0.834133505  17.099095878
End final coordinates

     Writing output data file calc.save

     General routines

     Parallel routines

   This run was terminated on:   2:15:50  28Jan2019

   JOB DONE.
Job  /afs/slac/g/suncat/bin/suncat-tsmpirun -x LD_LIBRARY_PATH -wdir /tmp/qe_2278412lghxsj2_scratch pw.x -npool 2 -in pw.pwi

TID   HOST_NAME   COMMAND_LINE            STATUS            TERMINATION_TIME
00000 suncat2068 pw.x -npool 2 -i  Done                     01/28/2019 02:15:50
00001 suncat2068 pw.x -npool 2 -i  Done                     01/28/2019 02:15:50
00002 suncat2068 pw.x -npool 2 -i  Done                     01/28/2019 02:15:50
00003 suncat2068 pw.x -npool 2 -i  Done                     01/28/2019 02:15:50
00004 suncat2068 pw.x -npool 2 -i  Done                     01/28/2019 02:15:50
00005 suncat2068 pw.x -npool 2 -i  Done                     01/28/2019 02:15:50
00006 suncat2068 pw.x -npool 2 -i  Done                     01/28/2019 02:15:50
00007 suncat2068 pw.x -npool 2 -i  Done                     01/28/2019 02:15:50
00008 suncat2068 pw.x -npool 2 -i  Done                     01/28/2019 02:15:50
00009 suncat2068 pw.x -npool 2 -i  Done                     01/28/2019 02:15:50
00010 suncat2068 pw.x -npool 2 -i  Done                     01/28/2019 02:15:50
00011 suncat2068 pw.x -npool 2 -i  Done                     01/28/2019 02:15:50
00012 suncat2068 pw.x -npool 2 -i  Done                     01/28/2019 02:15:50
00013 suncat2068 pw.x -npool 2 -i  Done                     01/28/2019 02:15:50
00014 suncat2068 pw.x -npool 2 -i  Done                     01/28/2019 02:15:50
00015 suncat2068 pw.x -npool 2 -i  Done                     01/28/2019 02:15:50
00016 suncat2058 pw.x -npool 2 -i  Done                     01/28/2019 02:15:50
00017 suncat2058 pw.x -npool 2 -i  Done                     01/28/2019 02:15:50
00018 suncat2058 pw.x -npool 2 -i  Done                     01/28/2019 02:15:50
00019 suncat2058 pw.x -npool 2 -i  Done                     01/28/2019 02:15:50
00020 suncat2058 pw.x -npool 2 -i  Done                     01/28/2019 02:15:50
00021 suncat2058 pw.x -npool 2 -i  Done                     01/28/2019 02:15:50
00022 suncat2058 pw.x -npool 2 -i  Done                     01/28/2019 02:15:50
00023 suncat2058 pw.x -npool 2 -i  Done                     01/28/2019 02:15:50
00024 suncat2058 pw.x -npool 2 -i  Done                     01/28/2019 02:15:50
00025 suncat2058 pw.x -npool 2 -i  Done                     01/28/2019 02:15:50
00026 suncat2058 pw.x -npool 2 -i  Done                     01/28/2019 02:15:50
00027 suncat2058 pw.x -npool 2 -i  Done                     01/28/2019 02:15:50
00028 suncat2058 pw.x -npool 2 -i  Done                     01/28/2019 02:15:50
00029 suncat2058 pw.x -npool 2 -i  Done                     01/28/2019 02:15:50
00030 suncat2058 pw.x -npool 2 -i  Done                     01/28/2019 02:15:50
00031 suncat2058 pw.x -npool 2 -i  Done                     01/28/2019 02:15:50