     Program PWSCF v.5.1rc2 (svn rev. 11289) starts on 16Jan2019 at 18:19:49

     Current dimensions of program PWSCF are:
     Max number of different atomic species (ntypx) = 10
     Max number of k-points (npk) =  40000
     Max angular momentum in pseudopotentials (lmaxx) =  3

     IMPORTANT: XC functional enforced from input :
     Exchange-correlation      = BEEF-VDW ( 1  4 27 13 2)
     Any further DFT definition will be discarded
     Please, verify this is what you really want

     Subspace diagonalization in iterative solution of the eigenvalue problem:
     a serial algorithm will be used

     bravais-lattice index     =            0
     lattice parameter (alat)  =      12.6383  a.u.
     unit-cell volume          =    6655.4372 (a.u.)^3
     number of atoms/cell      =           13
     number of atomic types    =            2
     number of electrons       =       162.00
     number of Kohn-Sham states=           91
     kinetic-energy cutoff     =      36.7493  Ry
     charge density cutoff     =     367.4933  Ry
     convergence threshold     =      1.0E-04
     mixing beta               =       0.2000
     number of iterations used =            8  plain     mixing
     Exchange-correlation      = BEEF-VDW ( 1  4 27 13 2)
     nstep                     =           50

     celldm(1)=  12.638304  celldm(2)=   0.000000  celldm(3)=   0.000000
     celldm(4)=   0.000000  celldm(5)=   0.000000  celldm(6)=   0.000000

     crystal axes: (cart. coord. in units of alat)
               a(1) = (   1.000000   0.000000   0.000000 )
               a(2) = (   0.500000   0.866025   0.000000 )
               a(3) = (   0.000000   0.000000   3.806971 )

     reciprocal axes: (cart. coord. in units 2 pi/alat)
               b(1) = (  1.000000 -0.577350  0.000000 )
               b(2) = (  0.000000  1.154701  0.000000 )
               b(3) = (  0.000000  0.000000  0.262676 )

     PseudoPot. # 1 for Tl read from file:
     /nfs/slac/g/suncatfs/mamunm/src/decaf-espresso/gbrv15pbe/Tl.UPF
     MD5 check sum: b76cf1f7e72655a2b2c53cf6385d7059
     Pseudo is Ultrasoft + core correction, Zval = 13.0
     Generated by new atomic code, or converted to UPF format
     Using radial grid of  899 points,  6 beta functions with:
                l(1) =   0
                l(2) =   0
                l(3) =   1
                l(4) =   1
                l(5) =   2
                l(6) =   2
     Q(r) pseudized with  6 coefficients,  rinner =    1.100   1.100   1.100
                                                       1.100   1.100

     PseudoPot. # 2 for O  read from file:
     /nfs/slac/g/suncatfs/mamunm/src/decaf-espresso/gbrv15pbe/O.UPF
     MD5 check sum: 734c27235a0248c51dbae37a1fbe46ec
     Pseudo is Ultrasoft + core correction, Zval =  6.0
     Generated by new atomic code, or converted to UPF format
     Using radial grid of  737 points,  5 beta functions with:
                l(1) =   0
                l(2) =   0
                l(3) =   1
                l(4) =   1
                l(5) =   2
     Q(r) pseudized with  8 coefficients,  rinner =    0.900   0.900   0.900
                                                       0.900   0.900

     vdW kernel table read from file vdW_kernel_table
     MD5 check sum: 095c7af220d748ca6e76c0b4c6cfb241

     atomic species   valence    mass     pseudopotential
        Tl            13.00   204.38000     Tl( 1.00)
        O              6.00    15.99900     O ( 1.00)

     No symmetry found

   Cartesian axes

     site n.     atom                  positions (alat units)
         1           Tl  tau(   1) = (   0.2500000   0.1443376   1.4952371  )
         2           Tl  tau(   2) = (   0.7500000   0.1443376   1.4952371  )
         3           Tl  tau(   3) = (   0.5000000   0.5773503   1.4952371  )
         4           Tl  tau(   4) = (   1.0000000   0.5773503   1.4952371  )
         5           Tl  tau(   5) = (   1.0000000   0.2886751   1.9034854  )
         6           Tl  tau(   6) = (   0.5000000   0.2886751   1.9034854  )
         7           Tl  tau(   7) = (   1.2500000   0.7216878   1.9034854  )
         8           Tl  tau(   8) = (   0.7500000   0.7216878   1.9034854  )
         9           Tl  tau(   9) = (  -0.0047044  -0.0027081   2.4155993  )
        10           Tl  tau(  10) = (   0.5046940  -0.0027108   2.4155523  )
        11           Tl  tau(  11) = (   0.2499819   0.4384414   2.4155903  )
        12           Tl  tau(  12) = (   0.7500057   0.4330168   2.3272561  )
        13           O   tau(  13) = (   0.2500249   0.1443298   2.5911569  )

     number of k points=    20  Fermi-Dirac smearing, width (Ry)=  0.0110
                       cart. coord. in units 2pi/alat
        k(    1) = (   0.0000000   0.0000000   0.0000000), wk =   0.0555556
        k(    2) = (   0.0000000   0.1924501   0.0000000), wk =   0.1111111
        k(    3) = (   0.0000000   0.3849002   0.0000000), wk =   0.1111111
        k(    4) = (   0.0000000  -0.5773503   0.0000000), wk =   0.0555556
        k(    5) = (   0.1666667  -0.0962250   0.0000000), wk =   0.1111111
        k(    6) = (   0.1666667   0.0962250   0.0000000), wk =   0.1111111
        k(    7) = (   0.1666667   0.2886751   0.0000000), wk =   0.1111111
        k(    8) = (   0.1666667  -0.6735753   0.0000000), wk =   0.1111111
        k(    9) = (   0.1666667  -0.4811252   0.0000000), wk =   0.1111111
        k(   10) = (   0.1666667  -0.2886751   0.0000000), wk =   0.1111111
        k(   11) = (   0.3333333  -0.1924501   0.0000000), wk =   0.1111111
        k(   12) = (   0.3333333  -0.0000000   0.0000000), wk =   0.1111111
        k(   13) = (   0.3333333   0.1924501   0.0000000), wk =   0.1111111
        k(   14) = (   0.3333333  -0.7698004   0.0000000), wk =   0.1111111
        k(   15) = (   0.3333333  -0.5773503   0.0000000), wk =   0.1111111
        k(   16) = (   0.3333333  -0.3849002   0.0000000), wk =   0.1111111
        k(   17) = (  -0.5000000   0.2886751   0.0000000), wk =   0.0555556
        k(   18) = (  -0.5000000   0.4811252   0.0000000), wk =   0.1111111
        k(   19) = (  -0.5000000   0.6735753   0.0000000), wk =   0.1111111
        k(   20) = (  -0.5000000  -0.2886751   0.0000000), wk =   0.0555556

     Largest allocated arrays     est. size (Mb)     dimensions
     Largest temporary arrays     est. size (Mb)     dimensions

     Check: negative/imaginary core charge=   -0.000001    0.000000

     Initial potential from superposition of free atoms
     Check: negative starting charge=   -0.602924

     starting charge  161.94161, renormalised to  162.00000

     negative rho (up, down):  6.031E-01 0.000E+00

     *
     * You are using vdW-DF for exchange-correlation in this calculation.
     * Please cite the following three references that made this development
     * possible:
     *
     *   M. Dion, H. Rydberg, E. Schroder, D. C. Langreth, and
     *   B. I. Lundqvist, Phys. Rev. Lett. 92, 246401 (2004).
     *
     *   T. Thonhauser, V. R. Cooper, S. Li, A. Puzder, P. Hyldgaard, and
     *   D. C. Langreth, Phys. Rev. B 76, 125112 (2007).
     *
     *   G. Roman-Perez and J. M. Soler, Phys. Rev. Lett. 103, 096102 (2009).
     *
     *
     * If you are using vdW-DF2, please also cite:
     *
     *   K. Lee, E. D. Murray, L. Kong, B. I. Lundqvist, and
     *   D. C. Langreth, Phys. Rev. B 82, 081101(R) (2010).
     *
     *
     * If you are calculating the stress with vdW-DF, please also cite:
     *
     *   R. Sabatini, E. Kucukbenli, B. Kolb, T. Thonhauser, and
     *   S. de Gironcoli, J. Phys.: Condens. Matter 24, 424209 (2012).
     *

     Carrying out vdW-DF run using the following parameters:

     Nqs =      20    Nr_points =    1024   r_max =   100.000
     q_mesh =
               0.00001000     0.04494208     0.09755937     0.15916263
               0.23128650     0.31572767     0.41458969     0.53033537
               0.66584808     0.82450364     1.01025438     1.22772762
               1.48234092     1.78043706     2.12944203     2.53805004
               3.01644009     3.57652955     4.23227104     5.00000000

     Gradients computed in reciprocal space

     Adding external electric field

     Computed dipole along edir(3) :
        Dipole               -0.0180 Ry au,         -0.0459 Debye
        Dipole field         -0.0000 Ry au

        Potential amp.        0.0030 Ry
        Total length         43.3023 bohr

     Starting wfc are  112 randomized atomic wfcs

     Self-consistent Calculation

     iteration #  1     ecut=    36.75 Ry     beta=0.20
     Davidson diagonalization with overlap
     ethr =  1.00E-02,  avg # of iterations =  2.0

     Threshold (ethr) on eigenvalues was too large:
     Diagonalizing with lowered threshold

     Davidson diagonalization with overlap
     ethr =  9.36E-04,  avg # of iterations =  3.0

[...]

     total energy              =   -1793.86702367 Ry
     Harris-Foulkes estimate   =   -1794.35233575 Ry
     estimated scf accuracy    <       1.49098125 Ry

[...]

     End of self-consistent calculation

          k = 0.0000 0.0000 0.0000 ( 24957 PWs)   bands (ev):

   -16.3550 -11.4468 -11.4425 -11.4425 -11.3229 -11.3197 -11.3013 -11.3013
   -11.2890 -11.2890 -11.2768 -11.1987 -11.1987 -11.1805 -11.1410 -11.1056
   -11.1056 -11.0981 -11.0981 -11.0866 -11.0778 -11.0778 -11.0300 -11.0300
   -10.9765 -10.9603 -10.9603 -10.9375 -10.8841 -10.8841 -10.8130 -10.8130
   -10.7570 -10.7183 -10.7183 -10.6918 -10.6918 -10.6875 -10.6709 -10.6581
   -10.6581 -10.6342 -10.6342 -10.6236 -10.6011 -10.6011 -10.5637 -10.5373
   -10.5373 -10.5319 -10.5255 -10.5254 -10.4914 -10.4914 -10.4835 -10.4499
   -10.4499 -10.3691 -10.3096 -10.3096 -10.2118  -8.8904  -7.2388  -5.9333
    -4.2887  -4.2830  -4.2830  -4.0715  -4.0713  -3.9271  -3.3607  -3.3607
    -3.0896  -1.8052  -1.4960  -1.4957  -1.0241  -0.9467  -0.7615  -0.7614
    -0.2565  -0.2564  -0.1792   0.5762   0.5765   1.4645   2.2517   3.4322
     3.6792   3.6793   3.6997

[...]

          k =-0.5000 0.2887 0.0000 ( 25090 PWs)   bands (ev):

[...]

     the Fermi energy is     0.9399 ev

!    total energy              =   -1794.06508562 Ry
     Harris-Foulkes estimate   =   -1794.06518005 Ry
     estimated scf accuracy    <       0.00003423 Ry

     The total energy is the sum of the following terms:

     one-electron contribution =   -8305.43423140 Ry
     hartree contribution      =    4238.12368333 Ry
     xc contribution           =    -775.92578173 Ry
     ewald contribution        =    3049.21106079 Ry
     electric field correction =       0.00018128 Ry
     smearing contrib. (-TS)   =      -0.03999789 Ry

     convergence has been achieved in  11 iterations

     Forces acting on atoms (Ry/au):

     negative rho (up, down):  6.299E-01 0.000E+00
     atom    1 type  1   force =     0.00000022    0.00000380   -0.02425112
     atom    2 type  1   force =    -0.00000511    0.00107401   -0.02611970
     atom    3 type  1   force =     0.00092292   -0.00055381   -0.02610879
     atom    4 type  1   force =    -0.00091351   -0.00054406   -0.02610254
     atom    5 type  1   force =     0.00401783   -0.00231639    0.02641255
     atom    6 type  1   force =    -0.00401787   -0.00230779    0.02641619
     atom    7 type  1   force =     0.00001093   -0.00000753    0.02536036
     atom    8 type  1   force =    -0.00001171    0.00464290    0.02641884
     atom    9 type  1   force =    -0.00099081   -0.00059070   -0.00029665
     atom   10 type  1   force =     0.00096778   -0.00055142   -0.00034398
     atom   11 type  1   force =     0.00004399    0.00115310   -0.00030295
     atom   12 type  1   force =    -0.00000661   -0.00000825    0.00252823
     atom   13 type  2   force =    -0.00001806    0.00000614   -0.00361045

     Total force =     0.004861     Total SCF correction =     0.014274
     SCF correction compared to forces is large: reduce conv_thr to get better values

     BFGS Geometry Optimization

     number of scf cycles    =   1
     number of bfgs steps    =   0

     energy   new            =   -1794.0650856201 Ry

     new trust radius        =       0.0036104961 bohr
     new conv_thr            =       0.0001000000 Ry

ATOMIC_POSITIONS (angstrom)
Tl       1.671975640   0.965315586  10.000000000    0   0   0
Tl       5.015926920   0.965315586  10.000000000    0   0   0
Tl       3.343951280   3.861262344  10.000000000    0   0   0
Tl       6.687902560   3.861262344  10.000000000    0   0   0
Tl       6.687902560   1.930631172  12.730324787    0   0   0
Tl       3.343951280   1.930631172  12.730324787    0   0   0
Tl       8.359878201   4.826577929  12.730324787    0   0   0
Tl       5.015926920   4.826577929  12.730324787    0   0   0
Tl      -0.031986583  -0.018423920  16.155135736
Tl       3.375856260  -0.018421277  16.154796583
Tl       1.671877606   2.932863855  16.155072547
Tl       5.015961605   2.895969964  15.565799980
O        1.672132741   0.965267039  17.327494507

     Writing output data file calc.save
     Check: negative starting charge=   -0.602924
     NEW-OLD atomic charge density approx. for the potential

     Check: negative/imaginary core charge=   -0.000001    0.000000
     Check: negative starting charge=   -0.602910

[...]

     energy   old            =   -1794.0650856201 Ry
     energy   new            =   -1794.0650402670 Ry

     CASE: energy  _new > energy  _old

[...]

     new trust radius        =       0.0000185076 bohr

     trust_radius < trust_radius_min

     resetting bfgs history

     new conv_thr            =       0.0001000000 Ry

[...]

     CASE: energy  _new > energy  _old

[...]

     number of scf cycles    =   6
     number of bfgs steps    =   1

     energy   old            =   -1794.0650856201 Ry
     energy   new            =   -1794.0651075665 Ry

     CASE: energy  _new < energy  _old

     new trust radius        =       0.0004156993 bohr
     new conv_thr            =       0.0000010000 Ry

ATOMIC_POSITIONS (angstrom)
Tl       1.671975640   0.965315586  10.000000000    0   0   0
Tl       5.015926920   0.965315586  10.000000000    0   0   0
Tl       3.343951280   3.861262344  10.000000000    0   0   0
Tl       6.687902560   3.861262344  10.000000000    0   0   0
Tl       6.687902560   1.930631172  12.730324787    0   0   0
Tl       3.343951280   1.930631172  12.730324787    0   0   0
Tl       8.359878201   4.826577929  12.730324787    0   0   0
Tl       5.015926920   4.826577929  12.730324787    0   0   0
Tl      -0.031586403  -0.018184693  16.155144365
Tl       3.375466873  -0.018199557  16.154827708
Tl       1.671858303   2.932397748  16.155084797
Tl       5.015964338   2.895973110  15.564533712
O        1.672140283   0.965264420  17.329111776

     Writing output data file calc.save
     Check: negative starting charge=   -0.602924
     NEW-OLD atomic charge density approx. for the potential

     Check: negative/imaginary core charge=   -0.000001    0.000000
     Check: negative starting charge=   -0.602905

[...]

     Self-consistent Calculation

[...]

     total energy              =   -1794.06511996 Ry
     Harris-Foulkes estimate   =   -1794.06512029 Ry
     estimated scf accuracy    <       0.00000173 Ry

     iteration #  6     ecut=    36.75 Ry     beta=0.20
     Davidson diagonalization with overlap
     ethr =  8.02E-10,  avg # of iterations =  2.0

     negative rho (up, down):  6.299E-01 0.000E+00

     Adding external electric field

     Computed dipole along edir(3) :
        Dipole               -0.3654 Ry au,         -0.9287 Debye
        Dipole field         -0.0007 Ry au

        Potential amp.        0.0597 Ry
        Total length         43.3023 bohr

     End of self-consistent calculation

[...]

          k = 0.3333-0.3849 0.0000 ( 25036 PWs)   bands (ev):

[...]

          k =-0.5000-0.2887 0.0000 ( 25090 PWs)   bands (ev):

   -16.3470 -11.3151 -11.3102 -11.2278 -11.2167 -11.2018 -11.1974 -11.1929
   -11.1866 -11.1536 -11.1429 -11.1242 -11.1028 -11.0815 -11.0741 -11.0636
   -11.0588 -11.0578 -11.0319 -11.0114 -11.0071 -11.0061 -10.9637 -10.9576
   -10.9382 -10.9291 -10.9242 -10.8894 -10.8813 -10.8709 -10.8556 -10.8317
   -10.8255 -10.7993 -10.7862 -10.7815 -10.7657 -10.7559 -10.7543 -10.7475
   -10.7474 -10.7417 -10.7132 -10.7131 -10.6617 -10.6602 -10.6423 -10.6399
   -10.6349 -10.6299 -10.6095 -10.6008 -10.5953 -10.5692 -10.5509 -10.5370
   -10.5261 -10.5207 -10.4645 -10.3162 -10.1956  -7.6423  -7.5500  -6.4455
    -5.9370  -5.1247  -5.0685  -5.0378  -4.8128  -4.4174  -3.9604  -3.2323
    -3.0935  -1.6615  -0.6233  -0.5404   0.2578   0.4041   0.7081   0.7856
     1.1178   1.2702   1.7945   2.1775   2.2399   2.4351   2.5434   3.1738
     3.5399   3.5698   3.7913

     the Fermi energy is     0.9413 ev

!    total energy              =   -1794.06511979 Ry
     Harris-Foulkes estimate   =   -1794.06512287 Ry
     estimated scf accuracy    <       0.00000025 Ry

     The total energy is the sum of the following terms:

     one-electron contribution =   -8305.59404117 Ry
     hartree contribution      =    4238.20783840 Ry
     xc contribution           =    -775.92909432 Ry
     ewald contribution        =    3049.28990382 Ry
     electric field correction =       0.00025209 Ry
     smearing contrib. (-TS)   =      -0.03997862 Ry

     convergence has been achieved in   6 iterations

     Forces acting on atoms (Ry/au):

     negative rho (up, down):  6.299E-01 0.000E+00
     atom    1 type  1   force =    -0.00000117    0.00000021   -0.02089263
     atom    2 type  1   force =     0.00000096    0.00091214   -0.02313462
     atom    3 type  1   force =     0.00079036   -0.00045642   -0.02313703
     atom    4 type  1   force =    -0.00079012   -0.00045739   -0.02313656
     atom    5 type  1   force =     0.00421093   -0.00242916    0.02205599
     atom    6 type  1   force =    -0.00420813   -0.00242617    0.02205430
     atom    7 type  1   force =     0.00000261   -0.00000277    0.02226898
     atom    8 type  1   force =    -0.00000289    0.00485875    0.02205090
     atom    9 type  1   force =     0.00032680    0.00018290    0.00056391
     atom   10 type  1   force =    -0.00031657    0.00019004    0.00054228
     atom   11 type  1   force =     0.00001233   -0.00037680    0.00055911
     atom   12 type  1   force =    -0.00000986   -0.00000092    0.00046147
     atom   13 type  2   force =    -0.00001526    0.00000559   -0.00025611

     Total force =     0.001274     Total SCF correction =     0.002636
     SCF correction compared to forces is large: reduce conv_thr to get better values

     bfgs converged in   7 scf cycles and   2 bfgs steps
     (criteria: energy <  1.0E+12, force <  1.9E-03)

     End of BFGS Geometry Optimization

     Final energy   =   -1794.0651197928 Ry
Begin final coordinates

ATOMIC_POSITIONS (angstrom)
Tl       1.671975640   0.965315586  10.000000000    0   0   0
Tl       5.015926920   0.965315586  10.000000000    0   0   0
Tl       3.343951280   3.861262344  10.000000000    0   0   0
Tl       6.687902560   3.861262344  10.000000000    0   0   0
Tl       6.687902560   1.930631172  12.730324787    0   0   0
Tl       3.343951280   1.930631172  12.730324787    0   0   0
Tl       8.359878201   4.826577929  12.730324787    0   0   0
Tl       5.015926920   4.826577929  12.730324787    0   0   0
Tl      -0.031586403  -0.018184693  16.155144365
Tl       3.375466873  -0.018199557  16.154827708
Tl       1.671858303   2.932397748  16.155084797
Tl       5.015964338   2.895973110  15.564533712
O        1.672140283   0.965264420  17.329111776
End final coordinates

     Writing output data file calc.save

     General routines

     Parallel routines

   This run was terminated on:  18:41:19  16Jan2019

   JOB DONE.
Job  /afs/slac/g/suncat/bin/suncat-tsmpirun -x LD_LIBRARY_PATH -wdir /tmp/qe_379176rlxisvhd_scratch pw.x -npool 4 -in pw.pwi

TID   HOST_NAME   COMMAND_LINE            STATUS            TERMINATION_TIME
00000 suncat0209 pw.x -npool 4 -i  Done                     01/16/2019 18:41:19
00001 suncat0209 pw.x -npool 4 -i  Done                     01/16/2019 18:41:19
00002 suncat0209 pw.x -npool 4 -i  Done                     01/16/2019 18:41:19
00003 suncat0209 pw.x -npool 4 -i  Done                     01/16/2019 18:41:19
00004 suncat0209 pw.x -npool 4 -i  Done                     01/16/2019 18:41:19
00005 suncat0209 pw.x -npool 4 -i  Done                     01/16/2019 18:41:19
00006 suncat0209 pw.x -npool 4 -i  Done                     01/16/2019 18:41:19
00007 suncat0209 pw.x -npool 4 -i  Done                     01/16/2019 18:41:19
00008 suncat0207 pw.x -npool 4 -i  Done                     01/16/2019 18:41:19
00009 suncat0207 pw.x -npool 4 -i  Done                     01/16/2019 18:41:19
00010 suncat0207 pw.x -npool 4 -i  Done                     01/16/2019 18:41:19
00011 suncat0207 pw.x -npool 4 -i  Done                     01/16/2019 18:41:19
00012 suncat0207 pw.x -npool 4 -i  Done                     01/16/2019 18:41:19
00013 suncat0207 pw.x -npool 4 -i  Done                     01/16/2019 18:41:19
00014 suncat0207 pw.x -npool 4 -i  Done                     01/16/2019 18:41:19
00015 suncat0207 pw.x -npool 4 -i  Done                     01/16/2019 18:41:19
00016 suncat0201 pw.x -npool 4 -i  Done                     01/16/2019 18:41:19
00017 suncat0201 pw.x -npool 4 -i  Done                     01/16/2019 18:41:19
00018 suncat0201 pw.x -npool 4 -i  Done                     01/16/2019 18:41:19
00019 suncat0201 pw.x -npool 4 -i  Done                     01/16/2019 18:41:19
00020 suncat0201 pw.x -npool 4 -i  Done                     01/16/2019 18:41:19
00021 suncat0201 pw.x -npool 4 -i  Done                     01/16/2019 18:41:19
00022 suncat0201 pw.x -npool 4 -i  Done                     01/16/2019 18:41:19
00023 suncat0201 pw.x -npool 4 -i  Done                     01/16/2019 18:41:19
00024 suncat0200 pw.x -npool 4 -i  Done                     01/16/2019 18:41:19
00025 suncat0200 pw.x -npool 4 -i  Done                     01/16/2019 18:41:19
00026 suncat0200 pw.x -npool 4 -i  Done                     01/16/2019 18:41:19
00027 suncat0200 pw.x -npool 4 -i  Done                     01/16/2019 18:41:19
00028 suncat0200 pw.x -npool 4 -i  Done                     01/16/2019 18:41:19
00029 suncat0200 pw.x -npool 4 -i  Done                     01/16/2019 18:41:19
00030 suncat0200 pw.x -npool 4 -i  Done                     01/16/2019 18:41:19
00031 suncat0200 pw.x -npool 4 -i  Done                     01/16/2019 18:41:19