     Program PWSCF v.5.1rc2 (svn rev. 11289) starts on 13Jan2018 at 19:49:37

     Current dimensions of program PWSCF are:
     Max number of different atomic species (ntypx) = 10
     Max number of k-points (npk) =  40000
     Max angular momentum in pseudopotentials (lmaxx) =  3
     Presently stress not available with electric field

     IMPORTANT: XC functional enforced from input :
     Exchange-correlation      = BEEF-VDW ( 1  4 27 13 2)
     Any further DFT definition will be discarded
     Please, verify this is what you really want

     Subspace diagonalization in iterative solution of the eigenvalue problem:
     a serial algorithm will be used

     bravais-lattice index     =            0
     lattice parameter (alat)  =       1.8897  a.u.
     unit-cell volume          =    4552.2840 (a.u.)^3
     number of atoms/cell      =           13
     number of atomic types    =            2
     number of electrons       =       169.00
     number of Kohn-Sham states=           94
     kinetic-energy cutoff     =      36.7493  Ry
     charge density cutoff     =     367.4932  Ry
     convergence threshold     =      1.0E-05
     mixing beta               =       0.3000
     number of iterations used =           10  plain     mixing
     Exchange-correlation      = BEEF-VDW ( 1  4 27 13 2)
     nstep                     =           50

     celldm(1)=   1.889726  celldm(2)=   0.000000  celldm(3)=   0.000000
     celldm(4)=   0.000000  celldm(5)=   0.000000  celldm(6)=   0.000000

     crystal axes: (cart. coord. in units of alat)
               a(1) = (   5.627661   0.000000   0.000000 )
               a(2) = (   2.813831   4.873698   0.000000 )
               a(3) = (   0.000000   0.000000  24.594966 )

     reciprocal axes: (cart. coord. in units 2 pi/alat)
               b(1) = (  0.177694 -0.102592  0.000000 )
               b(2) = (  0.000000  0.205183  0.000000 )
               b(3) = (  0.000000  0.000000  0.040659 )

     PseudoPot. # 1 for Mo read from file:
     /afs/slac.stanford.edu/u/if/mamunm/psp/gbrv1.5pbe/Mo.UPF
     MD5 check sum: 30c4dcd161f5d35cd49bb5239c51a633
     Pseudo is Ultrasoft + core correction, Zval = 14.0
     Generated by new atomic code, or converted to UPF format
     Using radial grid of  889 points,  6 beta functions with:
                l(1) =   0
                l(2) =   0
                l(3) =   1
                l(4) =   1
                l(5) =   2
                l(6) =   2
     Q(r) pseudized with  6 coefficients,  rinner =    1.000   1.000   1.000
                                                       1.000   1.000

     PseudoPot. # 2 for H  read from file:
     /afs/slac.stanford.edu/u/if/mamunm/psp/gbrv1.5pbe/H.UPF
     MD5 check sum: 761ae9a214b05c3daf00ab9f6b793d6f
     Pseudo is Ultrasoft, Zval =  1.0
     Generated by new atomic code, or converted to UPF format
     Using radial grid of  615 points,  2 beta functions with:
                l(1) =   0
                l(2) =   0
     Q(r) pseudized with  8 coefficients,  rinner =    0.700

     vdW kernel table read from file vdW_kernel_table
     MD5 check sum: 095c7af220d748ca6e76c0b4c6cfb241

     atomic species   valence    mass     pseudopotential
        Mo1           14.00    95.95000     Mo( 1.00)
        H1             1.00     1.00800     H ( 1.00)

     No symmetry found

   Cartesian axes

     site n.     atom                  positions (alat units)
         1           Mo1 tau(   1) = (   1.4069153   0.8122829  10.0000000  )
         2           Mo1 tau(   2) = (   4.2207459   0.8122829  10.0000000  )
         3           Mo1 tau(   3) = (   2.8138306   3.2491317  10.0000000  )
         4           Mo1 tau(   4) = (   5.6276612   3.2491317  10.0000000  )
         5           Mo1 tau(   5) = (   5.6276612   1.6245658  12.2974831  )
         6           Mo1 tau(   6) = (   2.8138306   1.6245658  12.2974831  )
         7           Mo1 tau(   7) = (   7.0345765   4.0614146  12.2974831  )
         8           Mo1 tau(   8) = (   4.2207459   4.0614146  12.2974831  )
         9           Mo1 tau(   9) = (   0.0000000   0.0000000  14.5949661  )
        10           Mo1 tau(  10) = (   2.8138306   0.0000000  14.5949661  )
        11           Mo1 tau(  11) = (   1.4069153   2.4368488  14.5949661  )
        12           Mo1 tau(  12) = (   4.2207459   2.4368488  14.5949661  )
        13           H1  tau(  13) = (   1.4069153   0.0000000  16.4449661  )

     number of k points=    20  Fermi-Dirac smearing, width (Ry)=  0.0110
                       cart. coord. in units 2pi/alat
        k(    1) = (   0.0000000   0.0000000   0.0000000), wk =   0.0555556
        k(    2) = (   0.0000000   0.0341972   0.0000000), wk =   0.1111111
        k(    3) = (   0.0000000   0.0683943   0.0000000), wk =   0.1111111
        k(    4) = (   0.0000000  -0.1025915   0.0000000), wk =   0.0555556
        k(    5) = (   0.0296156  -0.0170986   0.0000000), wk =   0.1111111
        k(    6) = (   0.0296156   0.0170986   0.0000000), wk =   0.1111111
        k(    7) = (   0.0296156   0.0512958   0.0000000), wk =   0.1111111
        k(    8) = (   0.0296156  -0.1196901   0.0000000), wk =   0.1111111
        k(    9) = (   0.0296156  -0.0854929   0.0000000), wk =   0.1111111
        k(   10) = (   0.0296156  -0.0512958   0.0000000), wk =   0.1111111
        k(   11) = (   0.0592312  -0.0341972   0.0000000), wk =   0.1111111
        k(   12) = (   0.0592312   0.0000000   0.0000000), wk =   0.1111111
        k(   13) = (   0.0592312   0.0341972   0.0000000), wk =   0.1111111
        k(   14) = (   0.0592312  -0.1367887   0.0000000), wk =   0.1111111
        k(   15) = (   0.0592312  -0.1025915   0.0000000), wk =   0.1111111
        k(   16) = (   0.0592312  -0.0683943   0.0000000), wk =   0.1111111
        k(   17) = (  -0.0888469   0.0512958   0.0000000), wk =   0.0555556
        k(   18) = (  -0.0888469   0.0854929   0.0000000), wk =   0.1111111
        k(   19) = (  -0.0888469   0.1196901   0.0000000), wk =   0.1111111
        k(   20) = (  -0.0888469  -0.0512958   0.0000000), wk =   0.0555556

     Largest allocated arrays     est. size (Mb)     dimensions
     Largest temporary arrays     est. size (Mb)     dimensions

     Initial potential from superposition of free atoms
     Check: negative starting charge=   -0.005000

     starting charge  168.98723, renormalised to  169.00000

     negative rho (up, down):  5.001E-03 0.000E+00

     *
     * You are using vdW-DF for exchange-correlation in this calculation.
     * Please cite the following three references that made this development
     * possible:
     *
     *   M. Dion, H. Rydberg, E. Schroder, D. C. Langreth, and
     *   B. I. Lundqvist, Phys. Rev. Lett. 92, 246401 (2004).
     *
     *   T. Thonhauser, V. R. Cooper, S. Li, A. Puzder, P. Hyldgaard, and
     *   D. C. Langreth, Phys. Rev. B 76, 125112 (2007).
     *
     *   G. Roman-Perez and J. M. Soler, Phys. Rev. Lett. 103, 096102 (2009).
     *
     *
     * If you are using vdW-DF2, please also cite:
     *
     *   K. Lee, E. D. Murray, L. Kong, B. I. Lundqvist, and
     *   D. C. Langreth, Phys. Rev. B 82, 081101(R) (2010).
     *
     *
     * If you are calculating the stress with vdW-DF, please also cite:
     *
     *   R. Sabatini, E. Kucukbenli, B. Kolb, T. Thonhauser, and
     *   S. de Gironcoli, J. Phys.: Condens. Matter 24, 424209 (2012).
     *

     Carrying out vdW-DF run using the following parameters:

     Nqs =      20    Nr_points =    1024   r_max =   100.000
     q_mesh =
               0.00001000     0.04494208     0.09755937     0.15916263
               0.23128650     0.31572767     0.41458969     0.53033537
               0.66584808     0.82450364     1.01025438     1.22772762
               1.48234092     1.78043706     2.12944203     2.53805004
               3.01644009     3.57652955     4.23227104     5.00000000

     Gradients computed in reciprocal space

     Adding external electric field

     Computed dipole along edir(3) :
        Dipole               -0.0005 Ry au,         -0.0013 Debye
        Dipole field         -0.0000 Ry au

        Potential amp.        0.0001 Ry
        Total length         45.3158 bohr

     Starting wfc are  157 randomized atomic wfcs

     Self-consistent Calculation

     iteration #  1     ecut=    36.75 Ry     beta=0.30
     Davidson diagonalization with overlap
     ethr =  1.00E-02,  avg # of iterations =  2.0

[...]

     total energy              =   -1677.68585500 Ry
     Harris-Foulkes estimate   =   -1681.01745689 Ry
     estimated scf accuracy    <       6.91766488 Ry

[...]

     End of self-consistent calculation

          k = 0.0000 0.0000 0.0000 ( 17111 PWs)   bands (ev):

   -58.8474 -58.7608 -58.6685 -58.6621 -58.6509 -58.6421 -58.6059 -58.6042
   -58.5875 -58.5629 -58.5628 -58.5513 -33.3775 -33.3662 -33.3618 -33.2963
   -33.2886 -33.2774 -33.2707 -33.1915 -33.1851 -33.1796 -32.8625 -32.7295
   -32.7258 -32.7233 -32.6722 -32.6714 -32.6651 -32.5538 -32.5522 -32.5479
   -32.4447 -32.4442 -32.4363 -32.4328 -32.4267 -32.4255 -32.3522 -32.3295
   -32.3266 -32.3253 -32.2709 -32.2700 -32.1978 -32.1961 -32.1296 -32.1288
    -3.8016  -2.5851  -2.3049  -2.2800  -2.2738  -2.2514  -1.8747  -1.8261
    -1.8252  -1.6678  -1.6185  -1.6166  -1.4142  -1.3745  -1.3657  -0.7354
    -0.1812  -0.1776   0.2025   0.8142   0.8182   0.8337   1.0905   1.3453
     1.5029   1.5045   1.7666   1.7687   1.8729   1.8774   1.8775   1.9624
     1.9627   2.1623   2.1624   2.1742   2.7194   3.2678   3.2749   3.2914
     3.4721   3.4769   3.4865   4.0214   4.0227   4.3112

[...]

          k =-0.0888 0.0513 0.0000 ( 17160 PWs)   bands (ev):

[...]

     the Fermi energy is     2.2089 ev

!    total energy              =   -1680.41133672 Ry
     Harris-Foulkes estimate   =   -1680.41133449 Ry
     estimated scf accuracy    <       0.00000135 Ry

     The total energy is the sum of the following terms:

     one-electron contribution =  -15228.89283642 Ry
     hartree contribution      =    7608.48217656 Ry
     xc contribution           =    -240.75947525 Ry
     ewald contribution        =    6180.85924051 Ry
     electric field correction =       0.00003079 Ry
     smearing contrib. (-TS)   =      -0.10047291 Ry

     convergence has been achieved in  16 iterations

 BEEF-vdW xc energy contributions
           1 :   -206.774520942213
           2 :    188.893558360045
           3 :   -158.271014649252
           4 :    123.022020574037
           5 :   -91.2651374458970
           6 :    68.5242519103453
           7 :   -56.4516645383203
           8 :    53.1056079129331
           9 :   -54.4439111268244
          10 :    56.2411752402076
          11 :   -55.6475516848167
          12 :    51.8631392608290
          13 :   -45.8743930192814
          14 :    39.5435225438488
          15 :   -34.5516293558224
          16 :    31.6395855178691
          17 :   -30.4179510273883
          18 :    29.7293044966775
          19 :   -28.3255924918182
          20 :    25.4987154380242
          21 :   -21.3775518315503
          22 :    16.7814422433143
          23 :   -12.7503703399960
          24 :    10.0091349135306
[...]

[...]

   This run was terminated on:  20:14: 4  13Jan2018

[...]

   This run was terminated on:  20:28:15  13Jan2018

[...]

   This run was terminated on:  21: 8:15  13Jan2018

[...]

     Program PWSCF v.5.1rc2 (svn rev. 11289) starts on 13Jan2018 at 21:59: 7

[...]

   This run was terminated on:  23: 4: 9  13Jan2018

[...]

   This run was terminated on:   1: 6: 5  14Jan2018

[...]

     Program PWSCF v.5.1rc2 (svn rev. 11289) starts on 14Jan2018 at  1: 6:10

[...]

     Total force =     0.045896     Total SCF correction =     0.004349

[...]

     Program PWSCF v.5.1rc2 (svn rev. 11289) starts on 14Jan2018 at  1:46: 0

[...]

   This run was terminated on:   1:59:24  14Jan2018

[...]

     Program PWSCF v.5.1rc2 (svn rev. 11289) starts on 14Jan2018 at  1:59:30

     Current dimensions of program PWSCF are:
     Max number of different atomic species (ntypx) = 10
     Max number of k-points (npk) =  40000
     Max angular momentum in pseudopotentials (lmaxx) =  3
     Presently stress not available with electric field

     IMPORTANT: XC functional enforced from input :
     Exchange-correlation      = BEEF-VDW ( 1  4 27 13 2)
     Any further DFT definition will be discarded
     Please, verify this is what you really want

     Subspace diagonalization in iterative solution of the eigenvalue problem:
     a serial algorithm will be used

     bravais-lattice index     =            0
     lattice parameter (alat)  =       1.8897  a.u.
     unit-cell volume          =    4552.2840 (a.u.)^3
     number of atoms/cell      =           13
     number of atomic types    =            2
     number of electrons       =       169.00
     number of Kohn-Sham states=           94
     kinetic-energy cutoff     =      36.7493  Ry
     charge density cutoff     =     367.4932  Ry
     convergence threshold     =      1.0E-05
     mixing beta               =       0.3000
     number of iterations used =           10  plain     mixing
     Exchange-correlation      = BEEF-VDW ( 1  4 27 13 2)
     nstep                     =           50

     celldm(1)=   1.889726  celldm(2)=   0.000000  celldm(3)=   0.000000
     celldm(4)=   0.000000  celldm(5)=   0.000000  celldm(6)=   0.000000

     crystal axes: (cart. coord. in units of alat)
               a(1) = (   5.627661   0.000000   0.000000 )
               a(2) = (   2.813831   4.873698   0.000000 )
               a(3) = (   0.000000   0.000000  24.594966 )

     reciprocal axes: (cart. coord. in units 2 pi/alat)
               b(1) = (  0.177694 -0.102592  0.000000 )
               b(2) = (  0.000000  0.205183  0.000000 )
               b(3) = (  0.000000  0.000000  0.040659 )

     PseudoPot. # 1 for Mo read from file:
     /afs/slac.stanford.edu/u/if/mamunm/psp/gbrv1.5pbe/Mo.UPF
     MD5 check sum: 30c4dcd161f5d35cd49bb5239c51a633
     Pseudo is Ultrasoft + core correction, Zval = 14.0
     Generated by new atomic code, or converted to UPF format
     Using radial grid of  889 points,  6 beta functions with:
                l(1) =   0
                l(2) =   0
                l(3) =   1
                l(4) =   1
                l(5) =   2
                l(6) =   2
     Q(r) pseudized with  6 coefficients,  rinner =    1.000   1.000   1.000
                                                       1.000   1.000

     PseudoPot. # 2 for H  read from file:
     /afs/slac.stanford.edu/u/if/mamunm/psp/gbrv1.5pbe/H.UPF
     MD5 check sum: 761ae9a214b05c3daf00ab9f6b793d6f
     Pseudo is Ultrasoft, Zval =  1.0
     Generated by new atomic code, or converted to UPF format
     Using radial grid of  615 points,  2 beta functions with:
                l(1) =   0
                l(2) =   0
     Q(r) pseudized with  8 coefficients,  rinner =    0.700

     vdW kernel table read from file vdW_kernel_table
     MD5 check sum: 095c7af220d748ca6e76c0b4c6cfb241

     atomic species   valence    mass     pseudopotential
        Mo1           14.00    95.95000     Mo( 1.00)
        H1             1.00     1.00800     H ( 1.00)

     No symmetry found

   Cartesian axes

     site n.     atom                  positions (alat units)
         1           Mo1 tau(   1) = (   1.4069153   0.8122829  10.0000000  )
         2           Mo1 tau(   2) = (   4.2207459   0.8122829  10.0000000  )
         3           Mo1 tau(   3) = (   2.8138306   3.2491317  10.0000000  )
         4           Mo1 tau(   4) = (   5.6276612   3.2491317  10.0000000  )
         5           Mo1 tau(   5) = (   5.6276612   1.6245658  12.2974831  )
         6           Mo1 tau(   6) = (   2.8138306   1.6245658  12.2974831  )
         7           Mo1 tau(   7) = (   7.0345765   4.0614146  12.2974831  )
         8           Mo1 tau(   8) = (   4.2207459   4.0614146  12.2974831  )
         9           Mo1 tau(   9) = (   5.6115704   0.4947916  14.5741629  )
        10           Mo1 tau(  10) = (   2.8299363   0.4947445  14.5741478  )
        11           Mo1 tau(  11) = (   7.0345211   2.9373933  14.5421425  )
        12           Mo1 tau(  12) = (   4.2206683   2.8709169  14.5787872  )
        13           H1  tau(  13) = (   4.2207717   4.5765442  15.6700006  )

     number of k points=    20  Fermi-Dirac smearing, width (Ry)=  0.0110
                       cart. coord. in units 2pi/alat
        k(    1) = (   0.0000000   0.0000000   0.0000000), wk =   0.0555556
        k(    2) = (   0.0000000   0.0341972   0.0000000), wk =   0.1111111
        k(    3) = (   0.0000000   0.0683943   0.0000000), wk =   0.1111111
        k(    4) = (   0.0000000  -0.1025915   0.0000000), wk =   0.0555556
        k(    5) = (   0.0296156  -0.0170986   0.0000000), wk =   0.1111111
        k(    6) = (   0.0296156   0.0170986   0.0000000), wk =   0.1111111
        k(    7) = (   0.0296156   0.0512958   0.0000000), wk =   0.1111111
        k(    8) = (   0.0296156  -0.1196901   0.0000000), wk =   0.1111111
        k(    9) = (   0.0296156  -0.0854929   0.0000000), wk =   0.1111111
        k(   10) = (   0.0296156  -0.0512958   0.0000000), wk =   0.1111111
        k(   11) = (   0.0592312  -0.0341972   0.0000000), wk =   0.1111111
        k(   12) = (   0.0592312   0.0000000   0.0000000), wk =   0.1111111
        k(   13) = (   0.0592312   0.0341972   0.0000000), wk =   0.1111111
        k(   14) = (   0.0592312  -0.1367887   0.0000000), wk =   0.1111111
        k(   15) = (   0.0592312  -0.1025915   0.0000000), wk =   0.1111111
        k(   16) = (   0.0592312  -0.0683943   0.0000000), wk =   0.1111111
        k(   17) = (  -0.0888469   0.0512958   0.0000000), wk =   0.0555556
        k(   18) = (  -0.0888469   0.0854929   0.0000000), wk =   0.1111111
        k(   19) = (  -0.0888469   0.1196901   0.0000000), wk =   0.1111111
        k(   20) = (  -0.0888469  -0.0512958   0.0000000), wk =   0.0555556

     Largest allocated arrays     est. size (Mb)     dimensions
     Largest temporary arrays     est. size (Mb)     dimensions

     Initial potential from superposition of free atoms
     Check: negative starting charge=   -0.004966

     starting charge  168.98723, renormalised to  169.00000

[...]

     *
     * You are using vdW-DF for exchange-correlation in this calculation.
     * Please cite the following three references that made this development
     * possible:
     *
     *   M. Dion, H. Rydberg, E. Schroder, D. C. Langreth, and
     *   B. I. Lundqvist, Phys. Rev. Lett. 92, 246401 (2004).
     *
     *   T. Thonhauser, V. R. Cooper, S. Li, A. Puzder, P. Hyldgaard, and
     *   D. C. Langreth, Phys. Rev. B 76, 125112 (2007).
     *
     *   G. Roman-Perez and J. M. Soler, Phys. Rev. Lett. 103, 096102 (2009).
     *
     *
     * If you are using vdW-DF2, please also cite:
     *
     *   K. Lee, E. D. Murray, L. Kong, B. I. Lundqvist, and
     *   D. C. Langreth, Phys. Rev. B 82, 081101(R) (2010).
     *
     *
     * If you are calculating the stress with vdW-DF, please also cite:
     *
     *   R. Sabatini, E. Kucukbenli, B. Kolb, T. Thonhauser, and
     *   S. de Gironcoli, J. Phys.: Condens. Matter 24, 424209 (2012).
     *

     Carrying out vdW-DF run using the following parameters:

     Nqs =      20    Nr_points =    1024   r_max =   100.000
     q_mesh =
               0.00001000     0.04494208     0.09755937     0.15916263
               0.23128650     0.31572767     0.41458969     0.53033537
               0.66584808     0.82450364     1.01025438     1.22772762
               1.48234092     1.78043706     2.12944203     2.53805004
               3.01644009     3.57652955     4.23227104     5.00000000

     Gradients computed in reciprocal space

[...]

     Starting wfc are  157 randomized atomic wfcs

     Self-consistent Calculation

[...]

     total energy              =   -1680.49226444 Ry
     Harris-Foulkes estimate   =   -1680.49226566 Ry
     estimated scf accuracy    <       0.00004044 Ry

     iteration # 17     ecut=    36.75 Ry     beta=0.30
     Davidson diagonalization with overlap
     ethr =  1.21E-08,  avg # of iterations =  1.1

[...]

     negative rho (up, down):  4.914E-03 0.000E+00

     Adding external electric field

     Computed dipole along edir(3) :
        Dipole                0.0098 Ry au,          0.0249 Debye
        Dipole field          0.0000 Ry au

        Potential amp.       -0.0025 Ry
        Total length         45.3158 bohr

     End of self-consistent calculation

[...]

          k = 0.0592-0.0684 0.0000 ( 17122 PWs)   bands (ev):

[...]

          k =-0.0888-0.0513 0.0000 ( 17160 PWs)   bands (ev):

   -58.7361 -58.7274 -58.6320 -58.6280 -58.6070 -58.5919 -58.5386 -58.5311
   -58.5307 -58.5114 -58.4706 -58.4694 -33.2592 -33.2451 -33.2353 -33.1986
   -33.1349 -33.1233 -32.9303 -32.9053 -32.8826 -32.8765 -32.8221 -32.8179
   -32.7128 -32.6755 -32.6701 -32.6671 -32.6180 -32.5946 -32.5900 -32.5630
   -32.5042 -32.4984 -32.4871 -32.4838 -32.4456 -32.4380 -32.3668 -32.3567
   -32.3364 -32.3157 -32.2547 -32.2307 -32.1723 -32.1649 -32.1305 -32.0959
    -3.3129  -2.1122  -2.0134  -1.2974  -1.2694  -1.2394  -1.1604  -0.9899
    -0.9761  -0.9189  -0.8096  -0.4865  -0.4696  -0.3283  -0.2374  -0.1903
    -0.0850   0.2756   0.3091   0.3469   0.3881   0.6830   0.7277   0.9121
     0.9393   1.2339   1.2487   1.3945   1.4718   1.4912   1.5867   1.6297
     1.6464   1.6809   1.7104   1.7359   1.9481   1.9746   2.6469   2.6946
     2.8864   2.8972   3.0727   3.1031   3.3438   3.4158

     the Fermi energy is     2.3463 ev

!    total energy              =   -1680.49226141 Ry
     Harris-Foulkes estimate   =   -1680.49226533 Ry
     estimated scf accuracy    <       0.00000442 Ry

     The total energy is the sum of the following terms:

     one-electron contribution =  -15333.12480133 Ry
     hartree contribution      =    7660.76434252 Ry
     xc contribution           =    -241.00590716 Ry
     ewald contribution        =    6232.96217708 Ry
     electric field correction =       0.00000027 Ry
     smearing contrib. (-TS)   =      -0.08807279 Ry

     convergence has been achieved in  17 iterations

 BEEF-vdW xc energy contributions
           1 :   -207.022482232891
           2 :    189.202010827432
           3 :   -158.639986314005
           4 :    123.384688701893
           5 :   -91.5242050092104
           6 :    68.5970677660420
           7 :   -56.3042709895382
           8 :    52.7645181632067
           9 :   -53.9846831614002
          10 :    55.7632645626353
          11 :   -55.2456281073480
          12 :    51.6011705171454
          13 :   -45.7677983044947
          14 :    39.5553386036838
          15 :   -34.6054165310175
          16 :    31.6484382359597
          17 :   -30.3196573078709
          18 :    29.5128836675752
          19 :   -28.0375615345720
          20 :    25.2268655123417
          21 :   -21.2164457023277
          22 :    16.7904283788735
          23 :   -12.9225116767032
          24 :    10.2685852856710
          25 :   -8.87091069770730
          26 :    8.19423572830752
          27 :   -7.44319865106496
          28 :    5.97308834013546
          29 :   -3.58772431831889
          30 :   0.590445230427008
          31 :   -23.6040148401660
          32 :   -18.1168340740558

     Forces acting on atoms (Ry/au):

     negative rho (up, down):  4.914E-03 0.000E+00
     atom    1 type  1   force =    -0.00000299   -0.00024348   -0.01343810
     atom    2 type  1   force =    -0.00000025    0.00005641   -0.01228514
     atom    3 type  1   force =     0.00015550   -0.00127384   -0.01234103
     atom    4 type  1   force =    -0.00015367   -0.00127359   -0.01234118
     atom    5 type  1   force =     0.00156817    0.00019988    0.00798613
     atom    6 type  1   force =    -0.00157077    0.00019738    0.00798342
     atom    7 type  1   force =     0.00000257    0.00408809    0.01062384
     atom    8 type  1   force =     0.00000164   -0.00172697    0.02383513
     atom    9 type  1   force =    -0.00000641   -0.00011685   -0.00000485
     atom   10 type  1   force =     0.00000046   -0.00010975    0.00000090
     atom   11 type  1   force =     0.00000144    0.00005936    0.00010000
     atom   12 type  1   force =     0.00000877    0.00007505   -0.00027444
     atom   13 type  2   force =    -0.00000447    0.00006831    0.00015532

     Total force =     0.038377     Total SCF correction =     0.004999
     SCF correction compared to forces is large: reduce conv_thr to get better values

     entering subroutine stress ...

     negative rho (up, down):  4.914E-03 0.000E+00
          total   stress  (Ry/bohr**3)                   (kbar)     P=  -11.80
  -0.00012616   0.00000001  -0.00000000        -18.56      0.00     -0.00
   0.00000001  -0.00016009   0.00000237          0.00    -23.55      0.35
  -0.00000000   0.00000237   0.00004563         -0.00      0.35      6.71

 !ASE

     Writing output data file calc.save

     General routines

     Parallel routines

   This run was terminated on:   2:13: 5  14Jan2018

   JOB DONE.
Job  /afs/slac/g/suncat/bin/suncat-tsmpirun -x LD_LIBRARY_PATH -wdir /scratch/qe842458_aZSpq pw.x -in pw.inp

TID   HOST_NAME   COMMAND_LINE            STATUS            TERMINATION_TIME
00000 suncat1058 pw.x -in pw.inp   Done                     01/14/2018 02:13:05
00001 suncat1058 pw.x -in pw.inp   Done                     01/14/2018 02:13:05
00002 suncat1058 pw.x -in pw.inp   Done                     01/14/2018 02:13:05
00003 suncat1058 pw.x -in pw.inp   Done                     01/14/2018 02:13:05
00004 suncat1058 pw.x -in pw.inp   Done                     01/14/2018 02:13:05
00005 suncat1058 pw.x -in pw.inp   Done                     01/14/2018 02:13:05
00006 suncat1058 pw.x -in pw.inp   Done                     01/14/2018 02:13:05
00007 suncat1058 pw.x -in pw.inp   Done                     01/14/2018 02:13:05
00008 suncat1037 pw.x -in pw.inp   Done                     01/14/2018 02:13:05
00009 suncat1037 pw.x -in pw.inp   Done                     01/14/2018 02:13:05
00010 suncat1037 pw.x -in pw.inp   Done                     01/14/2018 02:13:05
00011 suncat1037 pw.x -in pw.inp   Done                     01/14/2018 02:13:05
00012 suncat1037 pw.x -in pw.inp   Done                     01/14/2018 02:13:05
00013 suncat1037 pw.x -in pw.inp   Done                     01/14/2018 02:13:05
00014 suncat1037 pw.x -in pw.inp   Done                     01/14/2018 02:13:05
00015 suncat1037 pw.x -in pw.inp   Done                     01/14/2018 02:13:05
00016 suncat1037 pw.x -in pw.inp   Done                     01/14/2018 02:13:05
00017 suncat1037 pw.x -in pw.inp   Done                     01/14/2018 02:13:05
00018 suncat1037 pw.x -in pw.inp   Done                     01/14/2018 02:13:05
00019 suncat1037 pw.x -in pw.inp   Done                     01/14/2018 02:13:05
00020 suncat1036 pw.x -in pw.inp   Done                     01/14/2018 02:13:05
00021 suncat1036 pw.x -in pw.inp   Done                     01/14/2018 02:13:05
00022 suncat1036 pw.x -in pw.inp   Done                     01/14/2018 02:13:05
00023 suncat1036 pw.x -in pw.inp   Done                     01/14/2018 02:13:05
00024 suncat1036 pw.x -in pw.inp   Done                     01/14/2018 02:13:05
00025 suncat1036 pw.x -in pw.inp   Done                     01/14/2018 02:13:05
00026 suncat1036 pw.x -in pw.inp   Done                     01/14/2018 02:13:05
00027 suncat1036 pw.x -in pw.inp   Done                     01/14/2018 02:13:05
00028 suncat1036 pw.x -in pw.inp   Done                     01/14/2018 02:13:05
00029 suncat1036 pw.x -in pw.inp   Done                     01/14/2018 02:13:05
00030 suncat1036 pw.x -in pw.inp   Done                     01/14/2018 02:13:05
00031 suncat1036 pw.x -in pw.inp   Done                     01/14/2018 02:13:05