     Program PWSCF v.5.1rc2 (svn rev. 11289) starts on 21Jan2018 at 12:17:18

     Current dimensions of program PWSCF are:
     Max number of different atomic species (ntypx) = 10
     Max number of k-points (npk) =  40000
     Max angular momentum in pseudopotentials (lmaxx) =  3
     Presently stress not available with electric field

     IMPORTANT: XC functional enforced from input :
     Exchange-correlation      = BEEF-VDW ( 1  4 27 13 2)
     Any further DFT definition will be discarded
     Please, verify this is what you really want

     Subspace diagonalization in iterative solution of the eigenvalue problem:
     a serial algorithm will be used

     bravais-lattice index     =            0
     lattice parameter (alat)  =       1.8897  a.u.
     unit-cell volume          =    4198.3539 (a.u.)^3
     number of atoms/cell      =           13
     number of atomic types    =            2
     number of electrons       =       198.00
     number of Kohn-Sham states=          109
     kinetic-energy cutoff     =      36.7493  Ry
     charge density cutoff     =     367.4932  Ry
     convergence threshold     =      1.0E-05
     mixing beta               =       0.3000
     number of iterations used =           10  plain     mixing
     Exchange-correlation      = BEEF-VDW ( 1  4 27 13 2)
     nstep                     =           50

     celldm(1)=   1.889726  celldm(2)=   0.000000  celldm(3)=   0.000000
     celldm(4)=   0.000000  celldm(5)=   0.000000  celldm(6)=   0.000000

     crystal axes: (cart. coord. in units of alat)
               a(1) = (   5.422927   0.000000   0.000000 )
               a(2) = (   2.711463   4.696392   0.000000 )
               a(3) = (   0.000000   0.000000  24.427801 )

     reciprocal axes: (cart. coord. in units 2 pi/alat)
               b(1) = (  0.184402 -0.106465  0.000000 )
               b(2) = (  0.000000  0.212929  0.000000 )
               b(3) = (  0.000000  0.000000  0.040937 )

     PseudoPot. # 1 for Ru read from file:
     /afs/slac.stanford.edu/u/if/mamunm/psp/gbrv1.5pbe/Ru.UPF
     MD5 check sum: 7158a806dd851261a58e6920c40ebe78
     Pseudo is Ultrasoft + core correction, Zval = 16.0
     Generated by new atomic code, or converted to UPF format
     Using radial grid of  967 points,  6 beta functions with:
                l(1) =   0
                l(2) =   0
                l(3) =   1
                l(4) =   1
                l(5) =   2
                l(6) =   2
     Q(r) pseudized with  8 coefficients,  rinner =    1.300   1.300   1.300
                                                       1.300   1.300

     PseudoPot. # 2 for S  read from file:
     /afs/slac.stanford.edu/u/if/mamunm/psp/gbrv1.5pbe/S.UPF
     MD5 check sum: 88d86576ff6df21479756cfb9bdac1df
     Pseudo is Ultrasoft + core correction, Zval =  6.0
     Generated by new atomic code, or converted to UPF format
     Using radial grid of  907 points,  6 beta functions with:
                l(1) =   0
                l(2) =   0
                l(3) =   1
                l(4) =   1
                l(5) =   2
                l(6) =   2
     Q(r) pseudized with  8 coefficients,  rinner =    1.300   1.300   1.300
                                                       1.300   1.300

     vdW kernel table read from file vdW_kernel_table
     MD5 check sum: 095c7af220d748ca6e76c0b4c6cfb241

     atomic species   valence    mass     pseudopotential
        Ru1           16.00   101.07000     Ru( 1.00)
        S1             6.00    32.06000     S ( 1.00)

     No symmetry found

   Cartesian axes

     site n.     atom                  positions (alat units)
         1           Ru1 tau(   1) = (   1.3557316   0.7827320  10.0000000  )
         2           Ru1 tau(   2) = (   4.0671949   0.7827320  10.0000000  )
         3           Ru1 tau(   3) = (   2.7114633   3.1309281  10.0000000  )
         4           Ru1 tau(   4) = (   5.4229265   3.1309281  10.0000000  )
         5           Ru1 tau(   5) = (   5.4229265   1.5654640  12.2139005  )
         6           Ru1 tau(   6) = (   2.7114633   1.5654640  12.2139005  )
         7           Ru1 tau(   7) = (   6.7786581   3.9136601  12.2139005  )
         8           Ru1 tau(   8) = (   4.0671949   3.9136601  12.2139005  )
         9           Ru1 tau(   9) = (   0.0000000   0.0000000  14.4278010  )
        10           Ru1 tau(  10) = (   2.7114633   0.0000000  14.4278010  )
        11           Ru1 tau(  11) = (   1.3557316   2.3481961  14.4278010  )
        12           Ru1 tau(  12) = (   4.0671949   2.3481961  14.4278010  )
        13           S1  tau(  13) = (   1.3557316   0.7827320  16.9378010  )

     number of k points=    20  Fermi-Dirac smearing, width (Ry)=  0.0110
                       cart. coord. in units 2pi/alat
        k(    1) = (   0.0000000   0.0000000   0.0000000), wk =   0.0555556
        k(    2) = (   0.0000000   0.0354882   0.0000000), wk =   0.1111111
        k(    3) = (   0.0000000   0.0709765   0.0000000), wk =   0.1111111
        k(    4) = (   0.0000000  -0.1064647   0.0000000), wk =   0.0555556
        k(    5) = (   0.0307337  -0.0177441   0.0000000), wk =   0.1111111
        k(    6) = (   0.0307337   0.0177441   0.0000000), wk =   0.1111111
        k(    7) = (   0.0307337   0.0532324   0.0000000), wk =   0.1111111
        k(    8) = (   0.0307337  -0.1242088   0.0000000), wk =   0.1111111
        k(    9) = (   0.0307337  -0.0887206   0.0000000), wk =   0.1111111
        k(   10) = (   0.0307337  -0.0532324   0.0000000), wk =   0.1111111
        k(   11) = (   0.0614674  -0.0354882   0.0000000), wk =   0.1111111
        k(   12) = (   0.0614674   0.0000000   0.0000000), wk =   0.1111111
        k(   13) = (   0.0614674   0.0354882   0.0000000), wk =   0.1111111
        k(   14) = (   0.0614674  -0.1419529   0.0000000), wk =   0.1111111
        k(   15) = (   0.0614674  -0.1064647   0.0000000), wk =   0.1111111
        k(   16) = (   0.0614674  -0.0709765   0.0000000), wk =   0.1111111
        k(   17) = (  -0.0922011   0.0532324   0.0000000), wk =   0.0555556
        k(   18) = (  -0.0922011   0.0887206   0.0000000), wk =   0.1111111
        k(   19) = (  -0.0922011   0.1242088   0.0000000), wk =   0.1111111
        k(   20) = (  -0.0922011  -0.0532324   0.0000000), wk =   0.0555556

     Largest allocated arrays     est. size (Mb)     dimensions
     Largest temporary arrays     est. size (Mb)     dimensions

     Initial potential from superposition of free atoms
     Check: negative starting charge=   -0.873598

     starting charge  185.99978, renormalised to  198.00000

     negative rho (up, down):  9.300E-01 0.000E+00

     *
     * You are using vdW-DF for exchange-correlation in this calculation.
     * Please cite the following three references that made this development
     * possible:
     *
     *   M. Dion, H. Rydberg, E. Schroder, D. C. Langreth, and
     *   B. I. Lundqvist, Phys. Rev. Lett. 92, 246401 (2004).
     *
     *   T. Thonhauser, V. R. Cooper, S. Li, A. Puzder, P. Hyldgaard, and
     *   D. C. Langreth, Phys. Rev. B 76, 125112 (2007).
     *
     *   G. Roman-Perez and J. M. Soler, Phys. Rev. Lett. 103, 096102 (2009).
     *
     *
     * If you are using vdW-DF2, please also cite:
     *
     *   K. Lee, E. D. Murray, L. Kong, B. I. Lundqvist, and
     *   D. C. Langreth, Phys. Rev. B 82, 081101(R) (2010).
     *
     *
     * If you are calculating the stress with vdW-DF, please also cite:
     *
     *   R. Sabatini, E. Kucukbenli, B. Kolb, T. Thonhauser, and
     *   S. de Gironcoli, J. Phys.: Condens. Matter 24, 424209 (2012).
     *

     Carrying out vdW-DF run using the following parameters:

     Nqs =      20    Nr_points =    1024   r_max =   100.000
     q_mesh =
               0.00001000     0.04494208     0.09755937     0.15916263
               0.23128650     0.31572767     0.41458969     0.53033537
               0.66584808     0.82450364     1.01025438     1.22772762
               1.48234092     1.78043706     2.12944203     2.53805004
               3.01644009     3.57652955     4.23227104     5.00000000

     Gradients computed in reciprocal space

     Adding external electric field

     Computed dipole along edir(3) :
        Dipole               -3.4553 Ry au,         -8.7825 Debye
        Dipole field         -0.0103 Ry au

        Potential amp.        0.9310 Ry
        Total length         45.0078 bohr

     Starting wfc are  160 randomized atomic wfcs

     Self-consistent Calculation

     iteration #  1     ecut=    36.75 Ry     beta=0.30
     Davidson diagonalization with overlap
     ethr =  1.00E-02,  avg # of iterations =  5.9

[...]

     total energy              =   -2110.98109717 Ry
     Harris-Foulkes estimate   =   -2361.50437859 Ry
     estimated scf accuracy    <     525.24339235 Ry

[...]

     End of self-consistent calculation

          k = 0.0000 0.0000 0.0000 ( 15761 PWs)   bands (ev):

   -71.1864 -71.0955 -71.0951 -71.0035 -70.7830 -70.7011 -70.6993 -70.6850
   -70.6063 -70.5886 -70.5884 -70.5865 -41.4688 -41.4356 -41.4354 -41.2917
   -41.1995 -41.1994 -41.1723 -40.9995 -40.9778 -40.9773 -40.9046 -40.8823
   -40.8821 -40.8314 -40.8313 -40.8007 -40.7064 -40.7064 -40.6767 -40.6093
   -40.6078 -40.5472 -40.4964 -40.4901 -40.4896 -40.4809 -40.4805 -40.4799
   -40.4728 -40.4082 -40.4081 -40.4061 -40.3130 -40.3126 -40.2448 -40.2448
    -8.9014  -4.6113  -3.4062  -3.3916  -3.3914  -3.2986  -3.1582  -3.0326
    -3.0261  -3.0260  -2.8089  -2.7700  -2.7699  -2.4286  -2.4144  -2.4142
    -1.3602  -1.2730  -1.2726  -0.6795  -0.6609  -0.6609  -0.4340  -0.2764
    -0.2764  -0.1784   0.1118   0.1118   0.1556   0.1594   0.1596   0.3793
     0.3793   0.6156   0.6659   0.6664   1.0595   1.3514   1.3515   1.7777
     1.7961   1.7964   1.9264   1.9264   1.9749   2.1063   2.1063   2.5143
     2.5143   2.5961   3.1386   3.1527   3.1580   3.1583   3.2539   3.2543
     3.3310   3.3311   3.6596   3.6875   3.6876

[...]

          k =-0.0922 0.0532 0.0000 ( 15808 PWs)   bands (ev):

[...]

     the Fermi energy is     2.1075 ev

!    total energy              =   -2365.63748191 Ry
     Harris-Foulkes estimate   =   -2365.63749060 Ry
     estimated scf accuracy    <       0.00000738 Ry

     The total energy is the sum of the following terms:

     one-electron contribution =  -22073.90786535 Ry
     hartree contribution      =   11037.74063283 Ry
     xc contribution           =    -330.26245151 Ry
     ewald contribution        =    9000.88610068 Ry
     electric field correction =       0.00033030 Ry
     smearing contrib. (-TS)   =      -0.09422886 Ry

     convergence has been achieved in  25 iterations

 BEEF-vdW xc energy contributions
           1 :   -286.219864081604
           2 :    262.335678146626
           3 :   -221.076168776606
           4 :    172.737628186709
           5 :   -127.709626452029
           6 :    93.3542606130350
           7 :   -72.3437745633153
           8 :    62.8223422230149
           9 :   -60.0810035708535
          10 :    58.9067863821605
          11 :   -55.6148803657858
          12 :    49.0422064958221
          13 :   -40.3187769151066
          14 :    31.7619313711422
[...]
     c_bands:  4 eigenvalues not converged
     c_bands:  3 eigenvalues not converged
     ethr =  1.00E-02,  avg # of iterations = 15.6

[...]

     Total force =     0.093507     Total SCF correction =     0.008392

[...]

   This run was terminated on:  14:42: 5  21Jan2018

[...]

     Program PWSCF v.5.1rc2 (svn rev. 11289) starts on 21Jan2018 at 14:42:10

[...]

   This run was terminated on:  15: 2:55  21Jan2018

[...]

     Program PWSCF v.5.1rc2 (svn rev. 11289) starts on 21Jan2018 at 15: 3: 0

     Current dimensions of program PWSCF are:
     Max number of different atomic species (ntypx) = 10
     Max number of k-points (npk) =  40000
     Max angular momentum in pseudopotentials (lmaxx) =  3
     Presently stress not available with electric field

     IMPORTANT: XC functional enforced from input :
     Exchange-correlation      = BEEF-VDW ( 1  4 27 13 2)
     Any further DFT definition will be discarded
     Please, verify this is what you really want

     Subspace diagonalization in iterative solution of the eigenvalue problem:
     a serial algorithm will be used

     bravais-lattice index     =            0
     lattice parameter (alat)  =       1.8897  a.u.
     unit-cell volume          =    4198.3539 (a.u.)^3
     number of atoms/cell      =           13
     number of atomic types    =            2
     number of electrons       =       198.00
     number of Kohn-Sham states=          109
     kinetic-energy cutoff     =      36.7493  Ry
     charge density cutoff     =     367.4932  Ry
     convergence threshold     =      1.0E-05
     mixing beta               =       0.3000
     number of iterations used =           10  plain     mixing
     Exchange-correlation      = BEEF-VDW ( 1  4 27 13 2)
     nstep                     =           50

     celldm(1)=   1.889726  celldm(2)=   0.000000  celldm(3)=   0.000000
     celldm(4)=   0.000000  celldm(5)=   0.000000  celldm(6)=   0.000000

     crystal axes: (cart. coord. in units of alat)
               a(1) = (   5.422927   0.000000   0.000000 )
               a(2) = (   2.711463   4.696392   0.000000 )
               a(3) = (   0.000000   0.000000  24.427801 )

     reciprocal axes: (cart. coord. in units 2 pi/alat)
               b(1) = (  0.184402 -0.106465  0.000000 )
               b(2) = (  0.000000  0.212929  0.000000 )
               b(3) = (  0.000000  0.000000  0.040937 )

     PseudoPot. # 1 for Ru read from file:
     /afs/slac.stanford.edu/u/if/mamunm/psp/gbrv1.5pbe/Ru.UPF
     MD5 check sum: 7158a806dd851261a58e6920c40ebe78
     Pseudo is Ultrasoft + core correction, Zval = 16.0
     Generated by new atomic code, or converted to UPF format
     Using radial grid of  967 points,  6 beta functions with:
                l(1) =   0
                l(2) =   0
                l(3) =   1
                l(4) =   1
                l(5) =   2
                l(6) =   2
     Q(r) pseudized with  8 coefficients,  rinner =    1.300   1.300   1.300
                                                       1.300   1.300

     PseudoPot. # 2 for S  read from file:
     /afs/slac.stanford.edu/u/if/mamunm/psp/gbrv1.5pbe/S.UPF
     MD5 check sum: 88d86576ff6df21479756cfb9bdac1df
     Pseudo is Ultrasoft + core correction, Zval =  6.0
     Generated by new atomic code, or converted to UPF format
     Using radial grid of  907 points,  6 beta functions with:
                l(1) =   0
                l(2) =   0
                l(3) =   1
                l(4) =   1
                l(5) =   2
                l(6) =   2
     Q(r) pseudized with  8 coefficients,  rinner =    1.300   1.300   1.300
                                                       1.300   1.300

     vdW kernel table read from file vdW_kernel_table
     MD5 check sum: 095c7af220d748ca6e76c0b4c6cfb241

     atomic species   valence    mass     pseudopotential
        Ru1           16.00   101.07000     Ru( 1.00)
        S1             6.00    32.06000     S ( 1.00)

     No symmetry found

   Cartesian axes

     site n.     atom                  positions (alat units)
         1           Ru1 tau(   1) = (   1.3557316   0.7827320  10.0000000  )
         2           Ru1 tau(   2) = (   4.0671949   0.7827320  10.0000000  )
         3           Ru1 tau(   3) = (   2.7114633   3.1309281  10.0000000  )
         4           Ru1 tau(   4) = (   5.4229265   3.1309281  10.0000000  )
         5           Ru1 tau(   5) = (   5.4229265   1.5654640  12.2139005  )
         6           Ru1 tau(   6) = (   2.7114633   1.5654640  12.2139005  )
         7           Ru1 tau(   7) = (   6.7786581   3.9136601  12.2139005  )
         8           Ru1 tau(   8) = (   4.0671949   3.9136601  12.2139005  )
         9           Ru1 tau(   9) = (   0.0037139   0.0022468  14.3639719  )
        10           Ru1 tau(  10) = (   2.7078241   0.0022476  14.3640030  )
        11           Ru1 tau(  11) = (   1.3557671   2.3438605  14.3639004  )
        12           Ru1 tau(  12) = (   4.0672009   2.3481385  14.3122427  )
        13           S1  tau(  13) = (   1.3557789   0.7827198  16.1074901  )

     number of k points=    20  Fermi-Dirac smearing, width (Ry)=  0.0110
                       cart. coord. in units 2pi/alat
        k(    1) = (   0.0000000   0.0000000   0.0000000), wk =   0.0555556
        k(    2) = (   0.0000000   0.0354882   0.0000000), wk =   0.1111111
        k(    3) = (   0.0000000   0.0709765   0.0000000), wk =   0.1111111
        k(    4) = (   0.0000000  -0.1064647   0.0000000), wk =   0.0555556
        k(    5) = (   0.0307337  -0.0177441   0.0000000), wk =   0.1111111
        k(    6) = (   0.0307337   0.0177441   0.0000000), wk =   0.1111111
        k(    7) = (   0.0307337   0.0532324   0.0000000), wk =   0.1111111
        k(    8) = (   0.0307337  -0.1242088   0.0000000), wk =   0.1111111
        k(    9) = (   0.0307337  -0.0887206   0.0000000), wk =   0.1111111
        k(   10) = (   0.0307337  -0.0532324   0.0000000), wk =   0.1111111
        k(   11) = (   0.0614674  -0.0354882   0.0000000), wk =   0.1111111
        k(   12) = (   0.0614674   0.0000000   0.0000000), wk =   0.1111111
        k(   13) = (   0.0614674   0.0354882   0.0000000), wk =   0.1111111
        k(   14) = (   0.0614674  -0.1419529   0.0000000), wk =   0.1111111
        k(   15) = (   0.0614674  -0.1064647   0.0000000), wk =   0.1111111
        k(   16) = (   0.0614674  -0.0709765   0.0000000), wk =   0.1111111
        k(   17) = (  -0.0922011   0.0532324   0.0000000), wk =   0.0555556
        k(   18) = (  -0.0922011   0.0887206   0.0000000), wk =   0.1111111
        k(   19) = (  -0.0922011   0.1242088   0.0000000), wk =   0.1111111
        k(   20) = (  -0.0922011  -0.0532324   0.0000000), wk =   0.0555556

     Largest allocated arrays     est. size (Mb)     dimensions
     Largest temporary arrays     est. size (Mb)     dimensions

     Initial potential from superposition of free atoms
     Check: negative starting charge=   -0.880767

     starting charge  185.99978, renormalised to  198.00000

[...]

     *
     * You are using vdW-DF for exchange-correlation in this calculation.
     * Please cite the following three references that made this development
     * possible:
     *
     *   M. Dion, H. Rydberg, E. Schroder, D. C. Langreth, and
     *   B. I. Lundqvist, Phys. Rev. Lett. 92, 246401 (2004).
     *
     *   T. Thonhauser, V. R. Cooper, S. Li, A. Puzder, P. Hyldgaard, and
     *   D. C. Langreth, Phys. Rev. B 76, 125112 (2007).
     *
     *   G. Roman-Perez and J. M. Soler, Phys. Rev. Lett. 103, 096102 (2009).
     *
     *
     * If you are using vdW-DF2, please also cite:
     *
     *   K. Lee, E. D. Murray, L. Kong, B. I. Lundqvist, and
     *   D. C. Langreth, Phys. Rev. B 82, 081101(R) (2010).
     *
     *
     * If you are calculating the stress with vdW-DF, please also cite:
     *
     *   R. Sabatini, E. Kucukbenli, B. Kolb, T. Thonhauser, and
     *   S. de Gironcoli, J. Phys.: Condens. Matter 24, 424209 (2012).
     *

     Carrying out vdW-DF run using the following parameters:

     Nqs =      20    Nr_points =    1024   r_max =   100.000
     q_mesh =
               0.00001000     0.04494208     0.09755937     0.15916263
               0.23128650     0.31572767     0.41458969     0.53033537
               0.66584808     0.82450364     1.01025438     1.22772762
               1.48234092     1.78043706     2.12944203     2.53805004
               3.01644009     3.57652955     4.23227104     5.00000000

     Gradients computed in reciprocal space

[...]

     Starting wfc are  160 randomized atomic wfcs

     Self-consistent Calculation

[...]

     total energy              =   -2365.80349530 Ry
     Harris-Foulkes estimate   =   -2365.80349574 Ry
     estimated scf accuracy    <       0.00001165 Ry

     iteration # 26     ecut=    36.75 Ry     beta=0.30
     Davidson diagonalization with overlap
     ethr =  5.89E-09,  avg # of iterations =  4.6

[...]

     negative rho (up, down):  9.190E-01 0.000E+00

     Adding external electric field

     Computed dipole along edir(3) :
        Dipole               -0.0705 Ry au,         -0.1792 Debye
        Dipole field         -0.0002 Ry au

        Potential amp.        0.0190 Ry
        Total length         45.0078 bohr

     End of self-consistent calculation

[...]

          k = 0.0615-0.0710 0.0000 ( 15803 PWs)   bands (ev):

[...]

          k =-0.0922-0.0532 0.0000 ( 15808 PWs)   bands (ev):

   -70.7846 -70.7615 -70.7302 -70.5637 -70.4614 -70.4405 -70.4155 -70.2439
   -70.2271 -70.2262 -70.1785 -70.1773 -40.9873 -40.9099 -40.9035 -40.8770
   -40.8352 -40.8215 -40.7537 -40.7528 -40.7053 -40.6585 -40.5292 -40.4877
   -40.4628 -40.4489 -40.4285 -40.3864 -40.3583 -40.3442 -40.3367 -40.2872
   -40.2656 -40.2646 -40.2029 -40.1850 -40.1725 -40.1540 -40.1469 -40.1246
   -40.1176 -40.0806 -40.0754 -40.0710 -40.0677 -40.0262 -39.9170 -39.9165
   -10.5353  -2.9632  -2.8084  -2.5214  -2.2688  -2.2247  -2.1932  -2.0311
    -1.9923  -1.9841  -1.8278  -1.7516  -1.6254  -1.6064  -1.3042  -1.2946
    -1.2332  -1.1278  -1.0957  -0.9387  -0.7460  -0.6852  -0.5692  -0.4710
    -0.3935  -0.2549  -0.0117   0.1023   0.3462   0.4234   0.5658   0.5798
     0.6274   0.6300   0.7132   0.7505   0.7693   0.8868   0.8979   0.9302
     0.9312   1.2639   1.2666   1.4909   1.5612   1.5892   1.8000   1.8030
     2.0913   2.1465   2.1727   2.2879   2.3227   2.4451   2.4726   2.4814
     2.8583   2.9039   2.9302   3.0352   3.4646

     the Fermi energy is     2.5149 ev

!    total energy              =   -2365.80349291 Ry
     Harris-Foulkes estimate   =   -2365.80349851 Ry
     estimated scf accuracy    <       0.00000320 Ry

     The total energy is the sum of the following terms:

     one-electron contribution =  -22624.24890840 Ry
     hartree contribution      =   11314.69741617 Ry
     xc contribution           =    -330.82670976 Ry
     ewald contribution        =    9274.66344062 Ry
     electric field correction =       0.00001489 Ry
     smearing contrib. (-TS)   =      -0.08874644 Ry

     convergence has been achieved in  26 iterations

 BEEF-vdW xc energy contributions
           1 :   -286.808567428000
           2 :    263.197185057449
           3 :   -222.277203516346
           4 :    174.095817526680
           5 :   -128.912631441260
           6 :    94.1362487648999
           7 :   -72.6195656025537
           8 :    62.7166938887984
           9 :   -59.8461926650878
          10 :    58.7819807146596
          11 :   -55.7070057160434
          12 :    49.2888256384848
          13 :   -40.5449846432296
          14 :    31.7917096523737
          15 :   -25.2781667978377
          16 :    22.1193890958031
          17 :   -21.9210282146914
          18 :    23.1458760985565
          19 :   -23.9505296021346
          20 :    23.0549796630568
          21 :   -20.2468244250030
          22 :    16.3334629915432
          23 :   -12.6289082846747
          24 :    10.2638551594177
          25 :   -9.65815760799302
          26 :    10.3860200248320
          27 :   -11.4589859243592
          28 :    11.8522708396529
          29 :   -11.0000044548692
          30 :    9.02471037862716
          31 :   -29.8946294486767
          32 :   -22.6584900344982

     Forces acting on atoms (Ry/au):

     negative rho (up, down):  9.190E-01 0.000E+00
     atom    1 type  1   force =    -0.00000700    0.00001855    0.02153847
     atom    2 type  1   force =     0.00000914    0.00008882    0.02732380
     atom    3 type  1   force =     0.00006253   -0.00005471    0.02731246
     atom    4 type  1   force =    -0.00005662   -0.00006426    0.02731431
     atom    5 type  1   force =    -0.00162204    0.00092787   -0.01426052
     atom    6 type  1   force =     0.00162927    0.00094350   -0.01426852
     atom    7 type  1   force =     0.00002055   -0.00001051   -0.05676572
     atom    8 type  1   force =    -0.00001394   -0.00185682   -0.01423758
     atom    9 type  1   force =    -0.00007371   -0.00002940   -0.00139360
     atom   10 type  1   force =     0.00006062   -0.00004098   -0.00144554
     atom   11 type  1   force =    -0.00001403    0.00006756   -0.00136419
     atom   12 type  1   force =     0.00001109    0.00000473   -0.00100533
     atom   13 type  2   force =    -0.00000586    0.00000564    0.00125196

     Total force =     0.080954     Total SCF correction =     0.011219
     SCF correction compared to forces is large: reduce conv_thr to get better values

     entering subroutine stress ...

     negative rho (up, down):  9.190E-01 0.000E+00
          total   stress  (Ry/bohr**3)                   (kbar)     P=  -19.85
  -0.00014909  -0.00000001  -0.00000003        -21.93     -0.00     -0.00
  -0.00000001  -0.00014910   0.00000002         -0.00    -21.93      0.00
  -0.00000003   0.00000002  -0.00010657         -0.00      0.00    -15.68

 !ASE

     Writing output data file calc.save

     General routines

     Parallel routines

   This run was terminated on:  15:23:46  21Jan2018

   JOB DONE.
Job  /afs/slac/g/suncat/bin/suncat-tsmpirun -x LD_LIBRARY_PATH -wdir /scratch/qe869931_9o7qb pw.x -in pw.inp

TID   HOST_NAME   COMMAND_LINE            STATUS            TERMINATION_TIME
00000 suncat0096 pw.x -in pw.inp   Done                     01/21/2018 15:23:46
00001 suncat0096 pw.x -in pw.inp   Done                     01/21/2018 15:23:46
00002 suncat0096 pw.x -in pw.inp   Done                     01/21/2018 15:23:46
00003 suncat0096 pw.x -in pw.inp   Done                     01/21/2018 15:23:46
00004 suncat0096 pw.x -in pw.inp   Done                     01/21/2018 15:23:46
00005 suncat0096 pw.x -in pw.inp   Done                     01/21/2018 15:23:46
00006 suncat0096 pw.x -in pw.inp   Done                     01/21/2018 15:23:46
00007 suncat0096 pw.x -in pw.inp   Done                     01/21/2018 15:23:46
00008 suncat0283 pw.x -in pw.inp   Done                     01/21/2018 15:23:46
00009 suncat0283 pw.x -in pw.inp   Done                     01/21/2018 15:23:46
00010 suncat0283 pw.x -in pw.inp   Done                     01/21/2018 15:23:46
00011 suncat0283 pw.x -in pw.inp   Done                     01/21/2018 15:23:46
00012 suncat0283 pw.x -in pw.inp   Done                     01/21/2018 15:23:46
00013 suncat0283 pw.x -in pw.inp   Done                     01/21/2018 15:23:46
00014 suncat0283 pw.x -in pw.inp   Done                     01/21/2018 15:23:46
00015 suncat0283 pw.x -in pw.inp   Done                     01/21/2018 15:23:46
00016 suncat0282 pw.x -in pw.inp   Done                     01/21/2018 15:23:46
00017 suncat0282 pw.x -in pw.inp   Done                     01/21/2018 15:23:46
00018 suncat0282 pw.x -in pw.inp   Done                     01/21/2018 15:23:46
00019 suncat0282 pw.x -in pw.inp   Done                     01/21/2018 15:23:46
00020 suncat0282 pw.x -in pw.inp   Done                     01/21/2018 15:23:46
00021 suncat0282 pw.x -in pw.inp   Done                     01/21/2018 15:23:46
00022 suncat0282 pw.x -in pw.inp   Done                     01/21/2018 15:23:46
00023 suncat0282 pw.x -in pw.inp   Done                     01/21/2018 15:23:46
00024 suncat0272 pw.x -in pw.inp   Done                     01/21/2018 15:23:46
00025 suncat0272 pw.x -in pw.inp   Done                     01/21/2018 15:23:46
00026 suncat0272 pw.x -in pw.inp   Done                     01/21/2018 15:23:46
00027 suncat0272 pw.x -in pw.inp   Done                     01/21/2018 15:23:46
00028 suncat0272 pw.x -in pw.inp   Done                     01/21/2018 15:23:46
00029 suncat0272 pw.x -in pw.inp   Done                     01/21/2018 15:23:46
00030 suncat0272 pw.x -in pw.inp   Done                     01/21/2018 15:23:46
00031 suncat0272 pw.x -in pw.inp   Done                     01/21/2018 15:23:46