     Program PWSCF v.5.1rc2 (svn rev. 11289) starts on  2May2018 at 17:23:11

     Current dimensions of program PWSCF are:
     Max number of different atomic species (ntypx) = 10
     Max number of k-points (npk) =  40000
     Max angular momentum in pseudopotentials (lmaxx) =  3
     Presently stress not available with electric field

     IMPORTANT: XC functional enforced from input :
     Exchange-correlation      = BEEF-VDW ( 1  4 27 13 2)
     Any further DFT definition will be discarded
     Please, verify this is what you really want

     Subspace diagonalization in iterative solution of the eigenvalue problem:
     a serial algorithm will be used

     bravais-lattice index     =            0
     lattice parameter (alat)  =       1.8897  a.u.
     unit-cell volume          =    4301.6107 (a.u.)^3
     number of atoms/cell      =           13
     number of atomic types    =            2
     number of electrons       =       186.00
     number of Kohn-Sham states=          103
     kinetic-energy cutoff     =      36.7493  Ry
     charge density cutoff     =     367.4932  Ry
     convergence threshold     =      1.0E-05
     mixing beta               =       0.3000
     number of iterations used =           10  plain     mixing
     Exchange-correlation      = BEEF-VDW ( 1  4 27 13 2)
     nstep                     =           50

     celldm(1)=   1.889726  celldm(2)=   0.000000  celldm(3)=   0.000000
     celldm(4)=   0.000000  celldm(5)=   0.000000  celldm(6)=   0.000000

     crystal axes: (cart. coord. in units of alat)
               a(1) = (   5.483647   0.000000   0.000000 )
               a(2) = (   2.741823   4.748977   0.000000 )
               a(3) = (   0.000000   0.000000  24.477379 )

     reciprocal axes: (cart. coord. in units 2 pi/alat)
               b(1) = (  0.182360 -0.105286  0.000000 )
               b(2) = (  0.000000  0.210572  0.000000 )
               b(3) = (  0.000000  0.000000  0.040854 )

     PseudoPot. # 1 for Tc read from file:
     /u/if/mamunm/psp/gbrv1.5pbe/Tc.UPF
     MD5 check sum: 9eb49e5b028550b2339a02317eb7b844
     Pseudo is Ultrasoft + core correction, Zval = 15.0
     Generated by new atomic code, or converted to UPF format
     Using radial grid of  965 points,  6 beta functions with:
                l(1) =   0
                l(2) =   0
                l(3) =   1
                l(4) =   1
                l(5) =   2
                l(6) =   2
     Q(r) pseudized with  8 coefficients,  rinner =    1.300   1.300   1.300
                                                       1.300   1.300

     PseudoPot. # 2 for S  read from file:
     /u/if/mamunm/psp/gbrv1.5pbe/S.UPF
     MD5 check sum: 88d86576ff6df21479756cfb9bdac1df
     Pseudo is Ultrasoft + core correction, Zval =  6.0
     Generated by new atomic code, or converted to UPF format
     Using radial grid of  907 points,  6 beta functions with:
                l(1) =   0
                l(2) =   0
                l(3) =   1
                l(4) =   1
                l(5) =   2
                l(6) =   2
     Q(r) pseudized with  8 coefficients,  rinner =    1.300   1.300   1.300
                                                       1.300   1.300

     vdW kernel table read from file vdW_kernel_table
     MD5 check sum: 095c7af220d748ca6e76c0b4c6cfb241

     atomic species   valence    mass     pseudopotential
        Tc1           15.00    97.90721     Tc( 1.00)
        S1             6.00    32.06000     S ( 1.00)

     No symmetry found

   Cartesian axes

     site n.     atom                  positions (alat units)
         1           Tc1 tau(   1) = (   1.3709117   0.7914962  10.0000000  )
         2           Tc1 tau(   2) = (   4.1127351   0.7914962  10.0000000  )
         3           Tc1 tau(   3) = (   2.7418234   3.1659850  10.0000000  )
         4           Tc1 tau(   4) = (   5.4836469   3.1659850  10.0000000  )
         5           Tc1 tau(   5) = (   5.4836469   1.5829925  12.2386895  )
         6           Tc1 tau(   6) = (   2.7418234   1.5829925  12.2386895  )
         7           Tc1 tau(   7) = (   6.8545586   3.9574812  12.2386895  )
         8           Tc1 tau(   8) = (   4.1127351   3.9574812  12.2386895  )
         9           Tc1 tau(   9) = (   0.0000000   0.0000000  14.4773789  )
        10           Tc1 tau(  10) = (   2.7418234   0.0000000  14.4773789  )
        11           Tc1 tau(  11) = (   1.3709117   2.3744887  14.4773789  )
        12           Tc1 tau(  12) = (   4.1127351   2.3744887  14.4773789  )
        13           S1  tau(  13) = (   1.3709117   0.7914962  16.1153789  )

     number of k points=    20  Fermi-Dirac smearing, width (Ry)=  0.0110
                       cart. coord. in units 2pi/alat
        k(    1) = (   0.0000000   0.0000000   0.0000000), wk =   0.0555556
        k(    2) = (   0.0000000   0.0350953   0.0000000), wk =   0.1111111
        k(    3) = (   0.0000000   0.0701905   0.0000000), wk =   0.1111111
        k(    4) = (   0.0000000  -0.1052858   0.0000000), wk =   0.0555556
        k(    5) = (   0.0303934  -0.0175476   0.0000000), wk =   0.1111111
        k(    6) = (   0.0303934   0.0175476   0.0000000), wk =   0.1111111
        k(    7) = (   0.0303934   0.0526429   0.0000000), wk =   0.1111111
        k(    8) = (   0.0303934  -0.1228335   0.0000000), wk =   0.1111111
        k(    9) = (   0.0303934  -0.0877382   0.0000000), wk =   0.1111111
        k(   10) = (   0.0303934  -0.0526429   0.0000000), wk =   0.1111111
        k(   11) = (   0.0607868  -0.0350953   0.0000000), wk =   0.1111111
        k(   12) = (   0.0607868   0.0000000   0.0000000), wk =   0.1111111
        k(   13) = (   0.0607868   0.0350953   0.0000000), wk =   0.1111111
        k(   14) = (   0.0607868  -0.1403811   0.0000000), wk =   0.1111111
        k(   15) = (   0.0607868  -0.1052858   0.0000000), wk =   0.1111111
        k(   16) = (   0.0607868  -0.0701905   0.0000000), wk =   0.1111111
        k(   17) = (  -0.0911802   0.0526429   0.0000000), wk =   0.0555556
        k(   18) = (  -0.0911802   0.0877382   0.0000000), wk =   0.1111111
        k(   19) = (  -0.0911802   0.1228335   0.0000000), wk =   0.1111111
        k(   20) = (  -0.0911802  -0.0526429   0.0000000), wk =   0.0555556

     Largest allocated arrays     est. size (Mb)     dimensions
     Largest temporary arrays     est. size (Mb)     dimensions

     Check: negative/imaginary core charge=   -0.000022    0.000000

     Initial potential from superposition of free atoms
     Check: negative starting charge=   -1.504626

     starting charge  173.99963, renormalised to  186.00000

     negative rho (up, down):  1.608E+00 0.000E+00

     *
     * You are using vdW-DF for exchange-correlation in this calculation.
     * Please cite the following three references that made this development
     * possible:
     *
     *   M. Dion, H. Rydberg, E. Schroder, D. C. Langreth, and
     *   B. I. Lundqvist, Phys. Rev. Lett. 92, 246401 (2004).
     *
     *   T. Thonhauser, V. R. Cooper, S. Li, A. Puzder, P. Hyldgaard, and
     *   D. C. Langreth, Phys. Rev. B 76, 125112 (2007).
     *
     *   G. Roman-Perez and J. M. Soler, Phys. Rev. Lett. 103, 096102 (2009).
     *
     *
     * If you are using vdW-DF2, please also cite:
     *
     *   K. Lee, E. D. Murray, L. Kong, B. I. Lundqvist, and
     *   D. C. Langreth, Phys. Rev. B 82, 081101(R) (2010).
     *
     *
     * If you are calculating the stress with vdW-DF, please also cite:
     *
     *   R. Sabatini, E. Kucukbenli, B. Kolb, T. Thonhauser, and
     *   S. de Gironcoli, J. Phys.: Condens. Matter 24, 424209 (2012).
     *

     Carrying out vdW-DF run using the following parameters:

     Nqs =      20    Nr_points =    1024   r_max =   100.000
     q_mesh =
               0.00001000     0.04494208     0.09755937     0.15916263
               0.23128650     0.31572767     0.41458969     0.53033537
               0.66584808     0.82450364     1.01025438     1.22772762
               1.48234092     1.78043706     2.12944203     2.53805004
               3.01644009     3.57652955     4.23227104     5.00000000

     Gradients computed in reciprocal space

     Adding external electric field

     Computed dipole along edir(3) :
        Dipole               -3.0312 Ry au,         -7.7046 Debye
        Dipole field         -0.0089 Ry au

        Potential amp.        0.7987 Ry
        Total length         45.0992 bohr

     Starting wfc are  160 randomized atomic wfcs

     Self-consistent Calculation

     iteration #  1     ecut=    36.75 Ry     beta=0.30
     Davidson diagonalization with overlap
     ethr =  1.00E-02,  avg # of iterations =  8.4

[...]

     total energy              =   -1900.91172679 Ry
     Harris-Foulkes estimate   =   -2123.68721363 Ry
     estimated scf accuracy    <     469.52247181 Ry

[...]

     End of self-consistent calculation

          k = 0.0000 0.0000 0.0000 ( 16073 PWs)   bands (ev):

   -64.6233 -64.4783 -64.4691 -64.4688 -64.4475 -64.3731 -64.3690 -64.3686
   -64.2978 -64.2610 -64.2448 -64.2443 -37.0790 -37.0491 -37.0490 -37.0361
   -36.9406 -36.9102 -36.9101 -36.7823 -36.7792 -36.7790 -36.4736 -36.4553
   -36.4551 -36.4005 -36.3583 -36.3581 -36.3332 -36.3260 -36.3259 -36.3228
   -36.1944 -36.1942 -36.1854 -36.1482 -36.1468 -36.1466 -36.1107 -36.0876
   -36.0875 -36.0395 -36.0388 -36.0387 -35.9473 -35.9472 -35.8428 -35.8427
   -10.8328  -3.8213  -3.0324  -2.8308  -2.8307  -2.5467  -2.4367  -2.3612
    -2.3317  -2.3317  -2.0834  -1.9618  -1.9618  -1.7936  -1.7936  -1.7028
    -1.1355  -1.1354  -0.7887  -0.0468  -0.0468   0.3781   0.3832   0.3832
     0.6448   0.8482   0.9643   0.9643   1.2401   1.2515   1.2515   1.3579
     1.4151   1.4151   1.4874   1.4874   1.9727   2.1070   2.1072   2.7298
     2.9451   2.9452   2.9553   3.3022   3.3023   3.3927   3.3928   3.6661
     3.7833   3.7833   4.1287   4.5437   4.5438   4.6576   4.7280

[...]

          k =-0.0912 0.0526 0.0000 ( 16164 PWs)   bands (ev):

[...]

     the Fermi energy is     2.6498 ev

!    total energy              =   -2127.92588862 Ry
     Harris-Foulkes estimate   =   -2127.92589186 Ry
     estimated scf accuracy    <       0.00000201 Ry

     The total energy is the sum of the following terms:

     one-electron contribution =  -19123.94829204 Ry
     hartree contribution      =    9564.01291264 Ry
     xc contribution           =    -405.96663312 Ry
     ewald contribution        =    7838.06400275 Ry
     electric field correction =       0.00000348 Ry
     smearing contrib. (-TS)   =      -0.08788233 Ry

     convergence has been achieved in  26 iterations

 BEEF-vdW xc energy contributions
           1 :   -355.526690162194
           2 :    326.739837562984
           3 :   -275.549634740736
           4 :    212.242053342174
           5 :   -147.806339017368
           6 :    90.9205580997084
           7 :   -46.2405851635842
           8 :    14.2395572253392
           9 :    7.53789862111017
          10 :   -22.5724168633946
          11 :    33.6079595924881
          12 :   -41.7235380434549
          13 :    46.3885431344956
          14 :   -46.3086360450335
          15 :    40.5334450978085
          16 :   -29.3239605345871
          17 :    14.4092873367547
          18 :    1.41738937092896
          19 :   -15.1555503282514
          20 :    24.5040980576497
          21 :   -28.4575200741564
          22 :    27.3752400469854
          23 :   -22.5745663943080
          24 :    15.6798050743233
          25 :   -8.04621985408539
          26 :   0.482251117344958
          27 :    6.67246998982290
          28 :   -13.2421038510716
          29 :    18.8988058862204
          30 :   -23.0305835224170
          31 :   -33.9885497611006
          32 :   -24.9386097065189

     Forces acting on atoms (Ry/au):

     negative rho (up, down):  1.590E+00 0.000E+00
     atom    1 type  1   force =     0.00000012   -0.00000811    0.02948807
     atom    2 type  1   force =    -0.00000464   -0.00642366    0.03126444
     atom    3 type  1   force =    -0.00554990    0.00320935    0.03126894
     atom    4 type  1   force =     0.00555192    0.00321511    0.03125766
     atom    5 type  1   force =    -0.00355752    0.00209833    0.00204272
     atom    6 type  1   force =     0.00355498    0.00211574    0.00203188
     atom    7 type  1   force =     0.00000340   -0.00005439   -0.07469524
     atom    8 type  1   force =     0.00000278   -0.00416604    0.00197910
     atom    9 type  1   force =    -0.02935607   -0.01695262   -0.02771626
     atom   10 type  1   force =     0.02935918   -0.01696261   -0.02773454
     atom   11 type  1   force =    -0.00000433    0.03391417   -0.02773191
     atom   12 type  1   force =     0.00000544    0.00000451   -0.04876019
     atom   13 type  2   force =    -0.00000539    0.00001023    0.07730533

     Total force =     0.118782     Total SCF correction =     0.000401

     entering subroutine stress ...

     negative rho (up, down):  1.590E+00 0.000E+00
          total   stress  (Ry/bohr**3)                   (kbar)     P=  -23.08
  -0.00016662  -0.00000000  -0.00000000        -24.51     -0.00     -0.00
  -0.00000000  -0.00016666   0.00000002         -0.00    -24.52      0.00
  -0.00000000   0.00000002  -0.00013748         -0.00      0.00    -20.22

     BFGS Geometry Optimization

     number of scf cycles    =   1
     number of bfgs steps    =   0

     energy   new            =   -2127.9258886241 Ry

     new trust radius        =       0.0773053312 bohr
     new conv_thr            =       0.0000099958 Ry

ATOMIC_POSITIONS (crystal)
Tc1      0.166666667   0.166666667   0.408540475    0   0   0
Tc1      0.666666667   0.166666667   0.408540475    0   0   0
Tc1      0.166666667   0.666666667   0.408540475    0   0   0
Tc1      0.666666667   0.666666667   0.408540475    0   0   0
Tc1      0.833333333   0.333333333   0.500000000    0   0   0
Tc1      0.333333333   0.333333333   0.500000000    0   0   0
Tc1      0.833333333   0.833333333   0.500000000    0   0   0
Tc1      0.333333333   0.833333333   0.500000000    0   0   0
Tc1     -0.001888376  -0.001889026   0.590860327
Tc1      0.503778259  -0.001890139   0.590859931
Tc1     -0.001889941   0.503779046   0.590859988
Tc1      0.500000274   0.500000503   0.590405377
S1       0.166665577   0.166667806   0.660049721

     Writing output data file calc.save
     Check: negative starting charge=   -1.504626
     NEW-OLD atomic charge density approx. for the potential

     Check: negative/imaginary core charge=   -0.000022    0.000000
     Check: negative starting charge=   -1.507016

[...]

     energy   old            =   -2127.9258886241 Ry
     energy   new            =   -2127.9361997235 Ry

     CASE: energy  _new < energy  _old

[...]

     iteration #  1     ecut=    36.75 Ry     beta=0.30
     Davidson diagonalization with overlap
     c_bands:  1 eigenvalues not converged
     ethr =  1.00E-06,  avg # of iterations = 12.3

[...]

     Total force =     0.010789     Total SCF correction =     0.000739

[...]

     number of scf cycles    =   6
     number of bfgs steps    =   5

     energy   old            =   -2127.9436347944 Ry
     energy   new            =   -2127.9441056962 Ry

     CASE: energy  _new < energy  _old

     new trust radius        =       0.0111599840 bohr
     new conv_thr            =       0.0000001000 Ry

ATOMIC_POSITIONS (crystal)
Tc1      0.166666667   0.166666667   0.408540475    0   0   0
Tc1      0.666666667   0.166666667   0.408540475    0   0   0
Tc1      0.166666667   0.666666667   0.408540475    0   0   0
Tc1      0.666666667   0.666666667   0.408540475    0   0   0
Tc1      0.833333333   0.333333333   0.500000000    0   0   0
Tc1      0.333333333   0.333333333   0.500000000    0   0   0
Tc1      0.833333333   0.833333333   0.500000000    0   0   0
Tc1      0.333333333   0.833333333   0.500000000    0   0   0
Tc1     -0.002142674  -0.002137893   0.590720885
Tc1      0.504279692  -0.002137910   0.590720931
Tc1     -0.002141077   0.504281145   0.590720122
Tc1      0.499999853   0.500001183   0.584383273
S1       0.166663833   0.166670323   0.662000542

     Writing output data file calc.save
     Check: negative starting charge=   -1.502903
     NEW-OLD atomic charge density approx. for the potential

     Check: negative/imaginary core charge=   -0.000022    0.000000
     Check: negative starting charge=   -1.504082

[...]

     Self-consistent Calculation

[...]

     total energy              =   -2127.94422858 Ry
     Harris-Foulkes estimate   =   -2127.94422858 Ry
     estimated scf accuracy    <       0.00000013 Ry

     iteration # 13     ecut=    36.75 Ry     beta=0.30
     Davidson diagonalization with overlap
     ethr =  7.19E-11,  avg # of iterations =  1.0

[...]

     negative rho (up, down):  1.589E+00 0.000E+00

     Adding external electric field

     Computed dipole along edir(3) :
        Dipole               -0.0738 Ry au,         -0.1875 Debye
        Dipole field         -0.0002 Ry au

        Potential amp.        0.0194 Ry
        Total length         45.0992 bohr

     End of self-consistent calculation

[...]

          k = 0.0608-0.0702 0.0000 ( 16203 PWs)   bands (ev):

[...]

          k =-0.0912-0.0526 0.0000 ( 16164 PWs)   bands (ev):

   -64.6279 -64.6166 -64.5401 -64.5330 -64.4816 -64.4613 -64.4221 -64.3925
   -64.3850 -64.3660 -64.3192 -64.3054 -37.0384 -36.9637 -36.9609 -36.9106
   -36.9034 -36.8987 -36.7579 -36.7400 -36.7135 -36.6748 -36.6680 -36.6455
   -36.5104 -36.4904 -36.4586 -36.4285 -36.4098 -36.4074 -36.3916 -36.3802
   -36.3451 -36.3415 -36.3189 -36.3044 -36.3012 -36.2893 -36.2770 -36.2755
   -36.1967 -36.1924 -36.1566 -36.1312 -36.1195 -36.0813 -36.0157 -35.9949
   -10.4387  -2.6252  -2.3946  -2.1272  -1.8853  -1.7946  -1.6956  -1.5921
    -1.5678  -1.5220  -1.3771  -1.2872  -1.1544  -1.0276  -0.8296  -0.7662
    -0.7608  -0.6459  -0.5809  -0.4506  -0.2057  -0.1091   0.0592   0.0982
     0.1333   0.2216   0.5325   0.7156   0.8532   0.8832   1.1029   1.1533
     1.1601   1.2214   1.2831   1.3617   1.4007   1.4263   1.4757   1.5859
     1.6005   1.9089   1.9971   2.3370   2.3752   2.4659   2.5462   2.5508
     2.8382   3.0099   3.0299   3.1204   3.1877   3.2432   3.2687

     the Fermi energy is     2.5944 ev

!    total energy              =   -2127.94422854 Ry
     Harris-Foulkes estimate   =   -2127.94422854 Ry
     estimated scf accuracy    <       0.00000005 Ry

     The total energy is the sum of the following terms:

     one-electron contribution =  -19231.96768513 Ry
     hartree contribution      =    9617.65411734 Ry
     xc contribution           =    -405.98386375 Ry
     ewald contribution        =    7892.43962072 Ry
     electric field correction =       0.00001590 Ry
     smearing contrib. (-TS)   =      -0.08643361 Ry

     convergence has been achieved in  13 iterations

 BEEF-vdW xc energy contributions
           1 :   -355.544997194995
           2 :    326.764388445866
           3 :   -275.585532033394
           4 :    212.283059558550
           5 :   -147.830824877638
           6 :    90.9031394622660
           7 :   -46.1690690762786
           8 :    14.1254214999108
           9 :    7.66036303069825
          10 :   -22.6577542413914
          11 :    33.6185489362312
          12 :   -41.6465676370705
          13 :    46.2442802807400
          14 :   -46.1427592980889
          15 :    40.3969189292292
          16 :   -29.2494829071093
          17 :    14.3953837659126
          18 :    1.40506783058527
          19 :   -15.1654103531167
          20 :    24.5717418431054
          21 :   -28.5838122975395
          22 :    27.5220914421723
          23 :   -22.6828921266298
          24 :    15.6992410135691
          25 :   -7.96138904056943
          26 :   0.322040206482484
          27 :    6.84693244256744
          28 :   -13.3656619500371
          29 :    18.9328861607502
          30 :   -22.9802262009857
          31 :   -33.9898365035243
          32 :   -24.9403156918927

     Forces acting on atoms (Ry/au):

     negative rho (up, down):  1.589E+00 0.000E+00
     atom    1 type  1   force =    -0.00000163    0.00000115    0.02409192
     atom    2 type  1   force =     0.00000172   -0.00688090    0.02522935
     atom    3 type  1   force =    -0.00595789    0.00344059    0.02523571
     atom    4 type  1   force =     0.00595966    0.00343977    0.02522833
     atom    5 type  1   force =     0.00185274   -0.00106866   -0.00921599
     atom    6 type  1   force =    -0.00185299   -0.00106939   -0.00921059
     atom    7 type  1   force =     0.00000040   -0.00000015   -0.07854571
     atom    8 type  1   force =     0.00000017    0.00214051   -0.00921079
     atom    9 type  1   force =    -0.00006152   -0.00003780    0.00131481
     atom   10 type  1   force =     0.00006007   -0.00003738    0.00131709
     atom   11 type  1   force =     0.00000002    0.00007161    0.00132011
     atom   12 type  1   force =     0.00000027    0.00000165    0.00098509
     atom   13 type  2   force =    -0.00000101   -0.00000097    0.00146067

     Total force =     0.002885     Total SCF correction =     0.000919
     SCF correction compared to forces is large: reduce conv_thr to get better values

     entering subroutine stress ...

     negative rho (up, down):  1.589E+00 0.000E+00
          total   stress  (Ry/bohr**3)                   (kbar)     P=  -22.17
  -0.00017248  -0.00000000   0.00000000        -25.37     -0.00      0.00
  -0.00000000  -0.00017247  -0.00000000         -0.00    -25.37     -0.00
   0.00000000  -0.00000000  -0.00010727          0.00     -0.00    -15.78

     bfgs converged in   7 scf cycles and   6 bfgs steps
     (criteria: energy <  1.0E+00, force <  1.9E-03)

     End of BFGS Geometry Optimization

     Final energy   =   -2127.9442285375 Ry
Begin final coordinates

ATOMIC_POSITIONS (crystal)
Tc1      0.166666667   0.166666667   0.408540475    0   0   0
Tc1      0.666666667   0.166666667   0.408540475    0   0   0
Tc1      0.166666667   0.666666667   0.408540475    0   0   0
Tc1      0.666666667   0.666666667   0.408540475    0   0   0
Tc1      0.833333333   0.333333333   0.500000000    0   0   0
Tc1      0.333333333   0.333333333   0.500000000    0   0   0
Tc1      0.833333333   0.833333333   0.500000000    0   0   0
Tc1      0.333333333   0.833333333   0.500000000    0   0   0
Tc1     -0.002142674  -0.002137893   0.590720885
Tc1      0.504279692  -0.002137910   0.590720931
Tc1     -0.002141077   0.504281145   0.590720122
Tc1      0.499999853   0.500001183   0.584383273
S1       0.166663833   0.166670323   0.662000542
End final coordinates

     Writing output data file calc.save

     General routines

     Parallel routines

   This run was terminated on:  18:16:19   2May2018

   JOB DONE.
Job  /afs/slac/g/suncat/bin/suncat-tsmpirun -x LD_LIBRARY_PATH -wdir /scratch/qe809441_N0eR1 pw.x -npool 4 -in pw.inp

TID   HOST_NAME   COMMAND_LINE            STATUS            TERMINATION_TIME
00000 suncat0076 pw.x -npool 4 -i  Done                     05/02/2018 18:16:19
00001 suncat0076 pw.x -npool 4 -i  Done                     05/02/2018 18:16:19
00002 suncat0076 pw.x -npool 4 -i  Done                     05/02/2018 18:16:19
00003 suncat0076 pw.x -npool 4 -i  Done                     05/02/2018 18:16:19
00004 suncat0076 pw.x -npool 4 -i  Done                     05/02/2018 18:16:19
00005 suncat0076 pw.x -npool 4 -i  Done                     05/02/2018 18:16:19
00006 suncat0076 pw.x -npool 4 -i  Done                     05/02/2018 18:16:19
00007 suncat0076 pw.x -npool 4 -i  Done                     05/02/2018 18:16:19
00008 suncat0073 pw.x -npool 4 -i  Done                     05/02/2018 18:16:19
00009 suncat0073 pw.x -npool 4 -i  Done                     05/02/2018 18:16:19
00010 suncat0073 pw.x -npool 4 -i  Done                     05/02/2018 18:16:19
00011 suncat0073 pw.x -npool 4 -i  Done                     05/02/2018 18:16:19
00012 suncat0073 pw.x -npool 4 -i  Done                     05/02/2018 18:16:19
00013 suncat0073 pw.x -npool 4 -i  Done                     05/02/2018 18:16:19
00014 suncat0073 pw.x -npool 4 -i  Done                     05/02/2018 18:16:19
00015 suncat0073 pw.x -npool 4 -i  Done                     05/02/2018 18:16:19
00016 suncat0071 pw.x -npool 4 -i  Done                     05/02/2018 18:16:19
00017 suncat0071 pw.x -npool 4 -i  Done                     05/02/2018 18:16:19
00018 suncat0071 pw.x -npool 4 -i  Done                     05/02/2018 18:16:19
00019 suncat0071 pw.x -npool 4 -i  Done                     05/02/2018 18:16:19
00020 suncat0071 pw.x -npool 4 -i  Done                     05/02/2018 18:16:19
00021 suncat0071 pw.x -npool 4 -i  Done                     05/02/2018 18:16:19
00022 suncat0071 pw.x -npool 4 -i  Done                     05/02/2018 18:16:19
00023 suncat0071 pw.x -npool 4 -i  Done                     05/02/2018 18:16:19
00024 suncat0068 pw.x -npool 4 -i  Done                     05/02/2018 18:16:19
00025 suncat0068 pw.x -npool 4 -i  Done                     05/02/2018 18:16:19
00026 suncat0068 pw.x -npool 4 -i  Done                     05/02/2018 18:16:19
00027 suncat0068 pw.x -npool 4 -i  Done                     05/02/2018 18:16:19
00028 suncat0068 pw.x -npool 4 -i  Done                     05/02/2018 18:16:19
00029 suncat0068 pw.x -npool 4 -i  Done                     05/02/2018 18:16:19
00030 suncat0068 pw.x -npool 4 -i  Done                     05/02/2018 18:16:19
00031 suncat0068 pw.x -npool 4 -i  Done                     05/02/2018 18:16:19