     Program PWSCF v.5.1rc2 (svn rev. 11289) starts on 14Jan2018 at 15:16: 3

     Current dimensions of program PWSCF are:
     Max number of different atomic species (ntypx) = 10
     Max number of k-points (npk) =  40000
     Max angular momentum in pseudopotentials (lmaxx) =  3
     Presently stress not available with electric field

     IMPORTANT: XC functional enforced from input :
     Exchange-correlation      = BEEF-VDW ( 1  4 27 13 2)
     Any further DFT definition will be discarded
     Please, verify this is what you really want

     Subspace diagonalization in iterative solution of the eigenvalue problem:
     a serial algorithm will be used

     bravais-lattice index     =            0
     lattice parameter (alat)  =       1.8897  a.u.
     unit-cell volume          =    4552.2840 (a.u.)^3
     number of atoms/cell      =           13
     number of atomic types    =            2
     number of electrons       =       174.00
     number of Kohn-Sham states=           97
     kinetic-energy cutoff     =      36.7493  Ry
     charge density cutoff     =     367.4932  Ry
     convergence threshold     =      1.0E-05
     mixing beta               =       0.3000
     number of iterations used =           10  plain     mixing
     Exchange-correlation      = BEEF-VDW ( 1  4 27 13 2)
     nstep                     =           50

     celldm(1)=   1.889726  celldm(2)=   0.000000  celldm(3)=   0.000000
     celldm(4)=   0.000000  celldm(5)=   0.000000  celldm(6)=   0.000000

     crystal axes: (cart. coord. in units of alat)
               a(1) = (   5.627661   0.000000   0.000000 )
               a(2) = (   2.813831   4.873698   0.000000 )
               a(3) = (   0.000000   0.000000  24.594966 )

     reciprocal axes: (cart. coord. in units 2 pi/alat)
               b(1) = (  0.177694 -0.102592  0.000000 )
               b(2) = (  0.000000  0.205183  0.000000 )
               b(3) = (  0.000000  0.000000  0.040659 )

     PseudoPot. # 1 for Mo read from file:
     /afs/slac.stanford.edu/u/if/mamunm/psp/gbrv1.5pbe/Mo.UPF
     MD5 check sum: 30c4dcd161f5d35cd49bb5239c51a633
     Pseudo is Ultrasoft + core correction, Zval = 14.0
     Generated by new atomic code, or converted to UPF format
     Using radial grid of  889 points,  6 beta functions with:
                l(1) =   0
                l(2) =   0
                l(3) =   1
                l(4) =   1
                l(5) =   2
                l(6) =   2
     Q(r) pseudized with  6 coefficients,  rinner =    1.000   1.000   1.000
                                                       1.000   1.000

     PseudoPot. # 2 for O  read from file:
     /afs/slac.stanford.edu/u/if/mamunm/psp/gbrv1.5pbe/O.UPF
     MD5 check sum: 734c27235a0248c51dbae37a1fbe46ec
     Pseudo is Ultrasoft + core correction, Zval =  6.0
     Generated by new atomic code, or converted to UPF format
     Using radial grid of  737 points,  5 beta functions with:
                l(1) =   0
                l(2) =   0
                l(3) =   1
                l(4) =   1
                l(5) =   2
     Q(r) pseudized with  8 coefficients,  rinner =    0.900   0.900   0.900
                                                       0.900   0.900

     vdW kernel table read from file vdW_kernel_table
     MD5 check sum: 095c7af220d748ca6e76c0b4c6cfb241

     atomic species   valence    mass     pseudopotential
        Mo1           14.00    95.95000     Mo( 1.00)
        O1             6.00    15.99900     O ( 1.00)

     No symmetry found

   Cartesian axes

     site n.     atom                  positions (alat units)
         1           Mo1 tau(   1) = (   1.4069153   0.8122829  10.0000000  )
         2           Mo1 tau(   2) = (   4.2207459   0.8122829  10.0000000  )
         3           Mo1 tau(   3) = (   2.8138306   3.2491317  10.0000000  )
         4           Mo1 tau(   4) = (   5.6276612   3.2491317  10.0000000  )
         5           Mo1 tau(   5) = (   5.6276612   1.6245658  12.2974831  )
         6           Mo1 tau(   6) = (   2.8138306   1.6245658  12.2974831  )
         7           Mo1 tau(   7) = (   7.0345765   4.0614146  12.2974831  )
         8           Mo1 tau(   8) = (   4.2207459   4.0614146  12.2974831  )
         9           Mo1 tau(   9) = (   0.0000000   0.0000000  14.5949661  )
        10           Mo1 tau(  10) = (   2.8138306   0.0000000  14.5949661  )
        11           Mo1 tau(  11) = (   1.4069153   2.4368488  14.5949661  )
        12           Mo1 tau(  12) = (   4.2207459   2.4368488  14.5949661  )
        13           O1  tau(  13) = (   1.4069153   0.8122829  16.7949661  )

     number of k points=    20  Fermi-Dirac smearing, width (Ry)=  0.0110
                       cart. coord. in units 2pi/alat
        k(    1) = (   0.0000000   0.0000000   0.0000000), wk =   0.0555556
        k(    2) = (   0.0000000   0.0341972   0.0000000), wk =   0.1111111
        k(    3) = (   0.0000000   0.0683943   0.0000000), wk =   0.1111111
        k(    4) = (   0.0000000  -0.1025915   0.0000000), wk =   0.0555556
        k(    5) = (   0.0296156  -0.0170986   0.0000000), wk =   0.1111111
        k(    6) = (   0.0296156   0.0170986   0.0000000), wk =   0.1111111
        k(    7) = (   0.0296156   0.0512958   0.0000000), wk =   0.1111111
        k(    8) = (   0.0296156  -0.1196901   0.0000000), wk =   0.1111111
        k(    9) = (   0.0296156  -0.0854929   0.0000000), wk =   0.1111111
        k(   10) = (   0.0296156  -0.0512958   0.0000000), wk =   0.1111111
        k(   11) = (   0.0592312  -0.0341972   0.0000000), wk =   0.1111111
        k(   12) = (   0.0592312   0.0000000   0.0000000), wk =   0.1111111
        k(   13) = (   0.0592312   0.0341972   0.0000000), wk =   0.1111111
        k(   14) = (   0.0592312  -0.1367887   0.0000000), wk =   0.1111111
        k(   15) = (   0.0592312  -0.1025915   0.0000000), wk =   0.1111111
        k(   16) = (   0.0592312  -0.0683943   0.0000000), wk =   0.1111111
        k(   17) = (  -0.0888469   0.0512958   0.0000000), wk =   0.0555556
        k(   18) = (  -0.0888469   0.0854929   0.0000000), wk =   0.1111111
        k(   19) = (  -0.0888469   0.1196901   0.0000000), wk =   0.1111111
        k(   20) = (  -0.0888469  -0.0512958   0.0000000), wk =   0.0555556

     Largest allocated arrays     est. size (Mb)     dimensions
     Largest temporary arrays     est. size (Mb)     dimensions

     Initial potential from superposition of free atoms
     Check: negative starting charge=   -0.005000

     starting charge  173.98724, renormalised to  174.00000

     negative rho (up, down):  5.001E-03 0.000E+00

     *
     * You are using vdW-DF for exchange-correlation in this calculation.
     * Please cite the following three references that made this development
     * possible:
     *
     *   M. Dion, H. Rydberg, E. Schroder, D. C. Langreth, and
     *   B. I. Lundqvist, Phys. Rev. Lett. 92, 246401 (2004).
     *
     *   T. Thonhauser, V. R. Cooper, S. Li, A. Puzder, P. Hyldgaard, and
     *   D. C. Langreth, Phys. Rev. B 76, 125112 (2007).
     *
     *   G. Roman-Perez and J. M. Soler, Phys. Rev. Lett. 103, 096102 (2009).
     *
     *
     * If you are using vdW-DF2, please also cite:
     *
     *   K. Lee, E. D. Murray, L. Kong, B. I. Lundqvist, and
     *   D. C. Langreth, Phys. Rev. B 82, 081101(R) (2010).
     *
     *
     * If you are calculating the stress with vdW-DF, please also cite:
     *
     *   R. Sabatini, E. Kucukbenli, B. Kolb, T. Thonhauser, and
     *   S. de Gironcoli, J. Phys.: Condens. Matter 24, 424209 (2012).
     *

     Carrying out vdW-DF run using the following parameters:

     Nqs =      20    Nr_points =    1024   r_max =   100.000
     q_mesh =
               0.00001000     0.04494208     0.09755937     0.15916263
               0.23128650     0.31572767     0.41458969     0.53033537
               0.66584808     0.82450364     1.01025438     1.22772762
               1.48234092     1.78043706     2.12944203     2.53805004
               3.01644009     3.57652955     4.23227104     5.00000000

     Gradients computed in reciprocal space

     Adding external electric field

     Computed dipole along edir(3) :
        Dipole               -0.0037 Ry au,         -0.0095 Debye
        Dipole field         -0.0000 Ry au

        Potential amp.        0.0009 Ry
        Total length         45.3158 bohr

     Starting wfc are  160 randomized atomic wfcs

     Self-consistent Calculation

     iteration #  1     ecut=    36.75 Ry     beta=0.30
     Davidson diagonalization with overlap
     ethr =  1.00E-02,  avg # of iterations =  2.0

[...]

     total energy              =   -1709.05936977 Ry
     Harris-Foulkes estimate   =   -1712.24206451 Ry
     estimated scf accuracy    <       6.72635358 Ry

[...]

     End of self-consistent calculation

          k = 0.0000 0.0000 0.0000 ( 17111 PWs)   bands (ev):

   -59.5777 -59.4609 -59.4170 -59.4162 -59.3602 -59.3443 -59.2848 -59.2847
   -59.2735 -59.2470 -59.2468 -59.2363 -34.0873 -34.0660 -34.0658 -34.0049
   -33.9850 -33.9838 -33.9837 -33.8916 -33.8814 -33.8812 -33.5725 -33.4579
   -33.4574 -33.4270 -33.3570 -33.3568 -33.3490 -33.2691 -33.2636 -33.2632
   -33.1440 -33.1433 -33.1432 -33.1258 -33.1255 -33.1150 -33.0389 -33.0190
   -33.0189 -33.0146 -32.9909 -32.9908 -32.9009 -32.9009 -32.8167 -32.8167
   -14.0128  -4.4366  -3.1235  -2.9731  -2.9647  -2.9646  -2.9368  -2.5324
    -2.5208  -2.5207  -2.3276  -2.3108  -2.3108  -2.0926  -2.0796  -2.0796
    -1.0018  -0.8920  -0.8920   0.0367   0.1122   0.1123   0.2337   0.4415
     0.4983   0.4984   0.6609   0.8125   0.8125   1.0714   1.0715   1.1900
     1.2092   1.2093   1.2596   1.2596   1.5260   1.6199   1.6199   1.9195
     2.6881   2.6882   2.7601   2.7865   2.8330   2.8331   3.3342   3.3343
     3.4653

[...]

          k =-0.0888 0.0513 0.0000 ( 17160 PWs)   bands (ev):

[...]

     the Fermi energy is     1.5223 ev

!    total energy              =   -1711.67488449 Ry
     Harris-Foulkes estimate   =   -1711.67480985 Ry
     estimated scf accuracy    <       0.00000535 Ry

     The total energy is the sum of the following terms:

     one-electron contribution =  -15496.29128374 Ry
     hartree contribution      =    7741.68074834 Ry
     xc contribution           =    -247.37720864 Ry
     ewald contribution        =    6290.41752667 Ry
     electric field correction =       0.00133684 Ry
     smearing contrib. (-TS)   =      -0.10600395 Ry

     convergence has been achieved in  19 iterations

 BEEF-vdW xc energy contributions
           1 :   -212.358376509818
           2 :    193.614171944588
           3 :   -161.694491145234
           4 :    125.201076679463
           5 :   -92.5215773296364
           6 :    69.2181611408822
           7 :   -56.8511756689399
           8 :    53.3580828327407
           9 :   -54.6090197925153
          10 :    56.3418954393929
          11 :   -55.7058779516103
          12 :    51.9038108928727
          13 :   -45.9051855865965
          14 :    39.5461479560914
          15 :   -34.4990057320248
          16 :    31.5213468111762
          17 :   -30.2515394236312
          18 :    29.5525502172791
[...]

[...]

     Program PWSCF v.5.1rc2 (svn rev. 11289) starts on 14Jan2018 at 16:56:47

[...]

     Total force =     0.064952     Total SCF correction =     0.015515
     SCF correction compared to forces is large: reduce conv_thr to get better values

[...]

   This run was terminated on:  17: 8:48  14Jan2018

[...]

     Program PWSCF v.5.1rc2 (svn rev. 11289) starts on 14Jan2018 at 17: 8:54

[...]

     Total force =     0.056476     Total SCF correction =     0.013122
     SCF correction compared to forces is large: reduce conv_thr to get better values

[...]

   This run was terminated on:  17:21: 3  14Jan2018

[...]

     Program PWSCF v.5.1rc2 (svn rev. 11289) starts on 14Jan2018 at 17:21: 9

     Current dimensions of program PWSCF are:
     Max number of different atomic species (ntypx) = 10
     Max number of k-points (npk) =  40000
     Max angular momentum in pseudopotentials (lmaxx) =  3
     Presently stress not available with electric field

     IMPORTANT: XC functional enforced from input :
     Exchange-correlation      = BEEF-VDW ( 1  4 27 13 2)
     Any further DFT definition will be discarded
     Please, verify this is what you really want

     Subspace diagonalization in iterative solution of the eigenvalue problem:
     a serial algorithm will be used

     bravais-lattice index     =            0
     lattice parameter (alat)  =       1.8897  a.u.
     unit-cell volume          =    4552.2840 (a.u.)^3
     number of atoms/cell      =           13
     number of atomic types    =            2
     number of electrons       =       174.00
     number of Kohn-Sham states=           97
     kinetic-energy cutoff     =      36.7493  Ry
     charge density cutoff     =     367.4932  Ry
     convergence threshold     =      1.0E-05
     mixing beta               =       0.3000
     number of iterations used =           10  plain     mixing
     Exchange-correlation      = BEEF-VDW ( 1  4 27 13 2)
     nstep                     =           50

     celldm(1)=   1.889726  celldm(2)=   0.000000  celldm(3)=   0.000000
     celldm(4)=   0.000000  celldm(5)=   0.000000  celldm(6)=   0.000000

     crystal axes: (cart. coord. in units of alat)
               a(1) = (   5.627661   0.000000   0.000000 )
               a(2) = (   2.813831   4.873698   0.000000 )
               a(3) = (   0.000000   0.000000  24.594966 )

     reciprocal axes: (cart. coord. in units 2 pi/alat)
               b(1) = (  0.177694 -0.102592  0.000000 )
               b(2) = (  0.000000  0.205183  0.000000 )
               b(3) = (  0.000000  0.000000  0.040659 )

     PseudoPot. # 1 for Mo read from file:
     /afs/slac.stanford.edu/u/if/mamunm/psp/gbrv1.5pbe/Mo.UPF
     MD5 check sum: 30c4dcd161f5d35cd49bb5239c51a633
     Pseudo is Ultrasoft + core correction, Zval = 14.0
     Generated by new atomic code, or converted to UPF format
     Using radial grid of  889 points,  6 beta functions with:
                l(1) =   0
                l(2) =   0
                l(3) =   1
                l(4) =   1
                l(5) =   2
                l(6) =   2
     Q(r) pseudized with  6 coefficients,  rinner =    1.000   1.000   1.000
                                                       1.000   1.000

     PseudoPot. # 2 for O  read from file:
     /afs/slac.stanford.edu/u/if/mamunm/psp/gbrv1.5pbe/O.UPF
     MD5 check sum: 734c27235a0248c51dbae37a1fbe46ec
     Pseudo is Ultrasoft + core correction, Zval =  6.0
     Generated by new atomic code, or converted to UPF format
     Using radial grid of  737 points,  5 beta functions with:
                l(1) =   0
                l(2) =   0
                l(3) =   1
                l(4) =   1
                l(5) =   2
     Q(r) pseudized with  8 coefficients,  rinner =    0.900   0.900   0.900
                                                       0.900   0.900

     vdW kernel table read from file vdW_kernel_table
     MD5 check sum: 095c7af220d748ca6e76c0b4c6cfb241

     atomic species   valence    mass     pseudopotential
        Mo1           14.00    95.95000     Mo( 1.00)
        O1             6.00    15.99900     O ( 1.00)

     No symmetry found

   Cartesian axes

     site n.     atom                  positions (alat units)
         1           Mo1 tau(   1) = (   1.4069153   0.8122829  10.0000000  )
         2           Mo1 tau(   2) = (   4.2207459   0.8122829  10.0000000  )
         3           Mo1 tau(   3) = (   2.8138306   3.2491317  10.0000000  )
         4           Mo1 tau(   4) = (   5.6276612   3.2491317  10.0000000  )
         5           Mo1 tau(   5) = (   5.6276612   1.6245658  12.2974831  )
         6           Mo1 tau(   6) = (   2.8138306   1.6245658  12.2974831  )
         7           Mo1 tau(   7) = (   7.0345765   4.0614146  12.2974831  )
         8           Mo1 tau(   8) = (   4.2207459   4.0614146  12.2974831  )
         9           Mo1 tau(   9) = (   8.4096687   4.8552777  14.6926571  )
        10           Mo1 tau(  10) = (   5.6595508   4.8552501  14.6926313  )
        11           Mo1 tau(  11) = (   7.0345760   2.4736202  14.6927385  )
        12           Mo1 tau(  12) = (   4.2207826   2.4368355  14.2724064  )
        13           O1  tau(  13) = (   1.4066946   0.8124212  15.8755901  )

     number of k points=    20  Fermi-Dirac smearing, width (Ry)=  0.0110
                       cart. coord. in units 2pi/alat
        k(    1) = (   0.0000000   0.0000000   0.0000000), wk =   0.0555556
        k(    2) = (   0.0000000   0.0341972   0.0000000), wk =   0.1111111
        k(    3) = (   0.0000000   0.0683943   0.0000000), wk =   0.1111111
        k(    4) = (   0.0000000  -0.1025915   0.0000000), wk =   0.0555556
        k(    5) = (   0.0296156  -0.0170986   0.0000000), wk =   0.1111111
        k(    6) = (   0.0296156   0.0170986   0.0000000), wk =   0.1111111
        k(    7) = (   0.0296156   0.0512958   0.0000000), wk =   0.1111111
        k(    8) = (   0.0296156  -0.1196901   0.0000000), wk =   0.1111111
        k(    9) = (   0.0296156  -0.0854929   0.0000000), wk =   0.1111111
        k(   10) = (   0.0296156  -0.0512958   0.0000000), wk =   0.1111111
        k(   11) = (   0.0592312  -0.0341972   0.0000000), wk =   0.1111111
        k(   12) = (   0.0592312   0.0000000   0.0000000), wk =   0.1111111
        k(   13) = (   0.0592312   0.0341972   0.0000000), wk =   0.1111111
        k(   14) = (   0.0592312  -0.1367887   0.0000000), wk =   0.1111111
        k(   15) = (   0.0592312  -0.1025915   0.0000000), wk =   0.1111111
        k(   16) = (   0.0592312  -0.0683943   0.0000000), wk =   0.1111111
        k(   17) = (  -0.0888469   0.0512958   0.0000000), wk =   0.0555556
        k(   18) = (  -0.0888469   0.0854929   0.0000000), wk =   0.1111111
        k(   19) = (  -0.0888469   0.1196901   0.0000000), wk =   0.1111111
        k(   20) = (  -0.0888469  -0.0512958   0.0000000), wk =   0.0555556

     Largest allocated arrays     est. size (Mb)     dimensions
     Largest temporary arrays     est. size (Mb)     dimensions

     Initial potential from superposition of free atoms
     Check: negative starting charge=   -0.004914

     starting charge  173.98724, renormalised to  174.00000

[...]

     *
     * You are using vdW-DF for exchange-correlation in this calculation.
     * Please cite the following three references that made this development
     * possible:
     *
     *   M. Dion, H. Rydberg, E. Schroder, D. C. Langreth, and
     *   B. I. Lundqvist, Phys. Rev. Lett. 92, 246401 (2004).
     *
     *   T. Thonhauser, V. R. Cooper, S. Li, A. Puzder, P. Hyldgaard, and
     *   D. C. Langreth, Phys. Rev. B 76, 125112 (2007).
     *
     *   G. Roman-Perez and J. M. Soler, Phys. Rev. Lett. 103, 096102 (2009).
     *
     *
     * If you are using vdW-DF2, please also cite:
     *
     *   K. Lee, E. D. Murray, L. Kong, B. I. Lundqvist, and
     *   D. C. Langreth, Phys. Rev. B 82, 081101(R) (2010).
     *
     *
     * If you are calculating the stress with vdW-DF, please also cite:
     *
     *   R. Sabatini, E. Kucukbenli, B. Kolb, T. Thonhauser, and
     *   S. de Gironcoli, J. Phys.: Condens. Matter 24, 424209 (2012).
     *

     Carrying out vdW-DF run using the following parameters:

     Nqs =      20    Nr_points =    1024   r_max =   100.000
     q_mesh =
               0.00001000     0.04494208     0.09755937     0.15916263
               0.23128650     0.31572767     0.41458969     0.53033537
               0.66584808     0.82450364     1.01025438     1.22772762
               1.48234092     1.78043706     2.12944203     2.53805004
               3.01644009     3.57652955     4.23227104     5.00000000

     Gradients computed in reciprocal space

[...]

     Starting wfc are  160 randomized atomic wfcs

     Self-consistent Calculation

[...]

     total energy              =   -1711.96314625 Ry
     Harris-Foulkes estimate   =   -1711.96314975 Ry
     estimated scf accuracy    <       0.00004190 Ry

     iteration # 15     ecut=    36.75 Ry     beta=0.30
     Davidson diagonalization with overlap
     ethr =  2.41E-08,  avg # of iterations =  4.0

[...]

     negative rho (up, down):  4.951E-03 0.000E+00

     Adding external electric field

     Computed dipole along edir(3) :
        Dipole               -0.0359 Ry au,         -0.0913 Debye
        Dipole field         -0.0001 Ry au

        Potential amp.        0.0090 Ry
        Total length         45.3158 bohr

     End of self-consistent calculation

[...]

          k = 0.0592-0.0684 0.0000 ( 17122 PWs)   bands (ev):

[...]

          k =-0.0888-0.0513 0.0000 ( 17160 PWs)   bands (ev):

   -58.8229 -58.7791 -58.7333 -58.6257 -58.6037 -58.5254 -58.5023 -58.4747
   -58.4674 -58.4307 -58.4225 -58.3955 -33.3106 -33.2339 -33.1401 -33.1061
   -33.0618 -33.0527 -32.9758 -32.9336 -32.8835 -32.8729 -32.8521 -32.8220
   -32.8015 -32.7664 -32.7641 -32.6249 -32.6042 -32.5922 -32.5663 -32.5248
   -32.5124 -32.4963 -32.4541 -32.4532 -32.4384 -32.4209 -32.3692 -32.3571
   -32.3011 -32.2685 -32.2523 -32.1608 -32.1482 -32.1096 -32.0660 -32.0234
   -16.8075  -3.5246  -3.1288  -2.8913  -2.0146  -1.9312  -1.4024  -1.2177
    -1.1231  -1.0558  -0.8679  -0.8662  -0.8211  -0.5277  -0.3780  -0.3307
    -0.3234  -0.2180  -0.0811   0.0413   0.2656   0.4573   0.5567   0.5979
     0.6403   0.6417   0.9241   1.1288   1.1315   1.3196   1.5298   1.5503
     1.5615   1.6599   1.7006   1.8047   1.8818   1.9326   2.0930   2.1730
     2.3243   2.5408   2.8006   2.9883   3.0213   3.1182   3.1598   3.3140
     3.5518

     the Fermi energy is     2.3720 ev

!    total energy              =   -1711.96315058 Ry
     Harris-Foulkes estimate   =   -1711.96315154 Ry
     estimated scf accuracy    <       0.00000261 Ry

     The total energy is the sum of the following terms:

     one-electron contribution =  -15805.56166849 Ry
     hartree contribution      =    7899.84830070 Ry
     xc contribution           =    -247.86528171 Ry
     ewald contribution        =    6441.70920174 Ry
     electric field correction =       0.00000356 Ry
     smearing contrib. (-TS)   =      -0.09370638 Ry

     convergence has been achieved in  15 iterations

 BEEF-vdW xc energy contributions
           1 :   -212.871001401357
           2 :    194.320130661130
           3 :   -162.582381864658
           4 :    126.066482894312
           5 :   -93.1205372964582
           6 :    69.4049237891207
           7 :   -56.6347460388807
           8 :    52.8768272017139
           9 :   -54.0566153446035
          10 :    55.8908824934001
          11 :   -55.4595241093176
          12 :    51.8840961050107
          13 :   -46.0678523602954
          14 :    39.8044340014195
          15 :   -34.7477078854918
          16 :    31.6662777937563
          17 :   -30.2402664066689
          18 :    29.3931103877943
          19 :   -27.9371774027824
          20 :    25.1846309950049
          21 :   -21.2387083283897
          22 :    16.8566411251584
          23 :   -13.0025531641821
          24 :    10.3390746920884
          25 :   -8.92216897780139
          26 :    8.22866679981234
          27 :   -7.46889577450912
          28 :    5.99645782281624
          29 :   -3.60843504183163
          30 :   0.600929104140846
          31 :   -24.2639816554972
          32 :   -18.5602600005371

     Forces acting on atoms (Ry/au):

     negative rho (up, down):  4.951E-03 0.000E+00
     atom    1 type  1   force =     0.00000453   -0.00000601    0.00226716
     atom    2 type  1   force =    -0.00000175    0.00113469   -0.00994826
     atom    3 type  1   force =     0.00099324   -0.00057436   -0.00995556
     atom    4 type  1   force =    -0.00100531   -0.00058167   -0.00996601
     atom    5 type  1   force =     0.02226984   -0.01285556    0.00187228
     atom    6 type  1   force =    -0.02227042   -0.01285395    0.00187303
     atom    7 type  1   force =    -0.00000098   -0.00000244    0.02008387
     atom    8 type  1   force =    -0.00000162    0.02570975    0.00186488
     atom    9 type  1   force =    -0.00033767   -0.00019724   -0.00009659
     atom   10 type  1   force =     0.00030069   -0.00016398   -0.00005297
     atom   11 type  1   force =     0.00001106    0.00039686   -0.00014079
     atom   12 type  1   force =    -0.00002069    0.00002068    0.00106659
     atom   13 type  2   force =     0.00005906   -0.00002678    0.00113236

     Total force =     0.052025     Total SCF correction =     0.004150

     entering subroutine stress ...

     negative rho (up, down):  4.951E-03 0.000E+00
          total   stress  (Ry/bohr**3)                   (kbar)     P=  -11.06
  -0.00012472   0.00000004   0.00000004        -18.35      0.01      0.01
   0.00000004  -0.00012467  -0.00000003          0.01    -18.34     -0.00
   0.00000004  -0.00000003   0.00002380          0.01     -0.00      3.50

 !ASE

     Writing output data file calc.save

     General routines

     Parallel routines

   This run was terminated on:  17:33:38  14Jan2018

   JOB DONE.
Job  /afs/slac/g/suncat/bin/suncat-tsmpirun -x LD_LIBRARY_PATH -wdir /scratch/qe842458_ZR3aC pw.x -in pw.inp

TID   HOST_NAME   COMMAND_LINE            STATUS            TERMINATION_TIME
00000 suncat1058 pw.x -in pw.inp   Done                     01/14/2018 17:33:38
00001 suncat1058 pw.x -in pw.inp   Done                     01/14/2018 17:33:38
00002 suncat1058 pw.x -in pw.inp   Done                     01/14/2018 17:33:38
00003 suncat1058 pw.x -in pw.inp   Done                     01/14/2018 17:33:38
00004 suncat1058 pw.x -in pw.inp   Done                     01/14/2018 17:33:38
00005 suncat1058 pw.x -in pw.inp   Done                     01/14/2018 17:33:38
00006 suncat1058 pw.x -in pw.inp   Done                     01/14/2018 17:33:38
00007 suncat1058 pw.x -in pw.inp   Done                     01/14/2018 17:33:38
00008 suncat1037 pw.x -in pw.inp   Done                     01/14/2018 17:33:38
00009 suncat1037 pw.x -in pw.inp   Done                     01/14/2018 17:33:38
00010 suncat1037 pw.x -in pw.inp   Done                     01/14/2018 17:33:38
00011 suncat1037 pw.x -in pw.inp   Done                     01/14/2018 17:33:38
00012 suncat1037 pw.x -in pw.inp   Done                     01/14/2018 17:33:38
00013 suncat1037 pw.x -in pw.inp   Done                     01/14/2018 17:33:38
00014 suncat1037 pw.x -in pw.inp   Done                     01/14/2018 17:33:38
00015 suncat1037 pw.x -in pw.inp   Done                     01/14/2018 17:33:38
00016 suncat1037 pw.x -in pw.inp   Done                     01/14/2018 17:33:38
00017 suncat1037 pw.x -in pw.inp   Done                     01/14/2018 17:33:38
00018 suncat1037 pw.x -in pw.inp   Done                     01/14/2018 17:33:38
00019 suncat1037 pw.x -in pw.inp   Done                     01/14/2018 17:33:38
00020 suncat1036 pw.x -in pw.inp   Done                     01/14/2018 17:33:38
00021 suncat1036 pw.x -in pw.inp   Done                     01/14/2018 17:33:38
00022 suncat1036 pw.x -in pw.inp   Done                     01/14/2018 17:33:38
00023 suncat1036 pw.x -in pw.inp   Done                     01/14/2018 17:33:38
00024 suncat1036 pw.x -in pw.inp   Done                     01/14/2018 17:33:38
00025 suncat1036 pw.x -in pw.inp   Done                     01/14/2018 17:33:38
00026 suncat1036 pw.x -in pw.inp   Done                     01/14/2018 17:33:38
00027 suncat1036 pw.x -in pw.inp   Done                     01/14/2018 17:33:38
00028 suncat1036 pw.x -in pw.inp   Done                     01/14/2018 17:33:38
00029 suncat1036 pw.x -in pw.inp   Done                     01/14/2018 17:33:38
00030 suncat1036 pw.x -in pw.inp   Done                     01/14/2018 17:33:38
00031 suncat1036 pw.x -in pw.inp   Done                     01/14/2018 17:33:38