     Program PWSCF v.5.1rc2 starts on  9May2018 at  6: 8:28

     Current dimensions of program PWSCF are:
     Max number of different atomic species (ntypx) = 10
     Max number of k-points (npk) =  40000
     Max angular momentum in pseudopotentials (lmaxx) =  3
     Presently stress not available with electric field

     IMPORTANT: XC functional enforced from input :
     Exchange-correlation      = BEEF-VDW ( 1  4 27 13 2)
     Any further DFT definition will be discarded
     Please, verify this is what you really want

     bravais-lattice index     =            0
     lattice parameter (alat)  =       1.8897  a.u.
     unit-cell volume          =    4569.9960 (a.u.)^3
     number of atoms/cell      =           15
     number of atomic types    =            3
     number of electrons       =       198.00
     number of Kohn-Sham states=          109
     kinetic-energy cutoff     =      36.7493  Ry
     charge density cutoff     =     367.4932  Ry
     convergence threshold     =      1.0E-05
     mixing beta               =       0.3000
     number of iterations used =           10  plain     mixing
     Exchange-correlation      = BEEF-VDW ( 1  4 27 13 2)
     nstep                     =           50

     celldm(1)=   1.889726  celldm(2)=   0.000000  celldm(3)=   0.000000
     celldm(4)=   0.000000  celldm(5)=   0.000000  celldm(6)=   0.000000

     crystal axes: (cart. coord. in units of alat)
               a(1) = (   5.637663   0.000000   0.000000 )
               a(2) = (   2.818831   4.882359   0.000000 )
               a(3) = (   0.000000   0.000000  24.603132 )

     reciprocal axes: (cart. coord. in units 2 pi/alat)
               b(1) = (  0.177378 -0.102410  0.000000 )
               b(2) = (  0.000000  0.204819  0.000000 )
               b(3) = (  0.000000  0.000000  0.040645 )

     PseudoPot. # 1 for Pd read from file:
     /home/users/winther/src/pseudo/Pd.UPF
     MD5 check sum: 2d733d2bc2cbfd217af676df1668a4bc
     Pseudo is Ultrasoft + core correction, Zval = 16.0
     Generated by new atomic code, or converted to UPF format
     Using radial grid of  887 points,  6 beta functions with:
                l(1) =   0
                l(2) =   0
                l(3) =   1
                l(4) =   1
                l(5) =   2
                l(6) =   2
     Q(r) pseudized with  8 coefficients,  rinner =    1.130   1.130   1.130
                                                       1.130   1.130

     PseudoPot. # 2 for C  read from file:
     /home/users/winther/src/pseudo/C.UPF
     MD5 check sum: d1aef80898a10debaa0f26306b886e00
     Pseudo is Ultrasoft + core correction, Zval =  4.0
     Generated by new atomic code, or converted to UPF format
     Using radial grid of  721 points,  4 beta functions with:
                l(1) =   0
                l(2) =   0
                l(3) =   1
                l(4) =   1
     Q(r) pseudized with  8 coefficients,  rinner =    1.100   1.100   1.100

     PseudoPot. # 3 for H  read from file:
     /home/users/winther/src/pseudo/H.UPF
     MD5 check sum: 761ae9a214b05c3daf00ab9f6b793d6f
     Pseudo is Ultrasoft, Zval =  1.0
     Generated by new atomic code, or converted to UPF format
     Using radial grid of  615 points,  2 beta functions with:
                l(1) =   0
                l(2) =   0
     Q(r) pseudized with  8 coefficients,  rinner =    0.700

     vdW kernel table read from file vdW_kernel_table
     MD5 check sum: 095c7af220d748ca6e76c0b4c6cfb241

     atomic species   valence    mass     pseudopotential
        Pd1           16.00   106.42000     Pd( 1.00)
        C1             4.00    12.01100     C ( 1.00)
        H1             1.00     1.00800     H ( 1.00)

     No symmetry found

   Cartesian axes

     site n.     atom                  positions (alat units)
         1           Pd1 tau(   1) = (   0.0000000   0.0000000  10.0000000  )
         2           Pd1 tau(   2) = (   1.4094157   2.4411796  10.0000000  )
         3           Pd1 tau(   3) = (   2.8188314   0.0000000  10.0000000  )
         4           Pd1 tau(   4) = (   4.2282471   2.4411796  10.0000000  )
         5           Pd1 tau(   5) = (   5.6376627   3.2549061  12.3015662  )
         6           Pd1 tau(   6) = (   4.2282471   0.8137265  12.3015662  )
         7           Pd1 tau(   7) = (   2.8188314   3.2549061  12.3015662  )
         8           Pd1 tau(   8) = (   1.4094157   0.8137265  12.3015662  )
         9           Pd1 tau(   9) = (   2.8182870   1.6275640  14.6019814  )
        10           Pd1 tau(  10) = (   4.2286228   4.0680320  14.6028407  )
        11           Pd1 tau(  11) = (   5.6370610   1.6293053  14.6031189  )
        12           Pd1 tau(  12) = (   7.0460207   4.0694552  14.6019115  )
        13           C1  tau(  13) = (   4.9331638   2.8460832  16.0800983  )
        14           H1  tau(  14) = (   4.9331518   2.8487813  17.1515979  )
        15           H1  tau(  15) = (   1.4093000   0.8134254  14.6116538  )

     number of k points=    20  Fermi-Dirac smearing, width (Ry)=  0.0110
                       cart. coord. in units 2pi/alat
        k(    1) = (   0.0000000   0.0000000   0.0000000), wk =   0.0555556
        k(    2) = (   0.0000000   0.0341365   0.0000000), wk =   0.1111111
        k(    3) = (   0.0000000   0.0682730   0.0000000), wk =   0.1111111
        k(    4) = (   0.0000000  -0.1024095   0.0000000), wk =   0.0555556
        k(    5) = (   0.0295631  -0.0170683   0.0000000), wk =   0.1111111
        k(    6) = (   0.0295631   0.0170683   0.0000000), wk =   0.1111111
        k(    7) = (   0.0295631   0.0512048   0.0000000), wk =   0.1111111
        k(    8) = (   0.0295631  -0.1194778   0.0000000), wk =   0.1111111
        k(    9) = (   0.0295631  -0.0853413   0.0000000), wk =   0.1111111
        k(   10) = (   0.0295631  -0.0512048   0.0000000), wk =   0.1111111
        k(   11) = (   0.0591262  -0.0341365   0.0000000), wk =   0.1111111
        k(   12) = (   0.0591262  -0.0000000   0.0000000), wk =   0.1111111
        k(   13) = (   0.0591262   0.0341365   0.0000000), wk =   0.1111111
        k(   14) = (   0.0591262  -0.1365460   0.0000000), wk =   0.1111111
        k(   15) = (   0.0591262  -0.1024095   0.0000000), wk =   0.1111111
        k(   16) = (   0.0591262  -0.0682730   0.0000000), wk =   0.1111111
        k(   17) = (  -0.0886892   0.0512048   0.0000000), wk =   0.0555556
        k(   18) = (  -0.0886892   0.0853413   0.0000000), wk =   0.1111111
        k(   19) = (  -0.0886892   0.1194778   0.0000000), wk =   0.1111111
        k(   20) = (  -0.0886892  -0.0512048   0.0000000), wk =   0.0555556

     Largest allocated arrays     est. size (Mb)     dimensions
     Largest temporary arrays     est. size (Mb)     dimensions

     Initial potential from superposition of free atoms
     Check: negative starting charge=   -0.903494

     starting charge  191.99986, renormalised to  198.00000

     negative rho (up, down):  9.317E-01 0.000E+00

     *
     * You are using vdW-DF for exchange-correlation in this calculation.
     * Please cite the following three references that made this development
     * possible:
     *
     *   M. Dion, H. Rydberg, E. Schroder, D. C. Langreth, and
     *   B. I. Lundqvist, Phys. Rev. Lett. 92, 246401 (2004).
     *
     *   T. Thonhauser, V. R. Cooper, S. Li, A. Puzder, P. Hyldgaard, and
     *   D. C. Langreth, Phys. Rev. B 76, 125112 (2007).
     *
     *   G. Roman-Perez and J. M. Soler, Phys. Rev. Lett. 103, 096102 (2009).
     *
     *
     * If you are using vdW-DF2, please also cite:
     *
     *   K. Lee, E. D. Murray, L. Kong, B. I. Lundqvist, and
     *   D. C. Langreth, Phys. Rev. B 82, 081101(R) (2010).
     *
     *
     * If you are calculating the stress with vdW-DF, please also cite:
     *
     *   R. Sabatini, E. Kucukbenli, B. Kolb, T. Thonhauser, and
     *   S. de Gironcoli, J. Phys.: Condens. Matter 24, 424209 (2012).
     *

     Carrying out vdW-DF run using the following parameters:

     Nqs =      20    Nr_points =    1024   r_max =   100.000
     q_mesh =
               0.00001000     0.04494208     0.09755937     0.15916263
               0.23128650     0.31572767     0.41458969     0.53033537
               0.66584808     0.82450364     1.01025438     1.22772762
               1.48234092     1.78043706     2.12944203     2.53805004
               3.01644009     3.57652955     4.23227104     5.00000000

     Gradients computed in reciprocal space

     Adding external electric field

     Computed dipole along edir(3) :
        Dipole               -1.3151 Ry au,         -3.3426 Debye
        Dipole field         -0.0036 Ry au

        Potential amp.        0.3278 Ry
        Total length         45.3309 bohr

     Starting wfc are  150 randomized atomic wfcs

     Self-consistent Calculation

     iteration #  1     ecut=    36.75 Ry     beta=0.30
     Davidson diagonalization with overlap
     ethr =  1.00E-02,  avg # of iterations =  5.3

[...]

     total energy              =   -2367.32337158 Ry
     Harris-Foulkes estimate   =   -2414.36109569 Ry
     estimated scf accuracy    <      99.69934426 Ry

[...]

     End of self-consistent calculation

          k = 0.0000 0.0000 0.0000 ( 17231 PWs)   bands (ev):

   -49.6728 -49.5436 -49.2493 -49.2136 -49.1268 -49.0528 -48.6436 -48.6025
   -48.5870 -48.5741 -48.5068 -48.4672 -48.4638 -48.4333 -48.4202 -48.4103
   -48.4057 -48.3958 -48.3470 -48.3438 -48.3379 -48.3295 -48.3222 -48.2680
   -48.2187 -48.1808 -48.1739 -48.1707 -48.1546 -48.1087 -48.1085 -48.0728
   -48.0454 -48.0200 -47.9778 -47.9689 -10.3006  -7.2387  -4.9122  -4.3303
    -3.5423  -3.2664  -3.2508  -3.1894  -3.1334  -3.0920  -3.0008  -2.9724
    -2.9359  -2.8267  -2.6887  -2.6415  -2.5921  -2.3284  -2.1010  -1.8520
    -1.6104  -1.5980  -1.5702  -1.3925  -1.3717  -1.3021  -1.2496  -1.1096
    -1.0857  -0.9880  -0.8970  -0.8797  -0.8415  -0.8329  -0.8093  -0.4301
    -0.3998  -0.2365  -0.1237  -0.1097  -0.0028   0.1619   0.1965   0.3808
     0.4214   0.4533   0.6386   0.6537   0.7033   0.8486   0.9105   0.9498
     0.9556   0.9697   0.9844   1.0416   1.0912   1.1471   1.2493   1.3046
     1.3169   1.3205   1.5150   1.5201   1.5284   1.7188   2.3606   2.7176
     3.4730   3.7343   4.0791   4.3933   4.7315

[...]

          k =-0.0887 0.0512 0.0000 ( 17240 PWs)   bands (ev):

[...]

     the Fermi energy is     1.2889 ev

!    total energy              =   -2411.25636673 Ry
     Harris-Foulkes estimate   =   -2411.25636749 Ry
     estimated scf accuracy    <       0.00000407 Ry

     The total energy is the sum of the following terms:

     one-electron contribution =  -20740.16441207 Ry
     hartree contribution      =   10422.34657000 Ry
     xc contribution           =    -395.35236903 Ry
     ewald contribution        =    8302.01838990 Ry
     electric field correction =       0.00010059 Ry
     smearing contrib. (-TS)   =      -0.10464612 Ry

     convergence has been achieved in  22 iterations

 BEEF-vdW xc energy contributions
           1 :   -344.104552006598
           2 :    314.457236045552
           3 :   -263.856725006783
           4 :    205.841605678118
           5 :   -153.537779660804
           6 :    115.381465386193
           7 :   -93.2894157639786
           8 :    83.6014970047199
           9 :   -79.9767572904665
          10 :    76.6888042605870
          11 :   -70.8307356910871
          12 :    62.6693799396274
          13 :   -54.4060421674226
          14 :    48.3124974905797
          15 :   -45.3291304846865
          16 :    44.7405633272694
          17 :   -44.8567110000241
          18 :    44.1113676223833
          19 :   -41.8872070623772
          20 :    38.6506148595400
          21 :   -35.4488395134614
          22 :    33.1708703045190
          23 :   -32.0403915067070
          24 :    31.5938783506885
          25 :   -31.0765935792888
          26 :    29.9518536348526
          27 :   -28.2002007955336
          28 :    26.2533960013374
          29 :   -24.6520271866973
          30 :    23.6749443651423
          31 :   -33.6813084600699
          32 :   -24.9019089499532

     Forces acting on atoms (Ry/au):

     negative rho (up, down):  9.434E-01 0.000E+00
     atom    1 type  1   force =    -0.00003155   -0.00001124   -0.00021912
     atom    2 type  1   force =    -0.00024342    0.00063677   -0.00382736
     atom    3 type  1   force =     0.00043918   -0.00052893   -0.00382432
     atom    4 type  1   force =     0.00002208   -0.00000133   -0.00078228
     atom    5 type  1   force =     0.00327022    0.00191564   -0.01632544
     atom    6 type  1   force =     0.00067379   -0.00310347   -0.00470463
     atom    7 type  1   force =    -0.00242193    0.00216297   -0.00468949
     atom    8 type  1   force =    -0.00068790   -0.00035210   -0.00508812
     atom    9 type  1   force =     0.06096549    0.03532934    0.01464598
     atom   10 type  1   force =     0.00825730   -0.09138066    0.04682451
     atom   11 type  1   force =    -0.07444094    0.05224955    0.04649717
     atom   12 type  1   force =    -0.00703843   -0.00428998    0.01136348
     atom   13 type  2   force =    -0.00006126    0.00063328   -0.12240664
     atom   14 type  3   force =     0.00023515    0.00007809    0.03084748
     atom   15 type  3   force =     0.01106220    0.00666207    0.01168876

     Total force =     0.206543     Total SCF correction =     0.005055

     entering subroutine stress ...

     negative rho (up, down):  9.434E-01 0.000E+00
          total   stress  (Ry/bohr**3)                   (kbar)     P=   -0.37
  -0.00000170  -0.00000330  -0.00000095         -0.25     -0.49     -0.14
  -0.00000330   0.00000249  -0.00000030         -0.49      0.37     -0.04
  -0.00000095  -0.00000030  -0.00000830         -0.14     -0.04     -1.22

     BFGS Geometry Optimization

     number of scf cycles    =   1
     number of bfgs steps    =   0

     energy   new            =   -2411.2563667311 Ry

     new trust radius        =       0.1224082920 bohr
     new conv_thr            =       0.0000099958 Ry

ATOMIC_POSITIONS (crystal)
Pd1      0.000000000   0.000000000   0.406452311    0   0   0
Pd1     -0.000000000   0.500000000   0.406452311    0   0   0
Pd1      0.500000000   0.000000000   0.406452311    0   0   0
Pd1      0.500000000   0.500000000   0.406452311    0   0   0
Pd1      0.666666667   0.666666667   0.500000000    0   0   0
Pd1      0.666666667   0.166666667   0.500000000    0   0   0
Pd1      0.166666667   0.666666667   0.500000000    0   0   0
Pd1      0.166666667   0.166666667   0.500000000    0   0   0
Pd1      0.337033322   0.337185242   0.593815920
Pd1      0.339188726   0.823305967   0.594542960
Pd1      0.823217992   0.339375812   0.594547226
Pd1      0.832633308   0.833036834   0.593742479
C1       0.583531001   0.583000594   0.650946526
H1       0.583310466   0.583493050   0.697794144
H1       0.167354303   0.167327067   0.594145455

     Writing output data file calc.save
     Check: negative starting charge=   -0.903494
     NEW-OLD atomic charge density approx. for the potential
     Check: negative starting charge=   -0.903959

[...]

     iteration #  1     ecut=    36.75 Ry     beta=0.30
     Davidson diagonalization with overlap
     c_bands:  1 eigenvalues not converged
     c_bands:  1 eigenvalues not converged
     ethr =  1.00E-06,  avg # of iterations =  6.5

[...]

     energy   old            =   -2411.2563667311 Ry
     energy   new            =   -2411.2796920947 Ry

     CASE: energy  _new < energy  _old

[...]

     iteration #  1     ecut=    36.75 Ry     beta=0.30
     Davidson diagonalization with overlap
     c_bands:  1 eigenvalues not converged
     ethr =  1.00E-06,  avg # of iterations =  5.3

[...]

     Total force =     0.006839     Total SCF correction =     0.000969
     SCF correction compared to forces is large: reduce conv_thr to get better values

[...]

     Threshold (ethr) on eigenvalues was too large:
     Diagonalizing with lowered threshold

     Davidson diagonalization with overlap
     ethr =  6.35E-08,  avg # of iterations =  1.0

[...]

     number of scf cycles    =  43
     number of bfgs steps    =  42

     energy   old            =   -2411.3655322043 Ry
     energy   new            =   -2411.3656943947 Ry

     CASE: energy  _new < energy  _old

     new trust radius        =       0.0265426497 bohr
     new conv_thr            =       0.0000001000 Ry

ATOMIC_POSITIONS (crystal)
Pd1      0.000000000   0.000000000   0.406452311    0   0   0
Pd1     -0.000000000   0.500000000   0.406452311    0   0   0
Pd1      0.500000000   0.000000000   0.406452311    0   0   0
Pd1      0.500000000   0.500000000   0.406452311    0   0   0
Pd1      0.666666667   0.666666667   0.500000000    0   0   0
Pd1      0.666666667   0.166666667   0.500000000    0   0   0
Pd1      0.166666667   0.666666667   0.500000000    0   0   0
Pd1      0.166666667   0.166666667   0.500000000    0   0   0
Pd1      0.326724575   0.326592508   0.593494773
Pd1      0.326176545   0.824180262   0.597447736
Pd1      0.823578189   0.326525056   0.597510137
Pd1      0.827299330   0.826937955   0.594853941
C1       0.663536759   0.663741284   0.641514011
H1       0.669459205   0.669089601   0.686023969
H1       0.164741085   0.164658375   0.629418435

     Writing output data file calc.save
     Check: negative starting charge=   -0.904293
     NEW-OLD atomic charge density approx. for the potential
     Check: negative starting charge=   -0.903844

[...]

     Self-consistent Calculation

[...]

     Threshold (ethr) on eigenvalues was too large:
     Diagonalizing with lowered threshold

     Davidson diagonalization with overlap
     ethr =  8.83E-08,  avg # of iterations =  1.0

[...]

     total energy              =   -2411.36575043 Ry
     Harris-Foulkes estimate   =   -2411.36575051 Ry
     estimated scf accuracy    <       0.00000016 Ry

     iteration # 10     ecut=    36.75 Ry     beta=0.30
     Davidson diagonalization with overlap
     ethr =  8.32E-11,  avg # of iterations =  1.4

[...]

     negative rho (up, down):  9.438E-01 0.000E+00

     Adding external electric field

     Computed dipole along edir(3) :
        Dipole                0.1915 Ry au,          0.4868 Debye
        Dipole field          0.0005 Ry au

        Potential amp.       -0.0477 Ry
        Total length         45.3309 bohr

     End of self-consistent calculation

[...]

          k = 0.0591-0.0683 0.0000 ( 17183 PWs)   bands (ev):

[...]

          k =-0.0887-0.0512 0.0000 ( 17240 PWs)   bands (ev):

   -49.5651 -49.4649 -49.3637 -49.1895 -49.1080 -48.9328 -48.9054 -48.8995
   -48.7724 -48.5173 -48.4845 -48.4804 -48.4441 -48.4143 -48.4085 -48.4026
   -48.3958 -48.3912 -48.3879 -48.3561 -48.3410 -48.3197 -48.3145 -48.2793
   -48.2551 -48.2353 -48.1988 -48.1951 -48.1864 -48.1730 -48.1311 -48.1052
   -48.0344 -47.9755 -47.9598 -47.9499 -10.7581  -5.4577  -4.9776  -3.9791
    -3.3852  -3.1044  -2.9517  -2.6175  -2.5325  -2.4701  -2.4386  -2.4210
    -2.2736  -2.2291  -2.1864  -2.0929  -2.0851  -2.0248  -1.9044  -1.8422
    -1.7960  -1.6169  -1.6148  -1.6009  -1.4840  -1.4659  -1.4121  -1.3457
    -1.2950  -1.1800  -1.0284  -0.9902  -0.9025  -0.8823  -0.7968  -0.7498
    -0.7067  -0.6501  -0.5828  -0.5811  -0.4804  -0.4284  -0.4039  -0.3461
    -0.2183  -0.1515  -0.1422  -0.0960  -0.0822  -0.0239   0.0457   0.1213
     0.2705   0.4424   0.4548   0.4777   0.5466   0.5668   0.7980   0.8405
     0.9683   1.0427   1.0861   1.2561   1.3266   2.0924   2.2039   2.5305
     2.9503   3.9611   4.0231   4.5168   5.2546

     the Fermi energy is     1.3061 ev

!    total energy              =   -2411.36575044 Ry
     Harris-Foulkes estimate   =   -2411.36575016 Ry
     estimated scf accuracy    <       0.00000001 Ry

     The total energy is the sum of the following terms:

     one-electron contribution =  -20629.88674884 Ry
     hartree contribution      =   10367.00535782 Ry
     xc contribution           =    -395.33237781 Ry
     ewald contribution        =    8246.94590850 Ry
     electric field correction =       0.00010086 Ry
     smearing contrib. (-TS)   =      -0.09799096 Ry

     convergence has been achieved in  10 iterations

 BEEF-vdW xc energy contributions
           1 :   -344.089764454421
           2 :    314.462929258022
           3 :   -263.892226945442
           4 :    205.910210372906
           5 :   -153.643952651708
           6 :    115.528707813357
           7 :   -93.4707820412723
           8 :    83.7907536784447
           9 :   -80.1311512047134
          10 :    76.7666561242872
          11 :   -70.8135926557697
          12 :    62.5738759872619
          13 :   -54.2765043079050
          14 :    48.1976573862247
          15 :   -45.2560580666725
          16 :    44.7027405634016
          17 :   -44.8247952002276
          18 :    44.0583221219276
          19 :   -41.8110416259181
          20 :    38.5802271690466
          21 :   -35.4277242956720
          22 :    33.2278813960123
          23 :   -32.1669081590353
          24 :    31.7438873376045
          25 :   -31.1908254745940
          26 :    29.9910988657860
          27 :   -28.1662463004712
          28 :    26.1847458298383
          29 :   -24.5989776348632
          30 :    23.6698681778722
          31 :   -33.6813561758468
          32 :   -24.9084104978595

     Forces acting on atoms (Ry/au):

     negative rho (up, down):  9.438E-01 0.000E+00
     atom    1 type  1   force =     0.00026378    0.00015183   -0.00011256
     atom    2 type  1   force =    -0.00100294    0.00053393   -0.00407516
     atom    3 type  1   force =    -0.00004097   -0.00113887   -0.00406744
     atom    4 type  1   force =     0.00133153    0.00076787   -0.00266545
     atom    5 type  1   force =    -0.00321620   -0.00188640   -0.00701251
     atom    6 type  1   force =     0.00084651    0.00078081    0.00394396
     atom    7 type  1   force =     0.00112334    0.00027688    0.00391394
     atom    8 type  1   force =    -0.00421206   -0.00233081    0.00159275
     atom    9 type  1   force =     0.00143794    0.00100168    0.00126980
     atom   10 type  1   force =     0.00130743   -0.00036879    0.00101992
     atom   11 type  1   force =     0.00074817    0.00066888    0.00057064
     atom   12 type  1   force =     0.00150245    0.00111642    0.00119703
     atom   13 type  2   force =    -0.00021412    0.00004689    0.00192303
     atom   14 type  3   force =    -0.00025798    0.00003441    0.00105776
     atom   15 type  3   force =     0.00038312    0.00034527    0.00144428

     Total force =     0.004596     Total SCF correction =     0.000337

     entering subroutine stress ...

     negative rho (up, down):  9.438E-01 0.000E+00
          total   stress  (Ry/bohr**3)                   (kbar)     P=   -4.47
  -0.00004828  -0.00000037   0.00000409         -7.10     -0.05      0.60
  -0.00000037  -0.00004742   0.00000265         -0.05     -6.98      0.39
   0.00000409   0.00000265   0.00000462          0.60      0.39      0.68

     bfgs converged in  44 scf cycles and  43 bfgs steps
     (criteria: energy <  1.0E+00, force <  1.9E-03)

     End of BFGS Geometry Optimization

     Final energy   =   -2411.3657504411 Ry
Begin final coordinates

ATOMIC_POSITIONS (crystal)
Pd1      0.000000000   0.000000000   0.406452311    0   0   0
Pd1     -0.000000000   0.500000000   0.406452311    0   0   0
Pd1      0.500000000   0.000000000   0.406452311    0   0   0
Pd1      0.500000000   0.500000000   0.406452311    0   0   0
Pd1      0.666666667   0.666666667   0.500000000    0   0   0
Pd1      0.666666667   0.166666667   0.500000000    0   0   0
Pd1      0.166666667   0.666666667   0.500000000    0   0   0
Pd1      0.166666667   0.166666667   0.500000000    0   0   0
Pd1      0.326724575   0.326592508   0.593494773
Pd1      0.326176545   0.824180262   0.597447736
Pd1      0.823578189   0.326525056   0.597510137
Pd1      0.827299330   0.826937955   0.594853941
C1       0.663536759   0.663741284   0.641514011
H1       0.669459205   0.669089601   0.686023969
H1       0.164741085   0.164658375   0.629418435
End final coordinates

     Writing output data file calc.save

     General routines

     Parallel routines

   This run was terminated on:   7:56:25   9May2018

   JOB DONE.