     Program PWSCF v.5.1rc2 (svn rev. 11289) starts on 16Apr2018 at 10: 1:24

     Current dimensions of program PWSCF are:
     Max number of different atomic species (ntypx) = 10
     Max number of k-points (npk) =  40000
     Max angular momentum in pseudopotentials (lmaxx) =  3
     Presently stress not available with electric field

     IMPORTANT: XC functional enforced from input :
     Exchange-correlation      = BEEF-VDW ( 1  4 27 13 2)
     Any further DFT definition will be discarded
     Please, verify this is what you really want

     Subspace diagonalization in iterative solution of the eigenvalue problem:
     a serial algorithm will be used

     bravais-lattice index     =            0
     lattice parameter (alat)  =       1.8897  a.u.
     unit-cell volume          =    5174.6160 (a.u.)^3
     number of atoms/cell      =           14
     number of atomic types    =            3
     number of electrons       =       234.00
     number of Kohn-Sham states=          127
     kinetic-energy cutoff     =      36.7493  Ry
     charge density cutoff     =     367.4932  Ry
     convergence threshold     =      1.0E-05
     mixing beta               =       0.3000
     number of iterations used =           10  plain     mixing
     Exchange-correlation      = BEEF-VDW ( 1  4 27 13 2)
     nstep                     =           50

     celldm(1)=   1.889726  celldm(2)=   0.000000  celldm(3)=   0.000000
     celldm(4)=   0.000000  celldm(5)=   0.000000  celldm(6)=   0.000000

     crystal axes: (cart. coord. in units of alat)
               a(1) = (   5.966546   0.000000   0.000000 )
               a(2) = (   2.983273   5.167181   0.000000 )
               a(3) = (   0.000000   0.000000  24.871665 )

     reciprocal axes: (cart. coord. in units 2 pi/alat)
               b(1) = (  0.167601 -0.096765  0.000000 )
               b(2) = (  0.000000  0.193529  0.000000 )
               b(3) = (  0.000000  0.000000  0.040206 )

     PseudoPot. # 1 for Ag read from file:
     /u/if/mamunm/psp/gbrv1.5pbe/Ag.UPF
     MD5 check sum: d66d668201baa78d5eb5b04ef7011058
     Pseudo is Ultrasoft + core correction, Zval = 19.0
     Generated by new atomic code, or converted to UPF format
     Using radial grid of  887 points,  6 beta functions with:
                l(1) =   0
                l(2) =   0
                l(3) =   1
                l(4) =   1
                l(5) =   2
                l(6) =   2
     Q(r) pseudized with  6 coefficients,  rinner =    1.300   1.300   1.300
                                                       1.300   1.300

     PseudoPot. # 2 for N  read from file:
     /u/if/mamunm/psp/gbrv1.5pbe/N.UPF
     MD5 check sum: 95339753478d7afb44899504a8723017
     Pseudo is Ultrasoft + core correction, Zval =  5.0
     Generated by new atomic code, or converted to UPF format
     Using radial grid of  729 points,  4 beta functions with:
                l(1) =   0
                l(2) =   0
                l(3) =   1
                l(4) =   1
     Q(r) pseudized with  8 coefficients,  rinner =    0.900   0.900   0.900

     PseudoPot. # 3 for H  read from file:
     /u/if/mamunm/psp/gbrv1.5pbe/H.UPF
     MD5 check sum: 761ae9a214b05c3daf00ab9f6b793d6f
     Pseudo is Ultrasoft, Zval =  1.0
     Generated by new atomic code, or converted to UPF format
     Using radial grid of  615 points,  2 beta functions with:
                l(1) =   0
                l(2) =   0
     Q(r) pseudized with  8 coefficients,  rinner =    0.700

     vdW kernel table read from file vdW_kernel_table
     MD5 check sum: 095c7af220d748ca6e76c0b4c6cfb241

     atomic species   valence    mass     pseudopotential
        Ag1           19.00   107.86820     Ag( 1.00)
        N1             5.00    14.00700     N ( 1.00)
        H1             1.00     1.00800     H ( 1.00)

     No symmetry found

   Cartesian axes

     site n.     atom                  positions (alat units)
         1           Ag1 tau(   1) = (   1.4916366   0.8611968  10.0000000  )
         2           Ag1 tau(   2) = (   4.4749098   0.8611968  10.0000000  )
         3           Ag1 tau(   3) = (   2.9832732   3.4447871  10.0000000  )
         4           Ag1 tau(   4) = (   5.9665464   3.4447871  10.0000000  )
         5           Ag1 tau(   5) = (   5.9665464   1.7223936  12.4358324  )
         6           Ag1 tau(   6) = (   2.9832732   1.7223936  12.4358324  )
         7           Ag1 tau(   7) = (   7.4581830   4.3059839  12.4358324  )
         8           Ag1 tau(   8) = (   4.4749098   4.3059839  12.4358324  )
         9           Ag1 tau(   9) = (   0.0000000   0.0000000  14.8716647  )
        10           Ag1 tau(  10) = (   2.9832732   0.0000000  14.8716647  )
        11           Ag1 tau(  11) = (   1.4916366   2.5835904  14.8716647  )
        12           Ag1 tau(  12) = (   4.4749098   2.5835904  14.8716647  )
        13           N1  tau(  13) = (   0.0000000   0.0000000  16.7076647  )
        14           H1  tau(  14) = (   0.0000000   0.0000000  17.7576647  )

     number of k points=    20  Fermi-Dirac smearing, width (Ry)=  0.0110
                       cart. coord. in units 2pi/alat
        k(    1) = (   0.0000000   0.0000000   0.0000000), wk =   0.0555556
        k(    2) = (   0.0000000   0.0322549   0.0000000), wk =   0.1111111
        k(    3) = (   0.0000000   0.0645097   0.0000000), wk =   0.1111111
        k(    4) = (   0.0000000  -0.0967646   0.0000000), wk =   0.0555556
        k(    5) = (   0.0279335  -0.0161274   0.0000000), wk =   0.1111111
        k(    6) = (   0.0279335   0.0161274   0.0000000), wk =   0.1111111
        k(    7) = (   0.0279335   0.0483823   0.0000000), wk =   0.1111111
        k(    8) = (   0.0279335  -0.1128920   0.0000000), wk =   0.1111111
        k(    9) = (   0.0279335  -0.0806371   0.0000000), wk =   0.1111111
        k(   10) = (   0.0279335  -0.0483823   0.0000000), wk =   0.1111111
        k(   11) = (   0.0558670  -0.0322549   0.0000000), wk =   0.1111111
        k(   12) = (   0.0558670   0.0000000   0.0000000), wk =   0.1111111
        k(   13) = (   0.0558670   0.0322549   0.0000000), wk =   0.1111111
        k(   14) = (   0.0558670  -0.1290194   0.0000000), wk =   0.1111111
        k(   15) = (   0.0558670  -0.0967646   0.0000000), wk =   0.1111111
        k(   16) = (   0.0558670  -0.0645097   0.0000000), wk =   0.1111111
        k(   17) = (  -0.0838006   0.0483823   0.0000000), wk =   0.0555556
        k(   18) = (  -0.0838006   0.0806371   0.0000000), wk =   0.1111111
        k(   19) = (  -0.0838006   0.1128920   0.0000000), wk =   0.1111111
        k(   20) = (  -0.0838006  -0.0483823   0.0000000), wk =   0.0555556

     Largest allocated arrays     est. size (Mb)     dimensions
     Largest temporary arrays     est. size (Mb)     dimensions

     Initial potential from superposition of free atoms
     Check: negative starting charge=   -0.001960

     starting charge  227.99941, renormalised to  234.00000

     negative rho (up, down):  2.011E-03 0.000E+00

     *
     * You are using vdW-DF for exchange-correlation in this calculation.
     * Please cite the following three references that made this development
     * possible:
     *
     *   M. Dion, H. Rydberg, E. Schroder, D. C. Langreth, and
     *   B. I. Lundqvist, Phys. Rev. Lett. 92, 246401 (2004).
     *
     *   T. Thonhauser, V. R. Cooper, S. Li, A. Puzder, P. Hyldgaard, and
     *   D. C. Langreth, Phys. Rev. B 76, 125112 (2007).
     *
     *   G. Roman-Perez and J. M. Soler, Phys. Rev. Lett. 103, 096102 (2009).
     *
     *
     * If you are using vdW-DF2, please also cite:
     *
     *   K. Lee, E. D. Murray, L. Kong, B. I. Lundqvist, and
     *   D. C. Langreth, Phys. Rev. B 82, 081101(R) (2010).
     *
     *
     * If you are calculating the stress with vdW-DF, please also cite:
     *
     *   R. Sabatini, E. Kucukbenli, B. Kolb, T. Thonhauser, and
     *   S. de Gironcoli, J. Phys.: Condens. Matter 24, 424209 (2012).
     *

     Carrying out vdW-DF run using the following parameters:

     Nqs =      20    Nr_points =    1024   r_max =   100.000
     q_mesh =
               0.00001000     0.04494208     0.09755937     0.15916263
               0.23128650     0.31572767     0.41458969     0.53033537
               0.66584808     0.82450364     1.01025438     1.22772762
               1.48234092     1.78043706     2.12944203     2.53805004
               3.01644009     3.57652955     4.23227104     5.00000000

     Gradients computed in reciprocal space

     Adding external electric field

     Computed dipole along edir(3) :
        Dipole               -1.3268 Ry au,         -3.3724 Debye
        Dipole field         -0.0032 Ry au

        Potential amp.        0.2953 Ry
        Total length         45.8256 bohr

     Starting wfc are  161 randomized atomic wfcs

     Self-consistent Calculation

     iteration #  1     ecut=    36.75 Ry     beta=0.30
     Davidson diagonalization with overlap
     ethr =  1.00E-02,  avg # of iterations =  5.5

[...]

     total energy              =   -3569.65181029 Ry
     Harris-Foulkes estimate   =   -3584.50009990 Ry
     estimated scf accuracy    <      31.98019988 Ry

[...]

     End of self-consistent calculation

          k = 0.0000 0.0000 0.0000 ( 19435 PWs)   bands (ev):

   -91.1735 -90.8533 -90.8430 -90.8387 -90.8387 -90.6656 -90.6555 -90.6513
   -90.6513 -90.6171 -90.6118 -90.6118 -54.7867 -54.5984 -54.5984 -54.3866
   -54.3866 -54.3784 -54.3554 -54.3375 -54.3306 -54.3306 -54.3224 -54.3224
   -54.3217 -54.3001 -54.3001 -54.2038 -54.2038 -54.1993 -54.1854 -54.1440
   -54.1440 -54.1418 -54.1403 -54.1362 -54.1362 -54.1310 -54.1264 -54.1264
   -54.1216 -54.1216 -54.0976 -54.0976 -54.0954 -54.0898 -54.0898 -54.0883
   -13.0744  -6.0170  -5.2419  -4.6087  -4.6087  -4.5824  -4.5456  -4.4652
    -4.4652  -4.4337  -4.4337  -4.4061  -4.3775  -4.3226  -4.2209  -4.2209
    -4.1796  -3.8653  -3.8653  -3.5905  -3.5225  -3.5225  -3.4804  -3.4076
    -3.4076  -3.3569  -3.2903  -3.2903  -3.2449  -3.2449  -3.1953  -3.1706
    -3.1706  -2.7769  -2.7769  -2.6532  -2.6532  -2.6425  -2.5773  -2.5773
    -2.5340  -2.4115  -2.4115  -2.3691  -2.3082  -2.3082  -2.2093  -2.1365
    -2.1365  -2.0748  -2.0460  -2.0460  -1.9949  -1.9949  -1.9397  -1.9397
    -1.9249  -1.8445  -1.8445  -1.7566  -1.7539  -1.7539  -1.7322  -0.9876
     0.4267   0.4267   0.6542   1.6806   1.8296   1.8296   2.3179   2.4316
     2.6262   2.6262   2.8631   3.3160   3.3160   4.8961   4.8961

[...]

          k =-0.0838 0.0484 0.0000 ( 19500 PWs)   bands (ev):

[...]

     the Fermi energy is     1.2018 ev

!    total energy              =   -3581.11399791 Ry
     Harris-Foulkes estimate   =   -3581.11400118 Ry
     estimated scf accuracy    <       0.00000101 Ry

     The total energy is the sum of the following terms:

     one-electron contribution =  -26098.95019314 Ry
     hartree contribution      =   13042.29560722 Ry
     xc contribution           =    -367.15542006 Ry
     ewald contribution        =    9842.72832323 Ry
     electric field correction =       0.00001698 Ry
     smearing contrib. (-TS)   =      -0.03233214 Ry

     convergence has been achieved in  16 iterations

 BEEF-vdW xc energy contributions
           1 :   -318.019617339657
           2 :    287.730867993656
           3 :   -237.302587478514
           4 :    182.039882269215
           5 :   -135.723169330545
           6 :    105.669398951787
           7 :   -91.4582147017878
           8 :    87.2059415091668
           9 :   -85.6695725922187
          10 :    81.8729026022309
          11 :   -74.6263407477139
          12 :    65.6909667222913
          13 :   -57.6494785617534
          14 :    52.0073406390409
          15 :   -48.5536084426678
          16 :    46.0104585136076
          17 :   -43.2118393038673
          18 :    39.8815897180519
          19 :   -36.5717111495333
          20 :    33.9957883489646
          21 :   -32.3694837305888
          22 :    31.2416330878664
          23 :   -29.8744599212756
          24 :    27.8280229802236
          25 :   -25.2992686502700
          26 :    22.9775251531767
          27 :   -21.5449234642590
          28 :    21.1932999500551
          29 :   -21.4990072041907
          30 :    21.7261346327189
          31 :   -31.8326846788408
          32 :   -23.1163174919251

     Forces acting on atoms (Ry/au):

     negative rho (up, down):  2.143E-03 0.000E+00
     atom    1 type  1   force =    -0.00027208   -0.00015696   -0.00026408
     atom    2 type  1   force =     0.00027204   -0.00015705   -0.00026376
     atom    3 type  1   force =    -0.00000011    0.00031424   -0.00026427
     atom    4 type  1   force =     0.00000008   -0.00000013    0.00235580
     atom    5 type  1   force =     0.00000032   -0.00221173    0.00293842
     atom    6 type  1   force =    -0.00000018   -0.00000006    0.00202733
     atom    7 type  1   force =     0.00191554    0.00110562    0.00293830
     atom    8 type  1   force =    -0.00191508    0.00110580    0.00293819
     atom    9 type  1   force =     0.00000008    0.00000011   -0.13259701
     atom   10 type  1   force =    -0.00000023    0.00000795   -0.00027319
     atom   11 type  1   force =     0.00000681   -0.00000399   -0.00027337
     atom   12 type  1   force =    -0.00000698   -0.00000389   -0.00027317
     atom   13 type  2   force =    -0.00000010    0.00000005    0.16215072
     atom   14 type  3   force =    -0.00000010    0.00000005   -0.04113990

     Total force =     0.213466     Total SCF correction =     0.002767

     entering subroutine stress ...

     negative rho (up, down):  2.143E-03 0.000E+00
          total   stress  (Ry/bohr**3)                   (kbar)     P=   -3.58
  -0.00005618   0.00000000   0.00000000         -8.26      0.00      0.00
   0.00000000  -0.00005618  -0.00000000          0.00     -8.26     -0.00
   0.00000000  -0.00000000   0.00003942          0.00     -0.00      5.80

     BFGS Geometry Optimization

     number of scf cycles    =   1
     number of bfgs steps    =   0

     energy   new            =   -3581.1139979145 Ry

     new trust radius        =       0.1621507218 bohr
     new conv_thr            =       0.0000099958 Ry

ATOMIC_POSITIONS (crystal)
Ag1      0.166666667   0.166666667   0.402063960    0   0   0
Ag1      0.666666667   0.166666667   0.402063960    0   0   0
Ag1      0.166666667   0.666666667   0.402063960    0   0   0
Ag1      0.666666667   0.666666667   0.402063960    0   0   0
Ag1      0.833333333   0.333333333   0.500000000    0   0   0
Ag1      0.333333333   0.333333333   0.500000000    0   0   0
Ag1      0.833333333   0.833333333   0.500000000    0   0   0
Ag1      0.333333333   0.833333333   0.500000000    0   0   0
Ag1      0.000000002   0.000000011   0.595114865
Ag1      0.499999572   0.000000814   0.597930228
Ag1      0.000000808   0.499999592   0.597930224
Ag1      0.499999580   0.499999601   0.597930228
N1      -0.000000011   0.000000005   0.675204952
H1      -0.000000011   0.000000005   0.713096394

     Writing output data file calc.save
     Check: negative starting charge=   -0.001960
     NEW-OLD atomic charge density approx. for the potential
     Check: negative starting charge=   -0.001963

[...]

     energy   old            =   -3581.1139979145 Ry
     energy   new            =   -3581.1204441465 Ry

     CASE: energy  _new < energy  _old

[...]

     Total force =     0.019813     Total SCF correction =     0.001981
     SCF correction compared to forces is large: reduce conv_thr to get better values

[...]

     Threshold (ethr) on eigenvalues was too large:
     Diagonalizing with lowered threshold

     Davidson diagonalization with overlap
     ethr =  2.44E-09,  avg # of iterations =  2.0

[...]

     Total force =     0.005654     Total SCF correction =     0.000496

[...]

     number of scf cycles    =  11
     number of bfgs steps    =  10

     energy   old            =   -3581.1344784827 Ry
     energy   new            =   -3581.1345010939 Ry

     CASE: energy  _new < energy  _old

     new trust radius        =       0.0047403873 bohr
     new conv_thr            =       0.0000001000 Ry

ATOMIC_POSITIONS (crystal)
Ag1      0.166666667   0.166666667   0.402063960    0   0   0
Ag1      0.666666667   0.166666667   0.402063960    0   0   0
Ag1      0.166666667   0.666666667   0.402063960    0   0   0
Ag1      0.666666667   0.666666667   0.402063960    0   0   0
Ag1      0.833333333   0.333333333   0.500000000    0   0   0
Ag1      0.333333333   0.333333333   0.500000000    0   0   0
Ag1      0.833333333   0.833333333   0.500000000    0   0   0
Ag1      0.333333333   0.833333333   0.500000000    0   0   0
Ag1     -0.000000002   0.000000040   0.591359693
Ag1      0.499956476   0.000087208   0.599446133
Ag1      0.000087175   0.499956519   0.599446146
Ag1      0.499956391   0.499956443   0.599446165
N1      -0.000000081  -0.000000098   0.672369938
H1      -0.000000001   0.000000010   0.713597133

     Writing output data file calc.save
     Check: negative starting charge=   -0.001965
     NEW-OLD atomic charge density approx. for the potential
     Check: negative starting charge=   -0.001965

[...]

     Self-consistent Calculation

[...]

     Threshold (ethr) on eigenvalues was too large:
     Diagonalizing with lowered threshold

     Davidson diagonalization with overlap
     ethr =  1.80E-08,  avg # of iterations =  2.0

[...]

     total energy              =   -3581.13450979 Ry
     Harris-Foulkes estimate   =   -3581.13450967 Ry
     estimated scf accuracy    <       0.00000019 Ry

     iteration #  6     ecut=    36.75 Ry     beta=0.30
     Davidson diagonalization with overlap
     ethr =  8.10E-11,  avg # of iterations =  2.8

[...]

     negative rho (up, down):  2.130E-03 0.000E+00

     Adding external electric field

     Computed dipole along edir(3) :
        Dipole               -0.1343 Ry au,         -0.3413 Debye
        Dipole field         -0.0003 Ry au

        Potential amp.        0.0299 Ry
        Total length         45.8256 bohr

     End of self-consistent calculation

[...]

          k = 0.0559-0.0645 0.0000 ( 19479 PWs)   bands (ev):

[...]

          k =-0.0838-0.0484 0.0000 ( 19500 PWs)   bands (ev):

   -90.9109 -90.9077 -90.9053 -90.9047 -90.9032 -90.7291 -90.7141 -90.7122
   -90.7106 -90.6363 -90.6345 -90.6328 -54.4500 -54.4313 -54.4256 -54.4131
   -54.4120 -54.4050 -54.4041 -54.4014 -54.4006 -54.3973 -54.3790 -54.3777
   -54.3741 -54.3723 -54.3689 -54.2529 -54.2442 -54.2323 -54.2195 -54.2164
   -54.2152 -54.2060 -54.1961 -54.1895 -54.1892 -54.1886 -54.1874 -54.1858
   -54.1650 -54.1479 -54.1342 -54.1251 -54.1149 -54.1129 -54.1109 -54.1089
   -12.8466  -5.2549  -4.3805  -4.3556  -4.2524  -4.2166  -4.2035  -4.1847
    -4.1479  -4.0745  -3.9936  -3.9772  -3.9401  -3.9154  -3.8657  -3.8432
    -3.8153  -3.7424  -3.5714  -3.5687  -3.5292  -3.5001  -3.4857  -3.4837
    -3.4255  -3.3540  -3.2817  -3.2163  -3.1799  -3.1389  -3.1261  -3.0943
    -3.0847  -3.0474  -2.9298  -2.9245  -2.8865  -2.8849  -2.8791  -2.8426
    -2.8301  -2.8103  -2.7178  -2.6957  -2.6850  -2.6497  -2.6057  -2.5930
    -2.5599  -2.5526  -2.5442  -2.5203  -2.5024  -2.4561  -2.3921  -2.3649
    -2.3229  -2.2586  -2.0731  -2.0672  -2.0506  -1.9630  -1.9218  -1.6579
    -1.1948  -0.3797   0.3903   0.7110   0.8747   1.1459   1.8126   1.8551
     2.5311   2.6021   4.1806   4.1913   4.6917   5.1491   6.1229

     the Fermi energy is     1.1369 ev

!    total energy              =   -3581.13450978 Ry
     Harris-Foulkes estimate   =   -3581.13450990 Ry
     estimated scf accuracy    <       0.00000003 Ry

     The total energy is the sum of the following terms:

     one-electron contribution =  -26127.06746198 Ry
     hartree contribution      =   13056.22945685 Ry
     xc contribution           =    -367.14222368 Ry
     ewald contribution        =    9856.87847673 Ry
     electric field correction =       0.00004378 Ry
     smearing contrib. (-TS)   =      -0.03280148 Ry

     convergence has been achieved in   6 iterations

 BEEF-vdW xc energy contributions
           1 :   -317.993898753380
           2 :    287.664765775893
           3 :   -237.187754265709
           4 :    181.908847813034
           5 :   -135.627288888630
           6 :    105.642703087747
           7 :   -91.4954632225717
           8 :    87.2703135617229
           9 :   -85.7203203127074
          10 :    81.8910152942683
          11 :   -74.6211963804582
          12 :    65.6868946784002
          13 :   -57.6652294557748
          14 :    52.0431106317310
          15 :   -48.5926008412976
          16 :    46.0326093941641
          17 :   -43.2075830135540
          18 :    39.8552309563188
          19 :   -36.5349676257756
          20 :    33.9593938098365
          21 :   -32.3393379354691
          22 :    31.2213204690406
          23 :   -29.8696765305867
          24 :    27.8466951548309
          25 :   -25.3456717893774
          26 :    23.0443206232641
          27 :   -21.6109239270936
          28 :    21.2304679029548
          29 :   -21.4849572703703
          30 :    21.6551616018313
          31 :   -31.8306320464214
          32 :   -23.1057345838763

     Forces acting on atoms (Ry/au):

     negative rho (up, down):  2.130E-03 0.000E+00
     atom    1 type  1   force =    -0.00017804   -0.00010279   -0.00056667
     atom    2 type  1   force =     0.00017804   -0.00010279   -0.00056666
     atom    3 type  1   force =     0.00000000    0.00020559   -0.00056665
     atom    4 type  1   force =     0.00000000    0.00000000    0.00238273
     atom    5 type  1   force =    -0.00000000    0.00335527   -0.00118074
     atom    6 type  1   force =     0.00000001    0.00000001    0.00530383
     atom    7 type  1   force =    -0.00290573   -0.00167763   -0.00118081
     atom    8 type  1   force =     0.00290574   -0.00167764   -0.00118076
     atom    9 type  1   force =     0.00000009    0.00000006   -0.00038898
     atom   10 type  1   force =    -0.00000007   -0.00003689   -0.00050213
     atom   11 type  1   force =    -0.00003199    0.00001838   -0.00050215
     atom   12 type  1   force =     0.00003200    0.00001846   -0.00050219
     atom   13 type  2   force =    -0.00000008   -0.00000006   -0.00028981
     atom   14 type  3   force =     0.00000003    0.00000002   -0.00025901

     Total force =     0.001031     Total SCF correction =     0.000615
     SCF correction compared to forces is large: reduce conv_thr to get better values

     entering subroutine stress ...

     negative rho (up, down):  2.130E-03 0.000E+00
          total   stress  (Ry/bohr**3)                   (kbar)     P=   -7.31
  -0.00006222  -0.00000000  -0.00000000         -9.15     -0.00     -0.00
  -0.00000000  -0.00006222  -0.00000000         -0.00     -9.15     -0.00
  -0.00000000  -0.00000000  -0.00002472         -0.00     -0.00     -3.64

     bfgs converged in  12 scf cycles and  11 bfgs steps
     (criteria: energy <  1.0E+00, force <  1.9E-03)

     End of BFGS Geometry Optimization

     Final energy   =   -3581.1345097788 Ry
Begin final coordinates

ATOMIC_POSITIONS (crystal)
Ag1      0.166666667   0.166666667   0.402063960    0   0   0
Ag1      0.666666667   0.166666667   0.402063960    0   0   0
Ag1      0.166666667   0.666666667   0.402063960    0   0   0
Ag1      0.666666667   0.666666667   0.402063960    0   0   0
Ag1      0.833333333   0.333333333   0.500000000    0   0   0
Ag1      0.333333333   0.333333333   0.500000000    0   0   0
Ag1      0.833333333   0.833333333   0.500000000    0   0   0
Ag1      0.333333333   0.833333333   0.500000000    0   0   0
Ag1     -0.000000002   0.000000040   0.591359693
Ag1      0.499956476   0.000087208   0.599446133
Ag1      0.000087175   0.499956519   0.599446146
Ag1      0.499956391   0.499956443   0.599446165
N1      -0.000000081  -0.000000098   0.672369938
H1      -0.000000001   0.000000010   0.713597133
End final coordinates

     Writing output data file calc.save

     General routines

     Parallel routines

   This run was terminated on:  11:19:37  16Apr2018

   JOB DONE.
Job  /afs/slac/g/suncat/bin/suncat-tsmpirun -x LD_LIBRARY_PATH -wdir /scratch/qe102459_zgGVw pw.x -npool 4 -in pw.inp

TID   HOST_NAME   COMMAND_LINE            STATUS            TERMINATION_TIME
00000 suncat0084 pw.x -npool 4 -i  Done                     04/16/2018 11:19:37
00001 suncat0084 pw.x -npool 4 -i  Done                     04/16/2018 11:19:37
00002 suncat0084 pw.x -npool 4 -i  Done                     04/16/2018 11:19:37
00003 suncat0084 pw.x -npool 4 -i  Done                     04/16/2018 11:19:37
00004 suncat0084 pw.x -npool 4 -i  Done                     04/16/2018 11:19:37
00005 suncat0084 pw.x -npool 4 -i  Done                     04/16/2018 11:19:37
00006 suncat0084 pw.x -npool 4 -i  Done                     04/16/2018 11:19:37
00007 suncat0084 pw.x -npool 4 -i  Done                     04/16/2018 11:19:37
00008 suncat0083 pw.x -npool 4 -i  Done                     04/16/2018 11:19:37
00009 suncat0083 pw.x -npool 4 -i  Done                     04/16/2018 11:19:37
00010 suncat0083 pw.x -npool 4 -i  Done                     04/16/2018 11:19:37
00011 suncat0083 pw.x -npool 4 -i  Done                     04/16/2018 11:19:37
00012 suncat0083 pw.x -npool 4 -i  Done                     04/16/2018 11:19:37
00013 suncat0083 pw.x -npool 4 -i  Done                     04/16/2018 11:19:37
00014 suncat0083 pw.x -npool 4 -i  Done                     04/16/2018 11:19:37
00015 suncat0083 pw.x -npool 4 -i  Done                     04/16/2018 11:19:37
00016 suncat0271 pw.x -npool 4 -i  Done                     04/16/2018 11:19:37
00017 suncat0271 pw.x -npool 4 -i  Done                     04/16/2018 11:19:37
00018 suncat0271 pw.x -npool 4 -i  Done                     04/16/2018 11:19:37
00019 suncat0271 pw.x -npool 4 -i  Done                     04/16/2018 11:19:37
00020 suncat0271 pw.x -npool 4 -i  Done                     04/16/2018 11:19:37
00021 suncat0271 pw.x -npool 4 -i  Done                     04/16/2018 11:19:37
00022 suncat0271 pw.x -npool 4 -i  Done                     04/16/2018 11:19:37
00023 suncat0271 pw.x -npool 4 -i  Done                     04/16/2018 11:19:37
00024 suncat0266 pw.x -npool 4 -i  Done                     04/16/2018 11:19:37
00025 suncat0266 pw.x -npool 4 -i  Done                     04/16/2018 11:19:37
00026 suncat0266 pw.x -npool 4 -i  Done                     04/16/2018 11:19:37
00027 suncat0266 pw.x -npool 4 -i  Done                     04/16/2018 11:19:37
00028 suncat0266 pw.x -npool 4 -i  Done                     04/16/2018 11:19:37
00029 suncat0266 pw.x -npool 4 -i  Done                     04/16/2018 11:19:37
00030 suncat0266 pw.x -npool 4 -i  Done                     04/16/2018 11:19:37
00031 suncat0266 pw.x -npool 4 -i  Done                     04/16/2018 11:19:37