     Program PWSCF v.5.1rc2 (svn rev. 11289) starts on  4May2018 at 10:24: 9

     Current dimensions of program PWSCF are:
     Max number of different atomic species (ntypx) = 10
     Max number of k-points (npk) =  40000
     Max angular momentum in pseudopotentials (lmaxx) =  3
     Presently stress not available with electric field

     IMPORTANT: XC functional enforced from input :
     Exchange-correlation      = BEEF-VDW ( 1  4 27 13 2)
     Any further DFT definition will be discarded
     Please, verify this is what you really want

     Subspace diagonalization in iterative solution of the eigenvalue problem:
     a serial algorithm will be used

     bravais-lattice index     =            0
     lattice parameter (alat)  =       1.8897  a.u.
     unit-cell volume          =    5174.6160 (a.u.)^3
     number of atoms/cell      =           13
     number of atomic types    =            2
     number of electrons       =       229.00
     number of Kohn-Sham states=          124
     kinetic-energy cutoff     =      36.7493  Ry
     charge density cutoff     =     367.4932  Ry
     convergence threshold     =      1.0E-05
     mixing beta               =       0.3000
     number of iterations used =           10  plain     mixing
     Exchange-correlation      = BEEF-VDW ( 1  4 27 13 2)
     nstep                     =           50

     celldm(1)=   1.889726  celldm(2)=   0.000000  celldm(3)=   0.000000
     celldm(4)=   0.000000  celldm(5)=   0.000000  celldm(6)=   0.000000

     crystal axes: (cart. coord. in units of alat)
               a(1) = (   5.966546   0.000000   0.000000 )
               a(2) = (   2.983273   5.167181   0.000000 )
               a(3) = (   0.000000   0.000000  24.871665 )

     reciprocal axes: (cart. coord. in units 2 pi/alat)
               b(1) = (  0.167601 -0.096765  0.000000 )
               b(2) = (  0.000000  0.193529  0.000000 )
               b(3) = (  0.000000  0.000000  0.040206 )

     PseudoPot. # 1 for Ag read from file:
     /u/if/mamunm/psp/gbrv1.5pbe/Ag.UPF
     MD5 check sum: d66d668201baa78d5eb5b04ef7011058
     Pseudo is Ultrasoft + core correction, Zval = 19.0
     Generated by new atomic code, or converted to UPF format
     Using radial grid of  887 points,  6 beta functions with:
                l(1) =   0
                l(2) =   0
                l(3) =   1
                l(4) =   1
                l(5) =   2
                l(6) =   2
     Q(r) pseudized with  6 coefficients,  rinner =    1.300   1.300   1.300
                                                       1.300   1.300

     PseudoPot. # 2 for H  read from file:
     /u/if/mamunm/psp/gbrv1.5pbe/H.UPF
     MD5 check sum: 761ae9a214b05c3daf00ab9f6b793d6f
     Pseudo is Ultrasoft, Zval =  1.0
     Generated by new atomic code, or converted to UPF format
     Using radial grid of  615 points,  2 beta functions with:
                l(1) =   0
                l(2) =   0
     Q(r) pseudized with  8 coefficients,  rinner =    0.700

     vdW kernel table read from file vdW_kernel_table
     MD5 check sum: 095c7af220d748ca6e76c0b4c6cfb241

     atomic species   valence    mass     pseudopotential
        Ag1           19.00   107.86820     Ag( 1.00)
        H1             1.00     1.00800     H ( 1.00)

     No symmetry found

   Cartesian axes

     site n.     atom                  positions (alat units)
         1           Ag1 tau(   1) = (   1.4916366   0.8611968  10.0000000  )
         2           Ag1 tau(   2) = (   4.4749098   0.8611968  10.0000000  )
         3           Ag1 tau(   3) = (   2.9832732   3.4447871  10.0000000  )
         4           Ag1 tau(   4) = (   5.9665464   3.4447871  10.0000000  )
         5           Ag1 tau(   5) = (   5.9665464   1.7223936  12.4358324  )
         6           Ag1 tau(   6) = (   2.9832732   1.7223936  12.4358324  )
         7           Ag1 tau(   7) = (   7.4581830   4.3059839  12.4358324  )
         8           Ag1 tau(   8) = (   4.4749098   4.3059839  12.4358324  )
         9           Ag1 tau(   9) = (   0.0000000   0.0000000  14.8716647  )
        10           Ag1 tau(  10) = (   2.9832732   0.0000000  14.8716647  )
        11           Ag1 tau(  11) = (   1.4916366   2.5835904  14.8716647  )
        12           Ag1 tau(  12) = (   4.4749098   2.5835904  14.8716647  )
        13           H1  tau(  13) = (   0.0000000   0.0000000  16.3676647  )

     number of k points=    20  Fermi-Dirac smearing, width (Ry)=  0.0110
                       cart. coord. in units 2pi/alat
        k(    1) = (   0.0000000   0.0000000   0.0000000), wk =   0.0555556
        k(    2) = (   0.0000000   0.0322549   0.0000000), wk =   0.1111111
        k(    3) = (   0.0000000   0.0645097   0.0000000), wk =   0.1111111
        k(    4) = (   0.0000000  -0.0967646   0.0000000), wk =   0.0555556
        k(    5) = (   0.0279335  -0.0161274   0.0000000), wk =   0.1111111
        k(    6) = (   0.0279335   0.0161274   0.0000000), wk =   0.1111111
        k(    7) = (   0.0279335   0.0483823   0.0000000), wk =   0.1111111
        k(    8) = (   0.0279335  -0.1128920   0.0000000), wk =   0.1111111
        k(    9) = (   0.0279335  -0.0806371   0.0000000), wk =   0.1111111
        k(   10) = (   0.0279335  -0.0483823   0.0000000), wk =   0.1111111
        k(   11) = (   0.0558670  -0.0322549   0.0000000), wk =   0.1111111
        k(   12) = (   0.0558670   0.0000000   0.0000000), wk =   0.1111111
        k(   13) = (   0.0558670   0.0322549   0.0000000), wk =   0.1111111
        k(   14) = (   0.0558670  -0.1290194   0.0000000), wk =   0.1111111
        k(   15) = (   0.0558670  -0.0967646   0.0000000), wk =   0.1111111
        k(   16) = (   0.0558670  -0.0645097   0.0000000), wk =   0.1111111
        k(   17) = (  -0.0838006   0.0483823   0.0000000), wk =   0.0555556
        k(   18) = (  -0.0838006   0.0806371   0.0000000), wk =   0.1111111
        k(   19) = (  -0.0838006   0.1128920   0.0000000), wk =   0.1111111
        k(   20) = (  -0.0838006  -0.0483823   0.0000000), wk =   0.0555556

     Largest allocated arrays     est. size (Mb)     dimensions
     Largest temporary arrays     est. size (Mb)     dimensions

     Initial potential from superposition of free atoms
     Check: negative starting charge=   -0.002252

     starting charge  222.99942, renormalised to  229.00000

     negative rho (up, down):  2.312E-03 0.000E+00

     *
     * You are using vdW-DF for exchange-correlation in this calculation.
     * Please cite the following three references that made this development
     * possible:
     *
     *   M. Dion, H. Rydberg, E. Schroder, D. C. Langreth, and
     *   B. I. Lundqvist, Phys. Rev. Lett. 92, 246401 (2004).
     *
     *   T. Thonhauser, V. R. Cooper, S. Li, A. Puzder, P. Hyldgaard, and
     *   D. C. Langreth, Phys. Rev. B 76, 125112 (2007).
     *
     *   G. Roman-Perez and J. M. Soler, Phys. Rev. Lett. 103, 096102 (2009).
     *
     *
     * If you are using vdW-DF2, please also cite:
     *
     *   K. Lee, E. D. Murray, L. Kong, B. I. Lundqvist, and
     *   D. C. Langreth, Phys. Rev. B 82, 081101(R) (2010).
     *
     *
     * If you are calculating the stress with vdW-DF, please also cite:
     *
     *   R. Sabatini, E. Kucukbenli, B. Kolb, T. Thonhauser, and
     *   S. de Gironcoli, J. Phys.: Condens. Matter 24, 424209 (2012).
     *

     Carrying out vdW-DF run using the following parameters:

     Nqs =      20    Nr_points =    1024   r_max =   100.000
     q_mesh =
               0.00001000     0.04494208     0.09755937     0.15916263
               0.23128650     0.31572767     0.41458969     0.53033537
               0.66584808     0.82450364     1.01025438     1.22772762
               1.48234092     1.78043706     2.12944203     2.53805004
               3.01644009     3.57652955     4.23227104     5.00000000

     Gradients computed in reciprocal space

     Adding external electric field

     Computed dipole along edir(3) :
        Dipole               -0.1999 Ry au,         -0.5080 Debye
        Dipole field         -0.0005 Ry au

        Potential amp.        0.0445 Ry
        Total length         45.8256 bohr

     Starting wfc are  157 randomized atomic wfcs

     Self-consistent Calculation

     iteration #  1     ecut=    36.75 Ry     beta=0.30
     Davidson diagonalization with overlap
     ethr =  1.00E-02,  avg # of iterations =  5.5

[...]

     total energy              =   -3557.67149705 Ry
     Harris-Foulkes estimate   =   -3564.28343643 Ry
     estimated scf accuracy    <      14.90731864 Ry

[...]

     End of self-consistent calculation

          k = 0.0000 0.0000 0.0000 ( 19435 PWs)   bands (ev):

   -91.4123 -90.9462 -90.9219 -90.9170 -90.9170 -90.7701 -90.7012 -90.6961
   -90.6961 -90.6797 -90.6745 -90.6745 -55.0880 -54.7997 -54.7997 -54.4718
   -54.4718 -54.4582 -54.4447 -54.4195 -54.4152 -54.4152 -54.4053 -54.4053
   -54.3979 -54.3786 -54.3786 -54.2849 -54.2849 -54.2582 -54.2406 -54.2363
   -54.2053 -54.2053 -54.1954 -54.1954 -54.1869 -54.1814 -54.1758 -54.1758
   -54.1670 -54.1670 -54.1591 -54.1573 -54.1573 -54.1556 -54.1535 -54.1535
    -5.5652  -5.2193  -4.6874  -4.6874  -4.6532  -4.6069  -4.5430  -4.5430
    -4.5029  -4.5029  -4.4971  -4.4205  -4.3352  -4.3014  -4.3014  -4.2126
    -3.8451  -3.8451  -3.6432  -3.6022  -3.6022  -3.5432  -3.4887  -3.4887
    -3.4070  -3.3696  -3.3696  -3.3181  -3.3181  -3.2680  -3.2351  -3.2351
    -2.7967  -2.7967  -2.7243  -2.7152  -2.7152  -2.6549  -2.6549  -2.5954
    -2.4523  -2.4523  -2.4445  -2.3823  -2.3823  -2.2681  -2.2108  -2.2108
    -2.1476  -2.1131  -2.1131  -2.0675  -2.0675  -2.0217  -2.0217  -1.9981
    -1.9276  -1.9276  -1.8182  -1.8182  -1.8026  -1.7830  -0.7559   1.0061
     1.5978   1.6037   1.6037   2.3451   2.3451   2.3637   2.7305   2.7950
     2.7950   2.8838   4.6860   4.7625

[...]

          k =-0.0838 0.0484 0.0000 ( 19500 PWs)   bands (ev):

[...]

     the Fermi energy is     1.0950 ev

!    total energy              =   -3560.94096253 Ry
     Harris-Foulkes estimate   =   -3560.94096286 Ry
     estimated scf accuracy    <       0.00000417 Ry

     The total energy is the sum of the following terms:

     one-electron contribution =  -25755.06364885 Ry
     hartree contribution      =   12867.40041714 Ry
     xc contribution           =    -361.70015785 Ry
     ewald contribution        =    9688.44524881 Ry
     electric field correction =       0.00003935 Ry
     smearing contrib. (-TS)   =      -0.02286113 Ry

     convergence has been achieved in  11 iterations

 BEEF-vdW xc energy contributions
           1 :   -313.449352739834
           2 :    283.794909661575
           3 :   -234.330365827808
           4 :    180.015442467850
           5 :   -134.443869499904
           6 :    104.915389878648
           7 :   -91.0753347412527
           8 :    87.1025466981476
           9 :   -85.7757849742735
          10 :    82.1110709022092
          11 :   -74.9121011193783
          12 :    65.9576685613099
          13 :   -57.8701360415440
          14 :    52.1922732701573
          15 :   -48.7281945239232
          16 :    46.1918602218315
          17 :   -43.3971254900968
          18 :    40.0531518331463
          19 :   -36.7151880119536
          20 :    34.1142204128589
          21 :   -32.4809523690012
          22 :    31.3635257253895
          23 :   -30.0077314794465
          24 :    27.9535440266392
          25 :   -25.3883939608585
          26 :    23.0092332843290
          27 :   -21.5180495764770
          28 :    21.1271939182664
          29 :   -21.4243318158782
          30 :    21.6706212036153
          31 :   -31.2359157169011
          32 :   -22.7102574099486

     Forces acting on atoms (Ry/au):

     negative rho (up, down):  2.179E-03 0.000E+00
     atom    1 type  1   force =    -0.00165062   -0.00095214   -0.00047082
     atom    2 type  1   force =     0.00165061   -0.00095222   -0.00047071
     atom    3 type  1   force =    -0.00000004    0.00190448   -0.00047029
     atom    4 type  1   force =     0.00000008   -0.00000133    0.00100445
     atom    5 type  1   force =     0.00000011   -0.00239566   -0.00033511
     atom    6 type  1   force =    -0.00000027    0.00000079    0.00206961
     atom    7 type  1   force =     0.00207519    0.00119754   -0.00033381
     atom    8 type  1   force =    -0.00207514    0.00119770   -0.00033387
     atom    9 type  1   force =     0.00000009   -0.00000002   -0.09435393
     atom   10 type  1   force =     0.00000003    0.00046596   -0.00055357
     atom   11 type  1   force =     0.00040344   -0.00023260   -0.00055354
     atom   12 type  1   force =    -0.00040345   -0.00023266   -0.00055274
     atom   13 type  2   force =    -0.00000003    0.00000016    0.09535434

     Total force =     0.134152     Total SCF correction =     0.013092

     entering subroutine stress ...

     negative rho (up, down):  2.179E-03 0.000E+00
          total   stress  (Ry/bohr**3)                   (kbar)     P=   -3.49
  -0.00004942  -0.00000000   0.00000000         -7.27     -0.00      0.00
  -0.00000000  -0.00004942   0.00000000         -0.00     -7.27      0.00
   0.00000000   0.00000000   0.00002759          0.00      0.00      4.06

     BFGS Geometry Optimization

     number of scf cycles    =   1
     number of bfgs steps    =   0

     energy   new            =   -3560.9409625322 Ry

     new trust radius        =       0.0953543352 bohr
     new conv_thr            =       0.0000099958 Ry

ATOMIC_POSITIONS (crystal)
Ag1      0.166666667   0.166666667   0.402063960    0   0   0
Ag1      0.666666667   0.166666667   0.402063960    0   0   0
Ag1      0.166666667   0.666666667   0.402063960    0   0   0
Ag1      0.666666667   0.666666667   0.402063960    0   0   0
Ag1      0.833333333   0.333333333   0.500000000    0   0   0
Ag1      0.333333333   0.333333333   0.500000000    0   0   0
Ag1      0.833333333   0.833333333   0.500000000    0   0   0
Ag1      0.333333333   0.833333333   0.500000000    0   0   0
Ag1      0.000000009  -0.000000002   0.595928537
Ag1      0.499976143   0.000047720   0.597924262
Ag1      0.000047692   0.499976179   0.597924263
Ag1      0.499976132   0.499976173   0.597924280
H1      -0.000000011   0.000000017   0.660113597

     Writing output data file calc.save
     Check: negative starting charge=   -0.002252
     NEW-OLD atomic charge density approx. for the potential
     Check: negative starting charge=   -0.002245

[...]

     Total force =     0.045863     Total SCF correction =     0.007362
     SCF correction compared to forces is large: reduce conv_thr to get better values

[...]

     energy   old            =   -3560.9409625322 Ry
     energy   new            =   -3560.9525437691 Ry

     CASE: energy  _new < energy  _old

[...]

     Threshold (ethr) on eigenvalues was too large:
     Diagonalizing with lowered threshold

     Davidson diagonalization with overlap
     ethr =  8.98E-08,  avg # of iterations =  1.0

[...]

     Total force =     0.006761     Total SCF correction =     0.000446

[...]

     number of scf cycles    =   9
     number of bfgs steps    =   8

     energy   old            =   -3560.9550115903 Ry
     energy   new            =   -3560.9550828372 Ry

     CASE: energy  _new < energy  _old

     new trust radius        =       0.0107897443 bohr
     new conv_thr            =       0.0000001000 Ry

ATOMIC_POSITIONS (crystal)
Ag1      0.166666667   0.166666667   0.402063960    0   0   0
Ag1      0.666666667   0.166666667   0.402063960    0   0   0
Ag1      0.166666667   0.666666667   0.402063960    0   0   0
Ag1      0.666666667   0.666666667   0.402063960    0   0   0
Ag1      0.833333333   0.333333333   0.500000000    0   0   0
Ag1      0.333333333   0.333333333   0.500000000    0   0   0
Ag1      0.833333333   0.833333333   0.500000000    0   0   0
Ag1      0.333333333   0.833333333   0.500000000    0   0   0
Ag1     -0.000000029   0.000000058   0.596614202
Ag1      0.499593520   0.000812948   0.596833259
Ag1      0.000812965   0.499593545   0.596833276
Ag1      0.499593503   0.499593545   0.596833272
H1      -0.000000007   0.000000006   0.664072080

     Writing output data file calc.save
     Check: negative starting charge=   -0.002241
     NEW-OLD atomic charge density approx. for the potential
     Check: negative starting charge=   -0.002240

[...]

     Self-consistent Calculation

[...]

     Threshold (ethr) on eigenvalues was too large:
     Diagonalizing with lowered threshold

     Davidson diagonalization with overlap
     ethr =  1.55E-08,  avg # of iterations =  1.1

[...]

     total energy              =   -3560.95510450 Ry
     Harris-Foulkes estimate   =   -3560.95510456 Ry
     estimated scf accuracy    <       0.00000021 Ry

     iteration #  6     ecut=    36.75 Ry     beta=0.30
     Davidson diagonalization with overlap
     ethr =  9.18E-11,  avg # of iterations =  2.0

[...]

     negative rho (up, down):  2.179E-03 0.000E+00

     Adding external electric field

     Computed dipole along edir(3) :
        Dipole               -0.1891 Ry au,         -0.4806 Debye
        Dipole field         -0.0005 Ry au

        Potential amp.        0.0421 Ry
        Total length         45.8256 bohr

     End of self-consistent calculation

[...]

          k = 0.0559-0.0645 0.0000 ( 19479 PWs)   bands (ev):

[...]

          k =-0.0838-0.0484 0.0000 ( 19500 PWs)   bands (ev):

   -91.1894 -91.0249 -90.9910 -90.9891 -90.9875 -90.8368 -90.7674 -90.7656
   -90.7639 -90.7464 -90.7446 -90.7429 -54.7565 -54.6248 -54.6229 -54.5369
   -54.5236 -54.5208 -54.5133 -54.4918 -54.4890 -54.4858 -54.4856 -54.4820
   -54.4797 -54.4708 -54.4552 -54.3448 -54.3348 -54.3244 -54.2947 -54.2872
   -54.2720 -54.2681 -54.2652 -54.2631 -54.2611 -54.2491 -54.2477 -54.2455
   -54.2450 -54.2435 -54.2386 -54.2385 -54.2271 -54.2253 -54.2249 -54.2234
    -4.7332  -4.4958  -4.4143  -4.3398  -4.3258  -4.3148  -4.2410  -4.2334
    -4.1846  -4.1027  -4.0702  -4.0485  -4.0201  -3.9344  -3.8965  -3.8938
    -3.8525  -3.6618  -3.6434  -3.6345  -3.6042  -3.5812  -3.5541  -3.5042
    -3.3887  -3.3331  -3.2952  -3.2730  -3.2386  -3.2363  -3.2203  -3.1581
    -3.1156  -3.0014  -2.9827  -2.9804  -2.9517  -2.9480  -2.9473  -2.9315
    -2.9293  -2.8260  -2.7708  -2.7612  -2.7433  -2.7006  -2.6850  -2.6655
    -2.6581  -2.6372  -2.6036  -2.5961  -2.5000  -2.4960  -2.4505  -2.4068
    -2.2835  -2.1682  -2.1313  -2.1206  -2.0516  -1.9908  -1.5527  -1.1987
     0.0997   0.7813   0.7909   1.3083   1.9242   2.1267   2.6828   3.8627
     4.1372   4.3012   5.4088   5.9972

     the Fermi energy is     1.0282 ev

!    total energy              =   -3560.95510451 Ry
     Harris-Foulkes estimate   =   -3560.95510471 Ry
     estimated scf accuracy    <       0.00000001 Ry

     The total energy is the sum of the following terms:

     one-electron contribution =  -25843.73203252 Ry
     hartree contribution      =   12911.38249912 Ry
     xc contribution           =    -361.67957678 Ry
     ewald contribution        =    9733.09715334 Ry
     electric field correction =       0.00008681 Ry
     smearing contrib. (-TS)   =      -0.02323447 Ry

     convergence has been achieved in   6 iterations

 BEEF-vdW xc energy contributions
           1 :   -313.427144033904
           2 :    283.769765834263
           3 :   -234.305352745419
           4 :    179.996845797808
           5 :   -134.436507012627
           6 :    104.921714455112
           7 :   -91.0964495217211
           8 :    87.1376811334674
           9 :   -85.8193870497773
          10 :    82.1510701855726
          11 :   -74.9331683607251
          12 :    65.9493109655381
          13 :   -57.8346434114449
          14 :    52.1464704122890
          15 :   -48.6966504176177
          16 :    46.1936576047373
          17 :   -43.4331018805129
          18 :    40.1036429271639
          19 :   -36.7511745328632
          20 :    34.1150899891062
          21 :   -32.4471164888229
          22 :    31.3149591502042
          23 :   -29.9703050038278
          24 :    27.9429156892406
          25 :   -25.4022015681042
          26 :    23.0322172388002
          27 :   -21.5355045072662
          28 :    21.1364739014285
          29 :   -21.4359580935608
          30 :    21.6994880325806
          31 :   -31.2343952034575
          32 :   -22.7088887636999

     Forces acting on atoms (Ry/au):

     negative rho (up, down):  2.179E-03 0.000E+00
     atom    1 type  1   force =    -0.00173119   -0.00099950    0.00065651
     atom    2 type  1   force =     0.00173118   -0.00099951    0.00065652
     atom    3 type  1   force =     0.00000000    0.00199900    0.00065646
     atom    4 type  1   force =     0.00000000   -0.00000000    0.00219114
     atom    5 type  1   force =     0.00000000   -0.00229355   -0.00197901
     atom    6 type  1   force =     0.00000000   -0.00000000   -0.00001370
     atom    7 type  1   force =     0.00198628    0.00114678   -0.00197901
     atom    8 type  1   force =    -0.00198629    0.00114678   -0.00197900
     atom    9 type  1   force =    -0.00000000   -0.00000002    0.00101966
     atom   10 type  1   force =     0.00000001   -0.00051840    0.00043335
     atom   11 type  1   force =    -0.00044898    0.00025921    0.00043331
     atom   12 type  1   force =     0.00044896    0.00025921    0.00043332
     atom   13 type  2   force =     0.00000000   -0.00000000   -0.00052955

     Total force =     0.001640     Total SCF correction =     0.000358
     SCF correction compared to forces is large: reduce conv_thr to get better values

     entering subroutine stress ...

     negative rho (up, down):  2.179E-03 0.000E+00
          total   stress  (Ry/bohr**3)                   (kbar)     P=   -6.15
  -0.00005147   0.00000000  -0.00000000         -7.57      0.00     -0.00
   0.00000000  -0.00005147  -0.00000000          0.00     -7.57     -0.00
  -0.00000000  -0.00000000  -0.00002254         -0.00     -0.00     -3.32

     bfgs converged in  10 scf cycles and   9 bfgs steps
     (criteria: energy <  1.0E+00, force <  1.9E-03)

     End of BFGS Geometry Optimization

     Final energy   =   -3560.9551045125 Ry
Begin final coordinates

ATOMIC_POSITIONS (crystal)
Ag1      0.166666667   0.166666667   0.402063960    0   0   0
Ag1      0.666666667   0.166666667   0.402063960    0   0   0
Ag1      0.166666667   0.666666667   0.402063960    0   0   0
Ag1      0.666666667   0.666666667   0.402063960    0   0   0
Ag1      0.833333333   0.333333333   0.500000000    0   0   0
Ag1      0.333333333   0.333333333   0.500000000    0   0   0
Ag1      0.833333333   0.833333333   0.500000000    0   0   0
Ag1      0.333333333   0.833333333   0.500000000    0   0   0
Ag1     -0.000000029   0.000000058   0.596614202
Ag1      0.499593520   0.000812948   0.596833259
Ag1      0.000812965   0.499593545   0.596833276
Ag1      0.499593503   0.499593545   0.596833272
H1      -0.000000007   0.000000006   0.664072080
End final coordinates

     Writing output data file calc.save

     General routines

     Parallel routines

   This run was terminated on:  10:57:39   4May2018

   JOB DONE.
Job  /afs/slac/g/suncat/bin/suncat-tsmpirun -x LD_LIBRARY_PATH -wdir /scratch/qe25713_j6FjC pw.x -npool 3 -in pw.inp

TID   HOST_NAME   COMMAND_LINE            STATUS            TERMINATION_TIME
00000 suncat2011 pw.x -npool 3 -i  Done                     05/04/2018 10:57:39
00001 suncat2011 pw.x -npool 3 -i  Done                     05/04/2018 10:57:39
00002 suncat2011 pw.x -npool 3 -i  Done                     05/04/2018 10:57:39
00003 suncat2011 pw.x -npool 3 -i  Done                     05/04/2018 10:57:39
00004 suncat2072 pw.x -npool 3 -i  Done                     05/04/2018 10:57:39
00005 suncat2072 pw.x -npool 3 -i  Done                     05/04/2018 10:57:39
00006 suncat2072 pw.x -npool 3 -i  Done                     05/04/2018 10:57:39
00007 suncat2072 pw.x -npool 3 -i  Done                     05/04/2018 10:57:39
00008 suncat2072 pw.x -npool 3 -i  Done                     05/04/2018 10:57:39
00009 suncat2072 pw.x -npool 3 -i  Done                     05/04/2018 10:57:39
00010 suncat2072 pw.x -npool 3 -i  Done                     05/04/2018 10:57:39
00011 suncat2072 pw.x -npool 3 -i  Done                     05/04/2018 10:57:39
00012 suncat2072 pw.x -npool 3 -i  Done                     05/04/2018 10:57:39
00013 suncat2072 pw.x -npool 3 -i  Done                     05/04/2018 10:57:39
00014 suncat2072 pw.x -npool 3 -i  Done                     05/04/2018 10:57:39
00015 suncat2072 pw.x -npool 3 -i  Done                     05/04/2018 10:57:39
00016 suncat2072 pw.x -npool 3 -i  Done                     05/04/2018 10:57:39
00017 suncat2072 pw.x -npool 3 -i  Done                     05/04/2018 10:57:39
00018 suncat2072 pw.x -npool 3 -i  Done                     05/04/2018 10:57:39
00019 suncat2072 pw.x -npool 3 -i  Done                     05/04/2018 10:57:39
00020 suncat2004 pw.x -npool 3 -i  Done                     05/04/2018 10:57:39
00021 suncat2004 pw.x -npool 3 -i  Done                     05/04/2018 10:57:39
00022 suncat2004 pw.x -npool 3 -i  Done                     05/04/2018 10:57:39
00023 suncat2004 pw.x -npool 3 -i  Done                     05/04/2018 10:57:39
00024 suncat2004 pw.x -npool 3 -i  Done                     05/04/2018 10:57:39
00025 suncat2004 pw.x -npool 3 -i  Done                     05/04/2018 10:57:39
00026 suncat2004 pw.x -npool 3 -i  Done                     05/04/2018 10:57:39
00027 suncat2004 pw.x -npool 3 -i  Done                     05/04/2018 10:57:39
00028 suncat2004 pw.x -npool 3 -i  Done                     05/04/2018 10:57:39
00029 suncat2004 pw.x -npool 3 -i  Done                     05/04/2018 10:57:39
00030 suncat2004 pw.x -npool 3 -i  Done                     05/04/2018 10:57:39
00031 suncat2004 pw.x -npool 3 -i  Done                     05/04/2018 10:57:39
00032 suncat2004 pw.x -npool 3 -i  Done                     05/04/2018 10:57:39
00033 suncat2004 pw.x -npool 3 -i  Done                     05/04/2018 10:57:39
00034 suncat2004 pw.x -npool 3 -i  Done                     05/04/2018 10:57:39
00035 suncat2004 pw.x -npool 3 -i  Done                     05/04/2018 10:57:39