     Program PWSCF v.5.1rc2 (svn rev. 11289) starts on  4May2018 at 10: 3:26

     Current dimensions of program PWSCF are:
     Max number of different atomic species (ntypx) = 10
     Max number of k-points (npk) =  40000
     Max angular momentum in pseudopotentials (lmaxx) =  3
     Presently stress not available with electric field

     IMPORTANT: XC functional enforced from input :
     Exchange-correlation      = BEEF-VDW ( 1  4 27 13 2)
     Any further DFT definition will be discarded
     Please, verify this is what you really want

     Subspace diagonalization in iterative solution of the eigenvalue problem:
     a serial algorithm will be used

     bravais-lattice index     =            0
     lattice parameter (alat)  =       1.8897  a.u.
     unit-cell volume          =    5144.9564 (a.u.)^3
     number of atoms/cell      =           13
     number of atomic types    =            2
     number of electrons       =       138.00
     number of Kohn-Sham states=           79
     kinetic-energy cutoff     =      36.7493  Ry
     charge density cutoff     =     367.4932  Ry
     convergence threshold     =      1.0E-05
     mixing beta               =       0.3000
     number of iterations used =           10  plain     mixing
     Exchange-correlation      = BEEF-VDW ( 1  4 27 13 2)
     nstep                     =           50

     celldm(1)=   1.889726  celldm(2)=   0.000000  celldm(3)=   0.000000
     celldm(4)=   0.000000  celldm(5)=   0.000000  celldm(6)=   0.000000

     crystal axes: (cart. coord. in units of alat)
               a(1) = (   5.950946   0.000000   0.000000 )
               a(2) = (   2.975473   5.153671   0.000000 )
               a(3) = (   0.000000   0.000000  24.858927 )

     reciprocal axes: (cart. coord. in units 2 pi/alat)
               b(1) = (  0.168040 -0.097018  0.000000 )
               b(2) = (  0.000000  0.194036  0.000000 )
               b(3) = (  0.000000  0.000000  0.040227 )

     PseudoPot. # 1 for Au read from file:
     /u/if/mamunm/psp/gbrv1.5pbe/Au.UPF
     MD5 check sum: 9d7f43293ad2c663164586bc4b293ffc
     Pseudo is Ultrasoft + core correction, Zval = 11.0
     Generated by new atomic code, or converted to UPF format
     Using radial grid of  985 points,  7 beta functions with:
                l(1) =   0
                l(2) =   0
                l(3) =   1
                l(4) =   1
                l(5) =   2
                l(6) =   2
                l(7) =   3
     Q(r) pseudized with  6 coefficients,  rinner =    1.900   1.900   1.900
                                                       1.900   1.900   1.900
                                                       1.900

     PseudoPot. # 2 for S  read from file:
     /u/if/mamunm/psp/gbrv1.5pbe/S.UPF
     MD5 check sum: 88d86576ff6df21479756cfb9bdac1df
     Pseudo is Ultrasoft + core correction, Zval =  6.0
     Generated by new atomic code, or converted to UPF format
     Using radial grid of  907 points,  6 beta functions with:
                l(1) =   0
                l(2) =   0
                l(3) =   1
                l(4) =   1
                l(5) =   2
                l(6) =   2
     Q(r) pseudized with  8 coefficients,  rinner =    1.300   1.300   1.300
                                                       1.300   1.300

     vdW kernel table read from file vdW_kernel_table
     MD5 check sum: 095c7af220d748ca6e76c0b4c6cfb241

     atomic species   valence    mass     pseudopotential
        Au1           11.00   196.96657     Au( 1.00)
        S1             6.00    32.06000     S ( 1.00)

     No symmetry found

   Cartesian axes

     site n.     atom                  positions (alat units)
         1           Au1 tau(   1) = (   1.4877366   0.8589451  10.0000000  )
         2           Au1 tau(   2) = (   4.4632098   0.8589451  10.0000000  )
         3           Au1 tau(   3) = (   2.9754732   3.4357805  10.0000000  )
         4           Au1 tau(   4) = (   5.9509464   3.4357805  10.0000000  )
         5           Au1 tau(   5) = (   5.9509464   1.7178903  12.4294637  )
         6           Au1 tau(   6) = (   2.9754732   1.7178903  12.4294637  )
         7           Au1 tau(   7) = (   7.4386830   4.2947256  12.4294637  )
         8           Au1 tau(   8) = (   4.4632098   4.2947256  12.4294637  )
         9           Au1 tau(   9) = (   0.0000000   0.0000000  14.8589274  )
        10           Au1 tau(  10) = (   2.9754732   0.0000000  14.8589274  )
        11           Au1 tau(  11) = (   1.4877366   2.5768354  14.8589274  )
        12           Au1 tau(  12) = (   4.4632098   2.5768354  14.8589274  )
        13           S1  tau(  13) = (   2.9754732   1.7178903  16.4254274  )

     number of k points=    20  Fermi-Dirac smearing, width (Ry)=  0.0110
                       cart. coord. in units 2pi/alat
        k(    1) = (   0.0000000   0.0000000   0.0000000), wk =   0.0555556
        k(    2) = (   0.0000000   0.0323394   0.0000000), wk =   0.1111111
        k(    3) = (   0.0000000   0.0646788   0.0000000), wk =   0.1111111
        k(    4) = (   0.0000000  -0.0970182   0.0000000), wk =   0.0555556
        k(    5) = (   0.0280067  -0.0161697   0.0000000), wk =   0.1111111
        k(    6) = (   0.0280067   0.0161697   0.0000000), wk =   0.1111111
        k(    7) = (   0.0280067   0.0485091   0.0000000), wk =   0.1111111
        k(    8) = (   0.0280067  -0.1131879   0.0000000), wk =   0.1111111
        k(    9) = (   0.0280067  -0.0808485   0.0000000), wk =   0.1111111
        k(   10) = (   0.0280067  -0.0485091   0.0000000), wk =   0.1111111
        k(   11) = (   0.0560135  -0.0323394   0.0000000), wk =   0.1111111
        k(   12) = (   0.0560135   0.0000000   0.0000000), wk =   0.1111111
        k(   13) = (   0.0560135   0.0323394   0.0000000), wk =   0.1111111
        k(   14) = (   0.0560135  -0.1293576   0.0000000), wk =   0.1111111
        k(   15) = (   0.0560135  -0.0970182   0.0000000), wk =   0.1111111
        k(   16) = (   0.0560135  -0.0646788   0.0000000), wk =   0.1111111
        k(   17) = (  -0.0840202   0.0485091   0.0000000), wk =   0.0555556
        k(   18) = (  -0.0840202   0.0808485   0.0000000), wk =   0.1111111
        k(   19) = (  -0.0840202   0.1131879   0.0000000), wk =   0.1111111
        k(   20) = (  -0.0840202  -0.0485091   0.0000000), wk =   0.0555556

     Largest allocated arrays     est. size (Mb)     dimensions
     Largest temporary arrays     est. size (Mb)     dimensions

     Check: negative/imaginary core charge=   -0.000002    0.000000

     Initial potential from superposition of free atoms

     starting charge  137.99850, renormalised to  138.00000

     negative rho (up, down):  6.797E-05 0.000E+00

     *
     * You are using vdW-DF for exchange-correlation in this calculation.
     * Please cite the following three references that made this development
     * possible:
     *
     *   M. Dion, H. Rydberg, E. Schroder, D. C. Langreth, and
     *   B. I. Lundqvist, Phys. Rev. Lett. 92, 246401 (2004).
     *
     *   T. Thonhauser, V. R. Cooper, S. Li, A. Puzder, P. Hyldgaard, and
     *   D. C. Langreth, Phys. Rev. B 76, 125112 (2007).
     *
     *   G. Roman-Perez and J. M. Soler, Phys. Rev. Lett. 103, 096102 (2009).
     *
     *
     * If you are using vdW-DF2, please also cite:
     *
     *   K. Lee, E. D. Murray, L. Kong, B. I. Lundqvist, and
     *   D. C. Langreth, Phys. Rev. B 82, 081101(R) (2010).
     *
     *
     * If you are calculating the stress with vdW-DF, please also cite:
     *
     *   R. Sabatini, E. Kucukbenli, B. Kolb, T. Thonhauser, and
     *   S. de Gironcoli, J. Phys.: Condens. Matter 24, 424209 (2012).
     *

     Carrying out vdW-DF run using the following parameters:

     Nqs =      20    Nr_points =    1024   r_max =   100.000
     q_mesh =
               0.00001000     0.04494208     0.09755937     0.15916263
               0.23128650     0.31572767     0.41458969     0.53033537
               0.66584808     0.82450364     1.01025438     1.22772762
               1.48234092     1.78043706     2.12944203     2.53805004
               3.01644009     3.57652955     4.23227104     5.00000000

     Gradients computed in reciprocal space

     Adding external electric field

     Computed dipole along edir(3) :
        Dipole               -0.0002 Ry au,         -0.0006 Debye
        Dipole field         -0.0000 Ry au

        Potential amp.        0.0000 Ry
        Total length         45.8022 bohr

     Starting wfc are  112 randomized atomic wfcs

     Self-consistent Calculation

     iteration #  1     ecut=    36.75 Ry     beta=0.30
     Davidson diagonalization with overlap
     ethr =  1.00E-02,  avg # of iterations =  2.3

     Threshold (ethr) on eigenvalues was too large:
     Diagonalizing with lowered threshold

     Davidson diagonalization with overlap
     ethr =  3.32E-04,  avg # of iterations =  3.8

[...]

     total energy              =   -1424.77310749 Ry
     Harris-Foulkes estimate   =   -1424.96868470 Ry
     estimated scf accuracy    <       0.53019332 Ry

[...]

     End of self-consistent calculation

          k = 0.0000 0.0000 0.0000 ( 19315 PWs)   bands (ev):

   -13.2920  -7.6883  -6.4310  -6.0738  -6.0738  -6.0430  -5.8511  -5.7064
    -5.6346  -5.6346  -5.3636  -5.3636  -5.3094  -5.1790  -5.1393  -5.1393
    -4.7989  -4.7989  -4.4533  -4.1000  -4.1000  -4.0201  -4.0031  -4.0031
    -3.9228  -3.7927  -3.7927  -3.7249  -3.7249  -3.6476  -3.4788  -3.4788
    -3.4366  -3.4256  -3.4256  -2.9607  -2.9607  -2.9368  -2.7607  -2.6031
    -2.6031  -2.5523  -2.4167  -2.4167  -2.3076  -2.3076  -2.0721  -2.0721
    -1.9062  -1.8716  -1.8716  -1.7980  -1.7797  -1.7797  -1.7346  -1.6506
    -1.6506  -1.5943  -1.5182  -1.5182  -1.3087  -1.2951  -1.2951  -1.2933
    -0.5630  -0.5630  -0.5626   0.9058   0.9058   1.0506   1.2747   1.5912
     1.5912   1.8228   1.8498   1.8498   3.4033   3.6143   3.7840

[...]

          k =-0.0840 0.0485 0.0000 ( 19380 PWs)   bands (ev):

[...]

     the Fermi energy is     0.3666 ev

!    total energy              =   -1424.88929514 Ry
     Harris-Foulkes estimate   =   -1424.88929646 Ry
     estimated scf accuracy    <       0.00000206 Ry

     The total energy is the sum of the following terms:

     one-electron contribution =   -8328.93196974 Ry
     hartree contribution      =    4262.84057216 Ry
     xc contribution           =    -777.02908992 Ry
     ewald contribution        =    3418.25758385 Ry
     electric field correction =       0.00000361 Ry
     smearing contrib. (-TS)   =      -0.02639509 Ry

     convergence has been achieved in  10 iterations

 BEEF-vdW xc energy contributions
           1 :   -694.292875455760
           2 :    645.197791019170
           3 :   -557.394356381520
           4 :    447.898048508535
           5 :   -335.115598051032
           6 :    234.113679209773
           7 :   -153.745408068153
           8 :    96.1389168640131
           9 :   -58.2886170317771
          10 :    34.7503946944215
          11 :   -20.2226355009230
          12 :    11.0569166826782
          13 :   -5.43626514992354
          14 :    2.60437978423181
          15 :   -1.88326959093035
          16 :    2.10382149576219
          17 :   -1.71502703843601
          18 :  -0.602582636121952
          19 :    5.25450580944369
          20 :   -11.4362231285544
          21 :    17.4272354768553
          22 :   -21.3551210878162
          23 :    22.0402850206032
          24 :   -19.5038040152584
          25 :    14.9025290399412
          26 :   -9.95754168014093
          27 :    6.18207913832737
          28 :   -4.29832911367282
          29 :    4.09845202082568
          30 :   -4.76445372385967
          31 :   -55.1171562798057
          32 :   -40.1597220059489

     Forces acting on atoms (Ry/au):

     negative rho (up, down):  1.708E-04 0.000E+00
     atom    1 type  1   force =    -0.00064217   -0.00037136   -0.00380494
     atom    2 type  1   force =     0.00064041   -0.00036702   -0.00380649
     atom    3 type  1   force =     0.00000261    0.00074011   -0.00381863
     atom    4 type  1   force =    -0.00000597   -0.00000415   -0.00770307
     atom    5 type  1   force =     0.00000431    0.00366766    0.00588022
     atom    6 type  1   force =    -0.00000131   -0.00000097   -0.01101750
     atom    7 type  1   force =    -0.00318336   -0.00183120    0.00587437
     atom    8 type  1   force =     0.00318015   -0.00183275    0.00587160
     atom    9 type  1   force =     0.00000222    0.00000147   -0.00943534
     atom   10 type  1   force =    -0.00000254   -0.05192151   -0.01577730
     atom   11 type  1   force =    -0.04496594    0.02595728   -0.01576884
     atom   12 type  1   force =     0.04497268    0.02596176   -0.01577098
     atom   13 type  2   force =    -0.00000108    0.00000067    0.06927691

     Total force =     0.117144     Total SCF correction =     0.003107

     entering subroutine stress ...

     negative rho (up, down):  1.708E-04 0.000E+00
          total   stress  (Ry/bohr**3)                   (kbar)     P=    0.86
  -0.00002890  -0.00000000  -0.00000000         -4.25     -0.00     -0.00
  -0.00000000  -0.00002890  -0.00000000         -0.00     -4.25     -0.00
  -0.00000000  -0.00000000   0.00007541         -0.00     -0.00     11.09

     BFGS Geometry Optimization

     number of scf cycles    =   1
     number of bfgs steps    =   0

     energy   new            =   -1424.8892951351 Ry

     new trust radius        =       0.0692769080 bohr
     new conv_thr            =       0.0000099958 Ry

ATOMIC_POSITIONS (crystal)
Au1      0.166666667   0.166666667   0.402269971    0   0   0
Au1      0.666666667   0.166666667   0.402269971    0   0   0
Au1      0.166666667   0.666666667   0.402269971    0   0   0
Au1      0.666666667   0.666666667   0.402269971    0   0   0
Au1      0.833333333   0.333333333   0.500000000    0   0   0
Au1      0.333333333   0.333333333   0.500000000    0   0   0
Au1      0.833333333   0.833333333   0.500000000    0   0   0
Au1      0.333333333   0.833333333   0.500000000    0   0   0
Au1      0.000000122   0.000000151   0.597529177
Au1      0.502665416  -0.005331283   0.597394174
Au1     -0.005331158   0.502665285   0.597394355
Au1      0.502666242   0.502665745   0.597394309
S1       0.333333203   0.333333402   0.662220332

     Writing output data file calc.save
     NEW-OLD atomic charge density approx. for the potential

[...]

     Total force =     0.062666     Total SCF correction =     0.008437
     SCF correction compared to forces is large: reduce conv_thr to get better values

[...]

     energy   old            =   -1424.8892951351 Ry
     energy   new            =   -1424.8997545518 Ry

     CASE: energy  _new < energy  _old

[...]

     Total force =     0.002662     Total SCF correction =     0.000184

[...]

     number of scf cycles    =  12
     number of bfgs steps    =  11

     energy   old            =   -1424.9063365284 Ry
     energy   new            =   -1424.9063684898 Ry

     CASE: energy  _new < energy  _old

     new trust radius        =       0.0083833195 bohr
     new conv_thr            =       0.0000001000 Ry

ATOMIC_POSITIONS (crystal)
Au1      0.166666667   0.166666667   0.402269971    0   0   0
Au1      0.666666667   0.166666667   0.402269971    0   0   0
Au1      0.166666667   0.666666667   0.402269971    0   0   0
Au1      0.666666667   0.666666667   0.402269971    0   0   0
Au1      0.833333333   0.333333333   0.500000000    0   0   0
Au1      0.333333333   0.333333333   0.500000000    0   0   0
Au1      0.833333333   0.833333333   0.500000000    0   0   0
Au1      0.333333333   0.833333333   0.500000000    0   0   0
Au1     -0.000000001   0.000000025   0.594785969
Au1      0.507006445  -0.014012780   0.600459163
Au1     -0.014013449   0.507006639   0.600458987
Au1      0.507006617   0.507006245   0.600459243
S1       0.333333020   0.333333317   0.666311767

     Writing output data file calc.save
     NEW-OLD atomic charge density approx. for the potential

     Check: negative/imaginary core charge=   -0.000002    0.000000

[...]

     Self-consistent Calculation

[...]

     Threshold (ethr) on eigenvalues was too large:
     Diagonalizing with lowered threshold

     Davidson diagonalization with overlap
     ethr =  6.59E-09,  avg # of iterations =  3.2

[...]

     total energy              =   -1424.90637805 Ry
     Harris-Foulkes estimate   =   -1424.90637807 Ry
     estimated scf accuracy    <       0.00000045 Ry

     iteration #  5     ecut=    36.75 Ry     beta=0.30
     Davidson diagonalization with overlap
     ethr =  3.26E-10,  avg # of iterations =  2.0

[...]

     negative rho (up, down):  1.639E-04 0.000E+00

     Adding external electric field

     Computed dipole along edir(3) :
        Dipole               -0.1055 Ry au,         -0.2683 Debye
        Dipole field         -0.0003 Ry au

        Potential amp.        0.0236 Ry
        Total length         45.8022 bohr

     End of self-consistent calculation

[...]

          k = 0.0560-0.0647 0.0000 ( 19376 PWs)   bands (ev):

[...]

          k =-0.0840-0.0485 0.0000 ( 19380 PWs)   bands (ev):

   -12.6350  -6.4620  -6.2598  -5.6348  -5.3069  -5.1895  -5.1202  -5.0992
    -5.0546  -5.0252  -5.0246  -4.8012  -4.7497  -4.6989  -4.6038  -4.5914
    -4.5520  -4.4110  -4.3947  -4.2790  -4.1873  -4.1589  -4.1364  -4.0360
    -3.9736  -3.9377  -3.8858  -3.8344  -3.6954  -3.6602  -3.6059  -3.5271
    -3.4912  -3.4555  -3.4456  -3.3842  -3.3043  -3.2824  -3.2679  -3.2223
    -3.2169  -3.1876  -3.0073  -2.9482  -2.9349  -2.8468  -2.8337  -2.7478
    -2.7347  -2.7069  -2.6607  -2.5898  -2.5215  -2.4007  -2.3179  -2.3065
    -2.2387  -2.2053  -1.9581  -1.8654  -1.8424  -1.8190  -1.7942  -1.6584
    -1.5689  -0.9058  -0.6763  -0.2028   0.2609   0.3579   0.9106   1.1341
     1.6824   2.3922   3.3997   3.7885   4.0948   4.5377   5.5225

     the Fermi energy is     0.2834 ev

!    total energy              =   -1424.90637810 Ry
     Harris-Foulkes estimate   =   -1424.90637778 Ry
     estimated scf accuracy    <       0.00000006 Ry

     The total energy is the sum of the following terms:

     one-electron contribution =   -8261.07597495 Ry
     hartree contribution      =    4228.86186441 Ry
     xc contribution           =    -776.92390394 Ry
     ewald contribution        =    3384.25782602 Ry
     electric field correction =       0.00002721 Ry
     smearing contrib. (-TS)   =      -0.02621686 Ry

     convergence has been achieved in   5 iterations

 BEEF-vdW xc energy contributions
           1 :   -694.178986163385
           2 :    645.013538566375
           3 :   -557.116787983223
           4 :    447.566450663940
           5 :   -334.808766580121
           6 :    233.906857710425
           7 :   -153.669704182130
           8 :    96.1656058728713
           9 :   -58.3461162147901
          10 :    34.7642269284567
          11 :   -20.1568116365700
          12 :    10.9335171981663
          13 :   -5.32194596333738
          14 :    2.57230652890053
          15 :   -1.97224540790160
          16 :    2.29709718599850
          17 :   -1.94959349243027
          18 :  -0.403272285171511
          19 :    5.14356187305293
          20 :   -11.4209685259412
          21 :    17.4734083195159
          22 :   -21.4118802553437
          23 :    22.0699043428510
          24 :   -19.4996719568080
          25 :    14.8860892889597
          26 :   -9.95815653809723
          27 :    6.21496579288771
          28 :   -4.35479605285536
          29 :    4.15364971945792
          30 :   -4.79653256632798
          31 :   -55.1088356304897
          32 :   -40.1330830054098

     Forces acting on atoms (Ry/au):

     negative rho (up, down):  1.639E-04 0.000E+00
     atom    1 type  1   force =    -0.00044178   -0.00025508   -0.00438147
     atom    2 type  1   force =     0.00044175   -0.00025508   -0.00438148
     atom    3 type  1   force =    -0.00000001    0.00051011   -0.00438147
     atom    4 type  1   force =     0.00000000    0.00000004   -0.00665495
     atom    5 type  1   force =    -0.00000019    0.00586154    0.00538045
     atom    6 type  1   force =     0.00000009   -0.00000002    0.00231834
     atom    7 type  1   force =    -0.00507633   -0.00293069    0.00538045
     atom    8 type  1   force =     0.00507621   -0.00293086    0.00538059
     atom    9 type  1   force =     0.00000003   -0.00000021    0.00055262
     atom   10 type  1   force =    -0.00000015   -0.00057248    0.00003880
     atom   11 type  1   force =    -0.00049475    0.00028586    0.00003942
     atom   12 type  1   force =     0.00049551    0.00028650    0.00003857
     atom   13 type  2   force =    -0.00000039    0.00000036    0.00067013

     Total force =     0.001319     Total SCF correction =     0.000259
     SCF correction compared to forces is large: reduce conv_thr to get better values

     entering subroutine stress ...

     negative rho (up, down):  1.639E-04 0.000E+00
          total   stress  (Ry/bohr**3)                   (kbar)     P=   -5.38
  -0.00006329   0.00000000  -0.00000000         -9.31      0.00     -0.00
   0.00000000  -0.00006329   0.00000000          0.00     -9.31      0.00
  -0.00000000   0.00000000   0.00001684         -0.00      0.00      2.48

     bfgs converged in  13 scf cycles and  12 bfgs steps
     (criteria: energy <  1.0E+00, force <  1.9E-03)

     End of BFGS Geometry Optimization

     Final energy   =   -1424.9063781039 Ry
Begin final coordinates

ATOMIC_POSITIONS (crystal)
Au1      0.166666667   0.166666667   0.402269971    0   0   0
Au1      0.666666667   0.166666667   0.402269971    0   0   0
Au1      0.166666667   0.666666667   0.402269971    0   0   0
Au1      0.666666667   0.666666667   0.402269971    0   0   0
Au1      0.833333333   0.333333333   0.500000000    0   0   0
Au1      0.333333333   0.333333333   0.500000000    0   0   0
Au1      0.833333333   0.833333333   0.500000000    0   0   0
Au1      0.333333333   0.833333333   0.500000000    0   0   0
Au1     -0.000000001   0.000000025   0.594785969
Au1      0.507006445  -0.014012780   0.600459163
Au1     -0.014013449   0.507006639   0.600458987
Au1      0.507006617   0.507006245   0.600459243
S1       0.333333020   0.333333317   0.666311767
End final coordinates

     Writing output data file calc.save

     General routines

     Parallel routines

   This run was terminated on:  11:36:13   4May2018

   JOB DONE.
Job  /afs/slac/g/suncat/bin/suncat-tsmpirun -x LD_LIBRARY_PATH -wdir /scratch/qe931718_rCAiF pw.x -npool 4 -in pw.inp

TID   HOST_NAME   COMMAND_LINE            STATUS            TERMINATION_TIME
00000 suncat0091 pw.x -npool 4 -i  Done                     05/04/2018 11:36:13
00001 suncat0091 pw.x -npool 4 -i  Done                     05/04/2018 11:36:13
00002 suncat0091 pw.x -npool 4 -i  Done                     05/04/2018 11:36:13
00003 suncat0091 pw.x -npool 4 -i  Done                     05/04/2018 11:36:13
00004 suncat0091 pw.x -npool 4 -i  Done                     05/04/2018 11:36:13
00005 suncat0091 pw.x -npool 4 -i  Done                     05/04/2018 11:36:13
00006 suncat0091 pw.x -npool 4 -i  Done                     05/04/2018 11:36:13
00007 suncat0091 pw.x -npool 4 -i  Done                     05/04/2018 11:36:13
00008 suncat0090 pw.x -npool 4 -i  Done                     05/04/2018 11:36:13
00009 suncat0090 pw.x -npool 4 -i  Done                     05/04/2018 11:36:13
00010 suncat0090 pw.x -npool 4 -i  Done                     05/04/2018 11:36:13
00011 suncat0090 pw.x -npool 4 -i  Done                     05/04/2018 11:36:13
00012 suncat0090 pw.x -npool 4 -i  Done                     05/04/2018 11:36:13
00013 suncat0090 pw.x -npool 4 -i  Done                     05/04/2018 11:36:13
00014 suncat0090 pw.x -npool 4 -i  Done                     05/04/2018 11:36:13
00015 suncat0090 pw.x -npool 4 -i  Done                     05/04/2018 11:36:13
00016 suncat0072 pw.x -npool 4 -i  Done                     05/04/2018 11:36:13
00017 suncat0072 pw.x -npool 4 -i  Done                     05/04/2018 11:36:13
00018 suncat0072 pw.x -npool 4 -i  Done                     05/04/2018 11:36:13
00019 suncat0072 pw.x -npool 4 -i  Done                     05/04/2018 11:36:13
00020 suncat0072 pw.x -npool 4 -i  Done                     05/04/2018 11:36:13
00021 suncat0072 pw.x -npool 4 -i  Done                     05/04/2018 11:36:13
00022 suncat0072 pw.x -npool 4 -i  Done                     05/04/2018 11:36:13
00023 suncat0072 pw.x -npool 4 -i  Done                     05/04/2018 11:36:13
00024 suncat0267 pw.x -npool 4 -i  Done                     05/04/2018 11:36:13
00025 suncat0267 pw.x -npool 4 -i  Done                     05/04/2018 11:36:13
00026 suncat0267 pw.x -npool 4 -i  Done                     05/04/2018 11:36:13
00027 suncat0267 pw.x -npool 4 -i  Done                     05/04/2018 11:36:13
00028 suncat0267 pw.x -npool 4 -i  Done                     05/04/2018 11:36:13
00029 suncat0267 pw.x -npool 4 -i  Done                     05/04/2018 11:36:13
00030 suncat0267 pw.x -npool 4 -i  Done                     05/04/2018 11:36:13
00031 suncat0267 pw.x -npool 4 -i  Done                     05/04/2018 11:36:13