     Program PWSCF v.5.1rc2 (svn rev. 11289) starts on 21Apr2018 at 15:40:57

     Current dimensions of program PWSCF are:
     Max number of different atomic species (ntypx) = 10
     Max number of k-points (npk) =  40000
     Max angular momentum in pseudopotentials (lmaxx) =  3
     Presently stress not available with electric field

     IMPORTANT: XC functional enforced from input :
     Exchange-correlation      = BEEF-VDW ( 1  4 27 13 2)
     Any further DFT definition will be discarded
     Please, verify this is what you really want

     Subspace diagonalization in iterative solution of the eigenvalue problem:
     a serial algorithm will be used

     bravais-lattice index     =            0
     lattice parameter (alat)  =       1.8897  a.u.
     unit-cell volume          =    7171.5276 (a.u.)^3
     number of atoms/cell      =           14
     number of atomic types    =            3
     number of electrons       =       175.00
     number of Kohn-Sham states=           97
     kinetic-energy cutoff     =      36.7493  Ry
     charge density cutoff     =     367.4932  Ry
     convergence threshold     =      1.0E-05
     mixing beta               =       0.3000
     number of iterations used =           10  plain     mixing
     Exchange-correlation      = BEEF-VDW ( 1  4 27 13 2)
     nstep                     =           50

     celldm(1)=   1.889726  celldm(2)=   0.000000  celldm(3)=   0.000000
     celldm(4)=   0.000000  celldm(5)=   0.000000  celldm(6)=   0.000000

     crystal axes: (cart. coord. in units of alat)
               a(1) = (   6.917003   0.000000   0.000000 )
               a(2) = (   3.458501   5.990300   0.000000 )
               a(3) = (   0.000000   0.000000  25.647709 )

     reciprocal axes: (cart. coord. in units 2 pi/alat)
               b(1) = (  0.144571 -0.083468  0.000000 )
               b(2) = (  0.000000  0.166937  0.000000 )
               b(3) = (  0.000000  0.000000  0.038990 )

     PseudoPot. # 1 for Pb read from file:
     /u/if/mamunm/psp/gbrv1.5pbe/Pb.UPF
     MD5 check sum: 3d1c1779aa92214d1e8f3a7db79003e2
     Pseudo is Ultrasoft + core correction, Zval = 14.0
     Generated by new atomic code, or converted to UPF format
     Using radial grid of  899 points,  6 beta functions with:
                l(1) =   0
                l(2) =   0
                l(3) =   1
                l(4) =   1
                l(5) =   2
                l(6) =   2
     Q(r) pseudized with  6 coefficients,  rinner =    1.000   1.000   1.000
                                                       1.000   1.000

     PseudoPot. # 2 for S  read from file:
     /u/if/mamunm/psp/gbrv1.5pbe/S.UPF
     MD5 check sum: 88d86576ff6df21479756cfb9bdac1df
     Pseudo is Ultrasoft + core correction, Zval =  6.0
     Generated by new atomic code, or converted to UPF format
     Using radial grid of  907 points,  6 beta functions with:
                l(1) =   0
                l(2) =   0
                l(3) =   1
                l(4) =   1
                l(5) =   2
                l(6) =   2
     Q(r) pseudized with  8 coefficients,  rinner =    1.300   1.300   1.300
                                                       1.300   1.300

     PseudoPot. # 3 for H  read from file:
     /u/if/mamunm/psp/gbrv1.5pbe/H.UPF
     MD5 check sum: 761ae9a214b05c3daf00ab9f6b793d6f
     Pseudo is Ultrasoft, Zval =  1.0
     Generated by new atomic code, or converted to UPF format
     Using radial grid of  615 points,  2 beta functions with:
                l(1) =   0
                l(2) =   0
     Q(r) pseudized with  8 coefficients,  rinner =    0.700

     vdW kernel table read from file vdW_kernel_table
     MD5 check sum: 095c7af220d748ca6e76c0b4c6cfb241

     atomic species   valence    mass     pseudopotential
        Pb1           14.00   207.20000     Pb( 1.00)
        S1             6.00    32.06000     S ( 1.00)
        H1             1.00     1.00800     H ( 1.00)

     No symmetry found

   Cartesian axes

     site n.     atom                  positions (alat units)
         1           Pb1 tau(   1) = (   1.7292506   0.9983833  10.0000000  )
         2           Pb1 tau(   2) = (   5.1877519   0.9983833  10.0000000  )
         3           Pb1 tau(   3) = (   3.4585013   3.9935333  10.0000000  )
         4           Pb1 tau(   4) = (   6.9170025   3.9935333  10.0000000  )
         5           Pb1 tau(   5) = (   6.9170025   1.9967666  12.8238544  )
         6           Pb1 tau(   6) = (   3.4585013   1.9967666  12.8238544  )
         7           Pb1 tau(   7) = (   8.6462531   4.9919166  12.8238544  )
         8           Pb1 tau(   8) = (   5.1877519   4.9919166  12.8238544  )
         9           Pb1 tau(   9) = (   0.0000000   0.0000000  15.6477089  )
        10           Pb1 tau(  10) = (   3.4585013   0.0000000  15.6477089  )
        11           Pb1 tau(  11) = (   1.7292506   2.9951499  15.6477089  )
        12           Pb1 tau(  12) = (   5.1877519   2.9951499  15.6477089  )
        13           S1  tau(  13) = (   0.0000000   0.0000000  17.7812089  )
        14           H1  tau(  14) = (   0.0000000   0.0000000  19.0312089  )

     number of k points=    20  Fermi-Dirac smearing, width (Ry)=  0.0110
                       cart. coord. in units 2pi/alat
        k(    1) = (   0.0000000   0.0000000   0.0000000), wk =   0.0555556
        k(    2) = (   0.0000000   0.0278228   0.0000000), wk =   0.1111111
        k(    3) = (   0.0000000   0.0556455   0.0000000), wk =   0.1111111
        k(    4) = (   0.0000000  -0.0834683   0.0000000), wk =   0.0555556
        k(    5) = (   0.0240952  -0.0139114   0.0000000), wk =   0.1111111
        k(    6) = (   0.0240952   0.0139114   0.0000000), wk =   0.1111111
        k(    7) = (   0.0240952   0.0417341   0.0000000), wk =   0.1111111
        k(    8) = (   0.0240952  -0.0973797   0.0000000), wk =   0.1111111
        k(    9) = (   0.0240952  -0.0695569   0.0000000), wk =   0.1111111
        k(   10) = (   0.0240952  -0.0417341   0.0000000), wk =   0.1111111
        k(   11) = (   0.0481904  -0.0278228   0.0000000), wk =   0.1111111
        k(   12) = (   0.0481904   0.0000000   0.0000000), wk =   0.1111111
        k(   13) = (   0.0481904   0.0278228   0.0000000), wk =   0.1111111
        k(   14) = (   0.0481904  -0.1112910   0.0000000), wk =   0.1111111
        k(   15) = (   0.0481904  -0.0834683   0.0000000), wk =   0.1111111
        k(   16) = (   0.0481904  -0.0556455   0.0000000), wk =   0.1111111
        k(   17) = (  -0.0722856   0.0417341   0.0000000), wk =   0.0555556
        k(   18) = (  -0.0722856   0.0695569   0.0000000), wk =   0.1111111
        k(   19) = (  -0.0722856   0.0973797   0.0000000), wk =   0.1111111
        k(   20) = (  -0.0722856  -0.0417341   0.0000000), wk =   0.0555556

     Largest allocated arrays     est. size (Mb)     dimensions
     Largest temporary arrays     est. size (Mb)     dimensions

     Check: negative/imaginary core charge=   -0.000001    0.000000

     Initial potential from superposition of free atoms
     Check: negative starting charge=   -0.197316

     starting charge  174.97174, renormalised to  175.00000

     negative rho (up, down):  1.973E-01 0.000E+00

     *
     * You are using vdW-DF for exchange-correlation in this calculation.
     * Please cite the following three references that made this development
     * possible:
     *
     *   M. Dion, H. Rydberg, E. Schroder, D. C. Langreth, and
     *   B. I. Lundqvist, Phys. Rev. Lett. 92, 246401 (2004).
     *
     *   T. Thonhauser, V. R. Cooper, S. Li, A. Puzder, P. Hyldgaard, and
     *   D. C. Langreth, Phys. Rev. B 76, 125112 (2007).
     *
     *   G. Roman-Perez and J. M. Soler, Phys. Rev. Lett. 103, 096102 (2009).
     *
     *
     * If you are using vdW-DF2, please also cite:
     *
     *   K. Lee, E. D. Murray, L. Kong, B. I. Lundqvist, and
     *   D. C. Langreth, Phys. Rev. B 82, 081101(R) (2010).
     *
     *
     * If you are calculating the stress with vdW-DF, please also cite:
     *
     *   R. Sabatini, E. Kucukbenli, B. Kolb, T. Thonhauser, and
     *   S. de Gironcoli, J. Phys.: Condens. Matter 24, 424209 (2012).
     *

     Carrying out vdW-DF run using the following parameters:

     Nqs =      20    Nr_points =    1024   r_max =   100.000
     q_mesh =
               0.00001000     0.04494208     0.09755937     0.15916263
               0.23128650     0.31572767     0.41458969     0.53033537
               0.66584808     0.82450364     1.01025438     1.22772762
               1.48234092     1.78043706     2.12944203     2.53805004
               3.01644009     3.57652955     4.23227104     5.00000000

     Gradients computed in reciprocal space

     Adding external electric field

     Computed dipole along edir(3) :
        Dipole               -0.0105 Ry au,         -0.0268 Debye
        Dipole field         -0.0000 Ry au

        Potential amp.        0.0017 Ry
        Total length         47.2555 bohr

     Starting wfc are  113 randomized atomic wfcs

     Self-consistent Calculation

     iteration #  1     ecut=    36.75 Ry     beta=0.30
     Davidson diagonalization with overlap
     ethr =  1.00E-02,  avg # of iterations =  2.2

     Threshold (ethr) on eigenvalues was too large:
     Diagonalizing with lowered threshold

     Davidson diagonalization with overlap
     ethr =  1.87E-04,  avg # of iterations =  3.5

[...]

     total energy              =   -2017.60198074 Ry
     Harris-Foulkes estimate   =   -2017.74472178 Ry
     estimated scf accuracy    <       0.36173716 Ry

[...]

     End of self-consistent calculation

          k = 0.0000 0.0000 0.0000 ( 27033 PWs)   bands (ev):

   -17.2782 -16.5113 -16.5113 -16.4351 -16.4351 -16.2561 -16.2418 -16.2418
   -16.2220 -16.1910 -16.1910 -16.1830 -16.1633 -16.1584 -16.1584 -16.1537
   -16.1395 -16.1387 -16.1387 -16.1145 -16.1145 -16.1087 -16.1087 -16.1087
   -16.0997 -16.0997 -16.0975 -16.0894 -16.0797 -16.0797 -16.0564 -16.0414
   -16.0414 -16.0104 -16.0021 -16.0021 -15.9866 -15.9866 -15.9685 -15.9685
   -15.9332 -15.9332 -15.9145 -15.8976 -15.8976 -15.8870 -15.8792 -15.8792
   -15.8703 -15.8530 -15.8530 -15.8420 -15.8420 -15.8410 -15.8343 -15.8343
   -15.8194 -15.7984 -15.7869 -15.7869 -12.8636 -10.2242  -9.2295  -8.0063
    -7.2445  -6.6839  -6.6839  -6.5547  -6.2480  -6.2480  -5.8496  -5.6167
    -5.6167  -3.8321  -2.6709  -2.6709  -2.3404  -1.8607  -1.8607  -1.6511
    -1.3017  -1.3017  -1.2226  -0.9472  -0.2962  -0.2962   1.0434   2.5026
     2.5219   2.5219   2.5925   2.5925   3.0751   3.7472   3.9122   3.9122
     3.9148

[...]

          k =-0.0723 0.0417 0.0000 ( 26962 PWs)   bands (ev):

[...]

     the Fermi energy is     1.3898 ev

!    total energy              =   -2017.67373405 Ry
     Harris-Foulkes estimate   =   -2017.67375435 Ry
     estimated scf accuracy    <       0.00000673 Ry

     The total energy is the sum of the following terms:

     one-electron contribution =   -9583.39059526 Ry
     hartree contribution      =    4864.42511645 Ry
     xc contribution           =    -793.64973444 Ry
     ewald contribution        =    3494.98568961 Ry
     electric field correction =       0.00000952 Ry
     smearing contrib. (-TS)   =      -0.04421994 Ry

     convergence has been achieved in   9 iterations

 BEEF-vdW xc energy contributions
           1 :   -707.109654782093
           2 :    656.466005773262
           3 :   -567.385478861913
           4 :    459.441168674282
           5 :   -352.732262154167
           6 :    261.945780190302
           7 :   -193.230176023206
           8 :    144.590170311523
           9 :   -109.139511329688
          10 :    79.4682145428890
          11 :   -51.1145582786006
          12 :    23.7860076950035
          13 :  -0.219934871095120
          14 :   -16.2947113271317
          15 :    24.2348286250433
          16 :   -24.8363855081950
          17 :    21.4477550365400
          18 :   -17.8118364346706
          19 :    16.3213408441170
          20 :   -17.1780452378804
          21 :    18.7989459800679
          22 :   -19.1098769534206
          23 :    16.9242421106810
          24 :   -12.6433442968396
          25 :    7.96068873323748
          26 :   -4.83396438940440
          27 :    4.36746714806122
          28 :   -6.24117812347004
          29 :    8.96656953160175
          30 :   -10.7723028386239
          31 :   -56.8565102813307
          32 :   -41.6466340111674

     Forces acting on atoms (Ry/au):

     negative rho (up, down):  2.151E-01 0.000E+00
     atom    1 type  1   force =    -0.00235384   -0.00139539   -0.00882486
     atom    2 type  1   force =     0.00234420   -0.00134829   -0.00883230
     atom    3 type  1   force =     0.00001612    0.00272097   -0.00882638
     atom    4 type  1   force =    -0.00000024    0.00000448   -0.00407200
     atom    5 type  1   force =     0.00000526    0.00411412   -0.00831256
     atom    6 type  1   force =    -0.00003854    0.00000662    0.00076120
     atom    7 type  1   force =    -0.00358133   -0.00204715   -0.00831303
     atom    8 type  1   force =     0.00357800   -0.00205819   -0.00830707
     atom    9 type  1   force =     0.00000837    0.00000994   -0.29030928
     atom   10 type  1   force =    -0.00001344    0.00022728    0.00574279
     atom   11 type  1   force =     0.00023256   -0.00010871    0.00570454
     atom   12 type  1   force =    -0.00019873   -0.00013089    0.00572027
     atom   13 type  2   force =     0.00000092    0.00000245    0.19579820
     atom   14 type  3   force =     0.00000069    0.00000277    0.13207048

     Total force =     0.374376     Total SCF correction =     0.003331

     entering subroutine stress ...

     negative rho (up, down):  2.151E-01 0.000E+00
          total   stress  (Ry/bohr**3)                   (kbar)     P=   22.74
   0.00009126   0.00000000  -0.00000000         13.42      0.00     -0.00
   0.00000000   0.00009126   0.00000000          0.00     13.42      0.00
  -0.00000000   0.00000000   0.00028123         -0.00      0.00     41.37

     BFGS Geometry Optimization

     number of scf cycles    =   1
     number of bfgs steps    =   0

     energy   new            =   -2017.6737340513 Ry

     new trust radius        =       0.2903092798 bohr
     new conv_thr            =       0.0000099958 Ry

ATOMIC_POSITIONS (crystal)
Pb1      0.166666667   0.166666667   0.389898374    0   0   0
Pb1      0.666666667   0.166666667   0.389898374    0   0   0
Pb1      0.166666667   0.666666667   0.389898374    0   0   0
Pb1      0.666666667   0.666666667   0.389898374    0   0   0
Pb1      0.833333333   0.333333333   0.500000000    0   0   0
Pb1      0.333333333   0.333333333   0.500000000    0   0   0
Pb1      0.833333333   0.833333333   0.500000000    0   0   0
Pb1      0.333333333   0.833333333   0.500000000    0   0   0
Pb1      0.000000201   0.000000878   0.604111810
Pb1      0.499988933   0.000020078   0.610220114
Pb1      0.000022593   0.499990397   0.610219325
Pb1      0.499990578   0.499988437   0.610219650
S1      -0.000000037   0.000000216   0.697326257
H1      -0.000000069   0.000000245   0.744748689

     Writing output data file calc.save
     Check: negative starting charge=   -0.197316
     NEW-OLD atomic charge density approx. for the potential

     Check: negative/imaginary core charge=   -0.000001    0.000000
     Check: negative starting charge=   -0.196825

[...]

     energy   old            =   -2017.6737340513 Ry
     energy   new            =   -2017.7520464386 Ry

     CASE: energy  _new < energy  _old

[...]

     Total force =     0.021643     Total SCF correction =     0.000982

[...]

     Total force =     0.010895     Total SCF correction =     0.001974
     SCF correction compared to forces is large: reduce conv_thr to get better values

[...]

     number of scf cycles    =  13
     number of bfgs steps    =  12

     energy   old            =   -2017.8164810830 Ry
     energy   new            =   -2017.8172332442 Ry

     CASE: energy  _new < energy  _old

     new trust radius        =       0.0667924660 bohr
     new conv_thr            =       0.0000001000 Ry

ATOMIC_POSITIONS (crystal)
Pb1      0.166666667   0.166666667   0.389898374    0   0   0
Pb1      0.666666667   0.166666667   0.389898374    0   0   0
Pb1      0.166666667   0.666666667   0.389898374    0   0   0
Pb1      0.666666667   0.666666667   0.389898374    0   0   0
Pb1      0.833333333   0.333333333   0.500000000    0   0   0
Pb1      0.333333333   0.333333333   0.500000000    0   0   0
Pb1      0.833333333   0.833333333   0.500000000    0   0   0
Pb1      0.333333333   0.833333333   0.500000000    0   0   0
Pb1     -0.000000543   0.000002069   0.609475402
Pb1      0.500661223  -0.001323534   0.626015638
Pb1     -0.001323748   0.500666625   0.626015926
Pb1      0.500656251   0.500669410   0.626015962
S1       0.000018273  -0.000026835   0.719644477
H1      -0.000007253   0.000011390   0.772365939

     Writing output data file calc.save
     Check: negative starting charge=   -0.196416
     NEW-OLD atomic charge density approx. for the potential

     Check: negative/imaginary core charge=   -0.000001    0.000000
     Check: negative starting charge=   -0.195638

[...]

     Self-consistent Calculation

[...]

     total energy              =   -2017.81737537 Ry
     Harris-Foulkes estimate   =   -2017.81737838 Ry
     estimated scf accuracy    <       0.00000043 Ry

     iteration #  8     ecut=    36.75 Ry     beta=0.30
     Davidson diagonalization with overlap
     ethr =  2.46E-10,  avg # of iterations =  6.2

[...]

     negative rho (up, down):  2.117E-01 0.000E+00

     Adding external electric field

     Computed dipole along edir(3) :
        Dipole               -0.5172 Ry au,         -1.3147 Debye
        Dipole field         -0.0009 Ry au

        Potential amp.        0.0857 Ry
        Total length         47.2555 bohr

     End of self-consistent calculation

[...]

          k = 0.0482-0.0556 0.0000 ( 26956 PWs)   bands (ev):

[...]

          k =-0.0723-0.0417 0.0000 ( 26962 PWs)   bands (ev):

   -16.6541 -16.6504 -16.6106 -16.6086 -16.6039 -16.5942 -16.5887 -16.5725
   -16.5682 -16.5513 -16.5467 -16.5456 -16.5406 -16.5373 -16.5342 -16.5319
   -16.5284 -16.5239 -16.5235 -16.5210 -16.5180 -16.5108 -16.5054 -16.4979
   -16.4935 -16.4898 -16.4861 -16.4800 -16.4770 -16.4746 -16.4717 -16.4662
   -16.4617 -16.4473 -16.4395 -16.4373 -16.4247 -16.4212 -16.4085 -16.4068
   -16.4021 -16.3936 -16.3854 -16.3843 -16.3708 -16.3637 -16.3474 -16.3459
   -16.3400 -16.3362 -16.3350 -16.3338 -16.3273 -16.3254 -16.2987 -16.2981
   -16.2859 -16.2849 -16.2382 -16.2337 -11.2340  -9.4060  -9.3181  -8.4320
    -8.3718  -7.4216  -7.3796  -7.3149  -7.2549  -6.7535  -6.6602  -6.0136
    -5.9963  -3.7355  -1.1853  -1.0729  -1.0232  -0.9262  -0.9017  -0.7947
    -0.4650  -0.2994  -0.1842   0.1554   0.4726   0.6839   0.7897   0.9238
     1.5174   1.6486   1.7528   1.8883   1.9858   2.0484   2.1535   2.2759
     2.3737

     the Fermi energy is     0.9539 ev

!    total energy              =   -2017.81737071 Ry
     Harris-Foulkes estimate   =   -2017.81737550 Ry
     estimated scf accuracy    <       0.00000008 Ry

     The total energy is the sum of the following terms:

     one-electron contribution =   -9050.64787842 Ry
     hartree contribution      =    4596.19974444 Ry
     xc contribution           =    -793.13245156 Ry
     ewald contribution        =    3229.80956746 Ry
     electric field correction =       0.00046877 Ry
     smearing contrib. (-TS)   =      -0.04682141 Ry

     convergence has been achieved in   8 iterations

 BEEF-vdW xc energy contributions
           1 :   -706.576137852031
           2 :    655.696067799391
           3 :   -566.340393078542
           4 :    458.333201335344
           5 :   -351.901213587236
           6 :    261.640064843165
           7 :   -193.436840936951
           8 :    145.026508720992
           9 :   -109.411970802298
          10 :    79.3022183471863
          11 :   -50.5157319174900
          12 :    23.0355090487035
          13 :   0.292627357630636
          14 :   -16.3011418934231
          15 :    23.7454829115508
          16 :   -24.1326108607003
          17 :    20.9157158341364
          18 :   -17.7182716786921
          19 :    16.6642512698650
          20 :   -17.6978142155905
          21 :    19.1392396350470
          22 :   -19.0307321271446
          23 :    16.4418879910049
          24 :   -12.0164285215831
          25 :    7.53450165338745
          26 :   -4.83737756845585
          27 :    4.78240527867717
          28 :   -6.81931887189091
          29 :    9.38001874170288
          30 :   -10.8064720274421
          31 :   -56.8136498885751
          32 :   -41.5459486788619

     Forces acting on atoms (Ry/au):

     negative rho (up, down):  2.117E-01 0.000E+00
     atom    1 type  1   force =     0.00001547    0.00000952   -0.00601278
     atom    2 type  1   force =    -0.00001534    0.00000930   -0.00601308
     atom    3 type  1   force =    -0.00000007   -0.00001808   -0.00601212
     atom    4 type  1   force =    -0.00000002   -0.00000045   -0.00570539
     atom    5 type  1   force =    -0.00000004    0.00389636    0.00478236
     atom    6 type  1   force =    -0.00000016    0.00000005    0.01372677
     atom    7 type  1   force =    -0.00337490   -0.00194849    0.00478170
     atom    8 type  1   force =     0.00337558   -0.00194873    0.00478162
     atom    9 type  1   force =    -0.00000241    0.00000845   -0.00174958
     atom   10 type  1   force =    -0.00000003    0.00040108   -0.00096272
     atom   11 type  1   force =     0.00034690   -0.00019960   -0.00096627
     atom   12 type  1   force =    -0.00034612   -0.00020033   -0.00096954
     atom   13 type  2   force =     0.00000294   -0.00001802    0.00083445
     atom   14 type  3   force =    -0.00000178    0.00000894   -0.00051542

     Total force =     0.002703     Total SCF correction =     0.001803
     SCF correction compared to forces is large: reduce conv_thr to get better values

     entering subroutine stress ...

     negative rho (up, down):  2.117E-01 0.000E+00
          total   stress  (Ry/bohr**3)                   (kbar)     P=    5.70
   0.00005038   0.00000000   0.00000000          7.41      0.00      0.00
   0.00000000   0.00005039  -0.00000000          0.00      7.41     -0.00
   0.00000000  -0.00000000   0.00001545          0.00     -0.00      2.27

     bfgs converged in  14 scf cycles and  13 bfgs steps
     (criteria: energy <  1.0E+00, force <  1.9E-03)

     End of BFGS Geometry Optimization

     Final energy   =   -2017.8173707139 Ry
Begin final coordinates

ATOMIC_POSITIONS (crystal)
Pb1      0.166666667   0.166666667   0.389898374    0   0   0
Pb1      0.666666667   0.166666667   0.389898374    0   0   0
Pb1      0.166666667   0.666666667   0.389898374    0   0   0
Pb1      0.666666667   0.666666667   0.389898374    0   0   0
Pb1      0.833333333   0.333333333   0.500000000    0   0   0
Pb1      0.333333333   0.333333333   0.500000000    0   0   0
Pb1      0.833333333   0.833333333   0.500000000    0   0   0
Pb1      0.333333333   0.833333333   0.500000000    0   0   0
Pb1     -0.000000543   0.000002069   0.609475402
Pb1      0.500661223  -0.001323534   0.626015638
Pb1     -0.001323748   0.500666625   0.626015926
Pb1      0.500656251   0.500669410   0.626015962
S1       0.000018273  -0.000026835   0.719644477
H1      -0.000007253   0.000011390   0.772365939
End final coordinates

     Writing output data file calc.save

     General routines

     Parallel routines

   This run was terminated on:  17:52:59  21Apr2018

   JOB DONE.
Job  /afs/slac/g/suncat/bin/suncat-tsmpirun -x LD_LIBRARY_PATH -wdir /scratch/qe302728_1rhlE pw.x -npool 4 -in pw.inp

TID   HOST_NAME   COMMAND_LINE            STATUS            TERMINATION_TIME
00000 suncat0084 pw.x -npool 4 -i  Done                     04/21/2018 17:52:59
00001 suncat0084 pw.x -npool 4 -i  Done                     04/21/2018 17:52:59
00002 suncat0084 pw.x -npool 4 -i  Done                     04/21/2018 17:52:59
00003 suncat0084 pw.x -npool 4 -i  Done                     04/21/2018 17:52:59
00004 suncat0084 pw.x -npool 4 -i  Done                     04/21/2018 17:52:59
00005 suncat0084 pw.x -npool 4 -i  Done                     04/21/2018 17:52:59
00006 suncat0084 pw.x -npool 4 -i  Done                     04/21/2018 17:52:59
00007 suncat0084 pw.x -npool 4 -i  Done                     04/21/2018 17:52:59
00008 suncat0121 pw.x -npool 4 -i  Done                     04/21/2018 17:52:59
00009 suncat0121 pw.x -npool 4 -i  Done                     04/21/2018 17:52:59
00010 suncat0121 pw.x -npool 4 -i  Done                     04/21/2018 17:52:59
00011 suncat0121 pw.x -npool 4 -i  Done                     04/21/2018 17:52:59
00012 suncat0121 pw.x -npool 4 -i  Done                     04/21/2018 17:52:59
00013 suncat0121 pw.x -npool 4 -i  Done                     04/21/2018 17:52:59
00014 suncat0121 pw.x -npool 4 -i  Done                     04/21/2018 17:52:59
00015 suncat0121 pw.x -npool 4 -i  Done                     04/21/2018 17:52:59
00016 suncat0260 pw.x -npool 4 -i  Done                     04/21/2018 17:52:59
00017 suncat0260 pw.x -npool 4 -i  Done                     04/21/2018 17:52:59
00018 suncat0260 pw.x -npool 4 -i  Done                     04/21/2018 17:52:59
00019 suncat0260 pw.x -npool 4 -i  Done                     04/21/2018 17:52:59
00020 suncat0260 pw.x -npool 4 -i  Done                     04/21/2018 17:52:59
00021 suncat0260 pw.x -npool 4 -i  Done                     04/21/2018 17:52:59
00022 suncat0260 pw.x -npool 4 -i  Done                     04/21/2018 17:52:59
00023 suncat0260 pw.x -npool 4 -i  Done                     04/21/2018 17:52:59
00024 suncat0259 pw.x -npool 4 -i  Done                     04/21/2018 17:52:59
00025 suncat0259 pw.x -npool 4 -i  Done                     04/21/2018 17:52:59
00026 suncat0259 pw.x -npool 4 -i  Done                     04/21/2018 17:52:59
00027 suncat0259 pw.x -npool 4 -i  Done                     04/21/2018 17:52:59
00028 suncat0259 pw.x -npool 4 -i  Done                     04/21/2018 17:52:59
00029 suncat0259 pw.x -npool 4 -i  Done                     04/21/2018 17:52:59
00030 suncat0259 pw.x -npool 4 -i  Done                     04/21/2018 17:52:59
00031 suncat0259 pw.x -npool 4 -i  Done                     04/21/2018 17:52:59