     Program PWSCF v.5.1rc2 (svn rev. ) starts on 21Feb2018 at 11:54: 9

     Current dimensions of program PWSCF are:
     Max number of different atomic species (ntypx) = 10
     Max number of k-points (npk) =  40000
     Max angular momentum in pseudopotentials (lmaxx) =  3
     Presently stress not available with electric field

     IMPORTANT: XC functional enforced from input :
     Exchange-correlation      = BEEF-VDW ( 1  4 27 13 2)
     Any further DFT definition will be discarded
     Please, verify this is what you really want

     Subspace diagonalization in iterative solution of the eigenvalue problem:
     a serial algorithm will be used

     bravais-lattice index     =            0
     lattice parameter (alat)  =       1.8897  a.u.
     unit-cell volume          =    5739.2980 (a.u.)^3
     number of atoms/cell      =           13
     number of atomic types    =            2
     number of electrons       =       145.00
     number of Kohn-Sham states=           82
     kinetic-energy cutoff     =      36.7493  Ry
     charge density cutoff     =     367.4932  Ry
     convergence threshold     =      1.0E-05
     mixing beta               =       0.3000
     number of iterations used =           10  plain     mixing
     Exchange-correlation      = BEEF-VDW ( 1  4 27 13 2)
     nstep                     =           50

     celldm(1)=   1.889726  celldm(2)=   0.000000  celldm(3)=   0.000000
     celldm(4)=   0.000000  celldm(5)=   0.000000  celldm(6)=   0.000000

     crystal axes: (cart. coord. in units of alat)
               a(1) = (   6.254208   0.000000   0.000000 )
               a(2) = (   3.127104   5.416303   0.000000 )
               a(3) = (   0.000000   0.000000  25.106540 )

     reciprocal axes: (cart. coord. in units 2 pi/alat)
               b(1) = (  0.159892 -0.092314  0.000000 )
               b(2) = (  0.000000  0.184628  0.000000 )
               b(3) = (  0.000000  0.000000  0.039830 )

     PseudoPot. # 1 for Cd read from file:
     /home/mamunm/src/pseudo/gbrv1.5pbe/Cd.UPF
     MD5 check sum: 17164a7926edb8e0dc231208abae86a6
     Pseudo is Ultrasoft + core correction, Zval = 12.0
     Generated by new atomic code, or converted to UPF format
     Using radial grid of  889 points,  6 beta functions with:
                l(1) =   0
                l(2) =   0
                l(3) =   1
                l(4) =   1
                l(5) =   2
                l(6) =   2
     Q(r) pseudized with  6 coefficients,  rinner =    1.000   1.000   1.000
                                                       1.000   1.000

     PseudoPot. # 2 for H  read from file:
     /home/mamunm/src/pseudo/gbrv1.5pbe/H.UPF
     MD5 check sum: 761ae9a214b05c3daf00ab9f6b793d6f
     Pseudo is Ultrasoft, Zval =  1.0
     Generated by new atomic code, or converted to UPF format
     Using radial grid of  615 points,  2 beta functions with:
                l(1) =   0
                l(2) =   0
     Q(r) pseudized with  8 coefficients,  rinner =    0.700

     vdW kernel table read from file vdW_kernel_table
     MD5 check sum: 095c7af220d748ca6e76c0b4c6cfb241

     atomic species   valence    mass     pseudopotential
        Cd1           12.00   112.41400     Cd( 1.00)
        H1             1.00     1.00800     H ( 1.00)

     No symmetry found

   Cartesian axes

     site n.     atom                  positions (alat units)
         1           Cd1 tau(   1) = (   1.5635521   0.9027172  10.0000000  )
         2           Cd1 tau(   2) = (   4.6906562   0.9027172  10.0000000  )
         3           Cd1 tau(   3) = (   3.1271041   3.6108688  10.0000000  )
         4           Cd1 tau(   4) = (   6.2542083   3.6108688  10.0000000  )
         5           Cd1 tau(   5) = (   6.2542083   1.8054344  12.5532698  )
         6           Cd1 tau(   6) = (   3.1271041   1.8054344  12.5532698  )
         7           Cd1 tau(   7) = (   7.8177603   4.5135860  12.5532698  )
         8           Cd1 tau(   8) = (   4.6906562   4.5135860  12.5532698  )
         9           Cd1 tau(   9) = (   0.0000000   0.0000000  15.1065397  )
        10           Cd1 tau(  10) = (   3.1271041   0.0000000  15.1065397  )
        11           Cd1 tau(  11) = (   1.5635521   2.7081516  15.1065397  )
        12           Cd1 tau(  12) = (   4.6906562   2.7081516  15.1065397  )
        13           H1  tau(  13) = (   0.0000000   0.0000000  16.5940397  )

     number of k points=    20  Fermi-Dirac smearing, width (Ry)=  0.0110
                       cart. coord. in units 2pi/alat
        k(    1) = (   0.0000000   0.0000000   0.0000000), wk =   0.0555556
        k(    2) = (   0.0000000   0.0307713   0.0000000), wk =   0.1111111
        k(    3) = (   0.0000000   0.0615426   0.0000000), wk =   0.1111111
        k(    4) = (   0.0000000  -0.0923139   0.0000000), wk =   0.0555556
        k(    5) = (   0.0266487  -0.0153856   0.0000000), wk =   0.1111111
        k(    6) = (   0.0266487   0.0153856   0.0000000), wk =   0.1111111
        k(    7) = (   0.0266487   0.0461569   0.0000000), wk =   0.1111111
        k(    8) = (   0.0266487  -0.1076995   0.0000000), wk =   0.1111111
        k(    9) = (   0.0266487  -0.0769282   0.0000000), wk =   0.1111111
        k(   10) = (   0.0266487  -0.0461569   0.0000000), wk =   0.1111111
        k(   11) = (   0.0532974  -0.0307713   0.0000000), wk =   0.1111111
        k(   12) = (   0.0532974   0.0000000   0.0000000), wk =   0.1111111
        k(   13) = (   0.0532974   0.0307713   0.0000000), wk =   0.1111111
        k(   14) = (   0.0532974  -0.1230852   0.0000000), wk =   0.1111111
        k(   15) = (   0.0532974  -0.0923139   0.0000000), wk =   0.1111111
        k(   16) = (   0.0532974  -0.0615426   0.0000000), wk =   0.1111111
        k(   17) = (  -0.0799462   0.0461569   0.0000000), wk =   0.0555556
        k(   18) = (  -0.0799462   0.0769282   0.0000000), wk =   0.1111111
        k(   19) = (  -0.0799462   0.1076995   0.0000000), wk =   0.1111111
        k(   20) = (  -0.0799462  -0.0461569   0.0000000), wk =   0.0555556

     Largest allocated arrays     est. size (Mb)     dimensions
     Largest temporary arrays     est. size (Mb)     dimensions

     Initial potential from superposition of free atoms
     Check: negative starting charge=   -0.257870

     starting charge  138.99950, renormalised to  145.00000

     negative rho (up, down):  2.690E-01 0.000E+00

     *
     * You are using vdW-DF for exchange-correlation in this calculation.
     * Please cite the following three references that made this development
     * possible:
     *
     *   M. Dion, H. Rydberg, E. Schroder, D. C. Langreth, and
     *   B. I. Lundqvist, Phys. Rev. Lett. 92, 246401 (2004).
     *
     *   T. Thonhauser, V. R. Cooper, S. Li, A. Puzder, P. Hyldgaard, and
     *   D. C. Langreth, Phys. Rev. B 76, 125112 (2007).
     *
     *   G. Roman-Perez and J. M. Soler, Phys. Rev. Lett. 103, 096102 (2009).
     *
     *
     * If you are using vdW-DF2, please also cite:
     *
     *   K. Lee, E. D. Murray, L. Kong, B. I. Lundqvist, and
     *   D. C. Langreth, Phys. Rev. B 82, 081101(R) (2010).
     *
     *
     * If you are calculating the stress with vdW-DF, please also cite:
     *
     *   R. Sabatini, E. Kucukbenli, B. Kolb, T. Thonhauser, and
     *   S. de Gironcoli, J. Phys.: Condens. Matter 24, 424209 (2012).
     *

     Carrying out vdW-DF run using the following parameters:

     Nqs =      20    Nr_points =    1024   r_max =   100.000
     q_mesh =
               0.00001000     0.04494208     0.09755937     0.15916263
               0.23128650     0.31572767     0.41458969     0.53033537
               0.66584808     0.82450364     1.01025438     1.22772762
               1.48234092     1.78043706     2.12944203     2.53805004
               3.01644009     3.57652955     4.23227104     5.00000000

     Gradients computed in reciprocal space

     Adding external electric field

     Computed dipole along edir(3) :
        Dipole               -0.3296 Ry au,         -0.8377 Debye
        Dipole field         -0.0007 Ry au

        Potential amp.        0.0668 Ry
        Total length         46.2584 bohr

     Starting wfc are  109 randomized atomic wfcs

     Self-consistent Calculation

     iteration #  1     ecut=    36.75 Ry     beta=0.30
     Davidson diagonalization with overlap
     ethr =  1.00E-02,  avg # of iterations =  3.1

[...]

     total energy              =   -1393.84219591 Ry
     Harris-Foulkes estimate   =   -1394.54708575 Ry
     estimated scf accuracy    <       1.58621255 Ry

[...]

     End of self-consistent calculation

          k = 0.0000 0.0000 0.0000 ( 21643 PWs)   bands (ev):

    -9.7163  -9.4708  -9.4708  -9.4135  -9.3386  -9.3385  -9.3172  -9.2593
    -9.2346  -9.2346  -9.2051  -9.1661  -9.1661  -9.1076  -8.9654  -8.9410
    -8.9410  -8.9210  -8.9210  -8.9036  -8.8669  -8.8669  -8.8201  -8.8013
    -8.8013  -8.7922  -8.7822  -8.7821  -8.6965  -8.6965  -8.6652  -8.4754
    -8.4754  -8.4144  -8.4144  -8.3729  -8.3262  -8.3262  -8.2814  -8.2814
    -8.2685  -8.2588  -8.2588  -8.1992  -8.1992  -8.1838  -8.1681  -8.1478
    -8.1478  -8.1301  -8.1301  -8.1266  -8.0822  -8.0822  -7.9876  -7.9876
    -7.9427  -7.9427  -7.9393  -7.9318  -7.8173  -6.1741  -3.8118  -1.9519
    -1.7850  -1.7850  -1.6585  -1.4870  -1.4870  -1.4519  -0.5601  -0.5387
    -0.5387  -0.1815   0.3496   0.3496   0.8411   1.8854   1.8854   2.1641
     2.3436   2.3436

[...]

          k =-0.0799 0.0462 0.0000 ( 21576 PWs)   bands (ev):

[...]

     the Fermi energy is     0.4567 ev

!    total energy              =   -1394.11561900 Ry
     Harris-Foulkes estimate   =   -1394.11561249 Ry
     estimated scf accuracy    <       0.00000762 Ry

     The total energy is the sum of the following terms:

     one-electron contribution =   -8781.71109626 Ry
     hartree contribution      =    4483.07491100 Ry
     xc contribution           =    -490.46829601 Ry
     ewald contribution        =    3395.01686718 Ry
     electric field correction =       0.00004561 Ry
     smearing contrib. (-TS)   =      -0.02805052 Ry

     convergence has been achieved in   9 iterations

 BEEF-vdW xc energy contributions
           1 :   -429.820991359459
           2 :    393.266511512916
           3 :   -331.549222845159
           4 :    262.164738243492
           5 :   -201.306978729478
           6 :    158.086987466414
           7 :   -132.774290585936
           8 :    119.244302358602
           9 :   -109.714773941136
          10 :    99.0003254168030
          11 :   -86.2438935163444
          12 :    73.8061771681595
          13 :   -64.6167885165232
          14 :    59.8876198589115
          15 :   -58.4723228444534
          16 :    57.8988304256923
          17 :   -56.0764598568767
          18 :    52.4648460155021
          19 :   -48.0638822997937
          20 :    44.4435357084478
          21 :   -42.5983564905997
          22 :    42.3789244314196
          23 :   -42.7508690983985
          24 :    42.5667455585491
          25 :   -41.2760458335007
          26 :    39.1465699267011
          27 :   -36.9518075848410
          28 :    35.4131006247892
          29 :   -34.7786236962153
          30 :    34.7637299593966
          31 :   -38.6918304559908
          32 :   -28.2545321866828

     Forces acting on atoms (Ry/au):

     negative rho (up, down):  2.665E-01 0.000E+00
     atom    1 type  1   force =    -0.00249258   -0.00144300   -0.01349842
     atom    2 type  1   force =     0.00250685   -0.00142370   -0.01350623
     atom    3 type  1   force =     0.00006829    0.00283884   -0.01353215
     atom    4 type  1   force =     0.00002432    0.00000453   -0.01399890
     atom    5 type  1   force =    -0.00001531   -0.00552401    0.00416034
     atom    6 type  1   force =     0.00003629   -0.00001065   -0.00745862
     atom    7 type  1   force =     0.00478663    0.00276928    0.00415025
     atom    8 type  1   force =    -0.00481486    0.00277982    0.00412997
     atom    9 type  1   force =    -0.00003162    0.00000746   -0.14298781
     atom   10 type  1   force =    -0.00002001   -0.00260522    0.00912232
     atom   11 type  1   force =    -0.00231914    0.00132167    0.00910107
     atom   12 type  1   force =     0.00228098    0.00129072    0.00908849
     atom   13 type  2   force =    -0.00000986   -0.00000574    0.16522968

     Total force =     0.219125     Total SCF correction =     0.006360

     entering subroutine stress ...

     negative rho (up, down):  2.665E-01 0.000E+00
          total   stress  (Ry/bohr**3)                   (kbar)     P=    8.26
   0.00000705   0.00000000  -0.00000000          1.04      0.00     -0.00
   0.00000000   0.00000706  -0.00000000          0.00      1.04     -0.00
  -0.00000000  -0.00000000   0.00015428         -0.00     -0.00     22.70

     BFGS Geometry Optimization

     number of scf cycles    =   1
     number of bfgs steps    =   0

     energy   new            =   -1394.1156189961 Ry

     new trust radius        =       0.1652296763 bohr
     new conv_thr            =       0.0000099958 Ry

ATOMIC_POSITIONS (crystal)
Cd1      0.166666667   0.166666667   0.398302599    0   0   0
Cd1      0.666666667   0.166666667   0.398302599    0   0   0
Cd1      0.166666667   0.666666667   0.398302599    0   0   0
Cd1      0.666666667   0.666666667   0.398302599    0   0   0
Cd1      0.833333333   0.333333333   0.500000000    0   0   0
Cd1      0.333333333   0.333333333   0.500000000    0   0   0
Cd1      0.833333333   0.833333333   0.500000000    0   0   0
Cd1      0.333333333   0.833333333   0.500000000    0   0   0
Cd1     -0.000003040   0.000000729   0.598683609
Cd1      0.500125573  -0.000254532   0.601889675
Cd1     -0.000260790   0.500129128   0.601889227
Cd1      0.500129945   0.500126105   0.601888962
H1      -0.000000553  -0.000000561   0.664427502

     Writing output data file calc.save
     Check: negative starting charge=   -0.257870
     NEW-OLD atomic charge density approx. for the potential
     Check: negative starting charge=   -0.258444

[...]

     energy   old            =   -1394.1156189962 Ry
     energy   new            =   -1394.1439364223 Ry

     CASE: energy  _new < energy  _old

[...]

     Threshold (ethr) on eigenvalues was too large:
     Diagonalizing with lowered threshold

     Davidson diagonalization with overlap
     ethr =  3.76E-08,  avg # of iterations =  1.3

[...]

     Total force =     0.006783     Total SCF correction =     0.001059
     SCF correction compared to forces is large: reduce conv_thr to get better values

[...]

     Threshold (ethr) on eigenvalues was too large:
     Diagonalizing with lowered threshold

     Davidson diagonalization with overlap
     ethr =  8.50E-08,  avg # of iterations =  1.0

[...]

     WARNING: bfgs curvature condition failed, Theta= 0.940
     new trust radius        =       0.0493396187 bohr
     new conv_thr            =       0.0000001000 Ry

[...]

     Total force =     0.006627     Total SCF correction =     0.000645

[...]

     new trust radius        =       0.1100650416 bohr
     new conv_thr            =       0.0000001000 Ry

[...]

     number of scf cycles    =  22
     number of bfgs steps    =  21

     energy   old            =   -1394.1655564308 Ry
     energy   new            =   -1394.1658665623 Ry

     CASE: energy  _new < energy  _old

     WARNING: bfgs curvature condition failed, Theta= 0.800
     new trust radius        =       0.1650975624 bohr
     new conv_thr            =       0.0000001000 Ry

ATOMIC_POSITIONS (crystal)
Cd1      0.166666667   0.166666667   0.398302599    0   0   0
Cd1      0.666666667   0.166666667   0.398302599    0   0   0
Cd1      0.166666667   0.666666667   0.398302599    0   0   0
Cd1      0.666666667   0.666666667   0.398302599    0   0   0
Cd1      0.833333333   0.333333333   0.500000000    0   0   0
Cd1      0.333333333   0.333333333   0.500000000    0   0   0
Cd1      0.833333333   0.833333333   0.500000000    0   0   0
Cd1      0.333333333   0.833333333   0.500000000    0   0   0
Cd1     -0.000007883   0.000010504   0.622707633
Cd1      0.501041593  -0.002087775   0.613052975
Cd1     -0.002079544   0.501040565   0.613052756
Cd1      0.501031599   0.501040940   0.613053349
H1       0.000001742  -0.000001680   0.693436887

     Writing output data file calc.save
     Check: negative starting charge=   -0.259834
     NEW-OLD atomic charge density approx. for the potential
     Check: negative starting charge=   -0.260764

[...]

     Self-consistent Calculation

[...]

     total energy              =   -1394.16617132 Ry
     Harris-Foulkes estimate   =   -1394.16617108 Ry
     estimated scf accuracy    <       0.00000017 Ry

     iteration #  9     ecut=    36.75 Ry     beta=0.30
     Davidson diagonalization with overlap
     ethr =  1.19E-10,  avg # of iterations =  3.7

[...]

     negative rho (up, down):  2.690E-01 0.000E+00

     Adding external electric field

     Computed dipole along edir(3) :
        Dipole               -0.3098 Ry au,         -0.7874 Debye
        Dipole field         -0.0007 Ry au

        Potential amp.        0.0628 Ry
        Total length         46.2584 bohr

     End of self-consistent calculation

[...]

          k = 0.0533-0.0615 0.0000 ( 21571 PWs)   bands (ev):

[...]

          k =-0.0799-0.0462 0.0000 ( 21576 PWs)   bands (ev):

    -9.2908  -9.2837  -9.1953  -9.1824  -9.1478  -9.1458  -9.1082  -9.1018
    -9.0827  -9.0820  -8.9883  -8.9786  -8.9637  -8.9521  -8.9234  -8.9163
    -8.8832  -8.8651  -8.8186  -8.8176  -8.7670  -8.7585  -8.7369  -8.7300
    -8.7002  -8.6942  -8.6894  -8.6715  -8.6647  -8.6162  -8.6095  -8.5944
    -8.5873  -8.5668  -8.5575  -8.5535  -8.5224  -8.5062  -8.4941  -8.4840
    -8.4604  -8.4512  -8.4388  -8.4345  -8.4258  -8.4106  -8.4082  -8.3445
    -8.3428  -8.3418  -8.3223  -8.2823  -8.2750  -8.2605  -8.2086  -8.1931
    -8.1797  -8.1673  -8.1106  -8.0749  -6.1209  -6.0819  -4.6878  -4.5264
    -3.0562  -2.9789  -2.8408  -2.4091  -1.7323  -1.5048  -0.6896   0.3626
     0.5400   0.8314   1.7272   2.5882   2.6132   2.9559   2.9905   3.5034
     3.5450   3.5764

     the Fermi energy is     0.3748 ev

!    total energy              =   -1394.16617224 Ry
     Harris-Foulkes estimate   =   -1394.16617131 Ry
     estimated scf accuracy    <       0.00000003 Ry

     The total energy is the sum of the following terms:

     one-electron contribution =   -8331.59555944 Ry
     hartree contribution      =    4257.89765758 Ry
     xc contribution           =    -490.24305641 Ry
     ewald contribution        =    3169.80415653 Ry
     electric field correction =       0.00021012 Ry
     smearing contrib. (-TS)   =      -0.02958062 Ry

     convergence has been achieved in   9 iterations

 BEEF-vdW xc energy contributions
           1 :   -429.566891318711
           2 :    392.819706722416
           3 :   -330.898784513691
           4 :    261.504093956331
           5 :   -200.893090033247
           6 :    158.051133329356
           7 :   -133.021650688475
           8 :    119.515084051796
           9 :   -109.762092101847
          10 :    98.7559673587228
          11 :   -85.8527101186655
          12 :    73.5083651404804
          13 :   -64.5693620666764
          14 :    60.0578954925634
          15 :   -58.6777035003694
          16 :    57.9546073848555
          17 :   -55.9344107707611
          18 :    52.2379813445460
          19 :   -47.9251999084340
          20 :    44.4852338697553
          21 :   -42.7633034079786
          22 :    42.5132878991384
          23 :   -42.7298255074152
          24 :    42.3913814921551
          25 :   -41.0674164649557
          26 :    39.0459421902041
          27 :   -37.0086818504716
          28 :    35.5494354205109
          29 :   -34.8550640895064
          30 :    34.6924892976938
          31 :   -38.6680692104546
          32 :   -28.1858859804128

     Forces acting on atoms (Ry/au):

     negative rho (up, down):  2.690E-01 0.000E+00
     atom    1 type  1   force =    -0.00222197   -0.00128281   -0.01795219
     atom    2 type  1   force =     0.00222201   -0.00128284   -0.01795225
     atom    3 type  1   force =     0.00000004    0.00256573   -0.01795220
     atom    4 type  1   force =     0.00000004   -0.00000010   -0.01865225
     atom    5 type  1   force =    -0.00000017   -0.00449171    0.02081518
     atom    6 type  1   force =     0.00000005   -0.00000012    0.01203480
     atom    7 type  1   force =     0.00388989    0.00224598    0.02081473
     atom    8 type  1   force =    -0.00388990    0.00224578    0.02081471
     atom    9 type  1   force =    -0.00000037   -0.00000162    0.00126515
     atom   10 type  1   force =     0.00000005    0.00083638   -0.00070524
     atom   11 type  1   force =     0.00072132   -0.00041703   -0.00070506
     atom   12 type  1   force =    -0.00072092   -0.00041748   -0.00070534
     atom   13 type  2   force =    -0.00000006   -0.00000017   -0.00112002

     Total force =     0.002537     Total SCF correction =     0.000825
     SCF correction compared to forces is large: reduce conv_thr to get better values

     entering subroutine stress ...

     negative rho (up, down):  2.690E-01 0.000E+00
          total   stress  (Ry/bohr**3)                   (kbar)     P=   -1.04
  -0.00002586  -0.00000000   0.00000000         -3.80     -0.00      0.00
  -0.00000000  -0.00002586  -0.00000000         -0.00     -3.80     -0.00
   0.00000000  -0.00000000   0.00003049          0.00     -0.00      4.49

     bfgs converged in  23 scf cycles and  22 bfgs steps
     (criteria: energy <  1.0E+00, force <  1.9E-03)

     End of BFGS Geometry Optimization

     Final energy   =   -1394.1661722372 Ry
Begin final coordinates

ATOMIC_POSITIONS (crystal)
Cd1      0.166666667   0.166666667   0.398302599    0   0   0
Cd1      0.666666667   0.166666667   0.398302599    0   0   0
Cd1      0.166666667   0.666666667   0.398302599    0   0   0
Cd1      0.666666667   0.666666667   0.398302599    0   0   0
Cd1      0.833333333   0.333333333   0.500000000    0   0   0
Cd1      0.333333333   0.333333333   0.500000000    0   0   0
Cd1      0.833333333   0.833333333   0.500000000    0   0   0
Cd1      0.333333333   0.833333333   0.500000000    0   0   0
Cd1     -0.000007883   0.000010504   0.622707633
Cd1      0.501041593  -0.002087775   0.613052975
Cd1     -0.002079544   0.501040565   0.613052756
Cd1      0.501031599   0.501040940   0.613053349
H1       0.000001742  -0.000001680   0.693436887
End final coordinates

     Writing output data file calc.save

     General routines

     Parallel routines

   This run was terminated on:  13: 3:59  21Feb2018

   JOB DONE.