     Program PWSCF v.5.1rc2 (svn rev. 11289) starts on 18Apr2018 at 21:59:55

     Current dimensions of program PWSCF are:
     Max number of different atomic species (ntypx) = 10
     Max number of k-points (npk) =  40000
     Max angular momentum in pseudopotentials (lmaxx) =  3
     Presently stress not available with electric field

     IMPORTANT: XC functional enforced from input :
     Exchange-correlation      = BEEF-VDW ( 1  4 27 13 2)
     Any further DFT definition will be discarded
     Please, verify this is what you really want

     Subspace diagonalization in iterative solution of the eigenvalue problem:
     a serial algorithm will be used

     bravais-lattice index     =            0
     lattice parameter (alat)  =       1.8897  a.u.
     unit-cell volume          =    8507.0471 (a.u.)^3
     number of atoms/cell      =           14
     number of atomic types    =            3
     number of electrons       =       138.00
     number of Kohn-Sham states=           79
     kinetic-energy cutoff     =      36.7493  Ry
     charge density cutoff     =     367.4932  Ry
     convergence threshold     =      1.0E-05
     mixing beta               =       0.3000
     number of iterations used =           10  plain     mixing
     Exchange-correlation      = BEEF-VDW ( 1  4 27 13 2)
     nstep                     =           50

     celldm(1)=   1.889726  celldm(2)=   0.000000  celldm(3)=   0.000000
     celldm(4)=   0.000000  celldm(5)=   0.000000  celldm(6)=   0.000000

     crystal axes: (cart. coord. in units of alat)
               a(1) = (   7.468327   0.000000   0.000000 )
               a(2) = (   3.734164   6.467761   0.000000 )
               a(3) = (   0.000000   0.000000  26.097863 )

     reciprocal axes: (cart. coord. in units 2 pi/alat)
               b(1) = (  0.133899 -0.077307  0.000000 )
               b(2) = (  0.000000  0.154613  0.000000 )
               b(3) = (  0.000000  0.000000  0.038317 )

     PseudoPot. # 1 for La read from file:
     /u/if/mamunm/psp/gbrv1.5pbe/La.UPF
     MD5 check sum: 5937b0c7494ba0601a847275249473aa
     Pseudo is Ultrasoft + core correction, Zval = 11.0
     Generated by new atomic code, or converted to UPF format
     Using radial grid of  995 points,  8 beta functions with:
                l(1) =   0
                l(2) =   0
                l(3) =   1
                l(4) =   1
                l(5) =   2
                l(6) =   2
                l(7) =   3
                l(8) =   3
     Q(r) pseudized with  8 coefficients,  rinner =    1.700   1.700   1.700
                                                       1.700   1.700   1.700
                                                       1.700

     PseudoPot. # 2 for N  read from file:
     /u/if/mamunm/psp/gbrv1.5pbe/N.UPF
     MD5 check sum: 95339753478d7afb44899504a8723017
     Pseudo is Ultrasoft + core correction, Zval =  5.0
     Generated by new atomic code, or converted to UPF format
     Using radial grid of  729 points,  4 beta functions with:
                l(1) =   0
                l(2) =   0
                l(3) =   1
                l(4) =   1
     Q(r) pseudized with  8 coefficients,  rinner =    0.900   0.900   0.900

     PseudoPot. # 3 for H  read from file:
     /u/if/mamunm/psp/gbrv1.5pbe/H.UPF
     MD5 check sum: 761ae9a214b05c3daf00ab9f6b793d6f
     Pseudo is Ultrasoft, Zval =  1.0
     Generated by new atomic code, or converted to UPF format
     Using radial grid of  615 points,  2 beta functions with:
                l(1) =   0
                l(2) =   0
     Q(r) pseudized with  8 coefficients,  rinner =    0.700

     vdW kernel table read from file vdW_kernel_table
     MD5 check sum: 095c7af220d748ca6e76c0b4c6cfb241

     atomic species   valence    mass     pseudopotential
        La1           11.00   138.90547     La( 1.00)
        N1             5.00    14.00700     N ( 1.00)
        H1             1.00     1.00800     H ( 1.00)

     No symmetry found

   Cartesian axes

     site n.     atom                  positions (alat units)
         1           La1 tau(   1) = (   1.8670818   1.0779602  10.0000000  )
         2           La1 tau(   2) = (   5.6012453   1.0779602  10.0000000  )
         3           La1 tau(   3) = (   3.7341635   4.3118406  10.0000000  )
         4           La1 tau(   4) = (   7.4683270   4.3118406  10.0000000  )
         5           La1 tau(   5) = (   7.4683270   2.1559203  13.0489317  )
         6           La1 tau(   6) = (   3.7341635   2.1559203  13.0489317  )
         7           La1 tau(   7) = (   9.3354088   5.3898008  13.0489317  )
         8           La1 tau(   8) = (   5.6012453   5.3898008  13.0489317  )
         9           La1 tau(   9) = (   0.0000000   0.0000000  16.0978635  )
        10           La1 tau(  10) = (   3.7341635   0.0000000  16.0978635  )
        11           La1 tau(  11) = (   1.8670818   3.2338805  16.0978635  )
        12           La1 tau(  12) = (   5.6012453   3.2338805  16.0978635  )
        13           N1  tau(  13) = (   1.8670818   1.0779602  17.9048635  )
        14           H1  tau(  14) = (   1.8670818   1.0779602  18.9548635  )

     number of k points=    20  Fermi-Dirac smearing, width (Ry)=  0.0110
                       cart. coord. in units 2pi/alat
        k(    1) = (   0.0000000   0.0000000   0.0000000), wk =   0.0555556
        k(    2) = (   0.0000000   0.0257688   0.0000000), wk =   0.1111111
        k(    3) = (   0.0000000   0.0515377   0.0000000), wk =   0.1111111
        k(    4) = (   0.0000000  -0.0773065   0.0000000), wk =   0.0555556
        k(    5) = (   0.0223165  -0.0128844   0.0000000), wk =   0.1111111
        k(    6) = (   0.0223165   0.0128844   0.0000000), wk =   0.1111111
        k(    7) = (   0.0223165   0.0386533   0.0000000), wk =   0.1111111
        k(    8) = (   0.0223165  -0.0901909   0.0000000), wk =   0.1111111
        k(    9) = (   0.0223165  -0.0644221   0.0000000), wk =   0.1111111
        k(   10) = (   0.0223165  -0.0386533   0.0000000), wk =   0.1111111
        k(   11) = (   0.0446329  -0.0257688   0.0000000), wk =   0.1111111
        k(   12) = (   0.0446329   0.0000000   0.0000000), wk =   0.1111111
        k(   13) = (   0.0446329   0.0257688   0.0000000), wk =   0.1111111
        k(   14) = (   0.0446329  -0.1030753   0.0000000), wk =   0.1111111
        k(   15) = (   0.0446329  -0.0773065   0.0000000), wk =   0.1111111
        k(   16) = (   0.0446329  -0.0515377   0.0000000), wk =   0.1111111
        k(   17) = (  -0.0669494   0.0386533   0.0000000), wk =   0.0555556
        k(   18) = (  -0.0669494   0.0644221   0.0000000), wk =   0.1111111
        k(   19) = (  -0.0669494   0.0901909   0.0000000), wk =   0.1111111
        k(   20) = (  -0.0669494  -0.0386533   0.0000000), wk =   0.0555556

     Largest allocated arrays     est. size (Mb)     dimensions
     Largest temporary arrays     est. size (Mb)     dimensions

     Initial potential from superposition of free atoms
     Check: negative starting charge=   -0.831086

     starting charge  137.61516, renormalised to  138.00000

     negative rho (up, down):  8.334E-01 0.000E+00

     *
     * You are using vdW-DF for exchange-correlation in this calculation.
     * Please cite the following three references that made this development
     * possible:
     *
     *   M. Dion, H. Rydberg, E. Schroder, D. C. Langreth, and
     *   B. I. Lundqvist, Phys. Rev. Lett. 92, 246401 (2004).
     *
     *   T. Thonhauser, V. R. Cooper, S. Li, A. Puzder, P. Hyldgaard, and
     *   D. C. Langreth, Phys. Rev. B 76, 125112 (2007).
     *
     *   G. Roman-Perez and J. M. Soler, Phys. Rev. Lett. 103, 096102 (2009).
     *
     *
     * If you are using vdW-DF2, please also cite:
     *
     *   K. Lee, E. D. Murray, L. Kong, B. I. Lundqvist, and
     *   D. C. Langreth, Phys. Rev. B 82, 081101(R) (2010).
     *
     *
     * If you are calculating the stress with vdW-DF, please also cite:
     *
     *   R. Sabatini, E. Kucukbenli, B. Kolb, T. Thonhauser, and
     *   S. de Gironcoli, J. Phys.: Condens. Matter 24, 424209 (2012).
     *

     Carrying out vdW-DF run using the following parameters:

     Nqs =      20    Nr_points =    1024   r_max =   100.000
     q_mesh =
               0.00001000     0.04494208     0.09755937     0.15916263
               0.23128650     0.31572767     0.41458969     0.53033537
               0.66584808     0.82450364     1.01025438     1.22772762
               1.48234092     1.78043706     2.12944203     2.53805004
               3.01644009     3.57652955     4.23227104     5.00000000

     Gradients computed in reciprocal space

     Adding external electric field

     Computed dipole along edir(3) :
        Dipole               -0.1593 Ry au,         -0.4050 Debye
        Dipole field         -0.0002 Ry au

        Potential amp.        0.0226 Ry
        Total length         48.0849 bohr

     Starting wfc are  245 randomized atomic wfcs

     Self-consistent Calculation

     iteration #  1     ecut=    36.75 Ry     beta=0.30
     Davidson diagonalization with overlap
     ethr =  1.00E-02,  avg # of iterations =  2.0

[...]

     total energy              =   -1267.11480162 Ry
     Harris-Foulkes estimate   =   -1270.71646388 Ry
     estimated scf accuracy    <       7.63880615 Ry

[...]

     iteration # 13     ecut=    36.75 Ry     beta=0.30
     Davidson diagonalization with overlap
     c_bands:  2 eigenvalues not converged
     ethr =  8.57E-06,  avg # of iterations = 10.7

[...]

     End of self-consistent calculation

          k = 0.0000 0.0000 0.0000 ( 31997 PWs)   bands (ev):

   -31.5710 -31.5525 -31.4224 -31.4203 -31.4203 -31.3961 -31.3165 -31.3165
   -31.0877 -30.9752 -30.9611 -30.9610 -15.6532 -15.6531 -15.6449 -15.5834
   -15.5834 -15.5575 -15.5015 -15.4109 -15.3853 -15.3853 -15.2152 -15.0663
   -14.9984 -14.9984 -14.8853 -14.8397 -14.8397 -14.8099 -14.8098 -14.8092
   -14.7567 -14.7567 -14.7306 -14.5578 -14.5577 -14.4982 -14.4982 -14.4877
   -14.4538 -14.4538 -14.4383 -14.3659 -14.3659 -14.3599 -14.1377 -14.1377
   -11.7399  -2.8484  -0.9431  -0.2057   0.0013   0.0013   0.1358   0.1533
     0.3682   0.3682   0.4708   0.4708   0.5342   0.7179   0.7179   0.7289
     0.9648   0.9954   0.9954   1.6597   1.6597   1.9245   1.9962   2.3200
     2.4521   2.4521   2.5785   2.6718   2.9213   2.9999   3.0276

[...]

          k =-0.0669 0.0387 0.0000 ( 31970 PWs)   bands (ev):

[...]

     the Fermi energy is     1.8014 ev

!    total energy              =   -1269.77256533 Ry
     Harris-Foulkes estimate   =   -1269.77258096 Ry
     estimated scf accuracy    <       0.00000475 Ry

     The total energy is the sum of the following terms:

     one-electron contribution =   -4794.43850541 Ry
     hartree contribution      =    2411.08254122 Ry
     xc contribution           =    -614.77010614 Ry
     ewald contribution        =    1728.47577584 Ry
     electric field correction =       0.00003639 Ry
     smearing contrib. (-TS)   =      -0.12230722 Ry

     convergence has been achieved in  20 iterations

 BEEF-vdW xc energy contributions
           1 :   -544.547240093618
           2 :    500.782184681732
           3 :   -423.423298524625
           4 :    329.009642692252
           5 :   -235.075460741334
           6 :    155.479479771062
           7 :   -97.7940623648889
           8 :    63.0102898771504
           9 :   -47.0403444106329
          10 :    43.1183977101257
          11 :   -44.2014608698664
          12 :    44.6951515598486
          13 :   -41.2555098691912
          14 :    32.8237822846711
          15 :   -20.2378819924796
          16 :    5.66491938052343
          17 :    8.06541193290957
          18 :   -18.2253007763076
          19 :    22.9705065445083
          20 :   -21.9346636472031
          21 :    16.3890000881431
          22 :   -8.84106205967851
          23 :    2.16285968555701
          24 :    1.43413951882542
          25 :   -1.15778343144393
          26 :   -2.20175277692863
          27 :    6.76262500836242
          28 :   -10.4495429055145
          29 :    11.8708789973574
          30 :   -10.7952303697003
          31 :   -46.4218832596056
          32 :   -33.2920753953338

     Forces acting on atoms (Ry/au):

     negative rho (up, down):  5.854E-01 0.000E+00
     atom    1 type  1   force =     0.00000209   -0.00000258    0.00305075
     atom    2 type  1   force =     0.00000080   -0.00259156    0.00442252
     atom    3 type  1   force =    -0.00224085    0.00129870    0.00441283
     atom    4 type  1   force =     0.00224117    0.00129956    0.00441810
     atom    5 type  1   force =    -0.00364208    0.00209657   -0.00296752
     atom    6 type  1   force =     0.00363793    0.00210386   -0.00297416
     atom    7 type  1   force =     0.00000466    0.00000151   -0.00589974
     atom    8 type  1   force =     0.00000007   -0.00420318   -0.00297356
     atom    9 type  1   force =     0.03623150    0.02091849    0.03719536
     atom   10 type  1   force =    -0.03623394    0.02092182    0.03719940
     atom   11 type  1   force =    -0.00000492   -0.04184254    0.03720990
     atom   12 type  1   force =     0.00000322    0.00000057   -0.00193529
     atom   13 type  2   force =     0.00000023   -0.00000143   -0.07457793
     atom   14 type  3   force =     0.00000011    0.00000020   -0.03658067

     Total force =     0.127700     Total SCF correction =     0.002460

     entering subroutine stress ...

     negative rho (up, down):  5.854E-01 0.000E+00
          total   stress  (Ry/bohr**3)                   (kbar)     P=   -5.27
  -0.00001969  -0.00000000   0.00000000         -2.90     -0.00      0.00
  -0.00000000  -0.00001970  -0.00000000         -0.00     -2.90     -0.00
   0.00000000  -0.00000000  -0.00006800          0.00     -0.00    -10.00

     BFGS Geometry Optimization

     number of scf cycles    =   1
     number of bfgs steps    =   0

     energy   new            =   -1269.7725653280 Ry

     new trust radius        =       0.0745779267 bohr
     new conv_thr            =       0.0000099958 Ry

ATOMIC_POSITIONS (crystal)
La1      0.166666667   0.166666667   0.383173129    0   0   0
La1      0.666666667   0.166666667   0.383173129    0   0   0
La1      0.166666667   0.666666667   0.383173129    0   0   0
La1      0.666666667   0.666666667   0.383173129    0   0   0
La1      0.833333333   0.333333333   0.500000000    0   0   0
La1      0.333333333   0.333333333   0.500000000    0   0   0
La1      0.833333333   0.833333333   0.500000000    0   0   0
La1      0.333333333   0.833333333   0.500000000    0   0   0
La1      0.001711475   0.001711503   0.617581068
La1      0.496576713   0.001711775   0.617581150
La1      0.001711382   0.496576540   0.617581363
La1      0.500000205   0.500000047   0.616787630
N1       0.166666742   0.166666550   0.684554065
H1       0.166666666   0.166666683   0.725557701

     Writing output data file calc.save
     Check: negative starting charge=   -0.831086
     NEW-OLD atomic charge density approx. for the potential
     Check: negative starting charge=   -0.831950

[...]

     energy   old            =   -1269.7725653280 Ry
     energy   new            =   -1269.7878391141 Ry

     CASE: energy  _new < energy  _old

     WARNING: bfgs curvature condition failed, Theta= 0.920
     new trust radius        =       0.1118668900 bohr
     new conv_thr            =       0.0000001000 Ry

[...]

     iteration #  3     ecut=    36.75 Ry     beta=0.30
     Davidson diagonalization with overlap
     c_bands:  1 eigenvalues not converged
     ethr =  1.21E-06,  avg # of iterations = 12.2

[...]

     Threshold (ethr) on eigenvalues was too large:
     Diagonalizing with lowered threshold

     Davidson diagonalization with overlap
     ethr =  3.19E-08,  avg # of iterations =  7.9

[...]

     Total force =     0.005447     Total SCF correction =     0.000600
     SCF correction compared to forces is large: reduce conv_thr to get better values

[...]

     Total force =     0.006418     Total SCF correction =     0.000503

[...]

     number of scf cycles    =  24
     number of bfgs steps    =  23

     energy   old            =   -1269.8669048703 Ry
     energy   new            =   -1269.8669746102 Ry

     CASE: energy  _new < energy  _old

     new trust radius        =       0.0207437903 bohr
     new conv_thr            =       0.0000001000 Ry

ATOMIC_POSITIONS (crystal)
La1      0.166666667   0.166666667   0.383173129    0   0   0
La1      0.666666667   0.166666667   0.383173129    0   0   0
La1      0.166666667   0.666666667   0.383173129    0   0   0
La1      0.666666667   0.666666667   0.383173129    0   0   0
La1      0.833333333   0.333333333   0.500000000    0   0   0
La1      0.333333333   0.333333333   0.500000000    0   0   0
La1      0.833333333   0.833333333   0.500000000    0   0   0
La1      0.333333333   0.833333333   0.500000000    0   0   0
La1      0.003202632   0.003199589   0.620626550
La1      0.493597716   0.003199295   0.620626709
La1      0.003198455   0.493602959   0.620626819
La1      0.499997968   0.500002376   0.610628407
N1       0.166667943   0.166663502   0.663095509
H1       0.166666987   0.166664333   0.702677593

     Writing output data file calc.save
     Check: negative starting charge=   -0.833137
     NEW-OLD atomic charge density approx. for the potential
     Check: negative starting charge=   -0.832983

[...]

     Self-consistent Calculation

[...]

     total energy              =   -1269.86699436 Ry
     Harris-Foulkes estimate   =   -1269.86699479 Ry
     estimated scf accuracy    <       0.00000307 Ry

     iteration # 10     ecut=    36.75 Ry     beta=0.30
     Davidson diagonalization with overlap
     ethr =  2.23E-09,  avg # of iterations =  5.2

[...]

     negative rho (up, down):  5.840E-01 0.000E+00

     Adding external electric field

     Computed dipole along edir(3) :
        Dipole                0.1060 Ry au,          0.2696 Debye
        Dipole field          0.0002 Ry au

        Potential amp.       -0.0151 Ry
        Total length         48.0849 bohr

     End of self-consistent calculation

[...]

          k = 0.0446-0.0515 0.0000 ( 31991 PWs)   bands (ev):

[...]

          k =-0.0669-0.0387 0.0000 ( 31970 PWs)   bands (ev):

   -31.2559 -31.2550 -31.1892 -31.1881 -31.1710 -31.1140 -31.0580 -31.0343
   -30.8581 -30.7878 -30.7484 -30.7276 -15.9455 -15.2197 -15.2114 -15.1298
   -15.1179 -15.0989 -15.0352 -15.0136 -14.9996 -14.9581 -14.9218 -14.8835
   -14.8567 -14.8508 -14.8365 -14.7801 -14.7610 -14.7568 -14.7074 -14.6954
   -14.5563 -14.5132 -14.4547 -14.4544 -14.4494 -14.3908 -14.3813 -14.3559
   -14.3523 -14.3186 -14.2769 -14.1980 -14.1884 -14.1549 -14.0523 -14.0129
   -12.2056  -3.9641  -1.2068  -0.9485   0.4462   0.5127   0.8836   0.9825
     1.1911   1.2181   1.2725   1.3070   1.3079   1.5507   1.6591   1.7092
     1.8480   1.8724   1.8925   1.9316   2.0880   2.2016   2.2115   2.2435
     2.2592   2.2794   2.3768   2.4839   2.5733   2.5841   2.6122

     the Fermi energy is     2.0307 ev

!    total energy              =   -1269.86699451 Ry
     Harris-Foulkes estimate   =   -1269.86699448 Ry
     estimated scf accuracy    <       0.00000010 Ry

     The total energy is the sum of the following terms:

     one-electron contribution =   -4855.27334317 Ry
     hartree contribution      =    2442.29867587 Ry
     xc contribution           =    -615.04607177 Ry
     ewald contribution        =    1758.27584629 Ry
     electric field correction =       0.00001661 Ry
     smearing contrib. (-TS)   =      -0.12211834 Ry

     convergence has been achieved in  10 iterations

 BEEF-vdW xc energy contributions
           1 :   -544.829834293576
           2 :    501.154251626539
           3 :   -423.883539948879
           4 :    329.470519534028
           5 :   -235.424416567642
           6 :    155.634377824016
           7 :   -97.7302195025644
           8 :    62.7609028344471
           9 :   -46.6852332204317
          10 :    42.7653168451050
          11 :   -43.9548458469203
          12 :    44.6179425304733
          13 :   -41.3431804276656
          14 :    33.0062647728769
          15 :   -20.4112893818786
          16 :    5.73963196392833
          17 :    8.12484484064737
          18 :   -18.3888362567603
          19 :    23.1637620426928
          20 :   -22.0813384532505
          21 :    16.4516686012288
          22 :   -8.83621527333025
          23 :    2.14241050970736
          24 :    1.42007510774033
          25 :   -1.09151512422704
          26 :   -2.29967763591094
          27 :    6.85237521245904
          28 :   -10.4999340747968
          29 :    11.8783059167517
          30 :   -10.7825040786481
          31 :   -46.4394970821311
          32 :   -33.3297617464621

     Forces acting on atoms (Ry/au):

     negative rho (up, down):  5.840E-01 0.000E+00
     atom    1 type  1   force =     0.00000002    0.00000005    0.00209447
     atom    2 type  1   force =     0.00000042   -0.00268524    0.00498490
     atom    3 type  1   force =    -0.00232575    0.00134267    0.00498469
     atom    4 type  1   force =     0.00232495    0.00134230    0.00498429
     atom    5 type  1   force =    -0.00138933    0.00080312   -0.00240083
     atom    6 type  1   force =     0.00138937    0.00080272   -0.00240051
     atom    7 type  1   force =    -0.00000024   -0.00000033   -0.00931591
     atom    8 type  1   force =     0.00000015   -0.00160446   -0.00240228
     atom    9 type  1   force =     0.00021436    0.00012679    0.00003793
     atom   10 type  1   force =    -0.00021489    0.00012765    0.00003774
     atom   11 type  1   force =    -0.00000007   -0.00026018    0.00004098
     atom   12 type  1   force =     0.00000096   -0.00000204   -0.00038408
     atom   13 type  2   force =     0.00000013    0.00000644   -0.00043452
     atom   14 type  3   force =    -0.00000007    0.00000050    0.00017312

     Total force =     0.000750     Total SCF correction =     0.000597
     SCF correction compared to forces is large: reduce conv_thr to get better values

     entering subroutine stress ...

     negative rho (up, down):  5.840E-01 0.000E+00
          total   stress  (Ry/bohr**3)                   (kbar)     P=    0.49
   0.00001155   0.00000000   0.00000000          1.70      0.00      0.00
   0.00000000   0.00001154   0.00000000          0.00      1.70      0.00
   0.00000000   0.00000000  -0.00001316          0.00      0.00     -1.94

     bfgs converged in  25 scf cycles and  24 bfgs steps
     (criteria: energy <  1.0E+00, force <  1.9E-03)

     End of BFGS Geometry Optimization

     Final energy   =   -1269.8669945070 Ry
Begin final coordinates

ATOMIC_POSITIONS (crystal)
La1      0.166666667   0.166666667   0.383173129    0   0   0
La1      0.666666667   0.166666667   0.383173129    0   0   0
La1      0.166666667   0.666666667   0.383173129    0   0   0
La1      0.666666667   0.666666667   0.383173129    0   0   0
La1      0.833333333   0.333333333   0.500000000    0   0   0
La1      0.333333333   0.333333333   0.500000000    0   0   0
La1      0.833333333   0.833333333   0.500000000    0   0   0
La1      0.333333333   0.833333333   0.500000000    0   0   0
La1      0.003202632   0.003199589   0.620626550
La1      0.493597716   0.003199295   0.620626709
La1      0.003198455   0.493602959   0.620626819
La1      0.499997968   0.500002376   0.610628407
N1       0.166667943   0.166663502   0.663095509
H1       0.166666987   0.166664333   0.702677593
End final coordinates

     Writing output data file calc.save

     General routines

     Parallel routines

   This run was terminated on:   8:55: 5  19Apr2018

   JOB DONE.
Job  /afs/slac/g/suncat/bin/suncat-tsmpirun -x LD_LIBRARY_PATH -wdir /scratch/qe321485_7swLB pw.x -npool 4 -in pw.inp

TID   HOST_NAME   COMMAND_LINE            STATUS            TERMINATION_TIME
00000 suncat0129 pw.x -npool 4 -i  Done                     04/19/2018 08:55:05
00001 suncat0129 pw.x -npool 4 -i  Done                     04/19/2018 08:55:05
00002 suncat0129 pw.x -npool 4 -i  Done                     04/19/2018 08:55:05
00003 suncat0129 pw.x -npool 4 -i  Done                     04/19/2018 08:55:05
00004 suncat0129 pw.x -npool 4 -i  Done                     04/19/2018 08:55:05
00005 suncat0129 pw.x -npool 4 -i  Done                     04/19/2018 08:55:05
00006 suncat0129 pw.x -npool 4 -i  Done                     04/19/2018 08:55:05
00007 suncat0129 pw.x -npool 4 -i  Done                     04/19/2018 08:55:05
00008 suncat0274 pw.x -npool 4 -i  Done                     04/19/2018 08:55:05
00009 suncat0274 pw.x -npool 4 -i  Done                     04/19/2018 08:55:05
00010 suncat0274 pw.x -npool 4 -i  Done                     04/19/2018 08:55:05
00011 suncat0274 pw.x -npool 4 -i  Done                     04/19/2018 08:55:05
00012 suncat0274 pw.x -npool 4 -i  Done                     04/19/2018 08:55:05
00013 suncat0274 pw.x -npool 4 -i  Done                     04/19/2018 08:55:05
00014 suncat0274 pw.x -npool 4 -i  Done                     04/19/2018 08:55:05
00015 suncat0274 pw.x -npool 4 -i  Done                     04/19/2018 08:55:05
00016 suncat0271 pw.x -npool 4 -i  Done                     04/19/2018 08:55:05
00017 suncat0271 pw.x -npool 4 -i  Done                     04/19/2018 08:55:05
00018 suncat0271 pw.x -npool 4 -i  Done                     04/19/2018 08:55:05
00019 suncat0271 pw.x -npool 4 -i  Done                     04/19/2018 08:55:05
00020 suncat0271 pw.x -npool 4 -i  Done                     04/19/2018 08:55:05
00021 suncat0271 pw.x -npool 4 -i  Done                     04/19/2018 08:55:05
00022 suncat0271 pw.x -npool 4 -i  Done                     04/19/2018 08:55:05
00023 suncat0271 pw.x -npool 4 -i  Done                     04/19/2018 08:55:05
00024 suncat0266 pw.x -npool 4 -i  Done                     04/19/2018 08:55:05
00025 suncat0266 pw.x -npool 4 -i  Done                     04/19/2018 08:55:05
00026 suncat0266 pw.x -npool 4 -i  Done                     04/19/2018 08:55:05
00027 suncat0266 pw.x -npool 4 -i  Done                     04/19/2018 08:55:05
00028 suncat0266 pw.x -npool 4 -i  Done                     04/19/2018 08:55:05
00029 suncat0266 pw.x -npool 4 -i  Done                     04/19/2018 08:55:05
00030 suncat0266 pw.x -npool 4 -i  Done                     04/19/2018 08:55:05
00031 suncat0266 pw.x -npool 4 -i  Done                     04/19/2018 08:55:05