     Program PWSCF v.5.1rc2 (svn rev. 11289) starts on 23Apr2018 at  6:52:11

     Current dimensions of program PWSCF are:
     Max number of different atomic species (ntypx) = 10
     Max number of k-points (npk) =  40000
     Max angular momentum in pseudopotentials (lmaxx) =  3
     Presently stress not available with electric field

     IMPORTANT: XC functional enforced from input :
     Exchange-correlation      = BEEF-VDW ( 1  4 27 13 2)
     Any further DFT definition will be discarded
     Please, verify this is what you really want

     Subspace diagonalization in iterative solution of the eigenvalue problem:
     a serial algorithm will be used

     bravais-lattice index     =            0
     lattice parameter (alat)  =       1.8897  a.u.
     unit-cell volume          =    5185.0501 (a.u.)^3
     number of atoms/cell      =           14
     number of atomic types    =            3
     number of electrons       =       161.00
     number of Kohn-Sham states=           90
     kinetic-energy cutoff     =      36.7493  Ry
     charge density cutoff     =     367.4932  Ry
     convergence threshold     =      1.0E-05
     mixing beta               =       0.3000
     number of iterations used =           10  plain     mixing
     Exchange-correlation      = BEEF-VDW ( 1  4 27 13 2)
     nstep                     =           50

     celldm(1)=   1.889726  celldm(2)=   0.000000  celldm(3)=   0.000000
     celldm(4)=   0.000000  celldm(5)=   0.000000  celldm(6)=   0.000000

     crystal axes: (cart. coord. in units of alat)
               a(1) = (   5.972022   0.000000   0.000000 )
               a(2) = (   2.986011   5.171923   0.000000 )
               a(3) = (   0.000000   0.000000  24.876136 )

     reciprocal axes: (cart. coord. in units 2 pi/alat)
               b(1) = (  0.167447 -0.096676  0.000000 )
               b(2) = (  0.000000  0.193352  0.000000 )
               b(3) = (  0.000000  0.000000  0.040199 )

     PseudoPot. # 1 for Ta read from file:
     /u/if/mamunm/psp/gbrv1.5pbe/Ta.UPF
     MD5 check sum: f8bbe9446314a3b8ea5d9f3e3836c939
     Pseudo is Ultrasoft + core correction, Zval = 13.0
     Generated by new atomic code, or converted to UPF format
     Using radial grid of  921 points,  7 beta functions with:
                l(1) =   0
                l(2) =   0
                l(3) =   1
                l(4) =   1
                l(5) =   2
                l(6) =   2
                l(7) =   3
     Q(r) pseudized with  6 coefficients,  rinner =    1.300   1.300   1.300
                                                       1.300   1.300   1.300
                                                       1.300

     PseudoPot. # 2 for C  read from file:
     /u/if/mamunm/psp/gbrv1.5pbe/C.UPF
     MD5 check sum: d1aef80898a10debaa0f26306b886e00
     Pseudo is Ultrasoft + core correction, Zval =  4.0
     Generated by new atomic code, or converted to UPF format
     Using radial grid of  721 points,  4 beta functions with:
                l(1) =   0
                l(2) =   0
                l(3) =   1
                l(4) =   1
     Q(r) pseudized with  8 coefficients,  rinner =    1.100   1.100   1.100

     PseudoPot. # 3 for H  read from file:
     /u/if/mamunm/psp/gbrv1.5pbe/H.UPF
     MD5 check sum: 761ae9a214b05c3daf00ab9f6b793d6f
     Pseudo is Ultrasoft, Zval =  1.0
     Generated by new atomic code, or converted to UPF format
     Using radial grid of  615 points,  2 beta functions with:
                l(1) =   0
                l(2) =   0
     Q(r) pseudized with  8 coefficients,  rinner =    0.700

     vdW kernel table read from file vdW_kernel_table
     MD5 check sum: 095c7af220d748ca6e76c0b4c6cfb241

     atomic species   valence    mass     pseudopotential
        Ta1           13.00   180.94788     Ta( 1.00)
        C1             4.00    12.01100     C ( 1.00)
        H1             1.00     1.00800     H ( 1.00)

     No symmetry found

   Cartesian axes

     site n.     atom                  positions (alat units)
         1           Ta1 tau(   1) = (   1.4930055   0.8619871  10.0000000  )
         2           Ta1 tau(   2) = (   4.4790165   0.8619871  10.0000000  )
         3           Ta1 tau(   3) = (   2.9860110   3.4479485  10.0000000  )
         4           Ta1 tau(   4) = (   5.9720221   3.4479485  10.0000000  )
         5           Ta1 tau(   5) = (   5.9720221   1.7239743  12.4380678  )
         6           Ta1 tau(   6) = (   2.9860110   1.7239743  12.4380678  )
         7           Ta1 tau(   7) = (   7.4650276   4.3099357  12.4380678  )
         8           Ta1 tau(   8) = (   4.4790165   4.3099357  12.4380678  )
         9           Ta1 tau(   9) = (   0.0000000   0.0000000  14.8761356  )
        10           Ta1 tau(  10) = (   2.9860110   0.0000000  14.8761356  )
        11           Ta1 tau(  11) = (   1.4930055   2.5859614  14.8761356  )
        12           Ta1 tau(  12) = (   4.4790165   2.5859614  14.8761356  )
        13           C1  tau(  13) = (   1.4930055   0.8619871  16.4751356  )
        14           H1  tau(  14) = (   1.4930055   0.8619871  17.5751356  )

     number of k points=    20  Fermi-Dirac smearing, width (Ry)=  0.0110
                       cart. coord. in units 2pi/alat
        k(    1) = (   0.0000000   0.0000000   0.0000000), wk =   0.0555556
        k(    2) = (   0.0000000   0.0322253   0.0000000), wk =   0.1111111
        k(    3) = (   0.0000000   0.0644506   0.0000000), wk =   0.1111111
        k(    4) = (   0.0000000  -0.0966758   0.0000000), wk =   0.0555556
        k(    5) = (   0.0279079  -0.0161126   0.0000000), wk =   0.1111111
        k(    6) = (   0.0279079   0.0161126   0.0000000), wk =   0.1111111
        k(    7) = (   0.0279079   0.0483379   0.0000000), wk =   0.1111111
        k(    8) = (   0.0279079  -0.1127885   0.0000000), wk =   0.1111111
        k(    9) = (   0.0279079  -0.0805632   0.0000000), wk =   0.1111111
        k(   10) = (   0.0279079  -0.0483379   0.0000000), wk =   0.1111111
        k(   11) = (   0.0558158  -0.0322253   0.0000000), wk =   0.1111111
        k(   12) = (   0.0558158   0.0000000   0.0000000), wk =   0.1111111
        k(   13) = (   0.0558158   0.0322253   0.0000000), wk =   0.1111111
        k(   14) = (   0.0558158  -0.1289011   0.0000000), wk =   0.1111111
        k(   15) = (   0.0558158  -0.0966758   0.0000000), wk =   0.1111111
        k(   16) = (   0.0558158  -0.0644506   0.0000000), wk =   0.1111111
        k(   17) = (  -0.0837237   0.0483379   0.0000000), wk =   0.0555556
        k(   18) = (  -0.0837237   0.0805632   0.0000000), wk =   0.1111111
        k(   19) = (  -0.0837237   0.1127885   0.0000000), wk =   0.1111111
        k(   20) = (  -0.0837237  -0.0483379   0.0000000), wk =   0.0555556

     Largest allocated arrays     est. size (Mb)     dimensions
     Largest temporary arrays     est. size (Mb)     dimensions

     Initial potential from superposition of free atoms
     Check: negative starting charge=   -1.121492

     starting charge  160.98661, renormalised to  161.00000

     negative rho (up, down):  1.122E+00 0.000E+00

     *
     * You are using vdW-DF for exchange-correlation in this calculation.
     * Please cite the following three references that made this development
     * possible:
     *
     *   M. Dion, H. Rydberg, E. Schroder, D. C. Langreth, and
     *   B. I. Lundqvist, Phys. Rev. Lett. 92, 246401 (2004).
     *
     *   T. Thonhauser, V. R. Cooper, S. Li, A. Puzder, P. Hyldgaard, and
     *   D. C. Langreth, Phys. Rev. B 76, 125112 (2007).
     *
     *   G. Roman-Perez and J. M. Soler, Phys. Rev. Lett. 103, 096102 (2009).
     *
     *
     * If you are using vdW-DF2, please also cite:
     *
     *   K. Lee, E. D. Murray, L. Kong, B. I. Lundqvist, and
     *   D. C. Langreth, Phys. Rev. B 82, 081101(R) (2010).
     *
     *
     * If you are calculating the stress with vdW-DF, please also cite:
     *
     *   R. Sabatini, E. Kucukbenli, B. Kolb, T. Thonhauser, and
     *   S. de Gironcoli, J. Phys.: Condens. Matter 24, 424209 (2012).
     *

     Carrying out vdW-DF run using the following parameters:

     Nqs =      20    Nr_points =    1024   r_max =   100.000
     q_mesh =
               0.00001000     0.04494208     0.09755937     0.15916263
               0.23128650     0.31572767     0.41458969     0.53033537
               0.66584808     0.82450364     1.01025438     1.22772762
               1.48234092     1.78043706     2.12944203     2.53805004
               3.01644009     3.57652955     4.23227104     5.00000000

     Gradients computed in reciprocal space

     Adding external electric field

     Computed dipole along edir(3) :
        Dipole               -0.0029 Ry au,         -0.0075 Debye
        Dipole field         -0.0000 Ry au

        Potential amp.        0.0007 Ry
        Total length         45.8339 bohr

     Starting wfc are  161 randomized atomic wfcs

     Self-consistent Calculation

     iteration #  1     ecut=    36.75 Ry     beta=0.30
     Davidson diagonalization with overlap
     ethr =  1.00E-02,  avg # of iterations =  2.0

[...]

     total energy              =   -1728.93246220 Ry
     Harris-Foulkes estimate   =   -1731.55457122 Ry
     estimated scf accuracy    <       5.73652793 Ry

[...]

     End of self-consistent calculation

          k = 0.0000 0.0000 0.0000 ( 19447 PWs)   bands (ev):

   -66.2766 -66.1867 -66.1282 -66.1280 -66.1280 -66.1213 -66.0788 -66.0787
   -66.0775 -66.0373 -66.0373 -66.0029 -32.9239 -32.9164 -32.9164 -32.8906
   -32.8538 -32.8538 -32.8396 -32.8220 -32.8220 -32.7924 -32.6534 -32.5318
   -32.4930 -32.4930 -32.4619 -32.4143 -32.4143 -32.3217 -32.3217 -32.3120
   -32.2660 -32.2660 -32.2439 -32.2313 -32.2313 -32.2300 -32.1639 -32.1603
   -32.1603 -32.1560 -32.1081 -32.1081 -32.0760 -32.0760 -32.0113 -32.0113
    -8.5456  -5.3024  -3.9365  -2.9828  -2.3634  -1.9506  -1.9506  -1.8613
    -1.8613  -1.8553  -1.5619  -1.1860  -1.1860  -0.9294  -0.8257  -0.8257
    -0.3168   0.1619   0.1619   1.0419   1.0980   1.0980   1.4804   1.7319
     1.8269   1.8269   2.0403   2.0806   2.2355   2.2355   2.3002   2.5149
     2.5149   2.8077   2.8077   2.8294   2.8847   2.9088   2.9088   3.0108
     3.0109   3.3093

[...]

          k =-0.0837 0.0483 0.0000 ( 19532 PWs)   bands (ev):

[...]

     the Fermi energy is     2.1347 ev

!    total energy              =   -1731.09151290 Ry
     Harris-Foulkes estimate   =   -1731.09151123 Ry
     estimated scf accuracy    <       0.00000445 Ry

     The total energy is the sum of the following terms:

     one-electron contribution =  -11650.97303795 Ry
     hartree contribution      =    5810.22411254 Ry
     xc contribution           =    -527.08871670 Ry
     ewald contribution        =    4636.84765308 Ry
     electric field correction =       0.00001341 Ry
     smearing contrib. (-TS)   =      -0.10153729 Ry

     convergence has been achieved in  17 iterations

 BEEF-vdW xc energy contributions
           1 :   -463.939381818919
           2 :    428.220058128847
           3 :   -365.890100356682
           4 :    291.381306452885
           5 :   -219.141097992444
           6 :    159.203043414050
           7 :   -115.190843426079
           8 :    85.1382974480794
           9 :   -64.2192450270924
          10 :    47.7816430628396
          11 :   -33.2609790545059
          12 :    20.3994379665963
          13 :   -10.1734035755583
          14 :    3.38126278059713
          15 :   0.226811802813984
          16 :   -1.90691555374121
          17 :    3.19269632424766
          18 :   -5.05191154978934
          19 :    7.46095288031324
          20 :   -9.60941056451202
          21 :    10.5543245722118
          22 :   -9.89555185979532
          23 :    8.06590262646671
          24 :   -6.08710923643633
          25 :    4.97329531049229
          26 :   -5.16397123080532
          27 :    6.32363194861881
          28 :   -7.60150644557734
          29 :    8.16358687328011
          30 :   -7.66293759964037
          31 :   -41.5656390938748
          32 :   -30.8585308178239

     Forces acting on atoms (Ry/au):

     negative rho (up, down):  1.178E+00 0.000E+00
     atom    1 type  1   force =     0.00000016   -0.00000122    0.00327066
     atom    2 type  1   force =     0.00000074    0.00109948    0.00530815
     atom    3 type  1   force =     0.00095412   -0.00054957    0.00530882
     atom    4 type  1   force =    -0.00095364   -0.00054878    0.00530956
     atom    5 type  1   force =    -0.00109004    0.00062973    0.00263639
     atom    6 type  1   force =     0.00108926    0.00062789    0.00263711
     atom    7 type  1   force =    -0.00000232    0.00000014   -0.00193571
     atom    8 type  1   force =     0.00000125   -0.00125787    0.00263562
     atom    9 type  1   force =    -0.00081536   -0.00047005    0.04866246
     atom   10 type  1   force =     0.00081572   -0.00047028    0.04865908
     atom   11 type  1   force =     0.00000048    0.00094123    0.04865942
     atom   12 type  1   force =    -0.00000061   -0.00000149   -0.01982267
     atom   13 type  2   force =     0.00000011    0.00000067   -0.14072617
     atom   14 type  3   force =     0.00000012    0.00000012   -0.01060272

     Total force =     0.165576     Total SCF correction =     0.007623

     entering subroutine stress ...

     negative rho (up, down):  1.178E+00 0.000E+00
          total   stress  (Ry/bohr**3)                   (kbar)     P=  -35.24
  -0.00026762   0.00000000   0.00000000        -39.37      0.00      0.00
   0.00000000  -0.00026762   0.00000000          0.00    -39.37      0.00
   0.00000000   0.00000000  -0.00018348          0.00      0.00    -26.99

     BFGS Geometry Optimization

     number of scf cycles    =   1
     number of bfgs steps    =   0

     energy   new            =   -1731.0915129019 Ry

     new trust radius        =       0.1407261724 bohr
     new conv_thr            =       0.0000099958 Ry

ATOMIC_POSITIONS (crystal)
Ta1      0.166666667   0.166666667   0.401991699    0   0   0
Ta1      0.666666667   0.166666667   0.401991699    0   0   0
Ta1      0.166666667   0.666666667   0.401991699    0   0   0
Ta1      0.666666667   0.666666667   0.401991699    0   0   0
Ta1      0.833333333   0.333333333   0.500000000    0   0   0
Ta1      0.333333333   0.333333333   0.500000000    0   0   0
Ta1      0.833333333   0.833333333   0.500000000    0   0   0
Ta1      0.333333333   0.833333333   0.500000000    0   0   0
Ta1     -0.000048201  -0.000048094   0.599043473
Ta1      0.500096340  -0.000048118   0.599043401
Ta1     -0.000048110   0.500096305   0.599043408
Ta1      0.500000022   0.499999847   0.597586624
C1       0.166666642   0.166666735   0.659293179
H1       0.166666671   0.166666679   0.706280315

     Writing output data file calc.save
     Check: negative starting charge=   -1.121492
     NEW-OLD atomic charge density approx. for the potential
     Check: negative starting charge=   -1.119554

[...]

     Total force =     0.108018     Total SCF correction =     0.010804
     SCF correction compared to forces is large: reduce conv_thr to get better values

[...]

     energy   old            =   -1731.0915129019 Ry
     energy   new            =   -1731.1111776503 Ry

     CASE: energy  _new < energy  _old

[...]

     Threshold (ethr) on eigenvalues was too large:
     Diagonalizing with lowered threshold

     Davidson diagonalization with overlap
     ethr =  8.38E-08,  avg # of iterations =  2.0

[...]

     Total force =     0.007471     Total SCF correction =     0.000628

[...]

     number of scf cycles    =  14
     number of bfgs steps    =  13

     energy   old            =   -1731.1589046232 Ry
     energy   new            =   -1731.1590109703 Ry

     CASE: energy  _new < energy  _old

     new trust radius        =       0.0029372137 bohr
     new conv_thr            =       0.0000001000 Ry

ATOMIC_POSITIONS (crystal)
Ta1      0.166666667   0.166666667   0.401991699    0   0   0
Ta1      0.666666667   0.166666667   0.401991699    0   0   0
Ta1      0.166666667   0.666666667   0.401991699    0   0   0
Ta1      0.666666667   0.666666667   0.401991699    0   0   0
Ta1      0.833333333   0.333333333   0.500000000    0   0   0
Ta1      0.333333333   0.333333333   0.500000000    0   0   0
Ta1      0.833333333   0.833333333   0.500000000    0   0   0
Ta1      0.333333333   0.833333333   0.500000000    0   0   0
Ta1     -0.003914078  -0.003914006   0.597751820
Ta1      0.507828214  -0.003914108   0.597751814
Ta1     -0.003914087   0.507828085   0.597751816
Ta1      0.500000084   0.499999961   0.590596624
C1       0.166666657   0.166666659   0.645684522
H1       0.166666593   0.166666860   0.689944062

     Writing output data file calc.save
     Check: negative starting charge=   -1.124660
     NEW-OLD atomic charge density approx. for the potential
     Check: negative starting charge=   -1.124817

[...]

     Self-consistent Calculation

[...]

     Threshold (ethr) on eigenvalues was too large:
     Diagonalizing with lowered threshold

     Davidson diagonalization with overlap
     ethr =  1.95E-08,  avg # of iterations =  3.1

[...]

     total energy              =   -1731.15902146 Ry
     Harris-Foulkes estimate   =   -1731.15902143 Ry
     estimated scf accuracy    <       0.00000022 Ry

     iteration #  7     ecut=    36.75 Ry     beta=0.30
     Davidson diagonalization with overlap
     ethr =  1.37E-10,  avg # of iterations =  2.4

[...]

     negative rho (up, down):  1.182E+00 0.000E+00

     Adding external electric field

     Computed dipole along edir(3) :
        Dipole                0.1524 Ry au,          0.3873 Debye
        Dipole field          0.0004 Ry au

        Potential amp.       -0.0339 Ry
        Total length         45.8339 bohr

     End of self-consistent calculation

[...]

          k = 0.0558-0.0645 0.0000 ( 19521 PWs)   bands (ev):

[...]

          k =-0.0837-0.0483 0.0000 ( 19532 PWs)   bands (ev):

   -66.0423 -66.0362 -66.0113 -66.0071 -65.9653 -65.9322 -65.9139 -65.9086
   -65.8955 -65.8753 -65.8643 -65.8577 -32.7127 -32.6424 -32.6388 -32.6260
   -32.6173 -32.6057 -32.5372 -32.5270 -32.5044 -32.4885 -32.4496 -32.4426
   -32.3542 -32.3411 -32.3287 -32.3028 -32.2862 -32.2853 -32.2656 -32.2404
   -32.1992 -32.1913 -32.1778 -32.1672 -32.1612 -32.1324 -32.0956 -32.0756
   -32.0518 -32.0283 -32.0257 -31.9920 -31.9891 -31.9850 -31.9319 -31.8921
    -8.9457  -3.6852  -3.4767  -3.0326  -2.1610  -1.6054  -1.2752  -1.2113
    -0.9558  -0.9269  -0.7778  -0.6310  -0.5306   0.0309   0.1777   0.2706
     0.3753   0.3841   0.4760   0.5293   0.8549   0.9334   0.9433   0.9668
     1.1716   1.1901   1.3862   1.6043   1.6278   1.6438   1.7459   1.8595
     1.9365   1.9705   2.0287   2.4977   2.5362   2.6090   2.8005   3.2263
     3.2405   3.3619

     the Fermi energy is     2.2468 ev

!    total energy              =   -1731.15902146 Ry
     Harris-Foulkes estimate   =   -1731.15902141 Ry
     estimated scf accuracy    <       0.00000003 Ry

     The total energy is the sum of the following terms:

     one-electron contribution =  -11819.07287462 Ry
     hartree contribution      =    5895.02104794 Ry
     xc contribution           =    -527.48620610 Ry
     ewald contribution        =    4720.47467646 Ry
     electric field correction =       0.00005626 Ry
     smearing contrib. (-TS)   =      -0.09572141 Ry

     convergence has been achieved in   7 iterations

 BEEF-vdW xc energy contributions
           1 :   -464.331414701613
           2 :    428.699148675984
           3 :   -366.463847655306
           4 :    291.966937898142
           5 :   -219.611550333598
           6 :    159.455230358009
           7 :   -115.203366326723
           8 :    84.9859261722968
           9 :   -64.0338963232246
          10 :    47.6798797540515
          11 :   -33.2808699281462
          12 :    20.4858074292544
          13 :   -10.2202399733573
          14 :    3.30464222167166
          15 :   0.432205287060242
          16 :   -2.16446273837482
          17 :    3.39218106503148
          18 :   -5.11463284425446
          19 :    7.38172232986000
          20 :   -9.45229444120389
          21 :    10.4090922949886
          22 :   -9.82564557031378
          23 :    8.07904379333814
          24 :   -6.14192281523060
          25 :    5.01241951254127
          26 :   -5.15103379894498
          27 :    6.26363821979010
          28 :   -7.53591766788793
          29 :    8.14493180489541
          30 :   -7.72360537888142
          31 :   -41.5915297110182
          32 :   -30.9014885674218

     Forces acting on atoms (Ry/au):

     negative rho (up, down):  1.182E+00 0.000E+00
     atom    1 type  1   force =    -0.00000005    0.00000003    0.00731193
     atom    2 type  1   force =     0.00000003    0.00044360    0.00513097
     atom    3 type  1   force =     0.00038420   -0.00022182    0.00513063
     atom    4 type  1   force =    -0.00038415   -0.00022183    0.00513100
     atom    5 type  1   force =     0.01640166   -0.00946956   -0.00800409
     atom    6 type  1   force =    -0.01640164   -0.00946890   -0.00800469
     atom    7 type  1   force =     0.00000045   -0.00000022    0.00128048
     atom    8 type  1   force =    -0.00000055    0.01893872   -0.00800464
     atom    9 type  1   force =    -0.00049591   -0.00028662    0.00000228
     atom   10 type  1   force =     0.00049585   -0.00028626    0.00000242
     atom   11 type  1   force =     0.00000029    0.00057278    0.00000225
     atom   12 type  1   force =    -0.00000014    0.00000007   -0.00012635
     atom   13 type  2   force =    -0.00000002    0.00000004   -0.00096018
     atom   14 type  3   force =    -0.00000002   -0.00000002    0.00110799

     Total force =     0.001775     Total SCF correction =     0.000303
     SCF correction compared to forces is large: reduce conv_thr to get better values

     entering subroutine stress ...

     negative rho (up, down):  1.182E+00 0.000E+00
          total   stress  (Ry/bohr**3)                   (kbar)     P=  -20.05
  -0.00017047   0.00000000   0.00000000        -25.08      0.00      0.00
   0.00000000  -0.00017047  -0.00000000          0.00    -25.08     -0.00
   0.00000000  -0.00000000  -0.00006793          0.00     -0.00     -9.99

     bfgs converged in  15 scf cycles and  14 bfgs steps
     (criteria: energy <  1.0E+00, force <  1.9E-03)

     End of BFGS Geometry Optimization

     Final energy   =   -1731.1590214643 Ry
Begin final coordinates

ATOMIC_POSITIONS (crystal)
Ta1      0.166666667   0.166666667   0.401991699    0   0   0
Ta1      0.666666667   0.166666667   0.401991699    0   0   0
Ta1      0.166666667   0.666666667   0.401991699    0   0   0
Ta1      0.666666667   0.666666667   0.401991699    0   0   0
Ta1      0.833333333   0.333333333   0.500000000    0   0   0
Ta1      0.333333333   0.333333333   0.500000000    0   0   0
Ta1      0.833333333   0.833333333   0.500000000    0   0   0
Ta1      0.333333333   0.833333333   0.500000000    0   0   0
Ta1     -0.003914078  -0.003914006   0.597751820
Ta1      0.507828214  -0.003914108   0.597751814
Ta1     -0.003914087   0.507828085   0.597751816
Ta1      0.500000084   0.499999961   0.590596624
C1       0.166666657   0.166666659   0.645684522
H1       0.166666593   0.166666860   0.689944062
End final coordinates

     Writing output data file calc.save

     General routines

     Parallel routines

   This run was terminated on:   9: 5:15  23Apr2018

   JOB DONE.
Job  /afs/slac/g/suncat/bin/suncat-tsmpirun -x LD_LIBRARY_PATH -wdir /scratch/qe428389_2bFmr pw.x -npool 4 -in pw.inp

TID   HOST_NAME   COMMAND_LINE            STATUS            TERMINATION_TIME
00000 suncat0178 pw.x -npool 4 -i  Done                     04/23/2018 09:05:15
00001 suncat0178 pw.x -npool 4 -i  Done                     04/23/2018 09:05:15
00002 suncat0178 pw.x -npool 4 -i  Done                     04/23/2018 09:05:15
00003 suncat0178 pw.x -npool 4 -i  Done                     04/23/2018 09:05:15
00004 suncat0178 pw.x -npool 4 -i  Done                     04/23/2018 09:05:15
00005 suncat0178 pw.x -npool 4 -i  Done                     04/23/2018 09:05:15
00006 suncat0178 pw.x -npool 4 -i  Done                     04/23/2018 09:05:15
00007 suncat0178 pw.x -npool 4 -i  Done                     04/23/2018 09:05:15
00008 suncat0169 pw.x -npool 4 -i  Done                     04/23/2018 09:05:15
00009 suncat0169 pw.x -npool 4 -i  Done                     04/23/2018 09:05:15
00010 suncat0169 pw.x -npool 4 -i  Done                     04/23/2018 09:05:15
00011 suncat0169 pw.x -npool 4 -i  Done                     04/23/2018 09:05:15
00012 suncat0169 pw.x -npool 4 -i  Done                     04/23/2018 09:05:15
00013 suncat0169 pw.x -npool 4 -i  Done                     04/23/2018 09:05:15
00014 suncat0169 pw.x -npool 4 -i  Done                     04/23/2018 09:05:15
00015 suncat0169 pw.x -npool 4 -i  Done                     04/23/2018 09:05:15
00016 suncat0260 pw.x -npool 4 -i  Done                     04/23/2018 09:05:15
00017 suncat0260 pw.x -npool 4 -i  Done                     04/23/2018 09:05:15
00018 suncat0260 pw.x -npool 4 -i  Done                     04/23/2018 09:05:15
00019 suncat0260 pw.x -npool 4 -i  Done                     04/23/2018 09:05:15
00020 suncat0260 pw.x -npool 4 -i  Done                     04/23/2018 09:05:15
00021 suncat0260 pw.x -npool 4 -i  Done                     04/23/2018 09:05:15
00022 suncat0260 pw.x -npool 4 -i  Done                     04/23/2018 09:05:15
00023 suncat0260 pw.x -npool 4 -i  Done                     04/23/2018 09:05:15
00024 suncat0218 pw.x -npool 4 -i  Done                     04/23/2018 09:05:15
00025 suncat0218 pw.x -npool 4 -i  Done                     04/23/2018 09:05:15
00026 suncat0218 pw.x -npool 4 -i  Done                     04/23/2018 09:05:15
00027 suncat0218 pw.x -npool 4 -i  Done                     04/23/2018 09:05:15
00028 suncat0218 pw.x -npool 4 -i  Done                     04/23/2018 09:05:15
00029 suncat0218 pw.x -npool 4 -i  Done                     04/23/2018 09:05:15
00030 suncat0218 pw.x -npool 4 -i  Done                     04/23/2018 09:05:15
00031 suncat0218 pw.x -npool 4 -i  Done                     04/23/2018 09:05:15