     Program PWSCF v.5.1rc2 (svn rev. 11289) starts on 17Jan2019 at  1:15:12

     Current dimensions of program PWSCF are:
     Max number of different atomic species (ntypx) = 10
     Max number of k-points (npk) =  40000
     Max angular momentum in pseudopotentials (lmaxx) =  3

     IMPORTANT: XC functional enforced from input :
     Exchange-correlation      = BEEF-VDW ( 1  4 27 13 2)
     Any further DFT definition will be discarded
     Please, verify this is what you really want

     Subspace diagonalization in iterative solution of the eigenvalue problem:
     a serial algorithm will be used

     bravais-lattice index     =            0
     lattice parameter (alat)  =      12.7122  a.u.
     unit-cell volume          =    6741.9071 (a.u.)^3
     number of atoms/cell      =           13
     number of atomic types    =            2
     number of electrons       =       173.00
     number of Kohn-Sham states=           96
     kinetic-energy cutoff     =      36.7493  Ry
     charge density cutoff     =     367.4933  Ry
     convergence threshold     =      1.0E-04
     mixing beta               =       0.2000
     number of iterations used =            8  plain     mixing
     Exchange-correlation      = BEEF-VDW ( 1  4 27 13 2)
     nstep                     =           50

     celldm(1)=  12.712175  celldm(2)=   0.000000  celldm(3)=   0.000000
     celldm(4)=   0.000000  celldm(5)=   0.000000  celldm(6)=   0.000000

     crystal axes: (cart. coord. in units of alat)
               a(1) = (   1.000000   0.000000   0.000000 )
               a(2) = (   0.500000   0.866025   0.000000 )
               a(3) = (   0.000000   0.000000   3.789593 )

     reciprocal axes: (cart. coord. in units 2 pi/alat)
               b(1) = (  1.000000 -0.577350  0.000000 )
               b(2) = (  0.000000  1.154701  0.000000 )
               b(3) = (  0.000000  0.000000  0.263881 )

     PseudoPot. # 1 for Sn read from file:
     /nfs/slac/g/suncatfs/mamunm/src/decaf-espresso/gbrv15pbe/Sn.UPF
     MD5 check sum: 469debedee59599fedebd795477fea03
     Pseudo is Ultrasoft + core correction, Zval = 14.0
     Generated by new atomic code, or converted to UPF format
     Using radial grid of  891 points,  6 beta functions with:
                l(1) =   0
                l(2) =   0
                l(3) =   1
                l(4) =   1
                l(5) =   2
                l(6) =   2
     Q(r) pseudized with  8 coefficients,  rinner =    1.350   1.350   1.350
                                                       1.350   1.350

     PseudoPot. # 2 for N  read from file:
     /nfs/slac/g/suncatfs/mamunm/src/decaf-espresso/gbrv15pbe/N.UPF
     MD5 check sum: 95339753478d7afb44899504a8723017
     Pseudo is Ultrasoft + core correction, Zval =  5.0
     Generated by new atomic code, or converted to UPF format
     Using radial grid of  729 points,  4 beta functions with:
                l(1) =   0
                l(2) =   0
                l(3) =   1
                l(4) =   1
     Q(r) pseudized with  8 coefficients,  rinner =    0.900   0.900   0.900

     vdW kernel table read from file vdW_kernel_table
     MD5 check sum: 095c7af220d748ca6e76c0b4c6cfb241

     atomic species   valence    mass     pseudopotential
        Sn            14.00   118.71000     Sn( 1.00)
        N              5.00    14.00700     N ( 1.00)

     No symmetry found

   Cartesian axes

     site n.     atom                  positions (alat units)
         1           Sn  tau(   1) = (   0.2500000   0.1443376   1.4865483  )
         2           Sn  tau(   2) = (   0.7500000   0.1443376   1.4865483  )
         3           Sn  tau(   3) = (   0.5000000   0.5773503   1.4865483  )
         4           Sn  tau(   4) = (   1.0000000   0.5773503   1.4865483  )
         5           Sn  tau(   5) = (   1.0000000   0.2886751   1.8947966  )
         6           Sn  tau(   6) = (   0.5000000   0.2886751   1.8947966  )
         7           Sn  tau(   7) = (   1.2500000   0.7216878   1.8947966  )
         8           Sn  tau(   8) = (   0.7500000   0.7216878   1.8947966  )
         9           Sn  tau(   9) = (   0.0000387  -0.0000068   2.4122929  )
        10           Sn  tau(  10) = (   0.5000041  -0.0022308   2.2950684  )
        11           Sn  tau(  11) = (   0.2480738   0.4341369   2.2950728  )
        12           Sn  tau(  12) = (   0.7519296   0.4341210   2.2950703  )
        13           N   tau(  13) = (  -0.0000281   0.0000029   2.7024114  )

     number of k points=    20  Fermi-Dirac smearing, width (Ry)=  0.0110
                       cart. coord. in units 2pi/alat
        k(    1) = (   0.0000000   0.0000000   0.0000000), wk =   0.0555556
        k(    2) = (   0.0000000   0.1924501   0.0000000), wk =   0.1111111
        k(    3) = (   0.0000000   0.3849002   0.0000000), wk =   0.1111111
        k(    4) = (   0.0000000  -0.5773503   0.0000000), wk =   0.0555556
        k(    5) = (   0.1666667  -0.0962250   0.0000000), wk =   0.1111111
        k(    6) = (   0.1666667   0.0962250   0.0000000), wk =   0.1111111
        k(    7) = (   0.1666667   0.2886751   0.0000000), wk =   0.1111111
        k(    8) = (   0.1666667  -0.6735753   0.0000000), wk =   0.1111111
        k(    9) = (   0.1666667  -0.4811252   0.0000000), wk =   0.1111111
        k(   10) = (   0.1666667  -0.2886751   0.0000000), wk =   0.1111111
        k(   11) = (   0.3333333  -0.1924501   0.0000000), wk =   0.1111111
        k(   12) = (   0.3333333   0.0000000   0.0000000), wk =   0.1111111
        k(   13) = (   0.3333333   0.1924501   0.0000000), wk =   0.1111111
        k(   14) = (   0.3333333  -0.7698004   0.0000000), wk =   0.1111111
        k(   15) = (   0.3333333  -0.5773503   0.0000000), wk =   0.1111111
        k(   16) = (   0.3333333  -0.3849002   0.0000000), wk =   0.1111111
        k(   17) = (  -0.5000000   0.2886751   0.0000000), wk =   0.0555556
        k(   18) = (  -0.5000000   0.4811252   0.0000000), wk =   0.1111111
        k(   19) = (  -0.5000000   0.6735753   0.0000000), wk =   0.1111111
        k(   20) = (  -0.5000000  -0.2886751   0.0000000), wk =   0.0555556

     Largest allocated arrays     est. size (Mb)     dimensions
     Largest temporary arrays     est. size (Mb)     dimensions

     Initial potential from superposition of free atoms
     Check: negative starting charge=   -0.001359

     starting charge  160.99945, renormalised to  173.00000

     negative rho (up, down):  1.460E-03 0.000E+00

     *
     * You are using vdW-DF for exchange-correlation in this calculation.
     * Please cite the following three references that made this development
     * possible:
     *
     *   M. Dion, H. Rydberg, E. Schroder, D. C. Langreth, and
     *   B. I. Lundqvist, Phys. Rev. Lett. 92, 246401 (2004).
     *
     *   T. Thonhauser, V. R. Cooper, S. Li, A. Puzder, P. Hyldgaard, and
     *   D. C. Langreth, Phys. Rev. B 76, 125112 (2007).
     *
     *   G. Roman-Perez and J. M. Soler, Phys. Rev. Lett. 103, 096102 (2009).
     *
     *
     * If you are using vdW-DF2, please also cite:
     *
     *   K. Lee, E. D. Murray, L. Kong, B. I. Lundqvist, and
     *   D. C. Langreth, Phys. Rev. B 82, 081101(R) (2010).
     *
     *
     * If you are calculating the stress with vdW-DF, please also cite:
     *
     *   R. Sabatini, E. Kucukbenli, B. Kolb, T. Thonhauser, and
     *   S. de Gironcoli, J. Phys.: Condens. Matter 24, 424209 (2012).
     *

     Carrying out vdW-DF run using the following parameters:

     Nqs =      20    Nr_points =    1024   r_max =   100.000
     q_mesh =
               0.00001000     0.04494208     0.09755937     0.15916263
               0.23128650     0.31572767     0.41458969     0.53033537
               0.66584808     0.82450364     1.01025438     1.22772762
               1.48234092     1.78043706     2.12944203     2.53805004
               3.01644009     3.57652955     4.23227104     5.00000000

     Gradients computed in reciprocal space

     Adding external electric field

     Computed dipole along edir(3) :
        Dipole               -3.7924 Ry au,         -9.6394 Debye
        Dipole field         -0.0071 Ry au

        Potential amp.        0.6130 Ry
        Total length         43.3566 bohr

     Starting wfc are  112 randomized atomic wfcs

     Self-consistent Calculation

     iteration #  1     ecut=    36.75 Ry     beta=0.20
     Davidson diagonalization with overlap
     ethr =  1.00E-02,  avg # of iterations =  6.3

[...]

     total energy              =   -1912.54828970 Ry
     Harris-Foulkes estimate   =   -1954.24067819 Ry
     estimated scf accuracy    <     122.58753370 Ry

[...]

     End of self-consistent calculation

          k = 0.0000 0.0000 0.0000 ( 25377 PWs)   bands (ev):

   -22.2879 -22.2822 -22.2822 -22.2659 -22.2579 -22.2579 -22.2504 -22.2433
   -22.2433 -22.2388 -22.2266 -22.2266 -22.2188 -22.2169 -22.2169 -22.2161
   -22.2007 -22.2007 -22.1986 -22.1986 -22.1983 -22.1897 -22.1897 -22.1848
   -22.1671 -22.1671 -22.1662 -22.1655 -22.1655 -22.1578 -22.1509 -22.1509
   -22.1425 -22.1243 -22.1243 -22.1199 -22.1199 -22.1044 -22.0901 -22.0762
   -22.0762 -22.0664 -22.0664 -22.0619 -22.0585 -22.0585 -22.0536 -22.0535
   -22.0423 -22.0416 -22.0352 -22.0352 -22.0290 -22.0290 -22.0250 -21.4759
   -21.4540 -21.4540 -21.2872 -21.2872 -12.4912 -10.8514  -9.5288  -7.8595
    -6.8479  -6.8479  -6.8058  -6.4097  -6.4097  -5.9381  -5.4247  -5.4247
    -5.1162  -4.1847  -3.9819  -3.9819  -3.3556  -2.9325  -2.8609  -2.8609
    -2.7106  -2.6554  -2.6554  -0.9468  -0.4779  -0.4779  -0.3403   0.8276
     0.9062   0.9063   0.9280   0.9281   2.0522   2.3636   2.5006   2.5006

[...]

          k =-0.5000 0.2887 0.0000 ( 25386 PWs)   bands (ev):

[...]

     the Fermi energy is    -0.1746 ev

!    total energy              =   -1948.35605849 Ry
     Harris-Foulkes estimate   =   -1948.35629091 Ry
     estimated scf accuracy    <       0.00004738 Ry

     The total energy is the sum of the following terms:

     one-electron contribution =  -10213.87305505 Ry
     hartree contribution      =    5168.42454485 Ry
     xc contribution           =    -539.10750505 Ry
     ewald contribution        =    3636.24552963 Ry
     electric field correction =       0.00192428 Ry
     smearing contrib. (-TS)   =      -0.04749714 Ry

     convergence has been achieved in  17 iterations

     Forces acting on atoms (Ry/au):

     negative rho (up, down):  7.209E-04 0.000E+00
     atom    1 type  1   force =    -0.00449224   -0.00261358    0.00017550
     atom    2 type  1   force =     0.00448261   -0.00259312    0.00020361
     atom    3 type  1   force =     0.00000351    0.00518520    0.00017370
     atom    4 type  1   force =     0.00000416   -0.00000810    0.00622509
     atom    5 type  1   force =    -0.00000847   -0.00762895   -0.00423862
     atom    6 type  1   force =     0.00000697   -0.00000032   -0.00050180
     atom    7 type  1   force =     0.00662699    0.00383024   -0.00423652
     atom    8 type  1   force =    -0.00661922    0.00382770   -0.00424214
     atom    9 type  1   force =    -0.00000437    0.00000263    0.00961548
     atom   10 type  1   force =    -0.00000596   -0.00030190    0.00033432
     atom   11 type  1   force =    -0.00027714    0.00014483    0.00035123
     atom   12 type  1   force =     0.00027722    0.00015422    0.00034990
     atom   13 type  2   force =     0.00000595    0.00000114   -0.00420974

     Total force =     0.010527     Total SCF correction =     0.028440
     SCF correction compared to forces is large: reduce conv_thr to get better values

     BFGS Geometry Optimization

     number of scf cycles    =   1
     number of bfgs steps    =   0

     energy   new            =   -1948.3560584873 Ry

     new trust radius        =       0.0096154789 bohr
     new conv_thr            =       0.0001000000 Ry

ATOMIC_POSITIONS (angstrom)
Sn       1.681748263   0.970957812  10.000000000    0   0   0
Sn       5.045244789   0.970957812  10.000000000    0   0   0
Sn       3.363496526   3.883831250  10.000000000    0   0   0
Sn       6.726993052   3.883831250  10.000000000    0   0   0
Sn       6.726993052   1.941915625  12.746283414    0   0   0
Sn       3.363496526   1.941915625  12.746283414    0   0   0
Sn       8.408741315   4.854789062  12.746283414    0   0   0
Sn       5.045244789   4.854789062  12.746283414    0   0   0
Sn       0.000258300  -0.000044059  16.232565787
Sn       3.363520769  -0.015166356  15.439086006
Sn       1.668644111   2.920512461  15.439124479
Sn       5.058371615   2.920410727  15.439106845
N       -0.000185633   0.000020226  18.176874805

     Writing output data file calc.save
     Check: negative starting charge=   -0.001359
     NEW-OLD atomic charge density approx. for the potential
     Check: negative starting charge=   -0.001360

[...]

     iteration #  5     ecut=    36.75 Ry     beta=0.20
     Davidson diagonalization with overlap
     c_bands:  1 eigenvalues not converged
     ethr =  4.68E-07,  avg # of iterations =  5.9

[...]

     energy   old            =   -1948.3560584873 Ry
     energy   new            =   -1948.3559965864 Ry

     CASE: energy  _new > energy  _old

[...]

     CASE: energy  _new < energy  _old

[...]

     number of scf cycles    =   5
     number of bfgs steps    =   3

     energy   old            =   -1948.3560845008 Ry
     energy   new            =   -1948.3560943576 Ry

     CASE: energy  _new < energy  _old

     new trust radius        =       0.0036834804 bohr
     new conv_thr            =       0.0000010000 Ry

ATOMIC_POSITIONS (angstrom)
Sn       1.681748263   0.970957812  10.000000000    0   0   0
Sn       5.045244789   0.970957812  10.000000000    0   0   0
Sn       3.363496526   3.883831250  10.000000000    0   0   0
Sn       6.726993052   3.883831250  10.000000000    0   0   0
Sn       6.726993052   1.941915625  12.746283414    0   0   0
Sn       3.363496526   1.941915625  12.746283414    0   0   0
Sn       8.408741315   4.854789062  12.746283414    0   0   0
Sn       5.045244789   4.854789062  12.746283414    0   0   0
Sn       0.000252619  -0.000038355  16.228908919
Sn       3.363525256  -0.015375733  15.437228943
Sn       1.668457059   2.920617934  15.437263393
Sn       5.058561205   2.920512043  15.437250533
N       -0.000193788   0.000020023  18.179023617

     Writing output data file calc.save
     Check: negative starting charge=   -0.001359
     NEW-OLD atomic charge density approx. for the potential
     Check: negative starting charge=   -0.001359

[...]

     Self-consistent Calculation

[...]

     total energy              =   -1948.35610233 Ry
     Harris-Foulkes estimate   =   -1948.35610137 Ry
     estimated scf accuracy    <       0.00000310 Ry

     iteration #  6     ecut=    36.75 Ry     beta=0.20
     Davidson diagonalization with overlap
     ethr =  1.79E-09,  avg # of iterations =  1.0

     negative rho (up, down):  7.227E-04 0.000E+00

     Adding external electric field

     Computed dipole along edir(3) :
        Dipole               -1.0861 Ry au,         -2.7607 Debye
        Dipole field         -0.0020 Ry au

        Potential amp.        0.1756 Ry
        Total length         43.3566 bohr

     End of self-consistent calculation

[...]

          k = 0.3333-0.3849 0.0000 ( 25368 PWs)   bands (ev):

[...]

          k =-0.5000-0.2887 0.0000 ( 25386 PWs)   bands (ev):

   -22.2838 -22.2590 -22.2566 -22.2482 -22.2479 -22.2414 -22.2391 -22.2343
   -22.2336 -22.2309 -22.2285 -22.2281 -22.2222 -22.2190 -22.2156 -22.2091
   -22.2072 -22.2057 -22.2045 -22.1941 -22.1872 -22.1862 -22.1801 -22.1764
   -22.1755 -22.1709 -22.1706 -22.1671 -22.1604 -22.1561 -22.1554 -22.1454
   -22.1427 -22.1413 -22.1370 -22.1339 -22.1216 -22.1209 -22.1100 -22.1081
   -22.1064 -22.1047 -22.1037 -22.1000 -22.0987 -22.0955 -22.0894 -22.0872
   -22.0823 -22.0783 -22.0698 -22.0633 -22.0623 -22.0458 -22.0373 -21.4869
   -21.4646 -21.4634 -21.2952 -21.2945 -12.4955  -9.8307  -9.6298  -8.5785
    -8.3088  -7.5422  -7.3719  -6.8642  -6.7811  -6.4353  -6.0445  -5.1392
    -5.0691  -2.5623  -2.5292  -2.4017  -2.3090  -2.0201  -1.9856  -1.4904
    -1.3392  -1.0247  -0.9491  -0.8098  -0.6190  -0.2166  -0.0672   0.0625
     0.2722   0.3659   0.6597   0.8920   0.9610   1.1546   1.1986   1.2247

     the Fermi energy is    -0.1833 ev

!    total energy              =   -1948.35610174 Ry
     Harris-Foulkes estimate   =   -1948.35608290 Ry
     estimated scf accuracy    <       0.00000078 Ry

     The total energy is the sum of the following terms:

     one-electron contribution =  -10214.78630891 Ry
     hartree contribution      =    5168.77445925 Ry
     xc contribution           =    -539.11061651 Ry
     ewald contribution        =    3636.81156731 Ry
     electric field correction =       0.00219890 Ry
     smearing contrib. (-TS)   =      -0.04740178 Ry

     convergence has been achieved in   6 iterations

     Forces acting on atoms (Ry/au):

     negative rho (up, down):  7.227E-04 0.000E+00
     atom    1 type  1   force =    -0.00435237   -0.00251197    0.00021672
     atom    2 type  1   force =     0.00435081   -0.00251118    0.00022158
     atom    3 type  1   force =     0.00000009    0.00502498    0.00021754
     atom    4 type  1   force =    -0.00000178   -0.00000008    0.00645820
     atom    5 type  1   force =     0.00000064   -0.00706313   -0.00367980
     atom    6 type  1   force =    -0.00000179    0.00000130    0.00021463
     atom    7 type  1   force =     0.00611914    0.00353166   -0.00367858
     atom    8 type  1   force =    -0.00611452    0.00353008   -0.00367806
     atom    9 type  1   force =    -0.00000085   -0.00000238    0.00090016
     atom   10 type  1   force =     0.00000496   -0.00020311    0.00070160
     atom   11 type  1   force =    -0.00017399    0.00010323    0.00070594
     atom   12 type  1   force =     0.00017507    0.00009987    0.00070109
     atom   13 type  2   force =    -0.00000540    0.00000073    0.00069897

     Total force =     0.001704     Total SCF correction =     0.002104
     SCF correction compared to forces is large: reduce conv_thr to get better values

     bfgs converged in   6 scf cycles and   4 bfgs steps
     (criteria: energy <  1.0E+12, force <  1.9E-03)

     End of BFGS Geometry Optimization

     Final energy   =   -1948.3561017380 Ry
Begin final coordinates

ATOMIC_POSITIONS (angstrom)
Sn       1.681748263   0.970957812  10.000000000    0   0   0
Sn       5.045244789   0.970957812  10.000000000    0   0   0
Sn       3.363496526   3.883831250  10.000000000    0   0   0
Sn       6.726993052   3.883831250  10.000000000    0   0   0
Sn       6.726993052   1.941915625  12.746283414    0   0   0
Sn       3.363496526   1.941915625  12.746283414    0   0   0
Sn       8.408741315   4.854789062  12.746283414    0   0   0
Sn       5.045244789   4.854789062  12.746283414    0   0   0
Sn       0.000252619  -0.000038355  16.228908919
Sn       3.363525256  -0.015375733  15.437228943
Sn       1.668457059   2.920617934  15.437263393
Sn       5.058561205   2.920512043  15.437250533
N       -0.000193788   0.000020023  18.179023617
End final coordinates

     Writing output data file calc.save

     General routines

     Parallel routines

   This run was terminated on:   1:43: 3  17Jan2019

   JOB DONE.
Job  /afs/slac/g/suncat/bin/suncat-tsmpirun -x LD_LIBRARY_PATH -wdir /tmp/qe_379234xc1a8yco_scratch pw.x -npool 3 -in pw.pwi

TID   HOST_NAME   COMMAND_LINE            STATUS            TERMINATION_TIME
00000 suncat1054 pw.x -npool 3 -i  Done                     01/17/2019 01:43:03
00001 suncat1054 pw.x -npool 3 -i  Done                     01/17/2019 01:43:03
00002 suncat1054 pw.x -npool 3 -i  Done                     01/17/2019 01:43:03
00003 suncat1054 pw.x -npool 3 -i  Done                     01/17/2019 01:43:03
00004 suncat1054 pw.x -npool 3 -i  Done                     01/17/2019 01:43:03
00005 suncat1054 pw.x -npool 3 -i  Done                     01/17/2019 01:43:03
00006 suncat1054 pw.x -npool 3 -i  Done                     01/17/2019 01:43:03
00007 suncat1054 pw.x -npool 3 -i  Done                     01/17/2019 01:43:03
00008 suncat1054 pw.x -npool 3 -i  Done                     01/17/2019 01:43:03
00009 suncat1054 pw.x -npool 3 -i  Done                     01/17/2019 01:43:03
00010 suncat1054 pw.x -npool 3 -i  Done                     01/17/2019 01:43:03
00011 suncat1054 pw.x -npool 3 -i  Done                     01/17/2019 01:43:03
00012 suncat1004 pw.x -npool 3 -i  Done                     01/17/2019 01:43:03
00013 suncat1004 pw.x -npool 3 -i  Done                     01/17/2019 01:43:03
00014 suncat1004 pw.x -npool 3 -i  Done                     01/17/2019 01:43:03
00015 suncat1004 pw.x -npool 3 -i  Done                     01/17/2019 01:43:03
00016 suncat1004 pw.x -npool 3 -i  Done                     01/17/2019 01:43:03
00017 suncat1004 pw.x -npool 3 -i  Done                     01/17/2019 01:43:03
00018 suncat1004 pw.x -npool 3 -i  Done                     01/17/2019 01:43:03
00019 suncat1004 pw.x -npool 3 -i  Done                     01/17/2019 01:43:03
00020 suncat1004 pw.x -npool 3 -i  Done                     01/17/2019 01:43:03
00021 suncat1004 pw.x -npool 3 -i  Done                     01/17/2019 01:43:03
00022 suncat1004 pw.x -npool 3 -i  Done                     01/17/2019 01:43:03
00023 suncat1004 pw.x -npool 3 -i  Done                     01/17/2019 01:43:03
00024 suncat1001 pw.x -npool 3 -i  Done                     01/17/2019 01:43:03
00025 suncat1001 pw.x -npool 3 -i  Done                     01/17/2019 01:43:03
00026 suncat1001 pw.x -npool 3 -i  Done                     01/17/2019 01:43:03
00027 suncat1001 pw.x -npool 3 -i  Done                     01/17/2019 01:43:03
00028 suncat1001 pw.x -npool 3 -i  Done                     01/17/2019 01:43:03
00029 suncat1001 pw.x -npool 3 -i  Done                     01/17/2019 01:43:03
00030 suncat1001 pw.x -npool 3 -i  Done                     01/17/2019 01:43:03
00031 suncat1001 pw.x -npool 3 -i  Done                     01/17/2019 01:43:03
00032 suncat1001 pw.x -npool 3 -i  Done                     01/17/2019 01:43:03
00033 suncat1001 pw.x -npool 3 -i  Done                     01/17/2019 01:43:03
00034 suncat1001 pw.x -npool 3 -i  Done                     01/17/2019 01:43:03
00035 suncat1001 pw.x -npool 3 -i  Done                     01/17/2019 01:43:03