     Program PWSCF v.5.1rc2 (svn rev. 11289) starts on 16Apr2018 at 12: 6: 1

     Current dimensions of program PWSCF are:
     Max number of different atomic species (ntypx) = 10
     Max number of k-points (npk) =  40000
     Max angular momentum in pseudopotentials (lmaxx) =  3
     Presently stress not available with electric field

     IMPORTANT: XC functional enforced from input :
     Exchange-correlation      = BEEF-VDW ( 1  4 27 13 2)
     Any further DFT definition will be discarded
     Please, verify this is what you really want

     Subspace diagonalization in iterative solution of the eigenvalue problem:
     a serial algorithm will be used

     bravais-lattice index     =            0
     lattice parameter (alat)  =       1.8897  a.u.
     unit-cell volume          =    5144.9564 (a.u.)^3
     number of atoms/cell      =           15
     number of atomic types    =            3
     number of electrons       =       138.00
     number of Kohn-Sham states=           79
     kinetic-energy cutoff     =      36.7493  Ry
     charge density cutoff     =     367.4932  Ry
     convergence threshold     =      1.0E-05
     mixing beta               =       0.3000
     number of iterations used =           10  plain     mixing
     Exchange-correlation      = BEEF-VDW ( 1  4 27 13 2)
     nstep                     =           50

     celldm(1)=   1.889726  celldm(2)=   0.000000  celldm(3)=   0.000000
     celldm(4)=   0.000000  celldm(5)=   0.000000  celldm(6)=   0.000000

     crystal axes: (cart. coord. in units of alat)
               a(1) = (   5.950946   0.000000   0.000000 )
               a(2) = (   2.975473   5.153671   0.000000 )
               a(3) = (   0.000000   0.000000  24.858927 )

     reciprocal axes: (cart. coord. in units 2 pi/alat)
               b(1) = (  0.168040 -0.097018  0.000000 )
               b(2) = (  0.000000  0.194036  0.000000 )
               b(3) = (  0.000000  0.000000  0.040227 )

     PseudoPot. # 1 for Au read from file:
     /u/if/mamunm/psp/gbrv1.5pbe/Au.UPF
     MD5 check sum: 9d7f43293ad2c663164586bc4b293ffc
     Pseudo is Ultrasoft + core correction, Zval = 11.0
     Generated by new atomic code, or converted to UPF format
     Using radial grid of  985 points,  7 beta functions with:
                l(1) =   0
                l(2) =   0
                l(3) =   1
                l(4) =   1
                l(5) =   2
                l(6) =   2
                l(7) =   3
     Q(r) pseudized with  6 coefficients,  rinner =    1.900   1.900   1.900
                                                       1.900   1.900   1.900
                                                       1.900

     PseudoPot. # 2 for C  read from file:
     /u/if/mamunm/psp/gbrv1.5pbe/C.UPF
     MD5 check sum: d1aef80898a10debaa0f26306b886e00
     Pseudo is Ultrasoft + core correction, Zval =  4.0
     Generated by new atomic code, or converted to UPF format
     Using radial grid of  721 points,  4 beta functions with:
                l(1) =   0
                l(2) =   0
                l(3) =   1
                l(4) =   1
     Q(r) pseudized with  8 coefficients,  rinner =    1.100   1.100   1.100

     PseudoPot. # 3 for H  read from file:
     /u/if/mamunm/psp/gbrv1.5pbe/H.UPF
     MD5 check sum: 761ae9a214b05c3daf00ab9f6b793d6f
     Pseudo is Ultrasoft, Zval =  1.0
     Generated by new atomic code, or converted to UPF format
     Using radial grid of  615 points,  2 beta functions with:
                l(1) =   0
                l(2) =   0
     Q(r) pseudized with  8 coefficients,  rinner =    0.700

     vdW kernel table read from file vdW_kernel_table
     MD5 check sum: 095c7af220d748ca6e76c0b4c6cfb241

     atomic species   valence    mass     pseudopotential
        Au1           11.00   196.96657     Au( 1.00)
        C1             4.00    12.01100     C ( 1.00)
        H1             1.00     1.00800     H ( 1.00)

     No symmetry found

   Cartesian axes

     site n.     atom                  positions (alat units)
         1           Au1 tau(   1) = (   1.4877366   0.8589451  10.0000000  )
         2           Au1 tau(   2) = (   4.4632098   0.8589451  10.0000000  )
         3           Au1 tau(   3) = (   2.9754732   3.4357805  10.0000000  )
         4           Au1 tau(   4) = (   5.9509464   3.4357805  10.0000000  )
         5           Au1 tau(   5) = (   5.9509464   1.7178903  12.4294637  )
         6           Au1 tau(   6) = (   2.9754732   1.7178903  12.4294637  )
         7           Au1 tau(   7) = (   7.4386830   4.2947256  12.4294637  )
         8           Au1 tau(   8) = (   4.4632098   4.2947256  12.4294637  )
         9           Au1 tau(   9) = (   0.0000000   0.0000000  14.8589274  )
        10           Au1 tau(  10) = (   2.9754732   0.0000000  14.8589274  )
        11           Au1 tau(  11) = (   1.4877366   2.5768354  14.8589274  )
        12           Au1 tau(  12) = (   4.4632098   2.5768354  14.8589274  )
        13           C1  tau(  13) = (   0.0000000   0.0000000  16.6609274  )
        14           H1  tau(  14) = (   0.6300000   0.6300000  17.2909274  )
        15           H1  tau(  15) = (   8.2964196   4.5236708  17.2909274  )

     number of k points=    20  Fermi-Dirac smearing, width (Ry)=  0.0110
                       cart. coord. in units 2pi/alat
        k(    1) = (   0.0000000   0.0000000   0.0000000), wk =   0.0555556
        k(    2) = (   0.0000000   0.0323394   0.0000000), wk =   0.1111111
        k(    3) = (   0.0000000   0.0646788   0.0000000), wk =   0.1111111
        k(    4) = (   0.0000000  -0.0970182   0.0000000), wk =   0.0555556
        k(    5) = (   0.0280067  -0.0161697   0.0000000), wk =   0.1111111
        k(    6) = (   0.0280067   0.0161697   0.0000000), wk =   0.1111111
        k(    7) = (   0.0280067   0.0485091   0.0000000), wk =   0.1111111
        k(    8) = (   0.0280067  -0.1131879   0.0000000), wk =   0.1111111
        k(    9) = (   0.0280067  -0.0808485   0.0000000), wk =   0.1111111
        k(   10) = (   0.0280067  -0.0485091   0.0000000), wk =   0.1111111
        k(   11) = (   0.0560135  -0.0323394   0.0000000), wk =   0.1111111
        k(   12) = (   0.0560135   0.0000000   0.0000000), wk =   0.1111111
        k(   13) = (   0.0560135   0.0323394   0.0000000), wk =   0.1111111
        k(   14) = (   0.0560135  -0.1293576   0.0000000), wk =   0.1111111
        k(   15) = (   0.0560135  -0.0970182   0.0000000), wk =   0.1111111
        k(   16) = (   0.0560135  -0.0646788   0.0000000), wk =   0.1111111
        k(   17) = (  -0.0840202   0.0485091   0.0000000), wk =   0.0555556
        k(   18) = (  -0.0840202   0.0808485   0.0000000), wk =   0.1111111
        k(   19) = (  -0.0840202   0.1131879   0.0000000), wk =   0.1111111
        k(   20) = (  -0.0840202  -0.0485091   0.0000000), wk =   0.0555556

     Largest allocated arrays     est. size (Mb)     dimensions
     Largest temporary arrays     est. size (Mb)     dimensions

     Check: negative/imaginary core charge=   -0.000002    0.000000

     Initial potential from superposition of free atoms
     Check: negative starting charge=   -0.000107

     starting charge  137.99847, renormalised to  138.00000

     negative rho (up, down):  1.068E-04 0.000E+00

     *
     * You are using vdW-DF for exchange-correlation in this calculation.
     * Please cite the following three references that made this development
     * possible:
     *
     *   M. Dion, H. Rydberg, E. Schroder, D. C. Langreth, and
     *   B. I. Lundqvist, Phys. Rev. Lett. 92, 246401 (2004).
     *
     *   T. Thonhauser, V. R. Cooper, S. Li, A. Puzder, P. Hyldgaard, and
     *   D. C. Langreth, Phys. Rev. B 76, 125112 (2007).
     *
     *   G. Roman-Perez and J. M. Soler, Phys. Rev. Lett. 103, 096102 (2009).
     *
     *
     * If you are using vdW-DF2, please also cite:
     *
     *   K. Lee, E. D. Murray, L. Kong, B. I. Lundqvist, and
     *   D. C. Langreth, Phys. Rev. B 82, 081101(R) (2010).
     *
     *
     * If you are calculating the stress with vdW-DF, please also cite:
     *
     *   R. Sabatini, E. Kucukbenli, B. Kolb, T. Thonhauser, and
     *   S. de Gironcoli, J. Phys.: Condens. Matter 24, 424209 (2012).
     *

     Carrying out vdW-DF run using the following parameters:

     Nqs =      20    Nr_points =    1024   r_max =   100.000
     q_mesh =
               0.00001000     0.04494208     0.09755937     0.15916263
               0.23128650     0.31572767     0.41458969     0.53033537
               0.66584808     0.82450364     1.01025438     1.22772762
               1.48234092     1.78043706     2.12944203     2.53805004
               3.01644009     3.57652955     4.23227104     5.00000000

     Gradients computed in reciprocal space

     Adding external electric field

     Computed dipole along edir(3) :
        Dipole               -0.0001 Ry au,         -0.0002 Debye
        Dipole field         -0.0000 Ry au

        Potential amp.        0.0000 Ry
        Total length         45.8022 bohr

     Starting wfc are  114 randomized atomic wfcs

     Self-consistent Calculation

     iteration #  1     ecut=    36.75 Ry     beta=0.30
     Davidson diagonalization with overlap
     ethr =  1.00E-02,  avg # of iterations =  2.4

[...]

     total energy              =   -1413.56873782 Ry
     Harris-Foulkes estimate   =   -1414.62929577 Ry
     estimated scf accuracy    <       2.41151548 Ry

[...]

     End of self-consistent calculation

          k = 0.0000 0.0000 0.0000 ( 19315 PWs)   bands (ev):

   -12.1937  -7.4649  -6.7400  -6.4149  -6.0393  -5.6168  -5.5954  -5.3594
    -5.3476  -5.2979  -5.2804  -5.1695  -5.1617  -4.9021  -4.8459  -4.8006
    -4.7872  -4.7467  -4.5120  -3.7599  -3.7478  -3.6781  -3.6734  -3.5836
    -3.5126  -3.5083  -3.4839  -3.4439  -3.4190  -3.2929  -3.2786  -3.1847
    -3.1388  -3.1378  -2.9756  -2.7712  -2.6094  -2.5793  -2.5553  -2.2632
    -2.2625  -2.1914  -2.0994  -2.0950  -1.9740  -1.8867  -1.8678  -1.8549
    -1.5872  -1.5809  -1.4978  -1.4705  -1.4522  -1.4134  -1.4069  -1.3330
    -1.3178  -1.2668  -1.2317  -1.2242  -1.0435  -1.0103  -0.9788  -0.9778
    -0.9562   0.0793   0.5901   1.1691   1.2342   1.4528   1.7404   1.9140
     1.9439   2.1193   2.2011   2.2660   2.8089   3.7807   3.8284

[...]

          k =-0.0840 0.0485 0.0000 ( 19380 PWs)   bands (ev):

[...]

     the Fermi energy is     0.6912 ev

!    total energy              =   -1414.30243239 Ry
     Harris-Foulkes estimate   =   -1414.30243885 Ry
     estimated scf accuracy    <       0.00000862 Ry

     The total energy is the sum of the following terms:

     one-electron contribution =   -8239.92054376 Ry
     hartree contribution      =    4219.57401869 Ry
     xc contribution           =    -773.33709866 Ry
     ewald contribution        =    3379.40899218 Ry
     electric field correction =       0.00019866 Ry
     smearing contrib. (-TS)   =      -0.02799950 Ry

     convergence has been achieved in  10 iterations

 BEEF-vdW xc energy contributions
           1 :   -691.063995621218
           2 :    642.233971402905
           3 :   -555.000634554154
           4 :    446.340742874768
           5 :   -334.491103239127
           6 :    234.292384027539
           7 :   -154.426504555369
           8 :    96.9749904559326
           9 :   -59.0133318301063
          10 :    35.2528594385590
          11 :   -20.5458018280494
          12 :    11.3324713705024
          13 :   -5.79403088332356
          14 :    3.09850784734397
          15 :   -2.46444580027742
          16 :    2.64494297067995
          17 :   -2.07427345987003
          18 :  -0.515602291830874
          19 :    5.44156498021766
          20 :   -11.8144570107911
          21 :    17.8677977637824
          22 :   -21.7360888291803
          23 :    22.2897906076765
          24 :   -19.6177259549631
          25 :    14.9320324257515
          26 :   -9.97478239227416
          27 :    6.24266367949429
          28 :   -4.41799740423369
          29 :    4.25192758940693
          30 :   -4.90351000220085
          31 :   -54.8040184859095
          32 :   -39.9261322874876

     Forces acting on atoms (Ry/au):

     negative rho (up, down):  2.605E-04 0.000E+00
     atom    1 type  1   force =    -0.00127164   -0.00101190   -0.00427736
     atom    2 type  1   force =     0.00119360   -0.00033018   -0.00478200
     atom    3 type  1   force =     0.00053344    0.00142032   -0.00449809
     atom    4 type  1   force =    -0.00056352   -0.00004455   -0.00133766
     atom    5 type  1   force =    -0.00032524   -0.00351273    0.00055009
     atom    6 type  1   force =     0.00003982   -0.00010090    0.00130265
     atom    7 type  1   force =     0.00236519    0.00169033   -0.00105492
     atom    8 type  1   force =    -0.00347662    0.00197152    0.00202705
     atom    9 type  1   force =     0.00164752    0.00005932   -0.16330765
     atom   10 type  1   force =    -0.00042132    0.00081168   -0.00288381
     atom   11 type  1   force =     0.00074713   -0.00072632   -0.00852336
     atom   12 type  1   force =    -0.00062064   -0.00016037    0.00258396
     atom   13 type  2   force =     0.00014139   -0.00010193    0.20203310
     atom   14 type  3   force =     0.00380314    0.00373693   -0.00894667
     atom   15 type  3   force =    -0.00379226   -0.00370122   -0.00888532

     Total force =     0.260375     Total SCF correction =     0.007565

     entering subroutine stress ...

     negative rho (up, down):  2.605E-04 0.000E+00
          total   stress  (Ry/bohr**3)                   (kbar)     P=   -0.30
  -0.00007676   0.00000951   0.00000151        -11.29      1.40      0.22
   0.00000951  -0.00007779  -0.00000012          1.40    -11.44     -0.02
   0.00000151  -0.00000012   0.00014839          0.22     -0.02     21.83

     BFGS Geometry Optimization

     number of scf cycles    =   1
     number of bfgs steps    =   0

     energy   new            =   -1414.3024323930 Ry

     new trust radius        =       0.2020331762 bohr
     new conv_thr            =       0.0000099958 Ry

ATOMIC_POSITIONS (crystal)
Au1      0.166666667   0.166666667   0.402269971    0   0   0
Au1      0.666666667   0.166666667   0.402269971    0   0   0
Au1      0.166666667   0.666666667   0.402269971    0   0   0
Au1      0.666666667   0.666666667   0.402269971    0   0   0
Au1      0.833333333   0.333333333   0.500000000    0   0   0
Au1      0.333333333   0.333333333   0.500000000    0   0   0
Au1      0.833333333   0.833333333   0.500000000    0   0   0
Au1      0.333333333   0.833333333   0.500000000    0   0   0
Au1      0.000143458   0.000006091   0.594253665
Au1      0.499920864   0.000083343   0.597668641
Au1      0.000103726   0.499925422   0.597548590
Au1      0.499953044   0.499983533   0.597785034
C1       0.000017806  -0.000010466   0.674519799
H1       0.044890365   0.122626673   0.695371636
H1       0.955108769   0.877376994   0.695372942

     Writing output data file calc.save
     Check: negative starting charge=   -0.000107
     NEW-OLD atomic charge density approx. for the potential

     Check: negative/imaginary core charge=   -0.000002    0.000000
     Check: negative starting charge=   -0.000105

[...]

     energy   old            =   -1414.3024323930 Ry
     energy   new            =   -1414.3218097418 Ry

     CASE: energy  _new < energy  _old

[...]

     Threshold (ethr) on eigenvalues was too large:
     Diagonalizing with lowered threshold

     Davidson diagonalization with overlap
     ethr =  7.34E-08,  avg # of iterations =  1.0

[...]

     number of scf cycles    =  17
     number of bfgs steps    =  16

     energy   old            =   -1414.3339970433 Ry
     energy   new            =   -1414.3340643136 Ry

     CASE: energy  _new < energy  _old

     new trust radius        =       0.0133036994 bohr
     new conv_thr            =       0.0000001000 Ry

ATOMIC_POSITIONS (crystal)
Au1      0.166666667   0.166666667   0.402269971    0   0   0
Au1      0.666666667   0.166666667   0.402269971    0   0   0
Au1      0.166666667   0.666666667   0.402269971    0   0   0
Au1      0.666666667   0.666666667   0.402269971    0   0   0
Au1      0.833333333   0.333333333   0.500000000    0   0   0
Au1      0.333333333   0.333333333   0.500000000    0   0   0
Au1      0.833333333   0.833333333   0.500000000    0   0   0
Au1      0.333333333   0.833333333   0.500000000    0   0   0
Au1      0.002664265  -0.000322104   0.601806005
Au1      0.501092489   0.000421640   0.597156751
Au1      0.001635637   0.499605997   0.595987758
Au1      0.501493123   0.499676407   0.599889352
C1       0.000438348   0.000109733   0.681775243
H1       0.047918793   0.126460184   0.704715931
H1       0.952338258   0.873790354   0.704535845

     Writing output data file calc.save
     Check: negative starting charge=   -0.000103
     NEW-OLD atomic charge density approx. for the potential

     Check: negative/imaginary core charge=   -0.000002    0.000000
     Check: negative starting charge=   -0.000103

[...]

     Self-consistent Calculation

[...]

     Threshold (ethr) on eigenvalues was too large:
     Diagonalizing with lowered threshold

     Davidson diagonalization with overlap
     ethr =  2.80E-08,  avg # of iterations =  1.0

[...]

     total energy              =   -1414.33409522 Ry
     Harris-Foulkes estimate   =   -1414.33409475 Ry
     estimated scf accuracy    <       0.00000026 Ry

     iteration #  7     ecut=    36.75 Ry     beta=0.30
     Davidson diagonalization with overlap
     ethr =  1.92E-10,  avg # of iterations =  2.4

[...]

     negative rho (up, down):  2.427E-04 0.000E+00

     Adding external electric field

     Computed dipole along edir(3) :
        Dipole                0.2435 Ry au,          0.6189 Debye
        Dipole field          0.0006 Ry au

        Potential amp.       -0.0545 Ry
        Total length         45.8022 bohr

     End of self-consistent calculation

[...]

          k = 0.0560-0.0647 0.0000 ( 19376 PWs)   bands (ev):

[...]

          k =-0.0840-0.0485 0.0000 ( 19380 PWs)   bands (ev):

   -11.6525  -6.0976  -6.0267  -5.9762  -5.4933  -5.0112  -4.9600  -4.8656
    -4.7576  -4.7089  -4.7015  -4.6927  -4.5597  -4.4053  -4.3217  -4.2342
    -4.1671  -4.1291  -4.0682  -4.0095  -3.8769  -3.8460  -3.8412  -3.7372
    -3.6785  -3.5708  -3.5331  -3.4465  -3.3633  -3.2945  -3.1922  -3.1613
    -3.1157  -3.0606  -3.0591  -3.0411  -2.9843  -2.9566  -2.9283  -2.9153
    -2.8923  -2.8519  -2.7953  -2.6778  -2.6517  -2.5587  -2.4478  -2.4294
    -2.4248  -2.3649  -2.3012  -2.2627  -2.2041  -2.1712  -2.1328  -2.0595
    -1.9199  -1.8973  -1.7891  -1.5426  -1.5401  -1.4648  -1.4491  -1.4058
    -1.3142  -1.2307  -0.2217   0.2506   0.5127   0.6170   0.8627   1.3017
     1.9510   2.2243   3.5705   3.6612   3.9111   4.9018   5.1201

     the Fermi energy is     0.6109 ev

!    total energy              =   -1414.33409525 Ry
     Harris-Foulkes estimate   =   -1414.33409475 Ry
     estimated scf accuracy    <       0.00000004 Ry

     The total energy is the sum of the following terms:

     one-electron contribution =   -8155.33700134 Ry
     hartree contribution      =    4177.22707603 Ry
     xc contribution           =    -773.20369970 Ry
     ewald contribution        =    3337.00999966 Ry
     electric field correction =       0.00014483 Ry
     smearing contrib. (-TS)   =      -0.03061473 Ry

     convergence has been achieved in   7 iterations

 BEEF-vdW xc energy contributions
           1 :   -690.921766402944
           2 :    642.018145186926
           3 :   -554.699086268531
           4 :    446.008493174836
           5 :   -334.212556322818
           6 :    234.137373841492
           7 :   -154.417090676552
           8 :    97.0744870788693
           9 :   -59.1428740511808
          10 :    35.3286386697803
          11 :   -20.5191373147667
          12 :    11.2121760807236
          13 :   -5.63819438185249
          14 :    2.98071247129383
          15 :   -2.43401868000819
          16 :    2.70387536023054
          17 :   -2.18165684208020
          18 :  -0.416623399821674
          19 :    5.39069043704376
          20 :   -11.8136346101560
          21 :    17.8847041203637
          22 :   -21.7284597991985
          23 :    22.2356469027293
          24 :   -19.5323740785778
          25 :    14.8606165047265
          26 :   -9.96486903150310
          27 :    6.31340562479636
          28 :   -4.54405200210658
          29 :    4.37299485733911
          30 :   -4.95526755658796
          31 :   -54.7937679405560
          32 :   -39.8982295573626

     Forces acting on atoms (Ry/au):

     negative rho (up, down):  2.427E-04 0.000E+00
     atom    1 type  1   force =    -0.00105588   -0.00083994   -0.00478396
     atom    2 type  1   force =     0.00097599   -0.00025750   -0.00433897
     atom    3 type  1   force =     0.00046256    0.00115851   -0.00438951
     atom    4 type  1   force =    -0.00053465   -0.00004544   -0.00122329
     atom    5 type  1   force =    -0.00262802   -0.00619787    0.00570760
     atom    6 type  1   force =     0.00279390    0.00035247    0.00102213
     atom    7 type  1   force =     0.00548130    0.00430272    0.00267208
     atom    8 type  1   force =    -0.00587234    0.00150750    0.00764873
     atom    9 type  1   force =    -0.00003182   -0.00007204   -0.00069015
     atom   10 type  1   force =     0.00014464    0.00004947    0.00008439
     atom   11 type  1   force =     0.00026722    0.00000305   -0.00062135
     atom   12 type  1   force =     0.00000731   -0.00002185   -0.00144901
     atom   13 type  2   force =     0.00021736    0.00016200    0.00143166
     atom   14 type  3   force =    -0.00107581   -0.00128704   -0.00062178
     atom   15 type  3   force =     0.00084825    0.00118596   -0.00044856

     Total force =     0.003274     Total SCF correction =     0.000296

     entering subroutine stress ...

     negative rho (up, down):  2.427E-04 0.000E+00
          total   stress  (Ry/bohr**3)                   (kbar)     P=   -9.29
  -0.00009871   0.00000487   0.00000030        -14.52      0.72      0.04
   0.00000487  -0.00010016  -0.00000000          0.72    -14.73     -0.00
   0.00000030  -0.00000000   0.00000934          0.04     -0.00      1.37

     bfgs converged in  18 scf cycles and  17 bfgs steps
     (criteria: energy <  1.0E+00, force <  1.9E-03)

     End of BFGS Geometry Optimization

     Final energy   =   -1414.3340952491 Ry
Begin final coordinates

ATOMIC_POSITIONS (crystal)
Au1      0.166666667   0.166666667   0.402269971    0   0   0
Au1      0.666666667   0.166666667   0.402269971    0   0   0
Au1      0.166666667   0.666666667   0.402269971    0   0   0
Au1      0.666666667   0.666666667   0.402269971    0   0   0
Au1      0.833333333   0.333333333   0.500000000    0   0   0
Au1      0.333333333   0.333333333   0.500000000    0   0   0
Au1      0.833333333   0.833333333   0.500000000    0   0   0
Au1      0.333333333   0.833333333   0.500000000    0   0   0
Au1      0.002664265  -0.000322104   0.601806005
Au1      0.501092489   0.000421640   0.597156751
Au1      0.001635637   0.499605997   0.595987758
Au1      0.501493123   0.499676407   0.599889352
C1       0.000438348   0.000109733   0.681775243
H1       0.047918793   0.126460184   0.704715931
H1       0.952338258   0.873790354   0.704535845
End final coordinates

     Writing output data file calc.save

     General routines

     Parallel routines

   This run was terminated on:  14:10:23  16Apr2018

   JOB DONE.
Job  /afs/slac/g/suncat/bin/suncat-tsmpirun -x LD_LIBRARY_PATH -wdir /scratch/qe125026_XzZMJ pw.x -npool 4 -in pw.inp

TID   HOST_NAME   COMMAND_LINE            STATUS            TERMINATION_TIME
00000 suncat0262 pw.x -npool 4 -i  Done                     04/16/2018 14:10:23
00001 suncat0262 pw.x -npool 4 -i  Done                     04/16/2018 14:10:23
00002 suncat0262 pw.x -npool 4 -i  Done                     04/16/2018 14:10:23
00003 suncat0262 pw.x -npool 4 -i  Done                     04/16/2018 14:10:23
00004 suncat0262 pw.x -npool 4 -i  Done                     04/16/2018 14:10:23
00005 suncat0262 pw.x -npool 4 -i  Done                     04/16/2018 14:10:23
00006 suncat0262 pw.x -npool 4 -i  Done                     04/16/2018 14:10:23
00007 suncat0262 pw.x -npool 4 -i  Done                     04/16/2018 14:10:23
00008 suncat0259 pw.x -npool 4 -i  Done                     04/16/2018 14:10:23
00009 suncat0259 pw.x -npool 4 -i  Done                     04/16/2018 14:10:23
00010 suncat0259 pw.x -npool 4 -i  Done                     04/16/2018 14:10:23
00011 suncat0259 pw.x -npool 4 -i  Done                     04/16/2018 14:10:23
00012 suncat0259 pw.x -npool 4 -i  Done                     04/16/2018 14:10:23
00013 suncat0259 pw.x -npool 4 -i  Done                     04/16/2018 14:10:23
00014 suncat0259 pw.x -npool 4 -i  Done                     04/16/2018 14:10:23
00015 suncat0259 pw.x -npool 4 -i  Done                     04/16/2018 14:10:23
00016 suncat0255 pw.x -npool 4 -i  Done                     04/16/2018 14:10:23
00017 suncat0255 pw.x -npool 4 -i  Done                     04/16/2018 14:10:23
00018 suncat0255 pw.x -npool 4 -i  Done                     04/16/2018 14:10:23
00019 suncat0255 pw.x -npool 4 -i  Done                     04/16/2018 14:10:23
00020 suncat0255 pw.x -npool 4 -i  Done                     04/16/2018 14:10:23
00021 suncat0255 pw.x -npool 4 -i  Done                     04/16/2018 14:10:23
00022 suncat0255 pw.x -npool 4 -i  Done                     04/16/2018 14:10:23
00023 suncat0255 pw.x -npool 4 -i  Done                     04/16/2018 14:10:23
00024 suncat0236 pw.x -npool 4 -i  Done                     04/16/2018 14:10:23
00025 suncat0236 pw.x -npool 4 -i  Done                     04/16/2018 14:10:23
00026 suncat0236 pw.x -npool 4 -i  Done                     04/16/2018 14:10:23
00027 suncat0236 pw.x -npool 4 -i  Done                     04/16/2018 14:10:23
00028 suncat0236 pw.x -npool 4 -i  Done                     04/16/2018 14:10:23
00029 suncat0236 pw.x -npool 4 -i  Done                     04/16/2018 14:10:23
00030 suncat0236 pw.x -npool 4 -i  Done                     04/16/2018 14:10:23
00031 suncat0236 pw.x -npool 4 -i  Done                     04/16/2018 14:10:23