     Program PWSCF v.5.1rc2 (svn rev. 11289) starts on 17Jan2019 at  1: 9: 8

     Current dimensions of program PWSCF are:
     Max number of different atomic species (ntypx) = 10
     Max number of k-points (npk) =  40000
     Max angular momentum in pseudopotentials (lmaxx) =  3

     IMPORTANT: XC functional enforced from input :
     Exchange-correlation      = BEEF-VDW ( 1  4 27 13 2)
     Any further DFT definition will be discarded
     Please, verify this is what you really want

     Subspace diagonalization in iterative solution of the eigenvalue problem:
     a serial algorithm will be used

     bravais-lattice index     =            0
     lattice parameter (alat)  =      12.7122  a.u.
     unit-cell volume          =    6741.9071 (a.u.)^3
     number of atoms/cell      =           13
     number of atomic types    =            2
     number of electrons       =       174.00
     number of Kohn-Sham states=           97
     kinetic-energy cutoff     =      36.7493  Ry
     charge density cutoff     =     367.4933  Ry
     convergence threshold     =      1.0E-04
     mixing beta               =       0.2000
     number of iterations used =            8  plain     mixing
     Exchange-correlation      = BEEF-VDW ( 1  4 27 13 2)
     nstep                     =           50

     celldm(1)=  12.712175  celldm(2)=   0.000000  celldm(3)=   0.000000
     celldm(4)=   0.000000  celldm(5)=   0.000000  celldm(6)=   0.000000

     crystal axes: (cart. coord. in units of alat)
               a(1) = (   1.000000   0.000000   0.000000 )
               a(2) = (   0.500000   0.866025   0.000000 )
               a(3) = (   0.000000   0.000000   3.789593 )

     reciprocal axes: (cart. coord. in units 2 pi/alat)
               b(1) = (  1.000000 -0.577350  0.000000 )
               b(2) = (  0.000000  1.154701  0.000000 )
               b(3) = (  0.000000  0.000000  0.263881 )

     PseudoPot. # 1 for Sn read from file:
     /nfs/slac/g/suncatfs/mamunm/src/decaf-espresso/gbrv15pbe/Sn.UPF
     MD5 check sum: 469debedee59599fedebd795477fea03
     Pseudo is Ultrasoft + core correction, Zval = 14.0
     Generated by new atomic code, or converted to UPF format
     Using radial grid of  891 points,  6 beta functions with:
                l(1) =   0
                l(2) =   0
                l(3) =   1
                l(4) =   1
                l(5) =   2
                l(6) =   2
     Q(r) pseudized with  8 coefficients,  rinner =    1.350   1.350   1.350
                                                       1.350   1.350

     PseudoPot. # 2 for O  read from file:
     /nfs/slac/g/suncatfs/mamunm/src/decaf-espresso/gbrv15pbe/O.UPF
     MD5 check sum: 734c27235a0248c51dbae37a1fbe46ec
     Pseudo is Ultrasoft + core correction, Zval =  6.0
     Generated by new atomic code, or converted to UPF format
     Using radial grid of  737 points,  5 beta functions with:
                l(1) =   0
                l(2) =   0
                l(3) =   1
                l(4) =   1
                l(5) =   2
     Q(r) pseudized with  8 coefficients,  rinner =    0.900   0.900   0.900
                                                       0.900   0.900

     vdW kernel table read from file vdW_kernel_table
     MD5 check sum: 095c7af220d748ca6e76c0b4c6cfb241

     atomic species   valence    mass     pseudopotential
        Sn            14.00   118.71000     Sn( 1.00)
        O              6.00    15.99900     O ( 1.00)

     No symmetry found

   Cartesian axes

     site n.     atom                  positions (alat units)
         1           Sn  tau(   1) = (   0.2500000   0.1443376   1.4865483  )
         2           Sn  tau(   2) = (   0.7500000   0.1443376   1.4865483  )
         3           Sn  tau(   3) = (   0.5000000   0.5773503   1.4865483  )
         4           Sn  tau(   4) = (   1.0000000   0.5773503   1.4865483  )
         5           Sn  tau(   5) = (   1.0000000   0.2886751   1.8947966  )
         6           Sn  tau(   6) = (   0.5000000   0.2886751   1.8947966  )
         7           Sn  tau(   7) = (   1.2500000   0.7216878   1.8947966  )
         8           Sn  tau(   8) = (   0.7500000   0.7216878   1.8947966  )
         9           Sn  tau(   9) = (   0.0089428   0.0030972   2.3671709  )
        10           Sn  tau(  10) = (   0.4910553   0.0030991   2.3671711  )
        11           Sn  tau(  11) = (   0.2499988   0.4622762   2.2936753  )
        12           Sn  tau(  12) = (   0.7499988   0.4147833   2.2888727  )
        13           O   tau(  13) = (   0.2500035   0.0109611   2.5537275  )

     number of k points=    20  Fermi-Dirac smearing, width (Ry)=  0.0110
                       cart. coord. in units 2pi/alat
        k(    1) = (   0.0000000   0.0000000   0.0000000), wk =   0.0555556
        k(    2) = (   0.0000000   0.1924501   0.0000000), wk =   0.1111111
        k(    3) = (   0.0000000   0.3849002   0.0000000), wk =   0.1111111
        k(    4) = (   0.0000000  -0.5773503   0.0000000), wk =   0.0555556
        k(    5) = (   0.1666667  -0.0962250   0.0000000), wk =   0.1111111
        k(    6) = (   0.1666667   0.0962250   0.0000000), wk =   0.1111111
        k(    7) = (   0.1666667   0.2886751   0.0000000), wk =   0.1111111
        k(    8) = (   0.1666667  -0.6735753   0.0000000), wk =   0.1111111
        k(    9) = (   0.1666667  -0.4811252   0.0000000), wk =   0.1111111
        k(   10) = (   0.1666667  -0.2886751   0.0000000), wk =   0.1111111
        k(   11) = (   0.3333333  -0.1924501   0.0000000), wk =   0.1111111
        k(   12) = (   0.3333333   0.0000000   0.0000000), wk =   0.1111111
        k(   13) = (   0.3333333   0.1924501   0.0000000), wk =   0.1111111
        k(   14) = (   0.3333333  -0.7698004   0.0000000), wk =   0.1111111
        k(   15) = (   0.3333333  -0.5773503   0.0000000), wk =   0.1111111
        k(   16) = (   0.3333333  -0.3849002   0.0000000), wk =   0.1111111
        k(   17) = (  -0.5000000   0.2886751   0.0000000), wk =   0.0555556
        k(   18) = (  -0.5000000   0.4811252   0.0000000), wk =   0.1111111
        k(   19) = (  -0.5000000   0.6735753   0.0000000), wk =   0.1111111
        k(   20) = (  -0.5000000  -0.2886751   0.0000000), wk =   0.0555556

     Largest allocated arrays     est. size (Mb)     dimensions
     Largest temporary arrays     est. size (Mb)     dimensions

     Initial potential from superposition of free atoms
     Check: negative starting charge=   -0.001569

     starting charge  161.99946, renormalised to  174.00000

     negative rho (up, down):  1.685E-03 0.000E+00

     *
     * You are using vdW-DF for exchange-correlation in this calculation.
     * Please cite the following three references that made this development
     * possible:
     *
     *   M. Dion, H. Rydberg, E. Schroder, D. C. Langreth, and
     *   B. I. Lundqvist, Phys. Rev. Lett. 92, 246401 (2004).
     *
     *   T. Thonhauser, V. R. Cooper, S. Li, A. Puzder, P. Hyldgaard, and
     *   D. C. Langreth, Phys. Rev. B 76, 125112 (2007).
     *
     *   G. Roman-Perez and J. M. Soler, Phys. Rev. Lett. 103, 096102 (2009).
     *
     *
     * If you are using vdW-DF2, please also cite:
     *
     *   K. Lee, E. D. Murray, L. Kong, B. I. Lundqvist, and
     *   D. C. Langreth, Phys. Rev. B 82, 081101(R) (2010).
     *
     *
     * If you are calculating the stress with vdW-DF, please also cite:
     *
     *   R. Sabatini, E. Kucukbenli, B. Kolb, T. Thonhauser, and
     *   S. de Gironcoli, J. Phys.: Condens. Matter 24, 424209 (2012).
     *

     Carrying out vdW-DF run using the following parameters:

     Nqs =      20    Nr_points =    1024   r_max =   100.000
     q_mesh =
               0.00001000     0.04494208     0.09755937     0.15916263
               0.23128650     0.31572767     0.41458969     0.53033537
               0.66584808     0.82450364     1.01025438     1.22772762
               1.48234092     1.78043706     2.12944203     2.53805004
               3.01644009     3.57652955     4.23227104     5.00000000

     Gradients computed in reciprocal space

     Adding external electric field

     Computed dipole along edir(3) :
        Dipole               -3.6737 Ry au,         -9.3377 Debye
        Dipole field         -0.0068 Ry au

        Potential amp.        0.5938 Ry
        Total length         43.3566 bohr

     Starting wfc are  112 randomized atomic wfcs

     Self-consistent Calculation

     iteration #  1     ecut=    36.75 Ry     beta=0.20
     Davidson diagonalization with overlap
     ethr =  1.00E-02,  avg # of iterations =  7.5

[...]

     total energy              =   -1916.80635742 Ry
     Harris-Foulkes estimate   =   -1966.84690070 Ry
     estimated scf accuracy    <     147.01562640 Ry

[...]

     End of self-consistent calculation

          k = 0.0000 0.0000 0.0000 ( 25377 PWs)   bands (ev):

   -21.8135 -21.6287 -21.6248 -21.6244 -21.6173 -21.6138 -21.6103 -21.5883
   -21.5848 -21.5822 -21.5757 -21.5747 -21.5684 -21.5684 -21.5620 -21.5581
   -21.5552 -21.5527 -21.5497 -21.5476 -21.5441 -21.5437 -21.5400 -21.5359
   -21.5330 -21.5301 -21.5269 -21.5242 -21.5189 -21.5161 -21.5052 -21.4991
   -21.4970 -21.4942 -21.4869 -21.4759 -21.4697 -21.4683 -21.4594 -21.4489
   -21.4434 -21.4368 -21.4367 -21.4225 -21.4223 -21.4176 -21.4173 -21.4165
   -21.4144 -21.4104 -21.4088 -21.4079 -21.4046 -21.4002 -21.3981 -21.3973
   -21.3957 -21.3878 -21.3876 -21.3719 -17.1744 -10.1672  -8.8497  -7.2858
    -6.4213  -6.2447  -6.1121  -6.0983  -5.7686  -5.5728  -5.1965  -4.8458
    -4.7654  -3.5961  -3.5411  -3.5245  -2.9049  -2.7733  -2.7704  -2.7166
    -2.2670  -2.1972  -2.0898  -1.6152  -1.0026  -0.3613   0.1188   1.2515
     1.3819   1.5013   1.8015   2.1163   2.3204   2.7560   3.1068   3.1693
     3.1728

[...]

          k =-0.5000 0.2887 0.0000 ( 25386 PWs)   bands (ev):

[...]

     the Fermi energy is     0.4528 ev

!    total energy              =   -1960.85308298 Ry
     Harris-Foulkes estimate   =   -1960.85310583 Ry
     estimated scf accuracy    <       0.00003404 Ry

     The total energy is the sum of the following terms:

     one-electron contribution =  -10421.37910438 Ry
     hartree contribution      =    5275.63001820 Ry
     xc contribution           =    -541.43856424 Ry
     ewald contribution        =    3726.37709954 Ry
     electric field correction =       0.00027682 Ry
     smearing contrib. (-TS)   =      -0.04280892 Ry

     convergence has been achieved in  14 iterations

     Forces acting on atoms (Ry/au):

     negative rho (up, down):  5.397E-04 0.000E+00
     atom    1 type  1   force =    -0.00000891   -0.00670688   -0.00520155
     atom    2 type  1   force =     0.00001075    0.00091130   -0.00222167
     atom    3 type  1   force =    -0.00130013    0.00272700   -0.00032236
     atom    4 type  1   force =     0.00130111    0.00270644   -0.00031549
     atom    5 type  1   force =    -0.00076168   -0.00604898    0.00023758
     atom    6 type  1   force =     0.00077190   -0.00605418    0.00023661
     atom    7 type  1   force =    -0.00001857    0.00114053   -0.00586420
     atom    8 type  1   force =     0.00001344    0.01031165    0.00525071
     atom    9 type  1   force =    -0.00107064   -0.00006347    0.00025455
     atom   10 type  1   force =     0.00108729   -0.00006209    0.00022606
     atom   11 type  1   force =    -0.00000369    0.00114895    0.00019636
     atom   12 type  1   force =    -0.00000739    0.00054829    0.00069543
     atom   13 type  2   force =    -0.00001345   -0.00055858    0.00682797

     Total force =     0.007178     Total SCF correction =     0.007796
     SCF correction compared to forces is large: reduce conv_thr to get better values

     BFGS Geometry Optimization

     number of scf cycles    =   1
     number of bfgs steps    =   0

     energy   new            =   -1960.8530829805 Ry

     new trust radius        =       0.0068507953 bohr
     new conv_thr            =       0.0001000000 Ry

ATOMIC_POSITIONS (angstrom)
Sn       1.681748263   0.970957812  10.000000000    0   0   0
Sn       5.045244789   0.970957812  10.000000000    0   0   0
Sn       3.363496526   3.883831250  10.000000000    0   0   0
Sn       6.726993052   3.883831250  10.000000000    0   0   0
Sn       6.726993052   1.941915625  12.746283414    0   0   0
Sn       3.363496526   1.941915625  12.746283414    0   0   0
Sn       8.408741315   4.854789062  12.746283414    0   0   0
Sn       5.045244789   4.854789062  12.746283414    0   0   0
Sn       0.059591448   0.020800945  15.924076792
Sn       3.303901212   0.020814584  15.924063040
Sn       1.681738077   3.110337036  15.429641756
Sn       5.045232987   2.790534360  15.397598539
O        1.681764495   0.073439623  17.182520178

     Writing output data file calc.save
     Check: negative starting charge=   -0.001569
     NEW-OLD atomic charge density approx. for the potential
     Check: negative starting charge=   -0.001568

[...]

     Self-consistent Calculation

[...]

     total energy              =   -1960.85309902 Ry
     Harris-Foulkes estimate   =   -1960.85312417 Ry
     estimated scf accuracy    <       0.00013037 Ry

     iteration #  4     ecut=    36.75 Ry     beta=0.20
     Davidson diagonalization with overlap
     ethr =  7.49E-08,  avg # of iterations =  3.7

     negative rho (up, down):  5.424E-04 0.000E+00

     Adding external electric field

     Computed dipole along edir(3) :
        Dipole               -0.3556 Ry au,         -0.9037 Debye
        Dipole field         -0.0007 Ry au

        Potential amp.        0.0575 Ry
        Total length         43.3566 bohr

     End of self-consistent calculation

[...]

          k = 0.3333-0.3849 0.0000 ( 25368 PWs)   bands (ev):

[...]

          k =-0.5000-0.2887 0.0000 ( 25386 PWs)   bands (ev):

   -21.7543 -21.5823 -21.5757 -21.5693 -21.5650 -21.5611 -21.5584 -21.5414
   -21.5406 -21.5386 -21.5384 -21.5341 -21.5323 -21.5253 -21.5232 -21.5181
   -21.5178 -21.5164 -21.5126 -21.5095 -21.5074 -21.5028 -21.5000 -21.4943
   -21.4919 -21.4883 -21.4833 -21.4804 -21.4774 -21.4737 -21.4698 -21.4679
   -21.4644 -21.4626 -21.4586 -21.4510 -21.4483 -21.4461 -21.4444 -21.4388
   -21.4372 -21.4293 -21.4276 -21.4257 -21.4246 -21.4219 -21.4173 -21.4145
   -21.4137 -21.4100 -21.4062 -21.4023 -21.4003 -21.3956 -21.3920 -21.3906
   -21.3829 -21.3700 -21.3648 -21.3538 -17.1324  -9.0480  -8.9781  -7.9575
    -7.6739  -6.8287  -6.7664  -6.5385  -6.1414  -5.7570  -5.7317  -4.8248
    -4.5639  -3.3204  -2.4302  -2.2345  -1.7630  -1.5765  -1.5692  -1.4888
    -1.1899  -1.1160  -0.3987  -0.2716  -0.1323  -0.0313   0.5624   0.7150
     0.8935   1.0948   1.1954   1.3154   1.5831   1.7294   1.8130   1.9691
     2.2345

     the Fermi energy is     0.4793 ev

!    total energy              =   -1960.85311439 Ry
     Harris-Foulkes estimate   =   -1960.85311105 Ry
     estimated scf accuracy    <       0.00000235 Ry

     The total energy is the sum of the following terms:

     one-electron contribution =  -10420.19231405 Ry
     hartree contribution      =    5274.97119937 Ry
     xc contribution           =    -541.43550785 Ry
     ewald contribution        =    3725.84606462 Ry
     electric field correction =       0.00023564 Ry
     smearing contrib. (-TS)   =      -0.04279212 Ry

     convergence has been achieved in   4 iterations

     Forces acting on atoms (Ry/au):

     negative rho (up, down):  5.424E-04 0.000E+00
     atom    1 type  1   force =    -0.00000252   -0.00670341   -0.00320763
     atom    2 type  1   force =    -0.00000304    0.00085730   -0.00028825
     atom    3 type  1   force =    -0.00146658    0.00284792    0.00163833
     atom    4 type  1   force =     0.00145987    0.00285675    0.00164696
     atom    5 type  1   force =    -0.00026062   -0.00549967   -0.00028135
     atom    6 type  1   force =     0.00025706   -0.00549962   -0.00028658
     atom    7 type  1   force =     0.00000996    0.00069498   -0.00678821
     atom    8 type  1   force =    -0.00000799    0.00994939    0.00520161
     atom    9 type  1   force =    -0.00183331    0.00018211    0.00160456
     atom   10 type  1   force =     0.00183501    0.00017677    0.00160856
     atom   11 type  1   force =     0.00000924   -0.00053558   -0.00003506
     atom   12 type  1   force =     0.00000551    0.00120623   -0.00006657
     atom   13 type  2   force =    -0.00000259   -0.00053318   -0.00074636

     Total force =     0.003814     Total SCF correction =     0.006608
     SCF correction compared to forces is large: reduce conv_thr to get better values

     bfgs converged in   2 scf cycles and   1 bfgs steps
     (criteria: energy <  1.0E+12, force <  1.9E-03)

     End of BFGS Geometry Optimization

     Final energy   =   -1960.8531143936 Ry
Begin final coordinates

ATOMIC_POSITIONS (angstrom)
Sn       1.681748263   0.970957812  10.000000000    0   0   0
Sn       5.045244789   0.970957812  10.000000000    0   0   0
Sn       3.363496526   3.883831250  10.000000000    0   0   0
Sn       6.726993052   3.883831250  10.000000000    0   0   0
Sn       6.726993052   1.941915625  12.746283414    0   0   0
Sn       3.363496526   1.941915625  12.746283414    0   0   0
Sn       8.408741315   4.854789062  12.746283414    0   0   0
Sn       5.045244789   4.854789062  12.746283414    0   0   0
Sn       0.059591448   0.020800945  15.924076792
Sn       3.303901212   0.020814584  15.924063040
Sn       1.681738077   3.110337036  15.429641756
Sn       5.045232987   2.790534360  15.397598539
O        1.681764495   0.073439623  17.182520178
End final coordinates

     Writing output data file calc.save

     General routines

     Parallel routines

   This run was terminated on:   1:19:59  17Jan2019

   JOB DONE.
Job  /afs/slac/g/suncat/bin/suncat-tsmpirun -x LD_LIBRARY_PATH -wdir /tmp/qe_379174m3bflno__scratch pw.x -npool 3 -in pw.pwi

TID   HOST_NAME   COMMAND_LINE            STATUS            TERMINATION_TIME
00000 suncat1031 pw.x -npool 3 -i  Done                     01/17/2019 01:19:59
00001 suncat1031 pw.x -npool 3 -i  Done                     01/17/2019 01:19:59
00002 suncat1031 pw.x -npool 3 -i  Done                     01/17/2019 01:19:59
00003 suncat1031 pw.x -npool 3 -i  Done                     01/17/2019 01:19:59
00004 suncat1031 pw.x -npool 3 -i  Done                     01/17/2019 01:19:59
00005 suncat1031 pw.x -npool 3 -i  Done                     01/17/2019 01:19:59
00006 suncat1031 pw.x -npool 3 -i  Done                     01/17/2019 01:19:59
00007 suncat1031 pw.x -npool 3 -i  Done                     01/17/2019 01:19:59
00008 suncat1031 pw.x -npool 3 -i  Done                     01/17/2019 01:19:59
00009 suncat1031 pw.x -npool 3 -i  Done                     01/17/2019 01:19:59
00010 suncat1031 pw.x -npool 3 -i  Done                     01/17/2019 01:19:59
00011 suncat1031 pw.x -npool 3 -i  Done                     01/17/2019 01:19:59
00012 suncat1024 pw.x -npool 3 -i  Done                     01/17/2019 01:19:59
00013 suncat1024 pw.x -npool 3 -i  Done                     01/17/2019 01:19:59
00014 suncat1024 pw.x -npool 3 -i  Done                     01/17/2019 01:19:59
00015 suncat1024 pw.x -npool 3 -i  Done                     01/17/2019 01:19:59
00016 suncat1024 pw.x -npool 3 -i  Done                     01/17/2019 01:19:59
00017 suncat1024 pw.x -npool 3 -i  Done                     01/17/2019 01:19:59
00018 suncat1024 pw.x -npool 3 -i  Done                     01/17/2019 01:19:59
00019 suncat1024 pw.x -npool 3 -i  Done                     01/17/2019 01:19:59
00020 suncat1024 pw.x -npool 3 -i  Done                     01/17/2019 01:19:59
00021 suncat1024 pw.x -npool 3 -i  Done                     01/17/2019 01:19:59
00022 suncat1024 pw.x -npool 3 -i  Done                     01/17/2019 01:19:59
00023 suncat1024 pw.x -npool 3 -i  Done                     01/17/2019 01:19:59
00024 suncat1012 pw.x -npool 3 -i  Done                     01/17/2019 01:19:59
00025 suncat1012 pw.x -npool 3 -i  Done                     01/17/2019 01:19:59
00026 suncat1012 pw.x -npool 3 -i  Done                     01/17/2019 01:19:59
00027 suncat1012 pw.x -npool 3 -i  Done                     01/17/2019 01:19:59
00028 suncat1012 pw.x -npool 3 -i  Done                     01/17/2019 01:19:59
00029 suncat1012 pw.x -npool 3 -i  Done                     01/17/2019 01:19:59
00030 suncat1012 pw.x -npool 3 -i  Done                     01/17/2019 01:19:59
00031 suncat1012 pw.x -npool 3 -i  Done                     01/17/2019 01:19:59
00032 suncat1012 pw.x -npool 3 -i  Done                     01/17/2019 01:19:59
00033 suncat1012 pw.x -npool 3 -i  Done                     01/17/2019 01:19:59
00034 suncat1012 pw.x -npool 3 -i  Done                     01/17/2019 01:19:59
00035 suncat1012 pw.x -npool 3 -i  Done                     01/17/2019 01:19:59