     Program PWSCF v.5.1rc2 (svn rev. 11289) starts on 24Apr2018 at 11:35:59

     Current dimensions of program PWSCF are:
     Max number of different atomic species (ntypx) = 10
     Max number of k-points (npk) =  40000
     Max angular momentum in pseudopotentials (lmaxx) =  3
     Presently stress not available with electric field

     IMPORTANT: XC functional enforced from input :
     Exchange-correlation      = BEEF-VDW ( 1  4 27 13 2)
     Any further DFT definition will be discarded
     Please, verify this is what you really want

     Subspace diagonalization in iterative solution of the eigenvalue problem:
     a serial algorithm will be used

     bravais-lattice index     =            0
     lattice parameter (alat)  =       1.8897  a.u.
     unit-cell volume          =    4158.3597 (a.u.)^3
     number of atoms/cell      =           14
     number of atomic types    =            3
     number of electrons       =       163.00
     number of Kohn-Sham states=           91
     kinetic-energy cutoff     =      36.7493  Ry
     charge density cutoff     =     367.4932  Ry
     convergence threshold     =      1.0E-05
     mixing beta               =       0.3000
     number of iterations used =           10  plain     mixing
     Exchange-correlation      = BEEF-VDW ( 1  4 27 13 2)
     nstep                     =           50

     celldm(1)=   1.889726  celldm(2)=   0.000000  celldm(3)=   0.000000
     celldm(4)=   0.000000  celldm(5)=   0.000000  celldm(6)=   0.000000

     crystal axes: (cart. coord. in units of alat)
               a(1) = (   5.399178   0.000000   0.000000 )
               a(2) = (   2.699589   4.675825   0.000000 )
               a(3) = (   0.000000   0.000000  24.408411 )

     reciprocal axes: (cart. coord. in units 2 pi/alat)
               b(1) = (  0.185213 -0.106933  0.000000 )
               b(2) = (  0.000000  0.213866  0.000000 )
               b(3) = (  0.000000  0.000000  0.040969 )

     PseudoPot. # 1 for V  read from file:
     /u/if/mamunm/psp/gbrv1.5pbe/V.UPF
     MD5 check sum: 22b79981416ebb76fdaf5b1b8640f6fb
     Pseudo is Ultrasoft + core correction, Zval = 13.0
     Generated by new atomic code, or converted to UPF format
     Using radial grid of  853 points,  6 beta functions with:
                l(1) =   0
                l(2) =   0
                l(3) =   1
                l(4) =   1
                l(5) =   2
                l(6) =   2
     Q(r) pseudized with  8 coefficients,  rinner =    1.100   1.100   1.100
                                                       1.100   1.100

     PseudoPot. # 2 for S  read from file:
     /u/if/mamunm/psp/gbrv1.5pbe/S.UPF
     MD5 check sum: 88d86576ff6df21479756cfb9bdac1df
     Pseudo is Ultrasoft + core correction, Zval =  6.0
     Generated by new atomic code, or converted to UPF format
     Using radial grid of  907 points,  6 beta functions with:
                l(1) =   0
                l(2) =   0
                l(3) =   1
                l(4) =   1
                l(5) =   2
                l(6) =   2
     Q(r) pseudized with  8 coefficients,  rinner =    1.300   1.300   1.300
                                                       1.300   1.300

     PseudoPot. # 3 for H  read from file:
     /u/if/mamunm/psp/gbrv1.5pbe/H.UPF
     MD5 check sum: 761ae9a214b05c3daf00ab9f6b793d6f
     Pseudo is Ultrasoft, Zval =  1.0
     Generated by new atomic code, or converted to UPF format
     Using radial grid of  615 points,  2 beta functions with:
                l(1) =   0
                l(2) =   0
     Q(r) pseudized with  8 coefficients,  rinner =    0.700

     vdW kernel table read from file vdW_kernel_table
     MD5 check sum: 095c7af220d748ca6e76c0b4c6cfb241

     atomic species   valence    mass     pseudopotential
        V1            13.00    50.94150     V ( 1.00)
        S1             6.00    32.06000     S ( 1.00)
        H1             1.00     1.00800     H ( 1.00)

     No symmetry found

   Cartesian axes

     site n.     atom                  positions (alat units)
         1           V1  tau(   1) = (   1.3497945   0.7793042  10.0000000  )
         2           V1  tau(   2) = (   4.0493836   0.7793042  10.0000000  )
         3           V1  tau(   3) = (   2.6995891   3.1172170  10.0000000  )
         4           V1  tau(   4) = (   5.3991782   3.1172170  10.0000000  )
         5           V1  tau(   5) = (   5.3991782   1.5586085  12.2042053  )
         6           V1  tau(   6) = (   2.6995891   1.5586085  12.2042053  )
         7           V1  tau(   7) = (   6.7489727   3.8965212  12.2042053  )
         8           V1  tau(   8) = (   4.0493836   3.8965212  12.2042053  )
         9           V1  tau(   9) = (   0.0000000   0.0000000  14.4084105  )
        10           V1  tau(  10) = (   2.6995891   0.0000000  14.4084105  )
        11           V1  tau(  11) = (   1.3497945   2.3379127  14.4084105  )
        12           V1  tau(  12) = (   4.0493836   2.3379127  14.4084105  )
        13           S1  tau(  13) = (   2.6995891   1.5586085  16.0854105  )
        14           H1  tau(  14) = (   2.6995891   1.5586085  17.3354105  )

     number of k points=    20  Fermi-Dirac smearing, width (Ry)=  0.0110
                       cart. coord. in units 2pi/alat
        k(    1) = (   0.0000000   0.0000000   0.0000000), wk =   0.0555556
        k(    2) = (   0.0000000   0.0356443   0.0000000), wk =   0.1111111
        k(    3) = (   0.0000000   0.0712887   0.0000000), wk =   0.1111111
        k(    4) = (   0.0000000  -0.1069330   0.0000000), wk =   0.0555556
        k(    5) = (   0.0308689  -0.0178222   0.0000000), wk =   0.1111111
        k(    6) = (   0.0308689   0.0178222   0.0000000), wk =   0.1111111
        k(    7) = (   0.0308689   0.0534665   0.0000000), wk =   0.1111111
        k(    8) = (   0.0308689  -0.1247552   0.0000000), wk =   0.1111111
        k(    9) = (   0.0308689  -0.0891108   0.0000000), wk =   0.1111111
        k(   10) = (   0.0308689  -0.0534665   0.0000000), wk =   0.1111111
        k(   11) = (   0.0617378  -0.0356443   0.0000000), wk =   0.1111111
        k(   12) = (   0.0617378   0.0000000   0.0000000), wk =   0.1111111
        k(   13) = (   0.0617378   0.0356443   0.0000000), wk =   0.1111111
        k(   14) = (   0.0617378  -0.1425773   0.0000000), wk =   0.1111111
        k(   15) = (   0.0617378  -0.1069330   0.0000000), wk =   0.1111111
        k(   16) = (   0.0617378  -0.0712887   0.0000000), wk =   0.1111111
        k(   17) = (  -0.0926067   0.0534665   0.0000000), wk =   0.0555556
        k(   18) = (  -0.0926067   0.0891108   0.0000000), wk =   0.1111111
        k(   19) = (  -0.0926067   0.1247552   0.0000000), wk =   0.1111111
        k(   20) = (  -0.0926067  -0.0534665   0.0000000), wk =   0.0555556

     Largest allocated arrays     est. size (Mb)     dimensions
     Largest temporary arrays     est. size (Mb)     dimensions

     Check: negative/imaginary core charge=   -0.000001    0.000000

     Initial potential from superposition of free atoms
     Check: negative starting charge=   -0.011480

     starting charge  162.98523, renormalised to  163.00000

     negative rho (up, down):  1.148E-02 0.000E+00

     *
     * You are using vdW-DF for exchange-correlation in this calculation.
     * Please cite the following three references that made this development
     * possible:
     *
     *   M. Dion, H. Rydberg, E. Schroder, D. C. Langreth, and
     *   B. I. Lundqvist, Phys. Rev. Lett. 92, 246401 (2004).
     *
     *   T. Thonhauser, V. R. Cooper, S. Li, A. Puzder, P. Hyldgaard, and
     *   D. C. Langreth, Phys. Rev. B 76, 125112 (2007).
     *
     *   G. Roman-Perez and J. M. Soler, Phys. Rev. Lett. 103, 096102 (2009).
     *
     *
     * If you are using vdW-DF2, please also cite:
     *
     *   K. Lee, E. D. Murray, L. Kong, B. I. Lundqvist, and
     *   D. C. Langreth, Phys. Rev. B 82, 081101(R) (2010).
     *
     *
     * If you are calculating the stress with vdW-DF, please also cite:
     *
     *   R. Sabatini, E. Kucukbenli, B. Kolb, T. Thonhauser, and
     *   S. de Gironcoli, J. Phys.: Condens. Matter 24, 424209 (2012).
     *

     Carrying out vdW-DF run using the following parameters:

     Nqs =      20    Nr_points =    1024   r_max =   100.000
     q_mesh =
               0.00001000     0.04494208     0.09755937     0.15916263
               0.23128650     0.31572767     0.41458969     0.53033537
               0.66584808     0.82450364     1.01025438     1.22772762
               1.48234092     1.78043706     2.12944203     2.53805004
               3.01644009     3.57652955     4.23227104     5.00000000

     Gradients computed in reciprocal space

     Adding external electric field

     Computed dipole along edir(3) :
        Dipole               -0.0045 Ry au,         -0.0115 Debye
        Dipole field         -0.0000 Ry au

        Potential amp.        0.0012 Ry
        Total length         44.9721 bohr

     Starting wfc are  125 randomized atomic wfcs

     Self-consistent Calculation

     iteration #  1     ecut=    36.75 Ry     beta=0.30
     Davidson diagonalization with overlap
     ethr =  1.00E-02,  avg # of iterations =  2.4

[...]

     total energy              =   -1768.83436760 Ry
     Harris-Foulkes estimate   =   -1775.36250912 Ry
     estimated scf accuracy    <      13.35919571 Ry

[...]

     End of self-consistent calculation

          k = 0.0000 0.0000 0.0000 ( 15569 PWs)   bands (ev):

   -62.4624 -62.3945 -62.3486 -62.3261 -62.3200 -62.3193 -62.3011 -62.2829
   -62.2825 -62.2760 -62.2739 -62.2735 -36.5647 -36.5502 -36.5500 -36.5202
   -36.4903 -36.4885 -36.4884 -36.4332 -36.4269 -36.4267 -36.2614 -36.1905
   -36.1633 -36.1629 -36.1499 -36.1396 -36.1393 -36.0572 -36.0570 -36.0553
   -36.0048 -36.0007 -36.0002 -35.9705 -35.9704 -35.9620 -35.9525 -35.9214
   -35.9212 -35.9200 -35.8940 -35.8940 -35.8317 -35.8317 -35.8035 -35.8034
   -13.4413  -6.5705  -4.1215  -2.7649  -2.7648  -2.4603  -1.5274  -1.2230
    -1.2228  -1.1395  -0.9576  -0.8321  -0.8320  -0.5552  -0.4725  -0.4725
    -0.4001  -0.3629  -0.3628   0.4497   0.4498   0.5160   1.1082   1.4043
     1.4728   1.4728   1.6612   1.9125   1.9607   1.9607   2.0393   2.0999
     2.0999   2.1721   2.1721   2.2239   2.2457   2.2458   2.3006   2.3007
     2.4220   2.6739   2.6741

[...]

          k =-0.0926 0.0535 0.0000 ( 15660 PWs)   bands (ev):

[...]

     the Fermi energy is     1.8277 ev

!    total energy              =   -1774.57368032 Ry
     Harris-Foulkes estimate   =   -1774.57369938 Ry
     estimated scf accuracy    <       0.00000393 Ry

     The total energy is the sum of the following terms:

     one-electron contribution =  -15381.86547126 Ry
     hartree contribution      =    7684.21949832 Ry
     xc contribution           =    -254.05537796 Ry
     ewald contribution        =    6177.27301857 Ry
     electric field correction =       0.00034579 Ry
     smearing contrib. (-TS)   =      -0.14569377 Ry

     convergence has been achieved in  29 iterations

 BEEF-vdW xc energy contributions
           1 :   -218.789103125423
           2 :    196.230631749070
           3 :   -158.933934331831
           4 :    118.549848874558
           5 :   -85.2735436967415
           6 :    64.0519421875214
           7 :   -53.8615807190540
           8 :    49.8640077219465
           9 :   -46.8317431716833
          10 :    41.8398581365918
          11 :   -35.0100698656088
          12 :    28.3714311074800
          13 :   -23.9313192167915
          14 :    22.2546806500175
          15 :   -22.2936203142015
          16 :    22.3108633062367
          17 :   -21.1089002290194
          18 :    18.7099951326314
          19 :   -16.1217891147215
          20 :    14.4717290434193
          21 :   -14.1804988402126
          22 :    14.7296809489719
          23 :   -15.1120629207744
          24 :    14.5728076594817
          25 :   -13.1022523593757
          26 :    11.3687008578947
          27 :   -10.1950522392790
          28 :    9.97781869376297
          29 :   -10.4484272744783
          30 :    10.9083323650767
          31 :   -22.8155997982410
          32 :   -16.4411257371422

     Forces acting on atoms (Ry/au):

     negative rho (up, down):  1.528E-02 0.000E+00
     atom    1 type  1   force =    -0.00085385   -0.00048386   -0.00113090
     atom    2 type  1   force =     0.00086111   -0.00046990   -0.00118856
     atom    3 type  1   force =     0.00001988    0.00097251   -0.00118963
     atom    4 type  1   force =    -0.00001593   -0.00001707   -0.00090473
     atom    5 type  1   force =     0.00000598   -0.00033272   -0.00588275
     atom    6 type  1   force =    -0.00000915    0.00001801   -0.00680811
     atom    7 type  1   force =     0.00030946    0.00015239   -0.00589705
     atom    8 type  1   force =    -0.00029986    0.00015521   -0.00593453
     atom    9 type  1   force =     0.00001427    0.00001041   -0.01636249
     atom   10 type  1   force =     0.00000304   -0.04445859    0.00369600
     atom   11 type  1   force =    -0.03851743    0.02221436    0.00368719
     atom   12 type  1   force =     0.03851856    0.02222244    0.00365079
     atom   13 type  2   force =    -0.00003866    0.00001992   -0.10225604
     atom   14 type  3   force =     0.00000258   -0.00000311    0.13652082

     Total force =     0.187973     Total SCF correction =     0.001273

     entering subroutine stress ...

     negative rho (up, down):  1.528E-02 0.000E+00
          total   stress  (Ry/bohr**3)                   (kbar)     P=   -7.64
  -0.00014376   0.00000003  -0.00000010        -21.15      0.00     -0.02
   0.00000003  -0.00014364   0.00000004          0.00    -21.13      0.01
  -0.00000010   0.00000004   0.00013160         -0.02      0.01     19.36

     BFGS Geometry Optimization

     number of scf cycles    =   1
     number of bfgs steps    =   0

     energy   new            =   -1774.5736803156 Ry

     new trust radius        =       0.1365208223 bohr
     new conv_thr            =       0.0000099958 Ry

ATOMIC_POSITIONS (crystal)
V1       0.166666667   0.166666667   0.409694847    0   0   0
V1       0.666666667   0.166666667   0.409694847    0   0   0
V1       0.166666667   0.666666667   0.409694847    0   0   0
V1       0.666666667   0.666666667   0.409694847    0   0   0
V1       0.833333333   0.333333333   0.500000000    0   0   0
V1       0.333333333   0.333333333   0.500000000    0   0   0
V1       0.833333333   0.833333333   0.500000000    0   0   0
V1       0.333333333   0.833333333   0.500000000    0   0   0
V1       0.000000809   0.000001178   0.589950413
V1       0.502516054  -0.005031513   0.590385283
V1      -0.005032153   0.502514066   0.590385092
V1       0.502517741   0.502514980   0.590384303
S1       0.333328417   0.333335588   0.656794056
H1       0.333333762   0.333332982   0.713182623

     Writing output data file calc.save
     Check: negative starting charge=   -0.011480
     NEW-OLD atomic charge density approx. for the potential

     Check: negative/imaginary core charge=   -0.000001    0.000000
     Check: negative starting charge=   -0.011114

[...]

     iteration #  1     ecut=    36.75 Ry     beta=0.30
     Davidson diagonalization with overlap
     c_bands:  1 eigenvalues not converged
     ethr =  1.00E-06,  avg # of iterations = 15.8

[...]

     energy   old            =   -1774.5736803156 Ry
     energy   new            =   -1774.5898629796 Ry

     CASE: energy  _new < energy  _old

[...]

     iteration #  1     ecut=    36.75 Ry     beta=0.30
     Davidson diagonalization with overlap
     c_bands:  1 eigenvalues not converged
     ethr =  1.00E-06,  avg # of iterations = 12.8

[...]

     Total force =     0.008827     Total SCF correction =     0.000238

[...]

     Total force =     0.002337     Total SCF correction =     0.000310
     SCF correction compared to forces is large: reduce conv_thr to get better values

[...]

     number of scf cycles    =  15
     number of bfgs steps    =  14

     energy   old            =   -1774.6236989898 Ry
     energy   new            =   -1774.6237611224 Ry

     CASE: energy  _new < energy  _old

     new trust radius        =       0.0030769220 bohr
     new conv_thr            =       0.0000001000 Ry

ATOMIC_POSITIONS (crystal)
V1       0.166666667   0.166666667   0.409694847    0   0   0
V1       0.666666667   0.166666667   0.409694847    0   0   0
V1       0.166666667   0.666666667   0.409694847    0   0   0
V1       0.666666667   0.666666667   0.409694847    0   0   0
V1       0.833333333   0.333333333   0.500000000    0   0   0
V1       0.333333333   0.333333333   0.500000000    0   0   0
V1       0.833333333   0.833333333   0.500000000    0   0   0
V1       0.333333333   0.833333333   0.500000000    0   0   0
V1      -0.000000322  -0.000003124   0.573548238
V1       0.512071513  -0.024144184   0.595588662
V1      -0.024154547   0.512077378   0.595588998
V1       0.512078795   0.512082666   0.595588513
S1       0.333329405   0.333342329   0.663704462
H1       0.333335090   0.333331390   0.719857886

     Writing output data file calc.save
     Check: negative starting charge=   -0.010120
     NEW-OLD atomic charge density approx. for the potential

     Check: negative/imaginary core charge=   -0.000001    0.000000
     Check: negative starting charge=   -0.010200

[...]

     Self-consistent Calculation

[...]

     total energy              =   -1774.62376674 Ry
     Harris-Foulkes estimate   =   -1774.62376678 Ry
     estimated scf accuracy    <       0.00000026 Ry

     iteration # 11     ecut=    36.75 Ry     beta=0.30
     Davidson diagonalization with overlap
     ethr =  1.59E-10,  avg # of iterations =  2.5

[...]

     negative rho (up, down):  1.437E-02 0.000E+00

     Adding external electric field

     Computed dipole along edir(3) :
        Dipole                0.3087 Ry au,          0.7846 Debye
        Dipole field          0.0009 Ry au

        Potential amp.       -0.0839 Ry
        Total length         44.9721 bohr

     End of self-consistent calculation

[...]

          k = 0.0617-0.0713 0.0000 ( 15642 PWs)   bands (ev):

[...]

          k =-0.0926-0.0535 0.0000 ( 15660 PWs)   bands (ev):

   -62.5171 -62.4731 -62.4359 -62.4131 -62.3977 -62.3769 -62.3753 -62.3659
   -62.3635 -62.3411 -62.3206 -62.1302 -36.5840 -36.5326 -36.5093 -36.4956
   -36.4940 -36.4680 -36.4458 -36.3889 -36.3853 -36.3783 -36.3542 -36.3318
   -36.3004 -36.2431 -36.2293 -36.2234 -36.2108 -36.2062 -36.1842 -36.1771
   -36.1634 -36.1379 -36.1260 -36.1099 -36.1061 -36.0804 -36.0658 -36.0365
   -36.0261 -36.0161 -35.9500 -35.9462 -35.9220 -35.8050 -35.7527 -35.6743
   -12.8814  -5.8743  -3.0747  -2.5060  -2.4728  -2.3219  -1.2167  -1.0309
    -0.6289  -0.6263  -0.5522  -0.4872  -0.4358  -0.2406   0.0292   0.0990
     0.2201   0.2648   0.3847   0.4505   0.5725   0.7386   0.7845   0.8393
     0.8714   1.0194   1.0746   1.1136   1.1749   1.2503   1.3734   1.3823
     1.4281   1.4947   1.6260   1.7928   1.8722   1.9107   2.0115   2.0224
     2.2396   2.3293   2.6034

     the Fermi energy is     1.7411 ev

!    total energy              =   -1774.62376667 Ry
     Harris-Foulkes estimate   =   -1774.62376652 Ry
     estimated scf accuracy    <       0.00000008 Ry

     The total energy is the sum of the following terms:

     one-electron contribution =  -15328.96339890 Ry
     hartree contribution      =    7657.50551574 Ry
     xc contribution           =    -254.01330183 Ry
     ewald contribution        =    6150.97750817 Ry
     electric field correction =       0.00028794 Ry
     smearing contrib. (-TS)   =      -0.13037779 Ry

     convergence has been achieved in  11 iterations

 BEEF-vdW xc energy contributions
           1 :   -218.752462986406
           2 :    196.166240111548
           3 :   -158.820633896746
           4 :    118.372386877800
           5 :   -85.0219491396570
           6 :    63.7247102623215
           7 :   -53.4702841814672
           8 :    49.4386693997733
           9 :   -46.4232366638700
          10 :    41.5065120509682
          11 :   -34.7833652209012
          12 :    28.2209452120825
          13 :   -23.7647561598433
          14 :    21.9696978021060
          15 :   -21.8528679783015
          16 :    21.7811600655112
          17 :   -20.6239151440896
          18 :    18.3762182141533
          19 :   -15.9375818442061
          20 :    14.3223072891889
          21 :   -13.9153743474007
          22 :    14.2684810355888
          23 :   -14.5046410609892
          24 :    13.9732669263960
          25 :   -12.6742679998316
          26 :    11.1837614354580
          27 :   -10.1886662482844
          28 :    9.99151671978825
          29 :   -10.3309218098773
          30 :    10.6103869001027
          31 :   -22.8118373123855
          32 :   -16.4242540922490

     Forces acting on atoms (Ry/au):

     negative rho (up, down):  1.437E-02 0.000E+00
     atom    1 type  1   force =    -0.00010287   -0.00005998   -0.00092771
     atom    2 type  1   force =     0.00010397   -0.00006283   -0.00092243
     atom    3 type  1   force =    -0.00000218    0.00012128   -0.00092382
     atom    4 type  1   force =     0.00000302    0.00000124    0.00332169
     atom    5 type  1   force =     0.00000296    0.02214624   -0.01410463
     atom    6 type  1   force =    -0.00000129   -0.00000106    0.04440701
     atom    7 type  1   force =    -0.01918558   -0.01107667   -0.01410359
     atom    8 type  1   force =     0.01918149   -0.01107030   -0.01410814
     atom    9 type  1   force =    -0.00000374   -0.00000085   -0.00064285
     atom   10 type  1   force =     0.00000305   -0.00002012   -0.00014880
     atom   11 type  1   force =    -0.00001809    0.00001603   -0.00015193
     atom   12 type  1   force =     0.00001482    0.00000838   -0.00014625
     atom   13 type  2   force =     0.00000463   -0.00000150   -0.00077813
     atom   14 type  3   force =    -0.00000020    0.00000012   -0.00077041

     Total force =     0.001296     Total SCF correction =     0.000196
     SCF correction compared to forces is large: reduce conv_thr to get better values

     entering subroutine stress ...

     negative rho (up, down):  1.437E-02 0.000E+00
          total   stress  (Ry/bohr**3)                   (kbar)     P=  -13.08
  -0.00012773  -0.00000001   0.00000000        -18.79     -0.00      0.00
  -0.00000001  -0.00012773  -0.00000000         -0.00    -18.79     -0.00
   0.00000000  -0.00000000  -0.00001119          0.00     -0.00     -1.65

     bfgs converged in  16 scf cycles and  15 bfgs steps
     (criteria: energy <  1.0E+00, force <  1.9E-03)

     End of BFGS Geometry Optimization

     Final energy   =   -1774.6237666709 Ry
Begin final coordinates

ATOMIC_POSITIONS (crystal)
V1       0.166666667   0.166666667   0.409694847    0   0   0
V1       0.666666667   0.166666667   0.409694847    0   0   0
V1       0.166666667   0.666666667   0.409694847    0   0   0
V1       0.666666667   0.666666667   0.409694847    0   0   0
V1       0.833333333   0.333333333   0.500000000    0   0   0
V1       0.333333333   0.333333333   0.500000000    0   0   0
V1       0.833333333   0.833333333   0.500000000    0   0   0
V1       0.333333333   0.833333333   0.500000000    0   0   0
V1      -0.000000322  -0.000003124   0.573548238
V1       0.512071513  -0.024144184   0.595588662
V1      -0.024154547   0.512077378   0.595588998
V1       0.512078795   0.512082666   0.595588513
S1       0.333329405   0.333342329   0.663704462
H1       0.333335090   0.333331390   0.719857886
End final coordinates

     Writing output data file calc.save

     General routines

     Parallel routines

   This run was terminated on:  13:44:10  24Apr2018

   JOB DONE.
Job  /afs/slac/g/suncat/bin/suncat-tsmpirun -x LD_LIBRARY_PATH -wdir /scratch/qe785563_Zdnn6 pw.x -npool 4 -in pw.inp

TID   HOST_NAME   COMMAND_LINE            STATUS            TERMINATION_TIME
00000 suncat0165 pw.x -npool 4 -i  Done                     04/24/2018 13:44:10
00001 suncat0165 pw.x -npool 4 -i  Done                     04/24/2018 13:44:10
00002 suncat0165 pw.x -npool 4 -i  Done                     04/24/2018 13:44:10
00003 suncat0165 pw.x -npool 4 -i  Done                     04/24/2018 13:44:10
00004 suncat0165 pw.x -npool 4 -i  Done                     04/24/2018 13:44:10
00005 suncat0165 pw.x -npool 4 -i  Done                     04/24/2018 13:44:10
00006 suncat0165 pw.x -npool 4 -i  Done                     04/24/2018 13:44:10
00007 suncat0165 pw.x -npool 4 -i  Done                     04/24/2018 13:44:10
00008 suncat0115 pw.x -npool 4 -i  Done                     04/24/2018 13:44:10
00009 suncat0115 pw.x -npool 4 -i  Done                     04/24/2018 13:44:10
00010 suncat0115 pw.x -npool 4 -i  Done                     04/24/2018 13:44:10
00011 suncat0115 pw.x -npool 4 -i  Done                     04/24/2018 13:44:10
00012 suncat0115 pw.x -npool 4 -i  Done                     04/24/2018 13:44:10
00013 suncat0115 pw.x -npool 4 -i  Done                     04/24/2018 13:44:10
00014 suncat0115 pw.x -npool 4 -i  Done                     04/24/2018 13:44:10
00015 suncat0115 pw.x -npool 4 -i  Done                     04/24/2018 13:44:10
00016 suncat0249 pw.x -npool 4 -i  Done                     04/24/2018 13:44:10
00017 suncat0249 pw.x -npool 4 -i  Done                     04/24/2018 13:44:10
00018 suncat0249 pw.x -npool 4 -i  Done                     04/24/2018 13:44:10
00019 suncat0249 pw.x -npool 4 -i  Done                     04/24/2018 13:44:10
00020 suncat0249 pw.x -npool 4 -i  Done                     04/24/2018 13:44:10
00021 suncat0249 pw.x -npool 4 -i  Done                     04/24/2018 13:44:10
00022 suncat0249 pw.x -npool 4 -i  Done                     04/24/2018 13:44:10
00023 suncat0249 pw.x -npool 4 -i  Done                     04/24/2018 13:44:10
00024 suncat0240 pw.x -npool 4 -i  Done                     04/24/2018 13:44:10
00025 suncat0240 pw.x -npool 4 -i  Done                     04/24/2018 13:44:10
00026 suncat0240 pw.x -npool 4 -i  Done                     04/24/2018 13:44:10
00027 suncat0240 pw.x -npool 4 -i  Done                     04/24/2018 13:44:10
00028 suncat0240 pw.x -npool 4 -i  Done                     04/24/2018 13:44:10
00029 suncat0240 pw.x -npool 4 -i  Done                     04/24/2018 13:44:10
00030 suncat0240 pw.x -npool 4 -i  Done                     04/24/2018 13:44:10
00031 suncat0240 pw.x -npool 4 -i  Done                     04/24/2018 13:44:10