     Program PWSCF v.5.1rc2 (svn rev. 11289) starts on 24Apr2018 at  4:55:24

     Current dimensions of program PWSCF are:
     Max number of different atomic species (ntypx) = 10
     Max number of k-points (npk) =  40000
     Max angular momentum in pseudopotentials (lmaxx) =  3
     Presently stress not available with electric field

     IMPORTANT: XC functional enforced from input :
     Exchange-correlation      = BEEF-VDW ( 1  4 27 13 2)
     Any further DFT definition will be discarded
     Please, verify this is what you really want

     Subspace diagonalization in iterative solution of the eigenvalue problem:
     a serial algorithm will be used

     bravais-lattice index     =            0
     lattice parameter (alat)  =       1.8897  a.u.
     unit-cell volume          =    6655.4371 (a.u.)^3
     number of atoms/cell      =           14
     number of atomic types    =            3
     number of electrons       =       161.00
     number of Kohn-Sham states=           90
     kinetic-energy cutoff     =      36.7493  Ry
     charge density cutoff     =     367.4932  Ry
     convergence threshold     =      1.0E-05
     mixing beta               =       0.3000
     number of iterations used =           10  plain     mixing
     Exchange-correlation      = BEEF-VDW ( 1  4 27 13 2)
     nstep                     =           50

     celldm(1)=   1.889726  celldm(2)=   0.000000  celldm(3)=   0.000000
     celldm(4)=   0.000000  celldm(5)=   0.000000  celldm(6)=   0.000000

     crystal axes: (cart. coord. in units of alat)
               a(1) = (   6.687903   0.000000   0.000000 )
               a(2) = (   3.343951   5.791894   0.000000 )
               a(3) = (   0.000000   0.000000  25.460650 )

     reciprocal axes: (cart. coord. in units 2 pi/alat)
               b(1) = (  0.149524 -0.086328  0.000000 )
               b(2) = (  0.000000  0.172655  0.000000 )
               b(3) = (  0.000000  0.000000  0.039276 )

     PseudoPot. # 1 for Tl read from file:
     /u/if/mamunm/psp/gbrv1.5pbe/Tl.UPF
     MD5 check sum: b76cf1f7e72655a2b2c53cf6385d7059
     Pseudo is Ultrasoft + core correction, Zval = 13.0
     Generated by new atomic code, or converted to UPF format
     Using radial grid of  899 points,  6 beta functions with:
                l(1) =   0
                l(2) =   0
                l(3) =   1
                l(4) =   1
                l(5) =   2
                l(6) =   2
     Q(r) pseudized with  6 coefficients,  rinner =    1.100   1.100   1.100
                                                       1.100   1.100

     PseudoPot. # 2 for C  read from file:
     /u/if/mamunm/psp/gbrv1.5pbe/C.UPF
     MD5 check sum: d1aef80898a10debaa0f26306b886e00
     Pseudo is Ultrasoft + core correction, Zval =  4.0
     Generated by new atomic code, or converted to UPF format
     Using radial grid of  721 points,  4 beta functions with:
                l(1) =   0
                l(2) =   0
                l(3) =   1
                l(4) =   1
     Q(r) pseudized with  8 coefficients,  rinner =    1.100   1.100   1.100

     PseudoPot. # 3 for H  read from file:
     /u/if/mamunm/psp/gbrv1.5pbe/H.UPF
     MD5 check sum: 761ae9a214b05c3daf00ab9f6b793d6f
     Pseudo is Ultrasoft, Zval =  1.0
     Generated by new atomic code, or converted to UPF format
     Using radial grid of  615 points,  2 beta functions with:
                l(1) =   0
                l(2) =   0
     Q(r) pseudized with  8 coefficients,  rinner =    0.700

     vdW kernel table read from file vdW_kernel_table
     MD5 check sum: 095c7af220d748ca6e76c0b4c6cfb241

     atomic species   valence    mass     pseudopotential
        Tl1           13.00   204.38000     Tl( 1.00)
        C1             4.00    12.01100     C ( 1.00)
        H1             1.00     1.00800     H ( 1.00)

     No symmetry found

   Cartesian axes

     site n.     atom                  positions (alat units)
         1           Tl1 tau(   1) = (   1.6719756   0.9653156  10.0000000  )
         2           Tl1 tau(   2) = (   5.0159269   0.9653156  10.0000000  )
         3           Tl1 tau(   3) = (   3.3439513   3.8612623  10.0000000  )
         4           Tl1 tau(   4) = (   6.6879026   3.8612623  10.0000000  )
         5           Tl1 tau(   5) = (   6.6879026   1.9306312  12.7303248  )
         6           Tl1 tau(   6) = (   3.3439513   1.9306312  12.7303248  )
         7           Tl1 tau(   7) = (   8.3598782   4.8265779  12.7303248  )
         8           Tl1 tau(   8) = (   5.0159269   4.8265779  12.7303248  )
         9           Tl1 tau(   9) = (   0.0000000   0.0000000  15.4606496  )
        10           Tl1 tau(  10) = (   3.3439513   0.0000000  15.4606496  )
        11           Tl1 tau(  11) = (   1.6719756   2.8959468  15.4606496  )
        12           Tl1 tau(  12) = (   5.0159269   2.8959468  15.4606496  )
        13           C1  tau(  13) = (   3.3439513   1.9306312  16.8971496  )
        14           H1  tau(  14) = (   3.3439513   1.9306312  17.9971496  )

     number of k points=    20  Fermi-Dirac smearing, width (Ry)=  0.0110
                       cart. coord. in units 2pi/alat
        k(    1) = (   0.0000000   0.0000000   0.0000000), wk =   0.0555556
        k(    2) = (   0.0000000   0.0287759   0.0000000), wk =   0.1111111
        k(    3) = (   0.0000000   0.0575517   0.0000000), wk =   0.1111111
        k(    4) = (   0.0000000  -0.0863276   0.0000000), wk =   0.0555556
        k(    5) = (   0.0249206  -0.0143879   0.0000000), wk =   0.1111111
        k(    6) = (   0.0249206   0.0143879   0.0000000), wk =   0.1111111
        k(    7) = (   0.0249206   0.0431638   0.0000000), wk =   0.1111111
        k(    8) = (   0.0249206  -0.1007155   0.0000000), wk =   0.1111111
        k(    9) = (   0.0249206  -0.0719396   0.0000000), wk =   0.1111111
        k(   10) = (   0.0249206  -0.0431638   0.0000000), wk =   0.1111111
        k(   11) = (   0.0498412  -0.0287759   0.0000000), wk =   0.1111111
        k(   12) = (   0.0498412  -0.0000000   0.0000000), wk =   0.1111111
        k(   13) = (   0.0498412   0.0287759   0.0000000), wk =   0.1111111
        k(   14) = (   0.0498412  -0.1151034   0.0000000), wk =   0.1111111
        k(   15) = (   0.0498412  -0.0863276   0.0000000), wk =   0.1111111
        k(   16) = (   0.0498412  -0.0575517   0.0000000), wk =   0.1111111
        k(   17) = (  -0.0747619   0.0431638   0.0000000), wk =   0.0555556
        k(   18) = (  -0.0747619   0.0719396   0.0000000), wk =   0.1111111
        k(   19) = (  -0.0747619   0.1007155   0.0000000), wk =   0.1111111
        k(   20) = (  -0.0747619  -0.0431638   0.0000000), wk =   0.0555556

     Largest allocated arrays     est. size (Mb)     dimensions
     Largest temporary arrays     est. size (Mb)     dimensions

     Check: negative/imaginary core charge=   -0.000001    0.000000

     Initial potential from superposition of free atoms
     Check: negative starting charge=   -0.604348

     starting charge  160.94156, renormalised to  161.00000

     negative rho (up, down):  6.046E-01 0.000E+00

     *
     * You are using vdW-DF for exchange-correlation in this calculation.
     * Please cite the following three references that made this development
     * possible:
     *
     *   M. Dion, H. Rydberg, E. Schroder, D. C. Langreth, and
     *   B. I. Lundqvist, Phys. Rev. Lett. 92, 246401 (2004).
     *
     *   T. Thonhauser, V. R. Cooper, S. Li, A. Puzder, P. Hyldgaard, and
     *   D. C. Langreth, Phys. Rev. B 76, 125112 (2007).
     *
     *   G. Roman-Perez and J. M. Soler, Phys. Rev. Lett. 103, 096102 (2009).
     *
     *
     * If you are using vdW-DF2, please also cite:
     *
     *   K. Lee, E. D. Murray, L. Kong, B. I. Lundqvist, and
     *   D. C. Langreth, Phys. Rev. B 82, 081101(R) (2010).
     *
     *
     * If you are calculating the stress with vdW-DF, please also cite:
     *
     *   R. Sabatini, E. Kucukbenli, B. Kolb, T. Thonhauser, and
     *   S. de Gironcoli, J. Phys.: Condens. Matter 24, 424209 (2012).
     *

     Carrying out vdW-DF run using the following parameters:

     Nqs =      20    Nr_points =    1024   r_max =   100.000
     q_mesh =
               0.00001000     0.04494208     0.09755937     0.15916263
               0.23128650     0.31572767     0.41458969     0.53033537
               0.66584808     0.82450364     1.01025438     1.22772762
               1.48234092     1.78043706     2.12944203     2.53805004
               3.01644009     3.57652955     4.23227104     5.00000000

     Gradients computed in reciprocal space

     Adding external electric field

     Computed dipole along edir(3) :
        Dipole               -0.0146 Ry au,         -0.0372 Debye
        Dipole field         -0.0000 Ry au

        Potential amp.        0.0026 Ry
        Total length         46.9108 bohr

     Starting wfc are  113 randomized atomic wfcs

     Self-consistent Calculation

     iteration #  1     ecut=    36.75 Ry     beta=0.30
     Davidson diagonalization with overlap
     ethr =  1.00E-02,  avg # of iterations =  2.0

[...]

     total energy              =   -1773.00458468 Ry
     Harris-Foulkes estimate   =   -1774.27557634 Ry
     estimated scf accuracy    <       2.78334178 Ry

[...]

     End of self-consistent calculation

          k = 0.0000 0.0000 0.0000 ( 24957 PWs)   bands (ev):

   -11.4251 -11.2270 -11.2270 -11.2226 -11.1052 -11.1052 -11.0997 -11.0885
   -11.0885 -11.0881 -11.0527 -11.0524 -11.0524 -10.9808 -10.9461 -10.8940
   -10.8827 -10.8827 -10.8615 -10.8615 -10.8423 -10.8423 -10.8348 -10.8348
   -10.8231 -10.7787 -10.7787 -10.7692 -10.7411 -10.7411 -10.5701 -10.5701
   -10.5514 -10.5514 -10.5162 -10.5121 -10.4651 -10.4651 -10.4560 -10.4560
   -10.4491 -10.3723 -10.3723 -10.3413 -10.3413 -10.3157 -10.3028 -10.2850
   -10.2850 -10.2820 -10.2820 -10.2737 -10.2539 -10.2539 -10.2486 -10.2486
   -10.2440 -10.1550 -10.1550 -10.0990  -9.5098  -8.7761  -7.3463  -5.4428
    -4.3090  -4.1506  -4.1506  -3.9045  -3.9045  -3.8694  -3.0315  -3.0315
    -2.9021  -2.5827  -1.3122  -1.3122  -1.0151  -0.4780  -0.4677  -0.4677
     0.0648   0.2085   0.2085   1.7659   1.8713   1.8713   2.6962   3.9548
     4.1254   4.1254

[...]

          k =-0.0748 0.0432 0.0000 ( 25090 PWs)   bands (ev):

[...]

     the Fermi energy is     1.2397 ev

!    total energy              =   -1774.09161255 Ry
     Harris-Foulkes estimate   =   -1774.09159963 Ry
     estimated scf accuracy    <       0.00000844 Ry

     The total energy is the sum of the following terms:

     one-electron contribution =   -8904.41552765 Ry
     hartree contribution      =    4537.17523800 Ry
     xc contribution           =    -772.88045522 Ry
     ewald contribution        =    3366.06641842 Ry
     electric field correction =       0.00007642 Ry
     smearing contrib. (-TS)   =      -0.03736252 Ry

     convergence has been achieved in  11 iterations

 BEEF-vdW xc energy contributions
           1 :   -688.534330658654
           2 :    639.349118623360
           3 :   -552.788494523474
           4 :    447.720165904136
           5 :   -343.432819376940
           6 :    253.917182285086
           7 :   -185.048248622406
           8 :    135.187598236356
           9 :   -98.3999355591770
          10 :    68.4628406284526
          11 :   -41.8082314425303
          12 :    18.2810517241210
          13 :   0.132423205110513
          14 :   -11.5012389436865
          15 :    15.6829532904869
          16 :   -14.7234870838515
          17 :    11.9056024412691
          18 :   -10.1721568497255
          19 :    10.8609522625236
          20 :   -13.4092989201672
          21 :    16.0767502671235
          22 :   -17.1861725047590
          23 :    16.1367249483092
          24 :   -13.6538848862500
          25 :    11.2150690977926
          26 :   -10.0767819913408
          27 :    10.5155466728679
          28 :   -11.7230780670029
          29 :    12.3688661520121
          30 :   -11.4550508832257
          31 :   -55.4501950486078
          32 :   -40.6047568142772

     Forces acting on atoms (Ry/au):

     negative rho (up, down):  6.329E-01 0.000E+00
     atom    1 type  1   force =     0.00278057    0.00159420   -0.02291277
     atom    2 type  1   force =    -0.00278340    0.00158921   -0.02292982
     atom    3 type  1   force =     0.00001620   -0.00320965   -0.02294558
     atom    4 type  1   force =    -0.00000547    0.00001309   -0.01953140
     atom    5 type  1   force =    -0.00000522    0.00052972   -0.00016207
     atom    6 type  1   force =     0.00001954    0.00000454    0.00675860
     atom    7 type  1   force =    -0.00046130   -0.00026193   -0.00013520
     atom    8 type  1   force =     0.00046884   -0.00027285   -0.00015822
     atom    9 type  1   force =    -0.00001696   -0.00001192    0.02350591
     atom   10 type  1   force =    -0.00000259   -0.01019476    0.03138975
     atom   11 type  1   force =    -0.00882656    0.00511517    0.03140285
     atom   12 type  1   force =     0.00882111    0.00509847    0.03139077
     atom   13 type  2   force =    -0.00000345    0.00000495   -0.03764097
     atom   14 type  3   force =    -0.00000133    0.00000177    0.00196816

     Total force =     0.072401     Total SCF correction =     0.001592

     entering subroutine stress ...

     negative rho (up, down):  6.329E-01 0.000E+00
          total   stress  (Ry/bohr**3)                   (kbar)     P=   16.30
   0.00013116   0.00000000  -0.00000000         19.29      0.00     -0.00
   0.00000000   0.00013116  -0.00000000          0.00     19.29     -0.00
  -0.00000000  -0.00000000   0.00007000         -0.00     -0.00     10.30

     BFGS Geometry Optimization

     number of scf cycles    =   1
     number of bfgs steps    =   0

     energy   new            =   -1774.0916125502 Ry

     new trust radius        =       0.0376409703 bohr
     new conv_thr            =       0.0000099958 Ry

ATOMIC_POSITIONS (crystal)
Tl1      0.166666667   0.166666667   0.392762956    0   0   0
Tl1      0.666666667   0.166666667   0.392762956    0   0   0
Tl1      0.166666667   0.666666667   0.392762956    0   0   0
Tl1      0.666666667   0.666666667   0.392762956    0   0   0
Tl1      0.833333333   0.333333333   0.500000000    0   0   0
Tl1      0.333333333   0.333333333   0.500000000    0   0   0
Tl1      0.833333333   0.833333333   0.500000000    0   0   0
Tl1      0.333333333   0.833333333   0.500000000    0   0   0
Tl1     -0.000000797  -0.000001089   0.607725593
Tl1      0.500465518  -0.000931445   0.607889452
Tl1     -0.000932072   0.500467348   0.607889724
Tl1      0.500465055   0.500465822   0.607889473
C1       0.333332834   0.333333785   0.662875108
H1       0.333333147   0.333333495   0.706902274

     Writing output data file calc.save
     Check: negative starting charge=   -0.604348
     NEW-OLD atomic charge density approx. for the potential

     Check: negative/imaginary core charge=   -0.000001    0.000000
     Check: negative starting charge=   -0.604887

[...]

     energy   old            =   -1774.0916125502 Ry
     energy   new            =   -1774.0958989324 Ry

     CASE: energy  _new < energy  _old

[...]

     iteration #  1     ecut=    36.75 Ry     beta=0.30
     Davidson diagonalization with overlap
     c_bands:  1 eigenvalues not converged
     ethr =  1.00E-06,  avg # of iterations =  7.8

[...]

     Threshold (ethr) on eigenvalues was too large:
     Diagonalizing with lowered threshold

     Davidson diagonalization with overlap
     ethr =  3.27E-08,  avg # of iterations =  2.0

[...]

     Total force =     0.006845     Total SCF correction =     0.000989
     SCF correction compared to forces is large: reduce conv_thr to get better values

[...]

     Total force =     0.003036     Total SCF correction =     0.000487
     SCF correction compared to forces is large: reduce conv_thr to get better values

[...]

     number of scf cycles    =  18
     number of bfgs steps    =  17

     energy   old            =   -1774.1238611076 Ry
     energy   new            =   -1774.1238914845 Ry

     CASE: energy  _new < energy  _old

     new trust radius        =       0.0259864026 bohr
     new conv_thr            =       0.0000001000 Ry

ATOMIC_POSITIONS (crystal)
Tl1      0.166666667   0.166666667   0.392762956    0   0   0
Tl1      0.666666667   0.166666667   0.392762956    0   0   0
Tl1      0.166666667   0.666666667   0.392762956    0   0   0
Tl1      0.666666667   0.666666667   0.392762956    0   0   0
Tl1      0.833333333   0.333333333   0.500000000    0   0   0
Tl1      0.333333333   0.333333333   0.500000000    0   0   0
Tl1      0.833333333   0.833333333   0.500000000    0   0   0
Tl1      0.333333333   0.833333333   0.500000000    0   0   0
Tl1     -0.000005241   0.000008919   0.625680202
Tl1      0.508564313  -0.017145655   0.618045954
Tl1     -0.017154372   0.508573557   0.618047875
Tl1      0.508565696   0.508575646   0.618044916
C1       0.333331387   0.333337039   0.661653888
H1       0.333335894   0.333331885   0.704938725

     Writing output data file calc.save
     Check: negative starting charge=   -0.603079
     NEW-OLD atomic charge density approx. for the potential

     Check: negative/imaginary core charge=   -0.000001    0.000000
     Check: negative starting charge=   -0.603697

[...]

     Self-consistent Calculation

[...]

     Threshold (ethr) on eigenvalues was too large:
     Diagonalizing with lowered threshold

     Davidson diagonalization with overlap
     ethr =  6.99E-08,  avg # of iterations =  1.1

[...]

     total energy              =   -1774.12391351 Ry
     Harris-Foulkes estimate   =   -1774.12391361 Ry
     estimated scf accuracy    <       0.00000011 Ry

     iteration #  8     ecut=    36.75 Ry     beta=0.30
     Davidson diagonalization with overlap
     ethr =  6.98E-11,  avg # of iterations =  3.5

[...]

     negative rho (up, down):  6.321E-01 0.000E+00

     Adding external electric field

     Computed dipole along edir(3) :
        Dipole               -0.0296 Ry au,         -0.0752 Debye
        Dipole field         -0.0001 Ry au

        Potential amp.        0.0052 Ry
        Total length         46.9108 bohr

     End of self-consistent calculation

[...]

          k = 0.0498-0.0576 0.0000 ( 25036 PWs)   bands (ev):

[...]

          k =-0.0748-0.0432 0.0000 ( 25090 PWs)   bands (ev):

   -11.4811 -10.9192 -10.8857 -10.8738 -10.7967 -10.7874 -10.7860 -10.7782
   -10.7722 -10.7663 -10.7521 -10.7289 -10.7269 -10.7150 -10.6998 -10.6965
   -10.6852 -10.6525 -10.6494 -10.6363 -10.6253 -10.6082 -10.5880 -10.5879
   -10.5839 -10.5746 -10.5195 -10.5165 -10.5058 -10.5036 -10.4949 -10.4820
   -10.4765 -10.4712 -10.4251 -10.4055 -10.3957 -10.3889 -10.3804 -10.3777
   -10.3599 -10.3526 -10.3488 -10.3457 -10.3328 -10.3327 -10.3215 -10.3138
   -10.3079 -10.3027 -10.2872 -10.2476 -10.2426 -10.2112 -10.2043 -10.1834
   -10.1604 -10.1161 -10.1097 -10.0411  -9.1800  -7.2779  -7.1833  -6.2937
    -5.8349  -4.7740  -4.7388  -4.6060  -4.5129  -4.0922  -4.0291  -2.7614
    -2.7445  -1.0049  -0.1421   0.7132   0.7803   0.8851   1.1985   1.3618
     1.4295   1.7812   2.1154   2.5291   2.6157   2.9188   3.1638   3.6122
     3.8287   3.9695

     the Fermi energy is     1.4308 ev

!    total energy              =   -1774.12391336 Ry
     Harris-Foulkes estimate   =   -1774.12391355 Ry
     estimated scf accuracy    <       0.00000001 Ry

     The total energy is the sum of the following terms:

     one-electron contribution =   -8532.11388946 Ry
     hartree contribution      =    4351.70496475 Ry
     xc contribution           =    -772.80003349 Ry
     ewald contribution        =    3179.12092252 Ry
     electric field correction =       0.00000165 Ry
     smearing contrib. (-TS)   =      -0.03587933 Ry

     convergence has been achieved in   8 iterations

 BEEF-vdW xc energy contributions
           1 :   -688.440677324484
           2 :    639.152330165099
           3 :   -552.470861953730
           4 :    447.384288117865
           5 :   -343.239384251632
           6 :    253.963979195810
           7 :   -185.287122367728
           8 :    135.444726683469
           9 :   -98.4866015884054
          10 :    68.3025580325321
          11 :   -41.4917137698901
          12 :    18.0091863105399
          13 :   0.181640669889248
          14 :   -11.2920998421832
          15 :    15.3458506525590
          16 :   -14.4689638761782
          17 :    11.8860723076824
          18 :   -10.3812857074336
          19 :    11.1370021610749
          20 :   -13.5406654771562
          21 :    15.9406313426781
          22 :   -16.8302960684866
          23 :    15.7523875951802
          24 :   -13.4565409580989
          25 :    11.3084728323904
          26 :   -10.3883462818861
          27 :    10.8432623144096
          28 :   -11.8620568797191
          29 :    12.2366778969381
          30 :   -11.1389859255214
          31 :   -55.4397395864235
          32 :   -40.5678260655897

     Forces acting on atoms (Ry/au):

     negative rho (up, down):  6.321E-01 0.000E+00
     atom    1 type  1   force =     0.00266923    0.00154117   -0.02181171
     atom    2 type  1   force =    -0.00266938    0.00154078   -0.02181078
     atom    3 type  1   force =    -0.00000049   -0.00308190   -0.02181092
     atom    4 type  1   force =     0.00000048    0.00000052   -0.02012131
     atom    5 type  1   force =     0.00000098   -0.00188502    0.02165638
     atom    6 type  1   force =    -0.00000098    0.00000048    0.02442313
     atom    7 type  1   force =     0.00163293    0.00094210    0.02165740
     atom    8 type  1   force =    -0.00163304    0.00094247    0.02165627
     atom    9 type  1   force =    -0.00000493   -0.00000535    0.00060969
     atom   10 type  1   force =     0.00000473   -0.00079788   -0.00121704
     atom   11 type  1   force =    -0.00068998    0.00040475   -0.00121845
     atom   12 type  1   force =     0.00069337    0.00040066   -0.00121922
     atom   13 type  2   force =    -0.00000328   -0.00000411   -0.00035250
     atom   14 type  3   force =     0.00000036    0.00000132   -0.00044094

     Total force =     0.002657     Total SCF correction =     0.000164

     entering subroutine stress ...

     negative rho (up, down):  6.321E-01 0.000E+00
          total   stress  (Ry/bohr**3)                   (kbar)     P=   11.78
   0.00011255   0.00000000  -0.00000000         16.56      0.00     -0.00
   0.00000000   0.00011255  -0.00000000          0.00     16.56     -0.00
  -0.00000000  -0.00000000   0.00001510         -0.00     -0.00      2.22

     bfgs converged in  19 scf cycles and  18 bfgs steps
     (criteria: energy <  1.0E+00, force <  1.9E-03)

     End of BFGS Geometry Optimization

     Final energy   =   -1774.1239133575 Ry
Begin final coordinates

ATOMIC_POSITIONS (crystal)
Tl1      0.166666667   0.166666667   0.392762956    0   0   0
Tl1      0.666666667   0.166666667   0.392762956    0   0   0
Tl1      0.166666667   0.666666667   0.392762956    0   0   0
Tl1      0.666666667   0.666666667   0.392762956    0   0   0
Tl1      0.833333333   0.333333333   0.500000000    0   0   0
Tl1      0.333333333   0.333333333   0.500000000    0   0   0
Tl1      0.833333333   0.833333333   0.500000000    0   0   0
Tl1      0.333333333   0.833333333   0.500000000    0   0   0
Tl1     -0.000005241   0.000008919   0.625680202
Tl1      0.508564313  -0.017145655   0.618045954
Tl1     -0.017154372   0.508573557   0.618047875
Tl1      0.508565696   0.508575646   0.618044916
C1       0.333331387   0.333337039   0.661653888
H1       0.333335894   0.333331885   0.704938725
End final coordinates

     Writing output data file calc.save

     General routines

     Parallel routines

   This run was terminated on:   7:10:10  24Apr2018

   JOB DONE.
Job  /afs/slac/g/suncat/bin/suncat-tsmpirun -x LD_LIBRARY_PATH -wdir /scratch/qe599874_UeXJt pw.x -npool 4 -in pw.inp

TID   HOST_NAME   COMMAND_LINE            STATUS            TERMINATION_TIME
00000 suncat0058 pw.x -npool 4 -i  Done                     04/24/2018 07:10:10
00001 suncat0058 pw.x -npool 4 -i  Done                     04/24/2018 07:10:10
00002 suncat0058 pw.x -npool 4 -i  Done                     04/24/2018 07:10:10
00003 suncat0058 pw.x -npool 4 -i  Done                     04/24/2018 07:10:10
00004 suncat0058 pw.x -npool 4 -i  Done                     04/24/2018 07:10:10
00005 suncat0058 pw.x -npool 4 -i  Done                     04/24/2018 07:10:10
00006 suncat0058 pw.x -npool 4 -i  Done                     04/24/2018 07:10:10
00007 suncat0058 pw.x -npool 4 -i  Done                     04/24/2018 07:10:10
00008 suncat0141 pw.x -npool 4 -i  Done                     04/24/2018 07:10:10
00009 suncat0141 pw.x -npool 4 -i  Done                     04/24/2018 07:10:10
00010 suncat0141 pw.x -npool 4 -i  Done                     04/24/2018 07:10:10
00011 suncat0141 pw.x -npool 4 -i  Done                     04/24/2018 07:10:10
00012 suncat0141 pw.x -npool 4 -i  Done                     04/24/2018 07:10:10
00013 suncat0141 pw.x -npool 4 -i  Done                     04/24/2018 07:10:10
00014 suncat0141 pw.x -npool 4 -i  Done                     04/24/2018 07:10:10
00015 suncat0141 pw.x -npool 4 -i  Done                     04/24/2018 07:10:10
00016 suncat0274 pw.x -npool 4 -i  Done                     04/24/2018 07:10:10
00017 suncat0274 pw.x -npool 4 -i  Done                     04/24/2018 07:10:10
00018 suncat0274 pw.x -npool 4 -i  Done                     04/24/2018 07:10:10
00019 suncat0274 pw.x -npool 4 -i  Done                     04/24/2018 07:10:10
00020 suncat0274 pw.x -npool 4 -i  Done                     04/24/2018 07:10:10
00021 suncat0274 pw.x -npool 4 -i  Done                     04/24/2018 07:10:10
00022 suncat0274 pw.x -npool 4 -i  Done                     04/24/2018 07:10:10
00023 suncat0274 pw.x -npool 4 -i  Done                     04/24/2018 07:10:10
00024 suncat0241 pw.x -npool 4 -i  Done                     04/24/2018 07:10:10
00025 suncat0241 pw.x -npool 4 -i  Done                     04/24/2018 07:10:10
00026 suncat0241 pw.x -npool 4 -i  Done                     04/24/2018 07:10:10
00027 suncat0241 pw.x -npool 4 -i  Done                     04/24/2018 07:10:10
00028 suncat0241 pw.x -npool 4 -i  Done                     04/24/2018 07:10:10
00029 suncat0241 pw.x -npool 4 -i  Done                     04/24/2018 07:10:10
00030 suncat0241 pw.x -npool 4 -i  Done                     04/24/2018 07:10:10
00031 suncat0241 pw.x -npool 4 -i  Done                     04/24/2018 07:10:10