     Program PWSCF v.5.1rc2 (svn rev. 11289) starts on  4May2018 at 11:23:46

     Current dimensions of program PWSCF are:
     Max number of different atomic species (ntypx) = 10
     Max number of k-points (npk) =  40000
     Max angular momentum in pseudopotentials (lmaxx) =  3
     Presently stress not available with electric field

     IMPORTANT: XC functional enforced from input :
     Exchange-correlation      = BEEF-VDW ( 1  4 27 13 2)
     Any further DFT definition will be discarded
     Please, verify this is what you really want

     Subspace diagonalization in iterative solution of the eigenvalue problem:
     a serial algorithm will be used

     bravais-lattice index     =            0
     lattice parameter (alat)  =       1.8897  a.u.
     unit-cell volume          =    5174.6160 (a.u.)^3
     number of atoms/cell      =           13
     number of atomic types    =            2
     number of electrons       =       234.00
     number of Kohn-Sham states=          127
     kinetic-energy cutoff     =      36.7493  Ry
     charge density cutoff     =     367.4932  Ry
     convergence threshold     =      1.0E-05
     mixing beta               =       0.3000
     number of iterations used =           10  plain     mixing
     Exchange-correlation      = BEEF-VDW ( 1  4 27 13 2)
     nstep                     =           50

     celldm(1)=   1.889726  celldm(2)=   0.000000  celldm(3)=   0.000000
     celldm(4)=   0.000000  celldm(5)=   0.000000  celldm(6)=   0.000000

     crystal axes: (cart. coord. in units of alat)
               a(1) = (   5.966546   0.000000   0.000000 )
               a(2) = (   2.983273   5.167181   0.000000 )
               a(3) = (   0.000000   0.000000  24.871665 )

     reciprocal axes: (cart. coord. in units 2 pi/alat)
               b(1) = (  0.167601 -0.096765  0.000000 )
               b(2) = (  0.000000  0.193529  0.000000 )
               b(3) = (  0.000000  0.000000  0.040206 )

     PseudoPot. # 1 for Ag read from file:
     /u/if/mamunm/psp/gbrv1.5pbe/Ag.UPF
     MD5 check sum: d66d668201baa78d5eb5b04ef7011058
     Pseudo is Ultrasoft + core correction, Zval = 19.0
     Generated by new atomic code, or converted to UPF format
     Using radial grid of  887 points,  6 beta functions with:
                l(1) =   0
                l(2) =   0
                l(3) =   1
                l(4) =   1
                l(5) =   2
                l(6) =   2
     Q(r) pseudized with  6 coefficients,  rinner =    1.300   1.300   1.300
                                                       1.300   1.300

     PseudoPot. # 2 for S  read from file:
     /u/if/mamunm/psp/gbrv1.5pbe/S.UPF
     MD5 check sum: 88d86576ff6df21479756cfb9bdac1df
     Pseudo is Ultrasoft + core correction, Zval =  6.0
     Generated by new atomic code, or converted to UPF format
     Using radial grid of  907 points,  6 beta functions with:
                l(1) =   0
                l(2) =   0
                l(3) =   1
                l(4) =   1
                l(5) =   2
                l(6) =   2
     Q(r) pseudized with  8 coefficients,  rinner =    1.300   1.300   1.300
                                                       1.300   1.300

     vdW kernel table read from file vdW_kernel_table
     MD5 check sum: 095c7af220d748ca6e76c0b4c6cfb241

     atomic species   valence    mass     pseudopotential
        Ag1           19.00   107.86820     Ag( 1.00)
        S1             6.00    32.06000     S ( 1.00)

     No symmetry found

   Cartesian axes

     site n.     atom                  positions (alat units)
         1           Ag1 tau(   1) = (   1.4916366   0.8611968  10.0000000  )
         2           Ag1 tau(   2) = (   4.4749098   0.8611968  10.0000000  )
         3           Ag1 tau(   3) = (   2.9832732   3.4447871  10.0000000  )
         4           Ag1 tau(   4) = (   5.9665464   3.4447871  10.0000000  )
         5           Ag1 tau(   5) = (   5.9665464   1.7223936  12.4358324  )
         6           Ag1 tau(   6) = (   2.9832732   1.7223936  12.4358324  )
         7           Ag1 tau(   7) = (   7.4581830   4.3059839  12.4358324  )
         8           Ag1 tau(   8) = (   4.4749098   4.3059839  12.4358324  )
         9           Ag1 tau(   9) = (   0.0000000   0.0000000  14.8716647  )
        10           Ag1 tau(  10) = (   2.9832732   0.0000000  14.8716647  )
        11           Ag1 tau(  11) = (   1.4916366   2.5835904  14.8716647  )
        12           Ag1 tau(  12) = (   4.4749098   2.5835904  14.8716647  )
        13           S1  tau(  13) = (   1.4916366   0.8611968  16.4966647  )

     number of k points=    20  Fermi-Dirac smearing, width (Ry)=  0.0110
                       cart. coord. in units 2pi/alat
        k(    1) = (   0.0000000   0.0000000   0.0000000), wk =   0.0555556
        k(    2) = (   0.0000000   0.0322549   0.0000000), wk =   0.1111111
        k(    3) = (   0.0000000   0.0645097   0.0000000), wk =   0.1111111
        k(    4) = (   0.0000000  -0.0967646   0.0000000), wk =   0.0555556
        k(    5) = (   0.0279335  -0.0161274   0.0000000), wk =   0.1111111
        k(    6) = (   0.0279335   0.0161274   0.0000000), wk =   0.1111111
        k(    7) = (   0.0279335   0.0483823   0.0000000), wk =   0.1111111
        k(    8) = (   0.0279335  -0.1128920   0.0000000), wk =   0.1111111
        k(    9) = (   0.0279335  -0.0806371   0.0000000), wk =   0.1111111
        k(   10) = (   0.0279335  -0.0483823   0.0000000), wk =   0.1111111
        k(   11) = (   0.0558670  -0.0322549   0.0000000), wk =   0.1111111
        k(   12) = (   0.0558670   0.0000000   0.0000000), wk =   0.1111111
        k(   13) = (   0.0558670   0.0322549   0.0000000), wk =   0.1111111
        k(   14) = (   0.0558670  -0.1290194   0.0000000), wk =   0.1111111
        k(   15) = (   0.0558670  -0.0967646   0.0000000), wk =   0.1111111
        k(   16) = (   0.0558670  -0.0645097   0.0000000), wk =   0.1111111
        k(   17) = (  -0.0838006   0.0483823   0.0000000), wk =   0.0555556
        k(   18) = (  -0.0838006   0.0806371   0.0000000), wk =   0.1111111
        k(   19) = (  -0.0838006   0.1128920   0.0000000), wk =   0.1111111
        k(   20) = (  -0.0838006  -0.0483823   0.0000000), wk =   0.0555556

     Largest allocated arrays     est. size (Mb)     dimensions
     Largest temporary arrays     est. size (Mb)     dimensions

     Initial potential from superposition of free atoms
     Check: negative starting charge=   -0.002111

     starting charge  227.99940, renormalised to  234.00000

     negative rho (up, down):  2.167E-03 0.000E+00

     *
     * You are using vdW-DF for exchange-correlation in this calculation.
     * Please cite the following three references that made this development
     * possible:
     *
     *   M. Dion, H. Rydberg, E. Schroder, D. C. Langreth, and
     *   B. I. Lundqvist, Phys. Rev. Lett. 92, 246401 (2004).
     *
     *   T. Thonhauser, V. R. Cooper, S. Li, A. Puzder, P. Hyldgaard, and
     *   D. C. Langreth, Phys. Rev. B 76, 125112 (2007).
     *
     *   G. Roman-Perez and J. M. Soler, Phys. Rev. Lett. 103, 096102 (2009).
     *
     *
     * If you are using vdW-DF2, please also cite:
     *
     *   K. Lee, E. D. Murray, L. Kong, B. I. Lundqvist, and
     *   D. C. Langreth, Phys. Rev. B 82, 081101(R) (2010).
     *
     *
     * If you are calculating the stress with vdW-DF, please also cite:
     *
     *   R. Sabatini, E. Kucukbenli, B. Kolb, T. Thonhauser, and
     *   S. de Gironcoli, J. Phys.: Condens. Matter 24, 424209 (2012).
     *

     Carrying out vdW-DF run using the following parameters:

     Nqs =      20    Nr_points =    1024   r_max =   100.000
     q_mesh =
               0.00001000     0.04494208     0.09755937     0.15916263
               0.23128650     0.31572767     0.41458969     0.53033537
               0.66584808     0.82450364     1.01025438     1.22772762
               1.48234092     1.78043706     2.12944203     2.53805004
               3.01644009     3.57652955     4.23227104     5.00000000

     Gradients computed in reciprocal space

     Adding external electric field

     Computed dipole along edir(3) :
        Dipole               -1.2115 Ry au,         -3.0793 Debye
        Dipole field         -0.0029 Ry au

        Potential amp.        0.2696 Ry
        Total length         45.8256 bohr

     Starting wfc are  160 randomized atomic wfcs

     Self-consistent Calculation

     iteration #  1     ecut=    36.75 Ry     beta=0.30
     Davidson diagonalization with overlap
     ethr =  1.00E-02,  avg # of iterations =  5.2

[...]

     total energy              =   -3572.20825312 Ry
     Harris-Foulkes estimate   =   -3587.38343397 Ry
     estimated scf accuracy    <      32.70340481 Ry

[...]

     End of self-consistent calculation

          k = 0.0000 0.0000 0.0000 ( 19435 PWs)   bands (ev):

   -90.9844 -90.9633 -90.9580 -90.9580 -90.9427 -90.9377 -90.9377 -90.7891
   -90.7885 -90.7450 -90.7400 -90.7399 -54.5338 -54.5059 -54.5059 -54.4862
   -54.4856 -54.4856 -54.4722 -54.4636 -54.4636 -54.4520 -54.4372 -54.4351
   -54.4351 -54.4286 -54.4286 -54.4153 -54.4130 -54.4050 -54.4050 -54.3995
   -54.3995 -54.3154 -54.3154 -54.2952 -54.2952 -54.2868 -54.2692 -54.2611
   -54.2462 -54.2462 -54.2316 -54.2198 -54.2144 -54.2144 -54.2129 -54.2129
   -11.5189  -5.3693  -4.8792  -4.7724  -4.7724  -4.7089  -4.6665  -4.6665
    -4.6327  -4.5520  -4.5369  -4.5126  -4.5126  -4.3762  -4.3762  -4.3583
    -4.0075  -4.0075  -3.7828  -3.6443  -3.6443  -3.6271  -3.6092  -3.6092
    -3.5573  -3.5239  -3.5239  -3.3856  -3.3856  -3.3457  -3.2906  -3.2906
    -3.1209  -3.1209  -2.8139  -2.7955  -2.7955  -2.7426  -2.7218  -2.7218
    -2.6849  -2.5504  -2.5314  -2.5314  -2.4938  -2.4938  -2.2707  -2.2707
    -2.2325  -2.1877  -2.1877  -2.1661  -2.1661  -2.1513  -2.0688  -2.0530
    -2.0530  -1.9999  -1.9999  -1.9972  -1.8592  -1.8592  -1.8415  -0.5416
    -0.2073  -0.2073   0.3745   1.6213   1.6213   1.6973   2.0249   2.3941
     2.3941   2.5996   2.8676   2.8676   3.7998   4.7876   4.7876

[...]

          k =-0.0838 0.0484 0.0000 ( 19500 PWs)   bands (ev):

[...]

     the Fermi energy is     1.0948 ev

!    total energy              =   -3584.25502504 Ry
     Harris-Foulkes estimate   =   -3584.25502578 Ry
     estimated scf accuracy    <       0.00000120 Ry

     The total energy is the sum of the following terms:

     one-electron contribution =  -26224.39298135 Ry
     hartree contribution      =   13103.70909273 Ry
     xc contribution           =    -369.81853256 Ry
     ewald contribution        =    9906.27160998 Ry
     electric field correction =       0.00026774 Ry
     smearing contrib. (-TS)   =      -0.02448158 Ry

     convergence has been achieved in  15 iterations

 BEEF-vdW xc energy contributions
           1 :   -320.327426736772
           2 :    289.877438402756
           3 :   -239.043652953714
           4 :    183.106342218591
           5 :   -135.984296666000
           6 :    105.246232709800
           7 :   -90.6794373834935
           8 :    86.4400393617459
           9 :   -85.1506392611786
          10 :    81.6238790055580
          11 :   -74.5080176603691
          12 :    65.5292689662027
          13 :   -57.3539661786359
          14 :    51.6162680648309
          15 :   -48.1985958981894
          16 :    45.8339244566752
          17 :   -43.2852811317596
          18 :    40.1730374680057
          19 :   -36.9771016139666
          20 :    34.4019118665154
          21 :   -32.7020743636800
          22 :    31.4786772885120
          23 :   -30.0343268706014
          24 :    27.9492424616823
          25 :   -25.4196495822538
          26 :    23.1157935384598
          27 :   -21.6898745173061
          28 :    21.3068736460970
          29 :   -21.5351463099709
          30 :    21.6564140504488
          31 :   -32.0924733879351
          32 :   -23.3217119724533

     Forces acting on atoms (Ry/au):

     negative rho (up, down):  2.085E-03 0.000E+00
     atom    1 type  1   force =    -0.00000031   -0.00000068    0.00375979
     atom    2 type  1   force =     0.00000036    0.00021950   -0.00174611
     atom    3 type  1   force =     0.00019082   -0.00010941   -0.00174738
     atom    4 type  1   force =    -0.00019101   -0.00010922   -0.00174431
     atom    5 type  1   force =    -0.00147492    0.00084839   -0.00179148
     atom    6 type  1   force =     0.00147484    0.00084957   -0.00179269
     atom    7 type  1   force =     0.00000075    0.00000267    0.01221506
     atom    8 type  1   force =    -0.00000103   -0.00170093   -0.00179122
     atom    9 type  1   force =    -0.03313191   -0.01912829   -0.01779858
     atom   10 type  1   force =     0.03313211   -0.01912852   -0.01779845
     atom   11 type  1   force =    -0.00000007    0.03825757   -0.01779767
     atom   12 type  1   force =     0.00000030   -0.00000053   -0.00643346
     atom   13 type  2   force =     0.00000007   -0.00000012    0.05446649

     Total force =     0.091374     Total SCF correction =     0.001948

     entering subroutine stress ...

     negative rho (up, down):  2.085E-03 0.000E+00
          total   stress  (Ry/bohr**3)                   (kbar)     P=   -0.71
  -0.00001515  -0.00000000   0.00000000         -2.23     -0.00      0.00
  -0.00000000  -0.00001515  -0.00000000         -0.00     -2.23     -0.00
   0.00000000  -0.00000000   0.00001592          0.00     -0.00      2.34

     BFGS Geometry Optimization

     number of scf cycles    =   1
     number of bfgs steps    =   0

     energy   new            =   -3584.2550250414 Ry

     new trust radius        =       0.0544664857 bohr
     new conv_thr            =       0.0000099958 Ry

ATOMIC_POSITIONS (crystal)
Ag1      0.166666667   0.166666667   0.402063960    0   0   0
Ag1      0.666666667   0.166666667   0.402063960    0   0   0
Ag1      0.166666667   0.666666667   0.402063960    0   0   0
Ag1      0.666666667   0.666666667   0.402063960    0   0   0
Ag1      0.833333333   0.333333333   0.500000000    0   0   0
Ag1      0.333333333   0.333333333   0.500000000    0   0   0
Ag1      0.833333333   0.833333333   0.500000000    0   0   0
Ag1      0.333333333   0.833333333   0.500000000    0   0   0
Ag1     -0.001959017  -0.001958951   0.597557352
Ag1      0.503917998  -0.001958975   0.597557355
Ag1     -0.001959008   0.503918004   0.597557371
Ag1      0.500000053   0.499999946   0.597799160
S1       0.166666679   0.166666654   0.664430279

     Writing output data file calc.save
     Check: negative starting charge=   -0.002111
     NEW-OLD atomic charge density approx. for the potential
     Check: negative starting charge=   -0.002109

[...]

     energy   old            =   -3584.2550250414 Ry
     energy   new            =   -3584.2615571707 Ry

     CASE: energy  _new < energy  _old

[...]

     Threshold (ethr) on eigenvalues was too large:
     Diagonalizing with lowered threshold

     Davidson diagonalization with overlap
     ethr =  1.35E-08,  avg # of iterations =  2.0

[...]

     Total force =     0.006290     Total SCF correction =     0.000607

[...]

     Total force =     0.006052     Total SCF correction =     0.001189
     SCF correction compared to forces is large: reduce conv_thr to get better values

[...]

     number of scf cycles    =   7
     number of bfgs steps    =   6

     energy   old            =   -3584.2656205900 Ry
     energy   new            =   -3584.2657091344 Ry

     CASE: energy  _new < energy  _old

     new trust radius        =       0.0173931390 bohr
     new conv_thr            =       0.0000001000 Ry

ATOMIC_POSITIONS (crystal)
Ag1      0.166666667   0.166666667   0.402063960    0   0   0
Ag1      0.666666667   0.166666667   0.402063960    0   0   0
Ag1      0.166666667   0.666666667   0.402063960    0   0   0
Ag1      0.666666667   0.666666667   0.402063960    0   0   0
Ag1      0.833333333   0.333333333   0.500000000    0   0   0
Ag1      0.333333333   0.333333333   0.500000000    0   0   0
Ag1      0.833333333   0.833333333   0.500000000    0   0   0
Ag1      0.333333333   0.833333333   0.500000000    0   0   0
Ag1     -0.006917451  -0.006917494   0.597707213
Ag1      0.513834972  -0.006917495   0.597707206
Ag1     -0.006917462   0.513834951   0.597707234
Ag1      0.499999956   0.500000049   0.596270479
S1       0.166666711   0.166666593   0.665684832

     Writing output data file calc.save
     Check: negative starting charge=   -0.002146
     NEW-OLD atomic charge density approx. for the potential
     Check: negative starting charge=   -0.002150

[...]

     Self-consistent Calculation

[...]

     Threshold (ethr) on eigenvalues was too large:
     Diagonalizing with lowered threshold

     Davidson diagonalization with overlap
     ethr =  7.74E-08,  avg # of iterations =  1.0

[...]

     total energy              =   -3584.26575893 Ry
     Harris-Foulkes estimate   =   -3584.26575892 Ry
     estimated scf accuracy    <       0.00000046 Ry

     iteration #  6     ecut=    36.75 Ry     beta=0.30
     Davidson diagonalization with overlap
     ethr =  1.95E-10,  avg # of iterations =  2.0

[...]

     negative rho (up, down):  2.127E-03 0.000E+00

     Adding external electric field

     Computed dipole along edir(3) :
        Dipole               -0.3875 Ry au,         -0.9848 Debye
        Dipole field         -0.0009 Ry au

        Potential amp.        0.0862 Ry
        Total length         45.8256 bohr

     End of self-consistent calculation

[...]

          k = 0.0559-0.0645 0.0000 ( 19479 PWs)   bands (ev):

[...]

          k =-0.0838-0.0484 0.0000 ( 19500 PWs)   bands (ev):

   -91.0713 -91.0131 -91.0113 -91.0096 -90.9068 -90.9029 -90.9016 -90.8632
   -90.8453 -90.8168 -90.8150 -90.8133 -54.5751 -54.5672 -54.5636 -54.5400
   -54.5137 -54.5130 -54.5103 -54.5102 -54.5076 -54.5058 -54.4942 -54.4819
   -54.4445 -54.4238 -54.4229 -54.4021 -54.4007 -54.3865 -54.3806 -54.3724
   -54.3683 -54.3633 -54.3578 -54.3572 -54.3466 -54.3445 -54.3366 -54.3273
   -54.3232 -54.3191 -54.3178 -54.3092 -54.2920 -54.2911 -54.2901 -54.2884
   -11.0783  -4.6261  -4.5195  -4.4778  -4.3668  -4.3659  -4.3229  -4.2736
    -4.2144  -4.1599  -4.1286  -4.1093  -4.0958  -4.0533  -4.0292  -3.9380
    -3.9315  -3.7926  -3.7316  -3.7303  -3.6914  -3.6744  -3.6374  -3.6046
    -3.6043  -3.5475  -3.4769  -3.3878  -3.3541  -3.2937  -3.2896  -3.2493
    -3.2347  -3.1439  -3.1131  -3.0900  -3.0538  -3.0363  -3.0094  -2.9868
    -2.9671  -2.9169  -2.8652  -2.8432  -2.8278  -2.7976  -2.7770  -2.7694
    -2.7291  -2.6905  -2.6854  -2.6739  -2.6560  -2.5360  -2.5208  -2.4599
    -2.4552  -2.2816  -2.2213  -2.2061  -2.1909  -2.1226  -2.0499  -1.5869
    -1.3372  -0.3267  -0.2618   0.2983   0.8892   0.9199   1.7374   2.0575
     2.5092   3.0548   4.0640   4.4617   4.8748   5.5473   6.1025

     the Fermi energy is     1.0223 ev

!    total energy              =   -3584.26575897 Ry
     Harris-Foulkes estimate   =   -3584.26575846 Ry
     estimated scf accuracy    <       0.00000004 Ry

     The total energy is the sum of the following terms:

     one-electron contribution =  -26248.14621423 Ry
     hartree contribution      =   13115.31070369 Ry
     xc contribution           =    -369.77490663 Ry
     ewald contribution        =    9918.36883020 Ry
     electric field correction =       0.00036457 Ry
     smearing contrib. (-TS)   =      -0.02453658 Ry

     convergence has been achieved in   6 iterations

 BEEF-vdW xc energy contributions
           1 :   -320.280086485471
           2 :    289.801824844566
           3 :   -238.930041121818
           4 :    182.967920798252
           5 :   -135.847936686216
           6 :    105.137224016556
           7 :   -90.6096580398924
           8 :    86.4054363824798
           9 :   -85.1375531005925
          10 :    81.6195282453556
          11 :   -74.5091058866826
          12 :    65.5434679166564
          13 :   -57.3937507406371
          14 :    51.6888844190453
          15 :   -48.2983796908586
          16 :    45.9412981361172
          17 :   -43.3729484086016
          18 :    40.2172893805530
          19 :   -36.9687020601618
          20 :    34.3506034398810
          21 :   -32.6322840888964
          22 :    31.4181196120348
          23 :   -30.0007401405775
          24 :    27.9424014483711
          25 :   -25.4238093456665
          26 :    23.1114507967224
          27 :   -21.6684766346049
          28 :    21.2793205664860
          29 :   -21.5275291836633
          30 :    21.6942754179831
          31 :   -32.0891212859647
          32 :   -23.3109487610154

     Forces acting on atoms (Ry/au):

     negative rho (up, down):  2.127E-03 0.000E+00
     atom    1 type  1   force =     0.00000000    0.00000000    0.00378143
     atom    2 type  1   force =    -0.00000000    0.00023713   -0.00198112
     atom    3 type  1   force =     0.00020536   -0.00011857   -0.00198111
     atom    4 type  1   force =    -0.00020536   -0.00011857   -0.00198111
     atom    5 type  1   force =    -0.00022776    0.00013151   -0.00152041
     atom    6 type  1   force =     0.00022776    0.00013151   -0.00152042
     atom    7 type  1   force =     0.00000000   -0.00000002    0.00628364
     atom    8 type  1   force =     0.00000000   -0.00026300   -0.00152044
     atom    9 type  1   force =     0.00130641    0.00075429    0.00041402
     atom   10 type  1   force =    -0.00130643    0.00075429    0.00041404
     atom   11 type  1   force =    -0.00000002   -0.00150854    0.00041401
     atom   12 type  1   force =     0.00000002   -0.00000004   -0.00145221
     atom   13 type  2   force =     0.00000002    0.00000000    0.00064968

     Total force =     0.003142     Total SCF correction =     0.000754
     SCF correction compared to forces is large: reduce conv_thr to get better values

     entering subroutine stress ...

     negative rho (up, down):  2.127E-03 0.000E+00
          total   stress  (Ry/bohr**3)                   (kbar)     P=   -4.09
  -0.00003242   0.00000000   0.00000000         -4.77      0.00      0.00
   0.00000000  -0.00003242  -0.00000000          0.00     -4.77     -0.00
   0.00000000  -0.00000000  -0.00001866          0.00     -0.00     -2.74

     bfgs converged in   8 scf cycles and   7 bfgs steps
     (criteria: energy <  1.0E+00, force <  1.9E-03)

     End of BFGS Geometry Optimization

     Final energy   =   -3584.2657589737 Ry
Begin final coordinates

ATOMIC_POSITIONS (crystal)
Ag1      0.166666667   0.166666667   0.402063960    0   0   0
Ag1      0.666666667   0.166666667   0.402063960    0   0   0
Ag1      0.166666667   0.666666667   0.402063960    0   0   0
Ag1      0.666666667   0.666666667   0.402063960    0   0   0
Ag1      0.833333333   0.333333333   0.500000000    0   0   0
Ag1      0.333333333   0.333333333   0.500000000    0   0   0
Ag1      0.833333333   0.833333333   0.500000000    0   0   0
Ag1      0.333333333   0.833333333   0.500000000    0   0   0
Ag1     -0.006917451  -0.006917494   0.597707213
Ag1      0.513834972  -0.006917495   0.597707206
Ag1     -0.006917462   0.513834951   0.597707234
Ag1      0.499999956   0.500000049   0.596270479
S1       0.166666711   0.166666593   0.665684832
End final coordinates

     Writing output data file calc.save

     General routines

     Parallel routines

   This run was terminated on:  12:10:44   4May2018

   JOB DONE.
Job  /afs/slac/g/suncat/bin/suncat-tsmpirun -x LD_LIBRARY_PATH -wdir /scratch/qe939758_Vux9J pw.x -npool 4 -in pw.inp

TID   HOST_NAME   COMMAND_LINE            STATUS            TERMINATION_TIME
00000 suncat0095 pw.x -npool 4 -i  Done                     05/04/2018 12:10:44
00001 suncat0095 pw.x -npool 4 -i  Done                     05/04/2018 12:10:44
00002 suncat0095 pw.x -npool 4 -i  Done                     05/04/2018 12:10:44
00003 suncat0095 pw.x -npool 4 -i  Done                     05/04/2018 12:10:44
00004 suncat0095 pw.x -npool 4 -i  Done                     05/04/2018 12:10:44
00005 suncat0095 pw.x -npool 4 -i  Done                     05/04/2018 12:10:44
00006 suncat0095 pw.x -npool 4 -i  Done                     05/04/2018 12:10:44
00007 suncat0095 pw.x -npool 4 -i  Done                     05/04/2018 12:10:44
00008 suncat0084 pw.x -npool 4 -i  Done                     05/04/2018 12:10:44
00009 suncat0084 pw.x -npool 4 -i  Done                     05/04/2018 12:10:44
00010 suncat0084 pw.x -npool 4 -i  Done                     05/04/2018 12:10:44
00011 suncat0084 pw.x -npool 4 -i  Done                     05/04/2018 12:10:44
00012 suncat0084 pw.x -npool 4 -i  Done                     05/04/2018 12:10:44
00013 suncat0084 pw.x -npool 4 -i  Done                     05/04/2018 12:10:44
00014 suncat0084 pw.x -npool 4 -i  Done                     05/04/2018 12:10:44
00015 suncat0084 pw.x -npool 4 -i  Done                     05/04/2018 12:10:44
00016 suncat0071 pw.x -npool 4 -i  Done                     05/04/2018 12:10:44
00017 suncat0071 pw.x -npool 4 -i  Done                     05/04/2018 12:10:44
00018 suncat0071 pw.x -npool 4 -i  Done                     05/04/2018 12:10:44
00019 suncat0071 pw.x -npool 4 -i  Done                     05/04/2018 12:10:44
00020 suncat0071 pw.x -npool 4 -i  Done                     05/04/2018 12:10:44
00021 suncat0071 pw.x -npool 4 -i  Done                     05/04/2018 12:10:44
00022 suncat0071 pw.x -npool 4 -i  Done                     05/04/2018 12:10:44
00023 suncat0071 pw.x -npool 4 -i  Done                     05/04/2018 12:10:44
00024 suncat0140 pw.x -npool 4 -i  Done                     05/04/2018 12:10:44
00025 suncat0140 pw.x -npool 4 -i  Done                     05/04/2018 12:10:44
00026 suncat0140 pw.x -npool 4 -i  Done                     05/04/2018 12:10:44
00027 suncat0140 pw.x -npool 4 -i  Done                     05/04/2018 12:10:44
00028 suncat0140 pw.x -npool 4 -i  Done                     05/04/2018 12:10:44
00029 suncat0140 pw.x -npool 4 -i  Done                     05/04/2018 12:10:44
00030 suncat0140 pw.x -npool 4 -i  Done                     05/04/2018 12:10:44
00031 suncat0140 pw.x -npool 4 -i  Done                     05/04/2018 12:10:44