     Program PWSCF v.5.1rc2 (svn rev. 11289) starts on 17Jan2018 at 14: 3: 4

     Current dimensions of program PWSCF are:
     Max number of different atomic species (ntypx) = 10
     Max number of k-points (npk) =  40000
     Max angular momentum in pseudopotentials (lmaxx) =  3
     Presently stress not available with electric field

     IMPORTANT: XC functional enforced from input :
     Exchange-correlation      = BEEF-VDW ( 1  4 27 13 2)
     Any further DFT definition will be discarded
     Please, verify this is what you really want

     Subspace diagonalization in iterative solution of the eigenvalue problem:
     a serial algorithm will be used

     bravais-lattice index     =            0
     lattice parameter (alat)  =       1.8897  a.u.
     unit-cell volume          =    4204.8134 (a.u.)^3
     number of atoms/cell      =           13
     number of atomic types    =            2
     number of electrons       =       185.00
     number of Kohn-Sham states=          102
     kinetic-energy cutoff     =      36.7493  Ry
     charge density cutoff     =     367.4932  Ry
     convergence threshold     =      1.0E-05
     mixing beta               =       0.3000
     number of iterations used =           10  plain     mixing
     Exchange-correlation      = BEEF-VDW ( 1  4 27 13 2)
     nstep                     =           50

     celldm(1)=   1.889726  celldm(2)=   0.000000  celldm(3)=   0.000000
     celldm(4)=   0.000000  celldm(5)=   0.000000  celldm(6)=   0.000000

     crystal axes: (cart. coord. in units of alat)
               a(1) = (   5.426750   0.000000   0.000000 )
               a(2) = (   2.713375   4.699703   0.000000 )
               a(3) = (   0.000000   0.000000  24.430923 )

     reciprocal axes: (cart. coord. in units 2 pi/alat)
               b(1) = (  0.184272 -0.106390  0.000000 )
               b(2) = (  0.000000  0.212779  0.000000 )
               b(3) = (  0.000000  0.000000  0.040932 )

     PseudoPot. # 1 for Rh read from file:
     /afs/slac.stanford.edu/u/if/mamunm/psp/gbrv1.5pbe/Rh.UPF
     MD5 check sum: 761627e959a2e3a1f56b0b5fe687810e
     Pseudo is Ultrasoft + core correction, Zval = 15.0
     Generated by new atomic code, or converted to UPF format
     Using radial grid of  969 points,  7 beta functions with:
                l(1) =   0
                l(2) =   0
                l(3) =   1
                l(4) =   1
                l(5) =   2
                l(6) =   2
                l(7) =   2
     Q(r) pseudized with  8 coefficients,  rinner =    1.200   1.200   1.200
                                                       1.200   1.200

     PseudoPot. # 2 for N  read from file:
     /afs/slac.stanford.edu/u/if/mamunm/psp/gbrv1.5pbe/N.UPF
     MD5 check sum: 95339753478d7afb44899504a8723017
     Pseudo is Ultrasoft + core correction, Zval =  5.0
     Generated by new atomic code, or converted to UPF format
     Using radial grid of  729 points,  4 beta functions with:
                l(1) =   0
                l(2) =   0
                l(3) =   1
                l(4) =   1
     Q(r) pseudized with  8 coefficients,  rinner =    0.900   0.900   0.900

     vdW kernel table read from file vdW_kernel_table
     MD5 check sum: 095c7af220d748ca6e76c0b4c6cfb241

     atomic species   valence    mass     pseudopotential
        Rh1           15.00   102.90550     Rh( 1.00)
        N1             5.00    14.00700     N ( 1.00)

     No symmetry found

   Cartesian axes

     site n.     atom                  positions (alat units)
         1           Rh1 tau(   1) = (   1.3566875   0.7832839  10.0000000  )
         2           Rh1 tau(   2) = (   4.0700625   0.7832839  10.0000000  )
         3           Rh1 tau(   3) = (   2.7133750   3.1331356  10.0000000  )
         4           Rh1 tau(   4) = (   5.4267500   3.1331356  10.0000000  )
         5           Rh1 tau(   5) = (   5.4267500   1.5665678  12.2154614  )
         6           Rh1 tau(   6) = (   2.7133750   1.5665678  12.2154614  )
         7           Rh1 tau(   7) = (   6.7834375   3.9164194  12.2154614  )
         8           Rh1 tau(   8) = (   4.0700625   3.9164194  12.2154614  )
         9           Rh1 tau(   9) = (   0.0000000   0.0000000  14.4309228  )
        10           Rh1 tau(  10) = (   2.7133750   0.0000000  14.4309228  )
        11           Rh1 tau(  11) = (   1.3566875   2.3498517  14.4309228  )
        12           Rh1 tau(  12) = (   4.0700625   2.3498517  14.4309228  )
        13           N1  tau(  13) = (   1.3566875   0.0000000  16.5609228  )

     number of k points=    20  Fermi-Dirac smearing, width (Ry)=  0.0110
                       cart. coord. in units 2pi/alat
        k(    1) = (   0.0000000   0.0000000   0.0000000), wk =   0.0555556
        k(    2) = (   0.0000000   0.0354632   0.0000000), wk =   0.1111111
        k(    3) = (   0.0000000   0.0709265   0.0000000), wk =   0.1111111
        k(    4) = (   0.0000000  -0.1063897   0.0000000), wk =   0.0555556
        k(    5) = (   0.0307121  -0.0177316   0.0000000), wk =   0.1111111
        k(    6) = (   0.0307121   0.0177316   0.0000000), wk =   0.1111111
        k(    7) = (   0.0307121   0.0531948   0.0000000), wk =   0.1111111
        k(    8) = (   0.0307121  -0.1241213   0.0000000), wk =   0.1111111
        k(    9) = (   0.0307121  -0.0886581   0.0000000), wk =   0.1111111
        k(   10) = (   0.0307121  -0.0531948   0.0000000), wk =   0.1111111
        k(   11) = (   0.0614241  -0.0354632   0.0000000), wk =   0.1111111
        k(   12) = (   0.0614241   0.0000000   0.0000000), wk =   0.1111111
        k(   13) = (   0.0614241   0.0354632   0.0000000), wk =   0.1111111
        k(   14) = (   0.0614241  -0.1418529   0.0000000), wk =   0.1111111
        k(   15) = (   0.0614241  -0.1063897   0.0000000), wk =   0.1111111
        k(   16) = (   0.0614241  -0.0709265   0.0000000), wk =   0.1111111
        k(   17) = (  -0.0921362   0.0531948   0.0000000), wk =   0.0555556
        k(   18) = (  -0.0921362   0.0886581   0.0000000), wk =   0.1111111
        k(   19) = (  -0.0921362   0.1241213   0.0000000), wk =   0.1111111
        k(   20) = (  -0.0921362  -0.0531948   0.0000000), wk =   0.0555556

     Largest allocated arrays     est. size (Mb)     dimensions
     Largest temporary arrays     est. size (Mb)     dimensions

     Initial potential from superposition of free atoms
     Check: negative starting charge=   -0.652801

     starting charge  178.99881, renormalised to  185.00000

     negative rho (up, down):  6.747E-01 0.000E+00

     *
     * You are using vdW-DF for exchange-correlation in this calculation.
     * Please cite the following three references that made this development
     * possible:
     *
     *   M. Dion, H. Rydberg, E. Schroder, D. C. Langreth, and
     *   B. I. Lundqvist, Phys. Rev. Lett. 92, 246401 (2004).
     *
     *   T. Thonhauser, V. R. Cooper, S. Li, A. Puzder, P. Hyldgaard, and
     *   D. C. Langreth, Phys. Rev. B 76, 125112 (2007).
     *
     *   G. Roman-Perez and J. M. Soler, Phys. Rev. Lett. 103, 096102 (2009).
     *
     *
     * If you are using vdW-DF2, please also cite:
     *
     *   K. Lee, E. D. Murray, L. Kong, B. I. Lundqvist, and
     *   D. C. Langreth, Phys. Rev. B 82, 081101(R) (2010).
     *
     *
     * If you are calculating the stress with vdW-DF, please also cite:
     *
     *   R. Sabatini, E. Kucukbenli, B. Kolb, T. Thonhauser, and
     *   S. de Gironcoli, J. Phys.: Condens. Matter 24, 424209 (2012).
     *

     Carrying out vdW-DF run using the following parameters:

     Nqs =      20    Nr_points =    1024   r_max =   100.000
     q_mesh =
               0.00001000     0.04494208     0.09755937     0.15916263
               0.23128650     0.31572767     0.41458969     0.53033537
               0.66584808     0.82450364     1.01025438     1.22772762
               1.48234092     1.78043706     2.12944203     2.53805004
               3.01644009     3.57652955     4.23227104     5.00000000

     Gradients computed in reciprocal space

     Adding external electric field

     Computed dipole along edir(3) :
        Dipole               -1.3765 Ry au,         -3.4987 Debye
        Dipole field         -0.0041 Ry au

        Potential amp.        0.3703 Ry
        Total length         45.0136 bohr

     Starting wfc are  148 randomized atomic wfcs

     Self-consistent Calculation

     iteration #  1     ecut=    36.75 Ry     beta=0.30
     Davidson diagonalization with overlap
     ethr =  1.00E-02,  avg # of iterations =  2.0

[...]

     total energy              =   -2049.81530788 Ry
     Harris-Foulkes estimate   =   -2087.64258070 Ry
     estimated scf accuracy    <      78.00598367 Ry

[...]

     End of self-consistent calculation

          k = 0.0000 0.0000 0.0000 ( 15785 PWs)   bands (ev):

   -45.9062 -45.8998 -45.8924 -45.7784 -45.7341 -45.7172 -45.7119 -45.5718
   -45.5399 -45.5313 -45.5191 -45.5047 -45.4875 -45.4250 -45.4218 -45.4090
   -45.3802 -45.3790 -45.3179 -45.2732 -45.2157 -45.1914 -45.1505 -45.0930
   -45.0926 -45.0861 -45.0795 -45.0659 -45.0379 -45.0374 -45.0195 -45.0023
   -44.9876 -44.9808 -44.9719 -44.9702 -10.7359  -5.5386  -4.3079  -4.3013
    -4.2937  -4.2493  -4.1154  -4.0117  -4.0089  -4.0060  -3.8057  -3.7794
    -3.7755  -3.4849  -3.4787  -3.4633  -2.4011  -2.3729  -2.3276  -1.9207
    -1.9024  -1.8954  -1.7002  -1.6046  -1.6025  -1.3061  -1.2993  -1.2203
    -1.2064  -1.2000  -1.1752  -1.0681  -1.0652  -0.7030  -0.4747  -0.4113
     0.0069   0.1478   0.2141   0.2331   0.2913   0.2967   0.3002   0.4266
     0.6532   0.8033   0.8579   0.9131   1.0425   1.3547   1.3667   1.3845
     1.3951   1.5096   1.5146   1.5549   1.7480   1.7663   1.7723   1.8319
     1.9459   2.0472   2.0685   2.0913   2.1625   2.1643

[...]

          k =-0.0921 0.0532 0.0000 ( 15852 PWs)   bands (ev):

[...]

     the Fermi energy is     1.1558 ev

!    total energy              =   -2086.41573812 Ry
     Harris-Foulkes estimate   =   -2086.41577668 Ry
     estimated scf accuracy    <       0.00000423 Ry

     The total energy is the sum of the following terms:

     one-electron contribution =  -19377.91425253 Ry
     hartree contribution      =    9729.23701756 Ry
     xc contribution           =    -377.13637707 Ry
     ewald contribution        =    7939.52544785 Ry
     electric field correction =       0.00059430 Ry
     smearing contrib. (-TS)   =      -0.12816824 Ry

     convergence has been achieved in  23 iterations

 BEEF-vdW xc energy contributions
           1 :   -328.322592103882
           2 :    301.287926887815
           3 :   -254.643629943371
           4 :    200.081426537825
           5 :   -149.266284335891
           6 :    110.259206981543
           7 :   -85.7319229117706
           8 :    73.3335686432550
           9 :   -67.7600957469194
          10 :    63.4731138174416
          11 :   -56.9017268796267
          12 :    47.3314376154373
          13 :   -36.3746178227099
          14 :    26.5553317673329
          15 :   -19.8172996957468
          16 :    16.6247255179789
          17 :   -15.9476500753357
          18 :    15.9790838032406
[...]

[...]

     Total force =     0.032811     Total SCF correction =     0.012855
     SCF correction compared to forces is large: reduce conv_thr to get better values

[...]

   This run was terminated on:  16: 9:45  17Jan2018

[...]

     Program PWSCF v.5.1rc2 (svn rev. 11289) starts on 17Jan2018 at 16: 9:50

[...]

     Total force =     0.071703     Total SCF correction =     0.003128

[...]

     Program PWSCF v.5.1rc2 (svn rev. 11289) starts on 17Jan2018 at 20:29: 5

[...]

   This run was terminated on:  21:14: 5  17Jan2018

[...]

     Program PWSCF v.5.1rc2 (svn rev. 11289) starts on 17Jan2018 at 21:29:38

     Current dimensions of program PWSCF are:
     Max number of different atomic species (ntypx) = 10
     Max number of k-points (npk) =  40000
     Max angular momentum in pseudopotentials (lmaxx) =  3
     Presently stress not available with electric field

     IMPORTANT: XC functional enforced from input :
     Exchange-correlation      = BEEF-VDW ( 1  4 27 13 2)
     Any further DFT definition will be discarded
     Please, verify this is what you really want

     Subspace diagonalization in iterative solution of the eigenvalue problem:
     a serial algorithm will be used

     bravais-lattice index     =            0
     lattice parameter (alat)  =       1.8897  a.u.
     unit-cell volume          =    4204.8134 (a.u.)^3
     number of atoms/cell      =           13
     number of atomic types    =            2
     number of electrons       =       185.00
     number of Kohn-Sham states=          102
     kinetic-energy cutoff     =      36.7493  Ry
     charge density cutoff     =     367.4932  Ry
     convergence threshold     =      1.0E-05
     mixing beta               =       0.3000
     number of iterations used =           10  plain     mixing
     Exchange-correlation      = BEEF-VDW ( 1  4 27 13 2)
     nstep                     =           50

     celldm(1)=   1.889726  celldm(2)=   0.000000  celldm(3)=   0.000000
     celldm(4)=   0.000000  celldm(5)=   0.000000  celldm(6)=   0.000000

     crystal axes: (cart. coord. in units of alat)
               a(1) = (   5.426750   0.000000   0.000000 )
               a(2) = (   2.713375   4.699703   0.000000 )
               a(3) = (   0.000000   0.000000  24.430923 )

     reciprocal axes: (cart. coord. in units 2 pi/alat)
               b(1) = (  0.184272 -0.106390  0.000000 )
               b(2) = (  0.000000  0.212779  0.000000 )
               b(3) = (  0.000000  0.000000  0.040932 )

     PseudoPot. # 1 for Rh read from file:
     /afs/slac.stanford.edu/u/if/mamunm/psp/gbrv1.5pbe/Rh.UPF
     MD5 check sum: 761627e959a2e3a1f56b0b5fe687810e
     Pseudo is Ultrasoft + core correction, Zval = 15.0
     Generated by new atomic code, or converted to UPF format
     Using radial grid of  969 points,  7 beta functions with:
                l(1) =   0
                l(2) =   0
                l(3) =   1
                l(4) =   1
                l(5) =   2
                l(6) =   2
                l(7) =   2
     Q(r) pseudized with  8 coefficients,  rinner =    1.200   1.200   1.200
                                                       1.200   1.200

     PseudoPot. # 2 for N  read from file:
     /afs/slac.stanford.edu/u/if/mamunm/psp/gbrv1.5pbe/N.UPF
     MD5 check sum: 95339753478d7afb44899504a8723017
     Pseudo is Ultrasoft + core correction, Zval =  5.0
     Generated by new atomic code, or converted to UPF format
     Using radial grid of  729 points,  4 beta functions with:
                l(1) =   0
                l(2) =   0
                l(3) =   1
                l(4) =   1
     Q(r) pseudized with  8 coefficients,  rinner =    0.900   0.900   0.900

     vdW kernel table read from file vdW_kernel_table
     MD5 check sum: 095c7af220d748ca6e76c0b4c6cfb241

     atomic species   valence    mass     pseudopotential
        Rh1           15.00   102.90550     Rh( 1.00)
        N1             5.00    14.00700     N ( 1.00)

     No symmetry found

   Cartesian axes

     site n.     atom                  positions (alat units)
         1           Rh1 tau(   1) = (   1.3566875   0.7832839  10.0000000  )
         2           Rh1 tau(   2) = (   4.0700625   0.7832839  10.0000000  )
         3           Rh1 tau(   3) = (   2.7133750   3.1331356  10.0000000  )
         4           Rh1 tau(   4) = (   5.4267500   3.1331356  10.0000000  )
         5           Rh1 tau(   5) = (   5.4267500   1.5665678  12.2154614  )
         6           Rh1 tau(   6) = (   2.7133750   1.5665678  12.2154614  )
         7           Rh1 tau(   7) = (   6.7834375   3.9164194  12.2154614  )
         8           Rh1 tau(   8) = (   4.0700625   3.9164194  12.2154614  )
         9           Rh1 tau(   9) = (   5.3965932   0.0169230  14.4857731  )
        10           Rh1 tau(  10) = (   2.7438100   0.0170873  14.4856828  )
        11           Rh1 tau(  11) = (   1.3565850   2.3489414  14.3710524  )
        12           Rh1 tau(  12) = (   4.0700155   2.3145886  14.4861662  )
        13           N1  tau(  13) = (   4.0697087   3.9157647  15.5345230  )

     number of k points=    20  Fermi-Dirac smearing, width (Ry)=  0.0110
                       cart. coord. in units 2pi/alat
        k(    1) = (   0.0000000   0.0000000   0.0000000), wk =   0.0555556
        k(    2) = (   0.0000000   0.0354632   0.0000000), wk =   0.1111111
        k(    3) = (   0.0000000   0.0709265   0.0000000), wk =   0.1111111
        k(    4) = (   0.0000000  -0.1063897   0.0000000), wk =   0.0555556
        k(    5) = (   0.0307121  -0.0177316   0.0000000), wk =   0.1111111
        k(    6) = (   0.0307121   0.0177316   0.0000000), wk =   0.1111111
        k(    7) = (   0.0307121   0.0531948   0.0000000), wk =   0.1111111
        k(    8) = (   0.0307121  -0.1241213   0.0000000), wk =   0.1111111
        k(    9) = (   0.0307121  -0.0886581   0.0000000), wk =   0.1111111
        k(   10) = (   0.0307121  -0.0531948   0.0000000), wk =   0.1111111
        k(   11) = (   0.0614241  -0.0354632   0.0000000), wk =   0.1111111
        k(   12) = (   0.0614241   0.0000000   0.0000000), wk =   0.1111111
        k(   13) = (   0.0614241   0.0354632   0.0000000), wk =   0.1111111
        k(   14) = (   0.0614241  -0.1418529   0.0000000), wk =   0.1111111
        k(   15) = (   0.0614241  -0.1063897   0.0000000), wk =   0.1111111
        k(   16) = (   0.0614241  -0.0709265   0.0000000), wk =   0.1111111
        k(   17) = (  -0.0921362   0.0531948   0.0000000), wk =   0.0555556
        k(   18) = (  -0.0921362   0.0886581   0.0000000), wk =   0.1111111
        k(   19) = (  -0.0921362   0.1241213   0.0000000), wk =   0.1111111
        k(   20) = (  -0.0921362  -0.0531948   0.0000000), wk =   0.0555556

     Largest allocated arrays     est. size (Mb)     dimensions
     Largest temporary arrays     est. size (Mb)     dimensions

     Initial potential from superposition of free atoms
     Check: negative starting charge=   -0.660008

     starting charge  178.99881, renormalised to  185.00000

[...]

     *
     * You are using vdW-DF for exchange-correlation in this calculation.
     * Please cite the following three references that made this development
     * possible:
     *
     *   M. Dion, H. Rydberg, E. Schroder, D. C. Langreth, and
     *   B. I. Lundqvist, Phys. Rev. Lett. 92, 246401 (2004).
     *
     *   T. Thonhauser, V. R. Cooper, S. Li, A. Puzder, P. Hyldgaard, and
     *   D. C. Langreth, Phys. Rev. B 76, 125112 (2007).
     *
     *   G. Roman-Perez and J. M. Soler, Phys. Rev. Lett. 103, 096102 (2009).
     *
     *
     * If you are using vdW-DF2, please also cite:
     *
     *   K. Lee, E. D. Murray, L. Kong, B. I. Lundqvist, and
     *   D. C. Langreth, Phys. Rev. B 82, 081101(R) (2010).
     *
     *
     * If you are calculating the stress with vdW-DF, please also cite:
     *
     *   R. Sabatini, E. Kucukbenli, B. Kolb, T. Thonhauser, and
     *   S. de Gironcoli, J. Phys.: Condens. Matter 24, 424209 (2012).
     *

     Carrying out vdW-DF run using the following parameters:

     Nqs =      20    Nr_points =    1024   r_max =   100.000
     q_mesh =
               0.00001000     0.04494208     0.09755937     0.15916263
               0.23128650     0.31572767     0.41458969     0.53033537
               0.66584808     0.82450364     1.01025438     1.22772762
               1.48234092     1.78043706     2.12944203     2.53805004
               3.01644009     3.57652955     4.23227104     5.00000000

     Gradients computed in reciprocal space

[...]

     Starting wfc are  148 randomized atomic wfcs

     Self-consistent Calculation

[...]

     total energy              =   -2086.70313606 Ry
     Harris-Foulkes estimate   =   -2086.70314077 Ry
     estimated scf accuracy    <       0.00002613 Ry

     iteration # 22     ecut=    36.75 Ry     beta=0.30
     Davidson diagonalization with overlap
     ethr =  6.95E-09,  avg # of iterations =  2.3

[...]

     negative rho (up, down):  6.957E-01 0.000E+00

     Adding external electric field

     Computed dipole along edir(3) :
        Dipole               -0.1152 Ry au,         -0.2929 Debye
        Dipole field         -0.0003 Ry au

        Potential amp.        0.0310 Ry
        Total length         45.0136 bohr

     End of self-consistent calculation

[...]

          k = 0.0614-0.0709 0.0000 ( 15838 PWs)   bands (ev):

[...]

          k =-0.0921-0.0532 0.0000 ( 15852 PWs)   bands (ev):

   -45.6298 -45.4927 -45.3814 -45.2931 -45.2238 -45.1945 -45.1757 -45.1755
   -45.1354 -45.1200 -45.0746 -45.0545 -45.0390 -45.0343 -45.0195 -44.9555
   -44.9295 -44.8652 -44.8615 -44.8464 -44.8440 -44.8126 -44.7965 -44.7121
   -44.7059 -44.6805 -44.6765 -44.6218 -44.5598 -44.5319 -44.5261 -44.5190
   -44.5024 -44.4887 -44.4873 -44.4859 -13.4258  -4.5601  -3.7683  -3.6022
    -3.5401  -3.4259  -3.0284  -2.9670  -2.8780  -2.7413  -2.6649  -2.5831
    -2.5146  -2.4781  -2.3970  -2.3229  -2.2643  -2.1218  -2.1016  -1.7625
    -1.6163  -1.5999  -1.5541  -1.4245  -1.4139  -1.3084  -1.2278  -1.1633
    -0.9447  -0.8935  -0.7220  -0.6477  -0.5906  -0.5440  -0.5323  -0.4230
    -0.3682  -0.3417  -0.3280  -0.2610  -0.2232  -0.1826   0.1579   0.2223
     0.2571   0.3306   0.4263   0.5704   0.6183   0.6330   0.6537   0.7775
     0.9092   1.1048   1.1284   1.2057   1.3010   1.3546   1.7455   1.7965
     1.9355   2.0417   2.0843   2.2321   2.3337   2.7036

     the Fermi energy is     1.6627 ev

!    total energy              =   -2086.70313161 Ry
     Harris-Foulkes estimate   =   -2086.70314817 Ry
     estimated scf accuracy    <       0.00000588 Ry

     The total energy is the sum of the following terms:

     one-electron contribution =  -19634.21987572 Ry
     hartree contribution      =    9859.54516258 Ry
     xc contribution           =    -377.69747311 Ry
     ewald contribution        =    8065.78866812 Ry
     electric field correction =       0.00003968 Ry
     smearing contrib. (-TS)   =      -0.11965316 Ry

     convergence has been achieved in  22 iterations

 BEEF-vdW xc energy contributions
           1 :   -328.912620413659
           2 :    302.107115214611
           3 :   -255.716821779948
           4 :    201.216465509080
           5 :   -150.185047297326
           6 :    110.745080692350
           7 :   -85.7233947684128
           8 :    72.9364318606678
           9 :   -67.1873196300870
          10 :    62.9483857919815
          11 :   -56.5722632511880
          12 :    47.2301495011858
          13 :   -36.4428560469917
          14 :    26.6979757235954
          15 :   -19.9538584996818
          16 :    16.7200758223516
          17 :   -16.0151370970800
          18 :    16.0571418490610
          19 :   -15.2395995094584
          20 :    12.8733777222436
          21 :   -9.35802431523700
          22 :    5.77967551220513
          23 :   -3.22804785881181
          24 :    2.21688999595159
          25 :   -2.48143015277878
          26 :    3.20245654695270
          27 :   -3.49237156157130
          28 :    2.86376565265164
          29 :   -1.43748374577740
          30 :  -0.193130404225201
          31 :   -32.6048563903528
          32 :   -24.4700014926900

     Forces acting on atoms (Ry/au):

     negative rho (up, down):  6.957E-01 0.000E+00
     atom    1 type  1   force =     0.00000595   -0.00237900    0.00646903
     atom    2 type  1   force =    -0.00000129   -0.00001187    0.00742946
     atom    3 type  1   force =     0.00204822    0.00119730    0.00645941
     atom    4 type  1   force =    -0.00204692    0.00121024    0.00646782
     atom    5 type  1   force =    -0.00345220   -0.00200178   -0.00109395
     atom    6 type  1   force =     0.00343772   -0.00200136   -0.00109754
     atom    7 type  1   force =     0.00000618    0.00389074   -0.00106707
     atom    8 type  1   force =     0.00002115   -0.00001981   -0.02310814
     atom    9 type  1   force =    -0.00009523    0.00001894   -0.00015718
     atom   10 type  1   force =    -0.00015275   -0.00013682    0.00000267
     atom   11 type  1   force =     0.00004145    0.00022897   -0.00020372
     atom   12 type  1   force =     0.00001451   -0.00010449   -0.00024631
     atom   13 type  2   force =     0.00017321    0.00010895    0.00014553

     Total force =     0.027969     Total SCF correction =     0.018569
     SCF correction compared to forces is large: reduce conv_thr to get better values

     entering subroutine stress ...

     negative rho (up, down):  6.957E-01 0.000E+00
          total   stress  (Ry/bohr**3)                   (kbar)     P=  -25.08
  -0.00016329  -0.00000007   0.00000009        -24.02     -0.01      0.01
  -0.00000007  -0.00016324   0.00000022         -0.01    -24.01      0.03
   0.00000009   0.00000022  -0.00018495          0.01      0.03    -27.21

 !ASE

     Writing output data file calc.save

     General routines

     Parallel routines

   This run was terminated on:  21:44:55  17Jan2018

   JOB DONE.
Job  /afs/slac/g/suncat/bin/suncat-tsmpirun -x LD_LIBRARY_PATH -wdir /scratch/qe842475_0R8Ns pw.x -in pw.inp

TID   HOST_NAME   COMMAND_LINE            STATUS            TERMINATION_TIME
00000 suncat0273 pw.x -in pw.inp   Done                     01/17/2018 21:44:55
00001 suncat0273 pw.x -in pw.inp   Done                     01/17/2018 21:44:55
00002 suncat0273 pw.x -in pw.inp   Done                     01/17/2018 21:44:55
00003 suncat0273 pw.x -in pw.inp   Done                     01/17/2018 21:44:55
00004 suncat0273 pw.x -in pw.inp   Done                     01/17/2018 21:44:55
00005 suncat0273 pw.x -in pw.inp   Done                     01/17/2018 21:44:55
00006 suncat0273 pw.x -in pw.inp   Done                     01/17/2018 21:44:55
00007 suncat0273 pw.x -in pw.inp   Done                     01/17/2018 21:44:55
00008 suncat0268 pw.x -in pw.inp   Done                     01/17/2018 21:44:55
00009 suncat0268 pw.x -in pw.inp   Done                     01/17/2018 21:44:55
00010 suncat0268 pw.x -in pw.inp   Done                     01/17/2018 21:44:55
00011 suncat0268 pw.x -in pw.inp   Done                     01/17/2018 21:44:55
00012 suncat0268 pw.x -in pw.inp   Done                     01/17/2018 21:44:55
00013 suncat0268 pw.x -in pw.inp   Done                     01/17/2018 21:44:55
00014 suncat0268 pw.x -in pw.inp   Done                     01/17/2018 21:44:55
00015 suncat0268 pw.x -in pw.inp   Done                     01/17/2018 21:44:55
00016 suncat0266 pw.x -in pw.inp   Done                     01/17/2018 21:44:55
00017 suncat0266 pw.x -in pw.inp   Done                     01/17/2018 21:44:55
00018 suncat0266 pw.x -in pw.inp   Done                     01/17/2018 21:44:55
00019 suncat0266 pw.x -in pw.inp   Done                     01/17/2018 21:44:55
00020 suncat0266 pw.x -in pw.inp   Done                     01/17/2018 21:44:55
00021 suncat0266 pw.x -in pw.inp   Done                     01/17/2018 21:44:55
00022 suncat0266 pw.x -in pw.inp   Done                     01/17/2018 21:44:55
00023 suncat0266 pw.x -in pw.inp   Done                     01/17/2018 21:44:55
00024 suncat0233 pw.x -in pw.inp   Done                     01/17/2018 21:44:55
00025 suncat0233 pw.x -in pw.inp   Done                     01/17/2018 21:44:55
00026 suncat0233 pw.x -in pw.inp   Done                     01/17/2018 21:44:55
00027 suncat0233 pw.x -in pw.inp   Done                     01/17/2018 21:44:55
00028 suncat0233 pw.x -in pw.inp   Done                     01/17/2018 21:44:55
00029 suncat0233 pw.x -in pw.inp   Done                     01/17/2018 21:44:55
00030 suncat0233 pw.x -in pw.inp   Done                     01/17/2018 21:44:55
00031 suncat0233 pw.x -in pw.inp   Done                     01/17/2018 21:44:55