     Program PWSCF v.5.1rc2 (svn rev. 11289) starts on  2May2018 at 17:32: 1

     Current dimensions of program PWSCF are:
     Max number of different atomic species (ntypx) = 10
     Max number of k-points (npk) =  40000
     Max angular momentum in pseudopotentials (lmaxx) =  3
     Presently stress not available with electric field

     IMPORTANT: XC functional enforced from input :
     Exchange-correlation      = BEEF-VDW ( 1  4 27 13 2)
     Any further DFT definition will be discarded
     Please, verify this is what you really want

     Subspace diagonalization in iterative solution of the eigenvalue problem:
     a serial algorithm will be used

     bravais-lattice index     =            0
     lattice parameter (alat)  =       1.8897  a.u.
     unit-cell volume          =    4158.3597 (a.u.)^3
     number of atoms/cell      =           13
     number of atomic types    =            2
     number of electrons       =       157.00
     number of Kohn-Sham states=           88
     kinetic-energy cutoff     =      36.7493  Ry
     charge density cutoff     =     367.4932  Ry
     convergence threshold     =      1.0E-05
     mixing beta               =       0.3000
     number of iterations used =           10  plain     mixing
     Exchange-correlation      = BEEF-VDW ( 1  4 27 13 2)
     nstep                     =           50

     celldm(1)=   1.889726  celldm(2)=   0.000000  celldm(3)=   0.000000
     celldm(4)=   0.000000  celldm(5)=   0.000000  celldm(6)=   0.000000

     crystal axes: (cart. coord. in units of alat)
               a(1) = (   5.399178   0.000000   0.000000 )
               a(2) = (   2.699589   4.675825   0.000000 )
               a(3) = (   0.000000   0.000000  24.408411 )

     reciprocal axes: (cart. coord. in units 2 pi/alat)
               b(1) = (  0.185213 -0.106933  0.000000 )
               b(2) = (  0.000000  0.213866  0.000000 )
               b(3) = (  0.000000  0.000000  0.040969 )

     PseudoPot. # 1 for V  read from file:
     /u/if/mamunm/psp/gbrv1.5pbe/V.UPF
     MD5 check sum: 22b79981416ebb76fdaf5b1b8640f6fb
     Pseudo is Ultrasoft + core correction, Zval = 13.0
     Generated by new atomic code, or converted to UPF format
     Using radial grid of  853 points,  6 beta functions with:
                l(1) =   0
                l(2) =   0
                l(3) =   1
                l(4) =   1
                l(5) =   2
                l(6) =   2
     Q(r) pseudized with  8 coefficients,  rinner =    1.100   1.100   1.100
                                                       1.100   1.100

     PseudoPot. # 2 for H  read from file:
     /u/if/mamunm/psp/gbrv1.5pbe/H.UPF
     MD5 check sum: 761ae9a214b05c3daf00ab9f6b793d6f
     Pseudo is Ultrasoft, Zval =  1.0
     Generated by new atomic code, or converted to UPF format
     Using radial grid of  615 points,  2 beta functions with:
                l(1) =   0
                l(2) =   0
     Q(r) pseudized with  8 coefficients,  rinner =    0.700

     vdW kernel table read from file vdW_kernel_table
     MD5 check sum: 095c7af220d748ca6e76c0b4c6cfb241

     atomic species   valence    mass     pseudopotential
        V1            13.00    50.94150     V ( 1.00)
        H1             1.00     1.00800     H ( 1.00)

     No symmetry found

   Cartesian axes

     site n.     atom                  positions (alat units)
         1           V1  tau(   1) = (   1.3497945   0.7793042  10.0000000  )
         2           V1  tau(   2) = (   4.0493836   0.7793042  10.0000000  )
         3           V1  tau(   3) = (   2.6995891   3.1172170  10.0000000  )
         4           V1  tau(   4) = (   5.3991782   3.1172170  10.0000000  )
         5           V1  tau(   5) = (   5.3991782   1.5586085  12.2042053  )
         6           V1  tau(   6) = (   2.6995891   1.5586085  12.2042053  )
         7           V1  tau(   7) = (   6.7489727   3.8965212  12.2042053  )
         8           V1  tau(   8) = (   4.0493836   3.8965212  12.2042053  )
         9           V1  tau(   9) = (   0.0000000   0.0000000  14.4084105  )
        10           V1  tau(  10) = (   2.6995891   0.0000000  14.4084105  )
        11           V1  tau(  11) = (   1.3497945   2.3379127  14.4084105  )
        12           V1  tau(  12) = (   4.0493836   2.3379127  14.4084105  )
        13           H1  tau(  13) = (   0.0000000   0.0000000  15.9724105  )

     number of k points=    20  Fermi-Dirac smearing, width (Ry)=  0.0110
                       cart. coord. in units 2pi/alat
        k(    1) = (   0.0000000   0.0000000   0.0000000), wk =   0.0555556
        k(    2) = (   0.0000000   0.0356443   0.0000000), wk =   0.1111111
        k(    3) = (   0.0000000   0.0712887   0.0000000), wk =   0.1111111
        k(    4) = (   0.0000000  -0.1069330   0.0000000), wk =   0.0555556
        k(    5) = (   0.0308689  -0.0178222   0.0000000), wk =   0.1111111
        k(    6) = (   0.0308689   0.0178222   0.0000000), wk =   0.1111111
        k(    7) = (   0.0308689   0.0534665   0.0000000), wk =   0.1111111
        k(    8) = (   0.0308689  -0.1247552   0.0000000), wk =   0.1111111
        k(    9) = (   0.0308689  -0.0891108   0.0000000), wk =   0.1111111
        k(   10) = (   0.0308689  -0.0534665   0.0000000), wk =   0.1111111
        k(   11) = (   0.0617378  -0.0356443   0.0000000), wk =   0.1111111
        k(   12) = (   0.0617378   0.0000000   0.0000000), wk =   0.1111111
        k(   13) = (   0.0617378   0.0356443   0.0000000), wk =   0.1111111
        k(   14) = (   0.0617378  -0.1425773   0.0000000), wk =   0.1111111
        k(   15) = (   0.0617378  -0.1069330   0.0000000), wk =   0.1111111
        k(   16) = (   0.0617378  -0.0712887   0.0000000), wk =   0.1111111
        k(   17) = (  -0.0926067   0.0534665   0.0000000), wk =   0.0555556
        k(   18) = (  -0.0926067   0.0891108   0.0000000), wk =   0.1111111
        k(   19) = (  -0.0926067   0.1247552   0.0000000), wk =   0.1111111
        k(   20) = (  -0.0926067  -0.0534665   0.0000000), wk =   0.0555556

     Largest allocated arrays     est. size (Mb)     dimensions
     Largest temporary arrays     est. size (Mb)     dimensions

     Check: negative/imaginary core charge=   -0.000001    0.000000

     Initial potential from superposition of free atoms
     Check: negative starting charge=   -0.011681

     starting charge  156.98526, renormalised to  157.00000

     negative rho (up, down):  1.168E-02 0.000E+00

     *
     * You are using vdW-DF for exchange-correlation in this calculation.
     * Please cite the following three references that made this development
     * possible:
     *
     *   M. Dion, H. Rydberg, E. Schroder, D. C. Langreth, and
     *   B. I. Lundqvist, Phys. Rev. Lett. 92, 246401 (2004).
     *
     *   T. Thonhauser, V. R. Cooper, S. Li, A. Puzder, P. Hyldgaard, and
     *   D. C. Langreth, Phys. Rev. B 76, 125112 (2007).
     *
     *   G. Roman-Perez and J. M. Soler, Phys. Rev. Lett. 103, 096102 (2009).
     *
     *
     * If you are using vdW-DF2, please also cite:
     *
     *   K. Lee, E. D. Murray, L. Kong, B. I. Lundqvist, and
     *   D. C. Langreth, Phys. Rev. B 82, 081101(R) (2010).
     *
     *
     * If you are calculating the stress with vdW-DF, please also cite:
     *
     *   R. Sabatini, E. Kucukbenli, B. Kolb, T. Thonhauser, and
     *   S. de Gironcoli, J. Phys.: Condens. Matter 24, 424209 (2012).
     *

     Carrying out vdW-DF run using the following parameters:

     Nqs =      20    Nr_points =    1024   r_max =   100.000
     q_mesh =
               0.00001000     0.04494208     0.09755937     0.15916263
               0.23128650     0.31572767     0.41458969     0.53033537
               0.66584808     0.82450364     1.01025438     1.22772762
               1.48234092     1.78043706     2.12944203     2.53805004
               3.01644009     3.57652955     4.23227104     5.00000000

     Gradients computed in reciprocal space

     Adding external electric field

     Computed dipole along edir(3) :
        Dipole               -0.0006 Ry au,         -0.0015 Debye
        Dipole field         -0.0000 Ry au

        Potential amp.        0.0002 Ry
        Total length         44.9721 bohr

     Starting wfc are  121 randomized atomic wfcs

     Self-consistent Calculation

     iteration #  1     ecut=    36.75 Ry     beta=0.30
     Davidson diagonalization with overlap
     ethr =  1.00E-02,  avg # of iterations =  2.2

[...]

     total energy              =   -1744.66050473 Ry
     Harris-Foulkes estimate   =   -1750.67027796 Ry
     estimated scf accuracy    <      12.37177510 Ry

[...]

     End of self-consistent calculation

          k = 0.0000 0.0000 0.0000 ( 15569 PWs)   bands (ev):

   -63.4633 -63.3928 -63.3486 -63.3311 -63.3267 -63.3263 -63.3022 -63.3019
   -63.2707 -63.2701 -63.2695 -63.1267 -37.5555 -37.5552 -37.5341 -37.5146
   -37.4739 -37.4738 -37.4691 -37.4148 -37.4101 -37.4101 -37.2646 -37.1987
   -37.1982 -37.1437 -37.1431 -37.1426 -37.0604 -37.0598 -37.0477 -37.0474
   -37.0064 -37.0060 -36.9864 -36.9794 -36.9395 -36.9393 -36.9197 -36.9009
   -36.9007 -36.8862 -36.8861 -36.8422 -36.8046 -36.8045 -36.7859 -36.7858
    -5.3051  -3.8476  -2.6826  -2.2823  -2.2185  -2.2184  -2.2079  -1.9614
    -1.9613  -1.7144  -1.4630  -1.4630  -1.4592  -1.4519  -1.4519  -1.3144
    -0.5964  -0.5786  -0.5786   0.3572   0.4504   0.4504   0.4559   0.6867
     0.8931   0.9882   0.9882   1.0421   1.0422   1.1561   1.1561   1.2209
     1.2385   1.2387   1.2721   1.2868   1.2868   1.7083   1.7413   1.7414

[...]

          k =-0.0926 0.0535 0.0000 ( 15660 PWs)   bands (ev):

[...]

     the Fermi energy is     0.8337 ev

!    total energy              =   -1749.99557559 Ry
     Harris-Foulkes estimate   =   -1749.99558117 Ry
     estimated scf accuracy    <       0.00000643 Ry

     The total energy is the sum of the following terms:

     one-electron contribution =  -14928.08912953 Ry
     hartree contribution      =    7450.59142168 Ry
     xc contribution           =    -244.97503419 Ry
     ewald contribution        =    5972.62503762 Ry
     electric field correction =       0.00003368 Ry
     smearing contrib. (-TS)   =      -0.14790484 Ry

     convergence has been achieved in  30 iterations

 BEEF-vdW xc energy contributions
           1 :   -211.111522251831
           2 :    189.440572031469
           3 :   -153.654831996518
           4 :    115.038132539395
           5 :   -83.4271648919913
           6 :    63.4769567432917
           7 :   -54.0237441238637
           8 :    50.2874492089332
           9 :   -47.2401946941028
          10 :    42.1705021028288
          11 :   -35.3217612354777
          12 :    28.7345571776130
          13 :   -24.3668373444912
          14 :    22.7268786351659
          15 :   -22.7303421040557
          16 :    22.6323700695109
          17 :   -21.2591713710269
          18 :    18.6835273342343
          19 :   -15.9706553103226
          20 :    14.2811243639603
          21 :   -14.0240486241717
          22 :    14.6342834511342
          23 :   -15.0549533338451
          24 :    14.5092246953000
          25 :   -13.0007016721793
          26 :    11.2295492645867
          27 :   -10.0443872632524
          28 :    9.84625993961069
          29 :   -10.3525283609914
          30 :    10.8472651395522
          31 :   -21.8472547589812
          32 :   -15.7471673773788

     Forces acting on atoms (Ry/au):

     negative rho (up, down):  1.546E-02 0.000E+00
     atom    1 type  1   force =     0.00047495    0.00027989   -0.00145907
     atom    2 type  1   force =    -0.00048196    0.00027053   -0.00144724
     atom    3 type  1   force =    -0.00000822   -0.00055152   -0.00150922
     atom    4 type  1   force =     0.00001197    0.00000056   -0.00012096
     atom    5 type  1   force =     0.00004091    0.00164138   -0.00725031
     atom    6 type  1   force =    -0.00005396   -0.00000728    0.00020367
     atom    7 type  1   force =    -0.00140969   -0.00084627   -0.00719166
     atom    8 type  1   force =     0.00142373   -0.00078230   -0.00729703
     atom    9 type  1   force =     0.00000589    0.00000526   -0.04626459
     atom   10 type  1   force =    -0.00000474   -0.00123788    0.00130806
     atom   11 type  1   force =    -0.00106411    0.00061203    0.00131573
     atom   12 type  1   force =     0.00106349    0.00061544    0.00129006
     atom   13 type  2   force =     0.00000174    0.00000015    0.06842256

     Total force =     0.082654     Total SCF correction =     0.001184

     entering subroutine stress ...

     negative rho (up, down):  1.546E-02 0.000E+00
          total   stress  (Ry/bohr**3)                   (kbar)     P=  -16.09
  -0.00020032  -0.00000001  -0.00000002        -29.47     -0.00     -0.00
  -0.00000001  -0.00020027   0.00000001         -0.00    -29.46      0.00
  -0.00000002   0.00000001   0.00007243         -0.00      0.00     10.65

     BFGS Geometry Optimization

     number of scf cycles    =   1
     number of bfgs steps    =   0

     energy   new            =   -1749.9955755858 Ry

     new trust radius        =       0.0684225642 bohr
     new conv_thr            =       0.0000099958 Ry

ATOMIC_POSITIONS (crystal)
V1       0.166666667   0.166666667   0.409694847    0   0   0
V1       0.666666667   0.166666667   0.409694847    0   0   0
V1       0.166666667   0.666666667   0.409694847    0   0   0
V1       0.666666667   0.666666667   0.409694847    0   0   0
V1       0.833333333   0.333333333   0.500000000    0   0   0
V1       0.333333333   0.333333333   0.500000000    0   0   0
V1       0.833333333   0.833333333   0.500000000    0   0   0
V1       0.333333333   0.833333333   0.500000000    0   0   0
V1       0.000000280   0.000000595   0.589302132
V1       0.500069583  -0.000140095   0.590333512
V1      -0.000138927   0.500069266   0.590333679
V1       0.500069408   0.500069651   0.590333122
H1       0.000000162   0.000000017   0.655864837

     Writing output data file calc.save
     Check: negative starting charge=   -0.011681
     NEW-OLD atomic charge density approx. for the potential

     Check: negative/imaginary core charge=   -0.000001    0.000000
     Check: negative starting charge=   -0.011589

[...]

     Total force =     0.042277     Total SCF correction =     0.010025
     SCF correction compared to forces is large: reduce conv_thr to get better values

[...]

     energy   old            =   -1749.9955755858 Ry
     energy   new            =   -1750.0006331192 Ry

     CASE: energy  _new < energy  _old

[...]

     iteration #  1     ecut=    36.75 Ry     beta=0.30
     Davidson diagonalization with overlap
     c_bands:  1 eigenvalues not converged
     ethr =  1.00E-06,  avg # of iterations = 14.8

[...]

     iteration #  1     ecut=    36.75 Ry     beta=0.30
     Davidson diagonalization with overlap
     c_bands:  1 eigenvalues not converged
     ethr =  1.00E-06,  avg # of iterations =  9.6

[...]

     Total force =     0.010389     Total SCF correction =     0.000227

[...]

     number of scf cycles    =  15
     number of bfgs steps    =  14

     energy   old            =   -1750.0076491519 Ry
     energy   new            =   -1750.0080210794 Ry

     CASE: energy  _new < energy  _old

     new trust radius        =       0.0428932896 bohr
     new conv_thr            =       0.0000001000 Ry

ATOMIC_POSITIONS (crystal)
V1       0.166666667   0.166666667   0.409694847    0   0   0
V1       0.666666667   0.166666667   0.409694847    0   0   0
V1       0.166666667   0.666666667   0.409694847    0   0   0
V1       0.666666667   0.666666667   0.409694847    0   0   0
V1       0.833333333   0.333333333   0.500000000    0   0   0
V1       0.333333333   0.333333333   0.500000000    0   0   0
V1       0.833333333   0.833333333   0.500000000    0   0   0
V1       0.333333333   0.833333333   0.500000000    0   0   0
V1       0.000000799  -0.000016910   0.598759458
V1       0.502591433  -0.005172432   0.588646081
V1      -0.005165246   0.502566150   0.588645309
V1       0.502598979   0.502565017   0.588649283
H1      -0.000005141   0.000026519   0.668001114

     Writing output data file calc.save
     Check: negative starting charge=   -0.011067
     NEW-OLD atomic charge density approx. for the potential

     Check: negative/imaginary core charge=   -0.000001    0.000000
     Check: negative starting charge=   -0.011106

[...]

     Self-consistent Calculation

[...]

     total energy              =   -1750.00818427 Ry
     Harris-Foulkes estimate   =   -1750.00818439 Ry
     estimated scf accuracy    <       0.00000047 Ry

     iteration # 16     ecut=    36.75 Ry     beta=0.30
     Davidson diagonalization with overlap
     ethr =  1.47E-10,  avg # of iterations =  1.0

[...]

     negative rho (up, down):  1.534E-02 0.000E+00

     Adding external electric field

     Computed dipole along edir(3) :
        Dipole               -0.2205 Ry au,         -0.5606 Debye
        Dipole field         -0.0007 Ry au

        Potential amp.        0.0599 Ry
        Total length         44.9721 bohr

     End of self-consistent calculation

[...]

          k = 0.0617-0.0713 0.0000 ( 15642 PWs)   bands (ev):

[...]

          k =-0.0926-0.0535 0.0000 ( 15660 PWs)   bands (ev):

   -63.5661 -63.5529 -63.5007 -63.4918 -63.4849 -63.4810 -63.4656 -63.4632
   -63.4476 -63.4317 -63.4314 -63.3881 -37.6076 -37.5995 -37.5865 -37.5615
   -37.5519 -37.5368 -37.4743 -37.4696 -37.4519 -37.4512 -37.4301 -37.3804
   -37.3266 -37.2968 -37.2910 -37.2729 -37.2713 -37.2579 -37.2432 -37.2415
   -37.2390 -37.2317 -37.2218 -37.2149 -37.2044 -37.1634 -37.1462 -37.1246
   -37.1191 -37.1172 -37.0975 -37.0943 -37.0520 -37.0413 -37.0176 -37.0141
    -3.7309  -3.6929  -2.6215  -2.4318  -1.8162  -1.6988  -1.6806  -1.5940
    -1.5806  -1.4414  -1.3246  -0.9392  -0.9009  -0.8251  -0.7322  -0.7094
    -0.6570  -0.3492  -0.3177  -0.2354  -0.2353  -0.2131  -0.0692   0.0096
     0.1544   0.1798   0.2425   0.3035   0.3825   0.4193   0.4260   0.5514
     0.6012   0.6166   0.8329   0.8329   0.8723   1.1084   1.1433   1.3556

     the Fermi energy is     0.6710 ev

!    total energy              =   -1750.00818420 Ry
     Harris-Foulkes estimate   =   -1750.00818517 Ry
     estimated scf accuracy    <       0.00000008 Ry

     The total energy is the sum of the following terms:

     one-electron contribution =  -14862.07166238 Ry
     hartree contribution      =    7416.75551719 Ry
     xc contribution           =    -244.89809372 Ry
     ewald contribution        =    5940.35118305 Ry
     electric field correction =       0.00014699 Ry
     smearing contrib. (-TS)   =      -0.14527534 Ry

     convergence has been achieved in  16 iterations

 BEEF-vdW xc energy contributions
           1 :   -211.032090725798
           2 :    189.329431562599
           3 :   -153.509436633538
           4 :    114.887036411674
           5 :   -83.3095153470174
           6 :    63.4162910391328
           7 :   -54.0094937026834
           8 :    50.2794616803714
           9 :   -47.1975671299576
          10 :    42.0831140172553
          11 :   -35.2165038792476
          12 :    28.6494531820189
          13 :   -24.3160786153225
          14 :    22.6883786017826
          15 :   -22.6661321209558
          16 :    22.5229467801684
          17 :   -21.1200842956658
          18 :    18.5501657889961
          19 :   -15.8659033639881
          20 :    14.1946549392267
          21 :   -13.9210252436467
          22 :    14.4854259313965
          23 :   -14.8632434351960
          24 :    14.3119452504112
          25 :   -12.8445301157831
          26 :    11.1379741286089
          27 :   -10.0028116680389
          28 :    9.81573475571145
          29 :   -10.3001138965407
          30 :    10.7677012692072
          31 :   -21.8413840850745
          32 :   -15.7338491045968

     Forces acting on atoms (Ry/au):

     negative rho (up, down):  1.534E-02 0.000E+00
     atom    1 type  1   force =    -0.00034902   -0.00020516   -0.00081413
     atom    2 type  1   force =     0.00034912   -0.00020003   -0.00082243
     atom    3 type  1   force =     0.00000304    0.00040574   -0.00081544
     atom    4 type  1   force =    -0.00000376    0.00000198   -0.00105593
     atom    5 type  1   force =    -0.00000449   -0.01045756    0.00249107
     atom    6 type  1   force =     0.00000546    0.00000711   -0.00444633
     atom    7 type  1   force =     0.00905679    0.00523237    0.00248254
     atom    8 type  1   force =    -0.00905613    0.00522802    0.00249919
     atom    9 type  1   force =     0.00000407   -0.00000673   -0.00036476
     atom   10 type  1   force =    -0.00000721    0.00088112    0.00001710
     atom   11 type  1   force =     0.00077405   -0.00045026    0.00002479
     atom   12 type  1   force =    -0.00077348   -0.00044240    0.00002191
     atom   13 type  2   force =     0.00000156    0.00000581    0.00078241

     Total force =     0.001766     Total SCF correction =     0.000292
     SCF correction compared to forces is large: reduce conv_thr to get better values

     entering subroutine stress ...

     negative rho (up, down):  1.534E-02 0.000E+00
          total   stress  (Ry/bohr**3)                   (kbar)     P=  -19.52
  -0.00019828   0.00000000   0.00000000        -29.17      0.00      0.00
   0.00000000  -0.00019829  -0.00000001          0.00    -29.17     -0.00
   0.00000000  -0.00000001  -0.00000157          0.00     -0.00     -0.23

     bfgs converged in  16 scf cycles and  15 bfgs steps
     (criteria: energy <  1.0E+00, force <  1.9E-03)

     End of BFGS Geometry Optimization

     Final energy   =   -1750.0081841994 Ry
Begin final coordinates

ATOMIC_POSITIONS (crystal)
V1       0.166666667   0.166666667   0.409694847    0   0   0
V1       0.666666667   0.166666667   0.409694847    0   0   0
V1       0.166666667   0.666666667   0.409694847    0   0   0
V1       0.666666667   0.666666667   0.409694847    0   0   0
V1       0.833333333   0.333333333   0.500000000    0   0   0
V1       0.333333333   0.333333333   0.500000000    0   0   0
V1       0.833333333   0.833333333   0.500000000    0   0   0
V1       0.333333333   0.833333333   0.500000000    0   0   0
V1       0.000000799  -0.000016910   0.598759458
V1       0.502591433  -0.005172432   0.588646081
V1      -0.005165246   0.502566150   0.588645309
V1       0.502598979   0.502565017   0.588649283
H1      -0.000005141   0.000026519   0.668001114
End final coordinates

     Writing output data file calc.save

     General routines

     Parallel routines

   This run was terminated on:  19:30:47   2May2018

   JOB DONE.
Job  /afs/slac/g/suncat/bin/suncat-tsmpirun -x LD_LIBRARY_PATH -wdir /scratch/qe813698_seCOU pw.x -npool 4 -in pw.inp

TID   HOST_NAME   COMMAND_LINE            STATUS            TERMINATION_TIME
00000 suncat0169 pw.x -npool 4 -i  Done                     05/02/2018 19:30:47
00001 suncat0169 pw.x -npool 4 -i  Done                     05/02/2018 19:30:47
00002 suncat0169 pw.x -npool 4 -i  Done                     05/02/2018 19:30:47
00003 suncat0169 pw.x -npool 4 -i  Done                     05/02/2018 19:30:47
00004 suncat0169 pw.x -npool 4 -i  Done                     05/02/2018 19:30:47
00005 suncat0169 pw.x -npool 4 -i  Done                     05/02/2018 19:30:47
00006 suncat0169 pw.x -npool 4 -i  Done                     05/02/2018 19:30:47
00007 suncat0169 pw.x -npool 4 -i  Done                     05/02/2018 19:30:47
00008 suncat0167 pw.x -npool 4 -i  Done                     05/02/2018 19:30:47
00009 suncat0167 pw.x -npool 4 -i  Done                     05/02/2018 19:30:47
00010 suncat0167 pw.x -npool 4 -i  Done                     05/02/2018 19:30:47
00011 suncat0167 pw.x -npool 4 -i  Done                     05/02/2018 19:30:47
00012 suncat0167 pw.x -npool 4 -i  Done                     05/02/2018 19:30:47
00013 suncat0167 pw.x -npool 4 -i  Done                     05/02/2018 19:30:47
00014 suncat0167 pw.x -npool 4 -i  Done                     05/02/2018 19:30:47
00015 suncat0167 pw.x -npool 4 -i  Done                     05/02/2018 19:30:47
00016 suncat0123 pw.x -npool 4 -i  Done                     05/02/2018 19:30:47
00017 suncat0123 pw.x -npool 4 -i  Done                     05/02/2018 19:30:47
00018 suncat0123 pw.x -npool 4 -i  Done                     05/02/2018 19:30:47
00019 suncat0123 pw.x -npool 4 -i  Done                     05/02/2018 19:30:47
00020 suncat0123 pw.x -npool 4 -i  Done                     05/02/2018 19:30:47
00021 suncat0123 pw.x -npool 4 -i  Done                     05/02/2018 19:30:47
00022 suncat0123 pw.x -npool 4 -i  Done                     05/02/2018 19:30:47
00023 suncat0123 pw.x -npool 4 -i  Done                     05/02/2018 19:30:47
00024 suncat0121 pw.x -npool 4 -i  Done                     05/02/2018 19:30:47
00025 suncat0121 pw.x -npool 4 -i  Done                     05/02/2018 19:30:47
00026 suncat0121 pw.x -npool 4 -i  Done                     05/02/2018 19:30:47
00027 suncat0121 pw.x -npool 4 -i  Done                     05/02/2018 19:30:47
00028 suncat0121 pw.x -npool 4 -i  Done                     05/02/2018 19:30:47
00029 suncat0121 pw.x -npool 4 -i  Done                     05/02/2018 19:30:47
00030 suncat0121 pw.x -npool 4 -i  Done                     05/02/2018 19:30:47
00031 suncat0121 pw.x -npool 4 -i  Done                     05/02/2018 19:30:47