     Program PWSCF v.5.1rc2 (svn rev. 11289) starts on 17Jan2018 at 14:56:48

     Current dimensions of program PWSCF are:
     Max number of different atomic species (ntypx) = 10
     Max number of k-points (npk) =  40000
     Max angular momentum in pseudopotentials (lmaxx) =  3
     Presently stress not available with electric field

     IMPORTANT: XC functional enforced from input :
     Exchange-correlation      = BEEF-VDW ( 1  4 27 13 2)
     Any further DFT definition will be discarded
     Please, verify this is what you really want

     Subspace diagonalization in iterative solution of the eigenvalue problem:
     a serial algorithm will be used

     bravais-lattice index     =            0
     lattice parameter (alat)  =       1.8897  a.u.
     unit-cell volume          =    6501.5726 (a.u.)^3
     number of atoms/cell      =           13
     number of atomic types    =            2
     number of electrons       =       161.00
     number of Kohn-Sham states=           90
     kinetic-energy cutoff     =      36.7493  Ry
     charge density cutoff     =     367.4932  Ry
     convergence threshold     =      1.0E-05
     mixing beta               =       0.3000
     number of iterations used =           10  plain     mixing
     Exchange-correlation      = BEEF-VDW ( 1  4 27 13 2)
     nstep                     =           50

     celldm(1)=   1.889726  celldm(2)=   0.000000  celldm(3)=   0.000000
     celldm(4)=   0.000000  celldm(5)=   0.000000  celldm(6)=   0.000000

     crystal axes: (cart. coord. in units of alat)
               a(1) = (   6.617606   0.000000   0.000000 )
               a(2) = (   3.308803   5.731015   0.000000 )
               a(3) = (   0.000000   0.000000  25.403253 )

     reciprocal axes: (cart. coord. in units 2 pi/alat)
               b(1) = (  0.151112 -0.087245  0.000000 )
               b(2) = (  0.000000  0.174489  0.000000 )
               b(3) = (  0.000000  0.000000  0.039365 )

     PseudoPot. # 1 for In read from file:
     /afs/slac.stanford.edu/u/if/mamunm/psp/gbrv1.5pbe/In.UPF
     MD5 check sum: 90777abd96fbb83f2e67db2a40c566b9
     Pseudo is Ultrasoft + core correction, Zval = 13.0
     Generated by new atomic code, or converted to UPF format
     Using radial grid of  889 points,  6 beta functions with:
                l(1) =   0
                l(2) =   0
                l(3) =   1
                l(4) =   1
                l(5) =   2
                l(6) =   2
     Q(r) pseudized with  6 coefficients,  rinner =    1.400   1.400   1.400
                                                       1.400   1.400

     PseudoPot. # 2 for N  read from file:
     /afs/slac.stanford.edu/u/if/mamunm/psp/gbrv1.5pbe/N.UPF
     MD5 check sum: 95339753478d7afb44899504a8723017
     Pseudo is Ultrasoft + core correction, Zval =  5.0
     Generated by new atomic code, or converted to UPF format
     Using radial grid of  729 points,  4 beta functions with:
                l(1) =   0
                l(2) =   0
                l(3) =   1
                l(4) =   1
     Q(r) pseudized with  8 coefficients,  rinner =    0.900   0.900   0.900

     vdW kernel table read from file vdW_kernel_table
     MD5 check sum: 095c7af220d748ca6e76c0b4c6cfb241

     atomic species   valence    mass     pseudopotential
        In1           13.00   114.81800     In( 1.00)
        N1             5.00    14.00700     N ( 1.00)

     No symmetry found

   Cartesian axes

     site n.     atom                  positions (alat units)
         1           In1 tau(   1) = (   1.6544016   0.9551692  10.0000000  )
         2           In1 tau(   2) = (   4.9632047   0.9551692  10.0000000  )
         3           In1 tau(   3) = (   3.3088031   3.8206768  10.0000000  )
         4           In1 tau(   4) = (   6.6176063   3.8206768  10.0000000  )
         5           In1 tau(   5) = (   6.6176063   1.9103384  12.7016265  )
         6           In1 tau(   6) = (   3.3088031   1.9103384  12.7016265  )
         7           In1 tau(   7) = (   8.2720078   4.7758460  12.7016265  )
         8           In1 tau(   8) = (   4.9632047   4.7758460  12.7016265  )
         9           In1 tau(   9) = (   0.0000000   0.0000000  15.4032529  )
        10           In1 tau(  10) = (   3.3088031   0.0000000  15.4032529  )
        11           In1 tau(  11) = (   1.6544016   2.8655076  15.4032529  )
        12           In1 tau(  12) = (   4.9632047   2.8655076  15.4032529  )
        13           N1  tau(  13) = (   1.6544016   0.9551692  17.5332529  )

     number of k points=    20  Fermi-Dirac smearing, width (Ry)=  0.0110
                       cart. coord. in units 2pi/alat
        k(    1) = (   0.0000000   0.0000000   0.0000000), wk =   0.0555556
        k(    2) = (   0.0000000   0.0290815   0.0000000), wk =   0.1111111
        k(    3) = (   0.0000000   0.0581631   0.0000000), wk =   0.1111111
        k(    4) = (   0.0000000  -0.0872446   0.0000000), wk =   0.0555556
        k(    5) = (   0.0251853  -0.0145408   0.0000000), wk =   0.1111111
        k(    6) = (   0.0251853   0.0145408   0.0000000), wk =   0.1111111
        k(    7) = (   0.0251853   0.0436223   0.0000000), wk =   0.1111111
        k(    8) = (   0.0251853  -0.1017853   0.0000000), wk =   0.1111111
        k(    9) = (   0.0251853  -0.0727038   0.0000000), wk =   0.1111111
        k(   10) = (   0.0251853  -0.0436223   0.0000000), wk =   0.1111111
        k(   11) = (   0.0503707  -0.0290815   0.0000000), wk =   0.1111111
        k(   12) = (   0.0503707   0.0000000   0.0000000), wk =   0.1111111
        k(   13) = (   0.0503707   0.0290815   0.0000000), wk =   0.1111111
        k(   14) = (   0.0503707  -0.1163261   0.0000000), wk =   0.1111111
        k(   15) = (   0.0503707  -0.0872446   0.0000000), wk =   0.1111111
        k(   16) = (   0.0503707  -0.0581631   0.0000000), wk =   0.1111111
        k(   17) = (  -0.0755560   0.0436223   0.0000000), wk =   0.0555556
        k(   18) = (  -0.0755560   0.0727038   0.0000000), wk =   0.1111111
        k(   19) = (  -0.0755560   0.1017853   0.0000000), wk =   0.1111111
        k(   20) = (  -0.0755560  -0.0436223   0.0000000), wk =   0.0555556

     Largest allocated arrays     est. size (Mb)     dimensions
     Largest temporary arrays     est. size (Mb)     dimensions

     Initial potential from superposition of free atoms
     Check: negative starting charge=   -0.000173

     starting charge  142.99999, renormalised to  161.00000

     negative rho (up, down):  1.952E-04 0.000E+00

     *
     * You are using vdW-DF for exchange-correlation in this calculation.
     * Please cite the following three references that made this development
     * possible:
     *
     *   M. Dion, H. Rydberg, E. Schroder, D. C. Langreth, and
     *   B. I. Lundqvist, Phys. Rev. Lett. 92, 246401 (2004).
     *
     *   T. Thonhauser, V. R. Cooper, S. Li, A. Puzder, P. Hyldgaard, and
     *   D. C. Langreth, Phys. Rev. B 76, 125112 (2007).
     *
     *   G. Roman-Perez and J. M. Soler, Phys. Rev. Lett. 103, 096102 (2009).
     *
     *
     * If you are using vdW-DF2, please also cite:
     *
     *   K. Lee, E. D. Murray, L. Kong, B. I. Lundqvist, and
     *   D. C. Langreth, Phys. Rev. B 82, 081101(R) (2010).
     *
     *
     * If you are calculating the stress with vdW-DF, please also cite:
     *
     *   R. Sabatini, E. Kucukbenli, B. Kolb, T. Thonhauser, and
     *   S. de Gironcoli, J. Phys.: Condens. Matter 24, 424209 (2012).
     *

     Carrying out vdW-DF run using the following parameters:

     Nqs =      20    Nr_points =    1024   r_max =   100.000
     q_mesh =
               0.00001000     0.04494208     0.09755937     0.15916263
               0.23128650     0.31572767     0.41458969     0.53033537
               0.66584808     0.82450364     1.01025438     1.22772762
               1.48234092     1.78043706     2.12944203     2.53805004
               3.01644009     3.57652955     4.23227104     5.00000000

     Gradients computed in reciprocal space

     Adding external electric field

     Computed dipole along edir(3) :
        Dipole               -5.7464 Ry au,        -14.6058 Debye
        Dipole field         -0.0111 Ry au

        Potential amp.        1.0397 Ry
        Total length         46.8051 bohr

     Starting wfc are  112 randomized atomic wfcs

     Self-consistent Calculation

     iteration #  1     ecut=    36.75 Ry     beta=0.30
     Davidson diagonalization with overlap
     ethr =  1.00E-02,  avg # of iterations =  8.1

[...]

     total energy              =   -1335.90172031 Ry
     Harris-Foulkes estimate   =   -1637.60783171 Ry
     estimated scf accuracy    <     648.32936159 Ry

     iteration #  2     ecut=    36.75 Ry     beta=0.30
     Davidson diagonalization with overlap
     c_bands:  2 eigenvalues not converged
     c_bands:  1 eigenvalues not converged
     c_bands:  3 eigenvalues not converged
     c_bands:  3 eigenvalues not converged
     c_bands:  1 eigenvalues not converged
     c_bands:  3 eigenvalues not converged
     c_bands:  3 eigenvalues not converged
     c_bands:  2 eigenvalues not converged
     c_bands:  4 eigenvalues not converged
     ethr =  1.00E-02,  avg # of iterations = 20.9

[...]

     End of self-consistent calculation

          k = 0.0000 0.0000 0.0000 ( 24345 PWs)   bands (ev):

   -15.2578 -15.2575 -15.2575 -15.1680 -15.1680 -15.1576 -15.1514 -15.1488
   -15.1488 -15.1425 -15.1035 -15.0965 -15.0965 -15.0838 -15.0762 -15.0762
   -15.0644 -15.0542 -15.0542 -15.0420 -15.0420 -15.0266 -15.0266 -15.0155
   -14.9952 -14.9881 -14.9881 -14.9751 -14.9666 -14.9666 -14.8980 -14.8980
   -14.8713 -14.8713 -14.8675 -14.8339 -14.8339 -14.8324 -14.8324 -14.8218
   -14.7994 -14.7800 -14.7800 -14.7765 -14.7765 -14.7630 -14.7491 -14.7491
   -14.7449 -14.7310 -14.7310 -14.7291 -14.7262 -14.7241 -14.7241 -14.6880
   -14.6880 -14.6474 -14.6474 -14.6399 -11.6876  -9.2538  -7.8079  -5.6677
    -4.4410  -4.4293  -4.4293  -4.1401  -4.1401  -4.1315  -2.8793  -2.8774
    -2.8774  -2.6452  -2.6452  -2.6431  -2.1424  -1.2070  -1.1826  -1.1826
    -0.8469  -0.8469  -0.8078   0.1538   0.1538   0.3721   1.2282   2.6603
     2.6603   2.6996

[...]

          k =-0.0756 0.0436 0.0000 ( 24448 PWs)   bands (ev):

[...]

     the Fermi energy is    -0.0783 ev

!    total energy              =   -1637.31257112 Ry
     Harris-Foulkes estimate   =   -1637.31269145 Ry
     estimated scf accuracy    <       0.00000622 Ry

     The total energy is the sum of the following terms:

     one-electron contribution =   -9336.62079372 Ry
     hartree contribution      =    4746.76331599 Ry
     xc contribution           =    -474.68973499 Ry
     ewald contribution        =    3427.28004744 Ry
     electric field correction =       0.00120757 Ry
     smearing contrib. (-TS)   =      -0.04661341 Ry

     convergence has been achieved in  23 iterations

 BEEF-vdW xc energy contributions
           1 :   -415.684137567387
           2 :    379.728951572841
           3 :   -319.110832199058
           4 :    250.961177791326
           5 :   -190.838198199743
           6 :    147.107576794734
           7 :   -119.408233459795
[...]

[...]

   This run was terminated on:  16: 6:42  17Jan2018

[...]

     Program PWSCF v.5.1rc2 (svn rev. 11289) starts on 17Jan2018 at 16: 6:48

[...]

     Program PWSCF v.5.1rc2 (svn rev. 11289) starts on 17Jan2018 at 16:19: 0

[...]

     Total force =     0.035921     Total SCF correction =     0.001663

[...]

   This run was terminated on:  17:22:52  17Jan2018

[...]

     Program PWSCF v.5.1rc2 (svn rev. 11289) starts on 17Jan2018 at 17:22:58

     Current dimensions of program PWSCF are:
     Max number of different atomic species (ntypx) = 10
     Max number of k-points (npk) =  40000
     Max angular momentum in pseudopotentials (lmaxx) =  3
     Presently stress not available with electric field

     IMPORTANT: XC functional enforced from input :
     Exchange-correlation      = BEEF-VDW ( 1  4 27 13 2)
     Any further DFT definition will be discarded
     Please, verify this is what you really want

     Subspace diagonalization in iterative solution of the eigenvalue problem:
     a serial algorithm will be used

     bravais-lattice index     =            0
     lattice parameter (alat)  =       1.8897  a.u.
     unit-cell volume          =    6501.5726 (a.u.)^3
     number of atoms/cell      =           13
     number of atomic types    =            2
     number of electrons       =       161.00
     number of Kohn-Sham states=           90
     kinetic-energy cutoff     =      36.7493  Ry
     charge density cutoff     =     367.4932  Ry
     convergence threshold     =      1.0E-05
     mixing beta               =       0.3000
     number of iterations used =           10  plain     mixing
     Exchange-correlation      = BEEF-VDW ( 1  4 27 13 2)
     nstep                     =           50

     celldm(1)=   1.889726  celldm(2)=   0.000000  celldm(3)=   0.000000
     celldm(4)=   0.000000  celldm(5)=   0.000000  celldm(6)=   0.000000

     crystal axes: (cart. coord. in units of alat)
               a(1) = (   6.617606   0.000000   0.000000 )
               a(2) = (   3.308803   5.731015   0.000000 )
               a(3) = (   0.000000   0.000000  25.403253 )

     reciprocal axes: (cart. coord. in units 2 pi/alat)
               b(1) = (  0.151112 -0.087245  0.000000 )
               b(2) = (  0.000000  0.174489  0.000000 )
               b(3) = (  0.000000  0.000000  0.039365 )

     PseudoPot. # 1 for In read from file:
     /afs/slac.stanford.edu/u/if/mamunm/psp/gbrv1.5pbe/In.UPF
     MD5 check sum: 90777abd96fbb83f2e67db2a40c566b9
     Pseudo is Ultrasoft + core correction, Zval = 13.0
     Generated by new atomic code, or converted to UPF format
     Using radial grid of  889 points,  6 beta functions with:
                l(1) =   0
                l(2) =   0
                l(3) =   1
                l(4) =   1
                l(5) =   2
                l(6) =   2
     Q(r) pseudized with  6 coefficients,  rinner =    1.400   1.400   1.400
                                                       1.400   1.400

     PseudoPot. # 2 for N  read from file:
     /afs/slac.stanford.edu/u/if/mamunm/psp/gbrv1.5pbe/N.UPF
     MD5 check sum: 95339753478d7afb44899504a8723017
     Pseudo is Ultrasoft + core correction, Zval =  5.0
     Generated by new atomic code, or converted to UPF format
     Using radial grid of  729 points,  4 beta functions with:
                l(1) =   0
                l(2) =   0
                l(3) =   1
                l(4) =   1
     Q(r) pseudized with  8 coefficients,  rinner =    0.900   0.900   0.900

     vdW kernel table read from file vdW_kernel_table
     MD5 check sum: 095c7af220d748ca6e76c0b4c6cfb241

     atomic species   valence    mass     pseudopotential
        In1           13.00   114.81800     In( 1.00)
        N1             5.00    14.00700     N ( 1.00)

     No symmetry found

   Cartesian axes

     site n.     atom                  positions (alat units)
         1           In1 tau(   1) = (   1.6544016   0.9551692  10.0000000  )
         2           In1 tau(   2) = (   4.9632047   0.9551692  10.0000000  )
         3           In1 tau(   3) = (   3.3088031   3.8206768  10.0000000  )
         4           In1 tau(   4) = (   6.6176063   3.8206768  10.0000000  )
         5           In1 tau(   5) = (   6.6176063   1.9103384  12.7016265  )
         6           In1 tau(   6) = (   3.3088031   1.9103384  12.7016265  )
         7           In1 tau(   7) = (   8.2720078   4.7758460  12.7016265  )
         8           In1 tau(   8) = (   4.9632047   4.7758460  12.7016265  )
         9           In1 tau(   9) = (   9.8485815   5.6860762  15.7640494  )
        10           In1 tau(  10) = (   6.6954448   5.6860690  15.7639702  )
        11           In1 tau(  11) = (   8.2719878   2.9553970  15.7639464  )
        12           In1 tau(  12) = (   4.9631990   2.8655232  15.3985239  )
        13           N1  tau(  13) = (   1.6544126   0.9551911  16.5082579  )

     number of k points=    20  Fermi-Dirac smearing, width (Ry)=  0.0110
                       cart. coord. in units 2pi/alat
        k(    1) = (   0.0000000   0.0000000   0.0000000), wk =   0.0555556
        k(    2) = (   0.0000000   0.0290815   0.0000000), wk =   0.1111111
        k(    3) = (   0.0000000   0.0581631   0.0000000), wk =   0.1111111
        k(    4) = (   0.0000000  -0.0872446   0.0000000), wk =   0.0555556
        k(    5) = (   0.0251853  -0.0145408   0.0000000), wk =   0.1111111
        k(    6) = (   0.0251853   0.0145408   0.0000000), wk =   0.1111111
        k(    7) = (   0.0251853   0.0436223   0.0000000), wk =   0.1111111
        k(    8) = (   0.0251853  -0.1017853   0.0000000), wk =   0.1111111
        k(    9) = (   0.0251853  -0.0727038   0.0000000), wk =   0.1111111
        k(   10) = (   0.0251853  -0.0436223   0.0000000), wk =   0.1111111
        k(   11) = (   0.0503707  -0.0290815   0.0000000), wk =   0.1111111
        k(   12) = (   0.0503707   0.0000000   0.0000000), wk =   0.1111111
        k(   13) = (   0.0503707   0.0290815   0.0000000), wk =   0.1111111
        k(   14) = (   0.0503707  -0.1163261   0.0000000), wk =   0.1111111
        k(   15) = (   0.0503707  -0.0872446   0.0000000), wk =   0.1111111
        k(   16) = (   0.0503707  -0.0581631   0.0000000), wk =   0.1111111
        k(   17) = (  -0.0755560   0.0436223   0.0000000), wk =   0.0555556
        k(   18) = (  -0.0755560   0.0727038   0.0000000), wk =   0.1111111
        k(   19) = (  -0.0755560   0.1017853   0.0000000), wk =   0.1111111
        k(   20) = (  -0.0755560  -0.0436223   0.0000000), wk =   0.0555556

     Largest allocated arrays     est. size (Mb)     dimensions
     Largest temporary arrays     est. size (Mb)     dimensions

     Initial potential from superposition of free atoms
     Check: negative starting charge=   -0.000194

     starting charge  142.99999, renormalised to  161.00000

[...]

     *
     * You are using vdW-DF for exchange-correlation in this calculation.
     * Please cite the following three references that made this development
     * possible:
     *
     *   M. Dion, H. Rydberg, E. Schroder, D. C. Langreth, and
     *   B. I. Lundqvist, Phys. Rev. Lett. 92, 246401 (2004).
     *
     *   T. Thonhauser, V. R. Cooper, S. Li, A. Puzder, P. Hyldgaard, and
     *   D. C. Langreth, Phys. Rev. B 76, 125112 (2007).
     *
     *   G. Roman-Perez and J. M. Soler, Phys. Rev. Lett. 103, 096102 (2009).
     *
     *
     * If you are using vdW-DF2, please also cite:
     *
     *   K. Lee, E. D. Murray, L. Kong, B. I. Lundqvist, and
     *   D. C. Langreth, Phys. Rev. B 82, 081101(R) (2010).
     *
     *
     * If you are calculating the stress with vdW-DF, please also cite:
     *
     *   R. Sabatini, E. Kucukbenli, B. Kolb, T. Thonhauser, and
     *   S. de Gironcoli, J. Phys.: Condens. Matter 24, 424209 (2012).
     *

     Carrying out vdW-DF run using the following parameters:

     Nqs =      20    Nr_points =    1024   r_max =   100.000
     q_mesh =
               0.00001000     0.04494208     0.09755937     0.15916263
               0.23128650     0.31572767     0.41458969     0.53033537
               0.66584808     0.82450364     1.01025438     1.22772762
               1.48234092     1.78043706     2.12944203     2.53805004
               3.01644009     3.57652955     4.23227104     5.00000000

     Gradients computed in reciprocal space

[...]

     Starting wfc are  112 randomized atomic wfcs

     Self-consistent Calculation

[...]

     iteration #  2     ecut=    36.75 Ry     beta=0.30
     Davidson diagonalization with overlap
     c_bands:  5 eigenvalues not converged
     c_bands:  1 eigenvalues not converged
     c_bands:  5 eigenvalues not converged
     c_bands:  4 eigenvalues not converged
     ethr =  1.00E-02,  avg # of iterations = 22.6

[...]

     total energy              =   -1637.51750514 Ry
     Harris-Foulkes estimate   =   -1637.51751053 Ry
     estimated scf accuracy    <       0.00001861 Ry

     iteration # 36     ecut=    36.75 Ry     beta=0.30
     Davidson diagonalization with overlap
     ethr =  1.16E-08,  avg # of iterations =  2.9

[...]

     negative rho (up, down):  1.315E-03 0.000E+00

     Adding external electric field

     Computed dipole along edir(3) :
        Dipole               -0.1640 Ry au,         -0.4169 Debye
        Dipole field         -0.0003 Ry au

        Potential amp.        0.0297 Ry
        Total length         46.8051 bohr

     End of self-consistent calculation

[...]

          k = 0.0504-0.0582 0.0000 ( 24479 PWs)   bands (ev):

[...]

          k =-0.0756-0.0436 0.0000 ( 24448 PWs)   bands (ev):

   -15.2054 -14.6048 -14.5990 -14.5571 -14.5469 -14.5403 -14.5343 -14.5324
   -14.5298 -14.5124 -14.5032 -14.5019 -14.4885 -14.4791 -14.4767 -14.4702
   -14.4609 -14.4495 -14.4468 -14.4280 -14.4238 -14.4235 -14.4158 -14.4108
   -14.4045 -14.3914 -14.3910 -14.3772 -14.3735 -14.3685 -14.3538 -14.3499
   -14.3473 -14.3467 -14.3277 -14.3243 -14.3238 -14.3150 -14.3131 -14.3081
   -14.3081 -14.3064 -14.3034 -14.2938 -14.2914 -14.2810 -14.2757 -14.2721
   -14.2580 -14.2456 -14.2387 -14.2329 -14.2193 -14.2159 -14.2124 -14.2033
   -14.1902 -14.1776 -14.1446 -14.0584 -11.9937  -7.3368  -7.1802  -6.2261
    -5.5135  -4.8915  -4.7299  -4.4769  -4.2287  -3.9585  -2.9385  -2.4375
    -2.2494  -1.7285  -0.4636  -0.3774  -0.3024  -0.1055   0.2098   0.2867
     0.6626   0.8928   1.5248   1.7770   1.7863   1.9888   2.4152   2.6955
     2.8576   3.0219

     the Fermi energy is     0.4893 ev

!    total energy              =   -1637.51750661 Ry
     Harris-Foulkes estimate   =   -1637.51751154 Ry
     estimated scf accuracy    <       0.00000060 Ry

     The total energy is the sum of the following terms:

     one-electron contribution =   -9187.04820556 Ry
     hartree contribution      =    4674.74620695 Ry
     xc contribution           =    -475.02846595 Ry
     ewald contribution        =    3349.85076644 Ry
     electric field correction =       0.00005200 Ry
     smearing contrib. (-TS)   =      -0.03786049 Ry

     convergence has been achieved in  36 iterations

 BEEF-vdW xc energy contributions
           1 :   -416.029136867384
           2 :    380.132170931722
           3 :   -319.525633682000
           4 :    251.277501131334
           5 :   -190.971227998326
           6 :    147.028447237808
           7 :   -119.137098979159
           8 :    100.904275470337
           9 :   -84.7642771433214
          10 :    66.2665787504384
          11 :   -45.6369870705520
          12 :    26.3265095938905
          13 :   -12.0058136298070
          14 :    4.07636098518390
          15 :   -1.07638401424970
          16 :  -4.480238482710774E-002
          17 :    1.92954396076266
          18 :   -5.45662284927528
          19 :    9.72380712771979
          20 :   -13.1028838327112
          21 :    14.4884816590352
          22 :   -13.9275188791654
          23 :    12.3749661948132
          24 :   -10.9359741962556
          25 :    10.2011405244354
          26 :   -10.0796217418838
          27 :    10.1025547253569
          28 :   -9.86275079371683
          29 :    9.25313379950990
          30 :   -8.40771933266939
          31 :   -37.8744763180920
          32 :   -27.4755371895519

     Forces acting on atoms (Ry/au):

     negative rho (up, down):  1.315E-03 0.000E+00
     atom    1 type  1   force =    -0.00000069   -0.00000091   -0.01116896
     atom    2 type  1   force =     0.00000235   -0.00070702   -0.01119318
     atom    3 type  1   force =    -0.00061160    0.00035106   -0.01119114
     atom    4 type  1   force =     0.00061112    0.00035420   -0.01118939
     atom    5 type  1   force =     0.00261748   -0.00151212    0.01108768
     atom    6 type  1   force =    -0.00261779   -0.00151037    0.01108688
     atom    7 type  1   force =     0.00000011    0.00000119    0.01354806
     atom    8 type  1   force =    -0.00000116    0.00302133    0.01108635
     atom    9 type  1   force =     0.00121790    0.00070533   -0.00040359
     atom   10 type  1   force =    -0.00122305    0.00070944   -0.00040345
     atom   11 type  1   force =     0.00000124   -0.00141143   -0.00040551
     atom   12 type  1   force =     0.00000006   -0.00000108   -0.00016848
     atom   13 type  2   force =     0.00000402    0.00000041   -0.00068527

     Total force =     0.032995     Total SCF correction =     0.003716
     SCF correction compared to forces is large: reduce conv_thr to get better values

     entering subroutine stress ...

     negative rho (up, down):  1.315E-03 0.000E+00
          total   stress  (Ry/bohr**3)                   (kbar)     P=    4.97
   0.00003788   0.00000000   0.00000000          5.57      0.00      0.00
   0.00000000   0.00003788   0.00000000          0.00      5.57      0.00
   0.00000000   0.00000000   0.00002569          0.00      0.00      3.78

 !ASE

     Writing output data file calc.save

     General routines

     Parallel routines

   This run was terminated on:  17:36: 3  17Jan2018

   JOB DONE.
Job  /afs/slac/g/suncat/bin/suncat-tsmpirun -x LD_LIBRARY_PATH -wdir /scratch/qe842449_fpihm pw.x -in pw.inp

TID   HOST_NAME   COMMAND_LINE            STATUS            TERMINATION_TIME
00000 suncat2070 pw.x -in pw.inp   Done                     01/17/2018 17:36:03
00001 suncat2070 pw.x -in pw.inp   Done                     01/17/2018 17:36:03
00002 suncat2070 pw.x -in pw.inp   Done                     01/17/2018 17:36:03
00003 suncat2070 pw.x -in pw.inp   Done                     01/17/2018 17:36:03
00004 suncat2070 pw.x -in pw.inp   Done                     01/17/2018 17:36:03
00005 suncat2070 pw.x -in pw.inp   Done                     01/17/2018 17:36:03
00006 suncat2070 pw.x -in pw.inp   Done                     01/17/2018 17:36:03
00007 suncat2070 pw.x -in pw.inp   Done                     01/17/2018 17:36:03
00008 suncat2070 pw.x -in pw.inp   Done                     01/17/2018 17:36:03
00009 suncat2070 pw.x -in pw.inp   Done                     01/17/2018 17:36:03
00010 suncat2070 pw.x -in pw.inp   Done                     01/17/2018 17:36:03
00011 suncat2070 pw.x -in pw.inp   Done                     01/17/2018 17:36:03
00012 suncat2070 pw.x -in pw.inp   Done                     01/17/2018 17:36:03
00013 suncat2070 pw.x -in pw.inp   Done                     01/17/2018 17:36:03
00014 suncat2070 pw.x -in pw.inp   Done                     01/17/2018 17:36:03
00015 suncat2070 pw.x -in pw.inp   Done                     01/17/2018 17:36:03
00016 suncat2062 pw.x -in pw.inp   Done                     01/17/2018 17:36:03
00017 suncat2062 pw.x -in pw.inp   Done                     01/17/2018 17:36:03
00018 suncat2062 pw.x -in pw.inp   Done                     01/17/2018 17:36:03
00019 suncat2062 pw.x -in pw.inp   Done                     01/17/2018 17:36:03
00020 suncat2062 pw.x -in pw.inp   Done                     01/17/2018 17:36:03
00021 suncat2062 pw.x -in pw.inp   Done                     01/17/2018 17:36:03
00022 suncat2062 pw.x -in pw.inp   Done                     01/17/2018 17:36:03
00023 suncat2062 pw.x -in pw.inp   Done                     01/17/2018 17:36:03
00024 suncat2062 pw.x -in pw.inp   Done                     01/17/2018 17:36:03
00025 suncat2062 pw.x -in pw.inp   Done                     01/17/2018 17:36:03
00026 suncat2062 pw.x -in pw.inp   Done                     01/17/2018 17:36:03
00027 suncat2062 pw.x -in pw.inp   Done                     01/17/2018 17:36:03
00028 suncat2062 pw.x -in pw.inp   Done                     01/17/2018 17:36:03
00029 suncat2062 pw.x -in pw.inp   Done                     01/17/2018 17:36:03
00030 suncat2062 pw.x -in pw.inp   Done                     01/17/2018 17:36:03
00031 suncat2062 pw.x -in pw.inp   Done                     01/17/2018 17:36:03