     Program PWSCF v.5.1rc2 (svn rev. 11289) starts on  3May2018 at  8:38:19

     Current dimensions of program PWSCF are:
     Max number of different atomic species (ntypx) = 10
     Max number of k-points (npk) =  40000
     Max angular momentum in pseudopotentials (lmaxx) =  3
     Presently stress not available with electric field

     IMPORTANT: XC functional enforced from input :
     Exchange-correlation      = BEEF-VDW ( 1  4 27 13 2)
     Any further DFT definition will be discarded
     Please, verify this is what you really want

     Subspace diagonalization in iterative solution of the eigenvalue problem:
     a serial algorithm will be used

     bravais-lattice index     =            0
     lattice parameter (alat)  =       1.8897  a.u.
     unit-cell volume          =    4569.9960 (a.u.)^3
     number of atoms/cell      =           13
     number of atomic types    =            2
     number of electrons       =       198.00
     number of Kohn-Sham states=          109
     kinetic-energy cutoff     =      36.7493  Ry
     charge density cutoff     =     367.4932  Ry
     convergence threshold     =      1.0E-05
     mixing beta               =       0.3000
     number of iterations used =           10  plain     mixing
     Exchange-correlation      = BEEF-VDW ( 1  4 27 13 2)
     nstep                     =           50

     celldm(1)=   1.889726  celldm(2)=   0.000000  celldm(3)=   0.000000
     celldm(4)=   0.000000  celldm(5)=   0.000000  celldm(6)=   0.000000

     crystal axes: (cart. coord. in units of alat)
               a(1) = (   5.637663   0.000000   0.000000 )
               a(2) = (   2.818831   4.882359   0.000000 )
               a(3) = (   0.000000   0.000000  24.603132 )

     reciprocal axes: (cart. coord. in units 2 pi/alat)
               b(1) = (  0.177378 -0.102410  0.000000 )
               b(2) = (  0.000000  0.204819  0.000000 )
               b(3) = (  0.000000  0.000000  0.040645 )

     PseudoPot. # 1 for Pd read from file:
     /u/if/mamunm/psp/gbrv1.5pbe/Pd.UPF
     MD5 check sum: 2d733d2bc2cbfd217af676df1668a4bc
     Pseudo is Ultrasoft + core correction, Zval = 16.0
     Generated by new atomic code, or converted to UPF format
     Using radial grid of  887 points,  6 beta functions with:
                l(1) =   0
                l(2) =   0
                l(3) =   1
                l(4) =   1
                l(5) =   2
                l(6) =   2
     Q(r) pseudized with  8 coefficients,  rinner =    1.130   1.130   1.130
                                                       1.130   1.130

     PseudoPot. # 2 for O  read from file:
     /u/if/mamunm/psp/gbrv1.5pbe/O.UPF
     MD5 check sum: 734c27235a0248c51dbae37a1fbe46ec
     Pseudo is Ultrasoft + core correction, Zval =  6.0
     Generated by new atomic code, or converted to UPF format
     Using radial grid of  737 points,  5 beta functions with:
                l(1) =   0
                l(2) =   0
                l(3) =   1
                l(4) =   1
                l(5) =   2
     Q(r) pseudized with  8 coefficients,  rinner =    0.900   0.900   0.900
                                                       0.900   0.900

     vdW kernel table read from file vdW_kernel_table
     MD5 check sum: 095c7af220d748ca6e76c0b4c6cfb241

     atomic species   valence    mass     pseudopotential
        Pd1           16.00   106.42000     Pd( 1.00)
        O1             6.00    15.99900     O ( 1.00)

     No symmetry found

   Cartesian axes

     site n.     atom                  positions (alat units)
         1           Pd1 tau(   1) = (   1.4094157   0.8137265  10.0000000  )
         2           Pd1 tau(   2) = (   4.2282471   0.8137265  10.0000000  )
         3           Pd1 tau(   3) = (   2.8188314   3.2549061  10.0000000  )
         4           Pd1 tau(   4) = (   5.6376627   3.2549061  10.0000000  )
         5           Pd1 tau(   5) = (   5.6376627   1.6274531  12.3015662  )
         6           Pd1 tau(   6) = (   2.8188314   1.6274531  12.3015662  )
         7           Pd1 tau(   7) = (   7.0470784   4.0686326  12.3015662  )
         8           Pd1 tau(   8) = (   4.2282471   4.0686326  12.3015662  )
         9           Pd1 tau(   9) = (   0.0000000   0.0000000  14.6031324  )
        10           Pd1 tau(  10) = (   2.8188314   0.0000000  14.6031324  )
        11           Pd1 tau(  11) = (   1.4094157   2.4411796  14.6031324  )
        12           Pd1 tau(  12) = (   4.2282471   2.4411796  14.6031324  )
        13           O1  tau(  13) = (   1.4094157   0.0000000  16.1406324  )

     number of k points=    20  Fermi-Dirac smearing, width (Ry)=  0.0110
                       cart. coord. in units 2pi/alat
        k(    1) = (   0.0000000   0.0000000   0.0000000), wk =   0.0555556
        k(    2) = (   0.0000000   0.0341365   0.0000000), wk =   0.1111111
        k(    3) = (   0.0000000   0.0682730   0.0000000), wk =   0.1111111
        k(    4) = (   0.0000000  -0.1024095   0.0000000), wk =   0.0555556
        k(    5) = (   0.0295631  -0.0170683   0.0000000), wk =   0.1111111
        k(    6) = (   0.0295631   0.0170683   0.0000000), wk =   0.1111111
        k(    7) = (   0.0295631   0.0512048   0.0000000), wk =   0.1111111
        k(    8) = (   0.0295631  -0.1194778   0.0000000), wk =   0.1111111
        k(    9) = (   0.0295631  -0.0853413   0.0000000), wk =   0.1111111
        k(   10) = (   0.0295631  -0.0512048   0.0000000), wk =   0.1111111
        k(   11) = (   0.0591262  -0.0341365   0.0000000), wk =   0.1111111
        k(   12) = (   0.0591262  -0.0000000   0.0000000), wk =   0.1111111
        k(   13) = (   0.0591262   0.0341365   0.0000000), wk =   0.1111111
        k(   14) = (   0.0591262  -0.1365460   0.0000000), wk =   0.1111111
        k(   15) = (   0.0591262  -0.1024095   0.0000000), wk =   0.1111111
        k(   16) = (   0.0591262  -0.0682730   0.0000000), wk =   0.1111111
        k(   17) = (  -0.0886892   0.0512048   0.0000000), wk =   0.0555556
        k(   18) = (  -0.0886892   0.0853413   0.0000000), wk =   0.1111111
        k(   19) = (  -0.0886892   0.1194778   0.0000000), wk =   0.1111111
        k(   20) = (  -0.0886892  -0.0512048   0.0000000), wk =   0.0555556

     Largest allocated arrays     est. size (Mb)     dimensions
     Largest temporary arrays     est. size (Mb)     dimensions

     Initial potential from superposition of free atoms
     Check: negative starting charge=   -0.904319

     starting charge  191.99992, renormalised to  198.00000

     negative rho (up, down):  9.326E-01 0.000E+00

     *
     * You are using vdW-DF for exchange-correlation in this calculation.
     * Please cite the following three references that made this development
     * possible:
     *
     *   M. Dion, H. Rydberg, E. Schroder, D. C. Langreth, and
     *   B. I. Lundqvist, Phys. Rev. Lett. 92, 246401 (2004).
     *
     *   T. Thonhauser, V. R. Cooper, S. Li, A. Puzder, P. Hyldgaard, and
     *   D. C. Langreth, Phys. Rev. B 76, 125112 (2007).
     *
     *   G. Roman-Perez and J. M. Soler, Phys. Rev. Lett. 103, 096102 (2009).
     *
     *
     * If you are using vdW-DF2, please also cite:
     *
     *   K. Lee, E. D. Murray, L. Kong, B. I. Lundqvist, and
     *   D. C. Langreth, Phys. Rev. B 82, 081101(R) (2010).
     *
     *
     * If you are calculating the stress with vdW-DF, please also cite:
     *
     *   R. Sabatini, E. Kucukbenli, B. Kolb, T. Thonhauser, and
     *   S. de Gironcoli, J. Phys.: Condens. Matter 24, 424209 (2012).
     *

     Carrying out vdW-DF run using the following parameters:

     Nqs =      20    Nr_points =    1024   r_max =   100.000
     q_mesh =
               0.00001000     0.04494208     0.09755937     0.15916263
               0.23128650     0.31572767     0.41458969     0.53033537
               0.66584808     0.82450364     1.01025438     1.22772762
               1.48234092     1.78043706     2.12944203     2.53805004
               3.01644009     3.57652955     4.23227104     5.00000000

     Gradients computed in reciprocal space

     Adding external electric field

     Computed dipole along edir(3) :
        Dipole               -1.3603 Ry au,         -3.4575 Debye
        Dipole field         -0.0037 Ry au

        Potential amp.        0.3391 Ry
        Total length         45.3309 bohr

     Starting wfc are  148 randomized atomic wfcs

     Self-consistent Calculation

     iteration #  1     ecut=    36.75 Ry     beta=0.30
     Davidson diagonalization with overlap
     ethr =  1.00E-02,  avg # of iterations =  4.8

[...]

     total energy              =   -2380.96924703 Ry
     Harris-Foulkes estimate   =   -2432.70790365 Ry
     estimated scf accuracy    <     109.21568953 Ry

     iteration #  2     ecut=    36.75 Ry     beta=0.30
     Davidson diagonalization with overlap
     c_bands:  1 eigenvalues not converged
     ethr =  1.00E-02,  avg # of iterations = 18.0

[...]

     End of self-consistent calculation

          k = 0.0000 0.0000 0.0000 ( 17231 PWs)   bands (ev):

   -49.9116 -49.8101 -49.5678 -49.5390 -49.5324 -49.4633 -49.4578 -49.4192
   -49.4101 -49.3745 -49.3196 -49.3078 -49.2880 -49.2694 -49.2650 -49.2561
   -49.1958 -49.1948 -49.1798 -49.1737 -49.1649 -49.1049 -49.0363 -49.0169
   -49.0103 -49.0082 -48.9973 -48.9596 -48.9508 -48.9473 -48.8946 -48.8779
   -48.8645 -48.8516 -48.8349 -48.8273 -16.5972  -5.2602  -4.3612  -4.1476
    -3.9939  -3.9767  -3.9617  -3.9393  -3.8812  -3.8210  -3.6903  -3.6306
    -3.6290  -3.5245  -3.4532  -3.4004  -3.2139  -2.9038  -2.7254  -2.4895
    -2.2717  -2.2016  -2.1532  -2.0648  -1.9941  -1.9794  -1.9107  -1.8694
    -1.7088  -1.6901  -1.6526  -1.6519  -1.6243  -1.5559  -1.3233  -1.1577
    -1.0332  -1.0175  -0.9062  -0.7743  -0.6367  -0.6007  -0.5621  -0.4603
    -0.3623  -0.2613  -0.1345  -0.0965   0.0071   0.1093   0.1269   0.1919
     0.2421   0.2474   0.2922   0.3135   0.4073   0.4169   0.4520   0.4753
     0.5211   0.5887   0.6820   0.6841   0.6868   0.9008   1.1209   2.5129
     2.7861   2.9385   3.2400   4.0369   4.1658

[...]

          k =-0.0887 0.0512 0.0000 ( 17240 PWs)   bands (ev):

[...]

     the Fermi energy is     0.4629 ev

!    total energy              =   -2429.84930391 Ry
     Harris-Foulkes estimate   =   -2429.84929997 Ry
     estimated scf accuracy    <       0.00000228 Ry

     The total energy is the sum of the following terms:

     one-electron contribution =  -20709.37757330 Ry
     hartree contribution      =   10403.56610200 Ry
     xc contribution           =    -397.47876881 Ry
     ewald contribution        =    8273.56251053 Ry
     electric field correction =       0.00041519 Ry
     smearing contrib. (-TS)   =      -0.12198951 Ry

     convergence has been achieved in  21 iterations

 BEEF-vdW xc energy contributions
           1 :   -345.926405902451
           2 :    315.787355526553
           3 :   -264.505175428511
           4 :    205.991024380221
           5 :   -153.569917740198
           6 :    115.622945021858
           7 :   -93.8473004093321
           8 :    84.3559724632622
           9 :   -80.6972326756471
          10 :    77.1852282806022
          11 :   -71.0519807520876
          12 :    62.7012565960332
          13 :   -54.3870819638215
          14 :    48.3397671237932
          15 :   -45.4128061388010
          16 :    44.8167444705958
          17 :   -44.8410969864256
          18 :    43.9594874735340
          19 :   -41.6239633300427
          20 :    38.3564201308715
          21 :   -35.2186266910815
          22 :    33.0730185715126
          23 :   -32.0930646768421
          24 :    31.7618795516159
          25 :   -31.2883662162392
          26 :    30.1308278856886
          27 :   -28.2956646133397
          28 :    26.2580600373363
          29 :   -24.6006063792306
          30 :    23.6247410145170
          31 :   -33.7713693734887
          32 :   -24.8818903261745

     Forces acting on atoms (Ry/au):

     negative rho (up, down):  9.420E-01 0.000E+00
     atom    1 type  1   force =     0.00000896    0.00004461    0.00013448
     atom    2 type  1   force =    -0.00001187    0.00043353    0.00064133
     atom    3 type  1   force =     0.00124012   -0.00063058   -0.00157310
     atom    4 type  1   force =    -0.00124798   -0.00062248   -0.00155541
     atom    5 type  1   force =    -0.00198004   -0.00033684   -0.00054294
     atom    6 type  1   force =     0.00198116   -0.00033879   -0.00055789
     atom    7 type  1   force =    -0.00000396    0.00286128    0.01419740
     atom    8 type  1   force =    -0.00000004   -0.00033053   -0.00957049
     atom    9 type  1   force =     0.01163020   -0.00378066    0.03063056
     atom   10 type  1   force =    -0.01163396   -0.00376237    0.03061994
     atom   11 type  1   force =     0.00001370    0.00269724    0.00063887
     atom   12 type  1   force =    -0.00001211    0.00034881    0.00359138
     atom   13 type  2   force =     0.00001580    0.00341678   -0.06665413

     Total force =     0.081548     Total SCF correction =     0.004175

     entering subroutine stress ...

     negative rho (up, down):  9.420E-01 0.000E+00
          total   stress  (Ry/bohr**3)                   (kbar)     P=  -12.39
  -0.00010242  -0.00000000  -0.00000001        -15.07     -0.00     -0.00
  -0.00000000  -0.00008906   0.00000184         -0.00    -13.10      0.27
  -0.00000001   0.00000184  -0.00006121         -0.00      0.27     -9.00

     BFGS Geometry Optimization

     number of scf cycles    =   1
     number of bfgs steps    =   0

     energy   new            =   -2429.8493039134 Ry

     new trust radius        =       0.0667416517 bohr
     new conv_thr            =       0.0000099958 Ry

ATOMIC_POSITIONS (crystal)
Pd1      0.166666667   0.166666667   0.406452311    0   0   0
Pd1      0.666666667   0.166666667   0.406452311    0   0   0
Pd1      0.166666667   0.666666667   0.406452311    0   0   0
Pd1      0.666666667   0.666666667   0.406452311    0   0   0
Pd1      0.833333333   0.333333333   0.500000000    0   0   0
Pd1      0.333333333   0.333333333   0.500000000    0   0   0
Pd1      0.833333333   0.833333333   0.500000000    0   0   0
Pd1      0.333333333   0.833333333   0.500000000    0   0   0
Pd1      0.001296549  -0.000409769   0.594206507
Pd1      0.499111876  -0.000407787   0.594206279
Pd1     -0.000144885   0.500292342   0.593561430
Pd1      0.499979960   0.500037806   0.593624934
O1       0.249816319   0.000370329   0.654606099

     Writing output data file calc.save
     Check: negative starting charge=   -0.904319
     NEW-OLD atomic charge density approx. for the potential
     Check: negative starting charge=   -0.904113

[...]

     energy   old            =   -2429.8493039134 Ry
     energy   new            =   -2429.8549632620 Ry

     CASE: energy  _new < energy  _old

[...]

     Threshold (ethr) on eigenvalues was too large:
     Diagonalizing with lowered threshold

     Davidson diagonalization with overlap
     ethr =  5.22E-08,  avg # of iterations =  1.0

[...]

     Threshold (ethr) on eigenvalues was too large:
     Diagonalizing with lowered threshold

     Davidson diagonalization with overlap
     ethr =  6.03E-08,  avg # of iterations =  1.0

[...]

     WARNING: bfgs curvature condition failed, Theta= 0.988
     new trust radius        =       0.1133045331 bohr
     new conv_thr            =       0.0000001000 Ry

[...]

     WARNING: bfgs curvature condition failed, Theta= 0.385
     new trust radius        =       0.1699567997 bohr
     new conv_thr            =       0.0000001000 Ry

[...]

     Total force =     0.004592     Total SCF correction =     0.000302

[...]

     number of scf cycles    =  37
     number of bfgs steps    =  36

     energy   old            =   -2429.8923315277 Ry
     energy   new            =   -2429.8924523555 Ry

     CASE: energy  _new < energy  _old

     new trust radius        =       0.0379817531 bohr
     new conv_thr            =       0.0000001000 Ry

ATOMIC_POSITIONS (crystal)
Pd1      0.166666667   0.166666667   0.406452311    0   0   0
Pd1      0.666666667   0.166666667   0.406452311    0   0   0
Pd1      0.166666667   0.666666667   0.406452311    0   0   0
Pd1      0.666666667   0.666666667   0.406452311    0   0   0
Pd1      0.833333333   0.333333333   0.500000000    0   0   0
Pd1      0.333333333   0.333333333   0.500000000    0   0   0
Pd1      0.833333333   0.833333333   0.500000000    0   0   0
Pd1      0.333333333   0.833333333   0.500000000    0   0   0
Pd1     -0.005055083  -0.005327669   0.594455647
Pd1      0.510385131  -0.005328844   0.594455351
Pd1     -0.004605879   0.509211992   0.594475063
Pd1      0.500302552   0.499394299   0.592915998
O1       0.167514971   0.164967138   0.641228881

     Writing output data file calc.save
     Check: negative starting charge=   -0.905685
     NEW-OLD atomic charge density approx. for the potential
     Check: negative starting charge=   -0.905739

[...]

     Self-consistent Calculation

[...]

     total energy              =   -2429.89255443 Ry
     Harris-Foulkes estimate   =   -2429.89255447 Ry
     estimated scf accuracy    <       0.00000032 Ry

     iteration # 11     ecut=    36.75 Ry     beta=0.30
     Davidson diagonalization with overlap
     ethr =  1.60E-10,  avg # of iterations =  1.0

[...]

     negative rho (up, down):  9.444E-01 0.000E+00

     Adding external electric field

     Computed dipole along edir(3) :
        Dipole               -0.1984 Ry au,         -0.5043 Debye
        Dipole field         -0.0005 Ry au

        Potential amp.        0.0495 Ry
        Total length         45.3309 bohr

     End of self-consistent calculation

[...]

          k = 0.0591-0.0683 0.0000 ( 17183 PWs)   bands (ev):

[...]

          k =-0.0887-0.0512 0.0000 ( 17240 PWs)   bands (ev):

   -49.7106 -49.6485 -49.5965 -49.3314 -49.3211 -49.2734 -49.2059 -49.1830
   -49.1770 -49.1523 -49.1237 -49.1189 -49.1118 -49.0508 -49.0480 -49.0403
   -49.0214 -49.0175 -49.0033 -48.9940 -48.9427 -48.8857 -48.8811 -48.8236
   -48.8095 -48.8050 -48.7932 -48.7293 -48.7264 -48.7214 -48.7100 -48.6184
   -48.5862 -48.5798 -48.5750 -48.5541 -17.6192  -4.8030  -4.3167  -4.0897
    -3.6437  -3.5593  -3.1567  -3.1047  -3.0984  -2.9872  -2.9182  -2.8778
    -2.8164  -2.6867  -2.6849  -2.6490  -2.6076  -2.4556  -2.4388  -2.4130
    -2.1895  -2.1265  -2.0645  -2.0274  -2.0106  -1.9427  -1.8266  -1.7575
    -1.6769  -1.5096  -1.4570  -1.4298  -1.3545  -1.2993  -1.2685  -1.1598
    -1.1532  -1.1237  -1.1092  -1.0184  -0.9652  -0.9475  -0.8729  -0.8029
    -0.7719  -0.7127  -0.6561  -0.5835  -0.5257  -0.5115  -0.4400  -0.3761
    -0.3079  -0.3067  -0.1261  -0.0700  -0.0233   0.0285   0.2251   0.3792
     0.4396   0.5059   0.5408   0.6656   0.6995   0.9972   1.0140   1.8821
     3.1466   3.2526   3.4373   3.6254   4.5567

     the Fermi energy is     0.7096 ev

!    total energy              =   -2429.89255444 Ry
     Harris-Foulkes estimate   =   -2429.89255406 Ry
     estimated scf accuracy    <       0.00000003 Ry

     The total energy is the sum of the following terms:

     one-electron contribution =  -20809.21801166 Ry
     hartree contribution      =   10454.65639253 Ry
     xc contribution           =    -397.60498436 Ry
     ewald contribution        =    8322.38926794 Ry
     electric field correction =       0.00010823 Ry
     smearing contrib. (-TS)   =      -0.11532711 Ry

     convergence has been achieved in  11 iterations

 BEEF-vdW xc energy contributions
           1 :   -346.070120803236
           2 :    316.008583884642
           3 :   -264.790665122101
           4 :    206.243812317284
           5 :   -153.684854745410
           6 :    115.556552446724
           7 :   -93.6409130611144
           8 :    84.1077334380487
           9 :   -80.5070318959952
          10 :    77.1065020239398
          11 :   -71.0749048347191
          12 :    62.7726648855798
          13 :   -54.4490810492757
          14 :    48.3599412619295
          15 :   -45.3923523083621
          16 :    44.7781565630032
          17 :   -44.8067994438238
          18 :    43.9376780192584
          19 :   -41.6090046533586
          20 :    38.3375984578489
          21 :   -35.1878759040050
          22 :    33.0275655877447
          23 :   -32.0353148580045
          24 :    31.6989709464085
          25 :   -31.2293413422911
          26 :    30.0823836494013
          27 :   -28.2590739748291
          28 :    26.2275012556651
          29 :   -24.5643645923158
          30 :    23.5698945730875
          31 :   -33.7810172606684
          32 :   -24.9051162749388

     Forces acting on atoms (Ry/au):

     negative rho (up, down):  9.444E-01 0.000E+00
     atom    1 type  1   force =    -0.00000000    0.00003511    0.00044732
     atom    2 type  1   force =     0.00000004    0.00170514   -0.00186121
     atom    3 type  1   force =     0.00146487   -0.00083122   -0.00186237
     atom    4 type  1   force =    -0.00146496   -0.00083129   -0.00186225
     atom    5 type  1   force =    -0.00048221    0.00021895   -0.00459432
     atom    6 type  1   force =     0.00048213    0.00021906   -0.00459450
     atom    7 type  1   force =     0.00000062   -0.00015629    0.01697982
     atom    8 type  1   force =    -0.00000016   -0.00061017   -0.00445293
     atom    9 type  1   force =     0.00089914   -0.00018576   -0.00000297
     atom   10 type  1   force =    -0.00090439   -0.00018232    0.00000105
     atom   11 type  1   force =     0.00000030   -0.00096509    0.00059836
     atom   12 type  1   force =     0.00000043    0.00050668    0.00038823
     atom   13 type  2   force =     0.00000419    0.00107721    0.00081575

     Total force =     0.002284     Total SCF correction =     0.000341
     SCF correction compared to forces is large: reduce conv_thr to get better values

     entering subroutine stress ...

     negative rho (up, down):  9.444E-01 0.000E+00
          total   stress  (Ry/bohr**3)                   (kbar)     P=   -6.33
  -0.00005877   0.00000000   0.00000000         -8.65      0.00      0.00
   0.00000000  -0.00005994   0.00000079          0.00     -8.82      0.12
   0.00000000   0.00000079  -0.00001028          0.00      0.12     -1.51

     bfgs converged in  38 scf cycles and  37 bfgs steps
     (criteria: energy <  1.0E+00, force <  1.9E-03)

     End of BFGS Geometry Optimization

     Final energy   =   -2429.8925544407 Ry
Begin final coordinates

ATOMIC_POSITIONS (crystal)
Pd1      0.166666667   0.166666667   0.406452311    0   0   0
Pd1      0.666666667   0.166666667   0.406452311    0   0   0
Pd1      0.166666667   0.666666667   0.406452311    0   0   0
Pd1      0.666666667   0.666666667   0.406452311    0   0   0
Pd1      0.833333333   0.333333333   0.500000000    0   0   0
Pd1      0.333333333   0.333333333   0.500000000    0   0   0
Pd1      0.833333333   0.833333333   0.500000000    0   0   0
Pd1      0.333333333   0.833333333   0.500000000    0   0   0
Pd1     -0.005055083  -0.005327669   0.594455647
Pd1      0.510385131  -0.005328844   0.594455351
Pd1     -0.004605879   0.509211992   0.594475063
Pd1      0.500302552   0.499394299   0.592915998
O1       0.167514971   0.164967138   0.641228881
End final coordinates

     Writing output data file calc.save

     General routines

     Parallel routines

   This run was terminated on:  12:44:30   3May2018

   JOB DONE.
Job  /afs/slac/g/suncat/bin/suncat-tsmpirun -x LD_LIBRARY_PATH -wdir /scratch/qe688209_W9ic5 pw.x -npool 4 -in pw.inp

TID   HOST_NAME   COMMAND_LINE            STATUS            TERMINATION_TIME
00000 suncat0040 pw.x -npool 4 -i  Done                     05/03/2018 12:44:30
00001 suncat0040 pw.x -npool 4 -i  Done                     05/03/2018 12:44:30
00002 suncat0040 pw.x -npool 4 -i  Done                     05/03/2018 12:44:30
00003 suncat0040 pw.x -npool 4 -i  Done                     05/03/2018 12:44:30
00004 suncat0040 pw.x -npool 4 -i  Done                     05/03/2018 12:44:30
00005 suncat0040 pw.x -npool 4 -i  Done                     05/03/2018 12:44:30
00006 suncat0040 pw.x -npool 4 -i  Done                     05/03/2018 12:44:30
00007 suncat0040 pw.x -npool 4 -i  Done                     05/03/2018 12:44:30
00008 suncat0037 pw.x -npool 4 -i  Done                     05/03/2018 12:44:30
00009 suncat0037 pw.x -npool 4 -i  Done                     05/03/2018 12:44:30
00010 suncat0037 pw.x -npool 4 -i  Done                     05/03/2018 12:44:30
00011 suncat0037 pw.x -npool 4 -i  Done                     05/03/2018 12:44:30
00012 suncat0037 pw.x -npool 4 -i  Done                     05/03/2018 12:44:30
00013 suncat0037 pw.x -npool 4 -i  Done                     05/03/2018 12:44:30
00014 suncat0037 pw.x -npool 4 -i  Done                     05/03/2018 12:44:30
00015 suncat0037 pw.x -npool 4 -i  Done                     05/03/2018 12:44:30
00016 suncat0025 pw.x -npool 4 -i  Done                     05/03/2018 12:44:30
00017 suncat0025 pw.x -npool 4 -i  Done                     05/03/2018 12:44:30
00018 suncat0025 pw.x -npool 4 -i  Done                     05/03/2018 12:44:30
00019 suncat0025 pw.x -npool 4 -i  Done                     05/03/2018 12:44:30
00020 suncat0025 pw.x -npool 4 -i  Done                     05/03/2018 12:44:30
00021 suncat0025 pw.x -npool 4 -i  Done                     05/03/2018 12:44:30
00022 suncat0025 pw.x -npool 4 -i  Done                     05/03/2018 12:44:30
00023 suncat0025 pw.x -npool 4 -i  Done                     05/03/2018 12:44:30
00024 suncat0199 pw.x -npool 4 -i  Done                     05/03/2018 12:44:30
00025 suncat0199 pw.x -npool 4 -i  Done                     05/03/2018 12:44:30
00026 suncat0199 pw.x -npool 4 -i  Done                     05/03/2018 12:44:30
00027 suncat0199 pw.x -npool 4 -i  Done                     05/03/2018 12:44:30
00028 suncat0199 pw.x -npool 4 -i  Done                     05/03/2018 12:44:30
00029 suncat0199 pw.x -npool 4 -i  Done                     05/03/2018 12:44:30
00030 suncat0199 pw.x -npool 4 -i  Done                     05/03/2018 12:44:30
00031 suncat0199 pw.x -npool 4 -i  Done                     05/03/2018 12:44:30