     Program PWSCF v.5.1rc2 (svn rev. ) starts on 18Apr2018 at  3:46:43

     Current dimensions of program PWSCF are:
     Max number of different atomic species (ntypx) = 10
     Max number of k-points (npk) =  40000
     Max angular momentum in pseudopotentials (lmaxx) =  3
     Presently stress not available with electric field

     IMPORTANT: XC functional enforced from input :
     Exchange-correlation      = BEEF-VDW ( 1  4 27 13 2)
     Any further DFT definition will be discarded
     Please, verify this is what you really want

     Subspace diagonalization in iterative solution of the eigenvalue problem:
     a serial algorithm will be used

     bravais-lattice index     =            0
     lattice parameter (alat)  =       1.8897  a.u.
     unit-cell volume          =    6024.3322 (a.u.)^3
     number of atoms/cell      =           14
     number of atomic types    =            3
     number of electrons       =       151.00
     number of Kohn-Sham states=           85
     kinetic-energy cutoff     =      36.7493  Ry
     charge density cutoff     =     367.4932  Ry
     convergence threshold     =      1.0E-05
     mixing beta               =       0.3000
     number of iterations used =           10  plain     mixing
     Exchange-correlation      = BEEF-VDW ( 1  4 27 13 2)
     nstep                     =           50

     celldm(1)=   1.889726  celldm(2)=   0.000000  celldm(3)=   0.000000
     celldm(4)=   0.000000  celldm(5)=   0.000000  celldm(6)=   0.000000

     crystal axes: (cart. coord. in units of alat)
               a(1) = (   6.393197   0.000000   0.000000 )
               a(2) = (   3.196599   5.536671   0.000000 )
               a(3) = (   0.000000   0.000000  25.220024 )

     reciprocal axes: (cart. coord. in units 2 pi/alat)
               b(1) = (  0.156416 -0.090307  0.000000 )
               b(2) = (  0.000000  0.180614  0.000000 )
               b(3) = (  0.000000  0.000000  0.039651 )

     PseudoPot. # 1 for Hf read from file:
     /home/mamunm/src/pseudo/gbrv1.5pbe/Hf.UPF
     MD5 check sum: 8ee9378dfe14276e333edf04c5e4aa26
     Pseudo is Ultrasoft + core correction, Zval = 12.0
     Generated by new atomic code, or converted to UPF format
     Using radial grid of  921 points,  8 beta functions with:
                l(1) =   0
                l(2) =   0
                l(3) =   0
                l(4) =   1
                l(5) =   1
                l(6) =   2
                l(7) =   2
                l(8) =   3
     Q(r) pseudized with  6 coefficients,  rinner =    1.200   1.200   1.200
                                                       1.200   1.200   1.200
                                                       1.200

     PseudoPot. # 2 for S  read from file:
     /home/mamunm/src/pseudo/gbrv1.5pbe/S.UPF
     MD5 check sum: 88d86576ff6df21479756cfb9bdac1df
     Pseudo is Ultrasoft + core correction, Zval =  6.0
     Generated by new atomic code, or converted to UPF format
     Using radial grid of  907 points,  6 beta functions with:
                l(1) =   0
                l(2) =   0
                l(3) =   1
                l(4) =   1
                l(5) =   2
                l(6) =   2
     Q(r) pseudized with  8 coefficients,  rinner =    1.300   1.300   1.300
                                                       1.300   1.300

     PseudoPot. # 3 for H  read from file:
     /home/mamunm/src/pseudo/gbrv1.5pbe/H.UPF
     MD5 check sum: 761ae9a214b05c3daf00ab9f6b793d6f
     Pseudo is Ultrasoft, Zval =  1.0
     Generated by new atomic code, or converted to UPF format
     Using radial grid of  615 points,  2 beta functions with:
                l(1) =   0
                l(2) =   0
     Q(r) pseudized with  8 coefficients,  rinner =    0.700

     vdW kernel table read from file vdW_kernel_table
     MD5 check sum: 095c7af220d748ca6e76c0b4c6cfb241

     atomic species   valence    mass     pseudopotential
        Hf1           12.00   178.49000     Hf( 1.00)
        S1             6.00    32.06000     S ( 1.00)
        H1             1.00     1.00800     H ( 1.00)

     No symmetry found

   Cartesian axes

     site n.     atom                  positions (alat units)
         1           Hf1 tau(   1) = (   1.5982993   0.9227785  10.0000000  )
         2           Hf1 tau(   2) = (   4.7948978   0.9227785  10.0000000  )
         3           Hf1 tau(   3) = (   3.1965986   3.6911141  10.0000000  )
         4           Hf1 tau(   4) = (   6.3931971   3.6911141  10.0000000  )
         5           Hf1 tau(   5) = (   6.3931971   1.8455570  12.6100118  )
         6           Hf1 tau(   6) = (   3.1965986   1.8455570  12.6100118  )
         7           Hf1 tau(   7) = (   7.9914964   4.6138926  12.6100118  )
         8           Hf1 tau(   8) = (   4.7948978   4.6138926  12.6100118  )
         9           Hf1 tau(   9) = (   0.0000000   0.0000000  15.2200236  )
        10           Hf1 tau(  10) = (   3.1965986   0.0000000  15.2200236  )
        11           Hf1 tau(  11) = (   1.5982993   2.7683356  15.2200236  )
        12           Hf1 tau(  12) = (   4.7948978   2.7683356  15.2200236  )
        13           S1  tau(  13) = (   3.1965986   1.8455570  17.0400236  )
        14           H1  tau(  14) = (   3.1965986   1.8455570  18.2900236  )

     number of k points=    20  Fermi-Dirac smearing, width (Ry)=  0.0110
                       cart. coord. in units 2pi/alat
        k(    1) = (   0.0000000   0.0000000   0.0000000), wk =   0.0555556
        k(    2) = (   0.0000000   0.0301023   0.0000000), wk =   0.1111111
        k(    3) = (   0.0000000   0.0602046   0.0000000), wk =   0.1111111
        k(    4) = (   0.0000000  -0.0903070   0.0000000), wk =   0.0555556
        k(    5) = (   0.0260694  -0.0150512   0.0000000), wk =   0.1111111
        k(    6) = (   0.0260694   0.0150512   0.0000000), wk =   0.1111111
        k(    7) = (   0.0260694   0.0451535   0.0000000), wk =   0.1111111
        k(    8) = (   0.0260694  -0.1053581   0.0000000), wk =   0.1111111
        k(    9) = (   0.0260694  -0.0752558   0.0000000), wk =   0.1111111
        k(   10) = (   0.0260694  -0.0451535   0.0000000), wk =   0.1111111
        k(   11) = (   0.0521388  -0.0301023   0.0000000), wk =   0.1111111
        k(   12) = (   0.0521388   0.0000000   0.0000000), wk =   0.1111111
        k(   13) = (   0.0521388   0.0301023   0.0000000), wk =   0.1111111
        k(   14) = (   0.0521388  -0.1204093   0.0000000), wk =   0.1111111
        k(   15) = (   0.0521388  -0.0903070   0.0000000), wk =   0.1111111
        k(   16) = (   0.0521388  -0.0602046   0.0000000), wk =   0.1111111
        k(   17) = (  -0.0782081   0.0451535   0.0000000), wk =   0.0555556
        k(   18) = (  -0.0782081   0.0752558   0.0000000), wk =   0.1111111
        k(   19) = (  -0.0782081   0.1053581   0.0000000), wk =   0.1111111
        k(   20) = (  -0.0782081  -0.0451535   0.0000000), wk =   0.0555556

     Largest allocated arrays     est. size (Mb)     dimensions
     Largest temporary arrays     est. size (Mb)     dimensions

     Check: negative/imaginary core charge=   -0.000003    0.000000

     Initial potential from superposition of free atoms
     Check: negative starting charge=   -1.301213

     starting charge  126.99993, renormalised to  151.00000

     negative rho (up, down):  1.547E+00 0.000E+00

     *
     * You are using vdW-DF for exchange-correlation in this calculation.
     * Please cite the following three references that made this development
     * possible:
     *
     *   M. Dion, H. Rydberg, E. Schroder, D. C. Langreth, and
     *   B. I. Lundqvist, Phys. Rev. Lett. 92, 246401 (2004).
     *
     *   T. Thonhauser, V. R. Cooper, S. Li, A. Puzder, P. Hyldgaard, and
     *   D. C. Langreth, Phys. Rev. B 76, 125112 (2007).
     *
     *   G. Roman-Perez and J. M. Soler, Phys. Rev. Lett. 103, 096102 (2009).
     *
     *
     * If you are using vdW-DF2, please also cite:
     *
     *   K. Lee, E. D. Murray, L. Kong, B. I. Lundqvist, and
     *   D. C. Langreth, Phys. Rev. B 82, 081101(R) (2010).
     *
     *
     * If you are calculating the stress with vdW-DF, please also cite:
     *
     *   R. Sabatini, E. Kucukbenli, B. Kolb, T. Thonhauser, and
     *   S. de Gironcoli, J. Phys.: Condens. Matter 24, 424209 (2012).
     *

     Carrying out vdW-DF run using the following parameters:

     Nqs =      20    Nr_points =    1024   r_max =   100.000
     q_mesh =
               0.00001000     0.04494208     0.09755937     0.15916263
               0.23128650     0.31572767     0.41458969     0.53033537
               0.66584808     0.82450364     1.01025438     1.22772762
               1.48234092     1.78043706     2.12944203     2.53805004
               3.01644009     3.57652955     4.23227104     5.00000000

     Gradients computed in reciprocal space

     Adding external electric field

     Computed dipole along edir(3) :
        Dipole              -11.5201 Ry au,        -29.2811 Debye
        Dipole field         -0.0240 Ry au

        Potential amp.        2.2332 Ry
        Total length         46.4675 bohr

     Starting wfc are  161 randomized atomic wfcs

     Self-consistent Calculation

     iteration #  1     ecut=    36.75 Ry     beta=0.30
     Davidson diagonalization with overlap
     ethr =  1.00E-02,  avg # of iterations =  9.8

[...]

     total energy              =   -1246.98505302 Ry
     Harris-Foulkes estimate   =   -1946.75385775 Ry
     estimated scf accuracy    <    1498.85699135 Ry

[...]

     iteration #  3     ecut=    36.75 Ry     beta=0.30
     Davidson diagonalization with overlap
     c_bands:  1 eigenvalues not converged
     ethr =  1.00E-02,  avg # of iterations = 16.6

[...]

     End of self-consistent calculation

          k = 0.0000 0.0000 0.0000 ( 22729 PWs)   bands (ev):

   -60.7810 -60.7422 -60.7105 -60.7101 -60.7007 -60.6273 -60.6025 -60.6022
   -60.3516 -60.3226 -60.3106 -60.3104 -29.4988 -29.4987 -29.4973 -29.4691
   -29.4690 -29.4527 -29.4289 -29.3752 -29.3216 -29.3213 -29.2891 -29.2319
   -29.1943 -29.1941 -29.0815 -29.0798 -29.0797 -29.0608 -29.0608 -29.0316
   -29.0179 -29.0178 -29.0113 -28.9516 -28.9516 -28.8949 -28.8949 -28.8102
   -28.7932 -28.7878 -28.7876 -28.7092 -28.7032 -28.7032 -28.5832 -28.5832
   -13.2843  -6.3804  -4.4819  -3.0697  -2.7187  -2.7187  -1.9119  -1.1450
    -1.0145  -1.0145  -0.8490  -0.8490  -0.7699  -0.3504  -0.2746  -0.2746
     0.1700   0.1730   0.1730   0.9779   0.9780   1.0648   1.6949   1.8916
     2.1914   2.2483   2.2483   2.3188   2.5424   2.5424   2.7145   2.7385
     2.9080   2.9080   3.0775   3.1264   3.1265

[...]

          k =-0.0782 0.0452 0.0000 ( 22668 PWs)   bands (ev):

[...]

     the Fermi energy is     1.8929 ev

!    total energy              =   -1952.36607350 Ry
     Harris-Foulkes estimate   =   -1952.36608573 Ry
     estimated scf accuracy    <       0.00000187 Ry

     The total energy is the sum of the following terms:

     one-electron contribution =   -8575.62130049 Ry
     hartree contribution      =    4274.96623973 Ry
     xc contribution           =    -937.43886241 Ry
     ewald contribution        =    3285.84359234 Ry
     electric field correction =       0.00022097 Ry
     smearing contrib. (-TS)   =      -0.11596364 Ry

     convergence has been achieved in  43 iterations

 BEEF-vdW xc energy contributions
           1 :   -847.248599157401
           2 :    787.121907138845
           3 :   -680.615338310355
           4 :    549.795231726438
           5 :   -417.494652404010
           6 :    300.922969099243
           7 :   -208.807032620236
           8 :    142.253959516392
           9 :   -97.8464873530046
          10 :    70.7395243870305
          11 :   -56.3267828172310
          12 :    50.3519185216428
          13 :   -48.4439444641873
          14 :    46.1241986261825
          15 :   -39.6861203348351
          16 :    27.4423574216735
          17 :   -10.4606271039800
          18 :   -7.84450897715726
          19 :    23.1681422371252
          20 :   -32.1158178021560
          21 :    33.4535278997355
          22 :   -28.2939991472595
          23 :    19.3082701532875
          24 :   -9.54592728954981
          25 :    1.49419346012064
          26 :    3.30000231404006
          27 :   -4.15973157554731
          28 :    1.09616271293407
          29 :    5.22532133602658
          30 :   -13.4063376450254
          31 :   -61.2137279169772
          32 :   -43.9900384365676

     Forces acting on atoms (Ry/au):

     negative rho (up, down):  1.379E+00 0.000E+00
     atom    1 type  1   force =     0.00139677    0.00087300    0.02592550
     atom    2 type  1   force =    -0.00140044    0.00084212    0.02600222
     atom    3 type  1   force =    -0.00002507   -0.00166518    0.02590974
     atom    4 type  1   force =     0.00001768   -0.00004676    0.02567224
     atom    5 type  1   force =    -0.00010466   -0.00213780   -0.00717196
     atom    6 type  1   force =     0.00010956   -0.00000022   -0.00191895
     atom    7 type  1   force =     0.00185549    0.00113368   -0.00721978
     atom    8 type  1   force =    -0.00185509    0.00100855   -0.00712243
     atom    9 type  1   force =    -0.00004199    0.00006525   -0.04384725
     atom   10 type  1   force =     0.00003853   -0.02035402   -0.01061083
     atom   11 type  1   force =    -0.01767651    0.01015783   -0.01066208
     atom   12 type  1   force =     0.01767503    0.01011939   -0.01065402
     atom   13 type  2   force =     0.00001230    0.00000424   -0.13721423
     atom   14 type  3   force =    -0.00000161   -0.00000007    0.13291182

     Total force =     0.200001     Total SCF correction =     0.001669

     entering subroutine stress ...

     negative rho (up, down):  1.379E+00 0.000E+00
          total   stress  (Ry/bohr**3)                   (kbar)     P=  -19.19
  -0.00013602  -0.00000000   0.00000002        -20.01     -0.00      0.00
  -0.00000000  -0.00013601   0.00000001         -0.00    -20.01      0.00
   0.00000002   0.00000001  -0.00011931          0.00      0.00    -17.55

     BFGS Geometry Optimization

     number of scf cycles    =   1
     number of bfgs steps    =   0

     energy   new            =   -1952.3660735009 Ry

     new trust radius        =       0.1372142275 bohr
     new conv_thr            =       0.0000099958 Ry

ATOMIC_POSITIONS (crystal)
Hf1      0.166666667   0.166666667   0.396510335    0   0   0
Hf1      0.666666667   0.166666667   0.396510335    0   0   0
Hf1      0.166666667   0.666666667   0.396510335    0   0   0
Hf1      0.666666667   0.666666667   0.396510335    0   0   0
Hf1      0.833333333   0.333333333   0.500000000    0   0   0
Hf1      0.333333333   0.333333333   0.500000000    0   0   0
Hf1      0.833333333   0.833333333   0.500000000    0   0   0
Hf1      0.333333333   0.833333333   0.500000000    0   0   0
Hf1     -0.000006594   0.000006236   0.602569644
Hf1      0.500975875  -0.001945372   0.603267024
Hf1     -0.001948545   0.500970852   0.603265949
Hf1      0.500979407   0.500967179   0.603266118
S1       0.333334149   0.333333738   0.672775459
H1       0.333333203   0.333333326   0.728007150

     Writing output data file calc.save
     Check: negative starting charge=   -1.301213
     NEW-OLD atomic charge density approx. for the potential

     Check: negative/imaginary core charge=   -0.000003    0.000000
     Check: negative starting charge=   -1.301651

[...]

     energy   old            =   -1952.3660735009 Ry
     energy   new            =   -1952.3822963592 Ry

     CASE: energy  _new < energy  _old

[...]

     WARNING: bfgs curvature condition failed, Theta= 0.938
     new trust radius        =       0.0670439321 bohr
     new conv_thr            =       0.0000001000 Ry

[...]

     Total force =     0.008639     Total SCF correction =     0.000557

[...]

     Total force =     0.003255     Total SCF correction =     0.000335
     SCF correction compared to forces is large: reduce conv_thr to get better values

[...]

     number of scf cycles    =  14
     number of bfgs steps    =  13

     energy   old            =   -1952.4011619200 Ry
     energy   new            =   -1952.4013041689 Ry

     CASE: energy  _new < energy  _old

     new trust radius        =       0.0068751672 bohr
     new conv_thr            =       0.0000001000 Ry

ATOMIC_POSITIONS (crystal)
Hf1      0.166666667   0.166666667   0.396510335    0   0   0
Hf1      0.666666667   0.166666667   0.396510335    0   0   0
Hf1      0.166666667   0.666666667   0.396510335    0   0   0
Hf1      0.666666667   0.666666667   0.396510335    0   0   0
Hf1      0.833333333   0.333333333   0.500000000    0   0   0
Hf1      0.333333333   0.333333333   0.500000000    0   0   0
Hf1      0.833333333   0.833333333   0.500000000    0   0   0
Hf1      0.333333333   0.833333333   0.500000000    0   0   0
Hf1      0.000001983  -0.000002188   0.593040862
Hf1      0.507013549  -0.014029709   0.599117123
Hf1     -0.014032130   0.507014702   0.599116843
Hf1      0.507015817   0.507015106   0.599116883
S1       0.333334593   0.333334965   0.668179253
H1       0.333332710   0.333334752   0.722441811

     Writing output data file calc.save
     Check: negative starting charge=   -1.295161
     NEW-OLD atomic charge density approx. for the potential

     Check: negative/imaginary core charge=   -0.000003    0.000000
     Check: negative starting charge=   -1.295078

[...]

     Self-consistent Calculation

[...]

     Threshold (ethr) on eigenvalues was too large:
     Diagonalizing with lowered threshold

     Davidson diagonalization with overlap
     ethr =  7.46E-08,  avg # of iterations =  3.8

[...]

     total energy              =   -1952.40131967 Ry
     Harris-Foulkes estimate   =   -1952.40131962 Ry
     estimated scf accuracy    <       0.00000015 Ry

     iteration # 10     ecut=    36.75 Ry     beta=0.30
     Davidson diagonalization with overlap
     ethr =  9.74E-11,  avg # of iterations =  4.6

[...]

     negative rho (up, down):  1.371E+00 0.000E+00

     Adding external electric field

     Computed dipole along edir(3) :
        Dipole                0.2909 Ry au,          0.7394 Debye
        Dipole field          0.0006 Ry au

        Potential amp.       -0.0564 Ry
        Total length         46.4675 bohr

     End of self-consistent calculation

[...]

          k = 0.0521-0.0602 0.0000 ( 22643 PWs)   bands (ev):

[...]

          k =-0.0782-0.0452 0.0000 ( 22668 PWs)   bands (ev):

   -60.7700 -60.7663 -60.7529 -60.7462 -60.5926 -60.5628 -60.5446 -60.5392
   -60.3463 -60.2302 -60.2215 -60.2139 -29.4382 -29.4331 -29.3913 -29.3859
   -29.3371 -29.3308 -29.3280 -29.3278 -29.3045 -29.2757 -29.2652 -29.2324
   -29.2300 -29.2208 -29.1991 -29.1671 -29.1597 -29.1405 -29.0916 -29.0606
   -29.0542 -29.0489 -28.9327 -28.9213 -28.8648 -28.8532 -28.8334 -28.7927
   -28.7474 -28.7203 -28.7173 -28.6813 -28.6738 -28.6607 -28.6068 -28.5564
   -12.8543  -5.8246  -3.4015  -2.9953  -2.6307  -2.5910  -1.6618  -1.4309
    -0.8114  -0.8077  -0.4759  -0.3243  -0.2162  -0.1632   0.6303   0.6477
     0.7593   0.7982   0.9175   0.9756   1.1556   1.2171   1.2696   1.3023
     1.3598   1.4785   1.6487   1.7361   1.7571   1.7911   1.8043   1.9443
     2.0480   2.1536   2.2225   2.3420   2.7852

     the Fermi energy is     1.8445 ev

!    total energy              =   -1952.40131967 Ry
     Harris-Foulkes estimate   =   -1952.40131966 Ry
     estimated scf accuracy    <       0.00000003 Ry

     The total energy is the sum of the following terms:

     one-electron contribution =   -8776.97191675 Ry
     hartree contribution      =    4375.82138469 Ry
     xc contribution           =    -937.65586673 Ry
     ewald contribution        =    3386.51653905 Ry
     electric field correction =       0.00017654 Ry
     smearing contrib. (-TS)   =      -0.11163646 Ry

     convergence has been achieved in  10 iterations

 BEEF-vdW xc energy contributions
           1 :   -847.472195371478
           2 :    787.426553729449
           3 :   -680.987039176966
           4 :    550.113564232494
           5 :   -417.616072340409
           6 :    300.792527963827
           7 :   -208.509255446038
           8 :    141.962883350995
           9 :   -97.7104956168422
          10 :    70.7874335695203
          11 :   -56.4610095510874
          12 :    50.4276732392982
          13 :   -48.3743598179102
          14 :    45.9374655547505
          15 :   -39.4972462454659
          16 :    27.3646399816296
          17 :   -10.5211037953594
          18 :   -7.72550840100450
          19 :    23.1189385489487
          20 :   -32.2179465999453
          21 :    33.6777529619750
          22 :   -28.5155900335911
          23 :    19.3930100045992
          24 :   -9.44542639185954
          25 :    1.28055958797574
          26 :    3.48677413008113
          27 :   -4.21373346471876
          28 :    1.02126043804435
          29 :    5.32312697110308
          30 :   -13.4044883676561
          31 :   -61.2307645245156
          32 :   -44.0174204550488

     Forces acting on atoms (Ry/au):

     negative rho (up, down):  1.371E+00 0.000E+00
     atom    1 type  1   force =     0.00187562    0.00108308    0.02034615
     atom    2 type  1   force =    -0.00187565    0.00108339    0.02034559
     atom    3 type  1   force =     0.00000026   -0.00216613    0.02034552
     atom    4 type  1   force =    -0.00000039   -0.00000034    0.01879479
     atom    5 type  1   force =     0.00000040    0.00593151   -0.02712517
     atom    6 type  1   force =    -0.00000088   -0.00000002    0.00135328
     atom    7 type  1   force =    -0.00513858   -0.00296623   -0.02712334
     atom    8 type  1   force =     0.00513884   -0.00296608   -0.02712555
     atom    9 type  1   force =    -0.00000047    0.00000302   -0.00058331
     atom   10 type  1   force =    -0.00000049   -0.00041942    0.00027748
     atom   11 type  1   force =    -0.00035920    0.00020716    0.00027926
     atom   12 type  1   force =     0.00036221    0.00020986    0.00027767
     atom   13 type  2   force =    -0.00000206    0.00000038    0.00047522
     atom   14 type  3   force =     0.00000038   -0.00000018   -0.00053758

     Total force =     0.001269     Total SCF correction =     0.000424
     SCF correction compared to forces is large: reduce conv_thr to get better values

     entering subroutine stress ...

     negative rho (up, down):  1.371E+00 0.000E+00
          total   stress  (Ry/bohr**3)                   (kbar)     P=  -14.45
  -0.00010261   0.00000000  -0.00000000        -15.09      0.00     -0.00
   0.00000000  -0.00010262   0.00000000          0.00    -15.10      0.00
  -0.00000000   0.00000000  -0.00008938         -0.00      0.00    -13.15

     bfgs converged in  15 scf cycles and  14 bfgs steps
     (criteria: energy <  1.0E+00, force <  1.9E-03)

     End of BFGS Geometry Optimization

     Final energy   =   -1952.4013196658 Ry
Begin final coordinates

ATOMIC_POSITIONS (crystal)
Hf1      0.166666667   0.166666667   0.396510335    0   0   0
Hf1      0.666666667   0.166666667   0.396510335    0   0   0
Hf1      0.166666667   0.666666667   0.396510335    0   0   0
Hf1      0.666666667   0.666666667   0.396510335    0   0   0
Hf1      0.833333333   0.333333333   0.500000000    0   0   0
Hf1      0.333333333   0.333333333   0.500000000    0   0   0
Hf1      0.833333333   0.833333333   0.500000000    0   0   0
Hf1      0.333333333   0.833333333   0.500000000    0   0   0
Hf1      0.000001983  -0.000002188   0.593040862
Hf1      0.507013549  -0.014029709   0.599117123
Hf1     -0.014032130   0.507014702   0.599116843
Hf1      0.507015817   0.507015106   0.599116883
S1       0.333334593   0.333334965   0.668179253
H1       0.333332710   0.333334752   0.722441811
End final coordinates

     Writing output data file calc.save

     General routines

     Parallel routines

   This run was terminated on:   5:35:30  18Apr2018

   JOB DONE.