     Program PWSCF v.5.1rc2 (svn rev. 11289) starts on 30Apr2018 at 16:38:28

     Current dimensions of program PWSCF are:
     Max number of different atomic species (ntypx) = 10
     Max number of k-points (npk) =  40000
     Max angular momentum in pseudopotentials (lmaxx) =  3
     Presently stress not available with electric field

     IMPORTANT: XC functional enforced from input :
     Exchange-correlation      = BEEF-VDW ( 1  4 27 13 2)
     Any further DFT definition will be discarded
     Please, verify this is what you really want

     Subspace diagonalization in iterative solution of the eigenvalue problem:
     a serial algorithm will be used

     bravais-lattice index     =            0
     lattice parameter (alat)  =       1.8897  a.u.
     unit-cell volume          =    4650.5773 (a.u.)^3
     number of atoms/cell      =           13
     number of atomic types    =            2
     number of electrons       =        37.00
     number of Kohn-Sham states=           28
     kinetic-energy cutoff     =      36.7493  Ry
     charge density cutoff     =     367.4932  Ry
     convergence threshold     =      1.0E-05
     mixing beta               =       0.3000
     number of iterations used =           10  plain     mixing
     Exchange-correlation      = BEEF-VDW ( 1  4 27 13 2)
     nstep                     =           50

     celldm(1)=   1.889726  celldm(2)=   0.000000  celldm(3)=   0.000000
     celldm(4)=   0.000000  celldm(5)=   0.000000  celldm(6)=   0.000000

     crystal axes: (cart. coord. in units of alat)
               a(1) = (   5.682886   0.000000   0.000000 )
               a(2) = (   2.841443   4.921524   0.000000 )
               a(3) = (   0.000000   0.000000  24.640057 )

     reciprocal axes: (cart. coord. in units 2 pi/alat)
               b(1) = (  0.175967 -0.101595  0.000000 )
               b(2) = (  0.000000  0.203189  0.000000 )
               b(3) = (  0.000000  0.000000  0.040584 )

     PseudoPot. # 1 for Al read from file:
     /u/if/mamunm/psp/gbrv1.5pbe/Al.UPF
     MD5 check sum: 0a6289f5291fc8f409219462bc851e1f
     Pseudo is Ultrasoft + core correction, Zval =  3.0
     Generated by new atomic code, or converted to UPF format
     Using radial grid of  893 points,  3 beta functions with:
                l(1) =   0
                l(2) =   1
                l(3) =   2
     Q(r) pseudized with  8 coefficients,  rinner =    0.900   0.900   0.900
                                                       0.900   0.900

     PseudoPot. # 2 for H  read from file:
     /u/if/mamunm/psp/gbrv1.5pbe/H.UPF
     MD5 check sum: 761ae9a214b05c3daf00ab9f6b793d6f
     Pseudo is Ultrasoft, Zval =  1.0
     Generated by new atomic code, or converted to UPF format
     Using radial grid of  615 points,  2 beta functions with:
                l(1) =   0
                l(2) =   0
     Q(r) pseudized with  8 coefficients,  rinner =    0.700

     vdW kernel table read from file vdW_kernel_table
     MD5 check sum: 095c7af220d748ca6e76c0b4c6cfb241

     atomic species   valence    mass     pseudopotential
        Al1            3.00    26.98154     Al( 1.00)
        H1             1.00     1.00800     H ( 1.00)

     No symmetry found

   Cartesian axes

     site n.     atom                  positions (alat units)
         1           Al1 tau(   1) = (   1.4207216   0.8202540  10.0000000  )
         2           Al1 tau(   2) = (   4.2621647   0.8202540  10.0000000  )
         3           Al1 tau(   3) = (   2.8414431   3.2810159  10.0000000  )
         4           Al1 tau(   4) = (   5.6828862   3.2810159  10.0000000  )
         5           Al1 tau(   5) = (   5.6828862   1.6405079  12.3200286  )
         6           Al1 tau(   6) = (   2.8414431   1.6405079  12.3200286  )
         7           Al1 tau(   7) = (   7.1036078   4.1012699  12.3200286  )
         8           Al1 tau(   8) = (   4.2621647   4.1012699  12.3200286  )
         9           Al1 tau(   9) = (   0.0000000   0.0000000  14.6400572  )
        10           Al1 tau(  10) = (   2.8414431   0.0000000  14.6400572  )
        11           Al1 tau(  11) = (   1.4207216   2.4607619  14.6400572  )
        12           Al1 tau(  12) = (   4.2621647   2.4607619  14.6400572  )
        13           H1  tau(  13) = (   2.8414431   1.6405079  15.6280572  )

     number of k points=    20  Fermi-Dirac smearing, width (Ry)=  0.0110
                       cart. coord. in units 2pi/alat
        k(    1) = (   0.0000000   0.0000000   0.0000000), wk =   0.0555556
        k(    2) = (   0.0000000   0.0338648   0.0000000), wk =   0.1111111
        k(    3) = (   0.0000000   0.0677297   0.0000000), wk =   0.1111111
        k(    4) = (   0.0000000  -0.1015945   0.0000000), wk =   0.0555556
        k(    5) = (   0.0293278  -0.0169324   0.0000000), wk =   0.1111111
        k(    6) = (   0.0293278   0.0169324   0.0000000), wk =   0.1111111
        k(    7) = (   0.0293278   0.0507973   0.0000000), wk =   0.1111111
        k(    8) = (   0.0293278  -0.1185270   0.0000000), wk =   0.1111111
        k(    9) = (   0.0293278  -0.0846621   0.0000000), wk =   0.1111111
        k(   10) = (   0.0293278  -0.0507973   0.0000000), wk =   0.1111111
        k(   11) = (   0.0586556  -0.0338648   0.0000000), wk =   0.1111111
        k(   12) = (   0.0586556   0.0000000   0.0000000), wk =   0.1111111
        k(   13) = (   0.0586556   0.0338648   0.0000000), wk =   0.1111111
        k(   14) = (   0.0586556  -0.1354594   0.0000000), wk =   0.1111111
        k(   15) = (   0.0586556  -0.1015945   0.0000000), wk =   0.1111111
        k(   16) = (   0.0586556  -0.0677297   0.0000000), wk =   0.1111111
        k(   17) = (  -0.0879835   0.0507973   0.0000000), wk =   0.0555556
        k(   18) = (  -0.0879835   0.0846621   0.0000000), wk =   0.1111111
        k(   19) = (  -0.0879835   0.1185270   0.0000000), wk =   0.1111111
        k(   20) = (  -0.0879835  -0.0507973   0.0000000), wk =   0.0555556

     Largest allocated arrays     est. size (Mb)     dimensions
     Largest temporary arrays     est. size (Mb)     dimensions

     Initial potential from superposition of free atoms
     Check: negative starting charge=   -0.000171

     starting charge   36.97041, renormalised to   37.00000

     negative rho (up, down):  1.714E-04 0.000E+00

     *
     * You are using vdW-DF for exchange-correlation in this calculation.
     * Please cite the following three references that made this development
     * possible:
     *
     *   M. Dion, H. Rydberg, E. Schroder, D. C. Langreth, and
     *   B. I. Lundqvist, Phys. Rev. Lett. 92, 246401 (2004).
     *
     *   T. Thonhauser, V. R. Cooper, S. Li, A. Puzder, P. Hyldgaard, and
     *   D. C. Langreth, Phys. Rev. B 76, 125112 (2007).
     *
     *   G. Roman-Perez and J. M. Soler, Phys. Rev. Lett. 103, 096102 (2009).
     *
     *
     * If you are using vdW-DF2, please also cite:
     *
     *   K. Lee, E. D. Murray, L. Kong, B. I. Lundqvist, and
     *   D. C. Langreth, Phys. Rev. B 82, 081101(R) (2010).
     *
     *
     * If you are calculating the stress with vdW-DF, please also cite:
     *
     *   R. Sabatini, E. Kucukbenli, B. Kolb, T. Thonhauser, and
     *   S. de Gironcoli, J. Phys.: Condens. Matter 24, 424209 (2012).
     *

     Carrying out vdW-DF run using the following parameters:

     Nqs =      20    Nr_points =    1024   r_max =   100.000
     q_mesh =
               0.00001000     0.04494208     0.09755937     0.15916263
               0.23128650     0.31572767     0.41458969     0.53033537
               0.66584808     0.82450364     1.01025438     1.22772762
               1.48234092     1.78043706     2.12944203     2.53805004
               3.01644009     3.57652955     4.23227104     5.00000000

     Gradients computed in reciprocal space

     Adding external electric field

     Computed dipole along edir(3) :
        Dipole               -0.0049 Ry au,         -0.0126 Debye
        Dipole field         -0.0000 Ry au

        Potential amp.        0.0012 Ry
        Total length         45.3989 bohr

     Starting wfc are   49 randomized atomic wfcs

     Self-consistent Calculation

     iteration #  1     ecut=    36.75 Ry     beta=0.30
     Davidson diagonalization with overlap
     ethr =  1.00E-02,  avg # of iterations =  3.1

[...]

     total energy              =     -83.34929732 Ry
     Harris-Foulkes estimate   =     -83.70063732 Ry
     estimated scf accuracy    <       0.84187536 Ry

[...]

     End of self-consistent calculation

          k = 0.0000 0.0000 0.0000 ( 17579 PWs)   bands (ev):

   -11.3819  -9.9083  -7.6931  -5.9897  -5.3921  -5.3921  -5.3594  -5.3040
    -5.3040  -4.8814  -3.9818  -3.9818  -3.9029  -3.4670  -3.4670  -3.3827
    -2.1979  -1.2093  -1.2093  -1.0801  -0.8570  -0.8570  -0.4287   0.9638
     1.8190   1.8190   1.9567   1.9577

[...]

          k =-0.0880 0.0508 0.0000 ( 17464 PWs)   bands (ev):

[...]

     the Fermi energy is    -0.6433 ev

!    total energy              =     -83.54192605 Ry
     Harris-Foulkes estimate   =     -83.54192582 Ry
     estimated scf accuracy    <       0.00000175 Ry

     The total energy is the sum of the following terms:

     one-electron contribution =    -646.91675222 Ry
     hartree contribution      =     330.63610193 Ry
     xc contribution           =     -53.88019799 Ry
     ewald contribution        =     286.64883647 Ry
     electric field correction =       0.00000022 Ry
     smearing contrib. (-TS)   =      -0.02991446 Ry

     convergence has been achieved in  10 iterations

 BEEF-vdW xc energy contributions
           1 :   -44.2079626422675
           2 :    37.9219570727639
           3 :   -28.2942683463551
           4 :    19.1811969480563
           5 :   -13.0575232048668
           6 :    10.0469492402707
           7 :   -8.64843961907483
           8 :    7.31200545682367
           9 :   -5.56099606887992
          10 :    3.93610128380802
          11 :   -3.10741980443085
          12 :    3.10009745558754
          13 :   -3.29323481159366
          14 :    3.04527629326341
          15 :   -2.26160230274650
          16 :    1.38143628853472
          17 :  -0.878085553533573
          18 :   0.807392940004327
          19 :  -0.822484788746792
          20 :   0.571445993750899
          21 :  -4.509123453655661E-002
          22 :  -0.452573618608625
          23 :   0.634667674782840
          24 :  -0.510436104522519
          25 :   0.349966786546695
          26 :  -0.400766981286530
          27 :   0.653359065210552
          28 :  -0.877841350426891
          29 :   0.870211150550489
          30 :  -0.652118367767052
          31 :   -6.62769706660281
          32 :   -4.84194202936479

     Forces acting on atoms (Ry/au):

     negative rho (up, down):  3.863E-04 0.000E+00
     atom    1 type  1   force =    -0.00294203   -0.00169853    0.00114798
     atom    2 type  1   force =     0.00294207   -0.00169845    0.00114803
     atom    3 type  1   force =    -0.00000003    0.00339711    0.00114840
     atom    4 type  1   force =     0.00000000    0.00000010   -0.00101205
     atom    5 type  1   force =    -0.00000008    0.00110083   -0.00306129
     atom    6 type  1   force =    -0.00000003   -0.00000004    0.00901256
     atom    7 type  1   force =    -0.00095343   -0.00055046   -0.00306126
     atom    8 type  1   force =     0.00095330   -0.00055054   -0.00306123
     atom    9 type  1   force =     0.00000012    0.00000006   -0.00564751
     atom   10 type  1   force =     0.00000001   -0.00574091   -0.00032194
     atom   11 type  1   force =    -0.00497178    0.00287043   -0.00032185
     atom   12 type  1   force =     0.00497193    0.00287059   -0.00032191
     atom   13 type  2   force =    -0.00000003   -0.00000018    0.00435207

     Total force =     0.012248     Total SCF correction =     0.001105

     entering subroutine stress ...

     negative rho (up, down):  3.863E-04 0.000E+00
          total   stress  (Ry/bohr**3)                   (kbar)     P=   -4.70
  -0.00004633   0.00000000   0.00000000         -6.81      0.00      0.00
   0.00000000  -0.00004633   0.00000000          0.00     -6.81      0.00
   0.00000000   0.00000000  -0.00000325          0.00      0.00     -0.48

     BFGS Geometry Optimization

     number of scf cycles    =   1
     number of bfgs steps    =   0

     energy   new            =     -83.5419260535 Ry

     new trust radius        =       0.0057501324 bohr
     new conv_thr            =       0.0000099958 Ry

ATOMIC_POSITIONS (crystal)
Al1      0.166666667   0.166666667   0.405843214    0   0   0
Al1      0.666666667   0.166666667   0.405843214    0   0   0
Al1      0.166666667   0.666666667   0.405843214    0   0   0
Al1      0.666666667   0.666666667   0.405843214    0   0   0
Al1      0.833333333   0.333333333   0.500000000    0   0   0
Al1      0.333333333   0.333333333   0.500000000    0   0   0
Al1      0.833333333   0.833333333   0.500000000    0   0   0
Al1      0.333333333   0.833333333   0.500000000    0   0   0
Al1      0.000000008   0.000000006   0.594035498
Al1      0.500308641  -0.000617281   0.594149872
Al1     -0.000617279   0.500308637   0.594149874
Al1      0.500308648   0.500308654   0.594149873
H1       0.333333340   0.333333314   0.634347562

     Writing output data file calc.save
     Check: negative starting charge=   -0.000171
     NEW-OLD atomic charge density approx. for the potential
     Check: negative starting charge=   -0.000171

[...]

     Total force =     0.010210     Total SCF correction =     0.002116
     SCF correction compared to forces is large: reduce conv_thr to get better values

[...]

     energy   old            =     -83.5419260535 Ry
     energy   new            =     -83.5420599388 Ry

     CASE: energy  _new < energy  _old

     WARNING: bfgs curvature condition failed, Theta= 0.963
     new trust radius        =       0.0086251985 bohr
     new conv_thr            =       0.0000001000 Ry

[...]

     Threshold (ethr) on eigenvalues was too large:
     Diagonalizing with lowered threshold

     Davidson diagonalization with overlap
     ethr =  7.64E-08,  avg # of iterations =  1.9

[...]

     number of scf cycles    =   6
     number of bfgs steps    =   5

     energy   old            =     -83.5424150590 Ry
     energy   new            =     -83.5424381054 Ry

     CASE: energy  _new < energy  _old

     new trust radius        =       0.0090619124 bohr
     new conv_thr            =       0.0000001000 Ry

ATOMIC_POSITIONS (crystal)
Al1      0.166666667   0.166666667   0.405843214    0   0   0
Al1      0.666666667   0.166666667   0.405843214    0   0   0
Al1      0.166666667   0.666666667   0.405843214    0   0   0
Al1      0.666666667   0.666666667   0.405843214    0   0   0
Al1      0.833333333   0.333333333   0.500000000    0   0   0
Al1      0.333333333   0.333333333   0.500000000    0   0   0
Al1      0.833333333   0.833333333   0.500000000    0   0   0
Al1      0.333333333   0.833333333   0.500000000    0   0   0
Al1      0.000000042  -0.000000004   0.592784081
Al1      0.501850354  -0.003700699   0.594229485
Al1     -0.003700728   0.501850367   0.594229491
Al1      0.501850367   0.501850373   0.594229481
H1       0.333333330   0.333333314   0.635038288

     Writing output data file calc.save
     Check: negative starting charge=   -0.000171
     NEW-OLD atomic charge density approx. for the potential
     Check: negative starting charge=   -0.000171

[...]

     Self-consistent Calculation

[...]

     Threshold (ethr) on eigenvalues was too large:
     Diagonalizing with lowered threshold

     Davidson diagonalization with overlap
     ethr =  5.33E-09,  avg # of iterations =  3.0

[...]

     total energy              =     -83.54246012 Ry
     Harris-Foulkes estimate   =     -83.54246014 Ry
     estimated scf accuracy    <       0.00000031 Ry

     iteration #  5     ecut=    36.75 Ry     beta=0.30
     Davidson diagonalization with overlap
     ethr =  8.28E-10,  avg # of iterations =  1.9

[...]

     negative rho (up, down):  3.885E-04 0.000E+00

     Adding external electric field

     Computed dipole along edir(3) :
        Dipole                0.0029 Ry au,          0.0075 Debye
        Dipole field          0.0000 Ry au

        Potential amp.       -0.0007 Ry
        Total length         45.3989 bohr

     End of self-consistent calculation

[...]

          k = 0.0587-0.0677 0.0000 ( 17495 PWs)   bands (ev):

[...]

          k =-0.0880-0.0508 0.0000 ( 17464 PWs)   bands (ev):

    -9.9681  -9.8176  -8.6880  -8.1427  -7.0616  -6.8270  -6.3904  -5.4782
    -5.2661  -5.1973  -3.6701  -2.6771  -2.5496  -2.4138  -1.1522  -1.1261
    -0.8798  -0.8626  -0.4148   0.2078   0.3021   0.6061   0.8441   0.9106
     0.9920   1.0073   1.8531   2.0148

     the Fermi energy is    -0.6499 ev

!    total energy              =     -83.54246017 Ry
     Harris-Foulkes estimate   =     -83.54246015 Ry
     estimated scf accuracy    <       0.00000005 Ry

     The total energy is the sum of the following terms:

     one-electron contribution =    -647.32796036 Ry
     hartree contribution      =     330.84829208 Ry
     xc contribution           =     -53.88043110 Ry
     ewald contribution        =     286.84758387 Ry
     electric field correction =       0.00000002 Ry
     smearing contrib. (-TS)   =      -0.02994469 Ry

     convergence has been achieved in   5 iterations

 BEEF-vdW xc energy contributions
           1 :   -44.2079302575126
           2 :    37.9226562232771
           3 :   -28.2968740225179
           4 :    19.1868060283640
           5 :   -13.0668243126471
           6 :    10.0605408405830
           7 :   -8.66706078320622
           8 :    7.33621037251676
           9 :   -5.59037837337334
          10 :    3.96883978058161
          11 :   -3.14078338291607
          12 :    3.13181714392157
          13 :   -3.32262728675737
          14 :    3.07299531424458
          15 :   -2.28842927546975
          16 :    1.40724697159617
          17 :  -0.902027063439888
          18 :   0.829149556536990
          19 :  -0.843090793601277
          20 :   0.592492477718004
          21 :  -6.696315037876843E-002
          22 :  -0.431313610009099
          23 :   0.615956238393835
          24 :  -0.494894791543572
          25 :   0.336485565240707
          26 :  -0.388309635836741
          27 :   0.643090407154176
          28 :  -0.872800613800464
          29 :   0.872299203028106
          30 :  -0.659191020122371
          31 :   -6.62778257836910
          32 :   -4.84235251618998

     Forces acting on atoms (Ry/au):

     negative rho (up, down):  3.885E-04 0.000E+00
     atom    1 type  1   force =    -0.00280251   -0.00161803    0.00116645
     atom    2 type  1   force =     0.00280251   -0.00161803    0.00116646
     atom    3 type  1   force =    -0.00000000    0.00323606    0.00116646
     atom    4 type  1   force =     0.00000000   -0.00000000   -0.00098535
     atom    5 type  1   force =     0.00000001    0.00178495   -0.00446076
     atom    6 type  1   force =    -0.00000000    0.00000000    0.01005767
     atom    7 type  1   force =    -0.00154580   -0.00089247   -0.00446074
     atom    8 type  1   force =     0.00154581   -0.00089247   -0.00446078
     atom    9 type  1   force =    -0.00000003    0.00000000   -0.00156321
     atom   10 type  1   force =     0.00000001    0.00161304    0.00069494
     atom   11 type  1   force =     0.00139694   -0.00080651    0.00069492
     atom   12 type  1   force =    -0.00139694   -0.00080653    0.00069495
     atom   13 type  2   force =     0.00000001   -0.00000000    0.00028899

     Total force =     0.003432     Total SCF correction =     0.000041

     entering subroutine stress ...

     negative rho (up, down):  3.885E-04 0.000E+00
          total   stress  (Ry/bohr**3)                   (kbar)     P=   -4.70
  -0.00004716   0.00000000  -0.00000000         -6.94      0.00     -0.00
   0.00000000  -0.00004716  -0.00000000          0.00     -6.94     -0.00
  -0.00000000  -0.00000000  -0.00000152         -0.00     -0.00     -0.22

     bfgs converged in   7 scf cycles and   6 bfgs steps
     (criteria: energy <  1.0E+00, force <  1.9E-03)

     End of BFGS Geometry Optimization

     Final energy   =     -83.5424601748 Ry
Begin final coordinates

ATOMIC_POSITIONS (crystal)
Al1      0.166666667   0.166666667   0.405843214    0   0   0
Al1      0.666666667   0.166666667   0.405843214    0   0   0
Al1      0.166666667   0.666666667   0.405843214    0   0   0
Al1      0.666666667   0.666666667   0.405843214    0   0   0
Al1      0.833333333   0.333333333   0.500000000    0   0   0
Al1      0.333333333   0.333333333   0.500000000    0   0   0
Al1      0.833333333   0.833333333   0.500000000    0   0   0
Al1      0.333333333   0.833333333   0.500000000    0   0   0
Al1      0.000000042  -0.000000004   0.592784081
Al1      0.501850354  -0.003700699   0.594229485
Al1     -0.003700728   0.501850367   0.594229491
Al1      0.501850367   0.501850373   0.594229481
H1       0.333333330   0.333333314   0.635038288
End final coordinates

     Writing output data file calc.save

     General routines

     Parallel routines

   This run was terminated on:  16:51:36  30Apr2018

   JOB DONE.
Job  /afs/slac/g/suncat/bin/suncat-tsmpirun -x LD_LIBRARY_PATH -wdir /scratch/qe515399_I7zgg pw.x -npool 4 -in pw.inp

TID   HOST_NAME   COMMAND_LINE            STATUS            TERMINATION_TIME
00000 suncat0012 pw.x -npool 4 -i  Done                     04/30/2018 16:51:36
00001 suncat0012 pw.x -npool 4 -i  Done                     04/30/2018 16:51:36
00002 suncat0012 pw.x -npool 4 -i  Done                     04/30/2018 16:51:36
00003 suncat0012 pw.x -npool 4 -i  Done                     04/30/2018 16:51:36
00004 suncat0012 pw.x -npool 4 -i  Done                     04/30/2018 16:51:36
00005 suncat0012 pw.x -npool 4 -i  Done                     04/30/2018 16:51:36
00006 suncat0012 pw.x -npool 4 -i  Done                     04/30/2018 16:51:36
00007 suncat0012 pw.x -npool 4 -i  Done                     04/30/2018 16:51:36
00008 suncat0170 pw.x -npool 4 -i  Done                     04/30/2018 16:51:36
00009 suncat0170 pw.x -npool 4 -i  Done                     04/30/2018 16:51:36
00010 suncat0170 pw.x -npool 4 -i  Done                     04/30/2018 16:51:36
00011 suncat0170 pw.x -npool 4 -i  Done                     04/30/2018 16:51:36
00012 suncat0170 pw.x -npool 4 -i  Done                     04/30/2018 16:51:36
00013 suncat0170 pw.x -npool 4 -i  Done                     04/30/2018 16:51:36
00014 suncat0170 pw.x -npool 4 -i  Done                     04/30/2018 16:51:36
00015 suncat0170 pw.x -npool 4 -i  Done                     04/30/2018 16:51:36
00016 suncat0129 pw.x -npool 4 -i  Done                     04/30/2018 16:51:36
00017 suncat0129 pw.x -npool 4 -i  Done                     04/30/2018 16:51:36
00018 suncat0129 pw.x -npool 4 -i  Done                     04/30/2018 16:51:36
00019 suncat0129 pw.x -npool 4 -i  Done                     04/30/2018 16:51:36
00020 suncat0129 pw.x -npool 4 -i  Done                     04/30/2018 16:51:36
00021 suncat0129 pw.x -npool 4 -i  Done                     04/30/2018 16:51:36
00022 suncat0129 pw.x -npool 4 -i  Done                     04/30/2018 16:51:36
00023 suncat0129 pw.x -npool 4 -i  Done                     04/30/2018 16:51:36
00024 suncat0246 pw.x -npool 4 -i  Done                     04/30/2018 16:51:36
00025 suncat0246 pw.x -npool 4 -i  Done                     04/30/2018 16:51:36
00026 suncat0246 pw.x -npool 4 -i  Done                     04/30/2018 16:51:36
00027 suncat0246 pw.x -npool 4 -i  Done                     04/30/2018 16:51:36
00028 suncat0246 pw.x -npool 4 -i  Done                     04/30/2018 16:51:36
00029 suncat0246 pw.x -npool 4 -i  Done                     04/30/2018 16:51:36
00030 suncat0246 pw.x -npool 4 -i  Done                     04/30/2018 16:51:36
00031 suncat0246 pw.x -npool 4 -i  Done                     04/30/2018 16:51:36