     Program PWSCF v.5.1rc2 (svn rev. 11289) starts on 20Jan2018 at 15:26: 0

     Current dimensions of program PWSCF are:
     Max number of different atomic species (ntypx) = 10
     Max number of k-points (npk) =  40000
     Max angular momentum in pseudopotentials (lmaxx) =  3
     Presently stress not available with electric field

     IMPORTANT: XC functional enforced from input :
     Exchange-correlation      = BEEF-VDW ( 1  4 27 13 2)
     Any further DFT definition will be discarded
     Please, verify this is what you really want

     Subspace diagonalization in iterative solution of the eigenvalue problem:
     a serial algorithm will be used

     bravais-lattice index     =            0
     lattice parameter (alat)  =       1.8897  a.u.
     unit-cell volume          =    4204.8134 (a.u.)^3
     number of atoms/cell      =           13
     number of atomic types    =            2
     number of electrons       =       186.00
     number of Kohn-Sham states=          103
     kinetic-energy cutoff     =      36.7493  Ry
     charge density cutoff     =     367.4932  Ry
     convergence threshold     =      1.0E-05
     mixing beta               =       0.3000
     number of iterations used =           10  plain     mixing
     Exchange-correlation      = BEEF-VDW ( 1  4 27 13 2)
     nstep                     =           50

     celldm(1)=   1.889726  celldm(2)=   0.000000  celldm(3)=   0.000000
     celldm(4)=   0.000000  celldm(5)=   0.000000  celldm(6)=   0.000000

     crystal axes: (cart. coord. in units of alat)
               a(1) = (   5.426750   0.000000   0.000000 )
               a(2) = (   2.713375   4.699703   0.000000 )
               a(3) = (   0.000000   0.000000  24.430923 )

     reciprocal axes: (cart. coord. in units 2 pi/alat)
               b(1) = (  0.184272 -0.106390  0.000000 )
               b(2) = (  0.000000  0.212779  0.000000 )
               b(3) = (  0.000000  0.000000  0.040932 )

     PseudoPot. # 1 for Rh read from file:
     /afs/slac.stanford.edu/u/if/mamunm/psp/gbrv1.5pbe/Rh.UPF
     MD5 check sum: 761627e959a2e3a1f56b0b5fe687810e
     Pseudo is Ultrasoft + core correction, Zval = 15.0
     Generated by new atomic code, or converted to UPF format
     Using radial grid of  969 points,  7 beta functions with:
                l(1) =   0
                l(2) =   0
                l(3) =   1
                l(4) =   1
                l(5) =   2
                l(6) =   2
                l(7) =   2
     Q(r) pseudized with  8 coefficients,  rinner =    1.200   1.200   1.200
                                                       1.200   1.200

     PseudoPot. # 2 for S  read from file:
     /afs/slac.stanford.edu/u/if/mamunm/psp/gbrv1.5pbe/S.UPF
     MD5 check sum: 88d86576ff6df21479756cfb9bdac1df
     Pseudo is Ultrasoft + core correction, Zval =  6.0
     Generated by new atomic code, or converted to UPF format
     Using radial grid of  907 points,  6 beta functions with:
                l(1) =   0
                l(2) =   0
                l(3) =   1
                l(4) =   1
                l(5) =   2
                l(6) =   2
     Q(r) pseudized with  8 coefficients,  rinner =    1.300   1.300   1.300
                                                       1.300   1.300

     vdW kernel table read from file vdW_kernel_table
     MD5 check sum: 095c7af220d748ca6e76c0b4c6cfb241

     atomic species   valence    mass     pseudopotential
        Rh1           15.00   102.90550     Rh( 1.00)
        S1             6.00    32.06000     S ( 1.00)

     No symmetry found

   Cartesian axes

     site n.     atom                  positions (alat units)
         1           Rh1 tau(   1) = (   1.3566875   0.7832839  10.0000000  )
         2           Rh1 tau(   2) = (   4.0700625   0.7832839  10.0000000  )
         3           Rh1 tau(   3) = (   2.7133750   3.1331356  10.0000000  )
         4           Rh1 tau(   4) = (   5.4267500   3.1331356  10.0000000  )
         5           Rh1 tau(   5) = (   5.4267500   1.5665678  12.2154614  )
         6           Rh1 tau(   6) = (   2.7133750   1.5665678  12.2154614  )
         7           Rh1 tau(   7) = (   6.7834375   3.9164194  12.2154614  )
         8           Rh1 tau(   8) = (   4.0700625   3.9164194  12.2154614  )
         9           Rh1 tau(   9) = (   0.0000000   0.0000000  14.4309228  )
        10           Rh1 tau(  10) = (   2.7133750   0.0000000  14.4309228  )
        11           Rh1 tau(  11) = (   1.3566875   2.3498517  14.4309228  )
        12           Rh1 tau(  12) = (   4.0700625   2.3498517  14.4309228  )
        13           S1  tau(  13) = (   1.3566875   0.7832839  16.9009228  )

     number of k points=    20  Fermi-Dirac smearing, width (Ry)=  0.0110
                       cart. coord. in units 2pi/alat
        k(    1) = (   0.0000000   0.0000000   0.0000000), wk =   0.0555556
        k(    2) = (   0.0000000   0.0354632   0.0000000), wk =   0.1111111
        k(    3) = (   0.0000000   0.0709265   0.0000000), wk =   0.1111111
        k(    4) = (   0.0000000  -0.1063897   0.0000000), wk =   0.0555556
        k(    5) = (   0.0307121  -0.0177316   0.0000000), wk =   0.1111111
        k(    6) = (   0.0307121   0.0177316   0.0000000), wk =   0.1111111
        k(    7) = (   0.0307121   0.0531948   0.0000000), wk =   0.1111111
        k(    8) = (   0.0307121  -0.1241213   0.0000000), wk =   0.1111111
        k(    9) = (   0.0307121  -0.0886581   0.0000000), wk =   0.1111111
        k(   10) = (   0.0307121  -0.0531948   0.0000000), wk =   0.1111111
        k(   11) = (   0.0614241  -0.0354632   0.0000000), wk =   0.1111111
        k(   12) = (   0.0614241   0.0000000   0.0000000), wk =   0.1111111
        k(   13) = (   0.0614241   0.0354632   0.0000000), wk =   0.1111111
        k(   14) = (   0.0614241  -0.1418529   0.0000000), wk =   0.1111111
        k(   15) = (   0.0614241  -0.1063897   0.0000000), wk =   0.1111111
        k(   16) = (   0.0614241  -0.0709265   0.0000000), wk =   0.1111111
        k(   17) = (  -0.0921362   0.0531948   0.0000000), wk =   0.0555556
        k(   18) = (  -0.0921362   0.0886581   0.0000000), wk =   0.1111111
        k(   19) = (  -0.0921362   0.1241213   0.0000000), wk =   0.1111111
        k(   20) = (  -0.0921362  -0.0531948   0.0000000), wk =   0.0555556

     Largest allocated arrays     est. size (Mb)     dimensions
     Largest temporary arrays     est. size (Mb)     dimensions

     Initial potential from superposition of free atoms
     Check: negative starting charge=   -0.652776

     starting charge  179.99878, renormalised to  186.00000

     negative rho (up, down):  6.745E-01 0.000E+00

     *
     * You are using vdW-DF for exchange-correlation in this calculation.
     * Please cite the following three references that made this development
     * possible:
     *
     *   M. Dion, H. Rydberg, E. Schroder, D. C. Langreth, and
     *   B. I. Lundqvist, Phys. Rev. Lett. 92, 246401 (2004).
     *
     *   T. Thonhauser, V. R. Cooper, S. Li, A. Puzder, P. Hyldgaard, and
     *   D. C. Langreth, Phys. Rev. B 76, 125112 (2007).
     *
     *   G. Roman-Perez and J. M. Soler, Phys. Rev. Lett. 103, 096102 (2009).
     *
     *
     * If you are using vdW-DF2, please also cite:
     *
     *   K. Lee, E. D. Murray, L. Kong, B. I. Lundqvist, and
     *   D. C. Langreth, Phys. Rev. B 82, 081101(R) (2010).
     *
     *
     * If you are calculating the stress with vdW-DF, please also cite:
     *
     *   R. Sabatini, E. Kucukbenli, B. Kolb, T. Thonhauser, and
     *   S. de Gironcoli, J. Phys.: Condens. Matter 24, 424209 (2012).
     *

     Carrying out vdW-DF run using the following parameters:

     Nqs =      20    Nr_points =    1024   r_max =   100.000
     q_mesh =
               0.00001000     0.04494208     0.09755937     0.15916263
               0.23128650     0.31572767     0.41458969     0.53033537
               0.66584808     0.82450364     1.01025438     1.22772762
               1.48234092     1.78043706     2.12944203     2.53805004
               3.01644009     3.57652955     4.23227104     5.00000000

     Gradients computed in reciprocal space

     Adding external electric field

     Computed dipole along edir(3) :
        Dipole               -1.7709 Ry au,         -4.5011 Debye
        Dipole field         -0.0053 Ry au

        Potential amp.        0.4765 Ry
        Total length         45.0136 bohr

     Starting wfc are  148 randomized atomic wfcs

     Self-consistent Calculation

     iteration #  1     ecut=    36.75 Ry     beta=0.30
     Davidson diagonalization with overlap
     ethr =  1.00E-02,  avg # of iterations =  2.0

[...]

     total energy              =   -2036.54093511 Ry
     Harris-Foulkes estimate   =   -2091.46001905 Ry
     estimated scf accuracy    <     113.36076357 Ry

[...]

     End of self-consistent calculation

          k = 0.0000 0.0000 0.0000 ( 15785 PWs)   bands (ev):

   -45.5203 -45.5200 -45.5147 -45.3951 -45.3335 -45.3331 -45.3246 -45.1631
   -45.1526 -45.1312 -45.1310 -45.1123 -45.1120 -45.0331 -45.0329 -45.0194
   -45.0016 -45.0015 -44.8405 -44.8402 -44.8340 -44.8109 -44.7645 -44.7641
   -44.7009 -44.6998 -44.6997 -44.6538 -44.6439 -44.6438 -44.6143 -44.6019
   -44.5996 -44.5993 -44.5808 -44.5808  -9.5296  -5.1584  -3.9173  -3.9121
    -3.9121  -3.8691  -3.7434  -3.6292  -3.6291  -3.6189  -3.4318  -3.3861
    -3.3860  -3.0930  -3.0783  -3.0782  -2.0550  -1.9688  -1.9686  -1.5188
    -1.5146  -1.5145  -1.3207  -1.2187  -1.2187  -0.9140  -0.9090  -0.9090
    -0.8278  -0.8135  -0.8134  -0.6724  -0.6724  -0.2144  -0.2142  -0.1633
     0.2339   0.4768   0.4769   0.6262   0.6731   0.6731   0.6982   0.6982
     1.0022   1.1019   1.1020   1.2569   1.2569   1.7502   1.7620   1.7729
     1.7729   1.9004   1.9004   2.0002   2.0003   2.1351   2.1361   2.1555
     2.1557   2.4431   2.4778   2.4779   2.5532   2.5543   2.5544

[...]

          k =-0.0921 0.0532 0.0000 ( 15852 PWs)   bands (ev):

[...]

     the Fermi energy is     1.5459 ev

!    total energy              =   -2090.78685205 Ry
     Harris-Foulkes estimate   =   -2090.78684271 Ry
     estimated scf accuracy    <       0.00000336 Ry

     The total energy is the sum of the following terms:

     one-electron contribution =  -19326.04735485 Ry
     hartree contribution      =    9705.73260021 Ry
     xc contribution           =    -380.61610962 Ry
     ewald contribution        =    7910.26768454 Ry
     electric field correction =       0.00032648 Ry
     smearing contrib. (-TS)   =      -0.12399881 Ry

     convergence has been achieved in  24 iterations

 BEEF-vdW xc energy contributions
           1 :   -331.268226759499
           2 :    303.843660963253
           3 :   -256.499610956920
           4 :    201.083001872114
           5 :   -149.454343694581
           6 :    109.850466865828
           7 :   -85.0335245792471
           8 :    72.6314221623287
           9 :   -67.2312575995143
          10 :    63.1585573072637
          11 :   -56.7375850171912
          12 :    47.2150612127126
          13 :   -36.2323085909599
          14 :    26.3790474499624
          15 :   -19.6566997504806
[...]

[...]

     Total force =     0.067415     Total SCF correction =     0.006239

[...]

   This run was terminated on:  17:57: 7  20Jan2018

[...]

     Program PWSCF v.5.1rc2 (svn rev. 11289) starts on 20Jan2018 at 18:19:23

[...]

   This run was terminated on:  18:42: 2  20Jan2018

[...]

     Program PWSCF v.5.1rc2 (svn rev. 11289) starts on 20Jan2018 at 18:42: 8

[...]

   This run was terminated on:  19: 1: 1  20Jan2018

[...]

     Program PWSCF v.5.1rc2 (svn rev. 11289) starts on 20Jan2018 at 19: 1: 7

     Current dimensions of program PWSCF are:
     Max number of different atomic species (ntypx) = 10
     Max number of k-points (npk) =  40000
     Max angular momentum in pseudopotentials (lmaxx) =  3
     Presently stress not available with electric field

     IMPORTANT: XC functional enforced from input :
     Exchange-correlation      = BEEF-VDW ( 1  4 27 13 2)
     Any further DFT definition will be discarded
     Please, verify this is what you really want

     Subspace diagonalization in iterative solution of the eigenvalue problem:
     a serial algorithm will be used

     bravais-lattice index     =            0
     lattice parameter (alat)  =       1.8897  a.u.
     unit-cell volume          =    4204.8134 (a.u.)^3
     number of atoms/cell      =           13
     number of atomic types    =            2
     number of electrons       =       186.00
     number of Kohn-Sham states=          103
     kinetic-energy cutoff     =      36.7493  Ry
     charge density cutoff     =     367.4932  Ry
     convergence threshold     =      1.0E-05
     mixing beta               =       0.3000
     number of iterations used =           10  plain     mixing
     Exchange-correlation      = BEEF-VDW ( 1  4 27 13 2)
     nstep                     =           50

     celldm(1)=   1.889726  celldm(2)=   0.000000  celldm(3)=   0.000000
     celldm(4)=   0.000000  celldm(5)=   0.000000  celldm(6)=   0.000000

     crystal axes: (cart. coord. in units of alat)
               a(1) = (   5.426750   0.000000   0.000000 )
               a(2) = (   2.713375   4.699703   0.000000 )
               a(3) = (   0.000000   0.000000  24.430923 )

     reciprocal axes: (cart. coord. in units 2 pi/alat)
               b(1) = (  0.184272 -0.106390  0.000000 )
               b(2) = (  0.000000  0.212779  0.000000 )
               b(3) = (  0.000000  0.000000  0.040932 )

     PseudoPot. # 1 for Rh read from file:
     /afs/slac.stanford.edu/u/if/mamunm/psp/gbrv1.5pbe/Rh.UPF
     MD5 check sum: 761627e959a2e3a1f56b0b5fe687810e
     Pseudo is Ultrasoft + core correction, Zval = 15.0
     Generated by new atomic code, or converted to UPF format
     Using radial grid of  969 points,  7 beta functions with:
                l(1) =   0
                l(2) =   0
                l(3) =   1
                l(4) =   1
                l(5) =   2
                l(6) =   2
                l(7) =   2
     Q(r) pseudized with  8 coefficients,  rinner =    1.200   1.200   1.200
                                                       1.200   1.200

     PseudoPot. # 2 for S  read from file:
     /afs/slac.stanford.edu/u/if/mamunm/psp/gbrv1.5pbe/S.UPF
     MD5 check sum: 88d86576ff6df21479756cfb9bdac1df
     Pseudo is Ultrasoft + core correction, Zval =  6.0
     Generated by new atomic code, or converted to UPF format
     Using radial grid of  907 points,  6 beta functions with:
                l(1) =   0
                l(2) =   0
                l(3) =   1
                l(4) =   1
                l(5) =   2
                l(6) =   2
     Q(r) pseudized with  8 coefficients,  rinner =    1.300   1.300   1.300
                                                       1.300   1.300

     vdW kernel table read from file vdW_kernel_table
     MD5 check sum: 095c7af220d748ca6e76c0b4c6cfb241

     atomic species   valence    mass     pseudopotential
        Rh1           15.00   102.90550     Rh( 1.00)
        S1             6.00    32.06000     S ( 1.00)

     No symmetry found

   Cartesian axes

     site n.     atom                  positions (alat units)
         1           Rh1 tau(   1) = (   1.3566875   0.7832839  10.0000000  )
         2           Rh1 tau(   2) = (   4.0700625   0.7832839  10.0000000  )
         3           Rh1 tau(   3) = (   2.7133750   3.1331356  10.0000000  )
         4           Rh1 tau(   4) = (   5.4267500   3.1331356  10.0000000  )
         5           Rh1 tau(   5) = (   5.4267500   1.5665678  12.2154614  )
         6           Rh1 tau(   6) = (   2.7133750   1.5665678  12.2154614  )
         7           Rh1 tau(   7) = (   6.7834375   3.9164194  12.2154614  )
         8           Rh1 tau(   8) = (   4.0700625   3.9164194  12.2154614  )
         9           Rh1 tau(   9) = (   8.1230394   4.6897952  14.4562613  )
        10           Rh1 tau(  10) = (   5.4438810   4.6898345  14.4564168  )
        11           Rh1 tau(  11) = (   6.7834897   2.3696605  14.4563304  )
        12           Rh1 tau(  12) = (   4.0700739   2.3498555  14.3987950  )
        13           S1  tau(  13) = (   1.3566540   0.7832916  16.1119983  )

     number of k points=    20  Fermi-Dirac smearing, width (Ry)=  0.0110
                       cart. coord. in units 2pi/alat
        k(    1) = (   0.0000000   0.0000000   0.0000000), wk =   0.0555556
        k(    2) = (   0.0000000   0.0354632   0.0000000), wk =   0.1111111
        k(    3) = (   0.0000000   0.0709265   0.0000000), wk =   0.1111111
        k(    4) = (   0.0000000  -0.1063897   0.0000000), wk =   0.0555556
        k(    5) = (   0.0307121  -0.0177316   0.0000000), wk =   0.1111111
        k(    6) = (   0.0307121   0.0177316   0.0000000), wk =   0.1111111
        k(    7) = (   0.0307121   0.0531948   0.0000000), wk =   0.1111111
        k(    8) = (   0.0307121  -0.1241213   0.0000000), wk =   0.1111111
        k(    9) = (   0.0307121  -0.0886581   0.0000000), wk =   0.1111111
        k(   10) = (   0.0307121  -0.0531948   0.0000000), wk =   0.1111111
        k(   11) = (   0.0614241  -0.0354632   0.0000000), wk =   0.1111111
        k(   12) = (   0.0614241   0.0000000   0.0000000), wk =   0.1111111
        k(   13) = (   0.0614241   0.0354632   0.0000000), wk =   0.1111111
        k(   14) = (   0.0614241  -0.1418529   0.0000000), wk =   0.1111111
        k(   15) = (   0.0614241  -0.1063897   0.0000000), wk =   0.1111111
        k(   16) = (   0.0614241  -0.0709265   0.0000000), wk =   0.1111111
        k(   17) = (  -0.0921362   0.0531948   0.0000000), wk =   0.0555556
        k(   18) = (  -0.0921362   0.0886581   0.0000000), wk =   0.1111111
        k(   19) = (  -0.0921362   0.1241213   0.0000000), wk =   0.1111111
        k(   20) = (  -0.0921362  -0.0531948   0.0000000), wk =   0.0555556

     Largest allocated arrays     est. size (Mb)     dimensions
     Largest temporary arrays     est. size (Mb)     dimensions

     Initial potential from superposition of free atoms
     Check: negative starting charge=   -0.659343

     starting charge  179.99878, renormalised to  186.00000

[...]

     *
     * You are using vdW-DF for exchange-correlation in this calculation.
     * Please cite the following three references that made this development
     * possible:
     *
     *   M. Dion, H. Rydberg, E. Schroder, D. C. Langreth, and
     *   B. I. Lundqvist, Phys. Rev. Lett. 92, 246401 (2004).
     *
     *   T. Thonhauser, V. R. Cooper, S. Li, A. Puzder, P. Hyldgaard, and
     *   D. C. Langreth, Phys. Rev. B 76, 125112 (2007).
     *
     *   G. Roman-Perez and J. M. Soler, Phys. Rev. Lett. 103, 096102 (2009).
     *
     *
     * If you are using vdW-DF2, please also cite:
     *
     *   K. Lee, E. D. Murray, L. Kong, B. I. Lundqvist, and
     *   D. C. Langreth, Phys. Rev. B 82, 081101(R) (2010).
     *
     *
     * If you are calculating the stress with vdW-DF, please also cite:
     *
     *   R. Sabatini, E. Kucukbenli, B. Kolb, T. Thonhauser, and
     *   S. de Gironcoli, J. Phys.: Condens. Matter 24, 424209 (2012).
     *

     Carrying out vdW-DF run using the following parameters:

     Nqs =      20    Nr_points =    1024   r_max =   100.000
     q_mesh =
               0.00001000     0.04494208     0.09755937     0.15916263
               0.23128650     0.31572767     0.41458969     0.53033537
               0.66584808     0.82450364     1.01025438     1.22772762
               1.48234092     1.78043706     2.12944203     2.53805004
               3.01644009     3.57652955     4.23227104     5.00000000

     Gradients computed in reciprocal space

[...]

     Starting wfc are  148 randomized atomic wfcs

     Self-consistent Calculation

[...]

     total energy              =   -2090.94095339 Ry
     Harris-Foulkes estimate   =   -2090.94095623 Ry
     estimated scf accuracy    <       0.00003343 Ry

     iteration # 22     ecut=    36.75 Ry     beta=0.30
     Davidson diagonalization with overlap
     ethr =  1.80E-08,  avg # of iterations =  1.1

[...]

     negative rho (up, down):  6.951E-01 0.000E+00

     Adding external electric field

     Computed dipole along edir(3) :
        Dipole               -0.0502 Ry au,         -0.1275 Debye
        Dipole field         -0.0001 Ry au

        Potential amp.        0.0135 Ry
        Total length         45.0136 bohr

     End of self-consistent calculation

[...]

          k = 0.0614-0.0709 0.0000 ( 15838 PWs)   bands (ev):

[...]

          k =-0.0921-0.0532 0.0000 ( 15852 PWs)   bands (ev):

   -45.0350 -45.0159 -44.9753 -44.9490 -44.9322 -44.9100 -44.8902 -44.8724
   -44.8579 -44.8465 -44.7724 -44.7001 -44.6844 -44.6717 -44.6679 -44.6500
   -44.5884 -44.5673 -44.5534 -44.5459 -44.5262 -44.5074 -44.4539 -44.4347
   -44.4321 -44.4053 -44.3997 -44.3763 -44.2931 -44.2566 -44.2530 -44.2431
   -44.2294 -44.2146 -44.2144 -44.2075 -11.3343  -3.6169  -3.3210  -3.1158
    -2.8732  -2.8167  -2.7046  -2.5856  -2.5775  -2.5648  -2.4031  -2.3626
    -2.2470  -2.1906  -2.0012  -1.9976  -1.9409  -1.7836  -1.7688  -1.6468
    -1.4103  -1.3840  -1.2765  -1.2172  -1.2171  -1.0934  -0.9273  -0.8220
    -0.5587  -0.4892  -0.3764  -0.3361  -0.2940  -0.2385  -0.1969  -0.1348
    -0.0946  -0.0500  -0.0417   0.0160   0.0293   0.2743   0.3101   0.4852
     0.5042   0.5352   0.6501   0.7062   0.9121   1.0044   1.0248   1.0517
     1.1096   1.1814   1.2907   1.3903   1.5049   1.6243   1.7771   1.8082
     2.1527   2.2354   2.3341   2.4309   2.5585   2.8525   2.9390

     the Fermi energy is     1.9342 ev

!    total energy              =   -2090.94095265 Ry
     Harris-Foulkes estimate   =   -2090.94095651 Ry
     estimated scf accuracy    <       0.00000454 Ry

     The total energy is the sum of the following terms:

     one-electron contribution =  -19586.63542694 Ry
     hartree contribution      =    9837.82894856 Ry
     xc contribution           =    -381.01494650 Ry
     ewald contribution        =    8038.99987144 Ry
     electric field correction =       0.00000752 Ry
     smearing contrib. (-TS)   =      -0.11940673 Ry

     convergence has been achieved in  22 iterations

 BEEF-vdW xc energy contributions
           1 :   -331.691683737918
           2 :    304.482689244781
           3 :   -257.394145451367
           4 :    202.073576046547
           5 :   -150.297507869242
           6 :    110.365285888757
           7 :   -85.1922481665631
           8 :    72.5550772396151
           9 :   -67.1034553485318
          10 :    63.1155050310895
          11 :   -56.7997130938292
          12 :    47.2949275723552
          13 :   -36.2069909840137
          14 :    26.1782412139587
          15 :   -19.3112210940105
          16 :    16.1750304289191
          17 :   -15.7386718198608
          18 :    16.0986865402767
          19 :   -15.5203135506885
          20 :    13.2375236091024
          21 :   -9.65247352607207
          22 :    5.92414999997021
          23 :   -3.24326709058266
          24 :    2.19861332961466
          25 :   -2.53699925811185
          26 :    3.38686483616812
          27 :   -3.77761917829690
          28 :    3.15482345139594
          29 :   -1.62264507068801
          30 :  -0.186248272916941
          31 :   -32.9514077299718
          32 :   -24.7014119641535

     Forces acting on atoms (Ry/au):

     negative rho (up, down):  6.951E-01 0.000E+00
     atom    1 type  1   force =    -0.00000267    0.00000772    0.00800915
     atom    2 type  1   force =     0.00000141    0.00496544    0.00472602
     atom    3 type  1   force =     0.00430983   -0.00248587    0.00494438
     atom    4 type  1   force =    -0.00429905   -0.00247935    0.00495729
     atom    5 type  1   force =    -0.00064267    0.00035414   -0.00548346
     atom    6 type  1   force =     0.00065905    0.00030104   -0.00546963
     atom    7 type  1   force =    -0.00002374    0.00006201   -0.00472711
     atom    8 type  1   force =     0.00002256   -0.00073348   -0.00546887
     atom    9 type  1   force =    -0.00008408   -0.00002409   -0.00028764
     atom   10 type  1   force =     0.00005266   -0.00002808   -0.00026509
     atom   11 type  1   force =    -0.00002846    0.00007586   -0.00033230
     atom   12 type  1   force =     0.00003952   -0.00001750   -0.00062274
     atom   13 type  2   force =    -0.00000436    0.00000214    0.00001999

     Total force =     0.018002     Total SCF correction =     0.013388
     SCF correction compared to forces is large: reduce conv_thr to get better values

     entering subroutine stress ...

     negative rho (up, down):  6.951E-01 0.000E+00
          total   stress  (Ry/bohr**3)                   (kbar)     P=  -26.96
  -0.00018632  -0.00000001  -0.00000002        -27.41     -0.00     -0.00
  -0.00000001  -0.00018638  -0.00000003         -0.00    -27.42     -0.00
  -0.00000002  -0.00000003  -0.00017718         -0.00     -0.00    -26.06

 !ASE

     Writing output data file calc.save

     General routines

     Parallel routines

   This run was terminated on:  19:20:14  20Jan2018

   JOB DONE.
Job  /afs/slac/g/suncat/bin/suncat-tsmpirun -x LD_LIBRARY_PATH -wdir /scratch/qe869904_Nm3lt pw.x -in pw.inp

TID   HOST_NAME   COMMAND_LINE            STATUS            TERMINATION_TIME
00000 suncat1053 pw.x -in pw.inp   Done                     01/20/2018 19:20:14
00001 suncat1053 pw.x -in pw.inp   Done                     01/20/2018 19:20:14
00002 suncat1053 pw.x -in pw.inp   Done                     01/20/2018 19:20:14
00003 suncat1053 pw.x -in pw.inp   Done                     01/20/2018 19:20:14
00004 suncat1053 pw.x -in pw.inp   Done                     01/20/2018 19:20:14
00005 suncat1053 pw.x -in pw.inp   Done                     01/20/2018 19:20:14
00006 suncat1053 pw.x -in pw.inp   Done                     01/20/2018 19:20:14
00007 suncat1053 pw.x -in pw.inp   Done                     01/20/2018 19:20:14
00008 suncat1045 pw.x -in pw.inp   Done                     01/20/2018 19:20:14
00009 suncat1045 pw.x -in pw.inp   Done                     01/20/2018 19:20:14
00010 suncat1045 pw.x -in pw.inp   Done                     01/20/2018 19:20:14
00011 suncat1045 pw.x -in pw.inp   Done                     01/20/2018 19:20:14
00012 suncat1045 pw.x -in pw.inp   Done                     01/20/2018 19:20:14
00013 suncat1045 pw.x -in pw.inp   Done                     01/20/2018 19:20:14
00014 suncat1045 pw.x -in pw.inp   Done                     01/20/2018 19:20:14
00015 suncat1045 pw.x -in pw.inp   Done                     01/20/2018 19:20:14
00016 suncat1045 pw.x -in pw.inp   Done                     01/20/2018 19:20:14
00017 suncat1045 pw.x -in pw.inp   Done                     01/20/2018 19:20:14
00018 suncat1045 pw.x -in pw.inp   Done                     01/20/2018 19:20:14
00019 suncat1045 pw.x -in pw.inp   Done                     01/20/2018 19:20:14
00020 suncat1022 pw.x -in pw.inp   Done                     01/20/2018 19:20:14
00021 suncat1022 pw.x -in pw.inp   Done                     01/20/2018 19:20:14
00022 suncat1022 pw.x -in pw.inp   Done                     01/20/2018 19:20:14
00023 suncat1022 pw.x -in pw.inp   Done                     01/20/2018 19:20:14
00024 suncat1022 pw.x -in pw.inp   Done                     01/20/2018 19:20:14
00025 suncat1022 pw.x -in pw.inp   Done                     01/20/2018 19:20:14
00026 suncat1022 pw.x -in pw.inp   Done                     01/20/2018 19:20:14
00027 suncat1022 pw.x -in pw.inp   Done                     01/20/2018 19:20:14
00028 suncat1022 pw.x -in pw.inp   Done                     01/20/2018 19:20:14
00029 suncat1022 pw.x -in pw.inp   Done                     01/20/2018 19:20:14
00030 suncat1022 pw.x -in pw.inp   Done                     01/20/2018 19:20:14
00031 suncat1022 pw.x -in pw.inp   Done                     01/20/2018 19:20:14