     Program PWSCF v.5.1rc2 (svn rev. 11289) starts on 16Jan2019 at 16:55: 8

     Current dimensions of program PWSCF are:
     Max number of different atomic species (ntypx) = 10
     Max number of k-points (npk) =  40000
     Max angular momentum in pseudopotentials (lmaxx) =  3

     IMPORTANT: XC functional enforced from input :
     Exchange-correlation      = BEEF-VDW ( 1  4 27 13 2)
     Any further DFT definition will be discarded
     Please, verify this is what you really want

     Subspace diagonalization in iterative solution of the eigenvalue problem:
     a serial algorithm will be used

     Generating pointlists ...
     new r_m :   0.1440 (alat units)  1.4093 (a.u.) for type    1
     new r_m :   0.1440 (alat units)  1.4093 (a.u.) for type    2

     bravais-lattice index     =            0
     lattice parameter (alat)  =       9.7861  a.u.
     unit-cell volume          =    3797.2498 (a.u.)^3
     number of atoms/cell      =           13
     number of atomic types    =            2
     number of electrons       =       193.00
     number of Kohn-Sham states=          106
     kinetic-energy cutoff     =      36.7493  Ry
     charge density cutoff     =     367.4933  Ry
     convergence threshold     =      1.0E-04
     mixing beta               =       0.1000
     number of iterations used =            8  plain     mixing
     Exchange-correlation      = BEEF-VDW ( 1  4 27 13 2)
     nstep                     =           50

     celldm(1)=   9.786074  celldm(2)=   0.000000  celldm(3)=   0.000000
     celldm(4)=   0.000000  celldm(5)=   0.000000  celldm(6)=   0.000000

     crystal axes: (cart. coord. in units of alat)
               a(1) = (   1.000000   0.000000   0.000000 )
               a(2) = (   0.500000   0.866025   0.000000 )
               a(3) = (   0.000000   0.000000   4.678568 )

     reciprocal axes: (cart. coord. in units 2 pi/alat)
               b(1) = (  1.000000 -0.577350  0.000000 )
               b(2) = (  0.000000  1.154701  0.000000 )
               b(3) = (  0.000000  0.000000  0.213741 )

     PseudoPot. # 1 for Fe read from file:
     /nfs/slac/g/suncatfs/mamunm/src/decaf-espresso/gbrv15pbe/Fe.UPF
     MD5 check sum: a130daea23fe5165f5d574ae7f82ed95
     Pseudo is Ultrasoft + core correction, Zval = 16.0
     Generated by new atomic code, or converted to UPF format
     Using radial grid of  861 points,  6 beta functions with:
                l(1) =   0
                l(2) =   0
                l(3) =   1
                l(4) =   1
                l(5) =   2
                l(6) =   2
     Q(r) pseudized with  8 coefficients,  rinner =    1.000   1.000   1.000
                                                       1.000   1.000

     PseudoPot. # 2 for H  read from file:
     /nfs/slac/g/suncatfs/mamunm/src/decaf-espresso/gbrv15pbe/H.UPF
     MD5 check sum: 761ae9a214b05c3daf00ab9f6b793d6f
     Pseudo is Ultrasoft, Zval =  1.0
     Generated by new atomic code, or converted to UPF format
     Using radial grid of  615 points,  2 beta functions with:
                l(1) =   0
                l(2) =   0
     Q(r) pseudized with  8 coefficients,  rinner =    0.700

     vdW kernel table read from file vdW_kernel_table
     MD5 check sum: 095c7af220d748ca6e76c0b4c6cfb241

     atomic species   valence    mass     pseudopotential
        Fe            16.00    55.84500     Fe( 1.00)
        H              1.00     1.00800     H ( 1.00)

     Starting magnetic structure
     atomic species   magnetization
        Fe           0.188
        H            0.000

     No symmetry found

   Cartesian axes

     site n.     atom                  positions (alat units)
         1           Fe  tau(   1) = (   0.2500000   0.1443376   1.9310359  )
         2           Fe  tau(   2) = (   0.7500000   0.1443376   1.9310359  )
         3           Fe  tau(   3) = (   0.5000000   0.5773503   1.9310359  )
         4           Fe  tau(   4) = (   1.0000000   0.5773503   1.9310359  )
         5           Fe  tau(   5) = (   1.0000000   0.2886751   2.3392842  )
         6           Fe  tau(   6) = (   0.5000000   0.2886751   2.3392842  )
         7           Fe  tau(   7) = (   1.2500000   0.7216878   2.3392842  )
         8           Fe  tau(   8) = (   0.7500000   0.7216878   2.3392842  )
         9           Fe  tau(   9) = (  -0.0000024   0.0000296   2.7016454  )
        10           Fe  tau(  10) = (   0.5000222   0.0031044   2.7417001  )
        11           Fe  tau(  11) = (   0.2527473   0.4314020   2.7413140  )
        12           Fe  tau(  12) = (   0.7472920   0.4314043   2.7413973  )
        13           H   tau(  13) = (   0.4999817   0.2887335   2.9424560  )

     number of k points=    40  Fermi-Dirac smearing, width (Ry)=  0.0110
                       cart. coord. in units 2pi/alat
        k(    1) = (   0.0000000   0.0000000   0.0000000), wk =   0.0277778
        k(    2) = (   0.0000000   0.1924501   0.0000000), wk =   0.0555556
        k(    3) = (   0.0000000   0.3849002   0.0000000), wk =   0.0555556
        k(    4) = (   0.0000000  -0.5773503   0.0000000), wk =   0.0277778
        k(    5) = (   0.1666667  -0.0962250   0.0000000), wk =   0.0555556
        k(    6) = (   0.1666667   0.0962250   0.0000000), wk =   0.0555556
        k(    7) = (   0.1666667   0.2886751   0.0000000), wk =   0.0555556
        k(    8) = (   0.1666667  -0.6735753   0.0000000), wk =   0.0555556
        k(    9) = (   0.1666667  -0.4811252   0.0000000), wk =   0.0555556
        k(   10) = (   0.1666667  -0.2886751   0.0000000), wk =   0.0555556
        k(   11) = (   0.3333333  -0.1924501   0.0000000), wk =   0.0555556
        k(   12) = (   0.3333333   0.0000000   0.0000000), wk =   0.0555556
        k(   13) = (   0.3333333   0.1924501   0.0000000), wk =   0.0555556
        k(   14) = (   0.3333333  -0.7698004   0.0000000), wk =   0.0555556
        k(   15) = (   0.3333333  -0.5773503   0.0000000), wk =   0.0555556
        k(   16) = (   0.3333333  -0.3849002   0.0000000), wk =   0.0555556
        k(   17) = (  -0.5000000   0.2886751   0.0000000), wk =   0.0277778
        k(   18) = (  -0.5000000   0.4811252   0.0000000), wk =   0.0555556
        k(   19) = (  -0.5000000   0.6735753   0.0000000), wk =   0.0555556
        k(   20) = (  -0.5000000  -0.2886751   0.0000000), wk =   0.0277778
        k(   21) = (   0.0000000   0.0000000   0.0000000), wk =   0.0277778
        k(   22) = (   0.0000000   0.1924501   0.0000000), wk =   0.0555556
        k(   23) = (   0.0000000   0.3849002   0.0000000), wk =   0.0555556
        k(   24) = (   0.0000000  -0.5773503   0.0000000), wk =   0.0277778
        k(   25) = (   0.1666667  -0.0962250   0.0000000), wk =   0.0555556
        k(   26) = (   0.1666667   0.0962250   0.0000000), wk =   0.0555556
        k(   27) = (   0.1666667   0.2886751   0.0000000), wk =   0.0555556
        k(   28) = (   0.1666667  -0.6735753   0.0000000), wk =   0.0555556
        k(   29) = (   0.1666667  -0.4811252   0.0000000), wk =   0.0555556
        k(   30) = (   0.1666667  -0.2886751   0.0000000), wk =   0.0555556
        k(   31) = (   0.3333333  -0.1924501   0.0000000), wk =   0.0555556
        k(   32) = (   0.3333333   0.0000000   0.0000000), wk =   0.0555556
        k(   33) = (   0.3333333   0.1924501   0.0000000), wk =   0.0555556
        k(   34) = (   0.3333333  -0.7698004   0.0000000), wk =   0.0555556
        k(   35) = (   0.3333333  -0.5773503   0.0000000), wk =   0.0555556
        k(   36) = (   0.3333333  -0.3849002   0.0000000), wk =   0.0555556
        k(   37) = (  -0.5000000   0.2886751   0.0000000), wk =   0.0277778
        k(   38) = (  -0.5000000   0.4811252   0.0000000), wk =   0.0555556
        k(   39) = (  -0.5000000   0.6735753   0.0000000), wk =   0.0555556
        k(   40) = (  -0.5000000  -0.2886751   0.0000000), wk =   0.0277778

     Largest allocated arrays     est. size (Mb)     dimensions
     Largest temporary arrays     est. size (Mb)     dimensions

     Check: negative/imaginary core charge=   -0.000008    0.000000

     Initial potential from superposition of free atoms
     Check: negative starting charge=(component1):   -0.000119

     starting charge  180.99992, renormalised to  193.00000

     negative rho (up, down):  1.267E-04 8.556E-05

     *
     * You are using vdW-DF for exchange-correlation in this calculation.
     * Please cite the following three references that made this development
     * possible:
     *
     *   M. Dion, H. Rydberg, E. Schroder, D. C. Langreth, and
     *   B. I. Lundqvist, Phys. Rev. Lett. 92, 246401 (2004).
     *
     *   T. Thonhauser, V. R. Cooper, S. Li, A. Puzder, P. Hyldgaard, and
     *   D. C. Langreth, Phys. Rev. B 76, 125112 (2007).
     *
     *   G. Roman-Perez and J. M. Soler, Phys. Rev. Lett. 103, 096102 (2009).
     *
     *
     * If you are using vdW-DF2, please also cite:
     *
     *   K. Lee, E. D. Murray, L. Kong, B. I. Lundqvist, and
     *   D. C. Langreth, Phys. Rev. B 82, 081101(R) (2010).
     *
     *
     * If you are calculating the stress with vdW-DF, please also cite:
     *
     *   R. Sabatini, E. Kucukbenli, B. Kolb, T. Thonhauser, and
     *   S. de Gironcoli, J. Phys.: Condens. Matter 24, 424209 (2012).
     *

     Carrying out vdW-DF run using the following parameters:

     Nqs =      20    Nr_points =    1024   r_max =   100.000
     q_mesh =
               0.00001000     0.04494208     0.09755937     0.15916263
               0.23128650     0.31572767     0.41458969     0.53033537
               0.66584808     0.82450364     1.01025438     1.22772762
               1.48234092     1.78043706     2.12944203     2.53805004
               3.01644009     3.57652955     4.23227104     5.00000000

     Gradients computed in reciprocal space

     Adding external electric field

     Computed dipole along edir(3) :
        Dipole               -0.3947 Ry au,         -1.0034 Debye
        Dipole field         -0.0013 Ry au

        Potential amp.        0.1077 Ry
        Total length         41.2063 bohr

[...]

     Starting wfc are  157 randomized atomic wfcs

     Self-consistent Calculation

     iteration #  1     ecut=    36.75 Ry     beta=0.10
     Davidson diagonalization with overlap
     ethr =  1.00E-02,  avg # of iterations =  3.5

[...]

     Magnetic moment per site:
     atom:    1    charge:   12.8990    magn:    2.3604    constr:    0.0000
     atom:    2    charge:   12.8990    magn:    2.3603    constr:    0.0000
     atom:    3    charge:   12.8991    magn:    2.3604    constr:    0.0000
     atom:    4    charge:   12.8998    magn:    2.3615    constr:    0.0000
     atom:    5    charge:   12.8843    magn:    2.3282    constr:    0.0000
     atom:    6    charge:   12.8787    magn:    2.3359    constr:    0.0000
     atom:    7    charge:   12.8839    magn:    2.3279    constr:    0.0000
     atom:    8    charge:   12.8840    magn:    2.3280    constr:    0.0000
     atom:    9    charge:   12.8122    magn:    2.3073    constr:    0.0000
     atom:   10    charge:   12.7807    magn:    2.3034    constr:    0.0000
     atom:   11    charge:   12.7810    magn:    2.3035    constr:    0.0000
     atom:   12    charge:   12.7808    magn:    2.3032    constr:    0.0000
     atom:   13    charge:    0.8733    magn:    0.0399    constr:    0.0000

     total energy              =   -3014.11054812 Ry
     Harris-Foulkes estimate   =   -3023.14612058 Ry
     estimated scf accuracy    <      52.76041687 Ry

     total magnetization       =    18.42 Bohr mag/cell
     absolute magnetization    =    19.86 Bohr mag/cell

[...]

     iteration # 86     ecut=    36.75 Ry     beta=0.10
     Davidson diagonalization with overlap
     c_bands:  1 eigenvalues not converged
     ethr =  4.37E-06,  avg # of iterations =  4.6

[...]

     End of self-consistent calculation

 ------ SPIN UP ------------

          k = 0.0000 0.0000 0.0000 ( 14285 PWs)   bands (ev):

   -87.9024 -87.8081 -87.7910 -87.7740 -87.7439 -87.7381 -87.7327 -87.7068
   -87.6569 -85.2199 -85.1967 -85.0675 -54.0912 -53.9713 -53.9623 -53.9489
   -53.9451 -53.9304 -53.9241 -53.9107 -53.8611 -53.8375 -53.8163 -53.8014
   -53.7957 -53.7936 -53.7839 -53.7624 -53.7521 -53.6395 -53.6317 -53.6287
   -53.6238 -53.6025 -53.6001 -53.5804 -53.5681 -53.5568 -53.5539 -51.3629
   -51.3369 -51.3207 -51.3027 -51.2834 -51.1950 -51.1803 -51.1045 -51.0543
    -6.9603  -5.7120  -4.4349  -3.7660  -3.7111  -3.5454  -3.4681  -3.4582
    -3.3979  -3.3066  -3.1196  -3.0748  -2.9992  -2.9808  -2.8792  -2.7902
    -2.5476  -2.5058  -2.0765  -1.9247  -1.7779  -1.7678  -1.6288  -1.5387
    -1.5332  -1.4858  -1.4775  -1.4072  -1.3881  -1.3305  -1.3197  -1.2473
    -1.2385  -1.1571  -0.9980  -0.9660  -0.8485  -0.8470  -0.7310  -0.6030
    -0.5028  -0.3677  -0.2912  -0.2798  -0.0892   0.0822   0.1423   0.1963
     0.2267   0.2639   0.2746   0.2911   0.6802   0.7573   0.7720   0.9927
     1.1307   1.2561

[...]

          k =-0.5000 0.2887 0.0000 ( 14254 PWs)   bands (ev):

[...]

 ------ SPIN DOWN ----------

[...]

     the Fermi energy is     0.8453 ev

!    total energy              =   -3017.07606029 Ry
     Harris-Foulkes estimate   =   -3017.07605804 Ry
     estimated scf accuracy    <       0.00005869 Ry

     The total energy is the sum of the following terms:

     one-electron contribution =  -25818.30634863 Ry
     hartree contribution      =   12906.90393410 Ry
     xc contribution           =    -363.87932298 Ry
     ewald contribution        =   10258.29996568 Ry
     electric field correction =       0.00000170 Ry
     smearing contrib. (-TS)   =      -0.09429016 Ry

[...]

     convergence has been achieved in 293 iterations

     Forces acting on atoms (Ry/au):

     negative rho (up, down):  6.281E-04 6.702E-04
     atom    1 type  1   force =    -0.00034087    0.00104639    0.00186064
     atom    2 type  1   force =     0.00037691    0.00156078    0.00203635
     atom    3 type  1   force =     0.00052365   -0.00051482    0.01112939
     atom    4 type  1   force =    -0.00058310   -0.00081652    0.01139095
     atom    5 type  1   force =     0.00019254    0.01251126   -0.00828808
     atom    6 type  1   force =    -0.00012261   -0.00121870   -0.00635893
     atom    7 type  1   force =     0.00518396   -0.00097978    0.00146759
     atom    8 type  1   force =    -0.00534941   -0.00065848    0.00141556
     atom    9 type  1   force =     0.00052252   -0.01193158    0.00314457
     atom   10 type  1   force =    -0.00050194   -0.00029343   -0.00524894
     atom   11 type  1   force =    -0.00480218    0.00015744   -0.00592524
     atom   12 type  1   force =     0.00488600    0.00082138   -0.00630256
     atom   13 type  2   force =     0.00001455    0.00031604   -0.00032130

     Total force =     0.017409     Total SCF correction =     0.005193
     SCF correction compared to forces is large: reduce conv_thr to get better values

     BFGS Geometry Optimization

     number of scf cycles    =   1
     number of bfgs steps    =   0

     energy   new            =   -3017.0760602860 Ry

     new trust radius        =       0.0123500580 bohr
     new conv_thr            =       0.0001000000 Ry

ATOMIC_POSITIONS (angstrom)
Fe       1.294641895   0.747461846  10.000000000    0   0   0
Fe       3.883925684   0.747461846  10.000000000    0   0   0
Fe       2.589283790   2.989847386  10.000000000    0   0   0
Fe       5.178567579   2.989847386  10.000000000    0   0   0
Fe       5.178567579   1.494923693  12.114141361    0   0   0
Fe       2.589283790   1.494923693  12.114141361    0   0   0
Fe       6.473209474   3.737309232  12.114141361    0   0   0
Fe       3.883925684   3.737309232  12.114141361    0   0   0
Fe       0.000264120  -0.006160639  13.992317511
Fe       2.589132989   0.015921161  14.195301597
Fe       1.306327717   2.234127825  14.192944109
Fe       3.872487784   2.234491183  14.193175845
H        2.589196883   1.495393188  15.237537174

     Writing output data file calc.save
     Check: negative starting charge=(component1):   -0.000199
     NEW-OLD atomic charge density approx. for the potential

     Check: negative/imaginary core charge=   -0.000008    0.000000
     Check: negative starting charge=(component1):   -0.000199

[...]

     energy   old            =   -3017.0760602860 Ry
     energy   new            =   -3017.0763760735 Ry

     CASE: energy  _new < energy  _old

[...]

     WARNING: bfgs curvature condition failed, Theta= 0.656
     new trust radius        =       0.0203775956 bohr
     new conv_thr            =       0.0000010000 Ry

[...]

     WARNING: info= 32 for Hessian
     new trust radius        =       0.0303009542 bohr
     new conv_thr            =       0.0000010000 Ry

[...]

     iteration #  1     ecut=    36.75 Ry     beta=0.10
     Davidson diagonalization with overlap
     c_bands:  1 eigenvalues not converged
     c_bands:  1 eigenvalues not converged
     c_bands:  1 eigenvalues not converged
     ethr =  1.00E-06,  avg # of iterations =  8.9

[...]

     CASE: energy  _new > energy  _old

[...]

     CASE: energy  _new > energy  _old

[...]

     WARNING: info= 39 for Hessian
     uphill step: resetting bfgs history

[...]

     new trust radius        =       0.0024960149 bohr
     new conv_thr            =       0.0000010000 Ry

[...]

     WARNING: info= 39 for Hessian

     WARNING: bfgs curvature condition failed, Theta= 0.072
     new trust radius        =       0.0056160334 bohr
     new conv_thr            =       0.0000010000 Ry

[...]

     number of scf cycles    =  28
     number of bfgs steps    =  24

     energy   old            =   -3017.0783000807 Ry
     energy   new            =   -3017.0783037728 Ry

     CASE: energy  _new < energy  _old

     WARNING: info= 39 for Hessian
     new trust radius        =       0.0028873736 bohr
     new conv_thr            =       0.0000010000 Ry

ATOMIC_POSITIONS (angstrom)
Fe       1.294641895   0.747461846  10.000000000    0   0   0
Fe       3.883925684   0.747461846  10.000000000    0   0   0
Fe       2.589283790   2.989847386  10.000000000    0   0   0
Fe       5.178567579   2.989847386  10.000000000    0   0   0
Fe       5.178567579   1.494923693  12.114141361    0   0   0
Fe       2.589283790   1.494923693  12.114141361    0   0   0
Fe       6.473209474   3.737309232  12.114141361    0   0   0
Fe       3.883925684   3.737309232  12.114141361    0   0   0
Fe       0.000434662  -0.061969215  13.985373844
Fe       2.588670458   0.002879221  14.147772419
Fe       1.288210775   2.208103593  14.141291546
Fe       3.890214385   2.208184885  14.141509897
H        2.589064292   1.492089785  15.157873963

     Writing output data file calc.save
     Check: negative starting charge=(component1):   -0.000211
     NEW-OLD atomic charge density approx. for the potential

     Check: negative/imaginary core charge=   -0.000008    0.000000
     Check: negative starting charge=(component1):   -0.000211

[...]

     Self-consistent Calculation

[...]

     total energy              =   -3017.07830735 Ry
     Harris-Foulkes estimate   =   -3017.07830712 Ry
     estimated scf accuracy    <       0.00000279 Ry

[...]

     iteration #  9     ecut=    36.75 Ry     beta=0.10
     Davidson diagonalization with overlap
     ethr =  1.45E-09,  avg # of iterations =  2.9

     negative rho (up, down):  6.056E-04 6.981E-04

[...]

     Adding external electric field

     Computed dipole along edir(3) :
        Dipole               -0.0026 Ry au,         -0.0066 Debye
        Dipole field         -0.0000 Ry au

        Potential amp.        0.0007 Ry
        Total length         41.2063 bohr

     Magnetic moment per site:
     atom:    1    charge:   12.7226    magn:    2.4011    constr:    0.0000
     atom:    2    charge:   12.7226    magn:    2.4010    constr:    0.0000
     atom:    3    charge:   12.7230    magn:    2.3395    constr:    0.0000
     atom:    4    charge:   12.7230    magn:    2.3573    constr:    0.0000
     atom:    5    charge:   12.7138    magn:    1.9925    constr:    0.0000
     atom:    6    charge:   12.7160    magn:    2.1204    constr:    0.0000
     atom:    7    charge:   12.7080    magn:   -1.8075    constr:    0.0000
     atom:    8    charge:   12.7091    magn:   -1.8060    constr:    0.0000
     atom:    9    charge:   12.6886    magn:   -2.0752    constr:    0.0000
     atom:   10    charge:   12.6939    magn:    2.2188    constr:    0.0000
     atom:   11    charge:   12.6872    magn:    2.1638    constr:    0.0000
     atom:   12    charge:   12.6871    magn:    2.1641    constr:    0.0000
     atom:   13    charge:    0.9655    magn:   -0.0225    constr:    0.0000

     End of self-consistent calculation

 ------ SPIN UP ------------

[...]

 ------ SPIN DOWN ----------

[...]

          k = 0.3333-0.3849 0.0000 ( 14261 PWs)   bands (ev):

[...]

          k =-0.5000-0.2887 0.0000 ( 14254 PWs)   bands (ev):

   -87.9187 -87.7191 -87.7176 -84.8912 -84.8136 -84.7712 -84.7685 -84.7378
   -84.5169 -84.4979 -84.4341 -84.4337 -54.0148 -53.9327 -53.9243 -53.7989
   -53.7936 -53.7812 -53.7789 -53.5940 -53.5699 -51.0975 -51.0099 -50.9694
   -50.9611 -50.9569 -50.9483 -50.9344 -50.9029 -50.8866 -50.8489 -50.8381
   -50.8235 -50.7657 -50.7272 -50.6990 -50.6802 -50.6644 -50.6341 -50.6248
   -50.5877 -50.5754 -50.5581 -50.5549 -50.5082 -50.5071 -50.4542 -50.4465
    -5.5097  -4.9979  -4.4529  -3.4500  -3.0816  -2.9293  -2.9162  -2.8316
    -2.6900  -2.5906  -2.3389  -2.2413  -2.2027  -2.1423  -1.9851  -1.9532
    -1.6823  -1.5587  -1.3573  -1.2625  -1.1806  -0.8737  -0.7309  -0.6315
    -0.4755  -0.4397  -0.3280  -0.1658  -0.1410  -0.0043   0.0298   0.0803
     0.1149   0.2153   0.2571   0.2934   0.4023   0.4323   0.5174   0.5609
     0.6292   0.6853   0.8274   0.9231   1.0762   1.2029   1.2816   1.4077
     1.5411   1.5971   1.6463   1.7311   1.8128   1.9637   1.9973   2.0285
     2.0765   2.0992

     the Fermi energy is     0.8432 ev

!    total energy              =   -3017.07830840 Ry
     Harris-Foulkes estimate   =   -3017.07830747 Ry
     estimated scf accuracy    <       0.00000098 Ry

     The total energy is the sum of the following terms:

     one-electron contribution =  -25968.35428948 Ry
     hartree contribution      =   12981.84806615 Ry
     xc contribution           =    -363.91829656 Ry
     ewald contribution        =   10333.44038512 Ry
     electric field correction =       0.00000002 Ry
     smearing contrib. (-TS)   =      -0.09417366 Ry

     total magnetization       =    15.75 Bohr mag/cell
     absolute magnetization    =    30.44 Bohr mag/cell

     convergence has been achieved in   9 iterations

     Forces acting on atoms (Ry/au):

     negative rho (up, down):  6.056E-04 6.981E-04
     atom    1 type  1   force =    -0.00038859    0.00080757    0.00289757
     atom    2 type  1   force =     0.00038110    0.00069744    0.00298811
     atom    3 type  1   force =    -0.00010214   -0.00025273    0.01102783
     atom    4 type  1   force =     0.00008855   -0.00076259    0.01134336
     atom    5 type  1   force =    -0.00001857    0.00587855   -0.01050291
     atom    6 type  1   force =     0.00000532   -0.00144032   -0.01194096
     atom    7 type  1   force =     0.00648397   -0.00217775   -0.00406622
     atom    8 type  1   force =    -0.00649934   -0.00223150   -0.00411640
     atom    9 type  1   force =    -0.00038386   -0.00078362    0.00168658
     atom   10 type  1   force =     0.00038391   -0.00051680    0.00010795
     atom   11 type  1   force =    -0.00104657    0.00093762   -0.00026514
     atom   12 type  1   force =     0.00109947    0.00058078    0.00003713
     atom   13 type  2   force =    -0.00000324   -0.00073666    0.00080309

     Total force =     0.002968     Total SCF correction =     0.004947
     SCF correction compared to forces is large: reduce conv_thr to get better values

     bfgs converged in  29 scf cycles and  25 bfgs steps
     (criteria: energy <  1.0E+12, force <  1.9E-03)

     End of BFGS Geometry Optimization

     Final energy   =   -3017.0783084042 Ry
Begin final coordinates

ATOMIC_POSITIONS (angstrom)
Fe       1.294641895   0.747461846  10.000000000    0   0   0
Fe       3.883925684   0.747461846  10.000000000    0   0   0
Fe       2.589283790   2.989847386  10.000000000    0   0   0
Fe       5.178567579   2.989847386  10.000000000    0   0   0
Fe       5.178567579   1.494923693  12.114141361    0   0   0
Fe       2.589283790   1.494923693  12.114141361    0   0   0
Fe       6.473209474   3.737309232  12.114141361    0   0   0
Fe       3.883925684   3.737309232  12.114141361    0   0   0
Fe       0.000434662  -0.061969215  13.985373844
Fe       2.588670458   0.002879221  14.147772419
Fe       1.288210775   2.208103593  14.141291546
Fe       3.890214385   2.208184885  14.141509897
H        2.589064292   1.492089785  15.157873963
End final coordinates

     Writing output data file calc.save

     General routines

     Parallel routines

   This run was terminated on:  22:42:50  16Jan2019

   JOB DONE.
Job  /afs/slac/g/suncat/bin/suncat-tsmpirun -x LD_LIBRARY_PATH -wdir /tmp/qe_37869294dliavk_scratch pw.x -npool 4 -in pw.pwi

TID   HOST_NAME   COMMAND_LINE            STATUS            TERMINATION_TIME
00000 suncat0199 pw.x -npool 4 -i  Done                     01/16/2019 22:42:50
00001 suncat0199 pw.x -npool 4 -i  Done                     01/16/2019 22:42:50
00002 suncat0199 pw.x -npool 4 -i  Done                     01/16/2019 22:42:50
00003 suncat0199 pw.x -npool 4 -i  Done                     01/16/2019 22:42:50
00004 suncat0199 pw.x -npool 4 -i  Done                     01/16/2019 22:42:50
00005 suncat0199 pw.x -npool 4 -i  Done                     01/16/2019 22:42:50
00006 suncat0199 pw.x -npool 4 -i  Done                     01/16/2019 22:42:50
00007 suncat0199 pw.x -npool 4 -i  Done                     01/16/2019 22:42:50
00008 suncat0132 pw.x -npool 4 -i  Done                     01/16/2019 22:42:50
00009 suncat0132 pw.x -npool 4 -i  Done                     01/16/2019 22:42:50
00010 suncat0132 pw.x -npool 4 -i  Done                     01/16/2019 22:42:50
00011 suncat0132 pw.x -npool 4 -i  Done                     01/16/2019 22:42:50
00012 suncat0132 pw.x -npool 4 -i  Done                     01/16/2019 22:42:50
00013 suncat0132 pw.x -npool 4 -i  Done                     01/16/2019 22:42:50
00014 suncat0132 pw.x -npool 4 -i  Done                     01/16/2019 22:42:50
00015 suncat0132 pw.x -npool 4 -i  Done                     01/16/2019 22:42:50
00016 suncat0276 pw.x -npool 4 -i  Done                     01/16/2019 22:42:50
00017 suncat0276 pw.x -npool 4 -i  Done                     01/16/2019 22:42:50
00018 suncat0276 pw.x -npool 4 -i  Done                     01/16/2019 22:42:50
00019 suncat0276 pw.x -npool 4 -i  Done                     01/16/2019 22:42:50
00020 suncat0276 pw.x -npool 4 -i  Done                     01/16/2019 22:42:50
00021 suncat0276 pw.x -npool 4 -i  Done                     01/16/2019 22:42:50
00022 suncat0276 pw.x -npool 4 -i  Done                     01/16/2019 22:42:50
00023 suncat0276 pw.x -npool 4 -i  Done                     01/16/2019 22:42:50
00024 suncat0274 pw.x -npool 4 -i  Done                     01/16/2019 22:42:50
00025 suncat0274 pw.x -npool 4 -i  Done                     01/16/2019 22:42:50
00026 suncat0274 pw.x -npool 4 -i  Done                     01/16/2019 22:42:50
00027 suncat0274 pw.x -npool 4 -i  Done                     01/16/2019 22:42:50
00028 suncat0274 pw.x -npool 4 -i  Done                     01/16/2019 22:42:50
00029 suncat0274 pw.x -npool 4 -i  Done                     01/16/2019 22:42:50
00030 suncat0274 pw.x -npool 4 -i  Done                     01/16/2019 22:42:50
00031 suncat0274 pw.x -npool 4 -i  Done                     01/16/2019 22:42:50