     Program PWSCF v.5.1rc2 (svn rev. 11289) starts on 19Apr2018 at 10:21:35

     Current dimensions of program PWSCF are:
     Max number of different atomic species (ntypx) = 10
     Max number of k-points (npk) =  40000
     Max angular momentum in pseudopotentials (lmaxx) =  3
     Presently stress not available with electric field

     IMPORTANT: XC functional enforced from input :
     Exchange-correlation      = BEEF-VDW ( 1  4 27 13 2)
     Any further DFT definition will be discarded
     Please, verify this is what you really want

     Subspace diagonalization in iterative solution of the eigenvalue problem:
     a serial algorithm will be used

     bravais-lattice index     =            0
     lattice parameter (alat)  =       1.8897  a.u.
     unit-cell volume          =    5182.3421 (a.u.)^3
     number of atoms/cell      =           14
     number of atomic types    =            3
     number of electrons       =       163.00
     number of Kohn-Sham states=           91
     kinetic-energy cutoff     =      36.7493  Ry
     charge density cutoff     =     367.4932  Ry
     convergence threshold     =      1.0E-05
     mixing beta               =       0.3000
     number of iterations used =           10  plain     mixing
     Exchange-correlation      = BEEF-VDW ( 1  4 27 13 2)
     nstep                     =           50

     celldm(1)=   1.889726  celldm(2)=   0.000000  celldm(3)=   0.000000
     celldm(4)=   0.000000  celldm(5)=   0.000000  celldm(6)=   0.000000

     crystal axes: (cart. coord. in units of alat)
               a(1) = (   5.970602   0.000000   0.000000 )
               a(2) = (   2.985301   5.170693   0.000000 )
               a(3) = (   0.000000   0.000000  24.874976 )

     reciprocal axes: (cart. coord. in units 2 pi/alat)
               b(1) = (  0.167487 -0.096699  0.000000 )
               b(2) = (  0.000000  0.193398  0.000000 )
               b(3) = (  0.000000  0.000000  0.040201 )

     PseudoPot. # 1 for Nb read from file:
     /u/if/mamunm/psp/gbrv1.5pbe/Nb.UPF
     MD5 check sum: 573aab8a2fa660278ed4a62cd769473f
     Pseudo is Ultrasoft + core correction, Zval = 13.0
     Generated by new atomic code, or converted to UPF format
     Using radial grid of  887 points,  6 beta functions with:
                l(1) =   0
                l(2) =   0
                l(3) =   1
                l(4) =   1
                l(5) =   2
                l(6) =   2
     Q(r) pseudized with  6 coefficients,  rinner =    1.000   1.000   1.000
                                                       1.000   1.000

     PseudoPot. # 2 for S  read from file:
     /u/if/mamunm/psp/gbrv1.5pbe/S.UPF
     MD5 check sum: 88d86576ff6df21479756cfb9bdac1df
     Pseudo is Ultrasoft + core correction, Zval =  6.0
     Generated by new atomic code, or converted to UPF format
     Using radial grid of  907 points,  6 beta functions with:
                l(1) =   0
                l(2) =   0
                l(3) =   1
                l(4) =   1
                l(5) =   2
                l(6) =   2
     Q(r) pseudized with  8 coefficients,  rinner =    1.300   1.300   1.300
                                                       1.300   1.300

     PseudoPot. # 3 for H  read from file:
     /u/if/mamunm/psp/gbrv1.5pbe/H.UPF
     MD5 check sum: 761ae9a214b05c3daf00ab9f6b793d6f
     Pseudo is Ultrasoft, Zval =  1.0
     Generated by new atomic code, or converted to UPF format
     Using radial grid of  615 points,  2 beta functions with:
                l(1) =   0
                l(2) =   0
     Q(r) pseudized with  8 coefficients,  rinner =    0.700

     vdW kernel table read from file vdW_kernel_table
     MD5 check sum: 095c7af220d748ca6e76c0b4c6cfb241

     atomic species   valence    mass     pseudopotential
        Nb1           13.00    92.90637     Nb( 1.00)
        S1             6.00    32.06000     S ( 1.00)
        H1             1.00     1.00800     H ( 1.00)

     No symmetry found

   Cartesian axes

     site n.     atom                  positions (alat units)
         1           Nb1 tau(   1) = (   1.4926504   0.8617821  10.0000000  )
         2           Nb1 tau(   2) = (   4.4779512   0.8617821  10.0000000  )
         3           Nb1 tau(   3) = (   2.9853008   3.4471284  10.0000000  )
         4           Nb1 tau(   4) = (   5.9706016   3.4471284  10.0000000  )
         5           Nb1 tau(   5) = (   5.9706016   1.7235642  12.4374879  )
         6           Nb1 tau(   6) = (   2.9853008   1.7235642  12.4374879  )
         7           Nb1 tau(   7) = (   7.4632520   4.3089105  12.4374879  )
         8           Nb1 tau(   8) = (   4.4779512   4.3089105  12.4374879  )
         9           Nb1 tau(   9) = (   0.0000000   0.0000000  14.8749758  )
        10           Nb1 tau(  10) = (   2.9853008   0.0000000  14.8749758  )
        11           Nb1 tau(  11) = (   1.4926504   2.5853463  14.8749758  )
        12           Nb1 tau(  12) = (   4.4779512   2.5853463  14.8749758  )
        13           S1  tau(  13) = (   0.0000000   0.0000000  17.1614758  )
        14           H1  tau(  14) = (   0.0000000   0.0000000  18.4114758  )

     number of k points=    20  Fermi-Dirac smearing, width (Ry)=  0.0110
                       cart. coord. in units 2pi/alat
        k(    1) = (   0.0000000   0.0000000   0.0000000), wk =   0.0555556
        k(    2) = (   0.0000000   0.0322329   0.0000000), wk =   0.1111111
        k(    3) = (   0.0000000   0.0644659   0.0000000), wk =   0.1111111
        k(    4) = (   0.0000000  -0.0966988   0.0000000), wk =   0.0555556
        k(    5) = (   0.0279146  -0.0161165   0.0000000), wk =   0.1111111
        k(    6) = (   0.0279146   0.0161165   0.0000000), wk =   0.1111111
        k(    7) = (   0.0279146   0.0483494   0.0000000), wk =   0.1111111
        k(    8) = (   0.0279146  -0.1128153   0.0000000), wk =   0.1111111
        k(    9) = (   0.0279146  -0.0805824   0.0000000), wk =   0.1111111
        k(   10) = (   0.0279146  -0.0483494   0.0000000), wk =   0.1111111
        k(   11) = (   0.0558291  -0.0322329   0.0000000), wk =   0.1111111
        k(   12) = (   0.0558291   0.0000000   0.0000000), wk =   0.1111111
        k(   13) = (   0.0558291   0.0322329   0.0000000), wk =   0.1111111
        k(   14) = (   0.0558291  -0.1289318   0.0000000), wk =   0.1111111
        k(   15) = (   0.0558291  -0.0966988   0.0000000), wk =   0.1111111
        k(   16) = (   0.0558291  -0.0644659   0.0000000), wk =   0.1111111
        k(   17) = (  -0.0837437   0.0483494   0.0000000), wk =   0.0555556
        k(   18) = (  -0.0837437   0.0805824   0.0000000), wk =   0.1111111
        k(   19) = (  -0.0837437   0.1128153   0.0000000), wk =   0.1111111
        k(   20) = (  -0.0837437  -0.0483494   0.0000000), wk =   0.0555556

     Largest allocated arrays     est. size (Mb)     dimensions
     Largest temporary arrays     est. size (Mb)     dimensions

     Initial potential from superposition of free atoms
     Check: negative starting charge=   -0.004492

     starting charge  162.96716, renormalised to  163.00000

     negative rho (up, down):  4.493E-03 0.000E+00

     *
     * You are using vdW-DF for exchange-correlation in this calculation.
     * Please cite the following three references that made this development
     * possible:
     *
     *   M. Dion, H. Rydberg, E. Schroder, D. C. Langreth, and
     *   B. I. Lundqvist, Phys. Rev. Lett. 92, 246401 (2004).
     *
     *   T. Thonhauser, V. R. Cooper, S. Li, A. Puzder, P. Hyldgaard, and
     *   D. C. Langreth, Phys. Rev. B 76, 125112 (2007).
     *
     *   G. Roman-Perez and J. M. Soler, Phys. Rev. Lett. 103, 096102 (2009).
     *
     *
     * If you are using vdW-DF2, please also cite:
     *
     *   K. Lee, E. D. Murray, L. Kong, B. I. Lundqvist, and
     *   D. C. Langreth, Phys. Rev. B 82, 081101(R) (2010).
     *
     *
     * If you are calculating the stress with vdW-DF, please also cite:
     *
     *   R. Sabatini, E. Kucukbenli, B. Kolb, T. Thonhauser, and
     *   S. de Gironcoli, J. Phys.: Condens. Matter 24, 424209 (2012).
     *

     Carrying out vdW-DF run using the following parameters:

     Nqs =      20    Nr_points =    1024   r_max =   100.000
     q_mesh =
               0.00001000     0.04494208     0.09755937     0.15916263
               0.23128650     0.31572767     0.41458969     0.53033537
               0.66584808     0.82450364     1.01025438     1.22772762
               1.48234092     1.78043706     2.12944203     2.53805004
               3.01644009     3.57652955     4.23227104     5.00000000

     Gradients computed in reciprocal space

     Adding external electric field

     Computed dipole along edir(3) :
        Dipole               -0.0126 Ry au,         -0.0321 Debye
        Dipole field         -0.0000 Ry au

        Potential amp.        0.0028 Ry
        Total length         45.8317 bohr

     Starting wfc are  161 randomized atomic wfcs

     Self-consistent Calculation

     iteration #  1     ecut=    36.75 Ry     beta=0.30
     Davidson diagonalization with overlap
     ethr =  1.00E-02,  avg # of iterations =  2.0

[...]

     total energy              =   -1445.65106222 Ry
     Harris-Foulkes estimate   =   -1448.29868056 Ry
     estimated scf accuracy    <       5.82291733 Ry

[...]

     End of self-consistent calculation

          k = 0.0000 0.0000 0.0000 ( 19435 PWs)   bands (ev):

   -52.6472 -52.5606 -52.5308 -52.4908 -52.4907 -52.4398 -52.4239 -52.4238
   -52.4173 -52.3569 -52.3203 -52.3201 -29.0638 -29.0637 -29.0579 -29.0167
   -28.9746 -28.9746 -28.9703 -28.9224 -28.9224 -28.9187 -28.7343 -28.6279
   -28.5519 -28.5517 -28.4587 -28.4581 -28.4581 -28.3694 -28.3530 -28.3530
   -28.2724 -28.2699 -28.2699 -28.2548 -28.2118 -28.2117 -28.1682 -28.1488
   -28.1488 -28.1322 -28.1219 -28.1219 -28.0569 -28.0569 -27.9678 -27.9678
   -11.9997  -4.9022  -2.8582  -1.6417  -1.2694  -1.2694  -1.1867  -0.9763
    -0.8343  -0.8343  -0.6449  -0.6265  -0.6265  -0.3005  -0.2673  -0.2673
    -0.2077  -0.1694  -0.1694   0.8671   1.1706   1.1706   1.9091   1.9542
     2.0594   2.0594   2.2909   2.5302   2.6550   2.6550   2.8853   2.8853
     2.9126   2.9126   2.9898   2.9898   2.9985   3.0233   3.0233   3.0834
     3.6409   3.7859   3.9866

[...]

          k =-0.0837 0.0483 0.0000 ( 19524 PWs)   bands (ev):

[...]

     the Fermi energy is     2.5604 ev

!    total energy              =   -1447.76761556 Ry
     Harris-Foulkes estimate   =   -1447.76761970 Ry
     estimated scf accuracy    <       0.00000364 Ry

     The total energy is the sum of the following terms:

     one-electron contribution =  -11617.14925829 Ry
     hartree contribution      =    5806.06276546 Ry
     xc contribution           =    -237.84246879 Ry
     ewald contribution        =    4601.28080919 Ry
     electric field correction =       0.00021923 Ry
     smearing contrib. (-TS)   =      -0.11968235 Ry

     convergence has been achieved in  17 iterations

 BEEF-vdW xc energy contributions
           1 :   -203.801213002487
           2 :    184.979955777145
           3 :   -152.983565327508
           4 :    116.443481950891
           5 :   -83.5641183705798
           6 :    59.4510954713683
           7 :   -45.0805240071903
           8 :    37.9823508969548
           9 :   -34.0874202728958
          10 :    29.7561807549675
          11 :   -23.1482091751650
          12 :    14.4997835554578
          13 :   -5.44009063935164
          14 :   -2.16536379898605
          15 :    7.22524374395147
          16 :   -9.85478574594143
          17 :    11.1105808335651
          18 :   -12.2751339080507
          19 :    14.1209376229624
          20 :   -16.5542306514382
          21 :    18.7775289191197
          22 :   -19.8232258662672
          23 :    19.1214700502955
          24 :   -16.8001398017092
          25 :    13.5900250073424
          26 :   -10.4361336487239
          27 :    8.04634998368169
          28 :   -6.61640758326905
          29 :    5.84463414657313
          30 :   -5.19589234823619
          31 :   -23.5787043753672
          32 :   -17.7376497548534

     Forces acting on atoms (Ry/au):

     negative rho (up, down):  4.329E-03 0.000E+00
     atom    1 type  1   force =    -0.00001024   -0.00000293   -0.00582404
     atom    2 type  1   force =     0.00000950   -0.00000480   -0.00582365
     atom    3 type  1   force =    -0.00000069    0.00000977   -0.00582453
     atom    4 type  1   force =    -0.00000017   -0.00000572   -0.00396670
     atom    5 type  1   force =     0.00000120    0.00369119   -0.00284526
     atom    6 type  1   force =    -0.00000389   -0.00000530    0.00795804
     atom    7 type  1   force =    -0.00320399   -0.00184280   -0.00283479
     atom    8 type  1   force =     0.00320415   -0.00184041   -0.00284499
     atom    9 type  1   force =    -0.00000104    0.00000514    0.01163930
     atom   10 type  1   force =     0.00000076    0.00139701   -0.00949445
     atom   11 type  1   force =     0.00120808   -0.00070060   -0.00950767
     atom   12 type  1   force =    -0.00120400   -0.00070166   -0.00950167
     atom   13 type  2   force =     0.00000019    0.00000114   -0.08445198
     atom   14 type  3   force =     0.00000014   -0.00000005    0.12332238

     Total force =     0.150840     Total SCF correction =     0.004416

     entering subroutine stress ...

     negative rho (up, down):  4.329E-03 0.000E+00
          total   stress  (Ry/bohr**3)                   (kbar)     P=  -15.14
  -0.00021888  -0.00000000   0.00000000        -32.20     -0.00      0.00
  -0.00000000  -0.00021888  -0.00000000         -0.00    -32.20     -0.00
   0.00000000  -0.00000000   0.00012908          0.00     -0.00     18.99

     BFGS Geometry Optimization

     number of scf cycles    =   1
     number of bfgs steps    =   0

     energy   new            =   -1447.7676155586 Ry

     new trust radius        =       0.1233223816 bohr
     new conv_thr            =       0.0000099958 Ry

ATOMIC_POSITIONS (crystal)
Nb1      0.166666667   0.166666667   0.402010442    0   0   0
Nb1      0.666666667   0.166666667   0.402010442    0   0   0
Nb1      0.166666667   0.666666667   0.402010442    0   0   0
Nb1      0.666666667   0.666666667   0.402010442    0   0   0
Nb1      0.833333333   0.333333333   0.500000000    0   0   0
Nb1      0.333333333   0.333333333   0.500000000    0   0   0
Nb1      0.833333333   0.833333333   0.500000000    0   0   0
Nb1      0.333333333   0.833333333   0.500000000    0   0   0
Nb1     -0.000000355   0.000000526   0.598237166
Nb1      0.499928581   0.000142973   0.597787578
Nb1      0.000142923   0.499928300   0.597787297
Nb1      0.499929194   0.499928191   0.597787424
S1      -0.000000041   0.000000117   0.688112658
H1       0.000000015  -0.000000006   0.742784047

     Writing output data file calc.save
     Check: negative starting charge=   -0.004492
     NEW-OLD atomic charge density approx. for the potential
     Check: negative starting charge=   -0.004469

[...]

     energy   old            =   -1447.7676155586 Ry
     energy   new            =   -1447.7746260756 Ry

     CASE: energy  _new < energy  _old

[...]

     iteration #  1     ecut=    36.75 Ry     beta=0.30
     Davidson diagonalization with overlap
     c_bands:  1 eigenvalues not converged
     ethr =  1.00E-06,  avg # of iterations = 14.1

[...]

     Threshold (ethr) on eigenvalues was too large:
     Diagonalizing with lowered threshold

     Davidson diagonalization with overlap
     ethr =  8.22E-08,  avg # of iterations =  2.9

[...]

     Total force =     0.005262     Total SCF correction =     0.000237

[...]

     number of scf cycles    =  15
     number of bfgs steps    =  14

     energy   old            =   -1447.8005901050 Ry
     energy   new            =   -1447.8006539987 Ry

     CASE: energy  _new < energy  _old

     new trust radius        =       0.0091081647 bohr
     new conv_thr            =       0.0000001000 Ry

ATOMIC_POSITIONS (crystal)
Nb1      0.166666667   0.166666667   0.402010442    0   0   0
Nb1      0.666666667   0.166666667   0.402010442    0   0   0
Nb1      0.166666667   0.666666667   0.402010442    0   0   0
Nb1      0.666666667   0.666666667   0.402010442    0   0   0
Nb1      0.833333333   0.333333333   0.500000000    0   0   0
Nb1      0.333333333   0.333333333   0.500000000    0   0   0
Nb1      0.833333333   0.833333333   0.500000000    0   0   0
Nb1      0.333333333   0.833333333   0.500000000    0   0   0
Nb1      0.000000599   0.000000336   0.611140710
Nb1      0.501028964  -0.002055291   0.593690247
Nb1     -0.002048259   0.501024297   0.593688643
Nb1      0.501030674   0.501026221   0.593690437
S1      -0.000000213  -0.000003880   0.704443229
H1      -0.000001769   0.000003028   0.758482992

     Writing output data file calc.save
     Check: negative starting charge=   -0.004292
     NEW-OLD atomic charge density approx. for the potential
     Check: negative starting charge=   -0.004291

[...]

     Self-consistent Calculation

[...]

     Threshold (ethr) on eigenvalues was too large:
     Diagonalizing with lowered threshold

     Davidson diagonalization with overlap
     ethr =  1.03E-08,  avg # of iterations =  4.4

[...]

     total energy              =   -1447.80067617 Ry
     Harris-Foulkes estimate   =   -1447.80067615 Ry
     estimated scf accuracy    <       0.00000035 Ry

     iteration #  8     ecut=    36.75 Ry     beta=0.30
     Davidson diagonalization with overlap
     ethr =  2.18E-10,  avg # of iterations =  3.1

[...]

     negative rho (up, down):  4.247E-03 0.000E+00

     Adding external electric field

     Computed dipole along edir(3) :
        Dipole                0.2137 Ry au,          0.5432 Debye
        Dipole field          0.0005 Ry au

        Potential amp.       -0.0475 Ry
        Total length         45.8317 bohr

     End of self-consistent calculation

[...]

          k = 0.0558-0.0645 0.0000 ( 19505 PWs)   bands (ev):

[...]

          k =-0.0837-0.0483 0.0000 ( 19524 PWs)   bands (ev):

   -52.8176 -52.6781 -52.6458 -52.6269 -52.6220 -52.5987 -52.5656 -52.5550
   -52.5245 -52.5198 -52.4833 -52.4760 -29.1203 -29.0435 -29.0345 -29.0203
   -28.9991 -28.9962 -28.9106 -28.9080 -28.8864 -28.8561 -28.8259 -28.8053
   -28.7486 -28.6886 -28.6525 -28.6323 -28.6289 -28.6140 -28.6124 -28.5767
   -28.5201 -28.5065 -28.4915 -28.4689 -28.4542 -28.4407 -28.3908 -28.3763
   -28.3305 -28.3144 -28.2949 -28.2829 -28.2751 -28.2580 -28.1946 -28.1839
   -11.3989  -4.4197  -1.5262  -1.4596  -0.7688  -0.6215  -0.5272  -0.4937
    -0.2322  -0.1586  -0.1272  -0.0403   0.0625   0.0632   0.4833   0.5079
     0.6043   0.6519   0.7274   0.8544   1.1249   1.1478   1.2792   1.3139
     1.3491   1.4173   1.5417   1.8289   1.9162   1.9250   2.0422   2.0731
     2.1424   2.1776   2.2021   2.2862   2.4763   2.5484   2.5678   2.6845
     2.8459   3.1672   3.3937

     the Fermi energy is     2.4179 ev

!    total energy              =   -1447.80067614 Ry
     Harris-Foulkes estimate   =   -1447.80067567 Ry
     estimated scf accuracy    <       0.00000009 Ry

     The total energy is the sum of the following terms:

     one-electron contribution =  -11506.12396856 Ry
     hartree contribution      =    5749.90122795 Ry
     xc contribution           =    -237.73798286 Ry
     ewald contribution        =    4546.27650183 Ry
     electric field correction =       0.00011075 Ry
     smearing contrib. (-TS)   =      -0.11656525 Ry

     convergence has been achieved in   8 iterations

 BEEF-vdW xc energy contributions
           1 :   -203.700140800723
           2 :    184.842911556028
           3 :   -152.815579229773
           4 :    116.275215167582
           5 :   -83.4232421584535
           6 :    59.3519334583136
           7 :   -45.0218813563614
           8 :    37.9487135406440
           9 :   -34.0549008273715
          10 :    29.7052725614479
          11 :   -23.0766975237036
          12 :    14.4238231712912
          13 :   -5.37848427224043
          14 :   -2.21283751564053
          15 :    7.28634772797943
          16 :   -9.96927254750088
          17 :    11.3005671585947
          18 :   -12.5239021658265
          19 :    14.3769212628037
          20 :   -16.7596122872453
          21 :    18.9035041693209
          22 :   -19.8872737792999
          23 :    19.1752706798609
          24 :   -16.8968231526228
          25 :    13.7521982259059
          26 :   -10.6445237368571
          27 :    8.25513590751541
          28 :   -6.78484382498812
          29 :    5.96585161568902
          30 :   -5.30346088506607
          31 :   -23.5708451646640
          32 :   -17.7198980525139

     Forces acting on atoms (Ry/au):

     negative rho (up, down):  4.247E-03 0.000E+00
     atom    1 type  1   force =    -0.00221231   -0.00127569   -0.00230641
     atom    2 type  1   force =     0.00221166   -0.00127533   -0.00230604
     atom    3 type  1   force =    -0.00000002    0.00255176   -0.00230981
     atom    4 type  1   force =    -0.00000030   -0.00000158   -0.00302018
     atom    5 type  1   force =    -0.00000275   -0.01529398    0.00655505
     atom    6 type  1   force =     0.00000229    0.00000387   -0.01086011
     atom    7 type  1   force =     0.01324665    0.00764723    0.00655389
     atom    8 type  1   force =    -0.01324856    0.00764499    0.00655757
     atom    9 type  1   force =     0.00000117   -0.00000005    0.00032844
     atom   10 type  1   force =     0.00000048    0.00130819    0.00029778
     atom   11 type  1   force =     0.00113212   -0.00065471    0.00028982
     atom   12 type  1   force =    -0.00113018   -0.00065427    0.00028868
     atom   13 type  2   force =    -0.00000071   -0.00000149   -0.00037267
     atom   14 type  3   force =     0.00000047    0.00000105    0.00030400

     Total force =     0.002392     Total SCF correction =     0.000367
     SCF correction compared to forces is large: reduce conv_thr to get better values

     entering subroutine stress ...

     negative rho (up, down):  4.247E-03 0.000E+00
          total   stress  (Ry/bohr**3)                   (kbar)     P=  -19.06
  -0.00019901   0.00000000   0.00000000        -29.28      0.00      0.00
   0.00000000  -0.00019902  -0.00000000          0.00    -29.28     -0.00
   0.00000000  -0.00000000   0.00000937          0.00     -0.00      1.38

     bfgs converged in  16 scf cycles and  15 bfgs steps
     (criteria: energy <  1.0E+00, force <  1.9E-03)

     End of BFGS Geometry Optimization

     Final energy   =   -1447.8006761394 Ry
Begin final coordinates

ATOMIC_POSITIONS (crystal)
Nb1      0.166666667   0.166666667   0.402010442    0   0   0
Nb1      0.666666667   0.166666667   0.402010442    0   0   0
Nb1      0.166666667   0.666666667   0.402010442    0   0   0
Nb1      0.666666667   0.666666667   0.402010442    0   0   0
Nb1      0.833333333   0.333333333   0.500000000    0   0   0
Nb1      0.333333333   0.333333333   0.500000000    0   0   0
Nb1      0.833333333   0.833333333   0.500000000    0   0   0
Nb1      0.333333333   0.833333333   0.500000000    0   0   0
Nb1      0.000000599   0.000000336   0.611140710
Nb1      0.501028964  -0.002055291   0.593690247
Nb1     -0.002048259   0.501024297   0.593688643
Nb1      0.501030674   0.501026221   0.593690437
S1      -0.000000213  -0.000003880   0.704443229
H1      -0.000001769   0.000003028   0.758482992
End final coordinates

     Writing output data file calc.save

     General routines

     Parallel routines

   This run was terminated on:  12:16:35  19Apr2018

   JOB DONE.
Job  /afs/slac/g/suncat/bin/suncat-tsmpirun -x LD_LIBRARY_PATH -wdir /scratch/qe814070_tMTnH pw.x -npool 4 -in pw.inp

TID   HOST_NAME   COMMAND_LINE            STATUS            TERMINATION_TIME
00000 suncat0054 pw.x -npool 4 -i  Done                     04/19/2018 12:16:35
00001 suncat0054 pw.x -npool 4 -i  Done                     04/19/2018 12:16:35
00002 suncat0054 pw.x -npool 4 -i  Done                     04/19/2018 12:16:35
00003 suncat0054 pw.x -npool 4 -i  Done                     04/19/2018 12:16:35
00004 suncat0054 pw.x -npool 4 -i  Done                     04/19/2018 12:16:35
00005 suncat0054 pw.x -npool 4 -i  Done                     04/19/2018 12:16:35
00006 suncat0054 pw.x -npool 4 -i  Done                     04/19/2018 12:16:35
00007 suncat0054 pw.x -npool 4 -i  Done                     04/19/2018 12:16:35
00008 suncat0032 pw.x -npool 4 -i  Done                     04/19/2018 12:16:35
00009 suncat0032 pw.x -npool 4 -i  Done                     04/19/2018 12:16:35
00010 suncat0032 pw.x -npool 4 -i  Done                     04/19/2018 12:16:35
00011 suncat0032 pw.x -npool 4 -i  Done                     04/19/2018 12:16:35
00012 suncat0032 pw.x -npool 4 -i  Done                     04/19/2018 12:16:35
00013 suncat0032 pw.x -npool 4 -i  Done                     04/19/2018 12:16:35
00014 suncat0032 pw.x -npool 4 -i  Done                     04/19/2018 12:16:35
00015 suncat0032 pw.x -npool 4 -i  Done                     04/19/2018 12:16:35
00016 suncat0193 pw.x -npool 4 -i  Done                     04/19/2018 12:16:35
00017 suncat0193 pw.x -npool 4 -i  Done                     04/19/2018 12:16:35
00018 suncat0193 pw.x -npool 4 -i  Done                     04/19/2018 12:16:35
00019 suncat0193 pw.x -npool 4 -i  Done                     04/19/2018 12:16:35
00020 suncat0193 pw.x -npool 4 -i  Done                     04/19/2018 12:16:35
00021 suncat0193 pw.x -npool 4 -i  Done                     04/19/2018 12:16:35
00022 suncat0193 pw.x -npool 4 -i  Done                     04/19/2018 12:16:35
00023 suncat0193 pw.x -npool 4 -i  Done                     04/19/2018 12:16:35
00024 suncat0007 pw.x -npool 4 -i  Done                     04/19/2018 12:16:35
00025 suncat0007 pw.x -npool 4 -i  Done                     04/19/2018 12:16:35
00026 suncat0007 pw.x -npool 4 -i  Done                     04/19/2018 12:16:35
00027 suncat0007 pw.x -npool 4 -i  Done                     04/19/2018 12:16:35
00028 suncat0007 pw.x -npool 4 -i  Done                     04/19/2018 12:16:35
00029 suncat0007 pw.x -npool 4 -i  Done                     04/19/2018 12:16:35
00030 suncat0007 pw.x -npool 4 -i  Done                     04/19/2018 12:16:35
00031 suncat0007 pw.x -npool 4 -i  Done                     04/19/2018 12:16:35