     Program PWSCF v.5.1rc2 (svn rev. ) starts on 18Apr2018 at 20:18: 7

     Current dimensions of program PWSCF are:
     Max number of different atomic species (ntypx) = 10
     Max number of k-points (npk) =  40000
     Max angular momentum in pseudopotentials (lmaxx) =  3
     Presently stress not available with electric field

     IMPORTANT: XC functional enforced from input :
     Exchange-correlation      = BEEF-VDW ( 1  4 27 13 2)
     Any further DFT definition will be discarded
     Please, verify this is what you really want

     Subspace diagonalization in iterative solution of the eigenvalue problem:
     a serial algorithm will be used

     bravais-lattice index     =            0
     lattice parameter (alat)  =       1.8897  a.u.
     unit-cell volume          =    6501.5726 (a.u.)^3
     number of atoms/cell      =           14
     number of atomic types    =            3
     number of electrons       =       161.00
     number of Kohn-Sham states=           90
     kinetic-energy cutoff     =      36.7493  Ry
     charge density cutoff     =     367.4932  Ry
     convergence threshold     =      1.0E-05
     mixing beta               =       0.3000
     number of iterations used =           10  plain     mixing
     Exchange-correlation      = BEEF-VDW ( 1  4 27 13 2)
     nstep                     =           50

     celldm(1)=   1.889726  celldm(2)=   0.000000  celldm(3)=   0.000000
     celldm(4)=   0.000000  celldm(5)=   0.000000  celldm(6)=   0.000000

     crystal axes: (cart. coord. in units of alat)
               a(1) = (   6.617606   0.000000   0.000000 )
               a(2) = (   3.308803   5.731015   0.000000 )
               a(3) = (   0.000000   0.000000  25.403253 )

     reciprocal axes: (cart. coord. in units 2 pi/alat)
               b(1) = (  0.151112 -0.087245  0.000000 )
               b(2) = (  0.000000  0.174489  0.000000 )
               b(3) = (  0.000000  0.000000  0.039365 )

     PseudoPot. # 1 for In read from file:
     /home/mamunm/src/pseudo/gbrv1.5pbe/In.UPF
     MD5 check sum: 90777abd96fbb83f2e67db2a40c566b9
     Pseudo is Ultrasoft + core correction, Zval = 13.0
     Generated by new atomic code, or converted to UPF format
     Using radial grid of  889 points,  6 beta functions with:
                l(1) =   0
                l(2) =   0
                l(3) =   1
                l(4) =   1
                l(5) =   2
                l(6) =   2
     Q(r) pseudized with  6 coefficients,  rinner =    1.400   1.400   1.400
                                                       1.400   1.400

     PseudoPot. # 2 for C  read from file:
     /home/mamunm/src/pseudo/gbrv1.5pbe/C.UPF
     MD5 check sum: d1aef80898a10debaa0f26306b886e00
     Pseudo is Ultrasoft + core correction, Zval =  4.0
     Generated by new atomic code, or converted to UPF format
     Using radial grid of  721 points,  4 beta functions with:
                l(1) =   0
                l(2) =   0
                l(3) =   1
                l(4) =   1
     Q(r) pseudized with  8 coefficients,  rinner =    1.100   1.100   1.100

     PseudoPot. # 3 for H  read from file:
     /home/mamunm/src/pseudo/gbrv1.5pbe/H.UPF
     MD5 check sum: 761ae9a214b05c3daf00ab9f6b793d6f
     Pseudo is Ultrasoft, Zval =  1.0
     Generated by new atomic code, or converted to UPF format
     Using radial grid of  615 points,  2 beta functions with:
                l(1) =   0
                l(2) =   0
     Q(r) pseudized with  8 coefficients,  rinner =    0.700

     vdW kernel table read from file vdW_kernel_table
     MD5 check sum: 095c7af220d748ca6e76c0b4c6cfb241

     atomic species   valence    mass     pseudopotential
        In1           13.00   114.81800     In( 1.00)
        C1             4.00    12.01100     C ( 1.00)
        H1             1.00     1.00800     H ( 1.00)

     No symmetry found

   Cartesian axes

     site n.     atom                  positions (alat units)
         1           In1 tau(   1) = (   1.6544016   0.9551692  10.0000000  )
         2           In1 tau(   2) = (   4.9632047   0.9551692  10.0000000  )
         3           In1 tau(   3) = (   3.3088031   3.8206768  10.0000000  )
         4           In1 tau(   4) = (   6.6176063   3.8206768  10.0000000  )
         5           In1 tau(   5) = (   6.6176063   1.9103384  12.7016265  )
         6           In1 tau(   6) = (   3.3088031   1.9103384  12.7016265  )
         7           In1 tau(   7) = (   8.2720078   4.7758460  12.7016265  )
         8           In1 tau(   8) = (   4.9632047   4.7758460  12.7016265  )
         9           In1 tau(   9) = (   0.0000000   0.0000000  15.4032529  )
        10           In1 tau(  10) = (   3.3088031   0.0000000  15.4032529  )
        11           In1 tau(  11) = (   1.6544016   2.8655076  15.4032529  )
        12           In1 tau(  12) = (   4.9632047   2.8655076  15.4032529  )
        13           C1  tau(  13) = (   1.6544016   0.9551692  16.8202529  )
        14           H1  tau(  14) = (   1.6544016   0.9551692  17.9202529  )

     number of k points=    20  Fermi-Dirac smearing, width (Ry)=  0.0110
                       cart. coord. in units 2pi/alat
        k(    1) = (   0.0000000   0.0000000   0.0000000), wk =   0.0555556
        k(    2) = (   0.0000000   0.0290815   0.0000000), wk =   0.1111111
        k(    3) = (   0.0000000   0.0581631   0.0000000), wk =   0.1111111
        k(    4) = (   0.0000000  -0.0872446   0.0000000), wk =   0.0555556
        k(    5) = (   0.0251853  -0.0145408   0.0000000), wk =   0.1111111
        k(    6) = (   0.0251853   0.0145408   0.0000000), wk =   0.1111111
        k(    7) = (   0.0251853   0.0436223   0.0000000), wk =   0.1111111
        k(    8) = (   0.0251853  -0.1017853   0.0000000), wk =   0.1111111
        k(    9) = (   0.0251853  -0.0727038   0.0000000), wk =   0.1111111
        k(   10) = (   0.0251853  -0.0436223   0.0000000), wk =   0.1111111
        k(   11) = (   0.0503707  -0.0290815   0.0000000), wk =   0.1111111
        k(   12) = (   0.0503707   0.0000000   0.0000000), wk =   0.1111111
        k(   13) = (   0.0503707   0.0290815   0.0000000), wk =   0.1111111
        k(   14) = (   0.0503707  -0.1163261   0.0000000), wk =   0.1111111
        k(   15) = (   0.0503707  -0.0872446   0.0000000), wk =   0.1111111
        k(   16) = (   0.0503707  -0.0581631   0.0000000), wk =   0.1111111
        k(   17) = (  -0.0755560   0.0436223   0.0000000), wk =   0.0555556
        k(   18) = (  -0.0755560   0.0727038   0.0000000), wk =   0.1111111
        k(   19) = (  -0.0755560   0.1017853   0.0000000), wk =   0.1111111
        k(   20) = (  -0.0755560  -0.0436223   0.0000000), wk =   0.0555556

     Largest allocated arrays     est. size (Mb)     dimensions
     Largest temporary arrays     est. size (Mb)     dimensions

     Initial potential from superposition of free atoms
     Check: negative starting charge=   -0.000193

     starting charge  142.99995, renormalised to  161.00000

     negative rho (up, down):  2.174E-04 0.000E+00

     *
     * You are using vdW-DF for exchange-correlation in this calculation.
     * Please cite the following three references that made this development
     * possible:
     *
     *   M. Dion, H. Rydberg, E. Schroder, D. C. Langreth, and
     *   B. I. Lundqvist, Phys. Rev. Lett. 92, 246401 (2004).
     *
     *   T. Thonhauser, V. R. Cooper, S. Li, A. Puzder, P. Hyldgaard, and
     *   D. C. Langreth, Phys. Rev. B 76, 125112 (2007).
     *
     *   G. Roman-Perez and J. M. Soler, Phys. Rev. Lett. 103, 096102 (2009).
     *
     *
     * If you are using vdW-DF2, please also cite:
     *
     *   K. Lee, E. D. Murray, L. Kong, B. I. Lundqvist, and
     *   D. C. Langreth, Phys. Rev. B 82, 081101(R) (2010).
     *
     *
     * If you are calculating the stress with vdW-DF, please also cite:
     *
     *   R. Sabatini, E. Kucukbenli, B. Kolb, T. Thonhauser, and
     *   S. de Gironcoli, J. Phys.: Condens. Matter 24, 424209 (2012).
     *

     Carrying out vdW-DF run using the following parameters:

     Nqs =      20    Nr_points =    1024   r_max =   100.000
     q_mesh =
               0.00001000     0.04494208     0.09755937     0.15916263
               0.23128650     0.31572767     0.41458969     0.53033537
               0.66584808     0.82450364     1.01025438     1.22772762
               1.48234092     1.78043706     2.12944203     2.53805004
               3.01644009     3.57652955     4.23227104     5.00000000

     Gradients computed in reciprocal space

     Adding external electric field

     Computed dipole along edir(3) :
        Dipole               -5.1597 Ry au,        -13.1145 Debye
        Dipole field         -0.0100 Ry au

        Potential amp.        0.9335 Ry
        Total length         46.8051 bohr

     Starting wfc are  113 randomized atomic wfcs

     Self-consistent Calculation

     iteration #  1     ecut=    36.75 Ry     beta=0.30
     Davidson diagonalization with overlap
     ethr =  1.00E-02,  avg # of iterations =  7.8

[...]

     total energy              =   -1368.26129401 Ry
     Harris-Foulkes estimate   =   -1632.64564679 Ry
     estimated scf accuracy    <     566.87382463 Ry

     iteration #  2     ecut=    36.75 Ry     beta=0.30
     Davidson diagonalization with overlap
     c_bands:  1 eigenvalues not converged
     c_bands:  1 eigenvalues not converged
     c_bands:  1 eigenvalues not converged
     c_bands:  4 eigenvalues not converged
     c_bands:  2 eigenvalues not converged
     c_bands:  1 eigenvalues not converged
     c_bands:  3 eigenvalues not converged
     c_bands:  1 eigenvalues not converged
     c_bands:  1 eigenvalues not converged
     c_bands:  1 eigenvalues not converged
     c_bands:  5 eigenvalues not converged
     c_bands:  3 eigenvalues not converged
     c_bands:  4 eigenvalues not converged
     c_bands:  3 eigenvalues not converged
     c_bands:  5 eigenvalues not converged
     ethr =  1.00E-02,  avg # of iterations = 20.2

[...]

     End of self-consistent calculation

          k = 0.0000 0.0000 0.0000 ( 24345 PWs)   bands (ev):

   -14.6013 -14.5936 -14.5936 -14.5071 -14.5049 -14.5049 -14.4904 -14.4879
   -14.4879 -14.4722 -14.4637 -14.4462 -14.4462 -14.4419 -14.4086 -14.4086
   -14.3992 -14.3922 -14.3922 -14.3851 -14.3789 -14.3789 -14.3592 -14.3592
   -14.3477 -14.3432 -14.3432 -14.3237 -14.3057 -14.3057 -14.2320 -14.2320
   -14.2133 -14.2132 -14.2132 -14.1750 -14.1750 -14.1678 -14.1678 -14.1624
   -14.1568 -14.1158 -14.1158 -14.1082 -14.1082 -14.1051 -14.0893 -14.0893
   -14.0868 -14.0835 -14.0835 -14.0766 -14.0665 -14.0596 -14.0596 -14.0338
   -14.0338 -13.9869 -13.9869 -13.9746 -10.2962  -8.5462  -7.1397  -5.2417
    -3.9911  -3.8679  -3.8679  -3.7325  -3.5666  -3.5666  -3.2265  -2.5043
    -2.5043  -2.0831  -2.0831  -2.0820  -1.6990  -1.0304  -0.8705  -0.8705
    -0.2487  -0.2487  -0.2010   1.2538   1.4166   1.4166   2.1090   3.2808
     3.2876   3.2877

[...]

          k =-0.0756 0.0436 0.0000 ( 24448 PWs)   bands (ev):

[...]

     the Fermi energy is     0.6025 ev

!    total energy              =   -1629.92039430 Ry
     Harris-Foulkes estimate   =   -1629.92037161 Ry
     estimated scf accuracy    <       0.00000089 Ry

     The total energy is the sum of the following terms:

     one-electron contribution =   -9421.87115255 Ry
     hartree contribution      =    4792.23849840 Ry
     xc contribution           =    -473.93110231 Ry
     ewald contribution        =    3473.68092411 Ry
     electric field correction =       0.00003533 Ry
     smearing contrib. (-TS)   =      -0.03759728 Ry

     convergence has been achieved in  31 iterations

 BEEF-vdW xc energy contributions
           1 :   -415.057286929732
           2 :    379.353198168076
           3 :   -319.075827413240
           4 :    251.165576616634
           5 :   -191.084918676989
           6 :    147.231889180909
           7 :   -119.355667512068
           8 :    101.133358074704
           9 :   -85.0188853133983
          10 :    66.5330058375991
          11 :   -45.8721609149844
          12 :    26.4983297545936
          13 :   -12.1309804806858
          14 :    4.21721715424439
          15 :   -1.29391558912801
          16 :   0.256641823814221
          17 :    1.60216131329582
          18 :   -5.18631333113444
          19 :    9.55725529971426
          20 :   -13.0154331036917
          21 :    14.4059218693383
          22 :   -13.7902469048915
          23 :    12.1930283369571
          24 :   -10.7882818101500
          25 :    10.1765252654096
          26 :   -10.2050075705743
          27 :    10.3158514478438
          28 :   -10.0532272931632
          29 :    9.33862433734419
          30 :   -8.38886960699631
          31 :   -37.8198934745283
          32 :   -27.4791140655251

     Forces acting on atoms (Ry/au):

     negative rho (up, down):  1.160E-03 0.000E+00
     atom    1 type  1   force =    -0.00000114   -0.00000242   -0.00766673
     atom    2 type  1   force =     0.00000097    0.00043118   -0.00980893
     atom    3 type  1   force =     0.00037320   -0.00021260   -0.00980650
     atom    4 type  1   force =    -0.00037307   -0.00021454   -0.00981229
     atom    5 type  1   force =     0.00086811   -0.00050425    0.00518886
     atom    6 type  1   force =    -0.00086830   -0.00050230    0.00518855
     atom    7 type  1   force =     0.00000066    0.00000344    0.00191326
     atom    8 type  1   force =    -0.00000082    0.00100360    0.00518533
     atom    9 type  1   force =     0.00166692    0.00096345    0.03093660
     atom   10 type  1   force =    -0.00166538    0.00095995    0.03093843
     atom   11 type  1   force =     0.00000024   -0.00192486    0.03093888
     atom   12 type  1   force =    -0.00000048   -0.00000065    0.00526054
     atom   13 type  2   force =    -0.00000045    0.00000002   -0.07258507
     atom   14 type  3   force =    -0.00000046   -0.00000002   -0.00587093

     Total force =     0.090627     Total SCF correction =     0.001944

     entering subroutine stress ...

     negative rho (up, down):  1.160E-03 0.000E+00
          total   stress  (Ry/bohr**3)                   (kbar)     P=    4.82
   0.00004672   0.00000000  -0.00000000          6.87      0.00     -0.00
   0.00000000   0.00004672   0.00000000          0.00      6.87      0.00
  -0.00000000   0.00000000   0.00000494         -0.00      0.00      0.73

     BFGS Geometry Optimization

     number of scf cycles    =   1
     number of bfgs steps    =   0

     energy   new            =   -1629.9203943012 Ry

     new trust radius        =       0.0725850735 bohr
     new conv_thr            =       0.0000099958 Ry

ATOMIC_POSITIONS (crystal)
In1      0.166666667   0.166666667   0.393650374    0   0   0
In1      0.666666667   0.166666667   0.393650374    0   0   0
In1      0.166666667   0.666666667   0.393650374    0   0   0
In1      0.666666667   0.666666667   0.393650374    0   0   0
In1      0.833333333   0.333333333   0.500000000    0   0   0
In1      0.333333333   0.333333333   0.500000000    0   0   0
In1      0.833333333   0.833333333   0.500000000    0   0   0
In1      0.333333333   0.833333333   0.500000000    0   0   0
In1      0.000088815   0.000088961   0.606994069
In1      0.499822509   0.000088638   0.606994107
In1      0.000088886   0.499822267   0.606994117
In1      0.499999992   0.499999940   0.606459209
C1       0.166666629   0.166666668   0.660617859
H1       0.166666631   0.166666665   0.705309127

     Writing output data file calc.save
     Check: negative starting charge=   -0.000193
     NEW-OLD atomic charge density approx. for the potential
     Check: negative starting charge=   -0.000194

[...]

     energy   old            =   -1629.9203943012 Ry
     energy   new            =   -1629.9266402798 Ry

     CASE: energy  _new < energy  _old

[...]

     Total force =     0.005735     Total SCF correction =     0.001286
     SCF correction compared to forces is large: reduce conv_thr to get better values

[...]

     Threshold (ethr) on eigenvalues was too large:
     Diagonalizing with lowered threshold

     Davidson diagonalization with overlap
     ethr =  3.29E-08,  avg # of iterations =  2.0

[...]

     Total force =     0.003107     Total SCF correction =     0.000233

[...]

     number of scf cycles    =  17
     number of bfgs steps    =  16

     energy   old            =   -1629.9571704525 Ry
     energy   new            =   -1629.9571818663 Ry

     CASE: energy  _new < energy  _old

     new trust radius        =       0.0049483370 bohr
     new conv_thr            =       0.0000001000 Ry

ATOMIC_POSITIONS (crystal)
In1      0.166666667   0.166666667   0.393650374    0   0   0
In1      0.666666667   0.166666667   0.393650374    0   0   0
In1      0.166666667   0.666666667   0.393650374    0   0   0
In1      0.666666667   0.666666667   0.393650374    0   0   0
In1      0.833333333   0.333333333   0.500000000    0   0   0
In1      0.333333333   0.333333333   0.500000000    0   0   0
In1      0.833333333   0.833333333   0.500000000    0   0   0
In1      0.333333333   0.833333333   0.500000000    0   0   0
In1     -0.009784038  -0.009784074   0.612392512
In1      0.519567942  -0.009784372   0.612392677
In1     -0.009782867   0.519567752   0.612392551
In1      0.500000152   0.499999870   0.606389986
C1       0.166666130   0.166666684   0.648926936
H1       0.166666881   0.166665777   0.692203361

     Writing output data file calc.save
     Check: negative starting charge=   -0.000203
     NEW-OLD atomic charge density approx. for the potential
     Check: negative starting charge=   -0.000203

[...]

     Self-consistent Calculation

[...]

     total energy              =   -1629.95718709 Ry
     Harris-Foulkes estimate   =   -1629.95718709 Ry
     estimated scf accuracy    <       0.00000030 Ry

     iteration #  6     ecut=    36.75 Ry     beta=0.30
     Davidson diagonalization with overlap
     ethr =  1.87E-10,  avg # of iterations =  2.0

[...]

     negative rho (up, down):  1.178E-03 0.000E+00

     Adding external electric field

     Computed dipole along edir(3) :
        Dipole                0.0284 Ry au,          0.0722 Debye
        Dipole field          0.0001 Ry au

        Potential amp.       -0.0051 Ry
        Total length         46.8051 bohr

     End of self-consistent calculation

[...]

          k = 0.0504-0.0582 0.0000 ( 24479 PWs)   bands (ev):

[...]

          k =-0.0756-0.0436 0.0000 ( 24448 PWs)   bands (ev):

   -14.4419 -14.3629 -14.3409 -14.3175 -14.3124 -14.3017 -14.2938 -14.2834
   -14.2768 -14.2755 -14.2627 -14.2603 -14.2545 -14.2396 -14.2321 -14.2290
   -14.2248 -14.2197 -14.2158 -14.2050 -14.1938 -14.1844 -14.1774 -14.1733
   -14.1710 -14.1667 -14.1565 -14.1491 -14.1391 -14.1378 -14.1294 -14.1289
   -14.1220 -14.1075 -14.0979 -14.0913 -14.0842 -14.0826 -14.0739 -14.0682
   -14.0627 -14.0593 -14.0562 -14.0492 -14.0449 -14.0390 -14.0351 -14.0303
   -14.0294 -14.0255 -14.0209 -13.9994 -13.9889 -13.9800 -13.9694 -13.9534
   -13.9510 -13.9316 -13.9203 -13.8967 -10.4982  -7.1946  -7.0351  -6.0498
    -5.7179  -4.7383  -4.7087  -4.1537  -4.1481  -3.8309  -3.6290  -2.1041
    -2.0654  -1.5309  -0.5078  -0.0904  -0.0265   0.3407   0.4282   0.5390
     0.8553   1.1555   1.7010   2.0203   2.0739   2.2895   2.6856   2.8545
     2.9136   3.1892

     the Fermi energy is     0.7525 ev

!    total energy              =   -1629.95718712 Ry
     Harris-Foulkes estimate   =   -1629.95718711 Ry
     estimated scf accuracy    <       0.00000004 Ry

     The total energy is the sum of the following terms:

     one-electron contribution =   -9337.05487670 Ry
     hartree contribution      =    4750.47157772 Ry
     xc contribution           =    -474.01417876 Ry
     ewald contribution        =    3430.67677568 Ry
     electric field correction =       0.00000156 Ry
     smearing contrib. (-TS)   =      -0.03648663 Ry

     convergence has been achieved in   6 iterations

 BEEF-vdW xc energy contributions
           1 :   -415.140034703257
           2 :    379.442606352428
           3 :   -319.158816498116
           4 :    251.223124105158
           5 :   -191.108973778937
           6 :    147.224743379525
           7 :   -119.324052288755
           8 :    101.086704455459
           9 :   -84.9702566562913
          10 :    66.4960344504078
          11 :   -45.8523508275555
          12 :    26.4861407397851
          13 :   -12.1051037160474
          14 :    4.16009093505937
          15 :   -1.21051447557301
          16 :   0.179677000813342
          17 :    1.62866972338912
          18 :   -5.13463218944753
          19 :    9.43661076692143
          20 :   -12.8705450657287
          21 :    14.2912901808309
          22 :   -13.7363905028143
          23 :    12.1880383742786
          24 :   -10.7882767421214
          25 :    10.1386544359136
          26 :   -10.1197596799477
          27 :    10.2147819334065
          28 :   -9.98624655137235
          29 :    9.33756792761085
          30 :   -8.44378009946882
          31 :   -37.8249600995958
          32 :   -27.4831384658766

     Forces acting on atoms (Ry/au):

     negative rho (up, down):  1.178E-03 0.000E+00
     atom    1 type  1   force =    -0.00000001   -0.00000001   -0.00917664
     atom    2 type  1   force =     0.00000001   -0.00062209   -0.00969277
     atom    3 type  1   force =    -0.00053873    0.00031105   -0.00969275
     atom    4 type  1   force =     0.00053873    0.00031104   -0.00969278
     atom    5 type  1   force =     0.00329412   -0.00190185    0.01025886
     atom    6 type  1   force =    -0.00329414   -0.00190193    0.01025885
     atom    7 type  1   force =    -0.00000006    0.00000004    0.00726764
     atom    8 type  1   force =     0.00000004    0.00380374    0.01025884
     atom    9 type  1   force =    -0.00009514   -0.00005469   -0.00035983
     atom   10 type  1   force =     0.00009481   -0.00005486   -0.00035976
     atom   11 type  1   force =    -0.00000033    0.00010977   -0.00035967
     atom   12 type  1   force =     0.00000021   -0.00000005    0.00133555
     atom   13 type  2   force =     0.00000067   -0.00000051    0.00075750
     atom   14 type  3   force =    -0.00000019    0.00000035   -0.00080304

     Total force =     0.001851     Total SCF correction =     0.000320
     SCF correction compared to forces is large: reduce conv_thr to get better values

     entering subroutine stress ...

     negative rho (up, down):  1.178E-03 0.000E+00
          total   stress  (Ry/bohr**3)                   (kbar)     P=    6.35
   0.00005295  -0.00000000   0.00000000          7.79     -0.00      0.00
  -0.00000000   0.00005295   0.00000000         -0.00      7.79      0.00
   0.00000000   0.00000000   0.00002362          0.00      0.00      3.47

     bfgs converged in  18 scf cycles and  17 bfgs steps
     (criteria: energy <  1.0E+00, force <  1.9E-03)

     End of BFGS Geometry Optimization

     Final energy   =   -1629.9571871226 Ry
Begin final coordinates

ATOMIC_POSITIONS (crystal)
In1      0.166666667   0.166666667   0.393650374    0   0   0
In1      0.666666667   0.166666667   0.393650374    0   0   0
In1      0.166666667   0.666666667   0.393650374    0   0   0
In1      0.666666667   0.666666667   0.393650374    0   0   0
In1      0.833333333   0.333333333   0.500000000    0   0   0
In1      0.333333333   0.333333333   0.500000000    0   0   0
In1      0.833333333   0.833333333   0.500000000    0   0   0
In1      0.333333333   0.833333333   0.500000000    0   0   0
In1     -0.009784038  -0.009784074   0.612392512
In1      0.519567942  -0.009784372   0.612392677
In1     -0.009782867   0.519567752   0.612392551
In1      0.500000152   0.499999870   0.606389986
C1       0.166666130   0.166666684   0.648926936
H1       0.166666881   0.166665777   0.692203361
End final coordinates

     Writing output data file calc.save

     General routines

     Parallel routines

   This run was terminated on:  21:33:32  18Apr2018

   JOB DONE.