     Program PWSCF v.5.1rc2 (svn rev. 11289) starts on  3May2018 at 12:26:55

     Current dimensions of program PWSCF are:
     Max number of different atomic species (ntypx) = 10
     Max number of k-points (npk) =  40000
     Max angular momentum in pseudopotentials (lmaxx) =  3
     Presently stress not available with electric field

     IMPORTANT: XC functional enforced from input :
     Exchange-correlation      = BEEF-VDW ( 1  4 27 13 2)
     Any further DFT definition will be discarded
     Please, verify this is what you really want

     Subspace diagonalization in iterative solution of the eigenvalue problem:
     a serial algorithm will be used

     bravais-lattice index     =            0
     lattice parameter (alat)  =       1.8897  a.u.
     unit-cell volume          =    6024.3322 (a.u.)^3
     number of atoms/cell      =           13
     number of atomic types    =            2
     number of electrons       =       148.00
     number of Kohn-Sham states=           84
     kinetic-energy cutoff     =      36.7493  Ry
     charge density cutoff     =     367.4932  Ry
     convergence threshold     =      1.0E-05
     mixing beta               =       0.3000
     number of iterations used =           10  plain     mixing
     Exchange-correlation      = BEEF-VDW ( 1  4 27 13 2)
     nstep                     =           50

     celldm(1)=   1.889726  celldm(2)=   0.000000  celldm(3)=   0.000000
     celldm(4)=   0.000000  celldm(5)=   0.000000  celldm(6)=   0.000000

     crystal axes: (cart. coord. in units of alat)
               a(1) = (   6.393197   0.000000   0.000000 )
               a(2) = (   3.196599   5.536671   0.000000 )
               a(3) = (   0.000000   0.000000  25.220024 )

     reciprocal axes: (cart. coord. in units 2 pi/alat)
               b(1) = (  0.156416 -0.090307  0.000000 )
               b(2) = (  0.000000  0.180614  0.000000 )
               b(3) = (  0.000000  0.000000  0.039651 )

     PseudoPot. # 1 for Hf read from file:
     /u/if/mamunm/psp/gbrv1.5pbe/Hf.UPF
     MD5 check sum: 8ee9378dfe14276e333edf04c5e4aa26
     Pseudo is Ultrasoft + core correction, Zval = 12.0
     Generated by new atomic code, or converted to UPF format
     Using radial grid of  921 points,  8 beta functions with:
                l(1) =   0
                l(2) =   0
                l(3) =   0
                l(4) =   1
                l(5) =   1
                l(6) =   2
                l(7) =   2
                l(8) =   3
     Q(r) pseudized with  6 coefficients,  rinner =    1.200   1.200   1.200
                                                       1.200   1.200   1.200
                                                       1.200

     PseudoPot. # 2 for C  read from file:
     /u/if/mamunm/psp/gbrv1.5pbe/C.UPF
     MD5 check sum: d1aef80898a10debaa0f26306b886e00
     Pseudo is Ultrasoft + core correction, Zval =  4.0
     Generated by new atomic code, or converted to UPF format
     Using radial grid of  721 points,  4 beta functions with:
                l(1) =   0
                l(2) =   0
                l(3) =   1
                l(4) =   1
     Q(r) pseudized with  8 coefficients,  rinner =    1.100   1.100   1.100

     vdW kernel table read from file vdW_kernel_table
     MD5 check sum: 095c7af220d748ca6e76c0b4c6cfb241

     atomic species   valence    mass     pseudopotential
        Hf1           12.00   178.49000     Hf( 1.00)
        C1             4.00    12.01100     C ( 1.00)

     No symmetry found

   Cartesian axes

     site n.     atom                  positions (alat units)
         1           Hf1 tau(   1) = (   1.5982993   0.9227785  10.0000000  )
         2           Hf1 tau(   2) = (   4.7948978   0.9227785  10.0000000  )
         3           Hf1 tau(   3) = (   3.1965986   3.6911141  10.0000000  )
         4           Hf1 tau(   4) = (   6.3931971   3.6911141  10.0000000  )
         5           Hf1 tau(   5) = (   6.3931971   1.8455570  12.6100118  )
         6           Hf1 tau(   6) = (   3.1965986   1.8455570  12.6100118  )
         7           Hf1 tau(   7) = (   7.9914964   4.6138926  12.6100118  )
         8           Hf1 tau(   8) = (   4.7948978   4.6138926  12.6100118  )
         9           Hf1 tau(   9) = (   0.0000000   0.0000000  15.2200236  )
        10           Hf1 tau(  10) = (   3.1965986   0.0000000  15.2200236  )
        11           Hf1 tau(  11) = (   1.5982993   2.7683356  15.2200236  )
        12           Hf1 tau(  12) = (   4.7948978   2.7683356  15.2200236  )
        13           C1  tau(  13) = (   0.0000000   0.0000000  17.3535236  )

     number of k points=    20  Fermi-Dirac smearing, width (Ry)=  0.0110
                       cart. coord. in units 2pi/alat
        k(    1) = (   0.0000000   0.0000000   0.0000000), wk =   0.0555556
        k(    2) = (   0.0000000   0.0301023   0.0000000), wk =   0.1111111
        k(    3) = (   0.0000000   0.0602046   0.0000000), wk =   0.1111111
        k(    4) = (   0.0000000  -0.0903070   0.0000000), wk =   0.0555556
        k(    5) = (   0.0260694  -0.0150512   0.0000000), wk =   0.1111111
        k(    6) = (   0.0260694   0.0150512   0.0000000), wk =   0.1111111
        k(    7) = (   0.0260694   0.0451535   0.0000000), wk =   0.1111111
        k(    8) = (   0.0260694  -0.1053581   0.0000000), wk =   0.1111111
        k(    9) = (   0.0260694  -0.0752558   0.0000000), wk =   0.1111111
        k(   10) = (   0.0260694  -0.0451535   0.0000000), wk =   0.1111111
        k(   11) = (   0.0521388  -0.0301023   0.0000000), wk =   0.1111111
        k(   12) = (   0.0521388   0.0000000   0.0000000), wk =   0.1111111
        k(   13) = (   0.0521388   0.0301023   0.0000000), wk =   0.1111111
        k(   14) = (   0.0521388  -0.1204093   0.0000000), wk =   0.1111111
        k(   15) = (   0.0521388  -0.0903070   0.0000000), wk =   0.1111111
        k(   16) = (   0.0521388  -0.0602046   0.0000000), wk =   0.1111111
        k(   17) = (  -0.0782081   0.0451535   0.0000000), wk =   0.0555556
        k(   18) = (  -0.0782081   0.0752558   0.0000000), wk =   0.1111111
        k(   19) = (  -0.0782081   0.1053581   0.0000000), wk =   0.1111111
        k(   20) = (  -0.0782081  -0.0451535   0.0000000), wk =   0.0555556

     Largest allocated arrays     est. size (Mb)     dimensions
     Largest temporary arrays     est. size (Mb)     dimensions

     Check: negative/imaginary core charge=   -0.000003    0.000000

     Initial potential from superposition of free atoms
     Check: negative starting charge=   -1.301335

     starting charge  123.99994, renormalised to  148.00000

     negative rho (up, down):  1.553E+00 0.000E+00

     *
     * You are using vdW-DF for exchange-correlation in this calculation.
     * Please cite the following three references that made this development
     * possible:
     *
     *   M. Dion, H. Rydberg, E. Schroder, D. C. Langreth, and
     *   B. I. Lundqvist, Phys. Rev. Lett. 92, 246401 (2004).
     *
     *   T. Thonhauser, V. R. Cooper, S. Li, A. Puzder, P. Hyldgaard, and
     *   D. C. Langreth, Phys. Rev. B 76, 125112 (2007).
     *
     *   G. Roman-Perez and J. M. Soler, Phys. Rev. Lett. 103, 096102 (2009).
     *
     *
     * If you are using vdW-DF2, please also cite:
     *
     *   K. Lee, E. D. Murray, L. Kong, B. I. Lundqvist, and
     *   D. C. Langreth, Phys. Rev. B 82, 081101(R) (2010).
     *
     *
     * If you are calculating the stress with vdW-DF, please also cite:
     *
     *   R. Sabatini, E. Kucukbenli, B. Kolb, T. Thonhauser, and
     *   S. de Gironcoli, J. Phys.: Condens. Matter 24, 424209 (2012).
     *

     Carrying out vdW-DF run using the following parameters:

     Nqs =      20    Nr_points =    1024   r_max =   100.000
     q_mesh =
               0.00001000     0.04494208     0.09755937     0.15916263
               0.23128650     0.31572767     0.41458969     0.53033537
               0.66584808     0.82450364     1.01025438     1.22772762
               1.48234092     1.78043706     2.12944203     2.53805004
               3.01644009     3.57652955     4.23227104     5.00000000

     Gradients computed in reciprocal space

     Adding external electric field

     Computed dipole along edir(3) :
        Dipole               -6.9394 Ry au,        -17.6382 Debye
        Dipole field         -0.0145 Ry au

        Potential amp.        1.3452 Ry
        Total length         46.4675 bohr

     Starting wfc are  160 randomized atomic wfcs

     Self-consistent Calculation

     iteration #  1     ecut=    36.75 Ry     beta=0.30
     Davidson diagonalization with overlap
     ethr =  1.00E-02,  avg # of iterations =  8.9

[...]

     total energy              =   -1405.79799982 Ry
     Harris-Foulkes estimate   =   -1926.77235480 Ry
     estimated scf accuracy    <    1122.56630844 Ry

     iteration #  2     ecut=    36.75 Ry     beta=0.30
     Davidson diagonalization with overlap
     c_bands:  3 eigenvalues not converged
     ethr =  1.00E-02,  avg # of iterations = 21.4

[...]

     End of self-consistent calculation

          k = 0.0000 0.0000 0.0000 ( 22729 PWs)   bands (ev):

   -61.7764 -61.7508 -61.7506 -61.6706 -61.6381 -61.6370 -61.6332 -61.3076
   -61.2798 -61.2793 -61.2242 -60.7235 -30.4841 -30.4444 -30.4245 -30.4241
   -30.4168 -30.3869 -30.3866 -30.3690 -30.3687 -30.2996 -30.2389 -30.2183
   -30.2175 -30.1081 -30.0369 -30.0101 -30.0097 -30.0085 -30.0034 -30.0031
   -29.9846 -29.9843 -29.8796 -29.8796 -29.7900 -29.7668 -29.7663 -29.7122
   -29.6594 -29.6591 -29.6566 -29.5266 -29.5265 -29.3106 -29.3106 -29.1603
    -7.2078  -5.4748  -4.1220  -2.9055  -2.0708  -2.0708  -2.0600  -1.8013
    -1.8013  -1.7960  -1.3537  -1.3537  -1.3469  -0.7776  -0.7574  -0.7574
    -0.1886  -0.1885  -0.0095   0.6286   0.6920   0.6921   0.9774   1.1884
     1.3170   1.3970   1.3971   1.6963   1.7631   1.7844   1.7844   2.0570
     2.1283   2.1958   2.1960   2.2572

[...]

          k =-0.0782 0.0452 0.0000 ( 22668 PWs)   bands (ev):

[...]

     the Fermi energy is     0.9646 ev

!    total energy              =   -1937.92332278 Ry
     Harris-Foulkes estimate   =   -1937.92333203 Ry
     estimated scf accuracy    <       0.00000466 Ry

     The total energy is the sum of the following terms:

     one-electron contribution =   -8419.81866233 Ry
     hartree contribution      =    4192.49089521 Ry
     xc contribution           =    -931.03106891 Ry
     ewald contribution        =    3220.55051048 Ry
     electric field correction =       0.00041197 Ry
     smearing contrib. (-TS)   =      -0.11540920 Ry

     convergence has been achieved in  31 iterations

 BEEF-vdW xc energy contributions
           1 :   -841.806894994423
           2 :    782.351203372281
           3 :   -677.018497055402
           4 :    547.598023361696
           5 :   -416.602753294821
           6 :    300.968669192960
           7 :   -209.311307146304
           8 :    142.829298489101
           9 :   -98.3138974336987
          10 :    71.1035776631975
          11 :   -56.6642024731082
          12 :    50.7159230414231
          13 :   -48.8376086248361
          14 :    46.5214245623699
          15 :   -40.0541840942667
          16 :    27.7467999805654
          17 :   -10.6665831629642
          18 :   -7.75907514706694
          19 :    23.1928205105949
          20 :   -32.2025651945253
          21 :    33.5389468027254
          22 :   -28.3358828081575
          23 :    19.3090334835417
          24 :   -9.54482462850638
          25 :    1.53539619310709
          26 :    3.19654557599074
          27 :   -4.00571894714403
          28 :   0.922622191073060
          29 :    5.38572286841418
          30 :   -13.5272621726647
          31 :   -60.5778338845232
          32 :   -43.5549532144628

     Forces acting on atoms (Ry/au):

     negative rho (up, down):  1.379E+00 0.000E+00
     atom    1 type  1   force =     0.00083932    0.00044799    0.02664481
     atom    2 type  1   force =    -0.00084337    0.00047637    0.02660179
     atom    3 type  1   force =     0.00002271   -0.00094213    0.02671191
     atom    4 type  1   force =    -0.00002629    0.00002325    0.02852355
     atom    5 type  1   force =     0.00002871    0.01352611   -0.00748887
     atom    6 type  1   force =    -0.00002465    0.00004274    0.00064636
     atom    7 type  1   force =    -0.01168426   -0.00680260   -0.00752317
     atom    8 type  1   force =     0.01168093   -0.00676630   -0.00754081
     atom    9 type  1   force =     0.00002900   -0.00003722    0.01455260
     atom   10 type  1   force =    -0.00002244   -0.00321560   -0.00493713
     atom   11 type  1   force =    -0.00274922    0.00161181   -0.00487351
     atom   12 type  1   force =     0.00274828    0.00163664   -0.00489018
     atom   13 type  2   force =     0.00000129   -0.00000109   -0.08642734

     Total force =     0.088228     Total SCF correction =     0.006058

     entering subroutine stress ...

     negative rho (up, down):  1.379E+00 0.000E+00
          total   stress  (Ry/bohr**3)                   (kbar)     P=  -27.30
  -0.00016046   0.00000000   0.00000001        -23.60      0.00      0.00
   0.00000000  -0.00016043  -0.00000002          0.00    -23.60     -0.00
   0.00000001  -0.00000002  -0.00023588          0.00     -0.00    -34.70

     BFGS Geometry Optimization

     number of scf cycles    =   1
     number of bfgs steps    =   0

     energy   new            =   -1937.9233227770 Ry

     new trust radius        =       0.0864273420 bohr
     new conv_thr            =       0.0000099958 Ry

ATOMIC_POSITIONS (crystal)
Hf1      0.166666667   0.166666667   0.396510335    0   0   0
Hf1      0.666666667   0.166666667   0.396510335    0   0   0
Hf1      0.166666667   0.666666667   0.396510335    0   0   0
Hf1      0.666666667   0.666666667   0.396510335    0   0   0
Hf1      0.833333333   0.333333333   0.500000000    0   0   0
Hf1      0.333333333   0.333333333   0.500000000    0   0   0
Hf1      0.833333333   0.833333333   0.500000000    0   0   0
Hf1      0.333333333   0.833333333   0.500000000    0   0   0
Hf1      0.000004179  -0.000003557   0.603795014
Hf1      0.500151810  -0.000307337   0.603386072
Hf1     -0.000304584   0.500154052   0.603387407
Hf1      0.500149267   0.500156425   0.603387057
C1       0.000000159  -0.000000104   0.686271690

     Writing output data file calc.save
     Check: negative starting charge=   -1.301335
     NEW-OLD atomic charge density approx. for the potential

     Check: negative/imaginary core charge=   -0.000003    0.000000
     Check: negative starting charge=   -1.301108

[...]

     energy   old            =   -1937.9233227770 Ry
     energy   new            =   -1937.9302365205 Ry

     CASE: energy  _new < energy  _old

[...]

     iteration #  1     ecut=    36.75 Ry     beta=0.30
     Davidson diagonalization with overlap
     c_bands:  1 eigenvalues not converged
     c_bands:  1 eigenvalues not converged
     ethr =  1.00E-06,  avg # of iterations = 16.8

[...]

     Total force =     0.010724     Total SCF correction =     0.001176
     SCF correction compared to forces is large: reduce conv_thr to get better values

[...]

     Total force =     0.003830     Total SCF correction =     0.000234

[...]

     number of scf cycles    =  12
     number of bfgs steps    =  11

     energy   old            =   -1937.9666032877 Ry
     energy   new            =   -1937.9666838456 Ry

     CASE: energy  _new < energy  _old

     new trust radius        =       0.0023931722 bohr
     new conv_thr            =       0.0000001000 Ry

ATOMIC_POSITIONS (crystal)
Hf1      0.166666667   0.166666667   0.396510335    0   0   0
Hf1      0.666666667   0.166666667   0.396510335    0   0   0
Hf1      0.166666667   0.666666667   0.396510335    0   0   0
Hf1      0.666666667   0.666666667   0.396510335    0   0   0
Hf1      0.833333333   0.333333333   0.500000000    0   0   0
Hf1      0.333333333   0.333333333   0.500000000    0   0   0
Hf1      0.833333333   0.833333333   0.500000000    0   0   0
Hf1      0.333333333   0.833333333   0.500000000    0   0   0
Hf1     -0.000001213   0.000000871   0.590717251
Hf1      0.504174567  -0.008343158   0.600579084
Hf1     -0.008341059   0.504167973   0.600578433
Hf1      0.504176992   0.504165932   0.600578580
C1      -0.000011156   0.000011451   0.668342484

     Writing output data file calc.save
     Check: negative starting charge=   -1.298544
     NEW-OLD atomic charge density approx. for the potential

     Check: negative/imaginary core charge=   -0.000003    0.000000
     Check: negative starting charge=   -1.298628

[...]

     Self-consistent Calculation

[...]

     total energy              =   -1937.96669239 Ry
     Harris-Foulkes estimate   =   -1937.96669240 Ry
     estimated scf accuracy    <       0.00000011 Ry

     iteration #  9     ecut=    36.75 Ry     beta=0.30
     Davidson diagonalization with overlap
     ethr =  7.61E-11,  avg # of iterations =  2.2

[...]

     negative rho (up, down):  1.374E+00 0.000E+00

     Adding external electric field

     Computed dipole along edir(3) :
        Dipole               -0.2376 Ry au,         -0.6039 Debye
        Dipole field         -0.0005 Ry au

        Potential amp.        0.0461 Ry
        Total length         46.4675 bohr

     End of self-consistent calculation

[...]

          k = 0.0521-0.0602 0.0000 ( 22643 PWs)   bands (ev):

[...]

          k =-0.0782-0.0452 0.0000 ( 22668 PWs)   bands (ev):

   -61.5859 -61.5739 -61.5664 -61.4555 -61.4500 -61.4384 -61.4231 -61.0314
   -60.9827 -60.9727 -60.9652 -60.0967 -30.2549 -30.2225 -30.2148 -30.1979
   -30.1268 -30.1187 -30.1005 -30.0978 -30.0603 -30.0502 -30.0316 -30.0042
   -30.0004 -29.9771 -29.9530 -29.9487 -29.9145 -29.9104 -29.8186 -29.7437
   -29.7369 -29.7273 -29.6526 -29.5856 -29.5216 -29.5160 -29.5150 -29.5046
   -29.4799 -29.4606 -29.4447 -29.3251 -29.3183 -28.7570 -28.7449 -28.7310
    -7.1624  -3.7669  -3.6994  -2.5703  -2.3443  -1.5489  -1.5112  -1.3779
    -1.1299  -0.9241  -0.9069  -0.5554  -0.2110  -0.1307   0.0443   0.1233
     0.2006   0.3132   0.3309   0.4071   0.6073   0.6485   0.7087   0.7522
     0.8219   0.8753   1.0222   1.1069   1.1656   1.2104   1.4484   1.5687
     1.6980   1.7469   1.9041   2.1031

     the Fermi energy is     1.1611 ev

!    total energy              =   -1937.96669239 Ry
     Harris-Foulkes estimate   =   -1937.96669308 Ry
     estimated scf accuracy    <       0.00000001 Ry

     The total energy is the sum of the following terms:

     one-electron contribution =   -8640.77744579 Ry
     hartree contribution      =    4304.12988539 Ry
     xc contribution           =    -931.41775715 Ry
     ewald contribution        =    3330.20286627 Ry
     electric field correction =       0.00011774 Ry
     smearing contrib. (-TS)   =      -0.10435884 Ry

     convergence has been achieved in   9 iterations

 BEEF-vdW xc energy contributions
           1 :   -842.190290101974
           2 :    782.837043342828
           3 :   -677.606410864085
           4 :    548.170580690888
           5 :   -416.995044246694
           6 :    301.072078653145
           7 :   -209.149427188060
           8 :    142.554605102153
           9 :   -98.1179083935107
          10 :    71.0982869919953
          11 :   -56.8175694590126
          12 :    50.8893983850008
          13 :   -48.8968885915118
          14 :    46.4359306989744
          15 :   -39.9099484034604
          16 :    27.6686007202865
          17 :   -10.7143650973295
          18 :   -7.63695570614311
          19 :    23.1160238772676
          20 :   -32.2620051992988
          21 :    33.7219973232646
          22 :   -28.5312106185194
          23 :    19.3865936130290
          24 :   -9.44955172883601
          25 :    1.32526818177280
          26 :    3.39621669712494
          27 :   -4.09601585403971
          28 :   0.900169072254243
          29 :    5.43482694622037
          30 :   -13.5020447732144
          31 :   -60.6056340562958
          32 :   -43.6010161165723

     Forces acting on atoms (Ry/au):

     negative rho (up, down):  1.374E+00 0.000E+00
     atom    1 type  1   force =     0.00116597    0.00067284    0.02161705
     atom    2 type  1   force =    -0.00116593    0.00067301    0.02161662
     atom    3 type  1   force =     0.00000015   -0.00134615    0.02161732
     atom    4 type  1   force =    -0.00000015    0.00000017    0.02331747
     atom    5 type  1   force =     0.00000068    0.03278080   -0.03195865
     atom    6 type  1   force =     0.00000021   -0.00000052    0.00813610
     atom    7 type  1   force =    -0.02838898   -0.01639105   -0.03195543
     atom    8 type  1   force =     0.02838902   -0.01639025   -0.03195294
     atom    9 type  1   force =     0.00000390   -0.00000486    0.00080227
     atom   10 type  1   force =    -0.00000142    0.00048290   -0.00011764
     atom   11 type  1   force =     0.00042033   -0.00024179   -0.00011584
     atom   12 type  1   force =    -0.00042071   -0.00024041   -0.00011589
     atom   13 type  2   force =    -0.00000307    0.00000531   -0.00089044

     Total force =     0.001477     Total SCF correction =     0.000413
     SCF correction compared to forces is large: reduce conv_thr to get better values

     entering subroutine stress ...

     negative rho (up, down):  1.374E+00 0.000E+00
          total   stress  (Ry/bohr**3)                   (kbar)     P=  -18.27
  -0.00013724   0.00000000  -0.00000000        -20.19      0.00     -0.00
   0.00000000  -0.00013724   0.00000000          0.00    -20.19      0.00
  -0.00000000   0.00000000  -0.00009811         -0.00      0.00    -14.43

     bfgs converged in  13 scf cycles and  12 bfgs steps
     (criteria: energy <  1.0E+00, force <  1.9E-03)

     End of BFGS Geometry Optimization

     Final energy   =   -1937.9666923879 Ry
Begin final coordinates

ATOMIC_POSITIONS (crystal)
Hf1      0.166666667   0.166666667   0.396510335    0   0   0
Hf1      0.666666667   0.166666667   0.396510335    0   0   0
Hf1      0.166666667   0.666666667   0.396510335    0   0   0
Hf1      0.666666667   0.666666667   0.396510335    0   0   0
Hf1      0.833333333   0.333333333   0.500000000    0   0   0
Hf1      0.333333333   0.333333333   0.500000000    0   0   0
Hf1      0.833333333   0.833333333   0.500000000    0   0   0
Hf1      0.333333333   0.833333333   0.500000000    0   0   0
Hf1     -0.000001213   0.000000871   0.590717251
Hf1      0.504174567  -0.008343158   0.600579084
Hf1     -0.008341059   0.504167973   0.600578433
Hf1      0.504176992   0.504165932   0.600578580
C1      -0.000011156   0.000011451   0.668342484
End final coordinates

     Writing output data file calc.save

     General routines

     Parallel routines

   This run was terminated on:  15:51: 1   3May2018

   JOB DONE.
Job  /afs/slac/g/suncat/bin/suncat-tsmpirun -x LD_LIBRARY_PATH -wdir /scratch/qe763875_c5bdo pw.x -npool 4 -in pw.inp

TID   HOST_NAME   COMMAND_LINE            STATUS            TERMINATION_TIME
00000 suncat0028 pw.x -npool 4 -i  Done                     05/03/2018 15:51:01
00001 suncat0028 pw.x -npool 4 -i  Done                     05/03/2018 15:51:01
00002 suncat0028 pw.x -npool 4 -i  Done                     05/03/2018 15:51:01
00003 suncat0028 pw.x -npool 4 -i  Done                     05/03/2018 15:51:01
00004 suncat0028 pw.x -npool 4 -i  Done                     05/03/2018 15:51:01
00005 suncat0028 pw.x -npool 4 -i  Done                     05/03/2018 15:51:01
00006 suncat0028 pw.x -npool 4 -i  Done                     05/03/2018 15:51:01
00007 suncat0028 pw.x -npool 4 -i  Done                     05/03/2018 15:51:01
00008 suncat0016 pw.x -npool 4 -i  Done                     05/03/2018 15:51:01
00009 suncat0016 pw.x -npool 4 -i  Done                     05/03/2018 15:51:01
00010 suncat0016 pw.x -npool 4 -i  Done                     05/03/2018 15:51:01
00011 suncat0016 pw.x -npool 4 -i  Done                     05/03/2018 15:51:01
00012 suncat0016 pw.x -npool 4 -i  Done                     05/03/2018 15:51:01
00013 suncat0016 pw.x -npool 4 -i  Done                     05/03/2018 15:51:01
00014 suncat0016 pw.x -npool 4 -i  Done                     05/03/2018 15:51:01
00015 suncat0016 pw.x -npool 4 -i  Done                     05/03/2018 15:51:01
00016 suncat0153 pw.x -npool 4 -i  Done                     05/03/2018 15:51:01
00017 suncat0153 pw.x -npool 4 -i  Done                     05/03/2018 15:51:01
00018 suncat0153 pw.x -npool 4 -i  Done                     05/03/2018 15:51:01
00019 suncat0153 pw.x -npool 4 -i  Done                     05/03/2018 15:51:01
00020 suncat0153 pw.x -npool 4 -i  Done                     05/03/2018 15:51:01
00021 suncat0153 pw.x -npool 4 -i  Done                     05/03/2018 15:51:01
00022 suncat0153 pw.x -npool 4 -i  Done                     05/03/2018 15:51:01
00023 suncat0153 pw.x -npool 4 -i  Done                     05/03/2018 15:51:01
00024 suncat0252 pw.x -npool 4 -i  Done                     05/03/2018 15:51:01
00025 suncat0252 pw.x -npool 4 -i  Done                     05/03/2018 15:51:01
00026 suncat0252 pw.x -npool 4 -i  Done                     05/03/2018 15:51:01
00027 suncat0252 pw.x -npool 4 -i  Done                     05/03/2018 15:51:01
00028 suncat0252 pw.x -npool 4 -i  Done                     05/03/2018 15:51:01
00029 suncat0252 pw.x -npool 4 -i  Done                     05/03/2018 15:51:01
00030 suncat0252 pw.x -npool 4 -i  Done                     05/03/2018 15:51:01
00031 suncat0252 pw.x -npool 4 -i  Done                     05/03/2018 15:51:01