     Program PWSCF v.5.1rc2 (svn rev. 11289) starts on 24Apr2018 at 11:30:41

     Current dimensions of program PWSCF are:
     Max number of different atomic species (ntypx) = 10
     Max number of k-points (npk) =  40000
     Max angular momentum in pseudopotentials (lmaxx) =  3
     Presently stress not available with electric field

     IMPORTANT: XC functional enforced from input :
     Exchange-correlation      = BEEF-VDW ( 1  4 27 13 2)
     Any further DFT definition will be discarded
     Please, verify this is what you really want

     Subspace diagonalization in iterative solution of the eigenvalue problem:
     a serial algorithm will be used

     bravais-lattice index     =            0
     lattice parameter (alat)  =       1.8897  a.u.
     unit-cell volume          =    4158.3597 (a.u.)^3
     number of atoms/cell      =           14
     number of atomic types    =            3
     number of electrons       =       163.00
     number of Kohn-Sham states=           91
     kinetic-energy cutoff     =      36.7493  Ry
     charge density cutoff     =     367.4932  Ry
     convergence threshold     =      1.0E-05
     mixing beta               =       0.3000
     number of iterations used =           10  plain     mixing
     Exchange-correlation      = BEEF-VDW ( 1  4 27 13 2)
     nstep                     =           50

     celldm(1)=   1.889726  celldm(2)=   0.000000  celldm(3)=   0.000000
     celldm(4)=   0.000000  celldm(5)=   0.000000  celldm(6)=   0.000000

     crystal axes: (cart. coord. in units of alat)
               a(1) = (   5.399178   0.000000   0.000000 )
               a(2) = (   2.699589   4.675825   0.000000 )
               a(3) = (   0.000000   0.000000  24.408411 )

     reciprocal axes: (cart. coord. in units 2 pi/alat)
               b(1) = (  0.185213 -0.106933  0.000000 )
               b(2) = (  0.000000  0.213866  0.000000 )
               b(3) = (  0.000000  0.000000  0.040969 )

     PseudoPot. # 1 for V  read from file:
     /u/if/mamunm/psp/gbrv1.5pbe/V.UPF
     MD5 check sum: 22b79981416ebb76fdaf5b1b8640f6fb
     Pseudo is Ultrasoft + core correction, Zval = 13.0
     Generated by new atomic code, or converted to UPF format
     Using radial grid of  853 points,  6 beta functions with:
                l(1) =   0
                l(2) =   0
                l(3) =   1
                l(4) =   1
                l(5) =   2
                l(6) =   2
     Q(r) pseudized with  8 coefficients,  rinner =    1.100   1.100   1.100
                                                       1.100   1.100

     PseudoPot. # 2 for S  read from file:
     /u/if/mamunm/psp/gbrv1.5pbe/S.UPF
     MD5 check sum: 88d86576ff6df21479756cfb9bdac1df
     Pseudo is Ultrasoft + core correction, Zval =  6.0
     Generated by new atomic code, or converted to UPF format
     Using radial grid of  907 points,  6 beta functions with:
                l(1) =   0
                l(2) =   0
                l(3) =   1
                l(4) =   1
                l(5) =   2
                l(6) =   2
     Q(r) pseudized with  8 coefficients,  rinner =    1.300   1.300   1.300
                                                       1.300   1.300

     PseudoPot. # 3 for H  read from file:
     /u/if/mamunm/psp/gbrv1.5pbe/H.UPF
     MD5 check sum: 761ae9a214b05c3daf00ab9f6b793d6f
     Pseudo is Ultrasoft, Zval =  1.0
     Generated by new atomic code, or converted to UPF format
     Using radial grid of  615 points,  2 beta functions with:
                l(1) =   0
                l(2) =   0
     Q(r) pseudized with  8 coefficients,  rinner =    0.700

     vdW kernel table read from file vdW_kernel_table
     MD5 check sum: 095c7af220d748ca6e76c0b4c6cfb241

     atomic species   valence    mass     pseudopotential
        V1            13.00    50.94150     V ( 1.00)
        S1             6.00    32.06000     S ( 1.00)
        H1             1.00     1.00800     H ( 1.00)

     No symmetry found

   Cartesian axes

     site n.     atom                  positions (alat units)
         1           V1  tau(   1) = (   1.3497945   0.7793042  10.0000000  )
         2           V1  tau(   2) = (   4.0493836   0.7793042  10.0000000  )
         3           V1  tau(   3) = (   2.6995891   3.1172170  10.0000000  )
         4           V1  tau(   4) = (   5.3991782   3.1172170  10.0000000  )
         5           V1  tau(   5) = (   5.3991782   1.5586085  12.2042053  )
         6           V1  tau(   6) = (   2.6995891   1.5586085  12.2042053  )
         7           V1  tau(   7) = (   6.7489727   3.8965212  12.2042053  )
         8           V1  tau(   8) = (   4.0493836   3.8965212  12.2042053  )
         9           V1  tau(   9) = (   0.0000000   0.0000000  14.4084105  )
        10           V1  tau(  10) = (   2.6995891   0.0000000  14.4084105  )
        11           V1  tau(  11) = (   1.3497945   2.3379127  14.4084105  )
        12           V1  tau(  12) = (   4.0493836   2.3379127  14.4084105  )
        13           S1  tau(  13) = (   1.3497945   0.7793042  16.0854105  )
        14           H1  tau(  14) = (   1.3497945   0.7793042  17.3354105  )

     number of k points=    20  Fermi-Dirac smearing, width (Ry)=  0.0110
                       cart. coord. in units 2pi/alat
        k(    1) = (   0.0000000   0.0000000   0.0000000), wk =   0.0555556
        k(    2) = (   0.0000000   0.0356443   0.0000000), wk =   0.1111111
        k(    3) = (   0.0000000   0.0712887   0.0000000), wk =   0.1111111
        k(    4) = (   0.0000000  -0.1069330   0.0000000), wk =   0.0555556
        k(    5) = (   0.0308689  -0.0178222   0.0000000), wk =   0.1111111
        k(    6) = (   0.0308689   0.0178222   0.0000000), wk =   0.1111111
        k(    7) = (   0.0308689   0.0534665   0.0000000), wk =   0.1111111
        k(    8) = (   0.0308689  -0.1247552   0.0000000), wk =   0.1111111
        k(    9) = (   0.0308689  -0.0891108   0.0000000), wk =   0.1111111
        k(   10) = (   0.0308689  -0.0534665   0.0000000), wk =   0.1111111
        k(   11) = (   0.0617378  -0.0356443   0.0000000), wk =   0.1111111
        k(   12) = (   0.0617378   0.0000000   0.0000000), wk =   0.1111111
        k(   13) = (   0.0617378   0.0356443   0.0000000), wk =   0.1111111
        k(   14) = (   0.0617378  -0.1425773   0.0000000), wk =   0.1111111
        k(   15) = (   0.0617378  -0.1069330   0.0000000), wk =   0.1111111
        k(   16) = (   0.0617378  -0.0712887   0.0000000), wk =   0.1111111
        k(   17) = (  -0.0926067   0.0534665   0.0000000), wk =   0.0555556
        k(   18) = (  -0.0926067   0.0891108   0.0000000), wk =   0.1111111
        k(   19) = (  -0.0926067   0.1247552   0.0000000), wk =   0.1111111
        k(   20) = (  -0.0926067  -0.0534665   0.0000000), wk =   0.0555556

     Largest allocated arrays     est. size (Mb)     dimensions
     Largest temporary arrays     est. size (Mb)     dimensions

     Check: negative/imaginary core charge=   -0.000001    0.000000

     Initial potential from superposition of free atoms
     Check: negative starting charge=   -0.011480

     starting charge  162.98523, renormalised to  163.00000

     negative rho (up, down):  1.148E-02 0.000E+00

     *
     * You are using vdW-DF for exchange-correlation in this calculation.
     * Please cite the following three references that made this development
     * possible:
     *
     *   M. Dion, H. Rydberg, E. Schroder, D. C. Langreth, and
     *   B. I. Lundqvist, Phys. Rev. Lett. 92, 246401 (2004).
     *
     *   T. Thonhauser, V. R. Cooper, S. Li, A. Puzder, P. Hyldgaard, and
     *   D. C. Langreth, Phys. Rev. B 76, 125112 (2007).
     *
     *   G. Roman-Perez and J. M. Soler, Phys. Rev. Lett. 103, 096102 (2009).
     *
     *
     * If you are using vdW-DF2, please also cite:
     *
     *   K. Lee, E. D. Murray, L. Kong, B. I. Lundqvist, and
     *   D. C. Langreth, Phys. Rev. B 82, 081101(R) (2010).
     *
     *
     * If you are calculating the stress with vdW-DF, please also cite:
     *
     *   R. Sabatini, E. Kucukbenli, B. Kolb, T. Thonhauser, and
     *   S. de Gironcoli, J. Phys.: Condens. Matter 24, 424209 (2012).
     *

     Carrying out vdW-DF run using the following parameters:

     Nqs =      20    Nr_points =    1024   r_max =   100.000
     q_mesh =
               0.00001000     0.04494208     0.09755937     0.15916263
               0.23128650     0.31572767     0.41458969     0.53033537
               0.66584808     0.82450364     1.01025438     1.22772762
               1.48234092     1.78043706     2.12944203     2.53805004
               3.01644009     3.57652955     4.23227104     5.00000000

     Gradients computed in reciprocal space

     Adding external electric field

     Computed dipole along edir(3) :
        Dipole               -0.0045 Ry au,         -0.0115 Debye
        Dipole field         -0.0000 Ry au

        Potential amp.        0.0012 Ry
        Total length         44.9721 bohr

     Starting wfc are  125 randomized atomic wfcs

     Self-consistent Calculation

     iteration #  1     ecut=    36.75 Ry     beta=0.30
     Davidson diagonalization with overlap
     ethr =  1.00E-02,  avg # of iterations =  2.2

[...]

     total energy              =   -1768.85618990 Ry
     Harris-Foulkes estimate   =   -1775.37097564 Ry
     estimated scf accuracy    <      13.33482239 Ry

[...]

     End of self-consistent calculation

          k = 0.0000 0.0000 0.0000 ( 15569 PWs)   bands (ev):

   -62.5036 -62.4492 -62.3936 -62.3605 -62.3596 -62.3537 -62.3321 -62.3139
   -62.3134 -62.3097 -62.2900 -62.2890 -36.5972 -36.5812 -36.5809 -36.5483
   -36.5259 -36.5257 -36.5248 -36.4687 -36.4686 -36.4576 -36.3085 -36.2213
   -36.1888 -36.1885 -36.1761 -36.1726 -36.1718 -36.0924 -36.0920 -36.0795
   -36.0429 -36.0423 -36.0419 -36.0069 -36.0069 -35.9896 -35.9853 -35.9584
   -35.9584 -35.9465 -35.9208 -35.9207 -35.8576 -35.8575 -35.8361 -35.8361
   -13.4413  -6.5606  -4.1426  -2.7725  -2.7725  -2.4859  -1.5437  -1.2512
    -1.2049  -1.2047  -0.9247  -0.9034  -0.9034  -0.5249  -0.5144  -0.5143
    -0.4490  -0.3412  -0.3412   0.4741   0.4742   0.4831   1.2117   1.3590
     1.3591   1.4376   1.5939   1.7594   1.9193   1.9193   1.9880   1.9880
     2.0736   2.1062   2.1062   2.1960   2.1962   2.1966   2.2250   2.2250
     2.3445   2.7558   2.7561

[...]

          k =-0.0926 0.0535 0.0000 ( 15660 PWs)   bands (ev):

[...]

     the Fermi energy is     1.7925 ev

!    total energy              =   -1774.58083679 Ry
     Harris-Foulkes estimate   =   -1774.58084744 Ry
     estimated scf accuracy    <       0.00000601 Ry

     The total energy is the sum of the following terms:

     one-electron contribution =  -15381.49506694 Ry
     hartree contribution      =    7683.82562701 Ry
     xc contribution           =    -254.03122094 Ry
     ewald contribution        =    6177.26487195 Ry
     electric field correction =       0.00032291 Ry
     smearing contrib. (-TS)   =      -0.14537079 Ry

     convergence has been achieved in  31 iterations

 BEEF-vdW xc energy contributions
           1 :   -218.765566203228
           2 :    196.206658839132
           3 :   -158.911042467494
           4 :    118.533279432233
           5 :   -85.2699844829338
           6 :    64.0626983330532
           7 :   -53.8777805295671
           8 :    49.8699987836873
           9 :   -46.8170051560689
          10 :    41.8090345593791
          11 :   -34.9805526700914
          12 :    28.3589845700853
          13 :   -23.9364764812740
          14 :    22.2628831711744
          15 :   -22.2886080333279
          16 :    22.2884672977733
          17 :   -21.0794274520388
          18 :    18.6888195275624
          19 :   -16.1172890553690
          20 :    14.4797111606176
          21 :   -14.1880691271677
          22 :    14.7247454332723
          23 :   -15.0920971886286
          24 :    14.5475476408209
          25 :   -13.0873033520266
          26 :    11.3734156738902
          27 :   -10.2138443415062
          28 :    9.99275545291607
          29 :   -10.4428383624902
          30 :    10.8808820001822
          31 :   -22.8143476101431
          32 :   -16.4406599469864

     Forces acting on atoms (Ry/au):

     negative rho (up, down):  1.534E-02 0.000E+00
     atom    1 type  1   force =    -0.00000001   -0.00001792   -0.00203039
     atom    2 type  1   force =    -0.00000620    0.00129536   -0.00082038
     atom    3 type  1   force =     0.00113538   -0.00066110   -0.00082599
     atom    4 type  1   force =    -0.00113005   -0.00065542   -0.00083352
     atom    5 type  1   force =     0.00091826   -0.00047741   -0.00275653
     atom    6 type  1   force =    -0.00091090   -0.00048521   -0.00274286
     atom    7 type  1   force =    -0.00002020   -0.00006458   -0.00946164
     atom    8 type  1   force =     0.00001148    0.00099911   -0.00284567
     atom    9 type  1   force =    -0.03400661   -0.01965532    0.00610416
     atom   10 type  1   force =     0.03400771   -0.01965106    0.00608975
     atom   11 type  1   force =     0.00000469    0.03929544    0.00612911
     atom   12 type  1   force =    -0.00000579    0.00000702   -0.02217431
     atom   13 type  2   force =     0.00000060    0.00007333   -0.11179918
     atom   14 type  3   force =     0.00000165   -0.00000224    0.13796745

     Total force =     0.191748     Total SCF correction =     0.003214

     entering subroutine stress ...

     negative rho (up, down):  1.534E-02 0.000E+00
          total   stress  (Ry/bohr**3)                   (kbar)     P=   -8.21
  -0.00014106   0.00000001  -0.00000000        -20.75      0.00     -0.00
   0.00000001  -0.00014122   0.00000020          0.00    -20.77      0.03
  -0.00000000   0.00000020   0.00011493         -0.00      0.03     16.91

     BFGS Geometry Optimization

     number of scf cycles    =   1
     number of bfgs steps    =   0

     energy   new            =   -1774.5808367950 Ry

     new trust radius        =       0.1379674498 bohr
     new conv_thr            =       0.0000099958 Ry

ATOMIC_POSITIONS (crystal)
V1       0.166666667   0.166666667   0.409694847    0   0   0
V1       0.666666667   0.166666667   0.409694847    0   0   0
V1       0.166666667   0.666666667   0.409694847    0   0   0
V1       0.666666667   0.666666667   0.409694847    0   0   0
V1       0.833333333   0.333333333   0.500000000    0   0   0
V1       0.333333333   0.333333333   0.500000000    0   0   0
V1       0.833333333   0.833333333   0.500000000    0   0   0
V1       0.333333333   0.833333333   0.500000000    0   0   0
V1      -0.002220785  -0.002224452   0.590437492
V1       0.504445104  -0.002223970   0.590437180
V1      -0.002223132   0.504447183   0.590438033
V1       0.499999036   0.500000794   0.589824412
S1       0.166662575   0.166674966   0.656587160
H1       0.166666955   0.166666413   0.713213986

     Writing output data file calc.save
     Check: negative starting charge=   -0.011480
     NEW-OLD atomic charge density approx. for the potential

     Check: negative/imaginary core charge=   -0.000001    0.000000
     Check: negative starting charge=   -0.011170

[...]

     iteration #  1     ecut=    36.75 Ry     beta=0.30
     Davidson diagonalization with overlap
     c_bands:  1 eigenvalues not converged
     ethr =  1.00E-06,  avg # of iterations = 11.9

[...]

     energy   old            =   -1774.5808367950 Ry
     energy   new            =   -1774.5967872789 Ry

     CASE: energy  _new < energy  _old

[...]

     iteration #  1     ecut=    36.75 Ry     beta=0.30
     Davidson diagonalization with overlap
     c_bands:  1 eigenvalues not converged
     c_bands:  1 eigenvalues not converged
     ethr =  1.00E-06,  avg # of iterations = 11.9

[...]

     Total force =     0.007268     Total SCF correction =     0.000336

[...]

     Total force =     0.003165     Total SCF correction =     0.000360
     SCF correction compared to forces is large: reduce conv_thr to get better values

[...]

     number of scf cycles    =  14
     number of bfgs steps    =  13

     energy   old            =   -1774.6236703920 Ry
     energy   new            =   -1774.6237184735 Ry

     CASE: energy  _new < energy  _old

     new trust radius        =       0.0041576225 bohr
     new conv_thr            =       0.0000001000 Ry

ATOMIC_POSITIONS (crystal)
V1       0.166666667   0.166666667   0.409694847    0   0   0
V1       0.666666667   0.166666667   0.409694847    0   0   0
V1       0.166666667   0.666666667   0.409694847    0   0   0
V1       0.666666667   0.666666667   0.409694847    0   0   0
V1       0.833333333   0.333333333   0.500000000    0   0   0
V1       0.333333333   0.333333333   0.500000000    0   0   0
V1       0.833333333   0.833333333   0.500000000    0   0   0
V1       0.333333333   0.833333333   0.500000000    0   0   0
V1      -0.010416568  -0.010408578   0.594622780
V1       0.520823863  -0.010407842   0.594622397
V1      -0.010422912   0.520844626   0.594622020
V1       0.499997246   0.500001446   0.574746567
S1       0.166661967   0.166679028   0.662929612
H1       0.166667503   0.166665654   0.719003708

     Writing output data file calc.save
     Check: negative starting charge=   -0.011048
     NEW-OLD atomic charge density approx. for the potential

     Check: negative/imaginary core charge=   -0.000001    0.000000
     Check: negative starting charge=   -0.011010

[...]

     Self-consistent Calculation

[...]

     Threshold (ethr) on eigenvalues was too large:
     Diagonalizing with lowered threshold

     Davidson diagonalization with overlap
     ethr =  4.65E-08,  avg # of iterations =  5.5

[...]

     total energy              =   -1774.62372941 Ry
     Harris-Foulkes estimate   =   -1774.62372941 Ry
     estimated scf accuracy    <       0.00000067 Ry

     iteration # 14     ecut=    36.75 Ry     beta=0.30
     Davidson diagonalization with overlap
     ethr =  1.66E-10,  avg # of iterations =  4.3

[...]

     negative rho (up, down):  1.567E-02 0.000E+00

     Adding external electric field

     Computed dipole along edir(3) :
        Dipole                0.2974 Ry au,          0.7558 Debye
        Dipole field          0.0009 Ry au

        Potential amp.       -0.0808 Ry
        Total length         44.9721 bohr

     End of self-consistent calculation

[...]

          k = 0.0617-0.0713 0.0000 ( 15642 PWs)   bands (ev):

[...]

          k =-0.0926-0.0535 0.0000 ( 15660 PWs)   bands (ev):

   -62.5001 -62.4657 -62.4580 -62.4252 -62.4178 -62.3974 -62.3923 -62.3863
   -62.3845 -62.3684 -62.3517 -62.1695 -36.5955 -36.5511 -36.5210 -36.4991
   -36.4983 -36.4680 -36.4474 -36.4032 -36.3948 -36.3928 -36.3593 -36.3340
   -36.3239 -36.2542 -36.2480 -36.2408 -36.2124 -36.2078 -36.1918 -36.1861
   -36.1791 -36.1571 -36.1490 -36.1483 -36.1208 -36.0835 -36.0779 -36.0470
   -36.0432 -36.0368 -35.9717 -35.9665 -35.9331 -35.8646 -35.8069 -35.7332
   -12.9001  -5.9040  -3.0905  -2.5240  -2.4904  -2.3239  -1.1952  -1.0645
    -0.6863  -0.6230  -0.5759  -0.5652  -0.4478  -0.2073   0.0299   0.1520
     0.1916   0.2564   0.3511   0.4587   0.5785   0.6728   0.8481   0.8913
     0.9016   0.9221   1.0090   1.1399   1.1562   1.2785   1.3332   1.3509
     1.3670   1.4665   1.6225   1.8086   1.8532   1.8984   1.9308   2.1107
     2.3535   2.3602   2.4417

     the Fermi energy is     1.7194 ev

!    total energy              =   -1774.62372939 Ry
     Harris-Foulkes estimate   =   -1774.62372708 Ry
     estimated scf accuracy    <       0.00000006 Ry

     The total energy is the sum of the following terms:

     one-electron contribution =  -15358.14042295 Ry
     hartree contribution      =    7672.01992391 Ry
     xc contribution           =    -254.00002938 Ry
     ewald contribution        =    6165.62886480 Ry
     electric field correction =       0.00026720 Ry
     smearing contrib. (-TS)   =      -0.13233296 Ry

     convergence has been achieved in  14 iterations

 BEEF-vdW xc energy contributions
           1 :   -218.740091091432
           2 :    196.162635788548
           3 :   -158.829824448145
           4 :    118.395063624104
           5 :   -85.0594298984638
           6 :    63.7807352799219
           7 :   -53.5482640887479
           8 :    49.5358842935077
           9 :   -46.5276290925182
          10 :    41.6008275561624
          11 :   -34.8553582546798
          12 :    28.2731055440609
          13 :   -23.8158080984177
          14 :    22.0445781377151
          15 :   -21.9660685516114
          16 :    21.9242490474958
          17 :   -20.7675021108610
          18 :    18.4879060373268
          19 :   -16.0051995921600
          20 :    14.3656321508332
          21 :   -13.9753152566241
          22 :    14.3788070263031
          23 :   -14.6656115948590
          24 :    14.1474440446266
          25 :   -12.8097739338080
          26 :    11.2492331430898
          27 :   -10.1954290685885
          28 :    9.98672283950378
          29 :   -10.3658818832831
          30 :    10.7061800231943
          31 :   -22.8115987851229
          32 :   -16.4273265504620

     Forces acting on atoms (Ry/au):

     negative rho (up, down):  1.567E-02 0.000E+00
     atom    1 type  1   force =    -0.00000101    0.00000030    0.00245703
     atom    2 type  1   force =     0.00000052    0.00120839   -0.00033576
     atom    3 type  1   force =     0.00104557   -0.00060488   -0.00034009
     atom    4 type  1   force =    -0.00104679   -0.00060528   -0.00033949
     atom    5 type  1   force =     0.02578943   -0.01488819   -0.00644728
     atom    6 type  1   force =    -0.02579025   -0.01488888   -0.00644667
     atom    7 type  1   force =     0.00000116   -0.00000151    0.01475092
     atom    8 type  1   force =     0.00000021    0.02977514   -0.00644570
     atom    9 type  1   force =     0.00002322    0.00001825    0.00048227
     atom   10 type  1   force =    -0.00002351    0.00001552    0.00048467
     atom   11 type  1   force =    -0.00000265   -0.00002935    0.00048717
     atom   12 type  1   force =     0.00000473    0.00000022    0.00076341
     atom   13 type  2   force =    -0.00000087   -0.00000015    0.00054985
     atom   14 type  3   force =     0.00000023    0.00000041    0.00037966

     Total force =     0.001318     Total SCF correction =     0.000990
     SCF correction compared to forces is large: reduce conv_thr to get better values

     entering subroutine stress ...

     negative rho (up, down):  1.567E-02 0.000E+00
          total   stress  (Ry/bohr**3)                   (kbar)     P=  -12.37
  -0.00012451   0.00000000   0.00000001        -18.32      0.00      0.00
   0.00000000  -0.00012450   0.00000000          0.00    -18.31      0.00
   0.00000001   0.00000000  -0.00000333          0.00      0.00     -0.49

     bfgs converged in  15 scf cycles and  14 bfgs steps
     (criteria: energy <  1.0E+00, force <  1.9E-03)

     End of BFGS Geometry Optimization

     Final energy   =   -1774.6237293911 Ry
Begin final coordinates

ATOMIC_POSITIONS (crystal)
V1       0.166666667   0.166666667   0.409694847    0   0   0
V1       0.666666667   0.166666667   0.409694847    0   0   0
V1       0.166666667   0.666666667   0.409694847    0   0   0
V1       0.666666667   0.666666667   0.409694847    0   0   0
V1       0.833333333   0.333333333   0.500000000    0   0   0
V1       0.333333333   0.333333333   0.500000000    0   0   0
V1       0.833333333   0.833333333   0.500000000    0   0   0
V1       0.333333333   0.833333333   0.500000000    0   0   0
V1      -0.010416568  -0.010408578   0.594622780
V1       0.520823863  -0.010407842   0.594622397
V1      -0.010422912   0.520844626   0.594622020
V1       0.499997246   0.500001446   0.574746567
S1       0.166661967   0.166679028   0.662929612
H1       0.166667503   0.166665654   0.719003708
End final coordinates

     Writing output data file calc.save

     General routines

     Parallel routines

   This run was terminated on:  13:35:24  24Apr2018

   JOB DONE.
Job  /afs/slac/g/suncat/bin/suncat-tsmpirun -x LD_LIBRARY_PATH -wdir /scratch/qe769060_u8zMQ pw.x -npool 4 -in pw.inp

TID   HOST_NAME   COMMAND_LINE            STATUS            TERMINATION_TIME
00000 suncat0082 pw.x -npool 4 -i  Done                     04/24/2018 13:35:24
00001 suncat0082 pw.x -npool 4 -i  Done                     04/24/2018 13:35:24
00002 suncat0082 pw.x -npool 4 -i  Done                     04/24/2018 13:35:24
00003 suncat0082 pw.x -npool 4 -i  Done                     04/24/2018 13:35:24
00004 suncat0082 pw.x -npool 4 -i  Done                     04/24/2018 13:35:24
00005 suncat0082 pw.x -npool 4 -i  Done                     04/24/2018 13:35:24
00006 suncat0082 pw.x -npool 4 -i  Done                     04/24/2018 13:35:24
00007 suncat0082 pw.x -npool 4 -i  Done                     04/24/2018 13:35:24
00008 suncat0030 pw.x -npool 4 -i  Done                     04/24/2018 13:35:24
00009 suncat0030 pw.x -npool 4 -i  Done                     04/24/2018 13:35:24
00010 suncat0030 pw.x -npool 4 -i  Done                     04/24/2018 13:35:24
00011 suncat0030 pw.x -npool 4 -i  Done                     04/24/2018 13:35:24
00012 suncat0030 pw.x -npool 4 -i  Done                     04/24/2018 13:35:24
00013 suncat0030 pw.x -npool 4 -i  Done                     04/24/2018 13:35:24
00014 suncat0030 pw.x -npool 4 -i  Done                     04/24/2018 13:35:24
00015 suncat0030 pw.x -npool 4 -i  Done                     04/24/2018 13:35:24
00016 suncat0005 pw.x -npool 4 -i  Done                     04/24/2018 13:35:24
00017 suncat0005 pw.x -npool 4 -i  Done                     04/24/2018 13:35:24
00018 suncat0005 pw.x -npool 4 -i  Done                     04/24/2018 13:35:24
00019 suncat0005 pw.x -npool 4 -i  Done                     04/24/2018 13:35:24
00020 suncat0005 pw.x -npool 4 -i  Done                     04/24/2018 13:35:24
00021 suncat0005 pw.x -npool 4 -i  Done                     04/24/2018 13:35:24
00022 suncat0005 pw.x -npool 4 -i  Done                     04/24/2018 13:35:24
00023 suncat0005 pw.x -npool 4 -i  Done                     04/24/2018 13:35:24
00024 suncat0276 pw.x -npool 4 -i  Done                     04/24/2018 13:35:24
00025 suncat0276 pw.x -npool 4 -i  Done                     04/24/2018 13:35:24
00026 suncat0276 pw.x -npool 4 -i  Done                     04/24/2018 13:35:24
00027 suncat0276 pw.x -npool 4 -i  Done                     04/24/2018 13:35:24
00028 suncat0276 pw.x -npool 4 -i  Done                     04/24/2018 13:35:24
00029 suncat0276 pw.x -npool 4 -i  Done                     04/24/2018 13:35:24
00030 suncat0276 pw.x -npool 4 -i  Done                     04/24/2018 13:35:24
00031 suncat0276 pw.x -npool 4 -i  Done                     04/24/2018 13:35:24