     Program PWSCF v.5.1rc2 (svn rev. 11289) starts on  4May2018 at 10: 2:13

     Current dimensions of program PWSCF are:
     Max number of different atomic species (ntypx) = 10
     Max number of k-points (npk) =  40000
     Max angular momentum in pseudopotentials (lmaxx) =  3
     Presently stress not available with electric field

     IMPORTANT: XC functional enforced from input :
     Exchange-correlation      = BEEF-VDW ( 1  4 27 13 2)
     Any further DFT definition will be discarded
     Please, verify this is what you really want

     Subspace diagonalization in iterative solution of the eigenvalue problem:
     a serial algorithm will be used

     bravais-lattice index     =            0
     lattice parameter (alat)  =       1.8897  a.u.
     unit-cell volume          =    5144.9564 (a.u.)^3
     number of atoms/cell      =           13
     number of atomic types    =            2
     number of electrons       =       138.00
     number of Kohn-Sham states=           79
     kinetic-energy cutoff     =      36.7493  Ry
     charge density cutoff     =     367.4932  Ry
     convergence threshold     =      1.0E-05
     mixing beta               =       0.3000
     number of iterations used =           10  plain     mixing
     Exchange-correlation      = BEEF-VDW ( 1  4 27 13 2)
     nstep                     =           50

     celldm(1)=   1.889726  celldm(2)=   0.000000  celldm(3)=   0.000000
     celldm(4)=   0.000000  celldm(5)=   0.000000  celldm(6)=   0.000000

     crystal axes: (cart. coord. in units of alat)
               a(1) = (   5.950946   0.000000   0.000000 )
               a(2) = (   2.975473   5.153671   0.000000 )
               a(3) = (   0.000000   0.000000  24.858927 )

     reciprocal axes: (cart. coord. in units 2 pi/alat)
               b(1) = (  0.168040 -0.097018  0.000000 )
               b(2) = (  0.000000  0.194036  0.000000 )
               b(3) = (  0.000000  0.000000  0.040227 )

     PseudoPot. # 1 for Au read from file:
     /u/if/mamunm/psp/gbrv1.5pbe/Au.UPF
     MD5 check sum: 9d7f43293ad2c663164586bc4b293ffc
     Pseudo is Ultrasoft + core correction, Zval = 11.0
     Generated by new atomic code, or converted to UPF format
     Using radial grid of  985 points,  7 beta functions with:
                l(1) =   0
                l(2) =   0
                l(3) =   1
                l(4) =   1
                l(5) =   2
                l(6) =   2
                l(7) =   3
     Q(r) pseudized with  6 coefficients,  rinner =    1.900   1.900   1.900
                                                       1.900   1.900   1.900
                                                       1.900

     PseudoPot. # 2 for S  read from file:
     /u/if/mamunm/psp/gbrv1.5pbe/S.UPF
     MD5 check sum: 88d86576ff6df21479756cfb9bdac1df
     Pseudo is Ultrasoft + core correction, Zval =  6.0
     Generated by new atomic code, or converted to UPF format
     Using radial grid of  907 points,  6 beta functions with:
                l(1) =   0
                l(2) =   0
                l(3) =   1
                l(4) =   1
                l(5) =   2
                l(6) =   2
     Q(r) pseudized with  8 coefficients,  rinner =    1.300   1.300   1.300
                                                       1.300   1.300

     vdW kernel table read from file vdW_kernel_table
     MD5 check sum: 095c7af220d748ca6e76c0b4c6cfb241

     atomic species   valence    mass     pseudopotential
        Au1           11.00   196.96657     Au( 1.00)
        S1             6.00    32.06000     S ( 1.00)

     No symmetry found

   Cartesian axes

     site n.     atom                  positions (alat units)
         1           Au1 tau(   1) = (   1.4877366   0.8589451  10.0000000  )
         2           Au1 tau(   2) = (   4.4632098   0.8589451  10.0000000  )
         3           Au1 tau(   3) = (   2.9754732   3.4357805  10.0000000  )
         4           Au1 tau(   4) = (   5.9509464   3.4357805  10.0000000  )
         5           Au1 tau(   5) = (   5.9509464   1.7178903  12.4294637  )
         6           Au1 tau(   6) = (   2.9754732   1.7178903  12.4294637  )
         7           Au1 tau(   7) = (   7.4386830   4.2947256  12.4294637  )
         8           Au1 tau(   8) = (   4.4632098   4.2947256  12.4294637  )
         9           Au1 tau(   9) = (   0.0000000   0.0000000  14.8589274  )
        10           Au1 tau(  10) = (   2.9754732   0.0000000  14.8589274  )
        11           Au1 tau(  11) = (   1.4877366   2.5768354  14.8589274  )
        12           Au1 tau(  12) = (   4.4632098   2.5768354  14.8589274  )
        13           S1  tau(  13) = (   1.4877366   0.8589451  16.4254274  )

     number of k points=    20  Fermi-Dirac smearing, width (Ry)=  0.0110
                       cart. coord. in units 2pi/alat
        k(    1) = (   0.0000000   0.0000000   0.0000000), wk =   0.0555556
        k(    2) = (   0.0000000   0.0323394   0.0000000), wk =   0.1111111
        k(    3) = (   0.0000000   0.0646788   0.0000000), wk =   0.1111111
        k(    4) = (   0.0000000  -0.0970182   0.0000000), wk =   0.0555556
        k(    5) = (   0.0280067  -0.0161697   0.0000000), wk =   0.1111111
        k(    6) = (   0.0280067   0.0161697   0.0000000), wk =   0.1111111
        k(    7) = (   0.0280067   0.0485091   0.0000000), wk =   0.1111111
        k(    8) = (   0.0280067  -0.1131879   0.0000000), wk =   0.1111111
        k(    9) = (   0.0280067  -0.0808485   0.0000000), wk =   0.1111111
        k(   10) = (   0.0280067  -0.0485091   0.0000000), wk =   0.1111111
        k(   11) = (   0.0560135  -0.0323394   0.0000000), wk =   0.1111111
        k(   12) = (   0.0560135   0.0000000   0.0000000), wk =   0.1111111
        k(   13) = (   0.0560135   0.0323394   0.0000000), wk =   0.1111111
        k(   14) = (   0.0560135  -0.1293576   0.0000000), wk =   0.1111111
        k(   15) = (   0.0560135  -0.0970182   0.0000000), wk =   0.1111111
        k(   16) = (   0.0560135  -0.0646788   0.0000000), wk =   0.1111111
        k(   17) = (  -0.0840202   0.0485091   0.0000000), wk =   0.0555556
        k(   18) = (  -0.0840202   0.0808485   0.0000000), wk =   0.1111111
        k(   19) = (  -0.0840202   0.1131879   0.0000000), wk =   0.1111111
        k(   20) = (  -0.0840202  -0.0485091   0.0000000), wk =   0.0555556

     Largest allocated arrays     est. size (Mb)     dimensions
     Largest temporary arrays     est. size (Mb)     dimensions

     Check: negative/imaginary core charge=   -0.000002    0.000000

     Initial potential from superposition of free atoms

     starting charge  137.99850, renormalised to  138.00000

     negative rho (up, down):  6.785E-05 0.000E+00

     *
     * You are using vdW-DF for exchange-correlation in this calculation.
     * Please cite the following three references that made this development
     * possible:
     *
     *   M. Dion, H. Rydberg, E. Schroder, D. C. Langreth, and
     *   B. I. Lundqvist, Phys. Rev. Lett. 92, 246401 (2004).
     *
     *   T. Thonhauser, V. R. Cooper, S. Li, A. Puzder, P. Hyldgaard, and
     *   D. C. Langreth, Phys. Rev. B 76, 125112 (2007).
     *
     *   G. Roman-Perez and J. M. Soler, Phys. Rev. Lett. 103, 096102 (2009).
     *
     *
     * If you are using vdW-DF2, please also cite:
     *
     *   K. Lee, E. D. Murray, L. Kong, B. I. Lundqvist, and
     *   D. C. Langreth, Phys. Rev. B 82, 081101(R) (2010).
     *
     *
     * If you are calculating the stress with vdW-DF, please also cite:
     *
     *   R. Sabatini, E. Kucukbenli, B. Kolb, T. Thonhauser, and
     *   S. de Gironcoli, J. Phys.: Condens. Matter 24, 424209 (2012).
     *

     Carrying out vdW-DF run using the following parameters:

     Nqs =      20    Nr_points =    1024   r_max =   100.000
     q_mesh =
               0.00001000     0.04494208     0.09755937     0.15916263
               0.23128650     0.31572767     0.41458969     0.53033537
               0.66584808     0.82450364     1.01025438     1.22772762
               1.48234092     1.78043706     2.12944203     2.53805004
               3.01644009     3.57652955     4.23227104     5.00000000

     Gradients computed in reciprocal space

     Adding external electric field

     Computed dipole along edir(3) :
        Dipole               -0.0002 Ry au,         -0.0006 Debye
        Dipole field         -0.0000 Ry au

        Potential amp.        0.0000 Ry
        Total length         45.8022 bohr

     Starting wfc are  112 randomized atomic wfcs

     Self-consistent Calculation

     iteration #  1     ecut=    36.75 Ry     beta=0.30
     Davidson diagonalization with overlap
     ethr =  1.00E-02,  avg # of iterations =  2.3

     Threshold (ethr) on eigenvalues was too large:
     Diagonalizing with lowered threshold

     Davidson diagonalization with overlap
     ethr =  3.21E-04,  avg # of iterations =  3.5

[...]

     total energy              =   -1424.79028096 Ry
     Harris-Foulkes estimate   =   -1424.97612554 Ry
     estimated scf accuracy    <       0.51109290 Ry

[...]

     End of self-consistent calculation

          k = 0.0000 0.0000 0.0000 ( 19315 PWs)   bands (ev):

   -13.3082  -7.6728  -6.4219  -6.0313  -6.0243  -6.0243  -5.8581  -5.6882
    -5.6882  -5.6498  -5.3528  -5.3256  -5.3256  -5.1967  -5.1967  -5.1288
    -4.7420  -4.7420  -4.3234  -4.0924  -4.0924  -4.0379  -4.0011  -4.0010
    -3.8964  -3.8345  -3.8345  -3.6662  -3.6662  -3.5947  -3.4595  -3.4595
    -3.4284  -3.4284  -3.4224  -2.9701  -2.9161  -2.9161  -2.7428  -2.7072
    -2.6574  -2.6574  -2.3791  -2.3791  -2.3410  -2.3410  -1.9641  -1.9641
    -1.9216  -1.8440  -1.8440  -1.7965  -1.7714  -1.7713  -1.7452  -1.6437
    -1.6437  -1.5593  -1.5593  -1.5201  -1.2742  -1.2742  -1.2570  -1.2478
    -0.6444  -0.6444  -0.5007   0.9440   0.9440   1.0362   1.2925   1.6708
     1.6708   1.8443   2.0053   2.0053   2.8267   3.6272   3.6272

[...]

          k =-0.0840 0.0485 0.0000 ( 19380 PWs)   bands (ev):

[...]

     the Fermi energy is     0.3915 ev

!    total energy              =   -1424.89736962 Ry
     Harris-Foulkes estimate   =   -1424.89736998 Ry
     estimated scf accuracy    <       0.00000295 Ry

     The total energy is the sum of the following terms:

     one-electron contribution =   -8328.97180946 Ry
     hartree contribution      =    4262.87553528 Ry
     xc contribution           =    -777.01977901 Ry
     ewald contribution        =    3418.24521967 Ry
     electric field correction =       0.00000044 Ry
     smearing contrib. (-TS)   =      -0.02653655 Ry

     convergence has been achieved in  10 iterations

 BEEF-vdW xc energy contributions
           1 :   -694.284440544203
           2 :    645.190184704320
           3 :   -557.387696183549
           4 :    447.891523306317
           5 :   -335.108465469924
           6 :    234.106564940615
           7 :   -153.740296240103
           8 :    96.1382628324056
           9 :   -58.2944324433486
          10 :    34.7630671563211
          11 :   -20.2404934725294
          12 :    11.0764647624139
          13 :   -5.45336346585702
          14 :    2.61592100985251
          15 :   -1.88825707138005
          16 :    2.10359878952261
          17 :   -1.71274891042344
          18 :  -0.603131016075508
          19 :    5.25045904274350
          20 :   -11.4268032890562
          21 :    17.4142742920378
          22 :   -21.3424509159719
          23 :    22.0321530708878
          24 :   -19.5030088984246
          25 :    14.9093347805984
          26 :   -9.96974250543224
          27 :    6.19595557747732
          28 :   -4.31028412474063
          29 :    4.10652097248988
          30 :   -4.76902721861495
          31 :   -55.1168303102514
          32 :   -40.1596652013752

     Forces acting on atoms (Ry/au):

     negative rho (up, down):  1.706E-04 0.000E+00
     atom    1 type  1   force =    -0.00000212   -0.00000385    0.00006887
     atom    2 type  1   force =    -0.00000300    0.00015234   -0.00585866
     atom    3 type  1   force =     0.00013193   -0.00006882   -0.00583105
     atom    4 type  1   force =    -0.00013991   -0.00007799   -0.00588191
     atom    5 type  1   force =    -0.00121677    0.00070363   -0.00205182
     atom    6 type  1   force =     0.00122175    0.00071120   -0.00204946
     atom    7 type  1   force =     0.00000808    0.00000468    0.02425699
     atom    8 type  1   force =    -0.00000022   -0.00141576   -0.00204259
     atom    9 type  1   force =    -0.05063192   -0.02923756   -0.01502204
     atom   10 type  1   force =     0.05063559   -0.02922548   -0.01501866
     atom   11 type  1   force =    -0.00000303    0.05845488   -0.01502994
     atom   12 type  1   force =     0.00000062    0.00000116   -0.01573675
     atom   13 type  2   force =    -0.00000099    0.00000156    0.06019702

     Total force =     0.121663     Total SCF correction =     0.003010

     entering subroutine stress ...

     negative rho (up, down):  1.706E-04 0.000E+00
          total   stress  (Ry/bohr**3)                   (kbar)     P=    0.08
  -0.00002749   0.00000000   0.00000000         -4.04      0.00      0.00
   0.00000000  -0.00002749  -0.00000000          0.00     -4.04     -0.00
   0.00000000  -0.00000000   0.00005669          0.00     -0.00      8.34

     BFGS Geometry Optimization

     number of scf cycles    =   1
     number of bfgs steps    =   0

     energy   new            =   -1424.8973696250 Ry

     new trust radius        =       0.0603662791 bohr
     new conv_thr            =       0.0000099958 Ry

ATOMIC_POSITIONS (crystal)
Au1      0.166666667   0.166666667   0.402269971    0   0   0
Au1      0.666666667   0.166666667   0.402269971    0   0   0
Au1      0.166666667   0.666666667   0.402269971    0   0   0
Au1      0.666666667   0.666666667   0.402269971    0   0   0
Au1      0.833333333   0.333333333   0.500000000    0   0   0
Au1      0.333333333   0.333333333   0.500000000    0   0   0
Au1      0.833333333   0.833333333   0.500000000    0   0   0
Au1      0.333333333   0.833333333   0.500000000    0   0   0
Au1     -0.003001301  -0.003002103   0.597410252
Au1      0.506003111  -0.003000863   0.597410324
Au1     -0.003001334   0.506002128   0.597410084
Au1      0.499999995   0.500000119   0.597395038
S1       0.166666499   0.166666826   0.662027047

     Writing output data file calc.save
     NEW-OLD atomic charge density approx. for the potential

[...]

     Total force =     0.067457     Total SCF correction =     0.007754
     SCF correction compared to forces is large: reduce conv_thr to get better values

[...]

     energy   old            =   -1424.8973696250 Ry
     energy   new            =   -1424.9087608550 Ry

     CASE: energy  _new < energy  _old

[...]

     Total force =     0.003469     Total SCF correction =     0.000299

[...]

     number of scf cycles    =  11
     number of bfgs steps    =  10

     energy   old            =   -1424.9169770281 Ry
     energy   new            =   -1424.9170412052 Ry

     CASE: energy  _new < energy  _old

     new trust radius        =       0.0129840091 bohr
     new conv_thr            =       0.0000001000 Ry

ATOMIC_POSITIONS (crystal)
Au1      0.166666667   0.166666667   0.402269971    0   0   0
Au1      0.666666667   0.166666667   0.402269971    0   0   0
Au1      0.166666667   0.666666667   0.402269971    0   0   0
Au1      0.666666667   0.666666667   0.402269971    0   0   0
Au1      0.833333333   0.333333333   0.500000000    0   0   0
Au1      0.333333333   0.333333333   0.500000000    0   0   0
Au1      0.833333333   0.833333333   0.500000000    0   0   0
Au1      0.333333333   0.833333333   0.500000000    0   0   0
Au1     -0.008929418  -0.008929933   0.599817367
Au1      0.517859411  -0.008929605   0.599817349
Au1     -0.008929678   0.517859290   0.599817258
Au1      0.500000081   0.499999998   0.592439733
S1       0.166666700   0.166666667   0.663679001

     Writing output data file calc.save
     NEW-OLD atomic charge density approx. for the potential

     Check: negative/imaginary core charge=   -0.000002    0.000000

[...]

     Self-consistent Calculation

[...]

     Threshold (ethr) on eigenvalues was too large:
     Diagonalizing with lowered threshold

     Davidson diagonalization with overlap
     ethr =  1.35E-08,  avg # of iterations =  1.9

[...]

     total energy              =   -1424.91706086 Ry
     Harris-Foulkes estimate   =   -1424.91706089 Ry
     estimated scf accuracy    <       0.00000013 Ry

     iteration #  6     ecut=    36.75 Ry     beta=0.30
     Davidson diagonalization with overlap
     ethr =  9.08E-11,  avg # of iterations =  2.1

[...]

     negative rho (up, down):  1.675E-04 0.000E+00

     Adding external electric field

     Computed dipole along edir(3) :
        Dipole               -0.0779 Ry au,         -0.1981 Debye
        Dipole field         -0.0002 Ry au

        Potential amp.        0.0174 Ry
        Total length         45.8022 bohr

     End of self-consistent calculation

[...]

          k = 0.0560-0.0647 0.0000 ( 19376 PWs)   bands (ev):

[...]

          k =-0.0840-0.0485 0.0000 ( 19380 PWs)   bands (ev):

   -12.7291  -6.5176  -6.2936  -5.7080  -5.3338  -5.2047  -5.1938  -5.1304
    -5.0245  -4.9941  -4.9940  -4.8797  -4.8037  -4.6644  -4.6059  -4.5727
    -4.5542  -4.4124  -4.4043  -4.2861  -4.2660  -4.1759  -4.1550  -4.1425
    -4.0602  -4.0384  -3.9001  -3.8169  -3.7349  -3.6960  -3.5528  -3.5005
    -3.4779  -3.3963  -3.3680  -3.3648  -3.2853  -3.2799  -3.2625  -3.1817
    -3.1712  -3.0620  -3.0259  -2.9658  -2.9219  -2.8561  -2.8468  -2.7917
    -2.7073  -2.6386  -2.6227  -2.5454  -2.5137  -2.3551  -2.3163  -2.2912
    -2.2582  -2.1886  -1.9917  -1.8584  -1.8582  -1.7987  -1.7340  -1.6336
    -1.5734  -0.9737  -0.6842  -0.1943   0.3029   0.3798   0.9519   1.2114
     1.8041   2.4326   3.4572   3.8428   4.0948   4.6250   5.4199

     the Fermi energy is     0.3273 ev

!    total energy              =   -1424.91706086 Ry
     Harris-Foulkes estimate   =   -1424.91706081 Ry
     estimated scf accuracy    <       0.00000007 Ry

     The total energy is the sum of the following terms:

     one-electron contribution =   -8304.02122216 Ry
     hartree contribution      =    4250.32824883 Ry
     xc contribution           =    -776.96173532 Ry
     ewald contribution        =    3405.76334236 Ry
     electric field correction =       0.00001483 Ry
     smearing contrib. (-TS)   =      -0.02570940 Ry

     convergence has been achieved in   6 iterations

 BEEF-vdW xc energy contributions
           1 :   -694.224068324272
           2 :    645.094976018353
           3 :   -557.242234853318
           4 :    447.705941654651
           5 :   -334.910673137677
           6 :    233.927903488832
           7 :   -153.602442956937
           8 :    96.0466732009949
           9 :   -58.2401961947359
          10 :    34.7315479101494
          11 :   -20.2215547191075
          12 :    11.0702253798570
          13 :   -5.46773542146525
          14 :    2.65884386174127
          15 :   -1.96077201705498
          16 :    2.19805988135442
          17 :   -1.81639405272335
          18 :  -0.502971574671619
          19 :    5.16319402145632
          20 :   -11.3584892739507
          21 :    17.3702740840238
          22 :   -21.3292957402132
          23 :    22.0555933862888
          24 :   -19.5622930995305
          25 :    14.9912553094525
          26 :   -10.0481201843157
          27 :    6.24041325556311
          28 :   -4.30113148695818
          29 :    4.04834900417245
          30 :   -4.69350400480630
          31 :   -55.1127691960673
          32 :   -40.1453883958691

     Forces acting on atoms (Ry/au):

     negative rho (up, down):  1.675E-04 0.000E+00
     atom    1 type  1   force =    -0.00000001    0.00000001    0.00137771
     atom    2 type  1   force =    -0.00000002    0.00017210   -0.00615413
     atom    3 type  1   force =     0.00014905   -0.00008601   -0.00615410
     atom    4 type  1   force =    -0.00014906   -0.00008600   -0.00615412
     atom    5 type  1   force =     0.00576471   -0.00332833   -0.00132222
     atom    6 type  1   force =    -0.00576466   -0.00332834   -0.00132227
     atom    7 type  1   force =     0.00000003    0.00000002    0.01808853
     atom    8 type  1   force =    -0.00000001    0.00665654   -0.00132225
     atom    9 type  1   force =    -0.00070127   -0.00040469    0.00034433
     atom   10 type  1   force =     0.00070118   -0.00040486    0.00034449
     atom   11 type  1   force =    -0.00000000    0.00080947    0.00034501
     atom   12 type  1   force =     0.00000004   -0.00000009    0.00114867
     atom   13 type  2   force =     0.00000002    0.00000019    0.00078036

     Total force =     0.002062     Total SCF correction =     0.001098
     SCF correction compared to forces is large: reduce conv_thr to get better values

     entering subroutine stress ...

     negative rho (up, down):  1.675E-04 0.000E+00
          total   stress  (Ry/bohr**3)                   (kbar)     P=   -3.48
  -0.00004396   0.00000000  -0.00000000         -6.47      0.00     -0.00
   0.00000000  -0.00004396   0.00000000          0.00     -6.47      0.00
  -0.00000000   0.00000000   0.00001700         -0.00      0.00      2.50

     bfgs converged in  12 scf cycles and  11 bfgs steps
     (criteria: energy <  1.0E+00, force <  1.9E-03)

     End of BFGS Geometry Optimization

     Final energy   =   -1424.9170608597 Ry
Begin final coordinates

ATOMIC_POSITIONS (crystal)
Au1      0.166666667   0.166666667   0.402269971    0   0   0
Au1      0.666666667   0.166666667   0.402269971    0   0   0
Au1      0.166666667   0.666666667   0.402269971    0   0   0
Au1      0.666666667   0.666666667   0.402269971    0   0   0
Au1      0.833333333   0.333333333   0.500000000    0   0   0
Au1      0.333333333   0.333333333   0.500000000    0   0   0
Au1      0.833333333   0.833333333   0.500000000    0   0   0
Au1      0.333333333   0.833333333   0.500000000    0   0   0
Au1     -0.008929418  -0.008929933   0.599817367
Au1      0.517859411  -0.008929605   0.599817349
Au1     -0.008929678   0.517859290   0.599817258
Au1      0.500000081   0.499999998   0.592439733
S1       0.166666700   0.166666667   0.663679001
End final coordinates

     Writing output data file calc.save

     General routines

     Parallel routines

   This run was terminated on:  11:23:33   4May2018

   JOB DONE.
Job  /afs/slac/g/suncat/bin/suncat-tsmpirun -x LD_LIBRARY_PATH -wdir /scratch/qe930392_1g6FY pw.x -npool 4 -in pw.inp

TID   HOST_NAME   COMMAND_LINE            STATUS            TERMINATION_TIME
00000 suncat0095 pw.x -npool 4 -i  Done                     05/04/2018 11:23:33
00001 suncat0095 pw.x -npool 4 -i  Done                     05/04/2018 11:23:33
00002 suncat0095 pw.x -npool 4 -i  Done                     05/04/2018 11:23:33
00003 suncat0095 pw.x -npool 4 -i  Done                     05/04/2018 11:23:33
00004 suncat0095 pw.x -npool 4 -i  Done                     05/04/2018 11:23:33
00005 suncat0095 pw.x -npool 4 -i  Done                     05/04/2018 11:23:33
00006 suncat0095 pw.x -npool 4 -i  Done                     05/04/2018 11:23:33
00007 suncat0095 pw.x -npool 4 -i  Done                     05/04/2018 11:23:33
00008 suncat0084 pw.x -npool 4 -i  Done                     05/04/2018 11:23:33
00009 suncat0084 pw.x -npool 4 -i  Done                     05/04/2018 11:23:33
00010 suncat0084 pw.x -npool 4 -i  Done                     05/04/2018 11:23:33
00011 suncat0084 pw.x -npool 4 -i  Done                     05/04/2018 11:23:33
00012 suncat0084 pw.x -npool 4 -i  Done                     05/04/2018 11:23:33
00013 suncat0084 pw.x -npool 4 -i  Done                     05/04/2018 11:23:33
00014 suncat0084 pw.x -npool 4 -i  Done                     05/04/2018 11:23:33
00015 suncat0084 pw.x -npool 4 -i  Done                     05/04/2018 11:23:33
00016 suncat0071 pw.x -npool 4 -i  Done                     05/04/2018 11:23:33
00017 suncat0071 pw.x -npool 4 -i  Done                     05/04/2018 11:23:33
00018 suncat0071 pw.x -npool 4 -i  Done                     05/04/2018 11:23:33
00019 suncat0071 pw.x -npool 4 -i  Done                     05/04/2018 11:23:33
00020 suncat0071 pw.x -npool 4 -i  Done                     05/04/2018 11:23:33
00021 suncat0071 pw.x -npool 4 -i  Done                     05/04/2018 11:23:33
00022 suncat0071 pw.x -npool 4 -i  Done                     05/04/2018 11:23:33
00023 suncat0071 pw.x -npool 4 -i  Done                     05/04/2018 11:23:33
00024 suncat0140 pw.x -npool 4 -i  Done                     05/04/2018 11:23:33
00025 suncat0140 pw.x -npool 4 -i  Done                     05/04/2018 11:23:33
00026 suncat0140 pw.x -npool 4 -i  Done                     05/04/2018 11:23:33
00027 suncat0140 pw.x -npool 4 -i  Done                     05/04/2018 11:23:33
00028 suncat0140 pw.x -npool 4 -i  Done                     05/04/2018 11:23:33
00029 suncat0140 pw.x -npool 4 -i  Done                     05/04/2018 11:23:33
00030 suncat0140 pw.x -npool 4 -i  Done                     05/04/2018 11:23:33
00031 suncat0140 pw.x -npool 4 -i  Done                     05/04/2018 11:23:33